
units lj                  # Use reduced LJ style units
atom_style atomic         # Uncharged point particles
atom_modify map hash      # Needed for indexing of clusters etc
                          # Used to be able to find where atoms are in relation to each other.

lattice fcc 1.0 spacing 1 1 1
Lattice spacing in x,y,z = 1.5874011 1.5874011 1.5874011
region box block 0 10 0 10 0 10 units lattice
create_box 2 box
Created orthogonal box = (0.0000000 0.0000000 0.0000000) to (15.874011 15.874011 15.874011)
  3 by 4 by 4 MPI processor grid
create_atoms 1 box
Created 4000 atoms
  using lattice units in orthogonal box = (0.0000000 0.0000000 0.0000000) to (15.874011 15.874011 15.874011)
  create_atoms CPU = 0.015 seconds
set type 1 type/fraction 2 0.09 78393
Setting atom values ...
  390 settings made for type/fraction
mass 1 1.0
mass 2 1.0
pair_style lj/cut  3.5
pair_modify tail  yes
pair_coeff 1  1  1.0  1.0   # Intearaction between 1 and 1 set with epsilon = 1 and sigma = 1
pair_coeff 1  2  1.5  0.8
pair_coeff 2  2  0.5  0.88

write_data data.0
System init for write_data ...
Neighbor list info ...
  update every 1 steps, delay 10 steps, check yes
  max neighbors/atom: 2000, page size: 100000
  master list distance cutoff = 3.8
  ghost atom cutoff = 3.8
  binsize = 1.9, bins = 9 9 9
  1 neighbor lists, perpetual/occasional/extra = 1 0 0
  (1) pair lj/cut, perpetual
      attributes: half, newton on
      pair build: half/bin/atomonly/newton
      stencil: half/bin/3d
      bin: standard
WARNING: Not all mixed pair coeffs generated from mixing. Use write_data with 'pair ij' option to store all pair coeffs. (../write_data.cpp:312)


#############################
#   M E L T   S Y S T E M   #
#############################

velocity all create 2.4 5300450 mom yes dist gaussian # Assign velocities
                                                    # Temperature 2.4, random number seed, zero linear momentum
                                                                                # Gaussian distribution

timestep 0.002   # simulation timestep
thermo 1000       # output thermodynamic data every 1000 steps bf 100

# Define a fix  in this case with index 1 applied to all
# particles in the simulation. This fix is for simulations
# in the anisotropic NPT ensemble. Note that we use the MTK
# correction.
fix 1 all npt temp 2.4 2.4 0.1 iso 5.68 5.68 0.5 mtk yes tchain 5 pchain 5 # Use NPT ensemble
                                                                         # Set temperature and pressure and damping
                                                                         # Numbers of thermostats in chain and in barostat
run 10000          # run for 10000 steps
Per MPI rank memory allocation (min/avg/max) = 3.642 | 3.644 | 3.648 Mbytes
Step Temp E_pair E_mol TotEng Press Volume 
       0          2.4   -7.7460071            0   -4.1469071   -2.9736732         4000 
    1000    2.4270667   -4.5560655            0  -0.91637555    5.6597456     4894.711 
    2000    2.3746124   -4.5792469            0   -1.0182188    5.6529673    4870.6303 
    3000    2.4429762   -4.6443379            0  -0.98078969    5.5476808    4853.0542 
    4000     2.385015   -4.6065893            0   -1.0299611    5.6913324    4853.6875 
    5000    2.4201907   -4.5745615            0  -0.94518307    5.6111757    4888.4783 
    6000    2.3771066     -4.64503            0   -1.0802615    5.8269118     4816.429 
    7000    2.4132237   -4.6160451            0  -0.99711459    5.6618883    4858.0696 
    8000    2.3836772   -4.5885234            0   -1.0139015    5.7656191    4856.1992 
    9000    2.4213564   -4.5692513            0  -0.93812481    5.7698143     4870.715 
   10000    2.3692901   -4.5330933            0  -0.98004667    6.0689577    4841.7826 
Loop time of 2.12925 on 48 procs for 10000 steps with 4000 atoms

Performance: 811553.937 tau/day, 4696.493 timesteps/s
99.6% CPU use with 48 MPI tasks x no OpenMP threads

MPI task timing breakdown:
Section |  min time  |  avg time  |  max time  |%varavg| %total
---------------------------------------------------------------
Pair    | 0.8988     | 0.95307    | 1.0135     |   2.5 | 44.76
Neigh   | 0.19015    | 0.19615    | 0.20857    |   0.9 |  9.21
Comm    | 0.67307    | 0.73922    | 0.80355    |   3.4 | 34.72
Output  | 0.00023806 | 0.00024483 | 0.00030638 |   0.0 |  0.01
Modify  | 0.20526    | 0.22617    | 0.26978    |   3.3 | 10.62
Other   |            | 0.01439    |            |       |  0.68

Nlocal:        83.3333 ave          92 max          76 min
Histogram: 3 4 3 11 3 12 7 2 1 2
Nghost:        1447.10 ave        1474 max        1415 min
Histogram: 1 1 3 7 5 13 10 3 2 3
Neighs:        7873.54 ave        8981 max        6842 min
Histogram: 2 4 3 7 8 9 7 6 1 1

Total # of neighbors = 377930
Ave neighs/atom = 94.482500
Neighbor list builds = 904
Dangerous builds = 194

# Equilibrate just above the melting temperature to avoid step fn in T

fix 1 all npt temp 1.25 1.25 0.1 iso 5.68 5.68 0.5 mtk yes tchain 5 pchain 5
run 2000
Per MPI rank memory allocation (min/avg/max) = 3.642 | 3.644 | 3.648 Mbytes
Step Temp E_pair E_mol TotEng Press Volume 
   10000    2.3692901   -4.5330933            0  -0.98004667    6.0689577    4841.7826 
   11000    1.2686752   -6.1469935            0   -4.2444565     5.613149    4028.1199 
   12000    1.2197961   -6.1664561            0   -4.3372193    5.6761169    4014.3291 
Loop time of 0.470557 on 48 procs for 2000 steps with 4000 atoms

Performance: 734448.459 tau/day, 4250.280 timesteps/s
99.7% CPU use with 48 MPI tasks x no OpenMP threads

MPI task timing breakdown:
Section |  min time  |  avg time  |  max time  |%varavg| %total
---------------------------------------------------------------
Pair    | 0.20675    | 0.22291    | 0.23812    |   1.6 | 47.37
Neigh   | 0.03152    | 0.033075   | 0.035032   |   0.5 |  7.03
Comm    | 0.14803    | 0.16293    | 0.1818     |   2.0 | 34.62
Output  | 4.8897e-05 | 5.1207e-05 | 6.4555e-05 |   0.0 |  0.01
Modify  | 0.042018   | 0.04722    | 0.051019   |   0.9 | 10.03
Other   |            | 0.004369   |            |       |  0.93

Nlocal:        83.3333 ave          92 max          75 min
Histogram: 1 1 9 4 11 13 2 1 5 1
Nghost:        1637.81 ave        1664 max        1620 min
Histogram: 3 4 12 4 10 5 4 5 0 1
Neighs:        9502.71 ave       10675 max        8385 min
Histogram: 2 0 7 10 9 8 3 4 2 3

Total # of neighbors = 456130
Ave neighs/atom = 114.03250
Neighbor list builds = 143
Dangerous builds = 13

#############################
# L I N E A R  Q U E N C H  #
#############################

# Define solid atoms. This closely follows ten Wolde  Ruiz-Montero and Frenkel  Faraday Discuss  1996  104  93-110
# Compute components of the per-atom q6 vector
compute q6 all orientorder/atom degrees 1 6 components 6 nnn NULL cutoff 1.3 # compute the Q6 parameter.
                                                                             # Use all neighbours within 1.3 unit cell.

# get number of connections
compute coord_number all coord/atom orientorder q6 0.5

# An atom is solid if it has 8 or more connections (of a possible 14)
variable is_solid atom c_coord_number>=8
group solid dynamic all var is_solid    # Must be dynamic to update
dynamic group solid defined

# do clustering
compute cluster solid cluster/atom 1.3 # Create a cluster where all atoms within are solid and max 1.3 units from another member

# define chunks one chunk per cluster
compute clus_chunks solid chunk/atom c_cluster nchunk every compress yes  # Says which atoms are in which chunk

# count the size of each chunk
compute size_chunks solid property/chunk clus_chunks count


# Find the maximum entry in the vector of chunk sizes
variable max_n equal max(c_size_chunks)


# Thermo style which includes this variable
# thermo_style custom step temp pe vol v_max_n

thermo ${N}  # Print the thermo information every 100 steps
thermo 1000  

# Reset the npt fix at a lower temperature (below freezing)
fix 1  all npt temp  ${temp} ${temp}  0.1  iso  5.68  5.68  0.5  mtk yes tchain  5  pchain  5
fix 1  all npt temp  0.45 ${temp}  0.1  iso  5.68  5.68  0.5  mtk yes tchain  5  pchain  5
fix 1  all npt temp  0.45 0.45  0.1  iso  5.68  5.68  0.5  mtk yes tchain  5  pchain  5

dump dmp2 all dcd ${N} traj.dcd
dump dmp2 all dcd 1000 traj.dcd


compute msd all msd com yes
variable twopoint equal c_msd[4]/6/(step*dt+1.0e-6)
fix 9 all vector 10 c_msd[4]
variable fit equal slope(f_9)/6/(10*dt)
thermo_style custom step temp pe c_msd[4] v_twopoint v_fit v_max_n

fix 1 all npt temp 1.25 ${temp} 0.1 iso 5.68 5.68 0.5 mtk yes tchain 5 pchain 5
fix 1 all npt temp 1.25 0.45 0.1 iso 5.68 5.68 0.5 mtk yes tchain 5 pchain 5
run 5000000 # 5000000  # Run for this many steps
Neighbor list info ...
  update every 1 steps, delay 10 steps, check yes
  max neighbors/atom: 2000, page size: 100000
  master list distance cutoff = 3.8
  ghost atom cutoff = 3.8
  binsize = 1.9, bins = 9 9 9
  4 neighbor lists, perpetual/occasional/extra = 1 3 0
  (1) pair lj/cut, perpetual
      attributes: half, newton on
      pair build: half/bin/atomonly/newton
      stencil: half/bin/3d
      bin: standard
  (2) compute orientorder/atom, occasional
      attributes: full, newton on
      pair build: full/bin/atomonly
      stencil: full/bin/3d
      bin: standard
  (3) compute coord/atom, occasional
      attributes: full, newton on
      pair build: full/bin/atomonly
      stencil: full/bin/3d
      bin: standard
  (4) compute cluster/atom, occasional
      attributes: full, newton on
      pair build: full/bin/atomonly
      stencil: full/bin/3d
      bin: standard
Per MPI rank memory allocation (min/avg/max) = 9.748 | 9.753 | 9.758 Mbytes
Step Temp PotEng c_msd[4] v_twopoint v_fit v_max_n 
   12000    1.2197961   -6.1664561 1.8613173e-30 1.2925814e-32 8.3333333e+20            2 
   13000    1.2705732   -6.1699298   0.55946724 0.0035863283  0.045496939            3 
   14000    1.2463852   -6.1799401    1.0652014 0.0063404842  0.044063211            3 
   15000    1.2514349   -6.1620897    1.5971013 0.0088727848  0.043776295            4 
   16000    1.2451302    -6.187335    2.1217353  0.011050704  0.043959229            3 
   17000    1.2569684   -6.1802696    2.6726082   0.01310102  0.043834155            2 
   18000    1.2499548   -6.1803318     3.231686  0.014961509  0.044005694            1 
   19000    1.2294275   -6.1753908    3.7653423  0.016514659  0.044615795            1 
   20000    1.2575837   -6.1928382    4.3064121  0.017943383  0.044751089            3 
   21000    1.2540631   -6.1833875    4.8681688   0.01931813  0.044903646            5 
   22000    1.2435202   -6.1857849    5.4553176  0.020664081  0.045174758            2 
   23000    1.2502084   -6.2334436     6.058936  0.021952666  0.045427811            2 
   24000    1.2802732   -6.1706958    6.6344426  0.023036258    0.0456773            2 
   25000    1.2653335   -6.1539674     7.256603  0.024188676  0.046027691            3 
   26000    1.2658086   -6.1658987     7.721315  0.024747804  0.046212374            2 
   27000    1.2652686   -6.1719525    8.3960779   0.02591382  0.046364692            2 
   28000    1.2500023   -6.1555925    8.8338231   0.02629114  0.046422742            3 
   29000    1.2134158   -6.1637172    9.3853776  0.026969476  0.046409121            3 
   30000    1.2643683   -6.1881068    9.8856293  0.027460081  0.046347846            2 
   31000    1.2723169   -6.2131602    10.318337  0.027737465  0.046202681            3 
   32000     1.221669   -6.1881134    10.902561  0.028392086  0.046023832            3 
   33000    1.2737329   -6.1505797    11.439986  0.028888853   0.04592925            3 
   34000    1.2266778   -6.1733113     12.00428  0.029422255  0.045832065            2 
   35000    1.2660982   -6.1802489    12.655043  0.030131054  0.045817363            3 
   36000    1.2370885   -6.1999695    13.168957  0.030483696  0.045873379            3 
   37000     1.233834   -6.1702029    13.738995  0.030943683   0.04583611            4 
   38000    1.2385246   -6.1882912    14.448686  0.031685715  0.045891745            2 
   39000    1.2625069   -6.1619395    15.073388  0.032208093  0.046019966            2 
   40000    1.2585441   -6.1875964     15.61405   0.03252927   0.04615496            2 
   41000    1.2613962   -6.1455589    16.191085  0.032908709  0.046249969            1 
   42000      1.25174   -6.2083737    16.777194  0.033288082  0.046352209            1 
   43000    1.2607615   -6.1984296    17.329948  0.033585171  0.046451966            1 
   44000    1.2228336   -6.2166857    17.743717  0.033605525  0.046478628            4 
   45000    1.2329601   -6.1630044    18.257637  0.033810439   0.04646176            3 
   46000     1.194551   -6.1577255    18.764946  0.033994468  0.046428122            5 
   47000    1.2456156   -6.1827148    19.050257   0.03377705  0.046336469            3 
   48000    1.2526629   -6.1911294    19.776633  0.034334432  0.046247989            2 
   49000      1.26317   -6.1757698     20.41036  0.034711496  0.046223381            1 
   50000    1.2507204   -6.1768304    21.058626   0.03509771  0.046238028            2 
   51000    1.2280832   -6.1424911    21.522913  0.035168159  0.046234725            3 
   52000    1.2438272   -6.2147471    21.886852  0.035075082  0.046187263            3 
   53000    1.2337801   -6.1923814    22.490896  0.035363043  0.046122803            3 
   54000    1.2540145   -6.2365775    22.888724  0.035322105  0.046055655            4 
   55000    1.2645872   -6.1188855    23.595563  0.035750853  0.045992007            2 
   56000    1.2691537   -6.1738904    24.196312  0.036006416  0.045966271            7 
   57000    1.2228315   -6.1614692    24.719805  0.036140065  0.045943591            1 
   58000    1.2537494   -6.2117001    25.161256  0.036151229  0.045905902            3 
   59000    1.2767413   -6.2025755    25.651989  0.036231622  0.045869506            3 
   60000    1.2638675   -6.1928444    26.128959  0.036290221  0.045810603            4 
   61000    1.2319233   -6.1999717    26.744715  0.036536496  0.045761116            4 
   62000    1.2321685   -6.1847817    27.012235  0.036306767  0.045698176            2 
   63000    1.2397481   -6.2165868      27.7253  0.036673677  0.045633687            2 
   64000    1.2139313   -6.2333564    28.152732  0.036657202  0.045582039            2 
   65000    1.2676773   -6.1914711    28.849626  0.036986699  0.045532024            4 
   66000    1.2487638   -6.1476587     29.56002  0.037323257  0.045529936            1 
   67000    1.2256439   -6.1907841    30.081331   0.03741459  0.045525389            2 
   68000    1.2444319   -6.2085792     30.48447  0.037358419  0.045515828            1 
   69000    1.2157623   -6.1974727    30.942733   0.03737045  0.045488195            2 
   70000    1.2644188   -6.1697332    31.689683  0.037725813  0.045462244            4 
   71000    1.2564754   -6.2337164     31.92914  0.037475516  0.045446155            2 
   72000    1.2409635   -6.2365961    32.246471  0.037322304  0.045387587            2 
   73000    1.2383941   -6.2119785    32.743368  0.037378274  0.045313699            5 
   74000    1.2429776    -6.245852    33.193416  0.037379973  0.045244537            2 
   75000    1.2329003   -6.2132898    33.901264   0.03766807  0.045179074            3 
   76000    1.2318145   -6.1423545    34.424953  0.037746659   0.04511948            4 
   77000    1.2566665   -6.2096168    34.877023  0.037745695  0.045058999            2 
   78000     1.254215   -6.1790246    35.278981  0.037691218  0.045002688            2 
   79000    1.2205624   -6.2025803    35.690961  0.037648692  0.044933335            2 
   80000    1.2205203   -6.1887845    36.021285  0.037522171  0.044858224            3 
   81000    1.2382806   -6.2122053     36.68603  0.037742829  0.044784295            2 
   82000    1.2691703   -6.2007849    37.155839  0.037759998  0.044720728            2 
   83000    1.2443897   -6.1728853     37.78615  0.037937901   0.04465502            1 
   84000    1.2293986   -6.2408584    38.162047  0.037859173  0.044595402            2 
   85000    1.2495359   -6.2143351    38.632118  0.037874626   0.04453059            1 
   86000     1.198054   -6.2017503    38.989157  0.037780191  0.044461772            9 
   87000    1.2427857   -6.1556788    39.639247  0.037968627  0.044395781            5 
   88000    1.2396753   -6.2195893    40.247831  0.038113476   0.04433767            2 
   89000    1.2235102    -6.196968    40.604612    0.0380193  0.044286583            2 
   90000    1.2315397   -6.1774838    41.287632  0.038229288  0.044241066            3 
   91000    1.2604921   -6.1502515    41.709741  0.038195733  0.044197001            3 
   92000    1.2187487    -6.225433    42.228437  0.038250395  0.044147258            6 
   93000     1.229712   -6.2146487    42.474132  0.038059258  0.044091916            2 
   94000    1.2271498   -6.1852253     43.01335  0.038132402  0.044039815            3 
   95000    1.2326424   -6.2260923    43.671662  0.038308475  0.043996449            2 
   96000    1.2413613   -6.1928438     44.18582  0.038355747  0.043951571            3 
   97000    1.2342442   -6.2205704    44.471448  0.038205711  0.043893532            4 
   98000     1.231579   -6.1962299    44.936762  0.038211532  0.043836076            2 
   99000    1.2847144   -6.1919403    45.603459   0.03838675   0.04378592            4 
  100000    1.2109726   -6.1986696    46.125344  0.038437787  0.043745273            2 
  101000    1.2270404    -6.226059    46.759291  0.038580273  0.043708034            2 
  102000    1.2579277   -6.2124311    47.214295   0.03857377  0.043668275            3 
  103000    1.2550278   -6.1707079    47.702565  0.038594308  0.043627445            2 
  104000    1.2365883   -6.2227159    48.294838  0.038697786  0.043592072            3 
  105000    1.2388509   -6.2481799    48.444529  0.038448039  0.043556379            4 
  106000    1.2277964   -6.1890888    49.064847  0.038572993  0.043515951            3 
  107000    1.2356318   -6.2153994    49.434559  0.038500435   0.04347309            3 
  108000    1.2422283   -6.1934021    50.063941  0.038629584  0.043436503            2 
  109000    1.2405551   -6.1661293    50.660944  0.038731608  0.043403263            2 
  110000    1.2157074     -6.17879    51.037663  0.038664896  0.043375233            2 
  111000    1.2168437   -6.2189082    51.861569  0.038935112  0.043350995            4 
  112000     1.239695     -6.21354      52.3614  0.038959375  0.043333525            4 
  113000    1.2330321   -6.1816601    52.968191  0.039062088  0.043313279            1 
  114000    1.2448558   -6.1914932    53.413115  0.039044675  0.043297145            1 
  115000    1.2263959   -6.1805671    53.804167  0.038988527  0.043275193            4 
  116000    1.2371985   -6.1783194    54.105833  0.038869132  0.043249274            6 
  117000    1.2166352   -6.1510367    54.914291  0.039112743  0.043225345            2 
  118000    1.2303642   -6.2418863    55.314752   0.03906409  0.043205246            3 
  119000    1.2490639   -6.2400289    55.815125  0.039086222  0.043185102            2 
  120000    1.2167361   -6.2116156    56.255181  0.039066098  0.043165361            2 
  121000    1.2369093   -6.1827307    56.639568  0.039007967  0.043141659            2 
  122000    1.2312959   -6.1963733    56.686003  0.038719947  0.043105443            3 
  123000    1.2319008   -6.2126812    57.318286  0.038833527  0.043068003            1 
  124000    1.2327348   -6.2335729    57.532787  0.038664507  0.043029649            2 
  125000    1.2017066   -6.1880575    58.274034  0.038849356  0.042987945            3 
  126000    1.2464618   -6.1784462    58.785631  0.038879385   0.04295459            2 
  127000    1.2528464   -6.2020577    59.320204  0.038924018  0.042920766            2 
  128000     1.220271   -6.2521274    59.545984  0.038766917  0.042886406            2 
  129000    1.2196397   -6.1573711    60.086385  0.038815494  0.042849094            4 
  130000      1.24176   -6.2157843    60.762936    0.0389506  0.042818099            3 
  131000    1.2593349    -6.195567    61.187933  0.038923621   0.04278892            4 
  132000    1.2474246   -6.2282616    61.429231   0.03878108  0.042754474            2 
  133000    1.2236896     -6.22168    61.933896  0.038805699  0.042716222            2 
  134000    1.2167924    -6.222581    62.510962  0.038874976  0.042679292            2 
  135000    1.2192444   -6.1831873    63.249091  0.039042648  0.042645989            3 
  136000    1.2162798   -6.2235894    63.500828  0.038909821  0.042621846            4 
  137000    1.2267819   -6.1940693    64.341859  0.039137383  0.042600117            9 
  138000     1.260638   -6.2358583    64.927212  0.039207253  0.042578594            6 
  139000    1.2537991   -6.2315817    65.114906  0.039037713  0.042563861            2 
  140000    1.2358045   -6.2402413    66.153397  0.039377022  0.042548713            2 
  141000    1.2315556   -6.2001151    66.550586  0.039332497  0.042538702            2 
  142000    1.2088575   -6.2032907    67.109056  0.039383249  0.042524948            6 
  143000    1.2542521   -6.2311825    67.547658  0.039363437  0.042515625            2 
  144000    1.2495334   -6.2020869    68.166802  0.039448381  0.042505065            1 
  145000    1.2421206   -6.2136217    68.275266  0.039238659  0.042488636            3 
  146000    1.2453171   -6.2339039    68.725432  0.039226845  0.042466614            4 
  147000     1.258964   -6.1902455    69.355773  0.039317332   0.04244773            2 
  148000    1.2067655   -6.2283246     69.53945  0.039155096  0.042425234            2 
  149000     1.207874    -6.246096     70.18346  0.039252494  0.042402914            2 
  150000    1.2328208   -6.2047506    70.783639  0.039324244  0.042386969            3 
  151000    1.2279984   -6.2295605     71.35929  0.039381506  0.042375218            2 
  152000    1.2280075   -6.2366425     72.33245  0.039655948  0.042367233            1 
  153000     1.230689   -6.2496031    72.676019  0.039583888  0.042362714            3 
  154000    1.2245664   -6.2059674    73.259313  0.039642485   0.04236081            3 
  155000    1.2137005   -6.2295999    73.595173  0.039567297  0.042355524            3 
  156000    1.2414011   -6.1950845    74.666699  0.039886057   0.04235312            2 
  157000    1.2521472   -6.2345307    74.891125  0.039751128   0.04235443            3 
  158000    1.2292681   -6.2334317    75.366336  0.039750177   0.04235481            2 
  159000    1.2348413   -6.2263424    75.812932  0.039734241  0.042353872            2 
  160000    1.2237351   -6.2029032    76.378963   0.03978071  0.042353325            3 
  161000    1.2344782    -6.235397     77.07472  0.039893747  0.042355796            3 
  162000    1.2050539   -6.2071969    77.813782  0.040027666   0.04236051            3 
  163000    1.2299376     -6.22151    78.242821  0.040001442  0.042367478            2 
  164000    1.2425533   -6.1972982    78.924903  0.040104117  0.042375855            2 
  165000     1.222152   -6.2324355    79.302434  0.040051734  0.042385985            1 
  166000    1.2395616   -6.2326608     79.99181  0.040156531  0.042393978            4 
  167000    1.2199954   -6.2091911    80.859339  0.040348971  0.042409343            4 
  168000    1.2434834   -6.1975357    81.486112  0.040419698  0.042425647            3 
  169000    1.1891016   -6.2463275    82.151318  0.040508539  0.042442246            2 
  170000    1.2056799   -6.2201176    82.390096  0.040387302  0.042458669            1 
  171000    1.1920443    -6.223257    82.843055  0.040371859  0.042472684            5 
  172000    1.2161092    -6.225146    83.070627  0.040247397  0.042485193            3 
  173000    1.2440656    -6.284851    83.799284  0.040365744  0.042496246            2 
  174000     1.225004   -6.2265746    83.887082  0.040175805  0.042504896            3 
  175000    1.2309848   -6.2391033    85.084738  0.040516542  0.042517957            1 
  176000    1.2029262    -6.192706    85.715733  0.040585101  0.042532619            3 
  177000    1.1983839   -6.2692915    85.977664  0.040479126  0.042548795            2 
  178000    1.2043251   -6.2312894    86.642611   0.04056302  0.042561209            4 
  179000    1.2152898   -6.2178694    87.404637  0.040691172  0.042575325            2 
  180000    1.1888153   -6.1841219    87.343784  0.040436937   0.04258769            1 
  181000    1.2203029   -6.2187249    88.019859  0.040524797  0.042598536            2 
  182000    1.2320699   -6.2121431    88.684431  0.040606424  0.042609517            2 
  183000    1.2079566   -6.2270157    89.120336  0.040583031  0.042618456            5 
  184000     1.206901   -6.2541697    89.740389  0.040643292  0.042628159            2 
  185000    1.2395961   -6.2044953    90.305815  0.040678295  0.042641368            4 
  186000    1.2340396   -6.2194249    91.067753  0.040800964  0.042655172            3 
  187000    1.2287703   -6.2287695    91.409116    0.0407349  0.042671325            2 
  188000    1.2242372   -6.2638314    91.559975  0.040585095  0.042683731            6 
  189000    1.2118565   -6.2645781    92.281269   0.04068839  0.042694255            4 
  190000    1.2193221   -6.2515102    92.396498   0.04052478  0.042702089            3 
  191000    1.2280449   -6.2502178    93.345799  0.040726788  0.042711795            1 
  192000     1.201757   -6.2355614    94.193623  0.040882649  0.042722016            1 
  193000    1.2222752   -6.2482546    94.320383  0.040725554  0.042732422            3 
  194000     1.237575   -6.2164063    94.976192  0.040797333  0.042742368            2 
  195000     1.234139   -6.2296989    95.376063  0.040759001  0.042751052            2 
  196000    1.2114778   -6.2131603     95.48962  0.040599328  0.042757071            2 
  197000    1.2231214   -6.2341921    96.817369  0.040954894  0.042762096            3 
  198000    1.2469672   -6.2439335    96.992862  0.040821911  0.042769959            2 
  199000    1.2384742   -6.2125717    98.085965  0.041074525   0.04278177            3 
  200000    1.2001539   -6.1984848     98.11998  0.040883325  0.042792319            2 
  201000    1.2125605   -6.2138613    98.946015  0.041022394  0.042805041            2 
  202000     1.255769   -6.2604878    99.645135  0.041107729  0.042816609            3 
  203000    1.2151399   -6.2425494    99.734618  0.040941961  0.042831778            3 
  204000    1.2344301   -6.2061634    100.77815  0.041167544  0.042843115            2 
  205000    1.1947493   -6.2278568    101.21052   0.04114249  0.042857767            2 
  206000    1.2222434   -6.2463664    101.57407  0.041089835    0.0428711            4 
  207000    1.2206146   -6.2188975     102.3067  0.041186271  0.042883754            1 
  208000    1.2068783   -6.2291869    102.51588  0.041072069  0.042894077            2 
  209000    1.2098873   -6.2467669      102.683  0.040942183  0.042901287           11 
  210000    1.2145467   -6.2021696    103.49051  0.041067662  0.042909414            2 
  211000     1.196528   -6.2561322    103.71098  0.040960103  0.042917505            1 
  212000    1.2212043   -6.2482316    104.71875  0.041163031  0.042924674            3 
  213000     1.227945   -6.2451998    104.71017  0.040966422    0.0429322            2 
  214000    1.1980626   -6.2303198    105.90007  0.041238344  0.042940654            5 
  215000    1.2238061   -6.2338995    105.49504   0.04088955  0.042947674            2 
  216000    1.2139716   -6.2201461    106.01626  0.040901337  0.042951817            2 
  217000    1.2262968   -6.2287773    106.77821  0.041005457  0.042954372            2 
  218000    1.1980587   -6.2321435    106.53872  0.040725812  0.042953837            3 
  219000    1.2022299   -6.2336457    107.27699  0.040820771  0.042951748            2 
  220000     1.212644   -6.2293194    107.89993  0.040871186   0.04295003            2 
  221000    1.2306088   -6.2543689    108.76865  0.041013821  0.042951446            3 
  222000    1.1940168   -6.2223378     109.2507  0.041010022  0.042954494            3 
  223000    1.2122888   -6.2647078    109.66787  0.040982013   0.04295548            2 
  224000    1.2087263   -6.2038412    110.44083  0.041086617  0.042955677            2 
  225000    1.2390986   -6.2442341    110.69219  0.040997106  0.042958033            4 
  226000    1.2253945   -6.2607421    111.22231  0.041011176  0.042961609            2 
  227000    1.2109866   -6.2634181    111.91482  0.041084735  0.042964482            2 
  228000    1.2142181   -6.2384227    112.41465  0.041087226  0.042968087            2 
  229000    1.2281026   -6.2690429    112.61347  0.040980155  0.042971597            5 
  230000    1.2216903   -6.2196364    114.13155  0.041352011  0.042975049            2 
  231000    1.2317899   -6.2364542    114.10572  0.041163679  0.042979893            2 
  232000    1.2304853   -6.2495471    114.91467  0.041276822  0.042985557            2 
  233000    1.2078131   -6.2133519    115.59201   0.04134192  0.042993812            3 
  234000    1.2455423    -6.235831    116.22015  0.041388941  0.043002933            2 
  235000     1.224474   -6.2743235    116.60987  0.041351016  0.043010778            4 
  236000    1.2199584   -6.2478574    117.26982  0.041408834  0.043015578            3 
  237000    1.2141629   -6.2218434    118.05481  0.041510129  0.043022712            3 
  238000    1.2073599   -6.2606272    117.84851  0.041263484   0.04302988            5 
  239000     1.186438   -6.2710208    118.12442  0.041187036  0.043032604            3 
  240000    1.1994572   -6.2391665    118.54886  0.041162797  0.043034393            3 
  241000     1.203158   -6.2389885    118.99076  0.041144798  0.043036165            7 
  242000    1.1749068   -6.2241399    119.96481  0.041310198  0.043036552            3 
  243000    1.2393243   -6.2855411    119.72673  0.041058549  0.043037532            4 
  244000    1.1945405    -6.237455    121.35282  0.041445636  0.043040826            2 
  245000    1.2164871   -6.2064178    121.77707  0.041420771  0.043045127            5 
  246000    1.2053963   -6.2230885    121.61787  0.041198467  0.043048106            1 
  247000    1.2320347   -6.2586146    121.59495  0.041023937  0.043048892            5 
  248000    1.2410607    -6.249529    122.61379  0.041200871  0.043047627            3 
  249000    1.2070541   -6.2497314      123.473  0.041322957  0.043046918            2 
  250000    1.2074635   -6.2634452    123.51214  0.041170714  0.043047094            2 
  251000    1.2062757   -6.2391159    123.95083  0.041152334  0.043048712            5 
  252000    1.2017121   -6.2594761    124.91047  0.041306372  0.043048663            4 
  253000    1.2010683   -6.2699192    125.25538  0.041256713  0.043049097            3 
  254000    1.1961543   -6.2125148    125.66931  0.041230088  0.043049371            2 
  255000    1.2138521   -6.2386937    126.13144  0.041219424  0.043047642            4 
  256000    1.2298428   -6.2493564    126.33447  0.041124503  0.043046273            2 
  257000    1.2115227   -6.2318674    127.47514  0.041334351  0.043045326            7 
  258000    1.2390936   -6.2293895     127.6268  0.041223127  0.043046389            1 
  259000    1.2167956    -6.271244    128.52922  0.041354318  0.043044975            5 
  260000    1.2433714   -6.2387137    128.84959  0.041297946  0.043045342            2 
  261000    1.2105227   -6.2844955    128.85411   0.04114116  0.043045537            3 
  262000    1.2000284   -6.2476474    129.63445  0.041232332  0.043045274            1 
  263000    1.2168742    -6.233596    130.28517   0.04128174  0.043043539            1 
  264000    1.1870855   -6.2297854    130.61473  0.041229397  0.043040966            1 
  265000    1.2100574    -6.241509    131.02714  0.041203502  0.043037991            3 
  266000     1.202664   -6.2788443    131.93129  0.041331858  0.043035111            4 
  267000    1.1913455   -6.2830972    131.82106  0.041142652  0.043031873            3 
  268000    1.2016042   -6.2497454    132.53315  0.041210556  0.043027807            3 
  269000    1.1963081   -6.2388982    133.51712   0.04136218  0.043025757            3 
  270000    1.2108391   -6.2727902    133.86507  0.041316379  0.043025489            4 
  271000    1.2302974    -6.241883    134.02741   0.04121384  0.043024569            2 
  272000    1.2014055   -6.2297535    134.12872  0.041093356  0.043021335            2 
  273000    1.2010119   -6.2627201    135.05635  0.041225991  0.043018057            3 
  274000    1.2464094   -6.2062026    135.30077   0.04114987  0.043014117            3 
  275000    1.2146121   -6.2787742    135.83638  0.041162538  0.043010499            4 
  276000    1.2299845   -6.2959823    136.32605  0.041161247  0.043006423            2 
  277000    1.1695503    -6.251855    136.75001  0.041140194  0.043002044            2 
  278000    1.1752222   -6.2757185    137.21723  0.041132262  0.042996656            5 
  279000    1.2132351   -6.1724071    137.70527  0.041130606  0.042989935            2 
  280000    1.1872088   -6.1963336    138.35777  0.041177908  0.042983563            3 
  281000    1.1998492   -6.2970494    138.37396   0.04103617  0.042977044            3 
  282000     1.212573   -6.2692182    139.05366  0.041091507  0.042970216            4 
  283000    1.1857067   -6.2539834    139.22659  0.040997228  0.042961765            6 
  284000    1.2097236   -6.2459261    139.72931  0.041000384  0.042953972            3 
  285000    1.2020396   -6.3030016    139.74616  0.040861449  0.042943516            3 
  286000    1.1962011   -6.2915477    140.34449  0.040892918  0.042933457            4 
  287000    1.2065304   -6.2634875    140.61356   0.04082856  0.042922603            7 
  288000    1.2089017   -6.2651755    141.23322  0.040866094  0.042911793            3 
  289000    1.1884816   -6.2896336     141.4207   0.04077875  0.042900787            3 
  290000    1.1981033   -6.2300448    141.85609  0.040763243   0.04288868            6 
  291000     1.238704   -6.2165831    143.34791  0.041050375  0.042877709            3 
  292000    1.2254685   -6.3032114     142.8667  0.040772459  0.042867342            1 
  293000    1.1828744   -6.2695553    143.75138  0.040884922  0.042856204            2 
  294000     1.200287   -6.3004525    143.86219  0.040777265  0.042845084            3 
  295000    1.2079332   -6.2993455    144.36388  0.040780756   0.04283279            5 
  296000    1.2127223   -6.2855236    144.67605  0.040730869  0.042821098            1 
  297000    1.1750003   -6.2941805    145.53297  0.040834168  0.042809981            4 
  298000    1.2317801    -6.302822    145.92619  0.040807101  0.042798864            5 
  299000    1.2150166   -6.2331186    146.75692  0.040902152  0.042789661            2 
  300000    1.2091774   -6.2741227    147.51566  0.040976572  0.042780007            3 
  301000    1.1989567   -6.2393674    147.40537  0.040809902  0.042770257            2 
  302000    1.1904402   -6.2394442    147.63016    0.0407368   0.04275935            5 
  303000    1.2033651   -6.2539612    148.23967  0.040769986  0.042747416            4 
  304000    1.1975757   -6.2581142    148.55454  0.040722187  0.042734676            4 
  305000     1.191162    -6.274173    148.99274  0.040708399  0.042721826            5 
  306000    1.2014529   -6.2557215    149.52447  0.040720173  0.042709565            2 
  307000    1.1901877   -6.2533533    150.31704   0.04080267  0.042696129            2 
  308000    1.2240129   -6.2815013      150.368  0.040683984  0.042682625            2 
  309000    1.2263375   -6.2637704    150.62987  0.040622944  0.042668715            3 
  310000    1.2149756   -6.2786295    151.05303  0.040605654  0.042655403            3 
  311000    1.1992965   -6.2464755    151.77837  0.040669445  0.042642723            2 
  312000    1.2023014   -6.2214627    152.75941  0.040801124  0.042630689            2 
  313000    1.2111785   -6.2188693    153.00686   0.04073665  0.042619334            2 
  314000    1.2003802   -6.2553799     153.3262  0.040691668  0.042607652            2 
  315000    1.2006084   -6.2454446    153.78882  0.040684872  0.042595872            2 
  316000    1.1839794   -6.2592443    153.71575  0.040536855  0.042583127            3 
  317000     1.201631   -6.2651602    154.28467  0.040558535  0.042569548            2 
  318000    1.2046067   -6.2788466    154.85599  0.040580709  0.042556014            2 
  319000    1.2028695   -6.2443178    155.68889   0.04067108  0.042543302            2 
  320000    1.2021638   -6.2484072     156.1416  0.040661876  0.042530766            3 
  321000    1.2031842   -6.2962563    155.97506  0.040491968  0.042517805            1 
  322000    1.2087174   -6.2431904    156.67343  0.040546955   0.04250429            2 
  323000    1.1738593   -6.2968053    156.81698  0.040458457  0.042489845            2 
  324000    1.1863493   -6.2641901    157.74618  0.040572576  0.042476287            2 
  325000    1.1969694   -6.2388914    158.33766  0.040599401  0.042464122            3 
  326000    1.1978533   -6.2642273    159.42198  0.040752041  0.042452447            6 
  327000    1.2027905   -6.2611446    159.70581  0.040699746  0.042441889            3 
  328000    1.1683925   -6.2577203    160.11156   0.04067875  0.042430957            2 
  329000    1.2021373   -6.2673204    160.29241  0.040600915  0.042420411            3 
  330000     1.195588   -6.2376909    161.76856  0.040850647  0.042409914            5 
  331000    1.2180619   -6.2571873    161.83278  0.040743397  0.042399947            4 
  332000    1.1859969   -6.2589303     162.1676  0.040704718   0.04239074            3 
  333000    1.1985891    -6.261029    162.09444  0.040564175  0.042380007            3 
  334000    1.1973194   -6.2808278    163.46416  0.040784471  0.042369884            2 
  335000    1.1988647   -6.2705122    164.72018   0.04097517  0.042362094            2 
  336000    1.1948521   -6.2673207     164.5003  0.040798686  0.042355272            2 
  337000    1.2092929   -6.2620838    165.39945  0.040899963   0.04234918            2 
  338000    1.1791429   -6.2535835    165.87552   0.04089633  0.042343014            2 
  339000    1.1944883   -6.2675009    166.08848  0.040828042  0.042337619            2 
  340000    1.2347867   -6.2700752    167.28157  0.041000384  0.042332075            4 
  341000    1.1897998   -6.2878646    167.39262  0.040907288  0.042327108            3 
  342000    1.2242166   -6.2900264    167.99144  0.040933586  0.042320008            2 
  343000     1.190424   -6.2466864     167.8229  0.040773299  0.042313005            2 
  344000    1.1970341   -6.2475331    168.02068  0.040702684  0.042303808            1 
  345000    1.2272151   -6.2456093    168.81754  0.040777183  0.042294813            5 
  346000    1.1849949   -6.2893426    169.08318  0.040723309   0.04228615            9 
  347000    1.1745818   -6.2861874    169.82743  0.040784685  0.042277877            1 
  348000    1.1912155   -6.3020356    169.46889  0.040581631  0.042269181            2 
  349000    1.2087629    -6.258292    171.09199  0.040852912  0.042259287            2 
  350000    1.1955484   -6.2690636    171.64162  0.040867053  0.042249976            3 
  351000    1.1916778   -6.2626306    172.41552  0.040934359  0.042241514            2 
  352000    1.1983943   -6.2801697    172.24061  0.040776659  0.042233667            4 
  353000    1.2029513   -6.2910701    172.42824  0.040705439  0.042226209            3 
  354000    1.2300415   -6.2746324     172.9626  0.040716244  0.042217699            3 
  355000    1.1930414   -6.2737224    173.15703  0.040647191  0.042209139            7 
  356000    1.2260674    -6.259379    173.88023    0.0407023  0.042201551            3 
  357000    1.2035813   -6.2921366    174.36038  0.040700369  0.042193294            3 
  358000    1.1898276   -6.2751961      174.942  0.040722068   0.04218514            1 
  359000    1.2162558     -6.24567    175.71779  0.040788716  0.042177479            1 
  360000     1.179917   -6.2767161    176.42139  0.040838284  0.042170042            2 
  361000    1.2347494   -6.2596547     175.9223  0.040609949  0.042162549            3 
  362000    1.1718971    -6.268544    177.23923  0.040800927  0.042154739            8 
  363000    1.1901282   -6.2499693    177.00012  0.040633637  0.042145667            3 
  364000    1.1788833   -6.2536999    178.29592  0.040818663  0.042137924            2 
  365000    1.2034376   -6.2778323    178.62758  0.040782553  0.042130449            1 
  366000    1.2075129   -6.2965857    179.09074  0.040776579  0.042122972            3 
  367000    1.2259589   -6.3087734    178.72346  0.040582076  0.042114376            3 
  368000     1.179226   -6.2416615    179.10239  0.040557606  0.042105448            6 
  369000    1.1948039   -6.3111704    179.38519   0.04051156  0.042095373            3 
  370000    1.1927926    -6.300469    180.03525  0.040548479  0.042085096            3 
  371000    1.1846204    -6.310397    180.36125  0.040512411  0.042073991            1 
  372000    1.1935876   -6.2988707    180.26802  0.040382621  0.042062639            3 
  373000    1.2001865   -6.2905039    180.76781  0.040386016  0.042049665            3 
  374000    1.1821075   -6.2358891    181.31054  0.040398961  0.042036376            2 
  375000    1.1761992   -6.3046996    182.31023  0.040513384  0.042024052            4 
  376000    1.1667085   -6.3126481    183.29475  0.040623837  0.042012425            6 
  377000    1.2018788   -6.2961469    182.16293    0.0402659  0.042001065            4 
  378000    1.1968677   -6.2702255    183.10078  0.040366133  0.041988573            5 
  379000    1.1956442   -6.2885448     183.5505   0.04035851  0.041977557            4 
  380000    1.1904519   -6.2822897    184.20506  0.040395848  0.041966425            2 
  381000    1.1829501   -6.2200416      185.912  0.040663167   0.04195575            2 
  382000    1.2046316   -6.2868158    185.54541  0.040476748  0.041945825            3 
  383000    1.2049861   -6.2797967    185.49048  0.040359112  0.041934958            2 
  384000    1.1914297   -6.2772457    186.78194  0.040534275  0.041924814            6 
  385000    1.2195997   -6.2505174    187.02384  0.040481351  0.041914147            2 
  386000    1.1960511   -6.3178739    187.11444  0.040396036  0.041904047            2 
  387000    1.1737191   -6.2780278    187.79944  0.040439155  0.041894034            1 
  388000    1.1665426   -6.3022631    187.54068  0.040279356  0.041884031            2 
  389000    1.1744494   -6.2624602    189.33586  0.040560382  0.041875773            5 
  390000    1.1899964   -6.2643325    189.07396  0.040400419  0.041865628            1 
  391000    1.1868701   -6.2677325    190.05061  0.040505245  0.041855484            2 
  392000    1.1977116   -6.2940072    190.05704  0.040403282   0.04184443            2 
  393000    1.1828289   -6.3127623    189.58727  0.040200862  0.041832227            1 
  394000     1.203704   -6.2499711    190.97336  0.040391997   0.04182102            3 
  395000    1.1813621   -6.2889578     190.6961  0.040231245  0.041810008            2 
  396000    1.1924905   -6.2712156    191.62731  0.040325612  0.041799702            6 
  397000    1.1888041   -6.3018147    191.73392  0.040246415  0.041787581            3 
  398000    1.2038812   -6.2522034    192.67342  0.040342006   0.04177707            4 
  399000    1.1901975   -6.2849191     194.0685  0.040532268  0.041766579            4 
  400000    1.1934039    -6.270146    193.30537  0.040271952  0.041755878            4 
  401000    1.2187829   -6.2611409    193.94436  0.040304313  0.041745031            2 
  402000    1.1959606   -6.2905697     193.9739  0.040210178  0.041732656            2 
  403000    1.1712527   -6.2670151    194.42395  0.040203463  0.041720065            2 
  404000    1.1975552   -6.2821693     195.3966   0.04030458  0.041708907            4 
  405000    1.1870929   -6.2846038    195.84358  0.040297033  0.041698102            5 
  406000    1.1769041   -6.3074626    196.58162  0.040349264   0.04168874            2 
  407000    1.1907382   -6.2635179    197.43821  0.040425514  0.041679268            5 
  408000    1.1823051   -6.2814566    197.55047  0.040349361  0.041669828            4 
  409000    1.2024571   -6.2814741     198.4996  0.040444092   0.04165983            1 
  410000    1.1698517   -6.2954929    198.40201  0.040325612   0.04164878            3 
  411000    1.1700616    -6.285205    198.39127  0.040225319  0.041637991            3 
  412000    1.1211095   -6.3100183    198.65953  0.040181943  0.041626608            3 
  413000    1.1950397   -6.2841988    199.57649  0.040269671  0.041616536            3 
  414000     1.192458    -6.256363    200.34185  0.040326459  0.041606156            2 
  415000    1.1864553    -6.324317    200.13347  0.040187444  0.041595364            2 
  416000    1.1899703   -6.2645831    200.88278  0.040240941  0.041583643            2 
  417000    1.1905245   -6.2690514     201.0268  0.040173221  0.041573257            3 
  418000     1.175036   -6.3108125    201.39525  0.040150568  0.041562315            4 
  419000    1.2034246    -6.300739    202.14233  0.040203327   0.04155177            4 
  420000     1.171542    -6.287504    202.81537  0.040241145  0.041541878            2 
  421000    1.1805707     -6.29879    203.33903  0.040249215  0.041531842            2 
  422000    1.1723663   -6.3055718    203.70244  0.040225601  0.041521888            3 
  423000    1.1759976   -6.3416699    203.28155  0.040047586   0.04151121            2 
  424000    1.2128529   -6.2833218     204.2526  0.040143986   0.04150034            3 
  425000    1.1899672    -6.325024    204.15566  0.040030522  0.041489103            2 
  426000    1.2188359   -6.2955718    205.26272  0.040153113  0.041477791            4 
  427000    1.1711545   -6.3477105    204.81956  0.039972592  0.041466054            1 
  428000    1.1788111   -6.2541945     205.4135   0.03999484  0.041454001            4 
  429000    1.1830808   -6.2904144    205.35743   0.03989072  0.041441364            2 
  430000    1.1879851   -6.3001202    205.76452  0.039876846  0.041428396            2 
  431000    1.1857127    -6.304023    206.82852  0.039990046  0.041415683            3 
  432000    1.1800151   -6.2611558    207.47322  0.040021841  0.041402645            2 
  433000    1.1791165   -6.3088635    207.97831  0.040026619  0.041390313            4 
  434000    1.1782838   -6.2642278    208.23955  0.039984553  0.041378395            4 
  435000    1.1846701   -6.2546693    208.90535  0.040020181  0.041366673            3 
  436000    1.1734012   -6.2955558    209.44596   0.04003172  0.041353418            3 
  437000    1.1816832   -6.2937148     209.5552  0.039960946   0.04134116            3 
  438000    1.1954702   -6.3244803    210.12298  0.039977737  0.041329139            1 
  439000    1.1653724   -6.2966763    209.96571  0.039856817   0.04131725            4 
  440000      1.17421   -6.2915594    211.04879  0.039971362   0.04130543            2 
  441000    1.1881675   -6.3163569    211.22929  0.039914831   0.04129442            1 
  442000    1.1732316   -6.2976631    211.91847  0.039954463  0.041283284            2 
  443000    1.1794696   -6.3187021    211.91737  0.039864064  0.041271236            4 
  444000    1.1806136   -6.3288102    212.87529  0.039954071   0.04126047            3 
  445000    1.1769027   -6.3067191    213.68208  0.040015371  0.041250402            2 
  446000    1.1941291   -6.3098187    214.02715  0.039990125  0.041239782            3 
  447000    1.1620378   -6.2676029    214.83498  0.040051263  0.041229331            3 
  448000    1.1938926   -6.2729623    214.69131   0.03993514  0.041218675            2 
  449000    1.1745603   -6.3169592    215.11453  0.039924745  0.041207152            2 
  450000    1.1586169   -6.2910435    215.35554  0.039880655  0.041195163            4 
  451000    1.1704331    -6.285612    215.82756  0.039879446  0.041183126            3 
  452000    1.1726759   -6.2958811    216.67907  0.039948207     0.041171            3 
  453000    1.1867554   -6.2697919     216.5114  0.039829175  0.041158559            2 
  454000    1.1751475   -6.2828092    216.69245  0.039774679  0.041146092            1 
  455000    1.2038823   -6.2647071    217.33041  0.039804105  0.041133319            4 
  456000    1.1886555   -6.3111027    217.83132  0.039808354  0.041120951            5 
  457000    1.1845375   -6.2943521    218.27611  0.039802355  0.041108512            2 
  458000    1.1506735   -6.2742978    218.73201    0.0397984  0.041096134            2 
  459000    1.1811503   -6.2901749    218.62415  0.039692111  0.041083764            4 
  460000     1.181003   -6.2971315    219.04566  0.039682184  0.041071432            6 
  461000    1.1664044   -6.3084846    219.61787  0.039699543    0.0410591            2 
  462000    1.1669153   -6.3314256     219.6265   0.03961517  0.041046488            3 
  463000    1.1859385   -6.2935384      220.181   0.03962941  0.041033234            4 
  464000    1.1505189   -6.2846511    221.43054  0.039768416  0.041020397            2 
  465000     1.181094   -6.3116547    220.46658   0.03951014  0.041006847            2 
  466000    1.1798233   -6.3399403    221.51813  0.039613399  0.040993425            3 
  467000    1.1559953   -6.3232547    221.40078  0.039507635  0.040979746            2 
  468000    1.1617712   -6.2625956    222.50298  0.039619477  0.040965789            2 
  469000     1.157008   -6.3105729    221.95753  0.039438082  0.040952347            5 
  470000    1.1890404   -6.2844955    223.16857  0.039568896  0.040938956            2 
  471000    1.1791218   -6.3148807    223.76215  0.039589906  0.040925679            4 
  472000    1.2015517   -6.2978118    224.16615  0.039577357  0.040912947            2 
  473000    1.1915167   -6.3078079    224.59186  0.039568685   0.04090065            2 
  474000    1.1903082   -6.2930232    225.68224  0.039676906  0.040888584            3 
  475000    1.1700628   -6.2653176    226.15053  0.039675532  0.040877039            3 
  476000    1.1823549   -6.2986656    227.55557  0.039838161  0.040865881            5 
  477000    1.1822882   -6.2984411    227.29434  0.039709005  0.040855305            6 
  478000     1.174122   -6.3255533    227.92899  0.039736574  0.040844751            3 
  479000    1.1937305   -6.3299975    228.36959   0.03973027  0.040834642            1 
  480000    1.1912955    -6.350581    228.88466   0.03973692  0.040824002            1 
  481000    1.1670882   -6.3102341    228.41327  0.039572639  0.040813408            1 
  482000    1.1514696   -6.2996032    229.00014  0.039592001  0.040801813            4 
  483000    1.1667325   -6.2797957    229.26642  0.039555973  0.040790032            7 
  484000    1.1837972   -6.3218411    229.98914  0.039598681  0.040778211            3 
  485000    1.1969469   -6.3080823    230.56964  0.039616776  0.040766534            2 
  486000    1.1614891   -6.2884878     231.3118  0.039662517  0.040755213            7 
  487000    1.1469822   -6.2748507    231.34822  0.039587307  0.040743971            3 
  488000    1.1911688   -6.2909377    231.48539  0.039529609  0.040732453            2 
  489000    1.1917468   -6.2817709    232.47299  0.039617074  0.040720945            2 
  490000    1.1703771   -6.2941683    231.96148  0.039449232  0.040709122            3 
  491000    1.1853332   -6.3321555    233.59586  0.039646276  0.040697687            4 
  492000    1.1838006   -6.2616731    233.11487  0.039484225  0.040686074            4 
  493000    1.1702477   -6.3529682    232.50345  0.039300786  0.040673716            4 
  494000    1.1698223   -6.3015256    233.72383  0.039427097  0.040660864            3 
  495000     1.192876   -6.3374953      233.499  0.039309597  0.040647814            3 
  496000    1.1893519   -6.3041615    234.63909   0.03942189  0.040634523            6 
  497000    1.1579115   -6.3216723    235.10203  0.039420193  0.040621785            2 
  498000    1.1577482   -6.2747811    236.14762  0.039516001  0.040609005            2 
  499000    1.2060983   -6.3180291     235.8898  0.039393753  0.040596177            4 
  500000    1.1343614   -6.2941233    235.58717  0.039264528  0.040582463            4 
  501000    1.1478598   -6.3221529    236.12407   0.03927546  0.040568628            2 
  502000    1.1699607   -6.3189317     236.1607  0.039203304  0.040554964            7 
  503000    1.1830431   -6.2877428    237.30746  0.039315351  0.040541139            2 
  504000    1.1892159   -6.3254766    236.73873  0.039143308  0.040527087            5 
  505000    1.1810636   -6.3165994    237.22358  0.039145805  0.040513282            4 
  506000    1.1710446   -6.3128029    238.96585  0.039355376  0.040499514            3 
  507000     1.146504   -6.3194098    238.93755  0.039273102  0.040486309            2 
  508000    1.1660818    -6.328076     238.4928  0.039122834  0.040473386            7 
  509000    1.1589994   -6.3054956    241.09567  0.039472113  0.040460335            6 
  510000    1.1544055   -6.3070098    239.47597  0.039130061  0.040447709            2 
  511000    1.1983333   -6.3439875    239.68202  0.039087087  0.040435001            4 
  512000    1.1618283   -6.3295975      241.121  0.039244954  0.040421912            3 
  513000    1.1619772   -6.3547304    240.70144  0.039100299  0.040409247            2 
  514000    1.1863028   -6.3272138    241.46369   0.03914781   0.04039656            6 
  515000    1.1639518   -6.2956836    241.44131  0.039068172  0.040384161            3 
  516000    1.1900914   -6.3582398    242.55544  0.039172391  0.040372244            2 
  517000    1.1614133   -6.3622714    243.62062  0.039268314  0.040360534            4 
  518000    1.1383192   -6.3174774    245.09844  0.039430251  0.040349902            5 
  519000    1.1636621   -6.3265613    244.73707  0.039296254  0.040339336            2 
  520000    1.1555538   -6.2750644     245.9413  0.039413669  0.040329315            3 
  521000    1.1751176   -6.3410417    244.81888   0.03915849   0.04031828            2 
  522000    1.1666468   -6.3100982    246.53395  0.039357271  0.040307884            3 
  523000    1.1894634   -6.3199017    246.03619  0.039202707  0.040296567            3 
  524000    1.1706475   -6.3273302    246.05996  0.039131674  0.040285515            2 
  525000    1.1830455   -6.2946896    247.49229  0.039284491  0.040274486            3 
  526000    1.1632003   -6.2940641     247.5959   0.03922622  0.040263327            4 
  527000    1.1543008   -6.3170134    247.60997  0.039154011  0.040251368            5 
  528000    1.1545842    -6.320227    248.43554  0.039210155  0.040240101            2 
  529000    1.1939509   -6.3120908    248.75533   0.03918641  0.040228734            1 
  530000    1.1887862   -6.2887512    249.64882  0.039252958  0.040217814            3 
  531000    1.1714859   -6.3432164    249.29132  0.039122931  0.040207602            2 
  532000    1.1641038   -6.3189934    250.16756  0.039186648  0.040197236            2 
  533000    1.1761217   -6.3229568    250.98378  0.039240741   0.04018682            2 
  534000    1.1673997   -6.3468456    251.53495  0.039253269  0.040176857            4 
  535000    1.1589134   -6.3255858     252.6036  0.039346355  0.040166655            2 
  536000    1.1901546   -6.3311347    251.77769  0.039144541  0.040156719            5 
  537000    1.1812975   -6.3621682    251.06532  0.038961099  0.040146505            4 
  538000    1.1594229   -6.2889568    253.94527   0.03933477    0.0401361            6 
  539000    1.1635531     -6.29299    254.24463  0.039308075  0.040126797            4 
  540000    1.1549488   -6.2930978    254.98286  0.039349206  0.040117329            2 
  541000    1.1631784   -6.2965329    254.93911  0.039269734  0.040107802            2 
  542000    1.1645974   -6.3122855    254.55919  0.039138867   0.04009804            2 
  543000    1.1420682   -6.3204275    254.98157   0.03913161  0.040088764            3 
  544000    1.1545631   -6.3202963    255.84928  0.039192598  0.040079527            3 
  545000     1.145225    -6.335723    256.57593  0.039231794  0.040069699            4 
  546000    1.1831365   -6.3300623    256.24556  0.039109518  0.040060253            3 
  547000    1.1528886   -6.3171324    257.19453  0.039182592  0.040050793            7 
  548000    1.1671204   -6.3510343    258.12322  0.039252315  0.040041122            5 
  549000    1.1326065   -6.3635135    257.53977  0.039092255  0.040031446            6 
  550000    1.1578779   -6.2936882    258.71767  0.039199646  0.040021995            3 
  551000    1.1788028   -6.3437824     259.6173  0.039264564  0.040013372            6 
  552000    1.1896214   -6.3332128    260.57204  0.039337567  0.040005161            6 
  553000    1.1729153   -6.3254171    261.05741  0.039339574  0.039997602            6 
  554000    1.1475149   -6.3189915    261.27539  0.039301352  0.039989681            2 
  555000    1.1611071   -6.3559022    262.10513  0.039355124  0.039982215            3 
  556000    1.1810175   -6.3304186    262.45987   0.03933751  0.039974941            3 
  557000    1.1940933   -6.3480859    262.92216   0.03933605  0.039967204            6 
  558000    1.1663464   -6.3635324    262.31248  0.039174505  0.039959833            2 
  559000    1.1624925   -6.3643399    262.95019  0.039199491   0.03995232            1 
  560000    1.1676441   -6.3244728     264.4957  0.039359479  0.039945393            3 
  561000    1.1784808   -6.3511456     264.1388  0.039236305  0.039938582            2 
  562000    1.1483611   -6.3413196     264.9669  0.039289279  0.039932146            2 
  563000    1.1599808   -6.3038956    267.76515  0.039633681   0.03992634            2 
  564000    1.1392308   -6.3722255    265.86716  0.039282972  0.039920666            3 
  565000    1.1289619   -6.3434302    267.07625  0.039391777  0.039914781            2 
  566000    1.1584835   -6.3295703    267.69696  0.039413568  0.039908918            1 
  567000    1.1413372   -6.3403485    268.38127  0.039444631  0.039903683            2 
  568000    1.1745396   -6.3227499    268.79325  0.039435629  0.039898044            4 
  569000     1.158662   -6.3625891    269.27073  0.039436252  0.039893073            4 
  570000    1.1627533   -6.3063756    270.34223  0.039523717  0.039888011            5 
  571000    1.1366711   -6.3414818    271.02428   0.03955404  0.039882935            1 
  572000    1.1484483    -6.308135    271.25139  0.039517976  0.039877402            4 
  573000    1.1646509   -6.3617172    270.96403  0.039407218  0.039872312            2 
  574000    1.1507144   -6.3515421    271.64713  0.039437736   0.03986751            3 
  575000    1.1510814   -6.3293896    272.38988  0.039476794  0.039863037            5 
  576000    1.1541405   -6.3551593    272.10372  0.039366857  0.039857891            2 
  577000    1.1469899   -6.3035232    273.42945    0.0394901  0.039852953            3 
  578000    1.1614873   -6.3446344    273.58427  0.039444098  0.039847712            3 
  579000    1.1302808   -6.3565367    274.37458   0.03948972  0.039843317            4 
  580000    1.1355203   -6.3563428    274.68368  0.039466046  0.039838731            3 
  581000     1.178824   -6.3404598     274.5267  0.039375603  0.039833847            2 
  582000    1.1566118   -6.3520328    275.55374  0.039455003  0.039829567            7 
  583000    1.1691223   -6.3247316    277.12204  0.039611498  0.039825531            2 
  584000     1.132498   -6.3979032    277.04134  0.039532154  0.039821649            2 
  585000    1.1737039   -6.3137296    277.11972  0.039475743  0.039817686            2 
  586000    1.1487761   -6.3261762    276.64774   0.03934126  0.039812884            3 
  587000    1.1323198   -6.3627317    277.87524  0.039448501  0.039807491            3 
  588000    1.1760864   -6.2995829    278.39256  0.039454728  0.039802603            2 
  589000    1.1442277   -6.3701004    278.27078  0.039370512  0.039797321            2 
  590000    1.1341391   -6.3182847    278.69114  0.039363156  0.039791947            6 
  591000    1.1701444   -6.3219906    279.66904  0.039434439  0.039787094            4 
  592000    1.1519639   -6.3735428    279.96587   0.03940961  0.039782425            4 
  593000    1.1747717    -6.348703    280.53362  0.039422937  0.039778232            4 
  594000    1.1822135   -6.3149739     281.7805  0.039531495  0.039773731            1 
  595000    1.1951138   -6.3461409    280.80534  0.039328479  0.039769422            3 
  596000    1.1579441   -6.3880459     282.2559  0.039465311  0.039765184            2 
  597000    1.1759791   -6.3504633    282.39389  0.039418466  0.039760651            6 
  598000    1.1688533   -6.3618067    281.95232  0.039291014  0.039756461            4 
  599000    1.1512665   -6.3541445    282.71648  0.039331731  0.039751999            4 
  600000    1.1576743   -6.3783368    284.01558  0.039446608  0.039747826            3 
  601000    1.1434898   -6.3629416    283.40335  0.039296083  0.039743412            1 
  602000    1.1493348   -6.3585904    283.47572  0.039240826  0.039738521            4 
  603000    1.1762961   -6.3517106     284.2423  0.039281689  0.039733188            3 
  604000    1.1778252    -6.340423    284.92779   0.03931123  0.039728202            3 
  605000    1.1577323    -6.388402    283.97328  0.039114777   0.03972221            5 
  606000    1.1933046     -6.37344      284.208  0.039082508  0.039716018            2 
  607000    1.1468595   -6.3373355     285.4602  0.039190034  0.039709445            2 
  608000    1.1575014   -6.3738279    285.03058  0.039066692  0.039702167            2 
  609000    1.1380051   -6.3965034    285.09259  0.039011027  0.039694625            2 
  610000    1.1579074   -6.3557599    285.36962   0.03898492  0.039686886            3 
  611000    1.1527383   -6.3561194    285.31023  0.038913016   0.03967915            4 
  612000     1.155823   -6.3656409    286.09615  0.038956447  0.039670596            4 
  613000    1.1725821   -6.3299342     287.0766  0.039026183  0.039663038            2 
  614000    1.1126026   -6.3398395    288.11427  0.039103456   0.03965459            4 
  615000    1.1582459   -6.3417564    288.07927  0.039035132  0.039646614            2 
  616000    1.1299188   -6.3515786    287.58968   0.03890553   0.03963861            1 
  617000    1.1564152   -6.3259963    287.97802  0.038894924  0.039630036            3 
  618000    1.1622205   -6.3407028    288.98091  0.038967221  0.039621627            4 
  619000    1.1241403   -6.3740283    288.37903  0.038823241  0.039613908            3 
  620000    1.1637047   -6.3472913    289.65833  0.038932571  0.039605463            7 
  621000    1.1598896   -6.3802467    288.73755  0.038746317  0.039597166            4 
  622000    1.1303408   -6.3344931    290.67502  0.038943598  0.039588987            5 
  623000    1.1556312   -6.3438553    290.39867  0.038844123  0.039580753            4 
  624000     1.127778   -6.3438526    291.32776  0.038905951  0.039572367            5 
  625000     1.161493   -6.3299676    290.73933  0.038765243  0.039563703            1 
  626000    1.1166151   -6.3320213    292.56187  0.038945936  0.039554739            3 
  627000      1.14037   -6.3473309    291.75677  0.038776817  0.039545977            3 
  628000    1.1586895   -6.3350124    291.88088  0.038731539  0.039537096            2 
  629000    1.1693568   -6.3485358    292.84886  0.038798207  0.039528272            5 
  630000    1.1660696   -6.4009007    293.05246  0.038763552  0.039519571            7 
  631000    1.1489334   -6.3438086     293.4462   0.03875412  0.039511022            2 
  632000    1.1675616   -6.3800089    293.42856  0.038690474  0.039501926            3 
  633000    1.1789915   -6.3769688    293.05113  0.038579664  0.039492425            2 
  634000    1.1529186   -6.3736711    293.92202  0.038633284  0.039482898            5 
  635000    1.1522369   -6.3371658    294.81017  0.038688998  0.039473358            4 
  636000    1.1572497   -6.3852649    294.86874  0.038635841  0.039463802            9 
  637000    1.1327216   -6.3680469    295.39633  0.038644208  0.039454258            4 
  638000    1.1342457   -6.3646595    296.45552  0.038721986  0.039444519            3 
  639000    1.1443987   -6.3803329    295.79503  0.038575252  0.039435385            6 
  640000    1.1510178   -6.3339115    296.85476  0.038652963  0.039426088            5 
  641000    1.1304942   -6.3371634    297.75989  0.038710334  0.039417029            4 
  642000    1.1677055   -6.3765522    298.09222  0.038693175  0.039408044            4 
  643000    1.1648494   -6.3340251    297.43354  0.038547633  0.039398535            2 
  644000    1.1407459   -6.3603289    298.85042   0.03867112  0.039389465            2 
  645000    1.1518899   -6.3394269    298.68887  0.038590294  0.039380181            1 
  646000    1.1308431   -6.3880407    299.07013  0.038579738  0.039370616            3 
  647000    1.1951019   -6.3540504    300.50506  0.038704928   0.03936147            4 
  648000    1.1489969   -6.3516999    299.74215  0.038547087  0.039352737            4 
  649000    1.1628551   -6.3767349    300.38772  0.038570586   0.03934336            3 
  650000    1.1626182   -6.3708868    300.47392  0.038522297     0.039334            2 
  651000    1.1129758   -6.3866253    300.97265  0.038526965  0.039324372            2 
  652000    1.1647626   -6.3610763    301.03744  0.038476155  0.039314556            3 
  653000    1.1392379   -6.3362124    301.77405  0.038511236  0.039305082            5 
  654000    1.1423019   -6.3752713    302.74742  0.038576379   0.03929517            5 
  655000    1.1458677   -6.3549756    301.71853  0.038386582  0.039285611            2 
  656000    1.1355533   -6.4229937    302.67886  0.038450058  0.039275981            1 
  657000    1.1490248   -6.3535983    303.56496  0.038503927  0.039266237            2 
  658000    1.1465018   -6.3641567    304.42853  0.038554778  0.039256799            3 
  659000    1.1721599   -6.3693818    304.08847  0.038453271  0.039247643            1 
  660000     1.124646   -6.3724066    305.85504   0.03861806  0.039238897            4 
  661000    1.1206151   -6.3781185    305.31215  0.038491194  0.039230253            3 
  662000    1.1416779   -6.3719979    305.62493  0.038472423  0.039221417            1 
  663000    1.1589238   -6.4570908    306.42283  0.038514684  0.039212261            3 
  664000    1.1384582    -6.362166    308.51641  0.038719429  0.039204112            3 
  665000    1.1558291    -6.363628    307.52194  0.038536584  0.039196443            5 
  666000    1.1311116   -6.3651568    308.33347  0.038580264  0.039188315            1 
  667000    1.1435125   -6.3204525    309.21355  0.038632377  0.039180733            4 
  668000    1.1654007   -6.3694712    309.26816  0.038581357  0.039173008            2 
  669000    1.1558699   -6.3574711    310.04807  0.038620835  0.039164869            6 
  670000    1.1496943   -6.3808338    309.44324  0.038487965  0.039156801            9 
  671000    1.1203015   -6.3746506    309.86875  0.038483451  0.039148168            3 
  672000    1.1447705   -6.3751236    310.91121  0.038555458  0.039139906            4 
  673000    1.1472765   -6.3732281    310.87978  0.038494277  0.039131147            4 
  674000     1.160233   -6.4151503     310.4208  0.038380415  0.039122373            7 
  675000    1.1518604   -6.3486498    311.08733  0.038405843  0.039113473            7 
  676000    1.1356851   -6.3974975    312.24513  0.038491757  0.039104499            3 
  677000    1.1491063   -6.3809426    311.73216  0.038371757  0.039095477            1 
  678000    1.1520645   -6.3601864    312.85797  0.038453536  0.039086651            3 
  679000      1.15389   -6.3531932    312.93285  0.038406094  0.039077736            2 
  680000    1.1397826   -6.4101545    312.24601  0.038265442  0.039068344            4 
  681000    1.1281404    -6.349912    312.25324  0.038210137  0.039058389            2 
  682000    1.1518413   -6.3368214    312.97789  0.038242656  0.039048618            4 
  683000    1.1097889   -6.3825307     313.7545  0.038281418  0.039038915            7 
  684000     1.168014   -6.3829416    314.98594   0.03837548  0.039030052            5 
  685000    1.1591944   -6.4022878    314.55142  0.038266596  0.039020742            2 
  686000    1.1514922   -6.3873056    315.28155  0.038299508  0.039011761            5 
  687000    1.1377117   -6.3981383    316.58258  0.038401574  0.039003028            3 
  688000    1.1323335   -6.3778547    317.36593   0.03844064  0.038994736            7 
  689000    1.1372504   -6.3553691    318.31157  0.038499222  0.038987027            3 
  690000    1.1420756   -6.3240044    318.62224  0.038480947  0.038979287            5 
  691000    1.1418676   -6.3707471    318.54006  0.038415348  0.038971485            5 
  692000    1.1334369   -6.3627625    318.44514  0.038348403  0.038963128            3 
  693000    1.1386797   -6.3797349    319.11149  0.038373195  0.038954922            3 
  694000    1.1365294   -6.3765519    319.64092  0.038381474  0.038946928            2 
  695000    1.1205194   -6.3660134    320.28723  0.038403744  0.038939663            8 
  696000    1.1446459   -6.3610277    320.25054  0.038344174  0.038932208            6 
  697000     1.132271   -6.3766391    321.19705  0.038402326  0.038924607            3 
  698000    1.1161759   -6.3884252    321.54182  0.038388469  0.038916994            2 
  699000    1.1685777   -6.4032875    323.05985  0.038514527  0.038909813            2 
  700000    1.1629712   -6.3746157    321.94178  0.038326402  0.038902633            5 
  701000    1.1445907   -6.3937704    321.80359  0.038255301  0.038895304            4 
  702000    1.1415562   -6.3790184    322.70275  0.038307544  0.038887485            3 
  703000    1.1489199   -6.3746819    322.30857  0.038206326  0.038879472            3 
  704000    1.1373531   -6.3683304    323.34242  0.038274435  0.038871491            5 
  705000    1.1303101   -6.3772429    323.42727  0.038230174   0.03886344            4 
  706000    1.1478453    -6.420789    324.30117  0.038279174  0.038855774            4 
  707000    1.1457827   -6.3948876    325.16169  0.038326461    0.0388484            3 
  708000    1.1459275   -6.3546952    325.89276  0.038358375  0.038841108            4 
  709000    1.1427882   -6.3730377    326.18659  0.038338809  0.038833567            1 
  710000    1.1527243   -6.3984888    326.45031  0.038315764   0.03882567            3 
  711000     1.149035    -6.400882    325.88764  0.038195925  0.038818071            2 
  712000    1.1536438   -6.4142885    327.60622  0.038343424  0.038810952            7 
  713000     1.117556   -6.4090958    327.87381  0.038320922   0.03880383            5 
  714000     1.154473   -6.3983845    328.24141  0.038310155  0.038796295            3 
  715000    1.1601838   -6.3561461    330.07652  0.038470457  0.038789137            4 
  716000     1.132522   -6.4307637    328.23779  0.038202722  0.038782132            4 
  717000    1.1486573   -6.3919629     329.3492  0.038278615  0.038774306            2 
  718000    1.1312633   -6.3884307    329.01855  0.038186925  0.038766339            3 
  719000    1.1072047   -6.4076408    328.78156  0.038106346  0.038758226            5 
  720000    1.1465216   -6.3725615    329.03007  0.038082184  0.038749635            5 
  721000    1.1350389   -6.3866917    330.12862  0.038156336   0.03874118            5 
  722000    1.1266504   -6.3858538    329.79509  0.038064992  0.038732248            1 
  723000    1.1255844   -6.3927956    330.07784  0.038044933  0.038723412            4 
  724000    1.1175156   -6.3620003    330.29845  0.038017777  0.038714972            2 
  725000    1.1278985   -6.3665983     331.0385  0.038050403  0.038706405            3 
  726000    1.1237026   -6.3685689    330.77717  0.037967995  0.038697804            2 
  727000    1.1508088   -6.3821565    332.11476  0.038069093  0.038689142            4 
  728000    1.1448027   -6.4066075    332.85145  0.038101127  0.038680622            1 
  729000    1.1451875   -6.3644274    333.79916  0.038157197  0.038671721            3 
  730000    1.1318961   -6.3860381    332.73102  0.037982993  0.038662827            5 
  731000    1.1120281   -6.3665562    333.70988  0.038042622  0.038654506            6 
  732000    1.1412225   -6.3557809    334.95454  0.038132347  0.038646322            3 
  733000    1.1493706   -6.3630128    334.57311  0.038036961  0.038638508            3 
  734000    1.1351336    -6.355861    334.76992  0.038007485  0.038630001            3 
  735000    1.1227443    -6.333544     335.7113  0.038062505   0.03862136            2 
  736000    1.1528413   -6.3953655    336.11036  0.038055974  0.038612938            4 
  737000    1.1490294   -6.3661341    336.19406  0.038013802  0.038604353            2 
  738000    1.1430615   -6.3703766    338.05025   0.03817189  0.038596407            4 
  739000    1.1425545   -6.3867787    337.24434  0.038029357  0.038587836           11 
  740000    1.1445156   -6.3341494    338.68604   0.03814032  0.038579915            3 
  741000    1.1529678   -6.3679596    338.91321  0.038114396   0.03857166            4 
  742000    1.1246525   -6.3842657    338.96628  0.038068989  0.038563406            3 
  743000    1.1380189   -6.3928134    339.22937   0.03804726   0.03855505            4 
  744000     1.150254   -6.3791885    338.34655  0.037897239  0.038546885            4 
  745000     1.098856   -6.3872342    339.28002  0.037950785  0.038538535            2 
  746000    1.1404357   -6.4211573    338.79395  0.037845615  0.038530178            3 
  747000    1.1360276   -6.3782133     340.2735  0.037960007  0.038521751            2 
  748000    1.1040847   -6.3978074    339.43681  0.037816043  0.038512895            2 
  749000    1.1372498   -6.3679679    340.84679  0.037922429  0.038503941            1 
  750000    1.1181137   -6.3848506    341.15813  0.037906458  0.038495744            4 
  751000    1.1185088   -6.3960591    341.58265  0.037903091  0.038486996            3 
  752000    1.1398892   -6.4052028    340.70349  0.037755262  0.038478036            3 
  753000    1.1377713   -6.3949085    342.05281   0.03785445  0.038469225            3 
  754000      1.13472    -6.365748    342.80209  0.037887057  0.038460757            6 
  755000     1.148734   -6.3897968    343.65369  0.037930871  0.038452486            2 
  756000    1.1274318   -6.3921444    342.87718  0.037795104  0.038443869            4 
  757000    1.1188229   -6.4020947    343.42889   0.03780591   0.03843504            5 
  758000    1.1329424   -6.3951971    344.04013  0.037823234  0.038426336            4 
  759000    1.1228435   -6.4069238    343.57809  0.037722671  0.038417234            3 
  760000    1.1324539   -6.4184713    344.18592  0.037739685  0.038408636            2 
  761000    1.1448887   -6.3567748    346.16526  0.037906839  0.038400003            3 
  762000    1.1332413   -6.3896059    345.10398   0.03774103  0.038391054            7 
  763000    1.1350931   -6.3999984    345.90611  0.037779174  0.038382297            5 
  764000    1.1263089   -6.4121975    345.91905  0.037731136  0.038373723            6 
  765000    1.1357429   -6.3693445    346.55401  0.037750982  0.038364966            4 
  766000    1.1264558   -6.3758585    347.47147  0.037801509  0.038356113            2 
  767000    1.1432814   -6.4449018    347.08812  0.037710574   0.03834722            4 
  768000    1.1323758   -6.4075105    347.27569  0.037681824  0.038337921            5 
  769000    1.1307576   -6.4014813    346.80087  0.037581369  0.038328791            2 
  770000    1.1271066   -6.3743838    348.68417  0.037736382  0.038319526            5 
  771000    1.1279751   -6.4178289    347.55967  0.037565896  0.038310078            4 
  772000    1.1451358   -6.3782586    348.84215  0.037655673  0.038300469            2 
  773000    1.1439874   -6.4253124    348.72692  0.037594537  0.038291107            2 
  774000    1.1124173   -6.4006584     349.1127    0.0375875  0.038281632            7 
  775000     1.127643   -6.3743194     351.0095  0.037742957  0.038272709            4 
  776000    1.1263936   -6.3867048    350.60997  0.037651415  0.038264122            4 
  777000    1.1261348   -6.3994117    352.50979  0.037806712  0.038255631            4 
  778000    1.1058774   -6.3786335    351.86899   0.03768948  0.038247348            2 
  779000    1.1086506   -6.3798508    352.05838  0.037661358  0.038238859            3 
  780000    1.1194081   -6.4075654    352.97741  0.037711262  0.038230519            2 
  781000    1.1311516   -6.4251236    353.60996  0.037730469  0.038222317            2 
  782000    1.1312391   -6.4076185    352.66314  0.037581324   0.03821414            4 
  783000    1.1221019   -6.3572904    354.67194   0.03774712  0.038205801            3 
  784000    1.1138756   -6.3860037    354.37289  0.037667186  0.038197449            3 
  785000    1.1285832   -6.3946919    354.58591  0.037641817  0.038189068            2 
  786000    1.1368688    -6.434426    355.44584  0.037685097  0.038180599            2 
  787000    1.1256574    -6.410556    354.84726  0.037573831  0.038172022            3 
  788000    1.1044225   -6.4079516    354.79785  0.037520923  0.038163375            2 
  789000    1.1658773   -6.4285505    356.39354  0.037641903  0.038154925            3 
  790000    1.1316184   -6.3731052    358.00837  0.037764596  0.038146587            4 
  791000    1.1240854   -6.3824892    358.34918  0.037752758  0.038138453            3 
  792000    1.1315226   -6.4070508    357.85356  0.037652942  0.038130353            3 
  793000    1.1337278   -6.3843931     358.5921   0.03768307  0.038122314            2 
  794000    1.1169134   -6.3831818    357.94632  0.037567834  0.038114289            3 
  795000    1.1170595   -6.4159732    358.47914   0.03757643  0.038106267            3 
  796000    1.1303332   -6.3548874    360.73968   0.03776588  0.038098556            4 
  797000    1.1297198   -6.3887709    359.10943  0.037548038  0.038090969            2 
  798000    1.1467636   -6.3674595    361.01865   0.03770036  0.038083164            2 
  799000    1.1339156   -6.3891399    361.27021  0.037679412  0.038075504            6 
  800000    1.1327776   -6.4101817    359.99275  0.037499245  0.038067585            2 
  801000    1.1171411   -6.4368677    361.08169  0.037565719  0.038059628            2 
  802000    1.1329431   -6.3949704    361.74979  0.037588299  0.038051268            2 
  803000    1.1444306   -6.3914924    361.30416  0.037495243  0.038043228            2 
  804000    1.1269243   -6.4033561    361.61576  0.037480904  0.038035699            3 
  805000    1.1163787   -6.3908159    364.27226  0.037709344  0.038027772            3 
  806000    1.0997579   -6.4247859    364.58005   0.03769438  0.038019938            2 
  807000    1.1273497   -6.3978735    363.97394  0.037585083  0.038012114            5 
  808000    1.1313594   -6.4424583    364.04753  0.037546156  0.038004451            2 
  809000    1.1293119    -6.399669    364.68527  0.037565438    0.0379968            2 
  810000    1.1629102   -6.3930939    366.14417  0.037669154  0.037988746            3 
  811000    1.1209746   -6.4186641    365.70302  0.037577376  0.037981372            4 
  812000    1.1247463   -6.4025407    365.89191  0.037550483  0.037973343            3 
  813000    1.1293484   -6.4324058    364.80422  0.037392806  0.037965048            2 
  814000    1.1428469   -6.4452149    365.51161  0.037419289  0.037956826            3 
  815000    1.1203029   -6.4414588    365.00585  0.037321661  0.037948531            4 
  816000    1.1120519   -6.4128794    366.38687  0.037416959  0.037940306            2 
  817000    1.1217312   -6.4036379    366.40516  0.037373027  0.037931925            3 
  818000    1.1198806   -6.3908785    367.87993  0.037477581  0.037923946            3 
  819000    1.1097927   -6.4183073     368.0375  0.037447853   0.03791571            2 
  820000    1.1413666    -6.405162    368.76998  0.037476624  0.037907274            3 
  821000    1.1283388   -6.4065122    369.47481  0.037502519   0.03789913            3 
  822000    1.1121757   -6.3814748    368.95198  0.037403891  0.037890764            1 
  823000    1.1265708   -6.3993913    368.85106  0.037348224  0.037882354            5 
  824000    1.1055136   -6.4145837    369.49281    0.0373678  0.037873389            2 
  825000    1.1106367   -6.4150972    369.39834  0.037312963  0.037864578            3 
  826000    1.1259073   -6.4059617    368.73983  0.037201355  0.037855768            5 
  827000     1.118874   -6.4269366    369.99412  0.037282761  0.037847033            2 
  828000    1.1437304   -6.4556148    371.37706  0.037376918  0.037838737            3 
  829000    1.1147328   -6.4283242      370.998  0.037293727  0.037830401            3 
  830000    1.1255852   -6.4467625    371.14475  0.037263529   0.03782213            4 
  831000    1.1178191   -6.3814963    372.80638  0.037385317  0.037814026            2 
  832000    1.1213689   -6.4268379     372.9318  0.037352945  0.037805806            4 
  833000    1.0984159   -6.4213097    372.55459  0.037270367  0.037797231            7 
  834000    1.0982088   -6.4231061    372.43059  0.037213288  0.037788381            3 
  835000    1.1027915   -6.4531181     371.9384  0.037119601    0.0377799            3 
  836000    1.1154301   -6.3996351    373.04249  0.037185256  0.037770828            5 
  837000    1.1239167   -6.4344742    371.36743  0.036974057   0.03776131            5 
  838000    1.1246158   -6.4641466    373.12755  0.037104968  0.037752001            4 
  839000    1.1001715   -6.4061768    373.51523  0.037099248  0.037742875            4 
  840000    1.0942468   -6.4383011    373.82407  0.037085722  0.037733624            4 
  841000    1.1012032   -6.4363759    373.12193   0.03697205  0.037724265            3 
  842000    1.1262779   -6.4192267    374.35621  0.037050298   0.03771513            3 
  843000    1.1332781   -6.4137521    374.94305  0.037064359   0.03770582            3 
  844000    1.1137982   -6.4086051    376.69127  0.037193056  0.037696848            5 
  845000    1.1178703   -6.3885442    376.57433  0.037137508  0.037688367            4 
  846000    1.1172561   -6.4140021    377.82933  0.037217231  0.037679836            3 
  847000    1.1357161   -6.4135202    378.47224  0.037236544  0.037670983            4 
  848000    1.1214073   -6.4312063    377.24417   0.03707195  0.037662201            3 
  849000    1.1066937     -6.43509    377.86043  0.037088774  0.037653375            5 
  850000    1.1006117   -6.4130946    379.72291  0.037227736  0.037644533            4 
  851000    1.1282455   -6.4287165     378.4232  0.037056718  0.037635736            2 
  852000    1.1203712   -6.4197438    378.88192  0.037058091  0.037626452            2 
  853000    1.1371753   -6.4396964    380.74365  0.037196527  0.037617612            2 
  854000     1.125107   -6.4471291    379.42557  0.037024353  0.037608575            2 
  855000    1.1199793   -6.3916134    379.97725  0.037034819  0.037599515            6 
  856000    1.1195564   -6.4102631     381.3441   0.03712462  0.037590465            3 
  857000    1.1283223   -6.3970638    380.22945  0.036972914  0.037581613            5 
  858000     1.112789   -6.3910821     381.4922  0.037052466  0.037572542            1 
  859000    1.1308888   -6.4327503    380.77854  0.036940099  0.037563519            2 
  860000    1.0992088   -6.4235452    380.74131  0.036893538  0.037554307            3 
  861000    1.1125158   -6.3711679    382.59134  0.037029746  0.037545338            5 
  862000    1.1238857   -6.4051822    382.05227  0.036934674  0.037536492            5 
  863000    1.0874737   -6.4029543    382.43337  0.036928676  0.037527896            4 
  864000    1.0981902   -6.4298224    382.92054  0.036932923  0.037518982            4 
  865000    1.1251488   -6.4059607     383.4815  0.036944267  0.037509857            2 
  866000    1.1135568   -6.4352937    383.71654  0.036924225  0.037500774            9 
  867000    1.1196872   -6.3972581    384.89116  0.036994536  0.037491748            6 
  868000    1.0939788   -6.3952511    386.45276  0.037101839   0.03748333            3 
  869000    1.0938578   -6.4338237    384.55008  0.036876686  0.037474788            7 
  870000    1.1273668   -6.4113584    385.83334  0.036957216  0.037466498            4 
  871000    1.0927166   -6.4350404     387.2222  0.037047666  0.037458242            2 
  872000      1.09845   -6.4218655    387.49298  0.037031057   0.03745016            5 
  873000    1.1132467   -6.4236751    387.58688  0.036997602  0.037441845            2 
  874000    1.1278445   -6.3977236    388.39583  0.037032401   0.03743374            3 
  875000    1.1359375     -6.40238    388.22396   0.03697371  0.037425534            2 
  876000    1.1232315   -6.4516193    387.88351  0.036899116  0.037417047            4 
  877000    1.0957541   -6.4141637    390.29628  0.037086306  0.037408319            2 
  878000    1.1076425   -6.4265754    389.64066  0.036981839  0.037400235            3 
  879000     1.110445   -6.3997545    389.96439  0.036970458  0.037392129            6 
  880000    1.0728597   -6.4578661    389.15032  0.036851356   0.03738368            5 
  881000    1.1168529   -6.4241341     389.2227  0.036816374  0.037374874            2 
  882000    1.1069146    -6.448603    388.98932  0.036752581  0.037365745            5 
  883000    1.1129199   -6.4498196    388.85616  0.036698392  0.037356534            2 
  884000    1.1232893   -6.4346571    391.06381   0.03686499  0.037347548            1 
  885000    1.1149487   -6.4311892    390.32757  0.036754008  0.037338424            3 
  886000     1.095897   -6.4339147     390.1509  0.036695909  0.037329515            3 
  887000    1.1017416     -6.42598    390.54775  0.036691821  0.037320441            5 
  888000    1.0873635   -6.4030116    391.90336  0.036777718  0.037311522            2 
  889000    1.1117746   -6.4097658    392.57434  0.036799245  0.037302831            5 
  890000     1.099263   -6.4062571     393.4337  0.036838361  0.037293854            4 
  891000    1.1188225   -6.4298583    392.28997  0.036690046  0.037285016            2 
  892000    1.1013073   -6.4312807    393.65596  0.036776529  0.037276267            2 
  893000    1.1091064   -6.4678179    394.06717  0.036773719  0.037267506            5 
  894000    1.1079663   -6.4434145    394.32694  0.036756799  0.037258695            7 
  895000    1.1057999   -6.4444583    394.30712  0.036713884   0.03724997            5 
  896000    1.1109202   -6.4200039    394.55006  0.036695504  0.037241253            2 
  897000    1.1055732   -6.4430947     396.5582  0.036841156  0.037232596            4 
  898000    1.1037611   -6.4515939    395.78595  0.036728466  0.037224206            3 
  899000    1.0786802   -6.4529742    396.01363  0.036708716  0.037215875            5 
  900000    1.1154295   -6.4454411    396.99222  0.036758539  0.037207472            6 
  901000    1.0953755   -6.4084651    397.28861  0.036745154  0.037199558            3 
  902000    1.1423578   -6.4377069    398.15444  0.036784409  0.037191435            4 
  903000     1.104798   -6.4128297    398.99045  0.036820824  0.037183693            3 
  904000    1.0811845    -6.426085     399.6893  0.036844515  0.037175754            4 
  905000    1.0905247   -6.4245439    400.64015  0.036891358  0.037168225            2 
  906000      1.09928   -6.4419056    399.19424  0.036717645   0.03716033            3 
  907000    1.1137694   -6.4425581    399.13424   0.03667165  0.037152813            4 
  908000    1.1212045   -6.4395603    401.77422  0.036873552  0.037144973            4 
  909000    1.1186687   -6.4090138    401.84138  0.036839143    0.0371371            3 
  910000    1.0737391   -6.4688346    400.69579  0.036693754  0.037129233            3 
  911000    1.1103391   -6.4402008    401.03313  0.036684334  0.037120996            2 
  912000    1.1140751   -6.4667716    402.46638  0.036775072  0.037112526           12 
  913000    1.0911008   -6.4295073    402.13364  0.036704421  0.037104338            4 
  914000    1.1300791   -6.4678094    402.22634  0.036672715  0.037096227            6 
  915000    1.0950802   -6.4766698     402.6806  0.036674007  0.037087815            2 
  916000    1.1291362   -6.4329845     404.0415  0.036757778  0.037079767            3 
  917000    1.1220576   -6.4622738    403.35025  0.036654876  0.037071685            3 
  918000    1.1526817   -6.4137107    404.87394  0.036753262  0.037063755            4 
  919000    1.1226306   -6.4704189    403.21145  0.036562518  0.037055578            3 
  920000    1.0867694   -6.4422721    404.56432  0.036645318  0.037047361            2 
  921000    1.0982426   -6.4467555    405.21418  0.036664331  0.037039387            3 
  922000    1.0834028   -6.4470416    405.24064  0.036626956  0.037031055            3 
  923000    1.1032021   -6.3825802    407.27346  0.036770807  0.037022957            6 
  924000    1.0977172   -6.4339647    406.69204  0.036678575  0.037014971            3 
  925000    1.1138566   -6.4176655    407.57514  0.036718481  0.037006939            4 
  926000    1.1171539   -6.4466175     408.7217   0.03678201  0.036999054            5 
  927000    1.1012322   -6.4185059    407.24567  0.036609643  0.036991081            3 
  928000     1.109429   -6.4724201    407.27765  0.036573065  0.036982937            4 
  929000    1.1057291   -6.4406055    407.93743   0.03659288  0.036974826            6 
  930000    1.0834305   -6.4284145    408.34304  0.036589878  0.036966693            2 
  931000    1.0708806   -6.4421426    408.38351  0.036554199   0.03695881            3 
  932000    1.1081561   -6.4431132    408.55716  0.036530504   0.03695067            2 
  933000    1.1021288   -6.4426721    408.82165  0.036514974   0.03694277            3 
  934000    1.1040848   -6.4463101     409.6943  0.036553738  0.036934613            2 
  935000    1.1130568   -6.4601154     409.4646  0.036494171  0.036926348            3 
  936000     1.089541   -6.4488857    410.32032  0.036531368  0.036918183            4 
  937000     1.135027    -6.453638    409.38752   0.03640942  0.036909894            3 
  938000    1.1243365    -6.469496    409.55389  0.036385385  0.036901496            2 
  939000    1.0922077   -6.4109168    410.99798  0.036474794  0.036893225            4 
  940000    1.1023402   -6.4594892    410.04093  0.036351146  0.036884682            2 
  941000    1.1176773   -6.4407735      411.369  0.036430127   0.03687614            3 
  942000    1.0790261   -6.4682971    411.30806  0.036386063  0.036867679            9 
  943000    1.0983893   -6.4563935    413.10705  0.036506455  0.036859591            3 
  944000    1.0821831   -6.4384153    410.70625  0.036255848  0.036851101            1 
  945000    1.1141798   -6.4493578    413.61741  0.036474199  0.036842908            5 
  946000    1.1119906    -6.436053    413.89461  0.036460061  0.036834624            3 
  947000    1.0940196   -6.4298943    414.12796  0.036442094  0.036826458            6 
  948000    1.1089609    -6.437525    413.43618  0.036342843  0.036818324            4 
  949000    1.1201103   -6.4146556    415.28801  0.036467159  0.036810149            4 
  950000    1.0901411   -6.4623118    414.31321  0.036343264  0.036802026            2 
  951000    1.1035054   -6.4447865    415.25615  0.036387675  0.036794275            3 
  952000    1.1115955   -6.4170453    416.60203  0.036467265  0.036786227            3 
  953000     1.112055   -6.4694315    416.24058  0.036397393  0.036778137            2 
  954000    1.0740953   -6.4598097    415.73781  0.036315322   0.03677003            2 
  955000    1.1031046   -6.4415298     416.9538  0.036383403  0.036762074            4 
  956000    1.0809741   -6.4669899    417.02206  0.036351295  0.036754196            1 
  957000    1.0996529   -6.4512325    418.94498  0.036480754  0.036746474            5 
  958000    1.0799496   -6.4409584    417.18468  0.036289551  0.036738744            7 
  959000    1.1126351   -6.4393498    417.96994  0.036319946  0.036730862            3 
  960000    1.1095762   -6.4509758    419.38801   0.03640521  0.036723209            5 
  961000    1.0978639   -6.4266339    420.85941   0.03649492  0.036715747            2 
  962000    1.1033736   -6.4303012    420.45788    0.0364222  0.036708246            2 
  963000    1.0915051   -6.4133852    421.16963   0.03644597  0.036700704            2 
  964000     1.106914    -6.472051    421.22014  0.036412529  0.036693154            3 
  965000    1.0823736   -6.4588611    421.16885  0.036370367  0.036685793            3 
  966000    1.0712776   -6.4774337    421.13083  0.036329436  0.036678167            4 
  967000     1.082457   -6.4177322    423.23653  0.036473331  0.036670575            2 
  968000    1.1097624   -6.4648002    422.84934  0.036402319  0.036663031            6 
  969000     1.129693   -6.4441319    423.73773  0.036441153  0.036655648            4 
  970000    1.0946372   -6.4193941    423.84689  0.036412963  0.036648176            3 
  971000    1.1137626   -6.4711339    424.55266  0.036436033  0.036640851            4 
  972000    1.0840757   -6.4683294    424.62894  0.036405088  0.036633801            3 
  973000    1.1212782   -6.4430152     423.9357  0.036308299  0.036626722            4 
  974000     1.105345   -6.4468945    425.52208  0.036406748  0.036619638            3 
  975000    1.0962952   -6.3910721    427.31873  0.036522968  0.036612882            1 
  976000    1.0817041   -6.4420435    426.43628  0.036410202  0.036605957            5 
  977000    1.1009241   -6.4329413    426.31484  0.036362576  0.036599048            6 
  978000    1.0939193   -6.4696029    427.87327  0.036458186  0.036592016            4 
  979000    1.1025552   -6.4787115     426.7526  0.036325553  0.036584809            1 
  980000    1.1101526   -6.4303187    426.86659  0.036298179  0.036577451            9 
  981000    1.1245874    -6.430709    427.80939  0.036341267  0.036569956            2 
  982000    1.1159297   -6.4531965    429.19383  0.036421743  0.036562524            3 
  983000    1.0929831   -6.4573905    429.70103  0.036427689  0.036555406            6 
  984000     1.100542   -6.4890519    427.60161  0.036212873  0.036548231            2 
  985000    1.0874746   -6.4959955    428.42083  0.036245417  0.036540969            4 
  986000    1.0886178    -6.479559    429.15983  0.036271114  0.036533661            4 
  987000    1.0669832   -6.4612396    429.79939  0.036288364  0.036526529            4 
  988000    1.1055644   -6.4725025    429.60369  0.036235129  0.036519017            1 
  989000    1.0878828    -6.467892    430.46483  0.036271051  0.036511823            8 
  990000    1.0995807   -6.4798703    431.53099  0.036324158  0.036504506            3 
  991000    1.1143558   -6.3998747    432.31368   0.03635332  0.036497462            3 
  992000     1.091624   -6.4952852    430.96194   0.03620312  0.036490119            4 
  993000    1.1079138   -6.4475892     432.3054  0.036279406  0.036482736            2 
  994000    1.1091822   -6.4575833     432.4045  0.036251215  0.036475375            8 
  995000    1.1002375   -6.4496241    433.00202  0.036264826  0.036468232            2 
  996000    1.0954659   -6.4741825    433.95331  0.036308007  0.036461285            5 
  997000    1.0904255   -6.4631201    433.45991   0.03623035  0.036454308            2 
  998000    1.0982522    -6.469037     434.6375  0.036292376  0.036447086            3 
  999000    1.0769547   -6.4820862    432.74224  0.036097951  0.036440039            3 
 1000000    1.0575997   -6.4727902    434.56825  0.036214021  0.036432862            2 
 1001000    1.1071942   -6.4666009    433.83368   0.03611669  0.036425729            3 
 1002000    1.0841196   -6.4665156    435.91274  0.036253555  0.036418664            5 
 1003000    1.1123643   -6.4645392    435.63637  0.036194447   0.03641135            4 
 1004000    1.0996202   -6.4978321    436.62252  0.036240249  0.036404252            5 
 1005000     1.077229   -6.4168781    436.43005   0.03618823  0.036397301            4 
 1006000    1.0939334    -6.446476     437.6671   0.03625473  0.036390477            2 
 1007000    1.0802826   -6.4582098    437.39104  0.036195882  0.036383505            3 
 1008000    1.1142523   -6.4918655    437.35923  0.036157344  0.036376338            1 
 1009000     1.085703   -6.4454881    438.33622  0.036202198  0.036369384            2 
 1010000    1.0691521   -6.4606896    439.44243  0.036257626  0.036362685            3 
 1011000    1.0933547   -6.4671221     439.0252  0.036187372   0.03635604            3 
 1012000    1.0792146   -6.4554313    438.43518  0.036103029  0.036349267            5 
 1013000    1.0689302   -6.5008451    439.74651  0.036175264  0.036342503            3 
 1014000    1.1024283   -6.4661973    440.48387  0.036200187  0.036335803            9 
 1015000    1.0895806   -6.4396508    441.42889  0.036242109  0.036328977            3 
 1016000    1.1041311   -6.4878937    441.31374  0.036196993  0.036322072            3 
 1017000    1.0955336   -6.4617298    441.34304  0.036163802  0.036315418            3 
 1018000    1.0781471   -6.4769571    441.35635  0.036129367  0.036308504            6 
 1019000    1.0761309   -6.4393592    441.68319  0.036120641  0.036301848            7 
 1020000    1.0979635   -6.4505044    441.19234  0.036045126  0.036295079            3 
 1021000    1.0767465   -6.4954531    441.38093  0.036025214  0.036288042            3 
 1022000    1.0876591   -6.4785877    441.97729  0.036038592  0.036281183            6 
 1023000    1.1040827   -6.4651107    443.95212  0.036164233  0.036274072            3 
 1024000    1.0787883    -6.483813    443.79229  0.036115909  0.036267189            3 
 1025000      1.07282   -6.5010095    443.47768  0.036055096  0.036260279            3 
 1026000    1.0808641   -6.4831232    444.66228  0.036116169  0.036253552            6 
 1027000    1.0791202   -6.4880085    444.94896  0.036104265  0.036246869            7 
 1028000    1.0864516   -6.4544344    446.17473  0.036168509  0.036240398            2 
 1029000    1.0935321   -6.4333041    446.67106  0.036173555  0.036233839            3 
 1030000    1.0661385   -6.4798446    447.36028  0.036194197  0.036227607            4 
 1031000    1.0927498   -6.4670268    447.75942  0.036191353  0.036221058            2 
 1032000     1.089525   -6.4817123    446.28222  0.036037001  0.036214295            4 
 1033000    1.0855348    -6.457323    447.20605  0.036076642  0.036207675            2 
 1034000    1.1010023   -6.4886785    447.80871  0.036090322  0.036201152            6 
 1035000    1.0829842   -6.4321275      449.512  0.036192593  0.036194944            6 
 1036000    1.0695999   -6.4661353    449.20332  0.036132828  0.036188643            2 
 1037000    1.0788919   -6.4643655     451.3616  0.036271424  0.036182665            3 
 1038000    1.1073678    -6.475927    449.75971  0.036107877  0.036176563            6 
 1039000    1.0986055   -6.4593817    449.06744    0.0360176  0.036170308            3 
 1040000    1.0960944   -6.4758517    450.93595  0.036132688  0.036164273            2 
 1041000    1.0862974   -6.4803563    451.61476  0.036152319  0.036157852            4 
 1042000    1.0866995   -6.4807194    450.86723   0.03605784  0.036151453            5 
 1043000    1.0938834   -6.4827403    451.03258  0.036036479  0.036145223            2 
 1044000    1.0900806   -6.5070209    450.29628   0.03594319  0.036138558            2 
 1045000    1.0705791     -6.46795    451.18736  0.035979853  0.036131958            5 
 1046000    1.0995557   -6.4729096     450.8207  0.035916244  0.036125181            5 
 1047000    1.0873873   -6.4617735    452.34353  0.036003146  0.036118234            2 
 1048000    1.1150832   -6.4695901    451.64778  0.035913469  0.036111627            3 
 1049000    1.1166084   -6.4721417    452.78742  0.035969766  0.036104857            5 
 1050000    1.0659195   -6.5061228    451.42351  0.035827263  0.036097887            1 
 1051000    1.0732784   -6.4630764    455.32029  0.036102148  0.036091267            6 
 1052000    1.0865657   -6.4747153    455.73426  0.036100623  0.036084683            5 
 1053000    1.0892768   -6.4680741    455.00634  0.036008732  0.036078275            5 
 1054000    1.0632898   -6.4955628    455.94779  0.036049003  0.036071806            4 
 1055000    1.1174245    -6.484913    455.44137  0.035974832  0.036065489            3 
 1056000    1.0762638   -6.4839438    455.93597  0.035979796  0.036059109            3 
 1057000    1.0763385   -6.4576682    456.49633  0.035989935  0.036052911            2 
 1058000    1.0767957   -6.4852646    456.95015  0.035991663   0.03604652            3 
 1059000    1.0804664   -6.4842952    455.14823  0.035815882   0.03604005            4 
 1060000    1.0550717   -6.4613642    457.34807  0.035955037  0.036033596            4 
 1061000    1.0794208   -6.4550018    456.99438  0.035893369  0.036027039            2 
 1062000    1.1053383   -6.4838176    456.39391  0.035812454   0.03602032            2 
 1063000    1.0642567    -6.507943    456.73333  0.035805372  0.036013517            4 
 1064000    1.0755211   -6.5178421    456.41852  0.035747065  0.036006577            2 
 1065000    1.0716426   -6.4505656    458.40125  0.035868643  0.035999732            4 
 1066000    1.0696936   -6.5019199    458.84061  0.035869341  0.035992927            6 
 1067000    1.0984704   -6.5163068    458.65938   0.03582157  0.035986025            4 
 1068000    1.0727382   -6.4538634     458.7365  0.035794046  0.035979298            2 
 1069000    1.0740407   -6.4786494    459.64942  0.035831729   0.03597247            4 
 1070000    1.0799375   -6.4924999    459.99414  0.035825089  0.035965523            6 
 1071000    1.0609511    -6.485168    460.01415  0.035793196  0.035958644            2 
 1072000    1.0686589   -6.4819102    459.67253   0.03573325  0.035951737            4 
 1073000     1.089389   -6.4884382    462.82666   0.03594491  0.035945267            3 
 1074000    1.0897409   -6.4537733    464.30871  0.036026436  0.035938928            5 
 1075000    1.0953785   -6.4746968    462.82336   0.03587778  0.035932579            4 
 1076000    1.0822629   -6.4682368    462.63035  0.035829488  0.035926372            5 
 1077000    1.0591806   -6.4900734    463.34116   0.03585122  0.035920118            6 
 1078000    1.0925295   -6.4534774    464.21666  0.035885641  0.035913722            2 
 1079000    1.0765587     -6.47399    465.10359  0.035920882  0.035907508            6 
 1080000    1.0709587   -6.4513905    465.47211  0.035916058  0.035901499            6 
 1081000    1.0767427   -6.4920471    465.27962  0.035867994  0.035895546            3 
 1082000    1.0695455   -6.5125162    465.79064  0.035874202  0.035889327            4 
 1083000    1.0910454   -6.4961741    464.46728  0.035739249  0.035883029            4 
 1084000    1.0910209   -6.4708117    466.85192  0.035889601  0.035876735            5 
 1085000    1.0964295   -6.5139804    466.07614  0.035796939  0.035870453            9 
 1086000    1.0919841   -6.5033407    464.99223  0.035680804  0.035864239            3 
 1087000    1.0708082   -6.4846012    467.26594  0.035822289  0.035857653            3 
 1088000    1.0792864   -6.5205835    466.62358  0.035740164  0.035850902            5 
 1089000    1.0837576   -6.4651972    467.09774  0.035743628  0.035844546            6 
 1090000    1.0218895   -6.4975531    468.23512  0.035797792  0.035838178            6 
 1091000    1.0743824   -6.5112826    468.64165  0.035796032  0.035831689            2 
 1092000    1.0740855   -6.4952543    468.93834  0.035785893  0.035825239            6 
 1093000    1.0692465   -6.4853945     467.5778  0.035649421  0.035818571            6 
 1094000    1.0705379   -6.4687379    468.57882  0.035693085  0.035811774            3 
 1095000    1.1084904   -6.4870841    468.59572  0.035661775  0.035804951            3 
 1096000    1.0611762   -6.4826296    468.77439  0.035642822  0.035798081            3 
 1097000    1.0739257   -6.4787814     470.9547  0.035775957  0.035791494            4 
 1098000    1.0619277   -6.4882967    470.09499  0.035678126  0.035784799            3 
 1099000    1.0722242   -6.5098733    470.05425  0.035642572  0.035778082            2 
 1100000    1.0908298   -6.5256236    470.12338  0.035615407   0.03577138            5 
 1101000    1.0820899   -6.4998162    470.79467  0.035633869  0.035764881            3 
 1102000    1.0849523   -6.4607409    470.25188  0.035560487  0.035758235            4 
 1103000    1.0763862   -6.5236596    471.74839  0.035641311  0.035751618            5 
 1104000    1.0692212   -6.5117664     472.1821  0.035641765  0.035745025            5 
 1105000    1.0653683    -6.475863    473.77611  0.035729721  0.035738429            3 
 1106000     1.079358   -6.4872544    472.47382  0.035599293  0.035731798            3 
 1107000    1.0760392   -6.5077649    475.16332  0.035769596  0.035725437            2 
 1108000    1.0673357   -6.4944752    474.53931  0.035690381   0.03571917            9 
 1109000    1.0791212   -6.4954359    474.06729   0.03562273  0.035712696            8 
 1110000    1.0901377   -6.4921045    475.60167  0.035705831  0.035706495            6 
 1111000    1.1061429   -6.4873232    475.86994  0.035693815   0.03570029           11 
 1112000     1.078383   -6.4994889    475.75644  0.035653211  0.035694236            3 
 1113000     1.088043   -6.5268172    475.71049  0.035617736  0.035687965            4 
 1114000        1.088   -6.5280773    475.17319  0.035545571  0.035681554            5 
 1115000    1.0745026   -6.4622389    475.86737  0.035565573   0.03567531            4 
 1116000     1.088628   -6.5172366    476.10217  0.035551237  0.035668889            2 
 1117000    1.1028712   -6.4973411    475.94867  0.035507958  0.035662451            3 
 1118000    1.0941404   -6.5250896    476.04905   0.03548368  0.035655956            3 
 1119000    1.0822929   -6.5286709    477.44773  0.035556131  0.035649296            4 
 1120000    1.0647449   -6.5004392    478.25617  0.035584537  0.035642835            3 
 1121000     1.080901   -6.5006639    478.05985  0.035538199  0.035636443            6 
 1122000    1.0642904   -6.5165551    477.45215  0.035461389  0.035630011            6 
 1123000     1.083716   -6.5177757    479.41038  0.035575125  0.035623695            5 
 1124000    1.0721733   -6.5055135    477.98797  0.035438016  0.035617258            2 
 1125000    1.0707756    -6.520453    479.43465  0.035513678  0.035610652            4 
 1126000    1.0740296   -6.4880383    482.03227  0.035674383  0.035604239            2 
 1127000    1.0569617    -6.490752    480.50423  0.035529742  0.035598081            8 
 1128000     1.070481   -6.5057321    479.33862  0.035412132  0.035591676            3 
 1129000    1.0687863     -6.53984    480.55824  0.035470788  0.035585108            4 
 1130000    1.0516223   -6.5105692    481.18057  0.035485293  0.035578622            3 
 1131000     1.052503   -6.5035369    482.11072  0.035522452   0.03557194            4 
 1132000    1.0583292   -6.4797571    481.61067   0.03545426  0.035565366            2 
 1133000    1.0623091   -6.5165577     481.3202  0.035401603  0.035558622            4 
 1134000    1.0560472   -6.5137601    481.70639  0.035398765  0.035551813            2 
 1135000    1.0685386   -6.5110729    484.37143  0.035563248  0.035545052            3 
 1136000    1.0769899   -6.4677541    482.68666  0.035408352  0.035538587            2 
 1137000    1.0849299   -6.5113411    480.81374   0.03523994   0.03553188            8 
 1138000    1.0605803   -6.5141844     483.2402  0.035386658  0.035525152            2 
 1139000    1.0547479   -6.5031387    485.09336  0.035491174  0.035518324            2 
 1140000     1.063401   -6.4781323    485.35836  0.035479412  0.035511783            3 
 1141000     1.057076   -6.5190271    485.51638  0.035459858  0.035505194            8 
 1142000    1.0650685   -6.5007124    485.98984  0.035463357  0.035498643            3 
 1143000    1.0739243   -6.5187097    484.48157  0.035322366  0.035492104            2 
 1144000    1.0652498   -6.5304912    484.64222  0.035303192  0.035485592            3 
 1145000    1.0564479   -6.5372937    486.57791  0.035413239  0.035479034            2 
 1146000    1.0764485   -6.5098857    487.41838  0.035443454  0.035472743            5 
 1147000    1.0993622   -6.5263607     489.0136  0.035528451  0.035466572            6 
 1148000    1.0623185   -6.5201023    485.76257   0.03526151  0.035460221            3 
 1149000    1.0378716   -6.4984679    487.86905  0.035383598  0.035453646            8 
 1150000    1.0595492   -6.5170732    488.39049  0.035390615  0.035447382            3 
 1151000    1.0899187   -6.4781237    488.57923  0.035373532  0.035440895            5 
 1152000    1.0680346   -6.5389877    488.14941  0.035311734  0.035434254            6 
 1153000    1.0504506   -6.5403124    486.45304  0.035158503  0.035427589            5 
 1154000    1.0673019   -6.5314931    487.98309  0.035238525  0.035420815            2 
 1155000    1.0594152   -6.5193571    489.22873  0.035297888  0.035414158            2 
 1156000    1.0600278   -6.4951487    490.49756  0.035358821  0.035407315            7 
 1157000    1.0863723   -6.4884432     491.4428  0.035396341  0.035400809            2 
 1158000    1.0953837   -6.5082145    490.93307  0.035329093  0.035394091            2 
 1159000    1.0609016   -6.4937902    489.70243  0.035210126  0.035387375            8 
 1160000     1.048274   -6.4930342    491.67611   0.03532156  0.035380744            5 
 1161000     1.068574   -6.5322016    489.99971  0.035170809  0.035374032            3 
 1162000    1.0574545   -6.4856877     490.8071  0.035198444  0.035367365            6 
 1163000    1.0703727   -6.5074692    490.54588  0.035149461  0.035360495            7 
 1164000    1.0717488   -6.4561918    493.80315  0.035352459  0.035353745            3 
 1165000    1.0532149   -6.4936383    491.44086  0.035153137  0.035346905            2 
 1166000    1.0680196   -6.5060508    491.96784  0.035160652  0.035340013            6 
 1167000    1.0584847   -6.5182666     493.5024  0.035240103  0.035333154            4 
 1168000    1.0752295   -6.4978847    493.00918  0.035174742  0.035326306            8 
 1169000    1.0693891   -6.4960725    493.62021   0.03518821  0.035319529            3 
 1170000    1.0496124   -6.5056488    493.58859  0.035155883  0.035312361            4 
 1171000    1.0836175    -6.519684    493.65415  0.035130526  0.035305293            4 
 1172000     1.092143   -6.5172009    493.22847  0.035070284   0.03529838            3 
 1173000     1.067453   -6.4852439    493.39809  0.035052436  0.035291254            2 
 1174000    1.0430186   -6.5282227    493.29159  0.035015019  0.035283757            3 
 1175000    1.0798438   -6.4832283    495.15737  0.035117544   0.03527632            7 
 1176000    1.0599599   -6.5037356    494.59183  0.035047607  0.035268895            4 
 1177000    1.0699736   -6.5041465    493.73713  0.034957316  0.035261665            6 
 1178000    1.0304322   -6.5166438     493.9117   0.03493999  0.035254407            5 
 1179000    1.0531938   -6.4956963    497.52023  0.035165411  0.035247231            2 
 1180000    1.0468428   -6.5371899     495.4879  0.034992083  0.035240016            3 
 1181000    1.0829519   -6.5198127    496.39502  0.035026462  0.035232657            3 
 1182000     1.068097     -6.51498    495.41187  0.034927514  0.035225319            8 
 1183000    1.0642119   -6.5155729    497.76431  0.035063702  0.035218294            4 
 1184000    1.0622958   -6.5337196    497.52745  0.035017416  0.035211172            5 
 1185000    1.0821954    -6.506309    499.70523  0.035141014  0.035204073            5 
 1186000    1.0896123   -6.5180715    497.76294  0.034974912  0.035196783            6 
 1187000    1.0477212     -6.52378    497.70096  0.034941095  0.035189446            9 
 1188000    1.0567562   -6.4983169    498.61015  0.034975459  0.035182102            5 
 1189000    1.1015285   -6.5291172    498.13862  0.034912995  0.035174739            3 
 1190000    1.0543438   -6.4989553    499.42024  0.034973406  0.035167306            2 
 1191000      1.05557   -6.5193204    499.17368   0.03492679  0.035159943            6 
 1192000    1.0720916    -6.532686    499.89454  0.034947884  0.035152579            4 
 1193000    1.0794431   -6.5378283    499.70013   0.03490501  0.035145147            3 
 1194000    1.0488714   -6.5296426    498.43794  0.034787684  0.035137653            3 
 1195000    1.0441457   -6.5123044    499.42992  0.034827749  0.035130119            5 
 1196000    1.0585325   -6.4884122    500.29103  0.034858628  0.035122713            2 
 1197000    1.0670297   -6.5289178    500.26664  0.034827808  0.035115128            6 
 1198000    1.0637864   -6.5123093    500.68718  0.034827989  0.035107337            9 
 1199000     1.063264   -6.4880071    502.99439  0.034959298  0.035099769            3 
 1200000    1.0530542   -6.5076598    501.07913  0.034797162    0.0350921           14 
 1201000    1.0364692   -6.5587157    500.32822  0.034716085  0.035084612            3 
 1202000    1.0741285   -6.5464934    501.33134  0.034756749  0.035077076            1 
 1203000    1.0702692   -6.4984603    502.72435  0.034824352   0.03506971            2 
 1204000    1.0454596   -6.5412412       503.11  0.034822121  0.035062079            4 
 1205000    1.0635091   -6.5154611    502.87623  0.034777056  0.035054513            5 
 1206000    1.0669811   -6.4953198     503.6617  0.034802495  0.035046843            4 
 1207000     1.075648   -6.5217328    503.71597  0.034777408  0.035039382            3 
 1208000    1.0700129   -6.5272589    503.93193  0.034763516  0.035031941            2 
 1209000     1.076973   -6.5120493     503.4814  0.034703708  0.035024706            4 
 1210000    1.0558305   -6.4944223    505.21148  0.034794179  0.035017478            5 
 1211000    1.0702033   -6.5387577    506.69029  0.034867209  0.035010234            3 
 1212000    1.0641791   -6.5264237    505.90004  0.034784106  0.035002943            5 
 1213000    1.0499342   -6.5159155    506.88748  0.034823267  0.034995805            4 
 1214000    1.0676991   -6.5207104    507.87302  0.034862233  0.034988807            4 
 1215000    1.0841644   -6.5177825    507.05473  0.034777416  0.034981714            2 
 1216000    1.0613723   -6.5111561    507.58604  0.034785227   0.03497451            4 
 1217000     1.069992   -6.5028338    507.67408  0.034762673  0.034967409            3 
 1218000      1.04687   -6.5049508    508.57945  0.034796076  0.034960121            3 
 1219000     1.059547   -6.5371508    507.53438  0.034696088  0.034952727            6 
 1220000    1.0769749   -6.5547168     508.4914  0.034733019  0.034945294            4 
 1221000    1.0738012   -6.5191573    508.77375  0.034723843  0.034938004            3 
 1222000    1.0620003   -6.5391635    510.35502  0.034803261   0.03493089            5 
 1223000    1.0481637   -6.5475382    509.41369  0.034710663  0.034923909            4 
 1224000    1.0583864   -6.5412599    508.90774  0.034647858  0.034916949            4 
 1225000    1.0646698   -6.5493213    512.11516  0.034837766  0.034909985            4 
 1226000    1.0427885   -6.5389988    512.18445   0.03481406  0.034903418            2 
 1227000    1.0604972   -6.5431623    512.70472  0.034821021  0.034896651            3 
 1228000    1.0366076   -6.5637108    513.14715  0.034822689  0.034889909            2 
 1229000    1.0721915   -6.5642255    511.77164  0.034701088  0.034883144            3 
 1230000    1.0515015   -6.5217713    514.68078  0.034869972  0.034876376            3 
 1231000    1.0375964   -6.5520352    514.31545  0.034816914  0.034869706            8 
 1232000    1.0438519    -6.547432    514.79195  0.034820884  0.034863172            2 
 1233000    1.0543442   -6.5512221    515.32773  0.034828854  0.034856477            6 
 1234000    1.0408103   -6.5254302     514.6646  0.034755848  0.034850012            3 
 1235000    1.0305483   -6.5192642      515.705  0.034797908   0.03484343            5 
 1236000    1.0533763   -6.5190881    515.07679    0.0347274  0.034836945            3 
 1237000    1.0456473    -6.580643    513.81154  0.034614089  0.034830264            2 
 1238000    1.0409373   -6.5499968    515.40468  0.034693369   0.03482343            7 
 1239000    1.0229328   -6.5150247     516.0385  0.034707997    0.0348167            2 
 1240000    1.0633494   -6.5666586    516.08552  0.034683167  0.034809922            3 
 1241000    1.0276854   -6.5630428     516.4629   0.03468056  0.034803122            4 
 1242000    1.0608794   -6.5379469    517.54589  0.034725301  0.034796456            2 
 1243000    1.0560962   -6.5527552    516.61305  0.034634825  0.034789613            4 
 1244000    1.0528011   -6.5259499    516.91875  0.034627462  0.034782552            3 
 1245000    1.0585972   -6.5562889     516.6546  0.034581968  0.034775616            3 
 1246000    1.0590934   -6.5471728    517.92405  0.034639115  0.034768722            5 
 1247000    1.0669758   -6.5374191    517.03568   0.03455197  0.034761746            4 
 1248000    1.0483912   -6.5761807    517.97524  0.034587022  0.034754869            4 
 1249000     1.028113   -6.5124854    518.60095  0.034601077  0.034747841            3 
 1250000    1.0674696   -6.5415869    518.36568  0.034557712  0.034740794            3 
 1251000     1.071909   -6.5293913    520.33402  0.034661206  0.034733736            4 
 1252000    1.0631295   -6.5298487    519.41771  0.034572531  0.034726679            3 
 1253000    1.0548671   -6.4875473    520.82096  0.034638266  0.034719893            7 
 1254000    1.0474816   -6.5308789    519.71943  0.034537442   0.03471305            2 
 1255000    1.0411048   -6.5206201    520.90756  0.034588815  0.034706201            4 
 1256000    1.0515558   -6.5421355    521.02138  0.034568828  0.034699202            3 
 1257000    1.0458263    -6.572645    520.72489  0.034521671  0.034692236            3 
 1258000    1.0525439   -6.5608831    520.43899  0.034475291   0.03468507            6 
 1259000    1.0690597   -6.5692486    521.04839  0.034488244   0.03467802            3 
 1260000    1.0393613   -6.5024295    522.02665  0.034525572  0.034670969            2 
 1261000    1.0650444    -6.548137    522.81375  0.034550208  0.034663941            2 
 1262000      1.05463   -6.5143823    522.15359  0.034479238  0.034656742            3 
 1263000    1.0671247   -6.5315039    522.07686  0.034446876  0.034649655            3 
 1264000    1.0664114    -6.548813    521.59282  0.034387712  0.034642487           10 
 1265000    1.0570711   -6.4922028    522.33011  0.034409098  0.034635029            3 
 1266000    1.0455626   -6.5063638     524.9561  0.034554772  0.034627853            4 
 1267000    1.0575514   -6.5300207    522.92274  0.034393761  0.034620575            5 
 1268000    1.0661916   -6.5168011    523.74363  0.034420586  0.034613127            1 
 1269000    1.0378666    -6.503891    523.97908  0.034408923  0.034605814            3 
 1270000    1.0530372   -6.5623765    521.93957  0.034248003  0.034598238            2 
 1271000    1.0508316   -6.5315121    523.90342  0.034349817  0.034590652            4 
 1272000    1.0535359   -6.5558669    523.81495  0.034317017  0.034582983            3 
 1273000    1.0507772   -6.5342488    522.92748  0.034231964  0.034575358            3 
 1274000    1.0503196   -6.5746635     523.1518  0.034219767  0.034567621            2 
 1275000    1.0452953   -6.5693684    523.82011  0.034236609  0.034559901            6 
 1276000    1.0580297   -6.5498589    525.03683  0.034289239  0.034552078            2 
 1277000    1.0595397   -6.5164142    526.07162  0.034329915  0.034544317            3 
 1278000      1.07153    -6.549188    526.33739  0.034320383  0.034536746            3 
 1279000    1.0419854   -6.5334169    526.25107  0.034287925  0.034529232            3 
 1280000    1.0405906   -6.5496021    525.12611  0.034187898  0.034521676            5 
 1281000     1.059478   -6.5261756    525.67422  0.034196866  0.034514113            5 
 1282000    1.0611714   -6.5803526    525.80824  0.034178903  0.034506377            7 
 1283000    1.0415873   -6.5462209    526.49141  0.034196636  0.034498812            3 
 1284000    1.0575006   -6.5505858    527.23193  0.034218064  0.034491054            2 
 1285000    1.0544632   -6.5401216    527.73552  0.034224094  0.034483291            3 
 1286000    1.0454701   -6.5518211    528.08516  0.034220137  0.034475647            2 
 1287000     1.053614   -6.5719726    525.35084  0.034016501  0.034467858            3 
 1288000     1.072456   -6.5475087    528.05521  0.034165063  0.034460026            6 
 1289000    1.0589749   -6.5547667    527.54761  0.034105742  0.034452109            5 
 1290000    1.0176238   -6.5460324    528.03448  0.034110755  0.034444199            3 
 1291000    1.0334928   -6.5764984    529.11683  0.034154198  0.034436291            2 
 1292000     1.055582   -6.5714046    528.37552  0.034079948  0.034428556            5 
 1293000    1.0448187   -6.5530661    529.42825  0.034121439  0.034420732            5 
 1294000    1.0423258   -6.5350127    528.89095  0.034060468  0.034412806            5 
 1295000    1.0328278   -6.5701396    529.45944  0.034070749  0.034404783            4 
 1296000    1.0340499   -6.5539762    530.47988  0.034110074  0.034396742            3 
 1297000    1.0509585   -6.5796053    530.79586  0.034104077  0.034388642            6 
 1298000    1.0485641   -6.5405385    530.62065  0.034066554  0.034380509           10 
 1299000    1.0525051   -6.5641036    531.76283  0.034113602   0.03437242            5 
 1300000    1.0522985   -6.5771979    530.81649  0.034026698   0.03436447            3 
 1301000    1.0474569   -6.5087095    532.10345  0.034082978  0.034356549            3 
 1302000    1.0509236   -6.5687738     531.7354  0.034033244  0.034348669            4 
 1303000    1.0412367   -6.5512136    532.66738   0.03406673  0.034340685            2 
 1304000    1.0202604   -6.5449556    531.54266  0.033968728  0.034332794            9 
 1305000     1.034235   -6.5494563    530.67749  0.033887451  0.034324938            3 
 1306000    1.0285961   -6.5464464    532.06699  0.033950165  0.034316986            4 
 1307000    1.0378487   -6.5587789    534.05987  0.034051254  0.034309205            3 
 1308000    1.0273406   -6.5138424    535.21659  0.034098916  0.034301435            3 
 1309000    1.0286074   -6.5731877    533.32141  0.033952216  0.034293753            3 
 1310000     1.061905   -6.5502045    534.04876  0.033972567   0.03428597            4 
 1311000    1.0405295   -6.5516091    536.63525  0.034111063  0.034278157            5 
 1312000    1.0671309   -6.5968053    532.93445  0.033850003  0.034270322            3 
 1313000    1.0338954   -6.5500522    534.48981  0.033922938  0.034262423            5 
 1314000    1.0350109   -6.5617481    535.25307  0.033945527  0.034254562            4 
 1315000    1.0431226   -6.6021509    534.94108  0.033899941  0.034246544            6 
 1316000     1.036619   -6.5269696    536.67362  0.033983892  0.034238685            3 
 1317000    1.0502545   -6.5675563     536.8917  0.033971887  0.034230807            4 
 1318000    1.0497534   -6.5603995    537.56903  0.033988937  0.034223221            4 
 1319000    1.0342696   -6.5376343    537.95586  0.033987608  0.034215646            5 
 1320000    1.0251789   -6.5459169    536.90471  0.033895499  0.034207863            7 
 1321000    1.0449543   -6.5770516     535.1774  0.033760875  0.034199967            7 
 1322000    1.0248136   -6.5635639    538.24803  0.033928897  0.034192146            4 
 1323000    1.0332159   -6.5615498    538.34045  0.033909073  0.034184333            4 
 1324000     1.062998   -6.5451234    538.68045  0.033904862  0.034176588            2 
 1325000    1.0336589   -6.5791729    538.01784    0.0338376  0.034168779            3 
 1326000     1.051805   -6.6065911    538.35042  0.033832983  0.034160748            3 
 1327000    1.0424085   -6.6150444    539.38653  0.033872553  0.034152891            7 
 1328000    1.0262395   -6.5635066    538.82624  0.033811887  0.034145162            5 
 1329000    1.0457175   -6.5645471    536.77147  0.033657604  0.034137364            3 
 1330000    1.0156699   -6.6104264    539.19858  0.033784372  0.034129654            6 
 1331000     1.054863   -6.5632613    542.19792  0.033946777  0.034122079            4 
 1332000    1.0215254   -6.5678105     541.2736  0.033863464  0.034114259            3 
 1333000    1.0367556   -6.5502359    539.52706  0.033728874  0.034106513            6 
 1334000    1.0406381   -6.5915543    539.99748  0.033732976  0.034098745            6 
 1335000    1.0522629   -6.5934019    540.88194  0.033762918  0.034090958            7 
 1336000    1.0233144   -6.5632301    542.70755  0.033851519  0.034083336            3 
 1337000    1.0266094   -6.5498823    544.12141  0.033914324   0.03407597            7 
 1338000    1.0465167   -6.5649874    543.81283  0.033869758  0.034068589            3 
 1339000    1.0286151   -6.6107933    542.88792    0.0337869  0.034061076            7 
 1340000    1.0416228   -6.5745736    543.35917  0.033790993   0.03405355            4 
 1341000    1.0473247   -6.6060107    544.20491  0.033818351  0.034046183            4 
 1342000    1.0235005   -6.5778991     542.8396  0.033708371  0.034038718            7 
 1343000    1.0459791   -6.5768947    544.11838   0.03376262  0.034031298            4 
 1344000    1.0593634   -6.5645977    544.36194  0.033752601    0.0340238           19 
 1345000    1.0371259   -6.5668998    544.08271  0.033710205  0.034016244            3 
 1346000    1.0178754   -6.5562758    546.31682  0.033823478   0.03400869            2 
 1347000    1.0590639   -6.5686195    544.92231  0.033712095  0.034000956            3 
 1348000    1.0423478   -6.6000006    545.59901   0.03372892  0.033993201            7 
 1349000    1.0539259   -6.5652438    546.77323  0.033776453  0.033985471            6 
 1350000    1.0320084    -6.537486    544.79519  0.033629333  0.033977918            4 
 1351000    1.0208841   -6.5696993    546.94664  0.033737148   0.03397023            3 
 1352000    1.0300574   -6.5699826    546.95782  0.033712883  0.033962537            3 
 1353000    1.0587715   -6.5620586    547.17026  0.033701051   0.03395487            3 
 1354000    1.0354016   -6.5500165    545.79264  0.033591374  0.033947292            3 
 1355000    1.0341704   -6.5777312      546.174  0.033590037   0.03393957            8 
 1356000    1.0496471   -6.5565967    549.43449   0.03376564  0.033931929            3 
 1357000    1.0215111   -6.5510053      548.697  0.033695468  0.033924219            3 
 1358000    1.0311438   -6.5407899    548.96062  0.033686833  0.033916461            5 
 1359000    1.0414983   -6.5655582    548.40834  0.033628179  0.033908833            3 
 1360000    1.0322607   -6.5445166    549.50889  0.033670888  0.033901078            4 
 1361000    1.0246501   -6.5585654    550.55838  0.033710408  0.033893344            3 
 1362000    1.0419634   -6.5990118    548.78065  0.033576888  0.033885755            3 
 1363000    1.0089636    -6.557724    548.35905  0.033526476  0.033877986            6 
 1364000    1.0248785   -6.5676107    551.17571  0.033673981  0.033870297            8 
 1365000    1.0357457   -6.5855791    550.48092  0.033606894  0.033862643            7 
 1366000    1.0160636   -6.5829274    548.81663  0.033480761  0.033854669            4 
 1367000    1.0296332   -6.5765493    551.12536   0.03359701  0.033846652            4 
 1368000    1.0098451   -6.5545716    551.50451  0.033595548  0.033838762            4 
 1369000    1.0453462   -6.5411637    551.94926   0.03359808  0.033830881            3 
 1370000    1.0487897   -6.5815928    549.95229  0.033452085  0.033823001            6 
 1371000    1.0348579   -6.5709779     551.8248  0.033541502  0.033815051            2 
 1372000    1.0296758    -6.607296    548.99556  0.033345211  0.033807171            4 
 1373000     1.031687   -6.5780241    551.43988  0.033469282  0.033799208           11 
 1374000    1.0314075   -6.5977872    551.36912  0.033440631  0.033791313            3 
 1375000    1.0497245   -6.5642571    553.05397  0.033518422  0.033783475            5 
 1376000    1.0153107   -6.5461335    553.54779   0.03352397  0.033775517            3 
 1377000    1.0282016   -6.5743785    554.04724   0.03352985  0.033767559            3 
 1378000    1.0289979   -6.5697686    552.18393  0.033392836  0.033759632            6 
 1379000    1.0428009    -6.531824     554.7679  0.033524771  0.033751684            5 
 1380000    1.0359562   -6.6027563    552.34324   0.03335406  0.033743625            3 
 1381000    1.0210706   -6.6057599    552.40091  0.033333388  0.033735452            7 
 1382000    1.0426432   -6.5692813    554.30381  0.033424012  0.033727244            7 
 1383000    1.0385058   -6.5528354    555.21732  0.033454888  0.033719227            3 
 1384000     1.025282   -6.5505774    555.44308  0.033444309  0.033711272            7 
 1385000    1.0068105   -6.5539237    555.48113   0.03342245  0.033703434            6 
 1386000    1.0562771   -6.5708642    554.58238  0.033344299   0.03369568            4 
 1387000    1.0119055   -6.5896131    556.42687  0.033431078  0.033687881            3 
 1388000    1.0367678   -6.5782543    555.99598  0.033381122   0.03368016            4 
 1389000    1.0603483    -6.605409    555.28855  0.033314648  0.033672218            3 
 1390000    1.0315536   -6.6011676    557.14485  0.033401969    0.0336643            6 
 1391000    1.0318985   -6.5885028    557.71911   0.03341236  0.033656291            3 
 1392000    1.0332175   -6.5911851     557.7529  0.033390379  0.033648496            5 
 1393000    1.0372548   -6.6043642    556.55342  0.033294653  0.033640772            7 
 1394000    1.0259161   -6.5647557    557.68723  0.033338548   0.03363289            5 
 1395000    1.0241686   -6.5723131    556.96739  0.033271648  0.033625099            4 
 1396000     1.041048   -6.6112365    556.87534   0.03324232  0.033617257            4 
 1397000     1.017314   -6.5799248    559.04289  0.033347822  0.033609677            1 
 1398000    1.0384785   -6.5864786    558.28057  0.033278527  0.033602075            5 
 1399000    1.0155805   -6.5736841    559.38732  0.033320664  0.033594376            3 
 1400000    1.0306408   -6.5693286    559.97855  0.033332057  0.033586642            4 
 1401000    1.0198511   -6.5587513    560.76405  0.033354988   0.03357904            3 
 1402000    1.0222624   -6.5812265    561.39614  0.033368767  0.033571449            3 
 1403000    1.0499388   -6.6242751    559.47279  0.033230743  0.033563938            4 
 1404000    1.0455893   -6.5852211    561.18683   0.03330881  0.033556179            7 
 1405000    1.0206638   -6.6118413    559.68736  0.033196166   0.03354832            3 
 1406000    1.0476011   -6.5908796    559.48767   0.03316072  0.033540577            5 
 1407000    1.0193753   -6.5948314    562.62278  0.033322837  0.033532766            5 
 1408000     1.011429   -6.6250438    561.39353  0.033226416  0.033524981           13 
 1409000    1.0225408   -6.6079202    561.99771  0.033238568  0.033517385            3 
 1410000    1.0278719   -6.5363617    563.99191  0.033332855  0.033509899            4 
 1411000    1.0311185   -6.6138191    562.01685  0.033192585  0.033502284            3 
 1412000    1.0665025   -6.6262269    563.21208  0.033239617   0.03349467            6 
 1413000    1.0092899    -6.552378    564.96952  0.033319741  0.033487261            4 
 1414000    1.0305217   -6.5658623    564.97722   0.03329663  0.033479868            9 
 1415000    1.0227456   -6.5912228    564.77102  0.033260955  0.033472503            6 
 1416000     1.011774   -6.5541899    564.89446   0.03324473  0.033464992            4 
 1417000    1.0248429   -6.5940602    563.95037  0.033165748  0.033457517            5 
 1418000     1.035084   -6.5856072    566.07252  0.033267073   0.03345002            6 
 1419000    1.0474438   -6.6006003    565.39931  0.033204094   0.03344249            7 
 1420000    1.0297424   -6.5628351    565.77589  0.033202811  0.033434976            6 
 1421000    1.0232997   -6.5921041    564.98501  0.033133064  0.033427418            6 
 1422000    1.0227048   -6.6331164    567.39082  0.033250752  0.033419859            4 
 1423000    1.0370133   -6.5889053    567.28979  0.033221468  0.033412275            4 
 1424000    1.0062298    -6.579707    568.49261  0.033268528  0.033404834            3 
 1425000    1.0210057   -6.5879089    567.11756   0.03316477  0.033397247            3 
 1426000    1.0161747   -6.5964307    567.41973  0.033159171  0.033389658            3 
 1427000    0.9922382   -6.5708245    568.70341  0.033210898  0.033382156            3 
 1428000    1.0182481   -6.5826285    568.43664  0.033172073  0.033374693            3 
 1429000     1.018411   -6.5947521    569.70083  0.033222582  0.033367015            4 
 1430000     1.014082   -6.5797312    569.24423   0.03317274  0.033359433            5 
 1431000     1.012783   -6.6209486    566.38409  0.032983001  0.033351852            6 
 1432000    1.0129966   -6.5950052    570.72155  0.033212381  0.033344206            6 
 1433000    1.0173819   -6.6202238    569.92373  0.033142808  0.033336675            4 
 1434000    1.0188688   -6.5676331    571.22253  0.033195173  0.033329012            3 
 1435000    1.0157967   -6.6280546    569.39094  0.033065676   0.03332129            2 
 1436000    1.0075549   -6.6159639    569.87242  0.033070591  0.033313523            3 
 1437000     1.021631   -6.6252569    568.01471  0.032939846  0.033305757            4 
 1438000   0.99151809   -6.5978681    569.86619  0.033024234  0.033297899            5 
 1439000    1.0354913   -6.5909041     570.3256   0.03302789  0.033290226            4 
 1440000    1.0269846   -6.5392469    570.94707  0.033040918  0.033282708            3 
 1441000    1.0181513   -6.5787179    573.13312  0.033144409  0.033275191            4 
 1442000    1.0358801   -6.6085364    571.57621   0.03303145  0.033267587           10 
 1443000    1.0137861   -6.5461327     572.6058  0.033068018  0.033259995            3 
 1444000    1.0169395   -6.6032468    570.92838  0.032948314  0.033252436            3 
 1445000    1.0405188   -6.5773456     571.1095  0.032935958  0.033244705            6 
 1446000    1.0265987   -6.5915098    572.27632  0.032980424  0.033237057            6 
 1447000    0.9966866   -6.6139642     574.1478  0.033065411  0.033229444            3 
 1448000    1.0291714   -6.6231592    573.03476   0.03297852  0.033221818            3 
 1449000    1.0154615   -6.5951451     572.7425  0.032938952  0.033214143            5 
 1450000    1.0059198   -6.5799019    572.53969   0.03290458  0.033206375            5 
 1451000    1.0099205   -6.5931827    574.08764  0.032970804  0.033198587            4 
 1452000     1.019926   -6.6038127    572.61671  0.032863677  0.033190753            3 
 1453000    1.0225713   -6.5811365    575.33217  0.032996798  0.033182958            5 
 1454000    1.0089537   -6.6142094    574.91205  0.032950026  0.033175269            9 
 1455000    1.0327855   -6.5980969    576.40038  0.033012622  0.033167559            3 
 1456000    1.0161383   -6.5966162    574.89907  0.032904022  0.033159733            5 
 1457000    1.0394318   -6.6011418    573.36803   0.03279387  0.033151989            3 
 1458000     1.022754   -6.6407579    574.25394  0.032822013  0.033144053            6 
 1459000    0.9986925   -6.6021358    574.04848  0.032787782  0.033136068            4 
 1460000    1.0245144   -6.6027619    574.63547  0.032798828  0.033128233            7 
 1461000     1.025084   -6.5869498    575.40758  0.032820419  0.033120443            3 
 1462000    1.0117896   -6.5832388    577.23092  0.032901899  0.033112589            4 
 1463000    1.0212871   -6.5849725    576.18045  0.032819574  0.033104772            6 
 1464000    1.0179293    -6.596487     577.1018  0.032849601  0.033096935            7 
 1465000    1.0169464   -6.5660412     576.0727   0.03276864  0.033089089            4 
 1466000    1.0268216   -6.6310028     577.5383  0.032829598  0.033081092            3 
 1467000    1.0276339   -6.6285359    574.76479   0.03264967  0.033073087           13 
 1468000    1.0404141   -6.5995501    577.87885  0.032804203   0.03306515            7 
 1469000    1.0171854   -6.6353423    576.60134  0.032709402  0.033057196            3 
 1470000    0.9945533   -6.6405017    577.67126  0.032747804  0.033049398            4 
 1471000    1.0075309   -6.6278703    575.77999  0.032618399  0.033041409            5 
 1472000    1.0180408   -6.5871067    577.46043  0.032691374    0.0330334            3 
 1473000    1.0081827   -6.5801013     579.0211  0.032757473  0.033025361            7 
 1474000    1.0118694   -6.6291424    576.90461  0.032615593  0.033017338            7 
 1475000    1.0155397    -6.577862    580.67145  0.032806296  0.033009504           10 
 1476000    1.0339008   -6.6155721    580.52933  0.032776046  0.033001736            5 
 1477000    1.0142818   -6.5902678    579.26034  0.032682258  0.032993896            3 
 1478000   0.99262627   -6.6422678    578.83635   0.03263624  0.032985905            3 
 1479000    1.0190941   -6.6192508    580.34423  0.032699134  0.032977879            2 
 1480000    1.0178824   -6.6133909     581.4935  0.032741751  0.032969955            5 
 1481000    1.0119353   -6.5810873    581.88686  0.032741777  0.032962165            8 
 1482000    1.0249974   -6.6299501    580.54547  0.032644257  0.032954228            2 
 1483000   0.98595535   -6.5952142      579.646  0.032571701  0.032946225            5 
 1484000    1.0289836   -6.6340795     580.0945  0.032574938  0.032938151            5 
 1485000    1.0203063   -6.6007753    581.99157   0.03265946  0.032930111            5 
 1486000    1.0073439   -6.6152196    582.86308  0.032686355  0.032922207            3 
 1487000    1.0061776   -6.6048158    584.45445  0.032753556  0.032914358            3 
 1488000   0.99708813   -6.5840679    582.89074   0.03264397  0.032906609            4 
 1489000    1.0200395   -6.6002629    582.99417  0.032627836  0.032898676           10 
 1490000    1.0018469   -6.6079426    582.48568  0.032577499  0.032890726            4 
 1491000    1.0415613   -6.6389021    583.21109  0.032596193  0.032882696            4 
 1492000    1.0330577   -6.5814486    585.79205  0.032718501  0.032874694            4 
 1493000   0.99449585   -6.5933811    583.50807  0.032569104  0.032866779            4 
 1494000    1.0052505   -6.5841935    584.16738   0.03258408  0.032858965            4 
 1495000   0.99911594   -6.6058047    583.54394  0.032527533  0.032851103            5 
 1496000    1.0123497   -6.6280333    584.09889  0.032536703   0.03284314            3 
 1497000   0.99246629   -6.5849736    586.00324  0.032620977  0.032835107            5 
 1498000    1.0004465   -6.6495007    584.98962  0.032542814  0.032827205            7 
 1499000    1.0154989   -6.5892779    585.67074  0.032558969  0.032819298            6 
 1500000    1.0078733   -6.6199396    585.53406   0.03252967  0.032811378            8 
 1501000   0.99865112   -6.6026317    585.17991  0.032488336  0.032803436            5 
 1502000    1.0131503   -6.6050835    587.85188  0.032614951  0.032795516            2 
 1503000    1.0079701   -6.6262017    587.91104  0.032596531  0.032787595            4 
 1504000    1.0158013   -6.6274737    586.72499  0.032509141  0.032779763            3 
 1505000    1.0239449   -6.6093591     584.7703  0.032379308  0.032771994            2 
 1506000     1.011608   -6.6179279    585.72797  0.032410799  0.032764109            4 
 1507000    1.0049285   -6.6088375    588.93536  0.032566653  0.032756102            3 
 1508000      1.00314   -6.6136901    587.76518  0.032480392  0.032748246            2 
 1509000    1.0158223    -6.629924     588.5393  0.032501618   0.03274035            5 
 1510000    1.0104605   -6.6155654    587.30495  0.032411973   0.03273244            6 
 1511000    1.0117526   -6.6134444    588.07034  0.032432735  0.032724454            3 
 1512000    1.0359388   -6.6682377    587.59611  0.032385147   0.03271644            3 
 1513000    1.0252508   -6.6042042    588.90865  0.032436035  0.032708573            4 
 1514000    1.0106181   -6.6065374    590.31034  0.032491762   0.03270075            4 
 1515000    1.0127668   -6.6378948    590.06865  0.032457022  0.032693084            4 
 1516000   0.99965853   -6.6238406     590.5546  0.032462324   0.03268528            4 
 1517000   0.98477464   -6.6233564    591.15683  0.032474007  0.032677521           10 
 1518000     1.019261   -6.6289481    592.07217  0.032502864  0.032669944            3 
 1519000   0.99690246   -6.6329177    593.05845  0.032535574  0.032662329            4 
 1520000     1.014985   -6.5933179    591.86425  0.032448698  0.032654818            5 
 1521000   0.97800551   -6.6302986    592.80193  0.032478738  0.032647287            5 
 1522000    1.0119158   -6.6124391    591.18858  0.032369064  0.032639707            3 
 1523000    1.0104597   -6.6165888    593.52131  0.032475449   0.03263221            2 
 1524000    1.0196169   -6.6390355    596.15317  0.032598052  0.032624753            4 
 1525000    1.0337711   -6.5608183    593.85919  0.032451322  0.032617438            6 
 1526000   0.98355111   -6.6068743    594.97449  0.032490962  0.032609944            3 
 1527000   0.98792039   -6.6367226    593.59303  0.032394293  0.032602459            6 
 1528000    1.0013942   -6.5923536    594.45019   0.03241984  0.032594863            4 
 1529000    1.0125608   -6.5866625    596.20452  0.032494251  0.032587404           13 
 1530000     1.009985   -6.6290988    595.60219  0.032440206  0.032580113            5 
 1531000    1.0120854   -6.6322456    594.67745  0.032368683  0.032572553           12 
 1532000    1.0302552   -6.6658261     594.9178  0.032360629  0.032564949            5 
 1533000    1.0028737   -6.5888512    596.78447  0.032440991  0.032557472            5 
 1534000     1.010489   -6.6121774    595.44847  0.032347266  0.032549976            4 
 1535000    1.0231904   -6.6191634    596.77457  0.032398185  0.032542522           11 
 1536000    1.0197916   -6.6427822    595.39418  0.032302202  0.032534982            4 
 1537000   0.99384198   -6.6410763    596.15563  0.032322469  0.032527355            6 
 1538000    1.0178657   -6.5866485    596.75275  0.032333807  0.032519788            5 
 1539000    1.0017469   -6.6053966    596.60164  0.032304616  0.032512171            4 
 1540000     1.000071   -6.6299021    596.21838  0.032262899  0.032504557            4 
 1541000    1.0016038   -6.5853258    597.97291  0.032336844  0.032497012            5 
 1542000   0.98699312   -6.6288331    597.57464  0.032294349    0.0324894            6 
 1543000    1.0113934   -6.6406204    597.21569  0.032254034  0.032481879            5 
 1544000   0.99669679   -6.5847498    598.70041  0.032313278  0.032474485            4 
 1545000    1.0114908   -6.6517788    599.27671  0.032323447  0.032467108            8 
 1546000    1.0311132   -6.6476806    598.35793  0.032253015   0.03245963            5 
 1547000    1.0165575   -6.6026341     600.5265  0.032348982  0.032452157           11 
 1548000    1.0032418   -6.5956742    598.99712  0.032245754  0.032444634            3 
 1549000    1.0092662    -6.600146    599.79699  0.032267968  0.032437307            4 
 1550000   0.98122835   -6.6687858    598.68094  0.032187147   0.03242971            6 
 1551000    1.0058718    -6.638697    599.46376  0.032208455  0.032422042            5 
 1552000   0.98793209   -6.6135959    600.93444  0.032266669   0.03241447            4 
 1553000    0.9955635   -6.6200849    602.09593  0.032308217  0.032406974            3 
 1554000    1.0054822   -6.6092782    600.46837  0.032200148  0.032399685            5 
 1555000   0.99768833   -6.6224985    600.62715   0.03218795  0.032392277            5 
 1556000    1.0128996   -6.6039867      602.795  0.032283366  0.032384904            7 
 1557000    1.0002044   -6.6161391     601.6977  0.032203901  0.032377403            4 
 1558000   0.99358533   -6.6453186    602.75639  0.032239858  0.032369901            6 
 1559000   0.99386806   -6.6208146    603.30793   0.03224866  0.032362376            9 
 1560000   0.99086534    -6.668586    602.95391  0.032209077  0.032354877            4 
 1561000    1.0137323   -6.6201141    600.87932  0.032077691  0.032347321            2 
 1562000    1.0047152   -6.6693911    602.44584   0.03214073  0.032339755            3 
 1563000    1.0019166   -6.6336673    603.48248  0.032175436  0.032332158           11 
 1564000    1.0297598    -6.642752    604.67237  0.032218263  0.032324757            4 
 1565000    1.0097696    -6.623779    603.77994  0.032150157  0.032317268            4 
 1566000   0.99991816   -6.6302466     604.6845  0.032177762  0.032309781            5 
 1567000    1.0043972   -6.6487865    604.18298  0.032130556  0.032302326            3 
 1568000    1.0225346   -6.6449949    603.39703  0.032068294  0.032294673            8 
 1569000     1.016248   -6.6531052     602.5856  0.032004759  0.032287042            5 
 1570000   0.99210883   -6.6441648    603.70271  0.032043668  0.032279363            2 
 1571000    1.0079021   -6.6172017    603.64121  0.032020009  0.032271802            5 
 1572000     1.016932   -6.6383728    604.07514  0.032022643  0.032264128            3 
 1573000    1.0061939    -6.627145    604.61535  0.032030904  0.032256377            2 
 1574000    1.0055988   -6.6454773    604.60782  0.032010156  0.032248645            6 
 1575000    1.0163103   -6.6426099    603.64593  0.031938938  0.032240974            6 
 1576000    1.0072281    -6.652655    604.81138  0.031980297  0.032233203            3 
 1577000     1.012722   -6.6380165     605.0301  0.031971576  0.032225434            3 
 1578000   0.99467459   -6.6484461    606.38162  0.032022688  0.032217674            4 
 1579000    1.0138364   -6.6477775    606.24675   0.03199529  0.032209899           10 
 1580000   0.98229729   -6.6386332    606.40325  0.031983294  0.032202226            2 
 1581000     1.003758   -6.6176769    608.04632  0.032049669  0.032194506            3 
 1582000    1.0166602   -6.6472613    606.56926  0.031951605  0.032186789            5 
 1583000   0.98956699   -6.6166484    606.75933  0.031941426  0.032178954            9 
 1584000    1.0043349   -6.6360833    606.09152  0.031886128  0.032171078            6 
 1585000   0.99729387   -6.6275878    605.60532  0.031840448  0.032163326            7 
 1586000   0.98056576   -6.6437261     605.9009  0.031835903  0.032155462            5 
 1587000   0.99601525   -6.6474505    608.36323  0.031945139  0.032147504            6 
 1588000   0.99550423   -6.5874831    607.93427  0.031902512  0.032139605            6 
 1589000   0.99654146   -6.6474117    608.45772  0.031909887   0.03213174            3 
 1590000   0.97857588   -6.6584801    607.01218  0.031814056  0.032123929            6 
 1591000   0.97757775   -6.6119641    609.50845  0.031924809  0.032116125            3 
 1592000    1.0054719   -6.6246048    608.19319  0.031835908  0.032108203            7 
 1593000   0.96532331    -6.659373    608.27402  0.031820152  0.032100249            5 
 1594000   0.99884063   -6.6432407    607.99773  0.031785745  0.032092233            5 
 1595000   0.99982564   -6.6569617    607.53268  0.031741519    0.0320842            2 
 1596000    1.0037556    -6.640834    609.77168  0.031838538  0.032076066            3 
 1597000   0.99072837   -6.6632247     608.4185  0.031747991   0.03206791            7 
 1598000    1.0033872   -6.6610378    609.17257  0.031767447  0.032059662            3 
 1599000    1.0019647   -6.6440317    607.43852  0.031657209  0.032051382            5 
 1600000   0.99314103   -6.6475415    607.77604  0.031655002  0.032043044            3 
 1601000    1.0175342   -6.6759602    606.71588  0.031580048  0.032034759            4 
 1602000    1.0028081   -6.6384423    609.71339  0.031716261  0.032026589            6 
 1603000   0.99085131    -6.621534    608.07725  0.031611419  0.032018336            5 
 1604000   0.98808491    -6.628616    609.19614  0.031649841  0.032010003            7 
 1605000   0.99938399   -6.6804722    607.61895  0.031548232  0.032001654            5 
 1606000   0.97922095   -6.6362085    610.12522  0.031658635  0.031993357            2 
 1607000     1.019707   -6.6824549    608.45186   0.03155216  0.031985104           10 
 1608000    0.9944789   -6.6436671     611.3894  0.031684774  0.031976714            3 
 1609000     1.007562   -6.6493786    611.97002  0.031695153  0.031968535            3 
 1610000   0.97782921   -6.6137403    608.70647  0.031506546  0.031960228            7 
 1611000   0.98275777   -6.6479887    611.53464  0.031633283  0.031951905            9 
 1612000   0.98475556   -6.6551737    610.02798  0.031535772  0.031943645            4 
 1613000   0.98253614   -6.6399697    612.35998  0.031636701  0.031935486            4 
 1614000   0.99551837    -6.649974    611.86437   0.03159151  0.031927174            5 
 1615000    0.9824631   -6.6129787    611.27174  0.031541369  0.031918902            8 
 1616000    0.9893399   -6.6659901    612.37386  0.031578685  0.031910641            2 
 1617000    1.0021818   -6.6814135    610.65027  0.031470329  0.031902429            9 
 1618000    1.0085149   -6.6484239    612.35884  0.031538877  0.031894124            5 
 1619000    1.0005177   -6.6426873    612.46407  0.031524813  0.031885829            4 
 1620000   0.97783109   -6.6379191    613.03683  0.031534816  0.031877532            5 
 1621000    1.0175794   -6.6497485    614.29581  0.031580085  0.031869255            5 
 1622000   0.97784064   -6.6398265    613.60767  0.031525261  0.031861043            5 
 1623000   0.99541203   -6.6587825    613.81536    0.0315165  0.031852846            3 
 1624000   0.99591935   -6.6697182    613.26498  0.031468852  0.031844609           14 
 1625000    1.0055714   -6.6527873    614.43827  0.031509655   0.03183647            3 
 1626000   0.99782031   -6.6212196    616.13111  0.031577035  0.031828305            6 
 1627000   0.97916237    -6.670124    616.08932  0.031555487  0.031820044            2 
 1628000    0.9653785   -6.6412998    614.55269  0.031457447  0.031811801            2 
 1629000   0.98634271   -6.6534494    612.82353  0.031349679  0.031803532            4 
 1630000    1.0008487   -6.6450071    614.31173   0.03140653  0.031795294            3 
 1631000    1.0110796   -6.6563812    616.19705  0.031483602  0.031787095            3 
 1632000   0.97305077   -6.6787682     614.9241  0.031399311  0.031778829            5 
 1633000   0.99041859   -6.6558653    614.58601  0.031362829  0.031770507            2 
 1634000    0.9748688   -6.6428838    615.15842  0.031372828  0.031762203            3 
 1635000    1.0068226   -6.6320801    615.49739  0.031370917  0.031753947            4 
 1636000   0.98924131   -6.6445026    617.69383  0.031463622   0.03174565            7 
 1637000    1.0114205   -6.6568607    616.00675  0.031358519  0.031737228            3 
 1638000     1.008901   -6.6253935    615.41603  0.031309322  0.031728904            4 
 1639000   0.97430301   -6.6585838    616.38698  0.031339586  0.031720486            4 
 1640000    1.0021815   -6.6680164    616.45885  0.031324128  0.031712222            9 
 1641000   0.96845501   -6.6609097    615.13695  0.031237911  0.031703824            6 
 1642000   0.97538027   -6.6626944     615.7598  0.031250497  0.031695336            3 
 1643000    1.0045771     -6.63976    619.72118  0.031432399  0.031687023            3 
 1644000   0.96129677   -6.6823948    617.22029  0.031286511   0.03167875            9 
 1645000   0.99320978   -6.6594093    618.63769  0.031339295  0.031670337            8 
 1646000   0.98252852   -6.6306016    618.40183  0.031308315  0.031662025            5 
 1647000    1.0022308   -6.6742854    618.35192   0.03128678  0.031653799            4 
 1648000    1.0033974   -6.6494442    619.57246  0.031329513   0.03164547            3 
 1649000    0.9865112   -6.6888977    618.71645  0.031267256   0.03163716            4 
 1650000    1.0152032   -6.6635066    619.17013  0.031271218  0.031628855            3 
 1651000   0.99022521   -6.6842867    619.58148  0.031273041  0.031620438            8 
 1652000   0.97408644   -6.6528724    620.86196  0.031318703   0.03161218            5 
 1653000   0.99133642   -6.6706418    618.52265  0.031181823  0.031603885            7 
 1654000   0.99129051   -6.6566123    618.69195  0.031171501  0.031595507            4 
 1655000   0.98851063   -6.6867976    619.53111   0.03119492   0.03158721            9 
 1656000   0.99431007   -6.6778219    620.64841  0.031232307  0.031579056            6 
 1657000   0.97070386   -6.6776246     620.6182  0.031211939  0.031570849            6 
 1658000   0.98182522    -6.633341     620.2274  0.031173472   0.03156259            5 
 1659000   0.97428224   -6.6172066    622.22717  0.031255132   0.03155439            2 
 1660000   0.97903525   -6.6901369    622.03845   0.03122683  0.031546126            5 
 1661000   0.97643472   -6.6653921    621.95533  0.031203859   0.03153776           15 
 1662000    0.9913043   -6.6851798    620.68193  0.031121236   0.03152945            3 
 1663000   0.98537061   -6.6649866    622.64742  0.031201013  0.031521182            3 
 1664000    1.0041951   -6.6670428    622.42902  0.031171325  0.031512949           16 
 1665000   0.96643592   -6.6845956    624.13763   0.03123812   0.03150482            8 
 1666000   0.99241663   -6.6586284      624.921  0.031258553  0.031496586            4 
 1667000   0.99821835   -6.6652494    622.26261  0.031106909   0.03148845            2 
 1668000   0.99824762   -6.6588134    623.58894  0.031154523  0.031480273            4 
 1669000   0.99469368    -6.651696    624.97315  0.031204971  0.031472119            6 
 1670000    1.0116403   -6.6548184     624.6421  0.031169765    0.0314641            3 
 1671000   0.98526979    -6.674841    624.96682  0.031167306  0.031456016            2 
 1672000   0.97580812   -6.6035141    626.20196  0.031210225  0.031448004            2 
 1673000   0.98684017   -6.6937133    626.07043  0.031185018  0.031439926            7 
 1674000   0.97071723   -6.6540501    625.33005  0.031129533  0.031431949            7 
 1675000    0.9927759   -6.6638069    626.39625  0.031163992  0.031423918            4 
 1676000   0.98569821   -6.6953003    624.05092  0.031028785  0.031415845           14 
 1677000   0.99751913   -6.6607436    626.62318  0.031138103  0.031407894            4 
 1678000   0.99738152   -6.6523722    627.98491  0.031187173  0.031399965            5 
 1679000   0.98574439   -6.6428839    627.05773  0.031122579  0.031392035            4 
 1680000   0.96351487   -6.6380456    627.79253  0.031140503  0.031384103            4 
 1681000   0.97754924   -6.6698977     627.0789    0.0310866  0.031376013            3 
 1682000   0.99122691   -6.6750614    628.52778  0.031139902   0.03136786            5 
 1683000   0.97559574   -6.6520202    628.18454  0.031104404  0.031359797            4 
 1684000   0.97423184   -6.6792612    626.70993  0.031012962  0.031351672            4 
 1685000   0.96590559   -6.6568222    628.06503  0.031061574  0.031343582            5 
 1686000   0.99929733   -6.6614667    626.63104  0.030972274  0.031335572            2 
 1687000   0.99037309   -6.6939024    627.51128  0.030997396  0.031327516            2 
 1688000   0.98355931   -6.6413658    628.19504  0.031012788  0.031319388            4 
 1689000   0.98085491   -6.6307512    629.32994  0.031050422  0.031311411            7 
 1690000   0.98437071   -6.6564044    629.23283   0.03102726  0.031303356            2 
 1691000    1.0081843   -6.6713451    629.83829  0.031038749  0.031295348            3 
 1692000   0.97054289   -6.6709479    629.43136  0.031000362  0.031287238            2 
 1693000   0.97562243   -6.6816757    629.86608  0.031003449  0.031279195            3 
 1694000   0.97556147   -6.7303048    629.51604  0.030967928  0.031271088            8 
 1695000   0.97822084   -6.6749664    629.87643  0.030967376  0.031263017            6 
 1696000   0.97986088   -6.6928376    630.76545  0.030992799  0.031254889            3 
 1697000   0.97761017   -6.6355131    632.60669  0.031064952  0.031246843            6 
 1698000   0.98359525   -6.6509959    633.46891  0.031088973  0.031238911            7 
 1699000   0.99668097   -6.7168981    631.93218    0.0309953  0.031230896            2 
 1700000   0.97888501   -6.6750765    631.49552  0.030955663  0.031222916            3 
 1701000   0.96353572   -6.6968246    631.94912  0.030959686  0.031214977            5 
 1702000   0.97694338   -6.6550564    632.81075  0.030983683  0.031206989            1 
 1703000   0.98838871   -6.6955918    631.10874  0.030882205  0.031199003            4 
 1704000   0.98653269   -6.6889083     632.0131  0.030908309  0.031190941            3 
 1705000    1.0015623   -6.6928951     632.0877  0.030893827   0.03118287            4 
 1706000   0.96446956   -6.6646521    631.94309  0.030868654  0.031174793            2 
 1707000    1.0083736   -6.6849344    632.28135  0.030867084  0.031166704            5 
 1708000    1.0102032   -6.6691783    633.49574  0.030908262  0.031158616            7 
 1709000   0.99520928   -6.7048644    632.79606  0.030856059  0.031150457            4 
 1710000   0.97470837   -6.6742357     632.9031  0.030843231  0.031142235            5 
 1711000   0.97217279   -6.6915327    634.53718  0.030904791  0.031134197            3 
 1712000   0.96637214   -6.6642208    634.40417  0.030880265  0.031126225            4 
 1713000   0.98795926   -6.6722794    633.66444  0.030826252  0.031118286            6 
 1714000    0.9709209   -6.7052073     634.8855  0.030867634  0.031110315           10 
 1715000   0.97439088   -6.6791485    635.04901  0.030857581  0.031102304            3 
 1716000   0.98893435   -6.7087574    633.62374  0.030770383  0.031094329            6 
 1717000   0.96258461    -6.666292    634.30425  0.030785491  0.031086228            5 
 1718000   0.98776859   -6.6925421    634.05436   0.03075545   0.03107807            3 
 1719000   0.97849367   -6.6642103    632.71309  0.030672537  0.031069896            7 
 1720000   0.97815214   -6.6715847    637.10266  0.030867377  0.031061794            6 
 1721000   0.97104371    -6.676208    635.00869  0.030748048  0.031053732            7 
 1722000   0.97444548   -6.6959543    635.38995  0.030748643   0.03104572            5 
 1723000   0.95235181   -6.6684636    637.81578  0.030848122  0.031037598            5 
 1724000   0.97455718   -6.6778079    635.95691  0.030740377  0.031029627           10 
 1725000   0.97767183   -6.6986348    637.11469  0.030778488  0.031021548            6 
 1726000   0.99020431   -6.6627948    635.81402  0.030697857  0.031013369            6 
 1727000   0.98714524   -6.7014323    635.61356  0.030670409  0.031005167            4 
 1728000   0.96165771   -6.7140569    635.08254  0.030627051  0.030997044            5 
 1729000   0.98937053   -6.6745644    636.07408  0.030657127  0.030988927           11 
 1730000   0.98527515   -6.6781871    636.47637  0.030658785  0.030980784            5 
 1731000   0.98760004   -6.6897039    638.58295  0.030742488  0.030972737            3 
 1732000   0.99248336   -6.7156495    637.73243  0.030683816   0.03096464            2 
 1733000   0.99135499     -6.69265    637.54734   0.03065721  0.030956366            4 
 1734000   0.98161758   -6.6548871    637.88795  0.030655899   0.03094811            3 
 1735000    0.9585792   -6.6607295    638.35991  0.030660899  0.030939848            2 
 1736000   0.97321168   -6.6589526    639.42672  0.030694447  0.030931668            6 
 1737000   0.97022096   -6.6786983    638.85385  0.030649292  0.030923412            5 
 1738000   0.97183593   -6.6623719    637.05897  0.030545597  0.030915211            6 
 1739000   0.98514559   -6.6795489    638.18812  0.030582141  0.030907008            4 
 1740000   0.97588953   -6.6477492    637.85081  0.030548411  0.030898842            7 
 1741000   0.97154731   -6.6799777    637.45954  0.030512136  0.030890613            4 
 1742000   0.96993079   -6.6909594    640.66684   0.03064805  0.030882363            5 
 1743000   0.94398295   -6.6875972    639.69418  0.030583963  0.030874104            4 
 1744000    0.9812283   -6.6739938    639.62346  0.030563048  0.030865821            6 
 1745000   0.96680749   -6.6650647    640.11789  0.030569145  0.030857632            2 
 1746000   0.97139067   -6.7384657    638.94919  0.030495857  0.030849424           15 
 1747000   0.95045333   -6.6584344    640.73634  0.030563649  0.030841165            8 
 1748000   0.98709543   -6.6729916    639.76245  0.030499735  0.030832841            2 
 1749000   0.95171366   -6.6982616    642.09497  0.030593433  0.030824567            9 
 1750000   0.96209828   -6.6955246    641.79232  0.030561539  0.030816371            2 
 1751000   0.94846182   -6.6955561    640.66986  0.030490665  0.030808145            6 
 1752000   0.98750879   -6.7074534    642.96174  0.030582274  0.030799922            5 
 1753000   0.98152958   -6.6733005    642.37524  0.030536948  0.030791658            4 
 1754000   0.94760744   -6.6664333    641.60773  0.030483074   0.03078345            6 
 1755000   0.96547697   -6.7056366    640.51355  0.030413749  0.030775284            5 
 1756000   0.97257685   -6.7057738    640.99193  0.030419131   0.03076704            3 
 1757000   0.97028221   -6.6935645    640.83507  0.030394378    0.0307589            2 
 1758000   0.98207096    -6.717539    642.40013  0.030451276  0.030750673            3 
 1759000   0.95487828   -6.6728234    643.44222  0.030483334   0.03074232            4 
 1760000   0.96717854   -6.7099843    643.07694  0.030448719  0.030734029            4 
 1761000   0.94842423   -6.7246898    642.48619  0.030403473  0.030725756            3 
 1762000   0.96776367   -6.7042618    642.71553  0.030397065  0.030717506            8 
 1763000   0.96141785   -6.7144511    640.92754  0.030295308   0.03070914            2 
 1764000   0.97423395   -6.7000079    644.06623  0.030426409  0.030700753            8 
 1765000   0.96135575   -6.7139628    643.80798  0.030396978  0.030692393            6 
 1766000   0.94365866   -6.7157585    640.51058  0.030224168  0.030683983            3 
 1767000    0.9795794   -6.6478567     644.8609  0.030412229  0.030675789            7 
 1768000    0.9699604   -6.6880328    644.68987  0.030386966   0.03066758           11 
 1769000   0.96056472    -6.705059    643.97181  0.030335962  0.030659366            6 
 1770000   0.95808581   -6.7102615    643.45335  0.030294414  0.030651182            6 
 1771000   0.95847905    -6.725253    643.45526  0.030277398  0.030642912            6 
 1772000   0.96246887   -6.6626514    642.97054  0.030237516  0.030634736            5 
 1773000    0.9665722   -6.7095018    644.21273  0.030278846  0.030626579            5 
 1774000   0.96309211   -6.6918411    644.63283  0.030281512  0.030618308           10 
 1775000   0.96372944   -6.6872447    645.91308  0.030324558  0.030610016            4 
 1776000   0.97738616   -6.7370651    647.08179  0.030362321  0.030601737            5 
 1777000   0.97150382   -6.6806722    645.41668  0.030267149  0.030593367            5 
 1778000   0.96784452   -6.7112209    644.26814  0.030196294  0.030584998            7 
 1779000   0.96598074   -6.7231456    645.04505  0.030215713  0.030576612            4 
 1780000   0.98654386   -6.7383129    644.96903  0.030195179  0.030568051            4 
 1781000   0.96002828   -6.7299525     645.0974  0.030184232  0.030559684            5 
 1782000   0.97415629   -6.7071345    646.46801  0.030231389   0.03055124            2 
 1783000   0.97063494   -6.6940302    644.71072  0.030132301  0.030542908            4 
 1784000   0.95028398   -6.7056901    646.14006  0.030182178  0.030534485            6 
 1785000   0.96897856   -6.6643875    648.59348  0.030279808  0.030526109            4 
 1786000   0.97718134   -6.6939656    646.27043  0.030154462  0.030517806            4 
 1787000   0.95843391   -6.6958496    647.65172  0.030202002  0.030509418            8 
 1788000    0.9723478   -6.6991813    646.28022  0.030121189  0.030500889           13 
 1789000   0.94751485   -6.7245684    645.51768  0.030068832  0.030492339            6 
 1790000   0.95369428   -6.7461451    647.18665  0.030129732  0.030483901            5 
 1791000   0.95640382   -6.7027107    647.51343  0.030128114  0.030475463            4 
 1792000   0.96441624   -6.7393904     647.1996  0.030096708  0.030467011            3 
 1793000   0.96253654   -6.7235196    646.74298  0.030058699  0.030458602            2 
 1794000   0.96937239   -6.7142882    648.53688  0.030125273  0.030450262           10 
 1795000   0.95573165   -6.7135493    649.48091  0.030152317  0.030441937            5 
 1796000   0.96915616   -6.7099799    648.93953  0.030110409  0.030433552            3 
 1797000   0.97797177   -6.7265749    649.90397  0.030138377  0.030425349            7 
 1798000   0.97398354   -6.7105986    649.55685  0.030105527  0.030417089            3 
 1799000   0.96792521   -6.7016233    652.14437  0.030208652  0.030408819            3 
 1800000   0.95796564    -6.693253    649.28436  0.030059461   0.03040069            2 
 1801000   0.96247055   -6.7238888    650.19507   0.03008491  0.030392438            4 
 1802000   0.96106097   -6.7136533    651.19515  0.030114463  0.030384266            7 
 1803000   0.96130784   -6.7198568    651.97367  0.030133743  0.030376035           13 
 1804000   0.96304788   -6.7266617     648.5135  0.029957201  0.030367791            3 
 1805000    0.9745376   -6.7015327    650.61663  0.030037702   0.03035962            8 
 1806000   0.96849416   -6.7283023    650.02445  0.029993745  0.030351403            7 
 1807000   0.94903466   -6.6893107    652.57995  0.030094999  0.030343208            4 
 1808000   0.96599001   -6.6931023    652.13257  0.030057733  0.030335085            6 
 1809000   0.96483681   -6.7268226    651.47333  0.030010749  0.030327068            7 
 1810000   0.97040383   -6.7132793    653.98578  0.030109842  0.030319017            3 
 1811000   0.96783933   -6.7229025    652.97648  0.030046773  0.030310962            7 
 1812000   0.97927349   -6.6765507    653.52849  0.030055578  0.030302919            5 
 1813000   0.95955902   -6.7322223    653.76816  0.030050017  0.030294929            7 
 1814000   0.97548213   -6.7129176    655.41783  0.030109235  0.030287006            5 
 1815000   0.94441891   -6.6961882    655.88414  0.030114056  0.030279021            6 
 1816000    0.9511058   -6.6899781    656.11593   0.03010811  0.030271076            3 
 1817000   0.96775112   -6.6853813    655.22459   0.03005066  0.030263139            4 
 1818000   0.96580957   -6.7072594    654.80375   0.03001484  0.030255182            5 
 1819000   0.94769347   -6.7211906    655.28723  0.030020489  0.030247348            6 
 1820000   0.96635346   -6.7314019     657.7777  0.030118027  0.030239491            6 
 1821000   0.95325277   -6.6894847    656.71956  0.030053064  0.030231736            5 
 1822000   0.94019077   -6.7419267    655.20198   0.02996716  0.030223985            5 
 1823000   0.95559623   -6.6890362    658.56543  0.030104472  0.030216269            5 
 1824000   0.94194778   -6.7106668    658.14113  0.030068582  0.030208559            5 
 1825000   0.96232209    -6.736293    657.45515  0.030020783  0.030200688            2 
 1826000   0.95739727   -6.7316651    657.87604   0.03002355  0.030192863            6 
 1827000    0.9691462   -6.6921503     661.2671  0.030161791  0.030185137            2 
 1828000   0.93734233   -6.7158836    658.88759  0.030036816  0.030177284            3 
 1829000   0.95577725   -6.7329474     658.3516  0.029995972  0.030169474           10 
 1830000    0.9399222   -6.7288961     658.5253  0.029987491  0.030161701            7 
 1831000   0.97340567   -6.7136942    660.24793  0.030049514  0.030153927            6 
 1832000   0.94360581   -6.7195914     659.7052  0.030008424  0.030146229            6 
 1833000   0.95649584   -6.7562047    659.22683  0.029970305  0.030138478            8 
 1834000   0.96385116   -6.7449949    659.82562  0.029981171  0.030130657            8 
 1835000   0.96302495    -6.728504    658.90852  0.029923185  0.030122868            5 
 1836000   0.99516376   -6.6881298    660.65421  0.029986121  0.030115136            8 
 1837000    0.9718807   -6.6919876    661.61505  0.030013385  0.030107464            5 
 1838000   0.96450139   -6.7241086    661.47398  0.029990659  0.030099656            5 
 1839000   0.97495292   -6.7193528    659.98362  0.029906816  0.030091922            7 
 1840000   0.96116021   -6.7695435    658.13012  0.029806618   0.03008413            4 
 1841000   0.96411523    -6.733965    660.46097  0.029895934  0.030076317            7 
 1842000   0.94676396   -6.7201835     661.1413  0.029910482   0.03006859            5 
 1843000   0.94003554   -6.7222215    659.55874  0.029822696  0.030060891            4 
 1844000   0.97745044   -6.6825678    660.16104  0.029833742  0.030053047            5 
 1845000   0.94395685   -6.6926509    661.59574  0.029882373  0.030045266            4 
 1846000    0.9278689   -6.7213762    663.08883  0.029933587  0.030037473            6 
 1847000   0.98584745    -6.701397    661.69476  0.029854483  0.030029693            5 
 1848000   0.97058989   -6.7090098    662.48154  0.029873807  0.030021981            2 
 1849000   0.97201239     -6.71696    663.15429  0.029887971  0.030014255            7 
 1850000   0.96967659    -6.709895    663.52116  0.029888341  0.030006512            3 
 1851000   0.95728116    -6.723867    664.00251  0.029893864  0.029998821            8 
 1852000    0.9500676   -6.7079671    663.16291  0.029839944   0.02999117            6 
 1853000   0.93814183   -6.6907409    662.78973  0.029807057  0.029983447            4 
 1854000   0.96879694   -6.7168924    664.47535  0.029866746  0.029975737            3 
 1855000   0.94502643    -6.712615    662.64636   0.02976848   0.02996803            3 
 1856000   0.95320594   -6.7241877    663.11997  0.029773705  0.029960292            5 
 1857000   0.96203085   -6.7094276    663.67105  0.029782402  0.029952473            5 
 1858000   0.95985375   -6.6952897    665.94568  0.029868392  0.029944688            2 
 1859000    0.9377495   -6.7710846    663.36729  0.029736744  0.029936939            5 
 1860000   0.95130591   -6.7114973     663.1464   0.02971086  0.029929082            2 
 1861000   0.94823554   -6.7365053    664.23106  0.029743465  0.029921297            4 
 1862000   0.96526782     -6.72062    664.90966  0.029757861  0.029913465            8 
 1863000   0.93382124   -6.6936615    664.95657  0.029743987  0.029905773            4 
 1864000   0.96219015   -6.6992426    665.74809  0.029763416  0.029898068            4 
 1865000   0.95019758   -6.7214407    664.89023  0.029709125  0.029890431            4 
 1866000   0.95486429   -6.7347514    666.43986  0.029762409  0.029882688            7 
 1867000    0.9721325    -6.715188    666.50899  0.029749553  0.029874918            7 
 1868000   0.94379412   -6.7376811    666.27395  0.029723142  0.029867232            5 
 1869000   0.94450692   -6.7514807    665.63449  0.029678727  0.029859458            2 
 1870000   0.94697233   -6.7620897    665.72288  0.029666795   0.02985159            6 
 1871000    0.9399392   -6.7443041    666.18147  0.029671364  0.029843711            8 
 1872000   0.92339535   -6.7222375     664.5211  0.029581602  0.029835882            5 
 1873000   0.95054829    -6.739524    667.13776  0.029682228  0.029828059            5 
 1874000   0.94421394   -6.7084907    667.40343  0.029678203  0.029820217            4 
 1875000   0.92998685   -6.7309892    665.51947  0.029578643  0.029812414            5 
 1876000   0.97311643   -6.6958956     666.9872  0.029628074   0.02980459            4 
 1877000    0.9478583   -6.7455177    667.06805  0.029615879  0.029796716            5 
 1878000   0.96466464   -6.7594938    666.45328  0.029572829  0.029788871           14 
 1879000   0.94544715   -6.7379584     667.0459  0.029583373  0.029781045            3 
 1880000   0.95480058   -6.7008199     667.7362  0.029598236   0.02977327            5 
 1881000   0.93841143   -6.7077493    669.47051  0.029659335   0.02976547            5 
 1882000   0.95378499   -6.7277307    668.28851  0.029591237  0.029757659           12 
 1883000   0.95402761   -6.7510817    668.02093  0.029563681  0.029749748            6 
 1884000   0.97728483   -6.7223625    668.33048  0.029561681  0.029741909            4 
 1885000   0.95806951    -6.713115    670.82683  0.029656359  0.029734062            3 
 1886000   0.95504588   -6.6941457    670.60308  0.029630748  0.029726291            7 
 1887000   0.95575937   -6.7717445     669.4722  0.029565103  0.029718528            4 
 1888000   0.95759526   -6.7143373    669.80132  0.029563971  0.029710699            2 
 1889000   0.96619146   -6.7402702     669.2087  0.029522177  0.029702948            5 
 1890000   0.96074736   -6.7261211    670.44607  0.029561114   0.02969516            4 
 1891000    0.9414054   -6.7388402    670.07755  0.029529241  0.029687435            6 
 1892000   0.93859225   -6.7389624    671.35223  0.029569778  0.029679662            3 
 1893000   0.97172295   -6.7039688    672.22825  0.029592721  0.029671935            3 
 1894000   0.92640668    -6.755598    672.41553  0.029585336  0.029664238            3 
 1895000   0.94410604   -6.7232377    670.56689   0.02948843  0.029656476           10 
 1896000   0.96343028   -6.7818779    671.19434  0.029500455  0.029648727            6 
 1897000   0.94715169   -6.7555832    672.31017  0.029533921  0.029641049            5 
 1898000   0.94000517   -6.7558483    672.07984  0.029508247  0.029633359            2 
 1899000    0.9647548   -6.7575842    672.38924  0.029506286  0.029625677            5 
 1900000   0.93793651   -6.7443162    671.43613  0.029448953  0.029617978            5 
 1901000   0.94102392   -6.7431213    673.08274  0.029505644  0.029610395           10 
 1902000   0.95159598    -6.742003    672.55871  0.029467171  0.029602689            5 
 1903000   0.93591057   -6.7599135    671.34663  0.029398609  0.029594984            4 
 1904000   0.95448227   -6.7629775    673.45778  0.029475568   0.02958731            7 
 1905000   0.96963823   -6.7246075    673.82746  0.029476267  0.029579675            4 
 1906000   0.97216179   -6.7626066    674.61459  0.029495216  0.029572038            3 
 1907000   0.98074047    -6.762321    673.91157  0.029449029  0.029564428            5 
 1908000   0.93786812   -6.7588515    673.34083  0.029408666  0.029556751            5 
 1909000   0.95554867   -6.7324018    674.12472  0.029427481  0.029549028            5 
 1910000    0.9577469   -6.7548919    674.29159  0.029419354  0.029541495           10 
 1911000   0.93339183   -6.7901074    673.14829  0.029354103  0.029533889            3 
 1912000   0.94025598   -6.7253714    677.69624   0.02953697  0.029526222            4 
 1913000   0.93109732   -6.7609067    673.17278  0.029324481  0.029518567            5 
 1914000   0.96199218   -6.7300108    677.51118  0.029498049  0.029510952            3 
 1915000   0.94772903   -6.7520962    675.38392  0.029390075  0.029503387            5 
 1916000   0.96301068   -6.7598981     675.2703  0.029369794  0.029495716            2 
 1917000   0.95268341   -6.7519653    674.43634   0.02931822   0.02948793            7 
 1918000    0.9364719   -6.7262003     678.0607  0.029460406   0.02948035            9 
 1919000   0.94004948   -6.7226413    678.13985  0.029448491  0.029472789            6 
 1920000   0.96585646   -6.7245848    677.81028  0.029418849  0.029465188            8 
 1921000   0.92055596   -6.7414035    676.68956  0.029354918  0.029457629            4 
 1922000   0.93475937   -6.7475602    678.41749  0.029414563  0.029450162            4 
 1923000   0.94158497   -6.7624471    677.47127  0.029358263  0.029442601            5 
 1924000    0.9643033   -6.7353805    679.42268  0.029427524  0.029435028            4 
 1925000    0.9633345   -6.7322304    678.95734  0.029392092  0.029427422            6 
 1926000   0.94844139    -6.753853     679.3101  0.029392095   0.02941988            5 
 1927000   0.96798638   -6.7519773    677.31887  0.029290731  0.029412362            6 
 1928000   0.93890678   -6.7509841    678.34609  0.029319938  0.029404697            7 
 1929000   0.94298421   -6.7579267    678.48152  0.029310589  0.029397134            3 
 1930000   0.93512934   -6.7907788    678.19855  0.029283184  0.029389509            6 
 1931000   0.94520764   -6.7363805    679.11052  0.029307376  0.029381975            4 
 1932000   0.93766332   -6.7374408    679.28322  0.029299656  0.029374512            8 
 1933000   0.96620458   -6.7788975    679.00904  0.029272678  0.029367032            3 
 1934000   0.92995622   -6.7578273    678.85925  0.029251088  0.029359487            6 
 1935000   0.94201436   -6.7232355    678.71175  0.029229619  0.029351961            8 
 1936000   0.94629169   -6.7527136    680.05984  0.029272548  0.029344405            9 
 1937000   0.93515725    -6.743761    679.35781  0.029227233  0.029336947            8 
 1938000    0.9551171   -6.7319242     680.7606  0.029272472  0.029329416            7 
 1939000   0.93622157   -6.7586533    679.64782   0.02920955   0.02932183            8 
 1940000   0.93196417    -6.736257    680.32666  0.029223654  0.029314271            7 
 1941000   0.93343164   -6.7454452    682.31384  0.029293914  0.029306736            6 
 1942000   0.95385175   -6.7934161    682.64314   0.02929296  0.029299314            3 
 1943000    0.9539084   -6.8050229    681.43691   0.02922615  0.029291761            8 
 1944000   0.93238308    -6.736645    681.08471  0.029196018   0.02928416            5 
 1945000   0.93975614   -6.7191042    682.03299  0.029221636  0.029276658            5 
 1946000   0.95134844   -6.7257804    680.89026  0.029157685  0.029269098            4 
 1947000   0.91616866   -6.7453462    680.71383  0.029135158  0.029261512           13 
 1948000   0.92280603   -6.7764722     680.4547  0.029109116  0.029253823            3 
 1949000   0.94702561   -6.7554921    680.85702  0.029111383  0.029246102            4 
 1950000   0.93566573   -6.7137764    680.87351  0.029097158  0.029238373            3 
 1951000   0.91442315   -6.7480534    682.06085   0.02913296  0.029230643            2 
 1952000   0.92197418   -6.7647086    679.55403  0.029011015  0.029222911            3 
 1953000   0.92186994    -6.753765    680.96174  0.029056227  0.029215152            6 
 1954000   0.92385888   -6.7805438    681.43153  0.029061393  0.029207356            4 
 1955000   0.93493733    -6.713992     682.7625  0.029103261  0.029199604           10 
 1956000   0.95297344   -6.7840463    678.61702  0.028911768   0.02919181            5 
 1957000   0.96061361   -6.7669436    681.89827  0.029036717  0.029183975            4 
 1958000   0.94205066   -6.7491165    681.95282  0.029024209  0.029176202            5 
 1959000    0.9487827   -6.8010168    680.47619   0.02894658  0.029168437            5 
 1960000   0.95586279   -6.7749222    683.05452  0.029041434  0.029160703           13 
 1961000   0.91770694   -6.7917855     681.6851   0.02896843   0.02915295            7 
 1962000   0.92282473   -6.7622167    682.05424  0.028969344   0.02914518            5 
 1963000   0.93527722   -6.7292947     683.6451  0.029022122   0.02913747            3 
 1964000   0.92531711   -6.7973644    682.39528  0.028954314    0.0291297            6 
 1965000   0.92763764   -6.7630063    683.15201  0.028971671  0.029121952            4 
 1966000   0.92214699   -6.7603061     684.3398  0.029007282  0.029114178            7 
 1967000   0.94212564   -6.7771612    682.83979  0.028928986  0.029106371            3 
 1968000   0.92865102   -6.7809067    682.65625  0.028906515  0.029098474            9 
 1969000   0.95149233   -6.7668618    683.19978  0.028914838  0.029090663            5 
 1970000   0.94781752   -6.7297156     683.8073  0.028925859  0.029082897            2 
 1971000   0.94425521   -6.7824617    682.84671   0.02887057   0.02907513            5 
 1972000   0.95078743   -6.7571112    684.11465   0.02890951  0.029067325            6 
 1973000   0.91040987   -6.7680516    686.57478  0.028998766  0.029059572            4 
 1974000   0.94522634   -6.7801913    685.24923  0.028928117  0.029051882            9 
 1975000    0.9383038   -6.7579424    685.25714  0.028913803  0.029044248            4 
 1976000   0.92200469    -6.767572    685.97862  0.028929598  0.029036749            5 
 1977000   0.92326424   -6.7832271    685.05442  0.028876008  0.029029136            5 
 1978000   0.94530563    -6.791036        687.6  0.028968655  0.029021513            8 
 1979000    0.9517904   -6.8113996    686.49443  0.028907463  0.029013882            6 
 1980000   0.91715952   -6.7875134    688.40417   0.02897324  0.029006295            4 
 1981000   0.94108647   -6.7250945     686.4562   0.02887667  0.028998666            4 
 1982000   0.95676024    -6.774253    686.12446  0.028848153  0.028991071           11 
 1983000   0.90662862   -6.7366432    687.31203  0.028883511  0.028983555            4 
 1984000   0.93008103   -6.7810567    687.92769  0.028894812  0.028976017            5 
 1985000   0.93100979   -6.7613407    689.40183  0.028942142  0.028968541            7 
 1986000   0.93745474    -6.758262     689.0968   0.02891477   0.02896108            5 
 1987000   0.93316255   -6.7851145    688.97867  0.028895264  0.028953586            5 
 1988000   0.93259574   -6.7578913    689.32785  0.028895366  0.028946104            4 
 1989000   0.91718911   -6.7754198    688.23196  0.028834924  0.028938599            4 
 1990000   0.91762841   -6.7633318    688.91655  0.028849102  0.028931101            9 
 1991000   0.94769507   -6.7817353    688.19565  0.028804439  0.028923563            5 
 1992000   0.92274789   -6.7828573    689.80561   0.02885733  0.028916028            6 
 1993000   0.94531185   -6.7447454     689.3372  0.028823265  0.028908564            4 
 1994000   0.91699398   -6.7782832    689.20432  0.028803256  0.028901029            6 
 1995000   0.93798456   -6.7869023    692.83419  0.028940442  0.028893527            8 
 1996000   0.92985525   -6.7609837     690.2884  0.028819656  0.028886108            5 
 1997000   0.91815724   -6.7620955    692.66486  0.028904392  0.028878669            5 
 1998000   0.91482271   -6.7498023    691.87055  0.028856796  0.028871327            7 
 1999000   0.94002773   -6.8155167    691.82505  0.028840464  0.028863993            9 
 2000000   0.94071335    -6.799555    690.43625  0.028768177  0.028856521           10 
 2001000   0.94043278   -6.7849797     689.8107  0.028727749  0.028848992            5 
 2002000   0.93554326   -6.7774223    693.35772  0.028861044  0.028841614            4 
 2003000   0.94349783   -6.7605761    693.40105  0.028848438  0.028834206            6 
 2004000   0.94445339   -6.7929436     690.4828  0.028712691  0.028826829            6 
 2005000   0.93916802   -6.7748585    693.50219  0.028823865  0.028819451            5 
 2006000    0.9331433   -6.7354863     693.5021  0.028809493  0.028812011            3 
 2007000   0.95779872   -6.7569414    694.10216  0.028820053  0.028804643            5 
 2008000   0.92015692    -6.761423    692.50024   0.02873922   0.02879728            4 
 2009000   0.94286644   -6.7768469    692.51909  0.028725697  0.028789795            6 
 2010000   0.94622736   -6.8025157    692.11462  0.028694636  0.028782309            4 
 2011000   0.94484447   -6.7626969    693.38929  0.028733188  0.028774875            6 
 2012000   0.93375399   -6.7451592    694.24632  0.028754404  0.028767446            6 
 2013000   0.92578901   -6.7900068    695.57462  0.028795108  0.028759952            9 
 2014000   0.94016341   -6.7626868    694.81418  0.028749346   0.02875255            8 
 2015000   0.92428548   -6.7816369    695.06357  0.028745392  0.028745186            6 
 2016000    0.9355397   -6.7833304     694.4419  0.028705436  0.028737761            4 
 2017000   0.92600397    -6.783329    695.34011  0.028728314  0.028730361            4 
 2018000   0.91134247   -6.7428923    694.41536   0.02867589  0.028722941            5 
 2019000   0.90485504    -6.771975    695.03456  0.028687244  0.028715528            3 
 2020000    0.9201414   -6.7525395    694.36848  0.028645565  0.028708248            6 
 2021000   0.91811953   -6.7311069    695.85443  0.028692662  0.028700966            6 
 2022000   0.94050254   -6.7573302    698.30822    0.0287796  0.028693725            9 
 2023000   0.93569946    -6.767636    695.66807  0.028656619  0.028686446            4 
 2024000   0.92337374   -6.7634302    699.73544  0.028809924  0.028679184            7 
 2025000   0.91446237    -6.780029    695.92967  0.028639081  0.028671927            4 
 2026000   0.91722453   -6.7757583    696.36208  0.028642731  0.028664693            7 
 2027000     0.938832   -6.7837919    698.50934  0.028716878   0.02865749            6 
 2028000   0.94241801   -6.7809109    697.32137  0.028653902   0.02865026            8 
 2029000   0.90670992   -6.7698365    699.20644  0.028717202  0.028642974            6 
 2030000   0.89838739   -6.7922093    698.04583  0.028655412  0.028635701            3 
 2031000   0.94656092   -6.7708584    698.07279  0.028642409    0.0286285            7 
 2032000   0.94009013   -6.7632117    699.00691  0.028666622  0.028621354           10 
 2033000    0.9236772   -6.7682196     698.2966  0.028623406  0.028614184            7 
 2034000   0.93304508    -6.800365    699.91925  0.028675813  0.028606968            5 
 2035000   0.93019639   -6.7616414    698.95251  0.028622134  0.028599715            3 
 2036000   0.92248194   -6.7735488    700.53227  0.028672735  0.028592536            5 
 2037000    0.9152636   -6.7893584    702.07251   0.02872167  0.028585401            4 
 2038000    0.9385532   -6.8040567    701.36597  0.028678687  0.028578271            3 
 2039000   0.94999704   -6.7895191    701.52585  0.028671156  0.028571179            3 
 2040000   0.91347178   -6.7631407    702.57048  0.028699774  0.028564116            7 
 2041000   0.92551324   -6.8066399    701.28028  0.028633035  0.028556997           11 
 2042000   0.92634177   -6.7919101     702.1385  0.028654036  0.028549917            9 
 2043000   0.92703433   -6.7886537    701.85926   0.02862862  0.028542805            4 
 2044000   0.92600825   -6.8146283     701.3962  0.028595736  0.028535705           13 
 2045000   0.92778009   -6.7860274     701.7122  0.028594629   0.02852861            4 
 2046000   0.90804702   -6.7879781    703.27203  0.028644185  0.028521508           14 
 2047000   0.92124752   -6.7775536    704.22277  0.028668896  0.028514461            5 
 2048000   0.91726997   -6.7680546    702.16506  0.028571169  0.028507455            4 
 2049000   0.93063095   -6.8098327    702.67886  0.028578122   0.02850038            3 
 2050000   0.94173524   -6.8112084    702.40191  0.028552923  0.028493249            7 
 2051000   0.91608635   -6.7751161    703.52956  0.028584819  0.028486132            5 
 2052000    0.9089967   -6.7846397    702.24105  0.028518561  0.028479025            5 
 2053000   0.92393105   -6.8008759    701.40828  0.028470867  0.028471879            3 
 2054000   0.94391137   -6.8056434    703.07169  0.028524493  0.028464675            4 
 2055000   0.93626069   -6.7787437    704.52953   0.02856973  0.028457477            5 
 2056000    0.9289457   -6.7803398     703.6184  0.028518904  0.028450326            6 
 2057000   0.93192877   -6.8051011    704.19542  0.028528416  0.028443199            7 
 2058000   0.92745997   -6.8212931    703.25092  0.028476309  0.028436056            6 
 2059000   0.92131004   -6.8041525    703.16785  0.028459117  0.028428859            8 
 2060000   0.90422791   -6.7963361    704.40782  0.028495462  0.028421641            5 
 2061000   0.93473487   -6.7640103    703.93214  0.028462403  0.028414497            9 
 2062000   0.93257179   -6.7566929    706.28529  0.028543699  0.028407437            9 
 2063000   0.92072156   -6.8018426    705.65094  0.028504239  0.028400427            7 
 2064000    0.9113642   -6.8173036    706.70184  0.028532859  0.028393395            9 
 2065000   0.90715888    -6.790134     706.9821  0.028530351  0.028386374            7 
 2066000    0.9261618   -6.8049088    706.07156  0.028479814   0.02837935            6 
 2067000   0.92187451   -6.8100655    707.34238   0.02851727  0.028372404            6 
 2068000   0.92152728   -6.8174415    707.86155  0.028524401  0.028365466            8 
 2069000   0.92501558   -6.8107248    707.02745   0.02847702  0.028358436            3 
 2070000   0.92700185   -6.7802488    708.37145  0.028517369  0.028351443           20 
 2071000   0.89962511   -6.7622838    709.26015  0.028539359  0.028344419            5 
 2072000   0.91343399   -6.7899622    707.94835  0.028472826  0.028337491           10 
 2073000   0.93193287    -6.818533    707.66017  0.028447506  0.028330516            6 
 2074000   0.90511631   -6.7504439    708.39302  0.028463236  0.028323549            6 
 2075000   0.91803626   -6.8015211    706.44268  0.028371192   0.02831657            8 
 2076000   0.91433249   -6.8077599    709.33871  0.028473776  0.028309576            3 
 2077000   0.92737834   -6.8228251    706.42285  0.028343077  0.028302545            8 
 2078000   0.90935886   -6.7784482     708.1377  0.028398207  0.028295483            3 
 2079000   0.91737733   -6.7792009    709.89345  0.028454924  0.028288469            7 
 2080000    0.9046084   -6.8339545    708.97831   0.02840458  0.028281433           10 
 2081000    0.9090554   -6.7992478    709.15543  0.028398023  0.028274404            3 
 2082000   0.90619184   -6.7840268    709.14253  0.028383867  0.028267386            5 
 2083000   0.91939701   -6.7773064     710.0381  0.028406069  0.028260332            3 
 2084000   0.91793767   -6.7959375    706.68667  0.028258424  0.028253286            6 
 2085000   0.93823332   -6.7717262    710.87399   0.02841223   0.02824627           11 
 2086000   0.92146134   -6.8038153    708.40882  0.028300129  0.028239229           13 
 2087000   0.90562811   -6.7639986    708.56609  0.028292848   0.02823214            3 
 2088000   0.92346067   -6.8253933    709.95933  0.028334903  0.028225086            5 
 2089000     0.917077   -6.7566298    712.97786  0.028441753  0.028218069            6 
 2090000   0.92071837   -6.7965706    710.11224  0.028313885  0.028211001            5 
 2091000   0.93276968   -6.7837079    708.99563  0.028255844  0.028204032           21 
 2092000   0.89926222   -6.7844681    710.40128   0.02829833  0.028196985            5 
 2093000   0.92200179   -6.8052693    710.88258  0.028303973  0.028189888            3 
 2094000   0.92589204    -6.807349    712.36975   0.02834964  0.028182873            8 
 2095000   0.93209225   -6.8134767    712.42402  0.028338267  0.028175826            5 
 2096000   0.91094472   -6.7922595     710.6359  0.028253654  0.028168763            9 
 2097000   0.90168425   -6.7838168    711.35902  0.028268917  0.028161776            5 
 2098000   0.88828016   -6.7902427    709.89765  0.028197396  0.028154744            5 
 2099000    0.9007441   -6.7871843     709.7077  0.028176421  0.028147677            5 
 2100000   0.90118575    -6.802102    711.24198  0.028223888  0.028140554            5 
 2101000   0.92321082   -6.7843237    710.43649  0.028178506  0.028133463           10 
 2102000   0.90657873   -6.7882287    711.17324  0.028194309  0.028126463            5 
 2103000   0.92920195   -6.7931388    710.94536  0.028171872  0.028119391            9 
 2104000   0.90245814   -6.7955134    712.90912  0.028236261  0.028112314           12 
 2105000   0.92258837   -6.8439852    710.12235  0.028112524   0.02810523            4 
 2106000   0.92141952   -6.8183226    711.93828   0.02817103  0.028098099            6 
 2107000     0.904354   -6.8032587     713.0906  0.028203235  0.028091013            6 
 2108000   0.90545135   -6.7681987    714.06018  0.028228185   0.02808394            4 
 2109000   0.92698836   -6.7978833    712.27161  0.028144129  0.028076857            7 
 2110000   0.89807201   -6.8442323    710.70076   0.02806875  0.028069734            6 
 2111000   0.93447546   -6.8017622    713.92396  0.028182692  0.028062555            7 
 2112000   0.90220197   -6.8219618     713.9647  0.028170956  0.028055358            8 
 2113000   0.92514133   -6.8120356    711.98627  0.028079597  0.028048185            5 
 2114000   0.91779436   -6.8179099    712.63483  0.028091881  0.028040996            5 
 2115000   0.91432665   -6.7933784    711.16174  0.028020557   0.02803375            3 
 2116000   0.92452836   -6.8041603    713.63333  0.028104652  0.028026582            7 
 2117000   0.89848123   -6.8650298     712.4014  0.028042883  0.028019334            3 
 2118000   0.94145374   -6.7953879    714.60503  0.028116345  0.028012132            5 
 2119000   0.91881966   -6.8125426    713.35962  0.028054099  0.028004976            4 
 2120000   0.89907804   -6.8169604    712.98145     0.028026  0.027997778            8 
 2121000   0.89340383   -6.8070514     714.3392  0.028066132  0.027990568            6 
 2122000   0.90951169   -6.7874648    712.64134  0.027986229  0.027983348            3 
 2123000   0.91990977   -6.8395141    712.56523  0.027970059  0.027976059            5 
 2124000   0.89817329   -6.8251147    714.09545  0.028016927  0.027968728           12 
 2125000   0.90865215    -6.796676     712.2663  0.027932012  0.027961453            5 
 2126000   0.90294494    -6.805811    713.38783  0.027962834  0.027954175            4 
 2127000   0.90305738   -6.8068775     711.2669  0.027866592  0.027946916            3 
 2128000   0.91807673   -6.8423659    713.90942  0.027956979  0.027939631            7 
 2129000   0.91918727   -6.7938456    714.96621  0.027985213  0.027932384            5 
 2130000   0.91762776   -6.8105241     715.4897  0.027992555  0.027925105            6 
 2131000   0.93262182   -6.8338048    714.92142  0.027957196  0.027917771            8 
 2132000   0.95017177   -6.8030874    713.92587   0.02790517  0.027910498            3 
 2133000    0.9134266   -6.7706511    715.49413  0.027953357  0.027903225           17 
 2134000   0.93133899   -6.8106156    714.65758   0.02790759  0.027895947            5 
 2135000   0.89545102   -6.8345293    715.34476  0.027921341  0.027888672            3 
 2136000    0.8916963   -6.8160027    713.41572   0.02783301  0.027881355            3 
 2137000   0.90998515   -6.8458219    715.06924  0.027884466  0.027874045            6 
 2138000   0.90085507   -6.8254409    715.18107  0.027875782  0.027866759            5 
 2139000   0.91053792   -6.8052025    712.11782  0.027743409  0.027859401            4 
 2140000   0.90673264   -6.8167913    714.60039  0.027827118   0.02785207            5 
 2141000   0.91912666   -6.8452056    715.60851  0.027853359  0.027844736            5 
 2142000   0.92612665   -6.8236591    716.51573  0.027875651  0.027837432            7 
 2143000   0.89826296   -6.7924081    716.42194  0.027858996  0.027830136            5 
 2144000   0.91950133   -6.8239376    714.76915  0.027781761  0.027822836            7 
 2145000   0.90805617   -6.8300312    716.33469  0.027829631  0.027815461            3 
 2146000   0.90480231   -6.8191245    716.36232  0.027817735  0.027808134            4 
 2147000   0.90562481   -6.7955969    716.89286  0.027825371  0.027800784            7 
 2148000   0.90893943   -6.7898769    718.21739  0.027863803  0.027793496            3 
 2149000   0.87986153    -6.818612    715.95868   0.02776325  0.027786219            7 
 2150000   0.91714484   -6.8153261    716.61025  0.027775591  0.027778881            7 
 2151000   0.89538128   -6.8099925    719.00936  0.027855624  0.027771596            4 
 2152000   0.91495221   -6.7934038    716.02262  0.027727022  0.027764306            3 
 2153000   0.90256874   -6.7960013    717.41995  0.027768229  0.027756959            4 
 2154000   0.88960656   -6.8250613    717.33808   0.02775217  0.027749667            4 
 2155000    0.9116525   -6.7824301    718.85122  0.027797804  0.027742376            4 
 2156000   0.90220412   -6.8114254    718.07358  0.027754854   0.02773511           11 
 2157000   0.88204157   -6.8079359    719.08327  0.027780995  0.027727898            7 
 2158000   0.91885455   -6.7672648    721.04209  0.027843763  0.027720814            3 
 2159000   0.90322045   -6.8023886    718.53835  0.027734227  0.027713592            5 
 2160000   0.89932174   -6.8311343    717.80267  0.027693004  0.027706356           15 
 2161000   0.90864848   -6.8006227    718.87119  0.027721394  0.027699062            2 
 2162000   0.91655265   -6.8277964     716.9499  0.027634516  0.027691756            4 
 2163000   0.89229146   -6.8271157     715.8078  0.027577739  0.027684418           11 
 2164000   0.90163935   -6.8096686     719.7893  0.027718319  0.027677007            5 
 2165000   0.91524922   -6.8231308    718.27431  0.027647202  0.027669634            5 
 2166000    0.9230365    -6.818454    718.72594  0.027651814  0.027662307            7 
 2167000   0.88954339   -6.8072659    719.67086  0.027675391  0.027654949            8 
 2168000   0.91949464   -6.8057395    719.77247  0.027666531  0.027647626            8 
 2169000   0.91740631   -6.8258741    719.54327   0.02764497  0.027640272           10 
 2170000   0.91469986   -6.8157129     719.2987  0.027622838   0.02763284            5 
 2171000   0.88714852   -6.8219565    717.24642  0.027531338  0.027625476            9 
 2172000   0.90925657    -6.824764    719.52186  0.027605965  0.027618122            5 
 2173000    0.8898752   -6.8061235    721.45149  0.027667261  0.027610803            5 
 2174000   0.89585551   -6.8015177    721.01127   0.02763766  0.027603524            4 
 2175000   0.91845359   -6.8492196    719.33084  0.027560568  0.027596128            5 
 2176000   0.90189344   -6.8542863    719.85699  0.027568053  0.027588717            5 
 2177000   0.90348757   -6.8617223    719.75332  0.027551421  0.027581285            7 
 2178000    0.8920077   -6.8199468    720.28263  0.027559023  0.027573934            6 
 2179000   0.90416513   -6.8331432    720.32335  0.027547933  0.027566688            5 
 2180000   0.88766459   -6.7983805     720.7946   0.02755331  0.027559398            3 
 2181000   0.90451157   -6.8067406    722.12785  0.027591619   0.02755216            6 
 2182000   0.90428471   -6.8440423    721.64841  0.027560663  0.027544888           10 
 2183000   0.88040135   -6.8109744    722.24547   0.02757083  0.027537598            6 
 2184000   0.90626643   -6.8417982     722.1688  0.027555281  0.027530274            5 
 2185000   0.90104146   -6.8425706    719.98933  0.027459547  0.027522936           12 
 2186000    0.8975595   -6.8228218    722.81328  0.027554639  0.027515553            7 
 2187000   0.90298178   -6.8232196    720.00046   0.02743486  0.027508227            9 
 2188000   0.91835561   -6.8497785    721.50937   0.02747979  0.027500828           17 
 2189000   0.89630641   -6.8141616    722.96381  0.027522606   0.02749343            6 
 2190000   0.87782058   -6.8287353    723.55065  0.027532369  0.027486067           10 
 2191000   0.88540349    -6.825249    723.97163  0.027535814  0.027478741            5 
 2192000   0.92511184   -6.8353976    722.48939  0.027466902  0.027471343            2 
 2193000   0.90042509   -6.8189332    721.34603   0.02741093  0.027463951            8 
 2194000   0.90424067   -6.8460354    721.82187   0.02741651   0.02745654           11 
 2195000   0.89281018   -6.8299086    722.63441  0.027434868  0.027449122            4 
 2196000   0.90690993   -6.8411544    723.69324  0.027462555  0.027441672           11 
 2197000   0.91310739   -6.8419939    721.38281  0.027362419  0.027434243            3 
 2198000   0.89260568   -6.8139872    722.65161  0.027398074  0.027426754            8 
 2199000   0.90730596   -6.8539325    721.88159  0.027356434  0.027419242           11 
 2200000   0.89695965   -6.7988855     721.1799  0.027317421  0.027411795            5 
 2201000   0.90585268   -6.8122982    722.32977  0.027348545   0.02740431            6 
 2202000   0.88883015   -6.8347879    724.58737  0.027421563  0.027396833            9 
 2203000   0.90347511   -6.8551804    723.30599  0.027360644  0.027389389            5 
 2204000   0.88929765   -6.8496168    722.27283  0.027309166  0.027381937            6 
 2205000   0.89084483   -6.7968032     723.7455  0.027352438  0.027374453            4 
 2206000   0.89545465   -6.8168354    722.35696  0.027287585  0.027366912            5 
 2207000    0.9036306   -6.8401606    722.10801  0.027265821  0.027359362            4 
 2208000   0.89878872   -6.8301615     724.7763  0.027354178  0.027351806            4 
 2209000    0.9000015   -6.8351639    724.06821  0.027315083  0.027344284            6 
 2210000   0.89636056   -6.7968468    723.72444   0.02728976   0.02733679            9 
 2211000    0.9138867   -6.8296536    721.76654  0.027203624  0.027329328            8 
 2212000   0.90345169   -6.8209278    724.67326  0.027300831  0.027321859            5 
 2213000   0.89341753   -6.8324172    723.75236  0.027253817  0.027314404            7 
 2214000   0.87912667   -6.8415373    723.96495  0.027249509  0.027306894           12 
 2215000    0.8834352   -6.8414062    724.45937  0.027255808  0.027299355           10 
 2216000   0.90299678   -6.8332029    723.34762  0.027201701  0.027291854            6 
 2217000   0.89444508   -6.8448072    725.10284  0.027255407  0.027284324            9 
 2218000   0.90049275     -6.82197    725.06978  0.027241876  0.027276949            6 
 2219000   0.91227457   -6.8473682    724.73437  0.027217003  0.027269551            4 
 2220000   0.88868093   -6.8423759    725.33126  0.027227149  0.027262074           11 
 2221000   0.90826505   -6.8286381    726.43201  0.027256191  0.027254625            6 
 2222000   0.89682992   -6.8432106    726.30718  0.027239243  0.027247174            5 
 2223000   0.88491504   -6.8536319    725.91069  0.027212126  0.027239791            8 
 2224000   0.90578886   -6.8544883    724.92154  0.027162827  0.027232332           16 
 2225000    0.8946888   -6.8621991    724.79654  0.027145938   0.02722485            9 
 2226000   0.90009335    -6.842307    727.97068  0.027252571  0.027217366            5 
 2227000   0.90366884   -6.8402477    726.23057   0.02717522  0.027209884            7 
 2228000   0.90560044   -6.8520714    724.21522  0.027087643  0.027202438            9 
 2229000   0.89289852   -6.8312356    726.64443  0.027166309  0.027195034            4 
 2230000   0.89689372   -6.8480468    727.04603  0.027169134  0.027187597           10 
 2231000   0.89075965   -6.8648498    725.93723   0.02711554  0.027180103           12 
 2232000    0.8843745   -6.7976026    727.01422  0.027143601  0.027172702           13 
 2233000   0.88358862   -6.8556403    725.99778  0.027093513  0.027165264            6 
 2234000   0.88764405   -6.8624801    728.06469  0.027158486  0.027157844           12 
 2235000   0.90715159   -6.8267817    726.98006  0.027105893  0.027150411            7 
 2236000   0.87917727   -6.8266786    728.55046  0.027152298  0.027142986            7 
 2237000   0.89047044   -6.8508097    727.81783  0.027112868  0.027135597            5 
 2238000   0.88350338   -6.8492162    729.26558  0.027154661  0.027128231            7 
 2239000   0.88176566    -6.851749    727.44293  0.027074696  0.027120929            4 
 2240000   0.89657319   -6.8343566    727.03692  0.027047505  0.027113574            7 
 2241000   0.88558958   -6.8243697    729.71828  0.027135144  0.027106259            6 
 2242000   0.90139632   -6.8532907     729.2746  0.027106549  0.027098947           12 
 2243000   0.87663748    -6.829407    730.31942  0.027133282  0.027091643            4 
 2244000    0.8767713   -6.8693644    729.87939  0.027104849  0.027084337            5 
 2245000   0.86826303   -6.8522001    730.06078  0.027099509  0.027077018            8 
 2246000   0.90380802   -6.8425345    728.47084  0.027028452  0.027069685           12 
 2247000   0.87140963   -6.8393686    730.49608  0.027091532  0.027062404            7 
 2248000    0.9019749   -6.8366924    729.19981  0.027031428  0.027055087           30 
 2249000   0.89759652   -6.8602428    728.73403   0.02700215  0.027047686            8 
 2250000   0.87732753   -6.8163903     728.5661   0.02698393  0.027040261            5 
 2251000   0.87940047    -6.875458    729.25926  0.026997603  0.027032824            4 
 2252000   0.88848667   -6.8457259    729.16041  0.026981957   0.02702541           10 
 2253000   0.90271985   -6.8342534    728.26577   0.02693689  0.027017969           11 
 2254000   0.89931916   -6.8401548    730.27674  0.026999288  0.027010541            9 
 2255000   0.88810704   -6.8731388    729.10725  0.026944096  0.027003081            4 
 2256000   0.89463259   -6.8139918     731.6999  0.027027922  0.026995654            7 
 2257000   0.88758738   -6.8465168    732.02371  0.027027902   0.02698826            9 
 2258000   0.88182673   -6.8733608    728.51654  0.026886498  0.026980815            6 
 2259000   0.87600265   -6.8464901    731.08086  0.026969192  0.026973394            9 
 2260000    0.9177729   -6.8683447     730.5332  0.026937065  0.026966009            7 
 2261000   0.88896302   -6.8523595    732.91767  0.027013035  0.026958631           20 
 2262000   0.88477592   -6.8687691    731.37762  0.026944357  0.026951271            6 
 2263000   0.89552192    -6.885086    731.00745  0.026918819    0.0269439            6 
 2264000   0.85783156    -6.858704    732.67752  0.026968401  0.026936529            8 
 2265000   0.89030036   -6.8366066    732.27852  0.026941815  0.026929225            9 
 2266000   0.87119236   -6.8690777    732.40572  0.026934603  0.026921838            7 
 2267000   0.87720949   -6.8467861    731.87173  0.026903093  0.026914462           11 
 2268000   0.89340301   -6.8738083     731.8064   0.02688883  0.026907193            9 
 2269000   0.89476392    -6.855516    733.93549  0.026955174  0.026899896            3 
 2270000   0.87783128   -6.8554252    732.37632  0.026886062  0.026892623            5 
 2271000   0.89084644    -6.856723    732.81599  0.026890356  0.026885344            6 
 2272000   0.88884468   -6.8449042    734.79361  0.026951057  0.026878055            8 
 2273000   0.89411386   -6.8507784    734.56451    0.0269308  0.026870842            5 
 2274000   0.88923865   -6.8647458    733.92562  0.026895544  0.026863586            7 
 2275000   0.89696711   -6.8349131    734.07112  0.026889052  0.026856372           11 
 2276000     0.878203   -6.8225412    734.78806  0.026903488  0.026849176            3 
 2277000    0.8899704    -6.868733    735.41425   0.02691459  0.026841958           18 
 2278000   0.86484303   -6.8358108    735.05288  0.026889555  0.026834763            3 
 2279000   0.89417008   -6.8615141    734.65814  0.026863322   0.02682748            4 
 2280000   0.89287427   -6.8567951    734.61147  0.026849834   0.02682031            8 
 2281000   0.87775032   -6.8574203    735.86067  0.026883701  0.026813143            6 
 2282000   0.88864884   -6.8942769    736.94661  0.026911576   0.02680597            7 
 2283000    0.8830155   -6.8544669    735.88428  0.026861012  0.026798793            6 
 2284000   0.90646592   -6.8515304    735.56866  0.026837736  0.026791608            9 
 2285000   0.88934742   -6.8681685     735.8086  0.026834741  0.026784412            4 
 2286000   0.88208947   -6.8722941    736.16049   0.02683583  0.026777243            5 
 2287000   0.89039722   -6.8239393    737.64126  0.026878052  0.026770128            4 
 2288000   0.89271329   -6.8869759     736.6686  0.026830878  0.026762984            8 
 2289000   0.89693473   -6.8566089    737.29719  0.026842041  0.026755845            6 
 2290000    0.8860341   -6.8765718    738.29947  0.026866793  0.026748716           13 
 2291000   0.89164095   -6.8605996    736.56023  0.026791803   0.02674159            7 
 2292000    0.8804584    -6.857043    737.54637  0.026815968  0.026734426            7 
 2293000   0.86278173   -6.8480775    738.43687  0.026836636  0.026727272           10 
 2294000   0.86625105   -6.8918764     735.9991  0.026736381   0.02672008            9 
 2295000   0.86702712   -6.8257172     738.0128  0.026797851  0.026712878            6 
 2296000   0.88470364   -6.8735487    738.91416  0.026818894  0.026705741            7 
 2297000    0.8546753   -6.8536933    737.93168  0.026771575  0.026698637            6 
 2298000    0.8879712   -6.8461153    737.57451  0.026746972  0.026691508            9 
 2299000   0.89242548   -6.8763221    739.06228  0.026789266  0.026684421            5 
 2300000   0.88952741   -6.8614772    738.05949  0.026741286  0.026677337           16 
 2301000   0.88668837   -6.8749845    739.07354  0.026766389  0.026670307            8 
 2302000   0.86887784   -6.8453239    738.52795  0.026735011    0.0266632            7 
 2303000   0.88800803    -6.844343    739.80283  0.026769533  0.026656142            4 
 2304000   0.88122326   -6.8638721    737.69089  0.026681528  0.026649002            4 
 2305000   0.87519318   -6.8638223    740.05567  0.026755447  0.026641844           16 
 2306000   0.88400679   -6.8626996    739.86972  0.026737125  0.026634735            6 
 2307000   0.87949894   -6.8421056    740.66923  0.026754415  0.026627635           19 
 2308000   0.86744069   -6.8427925    739.88004  0.026714328  0.026620518            5 
 2309000   0.87750411   -6.8350225    740.94715  0.026741272  0.026613425           14 
 2310000   0.88942269   -6.8766172    739.23715  0.026668007  0.026606254            3 
 2311000   0.87053077   -6.8808627     739.0178  0.026648558    0.0265991           13 
 2312000   0.88607546   -6.8561763    739.38284  0.026650189  0.026591959           11 
 2313000   0.88790146   -6.8702644    740.06973  0.026663414  0.026584779            3 
 2314000   0.89613987   -6.8625866    739.23513  0.026621836   0.02657757           12 
 2315000   0.88464618   -6.8712418    740.01149  0.026638282  0.026570363            5 
 2316000   0.88043926   -6.8843269    739.99428  0.026626161  0.026563205            4 
 2317000   0.88736074   -6.8884434     739.9512   0.02661312  0.026556102            5 
 2318000   0.89050841   -6.8760775    741.95093  0.026673531  0.026548904            9 
 2319000   0.88392587   -6.8865284    740.73643  0.026618386  0.026541762            5 
 2320000   0.88067803   -6.8628293    740.16787   0.02658649  0.026534591            3 
 2321000   0.87217062   -6.8549297    740.79353  0.026597498  0.026527429           11 
 2322000   0.86468267   -6.8423485    741.77199   0.02662116  0.026520239           11 
 2323000    0.8637597   -6.9227093    737.92153  0.026471572  0.026513062            8 
 2324000   0.88165288   -6.8899448    742.22088  0.026614346  0.026505917            9 
 2325000    0.8788713   -6.8600559    741.81364  0.026588302  0.026498752           14 
 2326000   0.85634135    -6.873229    742.82231  0.026613009  0.026491631            3 
 2327000   0.87404371   -6.8888591    740.78212   0.02652851   0.02648449            7 
 2328000   0.87108739   -6.8838867    742.47107  0.026577573  0.026477332           15 
 2329000   0.89797451   -6.8793861    741.92037  0.026546457  0.026470165            7 
 2330000   0.89493382   -6.8503234    741.61487  0.026524137  0.026462977            5 
 2331000   0.88785703   -6.8970417    741.63589   0.02651351  0.026455792            7 
 2332000    0.8831256   -6.8720101    743.54949  0.026570522  0.026448573           10 
 2333000   0.89310594    -6.860546     741.8361  0.026497932  0.026441418            4 
 2334000   0.87972531    -6.848866    742.02726  0.026493404  0.026434277            5 
 2335000   0.87817676   -6.8635361    743.44849   0.02653278  0.026427121            4 
 2336000   0.87066926   -6.8526936    743.73656  0.026531698  0.026420032            5 
 2337000   0.86476598   -6.8723563    742.84931  0.026488707  0.026412923            6 
 2338000   0.86786411   -6.8932185    744.36506  0.026531404  0.026405823            4 
 2339000   0.86880771   -6.8615469    744.16806  0.026513042  0.026398721            5 
 2340000   0.88331863   -6.8637372    742.48734  0.026441857  0.026391585            5 
 2341000   0.87152795   -6.8473601    743.67547  0.026472856  0.026384472            4 
 2342000   0.86240352   -6.8611559    744.78039  0.026500868  0.026377348            7 
 2343000   0.88005954   -6.8785323    740.99407  0.026354889  0.026370152            6 
 2344000   0.89029402   -6.9277337    742.80109  0.026407889  0.026362965            3 
 2345000   0.86137475   -6.8409317    744.80102  0.026467698  0.026355838            4 
 2346000    0.8779415   -6.8541504    744.91937   0.02646062  0.026348806           13 
 2347000   0.85618459   -6.8590649    745.57976  0.026472793  0.026341743            5 
 2348000   0.90509512   -6.8909789    744.01393  0.026405946  0.026334651            4 
 2349000   0.86789307   -6.8827629    744.17245  0.026400328  0.026327563            4 
 2350000   0.87105472   -6.8975272    743.88248  0.026378811  0.026320465            5 
 2351000   0.89453941   -6.8891234    745.54423  0.026426493  0.026313297            4 
 2352000   0.88282104   -6.8786413    745.30285  0.026406705  0.026306165            8 
 2353000   0.89612044   -6.8670727    744.31026  0.026360329  0.026299043            7 
 2354000   0.87235704   -6.8941192    744.40937   0.02635264  0.026291948            4 
 2355000   0.86596853   -6.8518523    747.43705  0.026448586  0.026284883            9 
 2356000   0.86332328   -6.9080583    746.54073  0.026405657  0.026277807            5 
 2357000   0.87026943   -6.8881731    745.53159  0.026358775  0.026270721           15 
 2358000   0.86924552   -6.8993344    743.89499  0.026289758  0.026263585            8 
 2359000   0.87478355   -6.8609916    745.63359  0.026340031  0.026256489            6 
 2360000   0.88576551   -6.8601225    749.34198  0.026459816  0.026249527            6 
 2361000   0.86478732   -6.9068625    747.53159  0.026384709  0.026242504           10 
 2362000   0.84885577   -6.8635718    747.47518  0.026371549  0.026235446            5 
 2363000   0.87701385   -6.8988662    746.67762  0.026332262  0.026228378            8 
 2364000   0.87354199   -6.8883184    747.51594  0.026350675  0.026221317            9 
 2365000   0.89144074   -6.8681048     747.2903  0.026331582  0.026214295           12 
 2366000   0.87822855   -6.8932245    747.99775   0.02634537  0.026207247            9 
 2367000   0.89112703   -6.8822051    748.20815  0.026341647  0.026200208            6 
 2368000   0.88413561   -6.8661807    745.42917  0.026232727  0.026193131           11 
 2369000   0.85905468   -6.8829406    748.47777  0.026328893  0.026186101            8 
 2370000   0.84804589    -6.891603    747.82246  0.026294742  0.026178999            7 
 2371000    0.8881118   -6.9452923    745.87735  0.026215287  0.026171871            9 
 2372000   0.86097346   -6.8893401    747.76768  0.026270647  0.026164732            5 
 2373000    0.8860855   -6.8885537    747.43586  0.026247923  0.026157569            6 
 2374000   0.87224398   -6.9144005    745.15291   0.02615673  0.026150385           11 
 2375000   0.85684269   -6.8916432     746.8733  0.026206081  0.026143215           12 
 2376000   0.86201457   -6.9020992     748.6737  0.026258197  0.026136011            3 
 2377000   0.88345609    -6.889692    747.73881  0.026214374  0.026128852            3 
 2378000   0.87522835   -6.9158685    748.62001  0.026234231   0.02612167            5 
 2379000   0.88935504   -6.8626625    749.42691  0.026251468  0.026114541            8 
 2380000   0.88797699   -6.8997726    748.09352  0.026193751  0.026107403            4 
 2381000   0.86093862   -6.8863529    747.87264  0.026175019  0.026100245           14 
 2382000   0.87488965   -6.8933065    747.96082  0.026167115  0.026093071            4 
 2383000   0.85169209     -6.87784    747.70498  0.026147188  0.026085924           14 
 2384000   0.87794009   -6.8599097    747.30687  0.026122304  0.026078737            6 
 2385000    0.8711551   -6.9026267    748.26418    0.0261448  0.026071653            7 
 2386000   0.87651198   -6.8870533    750.71781  0.026219538  0.026064588            8 
 2387000   0.87860213   -6.8773151    750.18992  0.026190124   0.02605752            9 
 2388000   0.86420728   -6.8998008    746.54629  0.026052006  0.026050382            4 
 2389000   0.89371906   -6.8868262    749.00431  0.026126842  0.026043227            4 
 2390000   0.88559672   -6.8641418    750.13919  0.026155481  0.026036074            4 
 2391000   0.87405507   -6.8784841    750.25514  0.026148583  0.026028924            5 
 2392000   0.85916624   -6.9007714    749.53342  0.026112508  0.026021803            3 
 2393000   0.86080647   -6.8848825    751.24194  0.026161093  0.026014656            4 
 2394000   0.87967607   -6.9092292    749.42816  0.026087029  0.026007469            6 
 2395000   0.85595228   -6.9004849    748.20779  0.026033674  0.026000259           10 
 2396000   0.86658244   -6.9182406     749.2274  0.026058271   0.02599302           11 
 2397000   0.85652427   -6.9103856    750.36521  0.026086956  0.025985855           15 
 2398000   0.87964434   -6.8956221    749.77762  0.026055658   0.02597871            4 
 2399000   0.88904954   -6.8468111    749.35981  0.026030284  0.025971639            9 
 2400000   0.88124682   -6.9120285    750.62677   0.02606343  0.025964517           16 
 2401000   0.88285818   -6.8818136    748.54831  0.025980435  0.025957364            7 
 2402000   0.86920593    -6.881009    750.27854  0.026029647  0.025950252            4 
 2403000   0.89068371   -6.9195659     750.4313  0.026024112   0.02594313           15 
 2404000   0.86334503   -6.8902401    749.25619  0.025972552  0.025936009            4 
 2405000    0.8671593   -6.9167355    750.91587  0.026019261  0.025928873            9 
 2406000   0.85903294   -6.9094068     751.2548  0.026020186  0.025921741            5 
 2407000   0.86438231   -6.8933823    752.35802   0.02604757  0.025914658            9 
 2408000   0.86515123   -6.9354907    749.55881  0.025939881  0.025907524            4 
 2409000   0.86126786   -6.9027541    750.08471  0.025947306  0.025900367           11 
 2410000   0.86912849   -6.9244956    749.40003  0.025912864  0.025893218            9 
 2411000   0.86657153    -6.927944    751.71788   0.02598223  0.025886081            6 
 2412000    0.8670234     -6.91018    752.42164  0.025995773  0.025878979            9 
 2413000   0.86583991   -6.8894182    753.26546  0.026014141  0.025871925            8 
 2414000     0.888817    -6.896029    753.39915   0.02600798  0.025864887            6 
 2415000    0.8581372   -6.8994341    754.73535  0.026043318  0.025857833            7 
 2416000   0.86238986   -6.9106863    752.39636  0.025951861  0.025850782            4 
 2417000   0.87957269   -6.8783155    752.10087  0.025930936  0.025843721            3 
 2418000   0.87494548   -6.9156323    754.13649  0.025990367  0.025836684           10 
 2419000   0.85751746   -6.8983134     753.8158  0.025968575  0.025829636            4 
 2420000   0.88577378   -6.9191398    753.29977  0.025940075  0.025822569            7 
 2421000   0.84724326   -6.9058457    754.09509  0.025956736  0.025815488            5 
 2422000   0.85608861   -6.9194493    755.25904  0.025986067  0.025808421            7 
 2423000   0.87188141   -6.8953594    752.68321  0.025886752  0.025801342            4 
 2424000   0.86226327   -6.9037973    754.09621   0.02592465  0.025794281            7 
 2425000   0.88509692   -6.9100432    754.88942  0.025941217  0.025787235           13 
 2426000   0.86123463   -6.9048993    755.20071  0.025941217  0.025780215            6 
 2427000   0.87851921   -6.9358572    753.90212   0.02588594  0.025773142            4 
 2428000   0.86983218   -6.9149721     752.1061  0.025813636  0.025766039           10 
 2429000   0.84584128    -6.891083    753.49681  0.025850721  0.025758934            7 
 2430000   0.86817551   -6.8720557    753.23452  0.025831088  0.025751867            4 
 2431000   0.87772428   -6.9228234    752.11662  0.025782141  0.025744783            9 
 2432000   0.86999533   -6.9079556    754.01548  0.025836605  0.025737673           17 
 2433000   0.86126415   -6.8967031    754.90992  0.025856622  0.025730627            3 
 2434000   0.86871132   -6.9251401    753.91504  0.025811937  0.025723499           14 
 2435000    0.8467658   -6.9120487    752.98119  0.025769377  0.025716335            5 
 2436000   0.87309826    -6.933288    754.42901  0.025808327  0.025709186            6 
 2437000    0.8599516   -6.8685361    754.20465  0.025790065  0.025702084            6 
 2438000   0.86201871   -6.9256226    753.83776  0.025766945  0.025694993            5 
 2439000   0.86576113   -6.8943444    755.31368  0.025806809  0.025687916            6 
 2440000   0.86950275   -6.8879864     755.0518  0.025787288  0.025680885            8 
 2441000   0.87625456   -6.8776867    755.39437  0.025788419   0.02567389            8 
 2442000   0.86186905   -6.8949059    754.78653  0.025757116  0.025666832            4 
 2443000   0.84410596    -6.927709    756.03819  0.025789268  0.025659785            5 
 2444000   0.86705602   -6.9215432    753.66645  0.025697847  0.025652675            5 
 2445000   0.83540286   -6.9142112    754.18756  0.025705097  0.025645545            7 
 2446000   0.87700885   -6.8984868    755.85312  0.025751333  0.025638445            6 
 2447000   0.85480941   -6.9177304    755.54279  0.025730241  0.025631355            9 
 2448000   0.83562795   -6.9184973    755.22605  0.025708948  0.025624258            6 
 2449000    0.8476138   -6.9306627    753.76872  0.025648861  0.025617147            7 
 2450000    0.8667175   -6.9184791    754.34694  0.025658059  0.025610042            8 
 2451000   0.86185621   -6.9150611    756.36115  0.025716073  0.025602949            6 
 2452000   0.85530525   -6.9045068    754.17808  0.025631392  0.025595848           14 
 2453000   0.85375756   -6.9190098    755.67441  0.025671776  0.025588738            4 
 2454000   0.85859447   -6.9144278    756.74241  0.025697582  0.025581682           12 
 2455000   0.87021363    -6.912591    756.10007  0.025665311  0.025574618            4 
 2456000   0.86087443   -6.9255537    757.58605  0.025705281  0.025567543            3 
 2457000   0.85686127   -6.9158921    756.44694  0.025656184  0.025560466            8 
 2458000    0.8452435   -6.8890069    759.66728  0.025754926  0.025553386            7 
 2459000   0.84593732   -6.9355445     757.4644  0.025669798  0.025546373            9 
 2460000   0.84491917   -6.9267853    759.33116    0.0257226  0.025539414            5 
 2461000   0.86918703   -6.9014096    759.66981  0.025723615   0.02553245            9 
 2462000   0.86020222   -6.9108351    758.39545  0.025670033  0.025525513            5 
 2463000    0.8576168   -6.9108555    757.94782  0.025644466  0.025518552           11 
 2464000   0.87380682   -6.9273857    757.54465  0.025620422  0.025511554            5 
 2465000   0.85576575   -6.9286138    759.43859  0.025674057  0.025504611            3 
 2466000   0.83238039   -6.9151777    760.05837   0.02568459  0.025497628            4 
 2467000   0.85382667   -6.9050759    759.55555  0.025657193  0.025490695            8 
 2468000   0.86137351   -6.9057216     759.0252   0.02562889  0.025483724            4 
 2469000   0.84905391   -6.9343671    759.52905  0.025635515   0.02547679            7 
 2470000   0.86370115   -6.9259866    760.39922  0.025654494  0.025469889            6 
 2471000    0.8565861   -6.9151377    757.59843  0.025549657  0.025462931           15 
 2472000   0.86360346   -6.8996571    759.15949  0.025591946  0.025455981            7 
 2473000   0.85082042   -6.9084647    759.59866  0.025596396  0.025449083            4 
 2474000   0.86649759   -6.9217325    758.42357  0.025546469  0.025442118            9 
 2475000   0.85000896   -6.9196246    759.62656  0.025576652  0.025435176            6 
 2476000   0.83545966   -6.9128917    760.77553  0.025604992  0.025428291            5 
 2477000   0.86927319   -6.9141872    762.01418  0.025636327  0.025421389            5 
 2478000   0.87015665   -6.9176045    763.37544  0.025671759  0.025414527            7 
 2479000   0.87050416   -6.9251329    761.53923  0.025599678  0.025407651            9 
 2480000   0.84646258   -6.9570972    760.94137  0.025569266  0.025400774            7 
 2481000   0.84739849   -6.9271277    761.50321  0.025577832  0.025393923            6 
 2482000   0.84842136    -6.901269    762.43816  0.025598917  0.025387112            6 
 2483000   0.85123082   -6.9167895    761.42501  0.025554605  0.025380317            4 
 2484000   0.85234868   -6.9138631    762.76604  0.025589306  0.025373511            5 
 2485000   0.87774902   -6.9370579    763.57822  0.025606245  0.025366715            6 
 2486000   0.85665553   -6.9289376    762.68489  0.025565999  0.025359866            7 
 2487000   0.84856759   -6.9211113    762.41916  0.025546815  0.025352968            4 
 2488000   0.85508599   -6.9508224    761.88556  0.025518675  0.025346101            6 
 2489000   0.87101194   -6.9025829    761.38764  0.025491752  0.025339215            5 
 2490000   0.84537881   -6.9393207    762.44661  0.025516955  0.025332315            6 
 2491000   0.83982187   -6.9332694     760.7258  0.025449144  0.025325406            9 
 2492000   0.84999286   -6.9528751    762.39338  0.025494696  0.025318526           11 
 2493000   0.83802629   -6.9137696    762.59539  0.025491222  0.025311643            5 
 2494000   0.86254855   -6.9036399    762.70596  0.025484695  0.025304789            3 
 2495000   0.84659881   -6.9327048    762.75625  0.025476161  0.025297934            9 
 2496000   0.85206784   -6.9122742    763.45213  0.025489187  0.025291082           13 
 2497000   0.83802744   -6.9470767    764.10082  0.025500628  0.025284175            6 
 2498000   0.84681352   -6.9638895    762.02212  0.025421074  0.025277282            8 
 2499000   0.84061644   -6.9292308    763.68022  0.025466194  0.025270374            6 
 2500000   0.85374764   -6.9552171    763.06977  0.025435659  0.025263518            5 
 2501000   0.85916584   -6.9489415    762.59557  0.025409688  0.025256645            7 
 2502000   0.83822783   -6.9335153    765.00237  0.025479695  0.025249764            9 
 2503000   0.85894761   -6.9541497    764.43755  0.025450711  0.025242901            9 
 2504000   0.83956269    -6.954588    763.35446  0.025404502  0.025236044            7 
 2505000   0.87825401   -6.9047157    764.96125  0.025447813   0.02522912           10 
 2506000   0.86290501   -6.9510236    763.96743   0.02540461  0.025222233            4 
 2507000   0.84347665   -6.9700819    763.04798  0.025363914  0.025215272           16 
 2508000   0.84444376   -6.9453056     763.2798  0.025361503  0.025208307            9 
 2509000   0.85312313   -6.9161616    763.78251  0.025368092  0.025201407            8 
 2510000   0.85025269   -6.9228564     765.0057  0.025398595  0.025194491            6 
 2511000   0.87320133   -6.9449469    764.31984  0.025365719   0.02518755           13 
 2512000   0.84592782   -6.9492738    765.46739   0.02539369  0.025180675           12 
 2513000    0.8490654   -6.9232444    765.76485  0.025393449  0.025173746            5 
 2514000   0.85025409     -6.93581    764.47135  0.025340472  0.025166833            6 
 2515000   0.83660564   -6.9816267    763.17026  0.025287285  0.025159878            8 
 2516000   0.84739638   -6.9275779    764.18042  0.025310692  0.025152941            7 
 2517000   0.86257101   -6.9639209    762.59367  0.025248102  0.025146011            7 
 2518000   0.86055716   -6.9138721    765.62478  0.025338389  0.025139135            8 
 2519000   0.83927418   -6.9658374    764.08972  0.025277548  0.025132221            7 
 2520000   0.85984952   -6.9355482    765.20872  0.025304521  0.025125269           13 
 2521000   0.84545988   -6.9106518    765.85519  0.025315853  0.025118338            6 
 2522000   0.83514416   -6.9480811     762.9512   0.02520986  0.025111375            6 
 2523000   0.83576798   -6.9376377    765.29362  0.025277237  0.025104398            7 
 2524000   0.85034653   -6.9332582    765.28333  0.025266882  0.025097427           12 
 2525000    0.8464052   -6.9571871    766.37074  0.025292764  0.025090427            5 
 2526000    0.8447293   -6.9218865    765.15171  0.025242535   0.02508345            5 
 2527000   0.84217325   -6.9600736    766.92615  0.025291062  0.025076508            3 
 2528000   0.84642515   -6.9489061      765.047  0.025219113   0.02506954            8 
 2529000   0.85081248   -6.9490453    762.13518  0.025113193  0.025062555           11 
 2530000   0.82300573   -6.9308174    765.94132  0.025228634  0.025055578            6 
 2531000   0.85997839   -6.9190611    766.49029  0.025236741  0.025048608            7 
 2532000   0.85100457   -6.9012789    763.78657  0.025137789  0.025041707            6 
 2533000   0.84100686   -6.9094344    766.12768  0.025204885  0.025034806            6 
 2534000    0.8450477   -6.9463077    765.75192  0.025182581  0.025027866           14 
 2535000   0.84575046    -6.938779    765.09824  0.025151158  0.025020917            4 
 2536000   0.85259718   -6.9423291    765.58066  0.025157093   0.02501397            3 
 2537000   0.84508537   -6.9517879    765.39832  0.025141188  0.025007041            4 
 2538000    0.8500945   -6.9443745    766.51387   0.02516791  0.025000112            4 
 2539000   0.83797907   -6.9618175    766.33138  0.025152008  0.024993134           11 
 2540000    0.8316261   -6.9535462    765.99472  0.025131061  0.024986131            7 
 2541000    0.8319428   -6.9561864    767.22961  0.025161669  0.024979175            6 
 2542000   0.84565881   -6.9471309    764.42731  0.025059904  0.024972217           13 
 2543000   0.86027402   -6.9266543    764.53621  0.025053618  0.024965222           10 
 2544000   0.84252855   -6.9957174    765.24386   0.02506695  0.024958163           11 
 2545000    0.8512061   -6.9854353    764.27289  0.025025307   0.02495114            8 
 2546000   0.83003036   -6.9603677    766.07939  0.025074607  0.024944108           11 
 2547000   0.84469754   -6.9486568    765.97052    0.0250612  0.024937126           16 
 2548000   0.84398343   -6.9359529    768.75852  0.025142547  0.024930153            6 
 2549000   0.83703014   -6.9497462    767.78331  0.025100801   0.02492325            6 
 2550000   0.82924146   -6.9620617    767.81158  0.025091882  0.024916323            5 
 2551000    0.8374491   -6.9506663    767.35171  0.025067023  0.024909412           15 
 2552000   0.83540064   -6.9303287    767.25896  0.025054172  0.024902477           11 
 2553000   0.85219726   -6.9267692    767.88923  0.025064931  0.024895489            5 
 2554000   0.83858337   -6.9631568    764.92424  0.024958374  0.024888531            6 
 2555000   0.82626218   -6.9267485    768.03007  0.025049905  0.024881583            6 
 2556000   0.83784734   -6.9407585    767.35401  0.025018062  0.024874677            7 
 2557000   0.84755198    -6.957431    767.68715  0.025019135   0.02486771            4 
 2558000   0.81752699   -6.9699403    768.74865  0.025043936  0.024860736            6 
 2559000   0.83599083   -6.9476787    769.45539  0.025057164  0.024853753            8 
 2560000   0.83569791   -6.9803939    766.12383  0.024938927  0.024846773           13 
 2561000   0.84113621   -6.9472415    768.75407  0.025014775  0.024839785            5 
 2562000    0.8364391   -6.9699161     767.2839  0.024957192   0.02483275           11 
 2563000    0.8543841   -6.9551302    767.12286  0.024942218  0.024825733            8 
 2564000   0.84113312   -6.9267998    766.23796   0.02490373  0.024818765            9 
 2565000   0.83461065   -6.9449443    769.17478  0.024989434  0.024811848            5 
 2566000   0.83823402   -6.9650341    768.26175  0.024950044  0.024804937            5 
 2567000    0.8400247   -6.9617516     768.4915  0.024947783  0.024798046            5 
 2568000   0.81843323   -6.9510134    768.78581  0.024947619   0.02479112            4 
 2569000   0.82971745   -6.9589699    769.43471  0.024958957  0.024784219            5 
 2570000   0.84584582   -6.9886137    766.07116   0.02484018  0.024777276            8 
 2571000   0.85818424   -6.9145535    768.21554  0.024900024  0.024770291            6 
 2572000   0.82890804   -6.9340295    769.28449  0.024924977  0.024763328           11 
 2573000   0.84315293   -6.9550662    768.10425  0.024877065  0.024756402            9 
 2574000   0.82747041   -6.9674845    768.56415  0.024882289  0.024749479            8 
 2575000   0.84246776   -6.9757643     768.0682  0.024856576   0.02474253            6 
 2576000   0.83514828   -6.9429518     769.7694   0.02490196  0.024735598           20 
 2577000   0.84808905   -6.9567823    769.25795  0.024875758  0.024728638            4 
 2578000   0.84718459   -6.9874311    769.56978  0.024876189  0.024721699           16 
 2579000    0.8357542   -6.9846345    767.88921   0.02481224  0.024714764           15 
 2580000   0.83637954   -6.9269751    770.25591  0.024879067  0.024707835            9 
 2581000   0.84638319   -6.9523867    771.41037  0.024906702  0.024700891            6 
 2582000   0.83912173   -6.9162454    770.21173   0.02485837  0.024693983            4 
 2583000   0.84964529   -6.9685336    770.52233  0.024858767  0.024687027           14 
 2584000    0.8422488   -6.9554155    771.21513  0.024871489  0.024680111           17 
 2585000   0.85539404   -6.9752867    768.47401  0.024773501  0.024673184            7 
 2586000   0.82771004    -6.944779     770.4861  0.024828761  0.024666226            6 
 2587000   0.82425835   -6.9845914    771.16684  0.024841091  0.024659308            6 
 2588000   0.85126158   -6.9859875    770.23805  0.024801586  0.024652337            7 
 2589000   0.80911087   -6.9627444    769.51269  0.024768659    0.0246454            7 
 2590000   0.83799826   -6.9492577    772.15552  0.024844129  0.024638542            6 
 2591000   0.83248316   -6.9142897    773.67909  0.024883542  0.024631758            5 
 2592000   0.83786275   -6.9546766     772.4487  0.024834385  0.024624996            6 
 2593000   0.84838152   -6.9759786    774.01914  0.024875278  0.024618178           11 
 2594000    0.8469398   -6.9506668    772.17197  0.024806347  0.024611344           12 
 2595000   0.84295739   -6.9217167    771.13097  0.024763358  0.024604472            9 
 2596000   0.84542412   -6.9712482    772.08069  0.024784306  0.024597591           16 
 2597000   0.82625536   -6.9500057    769.76128  0.024700336  0.024590648           33 
 2598000    0.8483706   -6.9793328    770.70458  0.024721086  0.024583755           10 
 2599000   0.83500866   -6.9640735    770.06184  0.024690966  0.024576816            5 
 2600000   0.83960341   -6.9745794    771.08179   0.02471416  0.024569889           11 
 2601000   0.83828595   -6.9655057    772.21244  0.024740883  0.024562963           11 
 2602000   0.82269576   -6.9430779    772.74083  0.024748297  0.024556113            9 
 2603000    0.8227624   -6.9869884    771.24743  0.024690979   0.02454925           10 
 2604000   0.82781839   -6.9539975    771.03251   0.02467462  0.024542318            5 
 2605000   0.82566771   -6.9965168    771.66814  0.024685481  0.024535388            7 
 2606000   0.85084943   -6.9614769    772.91331  0.024715826  0.024528507            5 
 2607000   0.84204657   -6.9633111    772.03405   0.02467824  0.024521566            4 
 2608000   0.84486561   -6.9450777    774.47222  0.024746684  0.024514651            5 
 2609000   0.82434841   -6.9665242    771.34084   0.02463718  0.024507739            7 
 2610000   0.83485238   -6.9775955      772.779  0.024673659  0.024500821            5 
 2611000   0.83450079   -6.9376318    771.83682  0.024634138  0.024493915            7 
 2612000   0.81946791   -6.9319234    773.05933   0.02466371  0.024487066            6 
 2613000    0.8267626   -6.9259241    771.69498   0.02461076  0.024480171            7 
 2614000   0.83956431   -6.9565167    775.13564  0.024711032  0.024473272            6 
 2615000   0.84195632   -7.0141078    771.56568  0.024587816  0.024466393            7 
 2616000   0.84810258   -6.9786736    773.31415  0.024634115  0.024459461            8 
 2617000   0.82960065   -6.9890242    771.59511  0.024569963  0.024452559           19 
 2618000   0.83083886   -6.9478966    773.52078  0.024621874  0.024445661            4 
 2619000   0.83914343   -6.9553737     774.9689   0.02465855  0.024438733            4 
 2620000   0.83465533   -6.9681487    773.31204  0.024596439  0.024431821            9 
 2621000   0.83540427   -6.9581651    774.29809  0.024618405  0.024424937            5 
 2622000   0.83597246   -6.9792675    775.01694  0.024631863  0.024418127            5 
 2623000   0.82609053   -7.0097629    775.22499  0.024629082  0.024411278           11 
 2624000    0.8369141   -6.9495035    773.63038  0.024569054  0.024404417            9 
 2625000   0.84179547   -6.9616817    774.30409  0.024581082  0.024397603            8 
 2626000   0.85048388   -6.9835412     773.0573  0.024532156  0.024390799            8 
 2627000   0.82449702   -6.9800996     773.3694  0.024532718  0.024383973            5 
 2628000   0.85051679   -6.9961985    774.86687  0.024570867  0.024377137           15 
 2629000   0.82439498   -7.0096423     773.3451  0.024513284  0.024370278            7 
 2630000   0.83307022   -6.9986878    774.42624  0.024538221  0.024363459            9 
 2631000   0.82972964   -6.9616037    776.62837  0.024598643  0.024356634           15 
 2632000   0.82701232   -6.9910769    775.40713  0.024550631   0.02434981            5 
 2633000   0.81895022   -6.9774116    774.77989  0.024521455  0.024343031           11 
 2634000   0.84714639    -6.962884    775.73313  0.024542304  0.024336226            8 
 2635000   0.82257235   -6.9781936    775.87021  0.024537325   0.02432943            7 
 2636000   0.81915245   -6.9829168    776.36446  0.024543641  0.024322669            6 
 2637000   0.83238744   -6.9851559    776.20638  0.024529338  0.024315903            5 
 2638000   0.86480333   -6.9980486    775.90313   0.02451046  0.024309094            6 
 2639000   0.82313712   -6.9784486    776.03433  0.024505315  0.024302279            7 
 2640000   0.82540583   -6.9860925    776.80623  0.024520399  0.024295427            8 
 2641000   0.81982153   -6.9679265    778.43349   0.02456246  0.024288591            7 
 2642000   0.82008027   -6.9830492    776.79982  0.024501635  0.024281816           10 
 2643000   0.82632277   -6.9699792    777.02245  0.024499384  0.024275042            5 
 2644000   0.83490809   -6.9885334    776.83708  0.024484275  0.024268249            5 
 2645000    0.8146875   -6.9617123    777.46304   0.02449474  0.024261463            8 
 2646000   0.84783555   -6.9852863    775.90525  0.024436421   0.02425465            9 
 2647000   0.81351382   -6.9591634     778.9535  0.024523155  0.024247836            7 
 2648000   0.82684365    -6.957265    777.88928  0.024480403  0.024241035            7 
 2649000   0.82585176   -6.9712211    777.49906  0.024458886  0.024234256            7 
 2650000    0.8320013   -6.9654777     778.4224  0.024478692  0.024227446            9 
 2651000    0.8347113   -7.0007603    776.16516  0.024398502  0.024220629            9 
 2652000   0.81805489   -7.0027924    776.82886  0.024410158  0.024213795            6 
 2653000    0.8432681   -6.9947925    776.65348  0.024395448  0.024206977            5 
 2654000   0.82161251   -7.0272947     776.3423  0.024376485  0.024200149           11 
 2655000   0.80412984   -6.9684548    779.94805  0.024480479  0.024193367            6 
 2656000   0.82238101   -6.9947381    778.46855  0.024424841  0.024186604           11 
 2657000   0.83552429    -6.994358    778.73076  0.024423873  0.024179821           12 
 2658000   0.85179352    -6.954006    776.37333  0.024340774  0.024173068           16 
 2659000   0.82932441   -7.0024489    777.84202  0.024377649  0.024166284            6 
 2660000   0.82122288   -6.9812573    779.93369  0.024434013   0.02415953            8 
 2661000    0.8480413   -7.0045588    779.05769  0.024397397  0.024152814            6 
 2662000   0.83513163   -6.9999962    778.41443  0.024368095   0.02414616           12 
 2663000   0.84021072   -6.9678454    781.48366   0.02445499  0.024139481            8 
 2664000   0.82446549   -7.0004283    780.87613  0.024426806  0.024132814            7 
 2665000   0.82929733   -6.9823948    780.36081  0.024401526  0.024126096            6 
 2666000   0.83784627   -6.9783006    781.97257  0.024442753  0.024119404            8 
 2667000   0.83353932   -6.9945947     778.4325  0.024322975   0.02411271            7 
 2668000   0.84059348   -6.9785362    778.38403  0.024312345  0.024105994            5 
 2669000   0.81135227   -6.9818683    779.95868    0.0243524  0.024099279            5 
 2670000   0.83055407   -6.9919912     779.4756  0.024328202   0.02409259           20 
 2671000   0.83070684    -6.977049      780.033  0.024336484  0.024085916            7 
 2672000    0.8280488   -7.0104554    781.95066  0.024387184  0.024079251            8 
 2673000    0.8185786   -6.9992873    781.74519  0.024371654  0.024072583            5 
 2674000   0.81960625   -6.9939833    780.24249   0.02431571  0.024065928            5 
 2675000   0.83223763   -7.0020633    780.50231  0.024314714  0.024059236            6 
 2676000   0.83153418   -6.9915559    782.66647  0.024373022  0.024052594            5 
 2677000   0.82367636   -7.0003164    782.96897  0.024373334  0.024045987            5 
 2678000   0.82511204   -6.9808898    782.69609  0.024355741  0.024039357            8 
 2679000   0.80119467   -6.9900051    780.80584  0.024287851  0.024032686           12 
 2680000   0.83872086   -6.9799139     782.7836  0.024340286  0.024026027            6 
 2681000   0.82339184   -6.9873676    781.39674    0.0242881  0.024019403            8 
 2682000   0.83515342   -7.0123054    780.55812  0.024252987   0.02401277           11 
 2683000   0.82826903   -7.0096838    779.91466  0.024223961  0.024006065            4 
 2684000   0.82035692   -6.9585049    782.55563  0.024296933  0.023999445           18 
 2685000   0.81313747   -7.0223675    780.87544  0.024235737  0.023992811            5 
 2686000   0.79805603   -7.0051572    781.72505  0.024253073  0.023986178            3 
 2687000   0.83408443   -7.0146178    782.08884  0.024255329   0.02397953            9 
 2688000   0.82483099   -7.0004847    781.94121  0.024241729  0.023972935           11 
 2689000   0.80657268   -7.0329848    782.31704  0.024244361  0.023966311            5 
 2690000   0.82457266   -6.9843389     781.2537  0.024202407   0.02395967           14 
 2691000   0.82344684   -6.9810422    782.86792  0.024243401  0.023953045           10 
 2692000   0.81045238   -7.0247815    781.92484  0.024205202  0.023946455            9 
 2693000    0.8248747   -7.0011062     784.0303  0.024261366  0.023939836            8 
 2694000   0.81228149   -6.9708499    784.87742  0.024278564  0.023933254            5 
 2695000   0.79650752   -6.9966662    784.22063  0.024249247  0.023926643            7 
 2696000   0.83424012   -7.0020994    784.54886  0.024250397  0.023920028            9 
 2697000   0.82825843   -6.9964004    782.37316   0.02417418  0.023913402            7 
 2698000    0.8336356   -6.9679482    785.05106  0.024247932  0.023906817            9 
 2699000    0.8236725   -6.9677038    785.17552  0.024242791  0.023900279            8 
 2700000    0.8187276   -7.0033767    783.94132   0.02419572  0.023893679            9 
 2701000   0.81632213   -7.0157386    783.87469  0.024184706  0.023887106           14 
 2702000   0.82655788   -7.0102876    784.01087  0.024179955  0.023880533            8 
 2703000   0.80047399   -6.9991253    785.36693  0.024212817   0.02387397           11 
 2704000   0.81709973   -7.0011915    784.96882  0.024191593  0.023867414           17 
 2705000   0.81055556    -6.986703    783.37396  0.024133517  0.023860893           11 
 2706000   0.83075667   -7.0047454    786.44818  0.024219271  0.023854372            5 
 2707000   0.82044745   -6.9765605    784.68577   0.02415607  0.023847804            8 
 2708000   0.81559712   -7.0202581    783.63005  0.024114662  0.023841244            9 
 2709000   0.81735079   -7.0116221    785.12097  0.024151623  0.023834688            6 
 2710000   0.83339841   -7.0057837    786.27284  0.024178132  0.023828135           21 
 2711000   0.80367838   -6.9826806    786.36589  0.024172073  0.023821633            8 
 2712000   0.80278954   -7.0056302    786.11086  0.024155324  0.023815191            9 
 2713000   0.82271609   -6.9471972    786.55388  0.024160028  0.023808731            4 
 2714000   0.79631389   -6.9818753    787.08763  0.024167515  0.023802253            9 
 2715000   0.79912926   -7.0153484    787.27513  0.024164369  0.023795776            6 
 2716000   0.79792094   -6.9791417    787.11994   0.02415071  0.023789294           11 
 2717000   0.79828915   -7.0042199    786.44208  0.024121031  0.023782778           10 
 2718000   0.80175017   -6.9863533    788.01103   0.02416026  0.023776284           16 
 2719000   0.80910393   -7.0007323    788.44279  0.024164607  0.023769823            4 
 2720000   0.80916514   -7.0333697    784.28916  0.024028467  0.023763298            6 
 2721000    0.8196091   -7.0094523    787.51281  0.024118364  0.023756755           11 
 2722000   0.81148209   -7.0052367    788.07436  0.024126695  0.023750252            7 
 2723000   0.80710709   -6.9671147    787.13766  0.024089168  0.023743771            4 
 2724000   0.83080793   -6.9904032    787.73175  0.024098499   0.02373732           10 
 2725000   0.82183388   -7.0063974    786.28508  0.024045415  0.023730798            5 
 2726000   0.82002949   -6.9623148    786.78931  0.024052009  0.023724269            4 
 2727000   0.79381411   -7.0177112    786.46384  0.024033243  0.023717742            5 
 2728000   0.81037032    -6.984116    787.25949  0.024048738  0.023711216            7 
 2729000   0.79455677   -6.9840712    786.62755  0.024020629  0.023704649           10 
 2730000   0.80148612   -7.0178103    784.11703  0.023935196  0.023698092            5 
 2731000   0.80658187   -7.0057842    786.05403  0.023985537  0.023691433            9 
 2732000   0.82701809   -6.9905543    786.02057  0.023975737  0.023684848           11 
 2733000   0.83509875   -7.0298576    787.56697  0.024014117  0.023678267           15 
 2734000    0.8070768   -7.0086622     786.7561  0.023980618   0.02367168            8 
 2735000   0.82150933   -7.0351682    787.24904  0.023986869  0.023665059           10 
 2736000   0.80605058   -7.0151401    787.19441  0.023976438  0.023658456            5 
 2737000   0.81858655   -6.9950005    784.33707  0.023880681  0.023651868            7 
 2738000   0.82184639   -7.0167921    786.95976  0.023951782  0.023645352            8 
 2739000   0.81590321   -7.0077511    787.07589  0.023946571  0.023638797            8 
 2740000    0.8219428   -7.0129493    788.66476  0.023986155  0.023632229            3 
 2741000   0.82105358   -6.9914014    789.42421  0.024000493  0.023625678           11 
 2742000   0.84360756   -7.0240756    787.74663  0.023940756  0.023619152           16 
 2743000   0.83334942   -7.0088447    789.14553  0.023974527  0.023612584           12 
 2744000   0.81963535   -7.0213434    788.70718  0.023952478  0.023605986           11 
 2745000    0.8105129     -7.02408    784.32357  0.023810673  0.023599355           12 
 2746000   0.82008948   -7.0072102    785.00791   0.02382277  0.023592735           10 
 2747000   0.80284485   -7.0173984    786.31136  0.023853639  0.023586128            7 
 2748000   0.79984773    -6.986791    785.49079  0.023820075  0.023579546            8 
 2749000    0.8237917   -7.0132269    785.15017  0.023801084  0.023572926            7 
 2750000   0.81285769   -7.0515005    786.38663  0.023829898  0.023566254           23 
 2751000   0.82377972   -7.0118643    787.17601  0.023845147   0.02355959           22 
 2752000   0.81813448   -7.0174936    786.37316  0.023812172  0.023552939           11 
 2753000   0.81969861   -7.0063317    787.38664    0.0238342  0.023546304            8 
 2754000   0.80807895   -7.0141854    787.05919  0.023815638  0.023539624           12 
 2755000   0.81585767   -6.9987769     787.0224   0.02380588  0.023532984            9 
 2756000   0.79885161   -6.9852255    786.70809  0.023787738  0.023526336            6 
 2757000   0.80389336   -7.0362798    785.35751  0.023738288  0.023519653            5 
 2758000   0.80884451   -7.0313447    787.49889  0.023794383  0.023512991            9 
 2759000   0.82347344   -7.0251285    784.75148  0.023702775  0.023506338           16 
 2760000   0.81302877   -7.0024669     786.9296  0.023759952  0.023499631            4 
 2761000   0.82326481   -7.0340026    786.42166  0.023736015  0.023492948            9 
 2762000   0.80675447   -7.0097008    786.20756  0.023720962   0.02348629            4 
 2763000   0.80674816   -7.0077511     787.8052  0.023760562  0.023479655            5 
 2764000   0.80009781   -7.0332666    788.46276  0.023771791     0.023473            7 
 2765000   0.80501143   -7.0339115    787.47105  0.023733305  0.023466383            5 
 2766000   0.80039065   -6.9974068    788.86943  0.023766854  0.023459806            7 
 2767000   0.80761948   -6.9844543    789.63052  0.023781187  0.023453235            6 
 2768000   0.82212154   -6.9979665    789.97559  0.023782984  0.023446705           12 
 2769000   0.81028913   -6.9922965    788.28488  0.023723513  0.023440147           12 
 2770000   0.81049672   -7.0256116     790.5584  0.023783345  0.023433554           22 
 2771000   0.81351854   -6.9978209    788.79313  0.023721675  0.023427023            7 
 2772000   0.81409821   -6.9991973    789.70696  0.023740589  0.023420488           22 
 2773000   0.81455415    -7.030362    788.53901  0.023696929  0.023413922            9 
 2774000   0.79445181   -7.0184189    789.69461  0.023723102  0.023407312            7 
 2775000   0.80991923   -7.0210693     787.4103  0.023645955  0.023400718           11 
 2776000   0.80247663   -7.0016488    792.34122  0.023785459  0.023394186            6 
 2777000   0.81775477   -7.0077484    791.84019  0.023761859  0.023387656            9 
 2778000   0.81513805   -7.0132868    790.76729  0.023721121  0.023381111           11 
 2779000   0.80571288   -6.9984087    789.86525  0.023685536  0.023374578            5 
 2780000   0.79379368    -7.040571    790.33502  0.023691098  0.023368044           13 
 2781000   0.81402095   -7.0174579    791.51583  0.023717962  0.023361498            7 
 2782000   0.82568968   -7.0419001    787.09454  0.023576999  0.023354947            8 
 2783000   0.80692565   -7.0285925    791.48884  0.023700109  0.023348401           14 
 2784000   0.81740432   -7.0292338    790.35565  0.023657676  0.023341888            7 
 2785000   0.80706395   -7.0066647    791.09079  0.023671179  0.023335361           18 
 2786000   0.80269843   -7.0413663    790.21835  0.023636586  0.023328831            6 
 2787000   0.82144583   -7.0088256     792.5565  0.023698017  0.023322332            5 
 2788000   0.80053037   -7.0439158    789.85367   0.02360873  0.023315826            4 
 2789000   0.80787474   -6.9946165    792.12632   0.02366817   0.02330932            8 
 2790000   0.80725938   -7.0425671    790.19537  0.023602012  0.023302781            4 
 2791000   0.80849506   -7.0269711    791.26516  0.023625497  0.023296263            8 
 2792000   0.79960671   -7.0505129    789.79102  0.023573037  0.023289698            4 
 2793000   0.79767281   -7.0324618    792.07494  0.023632741  0.023283144            9 
 2794000   0.82367441   -7.0264652    791.84215  0.023617339  0.023276602           15 
 2795000     0.822698   -7.0353342    791.20893   0.02359001  0.023270029            8 
 2796000   0.83148774   -7.0348362    791.47857  0.023589609  0.023263462            7 
 2797000   0.78926609    -7.017072    792.97422  0.023625737  0.023256948            6 
 2798000   0.80819301   -7.0340577    791.32511  0.023568177   0.02325046            5 
 2799000   0.79861894   -6.9944328    792.15129  0.023584354  0.023243981            7 
 2800000   0.79786569   -7.0330736    790.11458  0.023515315  0.023237485            7 
 2801000   0.80962443    -7.060759    790.61533  0.023521818  0.023230943           12 
 2802000   0.81117356   -7.0384227    792.27414  0.023562757  0.023224388            6 
 2803000   0.80871719   -7.0281929    792.81281  0.023570365    0.0232178           21 
 2804000   0.78020335   -7.0274758     791.1292  0.023511923  0.023211226           17 
 2805000   0.82374354   -7.0435067    792.80544  0.023553341  0.023204674            6 
 2806000   0.78598148   -7.0320014    790.94541  0.023489707  0.023198099            7 
 2807000    0.8052444   -7.0359736    792.70912  0.023533699  0.023191608           30 
 2808000   0.80269026   -6.9975553    792.52965  0.023519992  0.023185097           11 
 2809000    0.7860043   -7.0366882     793.4589  0.023539187  0.023178585            5 
 2810000   0.80603789   -7.0356311    792.76877  0.023510343  0.023172061            5 
 2811000   0.81902789   -7.0351767     792.9967  0.023508737  0.023165525           13 
 2812000   0.80051046   -7.0377809     792.4844  0.023485194   0.02315898            8 
 2813000    0.8151815   -7.0162751    791.59076  0.023450372  0.023152404           11 
 2814000   0.79441235   -7.0445428    792.00367  0.023454266  0.023145851           17 
 2815000   0.80498674   -7.0588127     791.0032  0.023416317  0.023139284           13 
 2816000    0.8114166   -7.0323322    793.31426  0.023476393  0.023132748            6 
 2817000    0.8022129   -7.0306606    792.30977  0.023438344  0.023126226            8 
 2818000   0.80321914   -7.0564204    793.53572   0.02346628   0.02311969            5 
 2819000    0.8130072   -7.0405854    793.26754  0.023450028  0.023113165            7 
 2820000   0.79249438   -7.0474056    792.35879  0.023414858  0.023106685            7 
 2821000   0.79600209   -7.0150881    794.32481  0.023464635  0.023100203            7 
 2822000   0.79933604   -7.0042389    793.12928  0.023421016  0.023093698            9 
 2823000   0.81219811   -7.0431834    794.00568   0.02343859   0.02308719           12 
 2824000   0.80976143   -7.0134527    792.88494  0.023397219   0.02308071            7 
 2825000   0.79173319   -7.0629012    794.87249  0.023447566  0.023074211           18 
 2826000   0.78341937   -7.0649467    794.58198  0.023430702  0.023067712            8 
 2827000   0.81839717   -7.0353606     794.7345   0.02342691  0.023061232           14 
 2828000   0.79177224   -7.0529946    794.93315   0.02342448  0.023054772           11 
 2829000   0.78540848    -7.059698    794.55876  0.023405172  0.023048334           14 
 2830000   0.80757858   -7.0322325      794.783  0.023403504  0.023041882            7 
 2831000   0.80509557    -7.049755    793.63852  0.023361548  0.023035438           10 
 2832000    0.7953245   -7.0903102    793.80378  0.023358162  0.023028989            9 
 2833000   0.80943344   -7.0455263    793.56624   0.02334293  0.023022534            5 
 2834000   0.80407909   -7.0255302    795.54379  0.023392842  0.023016136            3 
 2835000   0.80075272   -7.0287437    795.93009  0.023395946  0.023009751            7 
 2836000   0.80279748   -7.0403638    795.51908  0.023375619  0.023003366            5 
 2837000   0.80297677   -7.0299569    796.20726  0.023387594  0.022996969            9 
 2838000   0.81076452   -7.0505473     796.0784   0.02337557  0.022990576            7 
 2839000   0.78957697   -7.0270708    795.13673  0.023339695  0.022984158           11 
 2840000   0.79667456   -7.0547263    795.79785  0.023350876   0.02297772            5 
 2841000   0.79647378    -7.072001    794.02693  0.023290711  0.022971227            7 
 2842000   0.78163454   -7.0560687    792.70695  0.023243812  0.022964744            8 
 2843000   0.80671447   -7.0612271    795.13257  0.023306735  0.022958281            7 
 2844000   0.80816258   -7.0841091    795.17869  0.023299891  0.022951793            5 
 2845000   0.82074256   -7.0680967    794.85796  0.023282307  0.022945326           16 
 2846000   0.78835082   -7.0424131    796.60624  0.023325317  0.022938862            9 
 2847000   0.77224894   -7.0628309    796.41354  0.023311484  0.022932443            7 
 2848000   0.79114512   -7.0311692    795.79675  0.023285251   0.02292599           10 
 2849000   0.79083263    -7.058331    796.54745  0.023299036  0.022919541            8 
 2850000   0.79318939   -7.0616364    794.76464  0.023238732  0.022913084            6 
 2851000   0.79662137   -7.0516637    796.43797  0.023279492  0.022906638            9 
 2852000   0.80226425   -7.0298227    796.60991  0.023276353  0.022900178            6 
 2853000   0.79880216   -7.0412189    796.76953  0.023272857   0.02289373           12 
 2854000    0.7877331   -7.0604936    796.86849  0.023267592  0.022887289           10 
 2855000   0.78445887   -7.0665934    795.77585   0.02322755   0.02288085           15 
 2856000   0.80226251   -7.0504938    795.11309  0.023200078  0.022874382            9 
 2857000   0.79401867   -7.0576255    796.28189   0.02322605  0.022867909            9 
 2858000   0.79848674   -7.0631168    796.33065  0.023219345  0.022861428            4 
 2859000   0.80382345   -7.0531125     796.7098  0.023222275   0.02285498           17 
 2860000   0.78843635   -7.0528263    796.00358  0.023193577  0.022848528           12 
 2861000   0.80830455   -7.0681206    795.58847   0.02317338  0.022842027           20 
 2862000   0.79475871   -7.0722801    795.60069  0.023165638  0.022835535           10 
 2863000    0.7797075   -7.0627151    796.16166  0.023173875  0.022829071           11 
 2864000   0.78036449   -7.0710771    795.35874  0.023142421  0.022822541            5 
 2865000   0.79163046   -7.0694718     795.2457  0.023131056  0.022816008            6 
 2866000   0.79013406   -7.0590338    798.45102  0.023216184   0.02280952            6 
 2867000   0.79273844   -7.0713944    797.12881  0.023169655  0.022803077            5 
 2868000   0.80987351   -7.0694707    796.53016  0.023144182  0.022796613           12 
 2869000   0.79027484   -7.0697061    795.84395  0.023116183  0.022790146            7 
 2870000   0.79063888   -7.0725394    795.36601  0.023094251  0.022783702           16 
 2871000   0.79108667   -7.0171052    797.45318  0.023146789  0.022777265           10 
 2872000   0.79456926   -7.0498057    796.54876  0.023112487  0.022770875           12 
 2873000   0.78936269   -7.0236138    796.44462  0.023101422  0.022764495           11 
 2874000   0.77537897   -7.0852606     796.9403  0.023107756  0.022758112            6 
 2875000   0.80191723   -7.0619627    798.35406  0.023140697  0.022751717            4 
 2876000   0.79831784   -7.0459532    797.92146  0.023120117   0.02274531           11 
 2877000    0.7941304   -7.0741177     796.6856  0.023076283  0.022738905           11 
 2878000   0.79639579   -7.0849973    796.90883  0.023074729  0.022732502            6 
 2879000   0.79006156   -7.0440709    797.03678  0.023070417  0.022726089           11 
 2880000   0.80788587   -7.0850471    798.25478   0.02309765  0.022719671            7 
 2881000    0.7795351   -7.0566114    797.71467   0.02307401  0.022713253           14 
 2882000   0.78514008   -7.0648597    796.14923  0.023020739  0.022706818            8 
 2883000   0.79886694    -7.050065     797.3188   0.02304656  0.022700432            6 
 2884000   0.79661609   -7.0435847    799.30394   0.02309593  0.022694067           11 
 2885000   0.78605966   -7.0577019    798.77716  0.023072708  0.022687704            7 
 2886000   0.79399243   -7.0474186    797.96057  0.023041134  0.022681336            7 
 2887000   0.79858787   -7.0776496    798.17356  0.023039301  0.022674965            9 
 2888000   0.79195367   -7.0603689    799.53115  0.023070497  0.022668577            3 
 2889000    0.7996143   -7.0686431    798.42109  0.023030492  0.022662148            9 
 2890000   0.79786445   -7.0603072    797.31508  0.022990631  0.022655781           26 
 2891000   0.79202534   -7.0455819    798.53697    0.0230179  0.022649406            6 
 2892000    0.7887471   -7.0549594    798.17909  0.022999628  0.022642991           11 
 2893000   0.78766741   -7.0646742    800.08253  0.023046507  0.022636589            7 
 2894000    0.7752243   -7.0491816    799.03486  0.023008375  0.022630189            8 
 2895000   0.80210174   -7.0922544    796.88412  0.022938518  0.022623793            8 
 2896000   0.77682828    -7.072779    798.10131  0.022965622  0.022617363            7 
 2897000   0.79977398   -7.0631874    798.25997  0.022962259  0.022610941            7 
 2898000   0.79889362   -7.0626515    798.68096  0.022966441  0.022604534            9 
 2899000    0.7934642   -7.0870005    798.06313  0.022940759  0.022598131            9 
 2900000   0.79140122   -7.0694386    799.35015  0.022969832  0.022591711            6 
 2901000   0.79342937   -7.0668488    800.77687  0.023002897  0.022585299            6 
 2902000   0.80452629    -7.059627    797.85798  0.022911153  0.022578876           10 
 2903000   0.79092442   -7.0580506    798.37697  0.022918159  0.022572443           10 
 2904000   0.79923204    -7.039539    798.35257  0.022909566  0.022566005            7 
 2905000   0.78447627   -7.0598426    798.51368  0.022906302  0.022559603           21 
 2906000   0.77497548   -7.0807314    800.80701  0.022964184  0.022553176           10 
 2907000    0.7981526    -7.060679    798.06101  0.022877566  0.022546729            5 
 2908000   0.79366701   -7.0500684    797.95123  0.022866553  0.022540315            5 
 2909000   0.79815194   -7.0938089    798.99953  0.022888723  0.022533887            5 
 2910000   0.80371431   -7.0511659    799.05913  0.022882564  0.022527455            4 
 2911000   0.78378771   -7.0472997    799.99183  0.022901403  0.022521033           20 
 2912000   0.79330586   -7.0483229    800.09586  0.022896516  0.022514604           12 
 2913000   0.81514373   -7.0653098    799.97592  0.022885225  0.022508174            8 
 2914000    0.7810704   -7.0706231    798.09258  0.022823512   0.02250173            5 
 2915000   0.77210211   -7.0654791    799.68329  0.022861158  0.022495282           12 
 2916000   0.78079999   -7.0548292    797.68754  0.022796283  0.022488856            8 
 2917000   0.77339063    -7.063837    798.31609  0.022806425  0.022482417            7 
 2918000   0.78424313   -7.0843153    799.22019  0.022824428  0.022475996           15 
 2919000   0.79090939   -7.0892532    797.88895  0.022778604  0.022469562           17 
 2920000   0.77024902   -7.0619309    801.58721  0.022876347  0.022463174            6 
 2921000   0.80456479   -7.0769287    801.67385  0.022870987  0.022456803            8 
 2922000   0.76587237   -7.0561468    797.99271  0.022758177  0.022450417           11 
 2923000   0.78205246   -7.0918314    800.64666  0.022826054     0.022444            5 
 2924000   0.78250207    -7.070539    800.55988  0.022815774   0.02243761            6 
 2925000    0.7686385   -7.0802383    799.99335  0.022791833  0.022431248            4 
 2926000   0.77753833   -7.0665195    799.23569  0.022762466  0.022424905            6 
 2927000   0.80264407   -7.1021139    801.20248  0.022810685  0.022418563            6 
 2928000   0.77807806   -7.1014231    801.94084  0.022823908  0.022412204            9 
 2929000   0.78726263   -7.0741346    802.20046  0.022823502   0.02240586            7 
 2930000   0.79038777   -7.0639383     802.6656  0.022828942  0.022399542           16 
 2931000   0.77651391   -7.0955366    803.70168  0.022850611  0.022393277            8 
 2932000   0.78605393   -7.0912977    803.61326  0.022840304  0.022387046           17 
 2933000   0.77019584   -7.0695561    803.49152  0.022829058  0.022380816            8 
 2934000   0.79257663   -7.0659497    803.04868  0.022808699  0.022374599            9 
 2935000   0.79306181   -7.0738462    804.35697  0.022838074  0.022368359            9 
 2936000   0.76642475   -7.0972438    803.05608  0.022793372  0.022362077            6 
 2937000   0.78727125   -7.0754411    805.20248  0.022846512  0.022355829            7 
 2938000   0.78761609   -7.0821934     803.5274  0.022791224  0.022349577           12 
 2939000   0.76969006   -7.0819979    802.58178  0.022756657  0.022343333           16 
 2940000   0.79791245   -7.0610048    802.80423  0.022755222  0.022337102           11 
 2941000   0.77059372   -7.0845013    803.47704  0.022766549  0.022330883            7 
 2942000   0.77830529   -7.0500437    804.45528  0.022786519  0.022324673           14 
 2943000   0.78487047   -7.0815403    804.04282  0.022767098  0.022318447            9 
 2944000   0.78364503   -7.0546139    802.99876  0.022729811  0.022312225           11 
 2945000   0.77452006   -7.0524608    804.65917  0.022769077   0.02230603           12 
 2946000   0.76231971   -7.0771196    803.05096  0.022715856  0.022299816           10 
 2947000   0.78939629   -7.0566589    805.13237  0.022767005  0.022293592           14 
 2948000   0.76830115   -7.0823173    802.41231  0.022682392  0.022287347            9 
 2949000   0.77825127   -7.0481106    802.72058  0.022683412  0.022281077            5 
 2950000   0.76899051   -7.0658488    805.07665  0.022742278  0.022274798           17 
 2951000   0.79155966   -7.0766925    801.91131  0.022645185  0.022268524           34 
 2952000   0.78297272    -7.074511     803.5182  0.022682876  0.022262235           14 
 2953000   0.77603917   -7.0765642    804.84657  0.022712681  0.022255974            5 
 2954000   0.76661244   -7.0664803    803.81531    0.0226759  0.022249741           10 
 2955000   0.80683072   -7.0909886    804.09839   0.02267621  0.022243494            7 
 2956000   0.77983278   -7.1086241    803.19557  0.022643087  0.022237214            7 
 2957000   0.78325254   -7.0558868    804.46346  0.022671161  0.022230943            9 
 2958000   0.77500387   -7.0466594    803.46579   0.02263539  0.022224687            9 
 2959000    0.7808581   -7.0660582    806.05915  0.022700776  0.022218434            6 
 2960000   0.77075744   -7.1175219    804.09829  0.022637902  0.022212186            5 
 2961000   0.77763086    -7.087084    804.71268  0.022647548  0.022205941            7 
 2962000    0.7900253   -7.0586147    806.81046  0.022698921  0.022199747            9 
 2963000   0.79328026   -7.0979868    803.23978  0.022590836  0.022193534           23 
 2964000   0.78528324   -7.0833934    804.18353  0.022609748  0.022187309           13 
 2965000   0.77425598   -7.0681553    805.67054  0.022643916   0.02218109           14 
 2966000   0.76557674   -7.0960368    807.24145  0.022680418  0.022174896            4 
 2967000   0.78591861   -7.1013737    805.07638  0.022611964  0.022168693           11 
 2968000   0.77799224   -7.0878137    805.40128  0.022613468   0.02216247            9 
 2969000   0.76679337   -7.0842205    805.82752  0.022617815  0.022156252           11 
 2970000   0.76319309   -7.0990733    806.34899  0.022624831  0.022150017           11 
 2971000   0.77395599   -7.0947122    806.56625   0.02262331  0.022143782           10 
 2972000   0.78090641   -7.0838471    802.98702  0.022515338  0.022137523            5 
 2973000   0.77526039   -7.0968913    805.37183  0.022574611  0.022131278           14 
 2974000   0.79674624   -7.0927135    805.17007  0.022561367  0.022125036           10 
 2975000   0.77837209   -7.1006963    806.01362  0.022577412  0.022118821            6 
 2976000   0.79292623   -7.0708207    807.42726   0.02260941   0.02211261           14 
 2977000   0.76626584    -7.103812    806.28786  0.022569921  0.022106413            8 
 2978000   0.78280617   -7.1033827    805.72333  0.022546545  0.022100196           12 
 2979000    0.7726013   -7.1019763    804.99476  0.022518596  0.022093948           12 
 2980000   0.77424394   -7.0597851    806.55565  0.022554688  0.022087734           15 
 2981000   0.76817702   -7.0745629    804.13956  0.022479581  0.022081526           22 
 2982000   0.78219585   -7.0598057    807.85411  0.022575847  0.022075312           10 
 2983000   0.76157999   -7.0837125    807.04151  0.022545578  0.022069138            5 
 2984000   0.76520663   -7.0755841    808.12121  0.022568175  0.022062944            9 
 2985000   0.78322148   -7.0832069    806.99403  0.022529147   0.02205678           10 
 2986000   0.77218537   -7.1133464    807.86184   0.02254582  0.022050579            6 
 2987000   0.76311124   -7.0925852    805.61042  0.022475461  0.022044404           15 
 2988000   0.78417144   -7.0672996    806.49349  0.022492567  0.022038219           21 
 2989000   0.78051762   -7.0964699    807.85821  0.022523091  0.022032034           15 
 2990000   0.75882105    -7.092755    808.51103  0.022533752  0.022025881           12 
 2991000    0.7731241   -7.0905286    807.21464  0.022490099  0.022019696           11 
 2992000   0.79009046   -7.0813913    807.24437   0.02248341  0.022013571           20 
 2993000   0.76817269   -7.0872648    809.16409  0.022529349  0.022007445            9 
 2994000   0.77175093   -7.0761626    808.71834  0.022509417  0.022001332           17 
 2995000   0.77891191   -7.0782354    808.78791  0.022503837  0.021995182           24 
 2996000    0.7695737    -7.118914    807.50392  0.022460612  0.021989026            7 
 2997000   0.76416056   -7.0768805    808.55336  0.022482298  0.021982863           16 
 2998000   0.77271671   -7.1261376    808.99861  0.022487175  0.021976681           13 
 2999000   0.76824085   -7.1094878    809.32188  0.022488659  0.021970534            4 
 3000000   0.77143914   -7.1299329    808.30317  0.022452866  0.021964351            9 
 3001000   0.79384185   -7.1248202    807.48379  0.022422631  0.021958182           14 
 3002000   0.77732809   -7.1014813    807.02076  0.022402309     0.021952           12 
 3003000    0.7789734   -7.1089412    809.45885  0.022462505   0.02194581           19 
 3004000   0.77280142   -7.1304716      805.789  0.022353223   0.02193961            7 
 3005000    0.7744977    -7.084302    808.40272  0.022418267   0.02193341           11 
 3006000   0.77423158   -7.1165662    807.35405  0.022381738  0.021927231            6 
 3007000   0.77217921   -7.0827881    808.81441  0.022414766  0.021921055            8 
 3008000   0.77778381   -7.0711674    808.31308  0.022393425  0.021914923            8 
 3009000   0.76466271   -7.0829928    809.97858  0.022432109  0.021908789            8 
 3010000   0.78156547   -7.0709809    810.92169  0.022450767  0.021902678           11 
 3011000   0.75683919   -7.0721922     810.5923  0.022434194  0.021896565            4 
 3012000   0.77024261   -7.0937951    808.56806  0.022370741  0.021890463            5 
 3013000   0.78638862   -7.0829593    809.74777  0.022395944  0.021884346            8 
 3014000   0.75945133     -7.09347    807.52922  0.022327174  0.021878217           16 
 3015000   0.75529318   -7.1201652    808.56773  0.022348472  0.021872062           26 
 3016000   0.76978247   -7.1105814    807.06082  0.022299426  0.021865891           10 
 3017000    0.7681035   -7.1216411    809.11018   0.02234864  0.021859704           16 
 3018000    0.7584798   -7.0865246    809.62558  0.022355467  0.021853514           15 
 3019000   0.77324311   -7.1094822    809.62774  0.022348121  0.021847347           11 
 3020000   0.75331685   -7.1130939    810.03602  0.022351987  0.021841183            9 
 3021000   0.75957148   -7.0852251    810.64203  0.022361305  0.021835068            7 
 3022000   0.76992238   -7.1031365    809.64588  0.022326436  0.021828953            8 
 3023000   0.76337584   -7.1178854    808.46821  0.022286586  0.021822788           10 
 3024000   0.76662256   -7.1308293    807.15052  0.022242904  0.021816662           11 
 3025000   0.76143548   -7.0901562      810.651  0.022331984  0.021810521            9 
 3026000   0.75364284   -7.1255736    807.56912  0.022239731  0.021804365            9 
 3027000   0.73347473   -7.1426805    807.94603  0.022242761  0.021798192           11 
 3028000   0.75779406   -7.1211122    810.09442  0.022294541     0.021792            9 
 3029000   0.76116934   -7.1143175    808.13457  0.022233261  0.021785805            5 
 3030000   0.77474459   -7.1042003    809.87056  0.022273668  0.021779651           23 
 3031000   0.78684605   -7.1020155    808.27857  0.022222549  0.021773461           11 
 3032000   0.76541328   -7.1166523    808.86171  0.022231247  0.021767255            8 
 3033000   0.75414916   -7.1219479    809.74666  0.022248232  0.021761082            9 
 3034000   0.77763609   -7.1226703    808.71926   0.02221268   0.02175491            7 
 3035000   0.75144353   -7.0915812    808.79983  0.022207574  0.021748733            9 
 3036000   0.75312228   -7.1106602    810.37523  0.022243501   0.02174257           13 
 3037000   0.76397332   -7.1266424    810.00947  0.022226141  0.021736436            7 
 3038000   0.77291153   -7.0910198    809.89329  0.022215638  0.021730245           25 
 3039000   0.76383273    -7.111746    810.96411  0.022237691    0.0217241           16 
 3040000   0.75951531   -7.0879107    811.44955  0.022243683  0.021717943           17 
 3041000   0.76672425    -7.098985    808.65083  0.022159674   0.02171181            9 
 3042000    0.7489906   -7.0965794     809.6928  0.022180934  0.021705707           13 
 3043000   0.76137742   -7.1330339    811.13469  0.022213131  0.021699576            7 
 3044000    0.7658729   -7.1074486    810.08063  0.022176977  0.021693457            8 
 3045000   0.74398823    -7.110402    811.45867  0.022207407   0.02168736            8 
 3046000   0.77652916    -7.078802    811.13755  0.022191331  0.021681279            9 
 3047000   0.77351291   -7.1139477    811.49176  0.022193736  0.021675198           16 
 3048000   0.77664119   -7.0796482    811.23029  0.022179306  0.021669126            9 
 3049000   0.76529977   -7.0930213    812.31037  0.022201551  0.021663045           27 
 3050000   0.75432467   -7.1004508    811.43629   0.02217039   0.02165698           24 
 3051000   0.76349185    -7.092489    811.90157  0.022175832  0.021650901           19 
 3052000   0.78723875   -7.1248494    812.41107  0.022182478  0.021644804           11 
 3053000   0.77536523   -7.1024556    811.35372  0.022146351  0.021638701           21 
 3054000   0.77942193   -7.1267877    809.71286  0.022094326  0.021632612           10 
 3055000   0.77207139    -7.125677    810.07055  0.022096851   0.02162648           14 
 3056000   0.77773714   -7.1224011    810.25466  0.022094641  0.021620389           15 
 3057000   0.78449371   -7.1379425    808.67851  0.022044447  0.021614257            9 
 3058000   0.76463309   -7.1276418    810.57439  0.022088903   0.02160811           13 
 3059000    0.7636125   -7.1149384    809.69173  0.022057637  0.021601972            9 
 3060000   0.76986169   -7.1037897    810.08559  0.022061154  0.021595857           10 
 3061000   0.76713977   -7.1165482    810.30171  0.022059831  0.021589735           11 
 3062000   0.76136486   -7.1379345    809.64239  0.022034683  0.021583624           11 
 3063000   0.75884757   -7.1317045    810.38205  0.022047613  0.021577526           12 
 3064000   0.76088286   -7.1139267     811.0434  0.022058404  0.021571428           11 
 3065000   0.77838833    -7.099153    812.17283  0.022081915  0.021565349            9 
 3066000   0.76767791    -7.126786    810.72376  0.022035327  0.021559263            5 
 3067000   0.75300485   -7.1256343    812.87271  0.022086532   0.02155316            7 
 3068000   0.75012815   -7.1186101    811.84941  0.022051538  0.021547063            7 
 3069000   0.77722597   -7.1318184    812.50258  0.022062088  0.021540962           16 
 3070000   0.75907945   -7.1278711    811.37689  0.022024346  0.021534867           16 
 3071000   0.76633393   -7.1272211    811.36202   0.02201677  0.021528756           10 
 3072000   0.75273035   -7.1172989    811.98558  0.022026519   0.02152267            4 
 3073000   0.75871854   -7.0942522    813.38176  0.022057212  0.021516623            7 
 3074000   0.74974297   -7.1218852    812.16249  0.022016984  0.021510544           12 
 3075000   0.77442786   -7.1410084    811.53992  0.021992952  0.021504464            6 
 3076000    0.7498689   -7.1266344    813.07639  0.022027427  0.021498388           15 
 3077000   0.75162171   -7.1371823    812.31311  0.021999597  0.021492297           25 
 3078000   0.75177563   -7.1237163    810.70426  0.021948892  0.021486176           18 
 3079000   0.75924948   -7.1065566    811.54893  0.021964624  0.021480072            6 
 3080000   0.76834474   -7.1456845    809.84718   0.02191145  0.021473923           10 
 3081000   0.76704639   -7.1560788    812.40958  0.021973644  0.021467781           12 
 3082000   0.75297149   -7.1221534     813.3503  0.021991951  0.021461665           14 
 3083000    0.7671324   -7.1556901    812.99481  0.021975208  0.021455577            6 
 3084000   0.75429386   -7.1208927    814.67989  0.022013616  0.021449479            7 
 3085000   0.77621073   -7.1785177    810.85947  0.021903281  0.021443371           12 
 3086000   0.77765028   -7.1160248    814.10778    0.0219839  0.021437242           14 
 3087000   0.74492397   -7.1356076    811.57708  0.021908462  0.021431133            7 
 3088000   0.75677627   -7.1127059    813.01022  0.021940043  0.021425053            7 
 3089000   0.76099184   -7.1279279    812.72306  0.021925193  0.021418969           11 
 3090000    0.7495457   -7.1402635    812.25252  0.021905408  0.021412893            7 
 3091000   0.74793264   -7.1212303    812.71738  0.021910854  0.021406777           12 
 3092000   0.75007111   -7.1154353    813.01994  0.021911922  0.021400695           20 
 3093000   0.76084405    -7.139558    812.31582  0.021885867  0.021394591           11 
 3094000   0.76606115   -7.1399113    811.73069  0.021863033  0.021388506            8 
 3095000   0.76161464   -7.1307952    812.32488  0.021871968  0.021382411            5 
 3096000   0.74954736   -7.1386997    812.83521  0.021878639  0.021376319            9 
 3097000   0.74643655   -7.1241476    811.09585  0.021824773  0.021370228            6 
 3098000   0.75701902   -7.1220522    812.33496  0.021851059  0.021364118           13 
 3099000   0.73537518   -7.1224478    814.54859  0.021903533  0.021358074            6 
 3100000   0.75089866   -7.1076867    813.12504    0.0218582  0.021352016            5 
 3101000   0.75606803   -7.1083878    813.71148  0.021866911   0.02134597           11 
 3102000   0.74765454   -7.1434984    812.18901  0.021818961  0.021339888           12 
 3103000    0.7586312   -7.1305139    812.51117  0.021820582  0.021333793           13 
 3104000   0.76325579   -7.1310511    813.99698  0.021853441  0.021327698           12 
 3105000   0.76050643   -7.1618562    812.50232  0.021806289  0.021321615           56 
 3106000   0.75283382   -7.1233278    812.68335  0.021804125  0.021315556           17 
 3107000   0.76049216   -7.1463753    813.00931   0.02180585  0.021309482           22 
 3108000   0.75466722   -7.1386891    812.64676  0.021789113  0.021303399           33 
 3109000    0.7542795   -7.1169564    814.73616  0.021838109  0.021297333            8 
 3110000   0.76280283   -7.1149502     813.3343  0.021793524  0.021291287            7 
 3111000   0.73926146   -7.1475958    812.82785  0.021772952  0.021285238           21 
 3112000   0.76382598   -7.1409704    812.64672  0.021761105  0.021279183            8 
 3113000   0.75361953    -7.130258    814.40547  0.021801196  0.021273123            8 
 3114000   0.75173197     -7.15434       814.65  0.021800738  0.021267086           21 
 3115000   0.77056669   -7.1346828    814.40186  0.021787102  0.021261022           25 
 3116000    0.7505205   -7.0984789    813.64679  0.021759916  0.021254996            9 
 3117000   0.77011189   -7.1545106    813.51891  0.021749516  0.021248959           10 
 3118000   0.73708569   -7.1077697    813.61756  0.021745178  0.021242925           13 
 3119000   0.74434806   -7.1290667    814.16034  0.021752708  0.021236891           13 
 3120000   0.75341675    -7.126976     814.7552  0.021761624  0.021230847           12 
 3121000   0.73849286    -7.105747    814.69469  0.021753035  0.021224829            9 
 3122000    0.7447626   -7.1353499    813.85864  0.021723752  0.021218795           11 
 3123000   0.74990317   -7.1488543    813.91126    0.0217182  0.021212746            5 
 3124000   0.75436088   -7.1413952    814.37848  0.021723711  0.021206682            6 
 3125000   0.74029623   -7.1190847    815.59331  0.021749155  0.021200656            6 
 3126000   0.73668631    -7.140821    815.45039  0.021738387  0.021194636           20 
 3127000   0.74405613   -7.1447496    815.67581  0.021737443  0.021188597            7 
 3128000   0.74703386    -7.169295    813.98824  0.021685535  0.021182565            7 
 3129000   0.75270473   -7.1501028    815.41956  0.021716724   0.02117651           15 
 3130000   0.73620519   -7.1521103    814.40112  0.021682671  0.021170475           14 
 3131000   0.76072835   -7.1710165    813.53039  0.021652571  0.021164416           34 
 3132000   0.74876933   -7.1243419    814.55874  0.021673019  0.021158365           25 
 3133000   0.75807279   -7.1403978    814.79427  0.021672366  0.021152326           21 
 3134000   0.74160299   -7.1600484    817.10096  0.021726786  0.021146297           14 
 3135000    0.7370275    -7.174454    813.87433  0.021634086  0.021140251           25 
 3136000   0.73799257   -7.1190559    816.08836  0.021686021  0.021134245           14 
 3137000   0.76404204   -7.1218164    816.82556  0.021698692  0.021128255           12 
 3138000   0.76526399   -7.1461528    814.40529  0.021627504   0.02112228            6 
 3139000   0.74452001   -7.1597691    814.37222  0.021619736  0.021116265            8 
 3140000   0.75640221   -7.1474985     815.1958  0.021634708  0.021110247           15 
 3141000   0.73309143   -7.1779717    814.43869  0.021607733  0.021104216           13 
 3142000   0.75965571    -7.123253    818.01389  0.021695679  0.021098182           13 
 3143000   0.74970929   -7.1367758    816.43315  0.021646865  0.021092207           25 
 3144000   0.75031266   -7.1569627    814.49183  0.021588524  0.021086208           25 
 3145000   0.74593489    -7.137456    814.75607  0.021588661  0.021080221           14 
 3146000   0.75990824   -7.1518852     817.3023  0.021649245   0.02107423           10 
 3147000   0.74739565   -7.1315816     816.8538  0.021630489  0.021068216           11 
 3148000   0.75552305   -7.1810473     815.6168  0.021590872   0.02106221           13 
 3149000   0.75267934   -7.1517583    814.99541  0.021567572  0.021056196           24 
 3150000   0.74414957   -7.1439604    818.15903  0.021644419  0.021050212           13 
 3151000   0.75168428   -7.1347069    816.23283  0.021586608  0.021044227           13 
 3152000   0.73764271   -7.1432754    814.42189  0.021531882  0.021038256           13 
 3153000   0.74529395   -7.1348326    817.64554  0.021610253  0.021032293            7 
 3154000   0.74331696   -7.1457063    817.04591  0.021587558  0.021026303           12 
 3155000   0.75475956   -7.1380126    817.57112  0.021594588   0.02102032           11 
 3156000   0.74747759   -7.1483227    816.82242  0.021567977  0.021014343           12 
 3157000   0.74415052   -7.1586103    817.21276  0.021571449  0.021008364           18 
 3158000   0.75237698   -7.1460169    817.37285  0.021568842  0.021002379           11 
 3159000   0.73152749   -7.1366921    819.14918  0.021608873  0.020996405            7 
 3160000   0.74765996   -7.1419881     815.3164   0.02150096  0.020990423            8 
 3161000   0.72499474     -7.13298    816.83448  0.021534179  0.020984444            4 
 3162000   0.75238003   -7.1509911    817.67424    0.0215495  0.020978467           20 
 3163000   0.73942187   -7.1785798    816.45476  0.021510558  0.020972491           15 
 3164000   0.75328037   -7.1474811    816.76795  0.021512009  0.020966523           19 
 3165000   0.76059042   -7.1558968    815.83903  0.021480754  0.020960545           17 
 3166000     0.740574   -7.1478669     814.6266  0.021442056  0.020954547            9 
 3167000   0.73112437   -7.1949877    814.55933  0.021433516  0.020948558           15 
 3168000   0.73912406   -7.1663037    815.02847  0.021439091  0.020942559           18 
 3169000   0.74500813    -7.153641    818.33489  0.021519272  0.020936543           13 
 3170000   0.73917987   -7.1425292    817.58114  0.021492669  0.020930552            8 
 3171000   0.75336991   -7.1857823    818.09352  0.021499357  0.020924578           18 
 3172000    0.7287359   -7.1382737    815.70366  0.021429794    0.0209186           11 
 3173000   0.74822857    -7.149391    816.41578  0.021441742  0.020912638           13 
 3174000   0.73186594   -7.1300709    817.70529  0.021468843  0.020906668            7 
 3175000   0.74215837   -7.1433152    818.82073  0.021491358   0.02090073           10 
 3176000   0.74121782   -7.1539405    817.63583  0.021453501   0.02089475           10 
 3177000   0.74767383   -7.1431324    816.34321  0.021412842  0.020888749           11 
 3178000   0.74106393   -7.1132571    817.43175  0.021434648  0.020882755            7 
 3179000   0.74123082   -7.1687401    817.14784  0.021420463  0.020876759           14 
 3180000    0.7521959   -7.1560891    817.30078  0.021417735  0.020870756            5 
 3181000   0.75795972   -7.1723014    815.66447  0.021368135  0.020864748            6 
 3182000   0.73887935   -7.1603996     818.0304  0.021423382  0.020858746           22 
 3183000   0.73414296   -7.1584221    817.29526  0.021397405  0.020852729           45 
 3184000   0.73445959   -7.1427132    817.75009  0.021402588  0.020846717           11 
 3185000   0.75622543   -7.1656435    817.27761  0.021383506  0.020840699            8 
 3186000   0.74020894   -7.1579177    817.44593  0.021381197   0.02083469            8 
 3187000   0.75502207   -7.1673937    816.66201   0.02135399  0.020828669           17 
 3188000   0.75723881   -7.1587342    818.59815  0.021397902  0.020822671           13 
 3189000   0.74565554   -7.1540751    817.10068  0.021352061  0.020816685           18 
 3190000   0.75275661   -7.1630932    816.23942  0.021322869  0.020810689            9 
 3191000   0.74332171   -7.1665526    817.88323  0.021359115  0.020804699            9 
 3192000   0.75028733    -7.150377    817.65858  0.021346558  0.020798704            7 
 3193000   0.75025406   -7.1718111    816.59881  0.021312215  0.020792691           29 
 3194000   0.75058209   -7.1210806    817.15025  0.021319929  0.020786716           14 
 3195000   0.73082683   -7.1866999     817.0827  0.021311495  0.020780721           13 
 3196000   0.74234041   -7.1577857    816.43215  0.021287864  0.020774733           12 
 3197000   0.74153021   -7.1699603    816.62682  0.021286279  0.020768735           13 
 3198000   0.73074755   -7.1712128    818.10386  0.021318112   0.02076275           10 
 3199000   0.73376261   -7.1505052    818.19749  0.021313887  0.020756759           10 
 3200000   0.73463508   -7.1551725    815.90207   0.02124745  0.020750768           16 
 3201000   0.74711025   -7.1443263     817.9572  0.021294314  0.020744764           18 
 3202000   0.73694992   -7.1639415    815.52921  0.021224475  0.020738753           10 
 3203000   0.73505337   -7.1842058    816.90423  0.021253622  0.020732731           14 
 3204000   0.73926714   -7.1857222    817.72445  0.021268322  0.020726695           24 
 3205000   0.74719401   -7.1770228    817.84065  0.021264707  0.020720682           22 
 3206000   0.73860541   -7.1424148    817.59428  0.021251671  0.020714679           17 
 3207000   0.73398585   -7.1846145      818.309  0.021263616  0.020708666           17 
 3208000   0.72656311   -7.1802683    816.91403  0.021220751  0.020702636           23 
 3209000   0.73770988   -7.1750196    815.85034  0.021186515    0.0206966           13 
 3210000   0.74182811   -7.2107046    817.11017  0.021212621  0.020690577           16 
 3211000   0.72712474   -7.1559165    817.19788  0.021208291  0.020684534           11 
 3212000   0.75137257   -7.1699688    816.82508  0.021192016  0.020678505           14 
 3213000   0.74203589    -7.153758    817.05723  0.021191442  0.020672502           19 
 3214000   0.74514655   -7.1679503    816.96316  0.021182409  0.020666496            8 
 3215000   0.73822811    -7.165008    817.13534  0.021180284  0.020660482           16 
 3216000   0.74967356   -7.1713788    817.39147  0.021180335  0.020654432           17 
 3217000    0.7479046   -7.1661089    817.29181  0.021171169  0.020648426           14 
 3218000   0.73231664   -7.1616691    818.25697  0.021189584  0.020642408           19 
 3219000   0.73705155   -7.1824298    816.64737  0.021141332  0.020636397           18 
 3220000   0.73570951   -7.1542749    817.10723  0.021146667   0.02063039           11 
 3221000   0.72904667   -7.1612348    818.19379  0.021168213  0.020624384           14 
 3222000   0.72343941   -7.1894725    817.05491  0.021132188  0.020618381            9 
 3223000   0.72642162   -7.1611677    818.64756   0.02116681  0.020612382            7 
 3224000   0.72923802   -7.1601928    817.93243   0.02114176  0.020606391           11 
 3225000   0.75348451   -7.1417365    818.43597  0.021148216  0.020600402           12 
 3226000   0.73740742   -7.1546351    818.61897  0.021146388  0.020594439            8 
 3227000   0.74417127   -7.1551772    817.33322  0.021106632  0.020588462           10 
 3228000   0.73167024   -7.1750128    816.71242  0.021084067  0.020582473           12 
 3229000   0.75052663   -7.1533682    818.62975  0.021127019  0.020576501           10 
 3230000   0.74372412   -7.1882089    817.44914  0.021090019  0.020570503           10 
 3231000   0.75018454   -7.1934564    817.19418  0.021076916  0.020564522            8 
 3232000   0.73019855   -7.1583327    818.08712  0.021093418  0.020558539           11 
 3233000   0.71474196    -7.154507    819.90326  0.021133706  0.020552563           20 
 3234000    0.7457435   -7.1723967    817.39519  0.021062544  0.020546592           15 
 3235000   0.73451112   -7.1651319    817.56895  0.021060509  0.020540623           13 
 3236000   0.73778521   -7.1969614    817.59308  0.021054622   0.02053464           36 
 3237000    0.7287585   -7.1677817    817.65377   0.02104968  0.020528671           10 
 3238000   0.73381976   -7.1776957    818.92017  0.021075771  0.020522711           19 
 3239000   0.72282294   -7.1742964    818.00078   0.02104561  0.020516725           17 
 3240000   0.72260925   -7.2005462    820.26908  0.021097456  0.020510774           15 
 3241000   0.74026314   -7.1556961    818.38225  0.021042431  0.020504809           12 
 3242000   0.72320702   -7.1678215    818.86459  0.021048339  0.020498857           20 
 3243000   0.72812344   -7.1744737    818.30213  0.021027396  0.020492891           22 
 3244000   0.74429441    -7.198814    819.22422  0.021044601  0.020486904           11 
 3245000   0.73219241   -7.1722585    819.38589  0.021042267  0.020480922            7 
 3246000    0.7500301    -7.194717    818.80092  0.021020767  0.020474947           17 
 3247000    0.7192373   -7.1763455    819.65681  0.021036259  0.020468991           16 
 3248000   0.73339828   -7.1774012    821.75222  0.021083544  0.020463045            9 
 3249000   0.73212746   -7.1756004    820.09129  0.021034454   0.02045712           10 
 3250000   0.74200353   -7.1837371    819.45998  0.021011794  0.020451185           12 
 3251000   0.73037496   -7.1887903     819.9457  0.021017782  0.020445239           11 
 3252000   0.72543961   -7.1856899     818.6117  0.020977135  0.020439302           18 
 3253000   0.71193604   -7.2106517    818.38763  0.020964946  0.020433349           18 
 3254000   0.72290608   -7.1935678    818.72567   0.02096716  0.020427401           14 
 3255000   0.72554607   -7.2044919    818.47047  0.020954185  0.020421432           16 
 3256000   0.73418365   -7.1802077    819.19926  0.020966402  0.020415475           13 
 3257000   0.73334638   -7.2063296    817.65604   0.02092048  0.020409504           14 
 3258000   0.74486519   -7.1802043    819.92216  0.020972022  0.020403546           23 
 3259000   0.72836785   -7.1787008    820.11354   0.02097048  0.020397601            6 
 3260000   0.72144908   -7.1651424    819.76294  0.020955085  0.020391659           10 
 3261000   0.72179997   -7.1900304    819.53419  0.020942814  0.020385736           11 
 3262000   0.73672773   -7.1850481    819.86436  0.020944828  0.020379777            6 
 3263000    0.7423733   -7.1655897    818.85171  0.020912547   0.02037382            9 
 3264000   0.72466723   -7.1878109    820.24552  0.020941726  0.020367876           11 
 3265000   0.73114903   -7.1935395    820.46831  0.020940998  0.020361937           19 
 3266000   0.73547556   -7.1835155    818.17827  0.020876155   0.02035598           24 
 3267000    0.7405944   -7.2112809    820.93949  0.020940197  0.020350003           17 
 3268000   0.73911694   -7.2003245    819.68549  0.020901813  0.020344035           10 
 3269000   0.73036086   -7.2017988    817.96067   0.02085145  0.020338074            8 
 3270000    0.7287211   -7.1815786     820.0524  0.020898379  0.020332128           14 
 3271000   0.74750065   -7.2033952    819.50568  0.020878062  0.020326177            5 
 3272000   0.73402414   -7.2030113    819.90966   0.02088197  0.020320224            8 
 3273000   0.71633969   -7.2060344    819.95918   0.02087685  0.020314277            8 
 3274000   0.71668759   -7.2217694    820.56707  0.020885947  0.020308331           12 
 3275000   0.70419606   -7.2175073    817.27584  0.020795823  0.020302374           10 
 3276000   0.71978163   -7.2100372    819.12551  0.020836526    0.0202964           13 
 3277000   0.72383959   -7.2240286    819.90191  0.020849911   0.02029045           17 
 3278000   0.72821283   -7.2119031    818.35353  0.020804188   0.02028449           21 
 3279000    0.7373735   -7.2132357    819.21722  0.020819793  0.020278542           19 
 3280000   0.71346158    -7.192708    820.41573  0.020843896  0.020272599            8 
 3281000   0.72200208   -7.2000729    818.32931   0.02078455  0.020266651            9 
 3282000    0.7165148   -7.1926957     818.8504  0.020791448   0.02026073           16 
 3283000   0.73836156   -7.1926036    819.20197  0.020794039  0.020254804           18 
 3284000   0.73697942   -7.2109167    818.92634  0.020780713   0.02024889            7 
 3285000   0.72337627   -7.1618558    821.51962  0.020840173  0.020242983            9 
 3286000   0.74084497   -7.1743208    820.21593  0.020800769  0.020237085           17 
 3287000   0.70783171   -7.1967433    821.61244  0.020829846  0.020231179           10 
 3288000   0.73566397   -7.2168943    818.82227  0.020752795  0.020225286            8 
 3289000   0.71288718   -7.2195071     820.8325  0.020797418  0.020219393           14 
 3290000   0.73824731    -7.181466    822.55045  0.020834611   0.02021349           19 
 3291000   0.71462654   -7.1864851    820.45585  0.020775242  0.020207606           22 
 3292000   0.72233533   -7.1910864    821.02674  0.020783383  0.020201703           12 
 3293000   0.71326151   -7.1946485    820.09827  0.020753575  0.020195822           24 
 3294000   0.73409293   -7.1878838     819.9421  0.020743324  0.020189935           27 
 3295000    0.7320724   -7.2191971    820.21989  0.020744054  0.020184031           15 
 3296000   0.71833421   -7.1949843    820.00447  0.020732314  0.020178143           13 
 3297000    0.7335541   -7.2134263    820.21433   0.02073133  0.020172249           14 
 3298000   0.72772042   -7.1922886    819.45706  0.020705909  0.020166371           13 
 3299000   0.73290468   -7.2146502    820.21376  0.020718747  0.020160467           19 
 3300000   0.73185873   -7.1827757    821.14192  0.020735907  0.020154581            7 
 3301000   0.70146008   -7.2080356    820.32956  0.020709117  0.020148688           13 
 3302000   0.72922774   -7.1888759    820.51853  0.020707615  0.020142782           12 
 3303000   0.73321783   -7.2047964    821.23167  0.020719338  0.020136885           21 
 3304000   0.72852085   -7.2190135    819.86744  0.020678658  0.020130984           11 
 3305000   0.72361402    -7.203377     822.5435  0.020739876  0.020125083           11 
 3306000   0.72099806   -7.2146865    821.14386  0.020698323  0.020119201           10 
 3307000   0.70295908   -7.2305754    821.11208  0.020691263  0.020113303            4 
 3308000    0.7308474   -7.2157482    822.57313  0.020721814  0.020107405           14 
 3309000   0.73298672   -7.1834701    821.46114  0.020687548  0.020101516            5 
 3310000    0.7267092   -7.2097691    820.35626  0.020653481   0.02009564            7 
 3311000   0.74221335   -7.1907493    821.71489  0.020681438  0.020089764            6 
 3312000    0.7306057   -7.1747086    822.05561  0.020683766  0.020083898            6 
 3313000   0.72453097   -7.2215668     821.3348  0.020659392  0.020078015            7 
 3314000   0.72774764   -7.1810061    821.31779  0.020652731  0.020072137           14 
 3315000   0.72539638   -7.1986861    821.09732  0.020640958  0.020066272            8 
 3316000   0.72356988   -7.1895191    821.32602  0.020640481  0.020060406           10 
 3317000   0.72144913   -7.2194916    823.44654  0.020687532  0.020054564           11 
 3318000   0.71052636    -7.183539    821.99242  0.020644776  0.020048702           14 
 3319000   0.70290887    -7.206425    822.06481  0.020640374  0.020042842           14 
 3320000   0.71206793   -7.2000204    822.38059  0.020642083  0.020036971            7 
 3321000   0.70904898   -7.2104807    823.14449  0.020655036  0.020031108            8 
 3322000   0.71184266   -7.2077766    821.05627  0.020596435  0.020025249            9 
 3323000   0.71440911   -7.2020553    822.02948  0.020614642  0.020019388            9 
 3324000   0.74133268   -7.2009301    822.01082  0.020607973  0.020013536           15 
 3325000   0.72813098   -7.2197255    821.26868  0.020583175  0.020007643           21 
 3326000   0.72073167   -7.2139229    821.47942  0.020582267  0.020001744           25 
 3327000    0.7206051   -7.2014308    820.80638  0.020559222  0.019995849           46 
 3328000   0.73097707   -7.2054608    821.21923  0.020563382  0.019989959           26 
 3329000   0.72769928   -7.2146726    822.38673  0.020586431  0.019984062           12 
 3330000   0.73523932   -7.2130877    822.15928  0.020574556  0.019978147           10 
 3331000    0.7186893   -7.2301068    822.92991  0.020587659   0.01997224            7 
 3332000   0.71604495   -7.2393965    821.57667  0.020547636  0.019966348           12 
 3333000   0.72205283   -7.2404349    821.24937  0.020533288  0.019960453           16 
 3334000   0.72824175   -7.2139401    820.47083  0.020507669  0.019954547           25 
 3335000   0.71466629   -7.2157583    820.82014  0.020510248   0.01994863           12 
 3336000   0.71851595   -7.1991267    821.39629  0.020518493  0.019942715           22 
 3337000   0.71159676   -7.2324009    820.77866   0.02049692  0.019936818           16 
 3338000   0.71251436   -7.2246671    821.39577  0.020506186   0.01993092           25 
 3339000   0.70296074   -7.1992183    821.10913   0.02049289  0.019925031           15 
 3340000   0.70719219   -7.2527993    820.78345  0.020478629  0.019919116           22 
 3341000   0.72129799   -7.2068482    820.66461  0.020469535  0.019913203           32 
 3342000   0.70638009   -7.2536995    820.31129    0.0204546  0.019907297           30 
 3343000   0.70015233   -7.2340654    819.60478   0.02043087  0.019901374           20 
 3344000   0.71872621   -7.2249973    821.58288  0.020474055  0.019895467           27 
 3345000   0.71324089   -7.2280671    820.67814  0.020445395  0.019889582           27 
 3346000   0.73083802   -7.1942287    821.86126   0.02046875   0.01988371           23 
 3347000   0.71039038   -7.2104794    822.18323  0.020470651  0.019877858           19 
 3348000   0.71690262   -7.2322683    823.86689  0.020506444  0.019871989           17 
 3349000   0.71706025    -7.243854    822.15971  0.020457841  0.019866101           28 
 3350000   0.71500899   -7.1968393    822.76293  0.020466739  0.019860211           12 
 3351000   0.73931296   -7.2072457    820.44228  0.020402922   0.01985432           16 
 3352000   0.70550925   -7.2168538    820.78228  0.020405287  0.019848422           13 
 3353000   0.72533157   -7.2404498    821.30204  0.020412119  0.019842534           12 
 3354000   0.71373335   -7.2092335    822.41682  0.020433731   0.01983666           15 
 3355000   0.72244974   -7.2341461    820.40939  0.020377779  0.019830797           17 
 3356000    0.6996312   -7.2030402    820.56462  0.020375562  0.019824935           13 
 3357000   0.70896095   -7.2355271    820.25337  0.020361766  0.019819053           16 
 3358000   0.71063218   -7.2122805    822.57417  0.020413296  0.019813192            8 
 3359000   0.70960098   -7.2371935    821.73029  0.020386283  0.019807313           26 
 3360000   0.70208536   -7.2428383      822.658  0.020403224  0.019801435           24 
 3361000   0.72174159   -7.2076064    821.11599  0.020358921  0.019795542           50 
 3362000   0.71852811   -7.1979541    821.37503  0.020359286  0.019789669           61 
 3363000   0.70797154   -7.2323032    821.33624  0.020352271  0.019783777           33 
 3364000   0.70186804   -7.2279606    822.25508  0.020368982  0.019777891           42 
 3365000    0.7251765   -7.2231455    821.38321  0.020341337  0.019772025           56 
 3366000   0.71133622   -7.2409979    821.60938  0.020340894  0.019766147           22 
 3367000   0.71699146   -7.2267937    823.26386  0.020375801   0.01976029           10 
 3368000   0.72345918   -7.2192019    823.15976  0.020367175  0.019754448           12 
 3369000   0.70557748    -7.194258    823.01731  0.020357606  0.019748612           13 
 3370000   0.69320515   -7.2112295    822.77804  0.020345649  0.019742791           15 
 3371000   0.70660433   -7.2498014    821.29733  0.020303009  0.019736944           17 
 3372000   0.72375771    -7.240744    822.37201  0.020323547  0.019731098           25 
 3373000   0.72688836   -7.2172007    823.37316  0.020342256  0.019725258           13 
 3374000    0.7076104   -7.2267302    822.04834  0.020303506  0.019719431           10 
 3375000   0.70828933   -7.2264553    823.07988   0.02032296  0.019713597           16 
 3376000   0.71743696   -7.2296469    824.55102  0.020353254  0.019707772            7 
 3377000   0.70807121   -7.2208666    823.47368  0.020320642  0.019701958            8 
 3378000   0.70940545   -7.2124676    821.45094  0.020264726  0.019696136           23 
 3379000   0.71081416   -7.2229907    822.70402  0.020289633   0.01969029           14 
 3380000   0.69801568   -7.2433486    821.44706   0.02025264  0.019684436            8 
 3381000   0.71055057   -7.2267389    822.22787  0.020265894    0.0196786           13 
 3382000   0.71106622   -7.2427687    822.47652  0.020266029  0.019672764            7 
 3383000   0.71015901   -7.2221701    821.80857  0.020243585  0.019666907            6 
 3384000   0.70478947   -7.2134539    823.66738  0.020283377   0.01966106           10 
 3385000    0.7195656   -7.2427174    822.02611  0.020236979  0.019655197           14 
 3386000   0.71618934   -7.2345389    822.62439  0.020245727   0.01964934           22 
 3387000   0.71471158   -7.2393767    821.52758  0.020212764  0.019643501           19 
 3388000   0.69131774   -7.2262274    822.04946  0.020219634  0.019637672           15 
 3389000   0.71187988   -7.2518116    822.55313  0.020226053  0.019631836           34 
 3390000   0.72600249   -7.2356061    823.65063  0.020247066  0.019626009           39 
 3391000   0.70455257   -7.2576907    821.50221  0.020188298  0.019620167           16 
 3392000   0.70203249   -7.2429328     823.3103  0.020226767  0.019614329           20 
 3393000   0.72074502   -7.2127248     824.1092  0.020240426  0.019608515           28 
 3394000   0.68314973   -7.2320071    822.04464  0.020183771  0.019602714           11 
 3395000   0.70015267   -7.2251218    823.26774  0.020207848  0.019596921           13 
 3396000   0.70043875   -7.2084691    823.73372  0.020213332  0.019591131           10 
 3397000   0.70846965   -7.2213962     825.5668   0.02025235  0.019585354            9 
 3398000   0.71530368   -7.2171057    823.69287  0.020200433  0.019579565           39 
 3399000   0.70963821    -7.210637    824.32941  0.020210096  0.019573807           13 
 3400000    0.7134037   -7.2247504    826.78643  0.020264373  0.019568054           11 
 3401000   0.70114439   -7.2227266    822.98178  0.020165191  0.019562292           16 
 3402000   0.72015791   -7.2457361    822.98183  0.020159265  0.019556527           13 
 3403000   0.69619706   -7.2349428    822.91598  0.020151728   0.01955078           16 
 3404000    0.7049072   -7.2301249    822.71757  0.020140951  0.019545016           23 
 3405000   0.71149888   -7.2271672    825.90193  0.020212969  0.019539269           22 
 3406000   0.69010535   -7.2400553     823.9175  0.020158483  0.019533503           11 
 3407000   0.70805414   -7.2232658    825.04602  0.020180169  0.019527743            9 
 3408000   0.71726357    -7.223152      825.005  0.020173244  0.019522003            9 
 3409000    0.6958709    -7.208317    825.51324  0.020179751  0.019516278           13 
 3410000   0.71705016   -7.2469654    824.84063  0.020157396  0.019510545           10 
 3411000   0.71126328   -7.2414121    825.76534  0.020174078  0.019504815           20 
 3412000   0.72014946   -7.2433602    823.31689  0.020108365  0.019499085           10 
 3413000   0.70354888    -7.237759    825.18561  0.020148101  0.019493346            9 
 3414000   0.70468927   -7.2399207    824.86445   0.02013436  0.019487579           11 
 3415000   0.71785575   -7.2368207    824.65727  0.020123408  0.019481816            7 
 3416000    0.7091069   -7.2419174    825.61708  0.020140932   0.01947606           10 
 3417000    0.6966152   -7.2419477    823.65154  0.020087102    0.0194703           27 
 3418000   0.70568735   -7.2252377    824.53468  0.020102757  0.019464525           13 
 3419000   0.69896291    -7.232322    823.65435  0.020075421  0.019458778           16 
 3420000   0.70981676   -7.2357935    824.63606  0.020093471  0.019453057           22 
 3421000   0.71042918   -7.2675426    823.53815  0.020060853  0.019447337            9 
 3422000   0.70850962   -7.2280711    822.88723   0.02003914  0.019441588           11 
 3423000   0.70602129   -7.2498252    824.08763  0.020062509  0.019435836            9 
 3424000   0.69249729   -7.2769098    821.72215  0.019999079  0.019430072           13 
 3425000   0.69310716   -7.2550855    823.21168  0.020029481  0.019424292            9 
 3426000   0.70154897   -7.2697832    824.30932  0.020050334  0.019418528            9 
 3427000   0.70338317   -7.2415028    824.14379  0.020040458  0.019412754           15 
 3428000   0.71521087   -7.2585133    822.49598  0.019994554  0.019406975           18 
 3429000   0.71202061   -7.2773634    821.41457  0.019962442  0.019401196           29 
 3430000   0.70476363   -7.2588544    823.71914  0.020012613   0.01939543           11 
 3431000   0.70402749   -7.2752119    824.40073  0.020023335  0.019389641           40 
 3432000   0.71430116   -7.2238186    824.13115  0.020010955  0.019383854           25 
 3433000   0.68628513   -7.2572226    824.71174  0.020019219   0.01937808           31 
 3434000    0.6877293    -7.250925     825.9778  0.020044113  0.019372307           21 
 3435000   0.70345024   -7.2374534    824.39693  0.019999926  0.019366548           21 
 3436000   0.67489263   -7.2516275    823.30419  0.019967603  0.019360805            9 
 3437000   0.69330576   -7.2675518    825.21811  0.020008198  0.019355055            8 
 3438000   0.69231178   -7.2411519    823.47709  0.019960178  0.019349309           15 
 3439000   0.70312606   -7.2450735    824.34059  0.019975298  0.019343571           25 
 3440000   0.69104285   -7.2319655    824.77582  0.019980034  0.019337829           18 
 3441000   0.70906085   -7.2565687    823.96423  0.019954573   0.01933208           12 
 3442000   0.70644906   -7.2164798    824.69159  0.019966386  0.019326361            9 
 3443000    0.6918665   -7.2447581    823.86048   0.01994047  0.019320637           14 
 3444000   0.69510218   -7.2394179    824.77913  0.019956909  0.019314937           13 
 3445000   0.69429779   -7.2545814    824.88415  0.019953656  0.019309217            9 
 3446000    0.6924326   -7.2712951    823.82538  0.019922262  0.019303481           10 
 3447000   0.69805483   -7.2430571    826.12129  0.019971987  0.019297755           15 
 3448000   0.69641747   -7.2379057    826.29707  0.019970443   0.01929205           17 
 3449000   0.70472867    -7.232207    826.24295  0.019963346  0.019286358           20 
 3450000   0.71185229   -7.2239696    825.67465  0.019943832  0.019280677           17 
 3451000   0.70311484   -7.2471554    823.98835  0.019897333  0.019274981           15 
 3452000   0.69523288   -7.2566106    825.63737  0.019931377  0.019269287            9 
 3453000   0.70291039   -7.2482753    824.15331  0.019889789  0.019263603           14 
 3454000   0.71892672   -7.2373192    823.94131  0.019878916    0.0192579            6 
 3455000   0.70395708   -7.2451487    825.06309  0.019900219  0.019252212           24 
 3456000   0.68395903   -7.2405441    825.21887  0.019898217  0.019246523           18 
 3457000   0.70108555   -7.2571127    824.72223   0.01988049  0.019240814           16 
 3458000   0.69242615   -7.2502381    824.26877  0.019863813  0.019235116           11 
 3459000   0.71069416   -7.2618716    825.89294  0.019897199  0.019229424           19 
 3460000   0.69411194   -7.2297102     825.1742  0.019874138  0.019223732           21 
 3461000   0.69585948   -7.2520032     824.5926  0.019854392  0.019218054            9 
 3462000   0.70424234   -7.2682923    824.62263   0.01984938  0.019212377           15 
 3463000   0.70489176   -7.2637056    824.41989  0.019838769  0.019206691           18 
 3464000   0.70743375   -7.2659014    826.41168  0.019880958  0.019201021            8 
 3465000   0.70756703   -7.2419249    826.80874   0.01988477  0.019195356           10 
 3466000   0.70818263    -7.224628    824.88183  0.019832704  0.019189697           15 
 3467000   0.68837065   -7.2476877    826.75838  0.019872089  0.019184043           18 
 3468000   0.69790164   -7.2681851     827.3451  0.019880457  0.019178405           14 
 3469000   0.69212711   -7.2302326    826.89477  0.019863908  0.019172738           21 
 3470000   0.69560206   -7.2637521    827.12479  0.019863708  0.019167075           22 
 3471000   0.72204377   -7.2755723    825.97911  0.019830479    0.0191614           28 
 3472000    0.6953861   -7.2666181    827.28967  0.019856223  0.019155729           33 
 3473000   0.68329682    -7.254139    824.48157  0.019783126  0.019150037           18 
 3474000   0.70816617   -7.2713608    825.59514  0.019804144  0.019144352           32 
 3475000   0.70604157   -7.2658789    824.75525  0.019778303  0.019138684           29 
 3476000   0.68374133   -7.2748586    826.63358  0.019817644  0.019133027           43 
 3477000   0.68908258   -7.2746233    827.15203   0.01982437  0.019127379           27 
 3478000   0.68591449   -7.2549715    827.18482  0.019819456  0.019121735           30 
 3479000   0.69068894   -7.2493826    827.04167   0.01981033  0.019116091           34 
 3480000   0.68158246   -7.2510202    827.52992   0.01981633  0.019110455           12 
 3481000   0.69971608   -7.2928881    827.02306  0.019798503  0.019104826           17 
 3482000   0.69248431   -7.2509589    826.78554  0.019787132  0.019099197           24 
 3483000    0.6928711   -7.2686587    828.75759  0.019828634   0.01909356           10 
 3484000   0.70566428    -7.280389    828.62675  0.019819813  0.019087946           22 
 3485000   0.70125727   -7.2585789    826.81331  0.019770763  0.019082326           14 
 3486000   0.68887774   -7.2366975    826.70998  0.019762621  0.019076726           14 
 3487000   0.70356503   -7.2458156    828.09504  0.019790055  0.019071117           15 
 3488000   0.69305147   -7.2363619    827.45694  0.019769136  0.019065516           24 
 3489000    0.6989034    -7.244681    828.05001  0.019777635   0.01905988           24 
 3490000   0.67703746    -7.257905      827.366  0.019755635  0.019054257           12 
 3491000   0.70329781   -7.2679291    827.44598  0.019751885  0.019048629           24 
 3492000   0.69574019   -7.2666643    826.80066  0.019730829  0.019043014           18 
 3493000   0.69318091   -7.2680455    827.34977  0.019738281  0.019037406           17 
 3494000   0.68773054   -7.2588283    827.37449  0.019733221  0.019031789           16 
 3495000   0.69324814   -7.2494939    826.44662  0.019705451  0.019026198           10 
 3496000   0.70051311   -7.2542097    828.83473  0.019756739  0.019020611           34 
 3497000   0.68660656   -7.2233303    826.53111  0.019696194  0.019015021           10 
 3498000   0.69505997   -7.2838538    826.74336   0.01969562   0.01900941           25 
 3499000   0.70492335   -7.2395583     827.9061  0.019717684  0.019003806           14 
 3500000   0.69612506   -7.2461875    826.56005  0.019680001  0.018998185           17 
 3501000   0.69965043   -7.2726071    828.63914  0.019723868   0.01899257           16 
 3502000   0.69152486   -7.2684098    826.46485  0.019666497  0.018986967           34 
 3503000   0.68440883   -7.2524388    827.12297  0.019676539  0.018981357           46 
 3504000   0.68964802    -7.268056    826.09265   0.01964642  0.018975738           23 
 3505000   0.68165502   -7.2887688     825.7488  0.019632639  0.018970091           22 
 3506000   0.67838158   -7.2845642    826.50284  0.019644962  0.018964451           20 
 3507000   0.68705246   -7.3066523    828.71083  0.019691826  0.018958829           24 
 3508000   0.69671083   -7.2751079    824.82448  0.019593892  0.018953214           24 
 3509000   0.69286155   -7.2457905    826.32642  0.019623977  0.018947591           36 
 3510000   0.66082169   -7.2619005    827.17983  0.019638648  0.018941968           34 
 3511000   0.69574724   -7.2597571    827.61483  0.019643379  0.018936361           37 
 3512000   0.68784966   -7.2522885    827.46767  0.019634294  0.018930758           15 
 3513000   0.69595673   -7.2720044    825.58929  0.019584147  0.018925134           11 
 3514000   0.69609544   -7.2679531    828.10669  0.019638273  0.018919518           22 
 3515000   0.67548341   -7.2825639    826.40695  0.019592388  0.018913882            8 
 3516000   0.69523911   -7.2675727    826.47918  0.019588528  0.018908249           18 
 3517000   0.69434858   -7.2764916    826.69293  0.019588023  0.018902598           27 
 3518000   0.68651223   -7.2794106    826.72174  0.019583138  0.018896958           24 
 3519000   0.68385404   -7.2933532    825.93588  0.019558963  0.018891327            9 
 3520000   0.68965519   -7.2810461     825.7014  0.019547855  0.018885685           16 
 3521000   0.67046432   -7.2822297    827.18433  0.019577401  0.018880049           23 
 3522000    0.6985012    -7.274913    826.54488  0.019556712  0.018874419           15 
 3523000   0.69091884   -7.2501739    827.28472  0.019568661  0.018868799            9 
 3524000    0.6907827   -7.2546633    827.55895  0.019569593  0.018863188           12 
 3525000   0.69493868   -7.2636164    823.67252  0.019472164  0.018857568           17 
 3526000    0.6761599   -7.2596351    825.87086  0.019518597  0.018851939           33 
 3527000   0.67627031    -7.258478    826.95886  0.019538769  0.018846325           15 
 3528000   0.69403314   -7.2722145       827.25  0.019540108  0.018840701           27 
 3529000   0.66974795   -7.2798263    826.35141  0.019513351  0.018835081            5 
 3530000   0.68416271   -7.2735986    826.45897  0.019510363  0.018829447           19 
 3531000   0.67390335   -7.2980056    825.64967  0.019485737  0.018823815            6 
 3532000   0.67132399   -7.2887219    826.28676  0.019495252  0.018818181           24 
 3533000   0.68126754   -7.2994134     825.0577  0.019460744  0.018812544           20 
 3534000   0.70112348   -7.3107963    826.80691  0.019496484  0.018806909           13 
 3535000   0.68557946   -7.3047086    825.85817  0.019468604  0.018801304           10 
 3536000   0.68385404   -7.2832219    826.57681  0.019480034  0.018795693           12 
 3537000   0.69300022   -7.2998781    826.74605  0.019478514  0.018790075           13 
 3538000   0.66554192   -7.2862141    827.52563  0.019491371  0.018784452           10 
 3539000   0.67526897   -7.2902003    826.41347  0.019459675  0.018778828           12 
 3540000   0.67200758   -7.2932427    826.08206  0.019446376  0.018773199           13 
 3541000   0.69469827   -7.3151672    827.05462  0.019463772  0.018767578           18 
 3542000   0.68605448   -7.2989054    827.13813  0.019460242  0.018761973           30 
 3543000   0.68248557   -7.2939003    826.20563  0.019432816  0.018756378           20 
 3544000   0.67547268   -7.3066109    827.55866  0.019459148   0.01875078           43 
 3545000   0.67878469   -7.3044547    827.09455  0.019442749  0.018745166           15 
 3546000   0.67504261   -7.2985228    826.85444  0.019431623  0.018739538           20 
 3547000   0.68149001   -7.3058664    826.22278  0.019411305  0.018733918           25 
 3548000   0.67387379   -7.2876447    826.30663  0.019407803  0.018728282           31 
 3549000   0.68659759   -7.2882064    827.11785  0.019421383   0.01872266           37 
 3550000   0.68208333    -7.293476    825.53443  0.019378742  0.018717051           47 
 3551000   0.69076501   -7.2980146    826.26602  0.019390454  0.018711441           41 
 3552000   0.69611265   -7.2861861    827.53112  0.019414675  0.018705832           35 
 3553000    0.6701214   -7.3013985    826.46047  0.019384099  0.018700236           38 
 3554000   0.69099639   -7.2731193    826.39766  0.019377173  0.018694651           16 
 3555000   0.68325952   -7.3027408     826.7663  0.019380363   0.01868905           36 
 3556000   0.66518725   -7.3046192    826.73777  0.019374245  0.018683458           16 
 3557000   0.67397115   -7.3039555     827.8251  0.019394272  0.018677865           44 
 3558000   0.67622043   -7.2784149    826.63884  0.019361037   0.01867227           65 
 3559000   0.68957439   -7.3033563    826.74184  0.019358009  0.018666694           24 
 3560000   0.67656529   -7.3042065    828.54976  0.019394891  0.018661111           15 
 3561000    0.6862827    -7.278378    829.37105  0.019408665   0.01865554           14 
 3562000    0.6863137   -7.3177005    827.00999  0.019347978  0.018649957           12 
 3563000   0.66939194   -7.2944778     826.9741  0.019341709  0.018644376           22 
 3564000   0.68391505   -7.3022589     826.8406   0.01933316  0.018638796           58 
 3565000   0.67538347   -7.2940316    827.38531   0.01934047  0.018633202           40 
 3566000   0.66214864   -7.3189673    827.01563  0.019326408  0.018627615           35 
 3567000   0.67706529   -7.2994517    828.08046  0.019345866   0.01862204           16 
 3568000   0.68202328   -7.2848417    827.62009  0.019329692  0.018616474           21 
 3569000   0.66851331   -7.2995205    828.75582  0.019350794  0.018610919           31 
 3570000    0.6770008   -7.2985164    828.82783  0.019347055  0.018605372           13 
 3571000   0.65722254   -7.3108019    827.82544  0.019318245  0.018599801           19 
 3572000   0.68594443   -7.2685356    829.37116  0.019348898  0.018594265           17 
 3573000   0.67343396   -7.3023307    827.93696  0.019310033  0.018588735           29 
 3574000   0.68976423    -7.267172    828.28365  0.019312713  0.018583193           22 
 3575000   0.68341665   -7.2654662    829.93563  0.019345819  0.018577668           17 
 3576000   0.66422561   -7.2945244    829.53874   0.01933116  0.018572136           11 
 3577000   0.67571067   -7.2987142    827.44361  0.019276946  0.018566591           14 
 3578000   0.69419525   -7.2717046    827.99428  0.019284383  0.018561057           22 
 3579000   0.68128733   -7.2653111    827.80732  0.019274642  0.018555521           18 
 3580000   0.67670811   -7.2840405    827.42616  0.019260385  0.018549971           25 
 3581000   0.67955156    -7.276094    828.86223  0.019288426  0.018544436           17 
 3582000   0.68421619   -7.2905705    828.29475  0.019269839  0.018538908           20 
 3583000   0.68016752    -7.303025     827.7306   0.01925134  0.018533382           12 
 3584000   0.67172819   -7.2708892    828.34484   0.01926025  0.018527837           11 
 3585000   0.68790721   -7.2681398    827.85253  0.019243434  0.018522311            9 
 3586000     0.672739   -7.2771816    828.73935  0.019258676  0.018516768           18 
 3587000   0.67675517   -7.2847879    827.22841  0.019218205  0.018511236           36 
 3588000   0.68447417   -7.2994189     826.8608  0.019204311  0.018505694           25 
 3589000   0.67247795   -7.2444328    826.59088  0.019192693  0.018500169           11 
 3590000   0.67393123   -7.3027561    828.48305  0.019231269  0.018494658           28 
 3591000   0.66163633   -7.2983342    827.98538  0.019214364  0.018489122           17 
 3592000    0.6718441   -7.3067103    827.80765  0.019204892  0.018483582           17 
 3593000   0.68425913   -7.3013639    827.45375  0.019191339  0.018478053           19 
 3594000   0.66984581   -7.3043707    827.06659  0.019177022  0.018472522           12 
 3595000   0.68624069   -7.3109244    829.02322  0.019217043  0.018466987           30 
 3596000   0.67289235   -7.3119161    828.90544  0.019208969  0.018461452           17 
 3597000   0.67886673   -7.3014913    829.64542  0.019220772  0.018455931           19 
 3598000   0.67528186   -7.2989072    829.81409  0.019219337  0.018450409           14 
 3599000   0.66991052    -7.294145    829.50302  0.019206794  0.018444887           26 
 3600000   0.68995966   -7.2838854    830.17479  0.019217009  0.018439388           17 
 3601000    0.6765937   -7.3128113    828.99314  0.019184327  0.018433876           18 
 3602000   0.67053144   -7.3064401     830.2937   0.01920909  0.018428375           32 
 3603000   0.67434824    -7.320297    828.70548  0.019167025   0.01842288           31 
 3604000   0.66871595    -7.300703    828.92239  0.019166722  0.018417385           20 
 3605000    0.6717263   -7.2832406    828.90956  0.019161109  0.018411887           26 
 3606000   0.65733843   -7.2747606    829.82903  0.019177044  0.018406414           14 
 3607000   0.66354315   -7.2820703    829.87214  0.019172723  0.018400927           16 
 3608000   0.65556713   -7.3046895    829.39849  0.019156469  0.018395452           22 
 3609000   0.68117376   -7.3007218    827.71217  0.019112223  0.018389966           21 
 3610000   0.68548513   -7.3046393    831.75282  0.019200204  0.018384494           17 
 3611000   0.68339683     -7.29716    830.63005  0.019168976  0.018379026           23 
 3612000   0.65812274   -7.2783915    830.35267  0.019157269  0.018373548           15 
 3613000    0.6633217   -7.2974508    831.36912  0.019175411  0.018368091           20 
 3614000   0.65546733    -7.311011    830.11398  0.019141164  0.018362625           15 
 3615000   0.67988833   -7.2805119    830.95292  0.019155208  0.018357171           15 
 3616000      0.68535   -7.2907574     829.5704  0.019118049  0.018351701           37 
 3617000   0.68434526   -7.2969448    830.29975  0.019129568  0.018346229           32 
 3618000   0.68092466   -7.3048126    830.82323  0.019136338  0.018340773           30 
 3619000   0.65344714   -7.2843647     830.0648  0.019113586  0.018335322           32 
 3620000   0.66404924   -7.2632207    831.93535  0.019151366  0.018329873           24 
 3621000   0.67603042   -7.2925226    828.96079  0.019077621  0.018324428           31 
 3622000   0.66280122   -7.3143316    829.30695  0.019080318  0.018318956           57 
 3623000   0.67065564   -7.2855027    829.46832  0.019078763  0.018313493           20 
 3624000   0.67574128   -7.3047291      828.709  0.019056038  0.018308029           39 
 3625000   0.68893357   -7.3104909    828.54186  0.019046939  0.018302562           62 
 3626000    0.6827546   -7.3097118     828.9529  0.019051133  0.018297084           44 
 3627000   0.67605588   -7.3240141    829.04362  0.019047965  0.018291608           48 
 3628000   0.67746894   -7.3064477    830.97545  0.019087088  0.018286135           33 
 3629000   0.67272166   -7.3163563    828.85043  0.019033031  0.018280662           42 
 3630000   0.66808543   -7.3061168    827.97031  0.019007583  0.018275183           27 
 3631000   0.65533722   -7.3189757    828.03673  0.019003872  0.018269704           30 
 3632000   0.68476611   -7.3083564    828.00286  0.018997863   0.01826423           52 
 3633000   0.67803819   -7.3285131    828.38423  0.019001382  0.018258768           25 
 3634000   0.68900139   -7.2996464     828.4955  0.018998704  0.018253298           13 
 3635000   0.67649735   -7.3150585    828.56037  0.018994965  0.018247833           14 
 3636000   0.66826562   -7.3118591    829.20716  0.019004565  0.018242364           13 
 3637000   0.65940561   -7.3180737    829.00498  0.018994707  0.018236904           11 
 3638000   0.66256202   -7.3189973    829.11448  0.018991994  0.018231434           26 
 3639000   0.66853614   -7.3278641    828.55618   0.01897399  0.018225959           21 
 3640000   0.66429369   -7.3117096    830.34682  0.019009771  0.018220483           31 
 3641000   0.66341119    -7.311347    829.41039  0.018983118  0.018215005           14 
 3642000   0.67793853   -7.3118999    829.26021  0.018974469   0.01820955           29 
 3643000   0.65205785   -7.3062832    829.04587  0.018964358  0.018204093           16 
 3644000    0.6828171    -7.335622    828.70122  0.018951272  0.018198635           25 
 3645000   0.67174757   -7.3257777    829.96478  0.018974961  0.018193167           36 
 3646000   0.66630849    -7.305765    827.99257  0.018924679  0.018187708           58 
 3647000   0.66819603    -7.312824     830.3913  0.018974301   0.01818226           29 
 3648000   0.65360995   -7.3175344    829.43234  0.018947193  0.018176799           19 
 3649000   0.66607538   -7.2957645      829.992  0.018954782  0.018171355           21 
 3650000   0.67126507   -7.3305466    829.16014  0.018930597  0.018165899           12 
 3651000   0.67773037   -7.3365652    827.57398  0.018889208  0.018160436           21 
 3652000   0.66635055   -7.3109736    829.04222  0.018917539  0.018154975           27 
 3653000   0.66336181   -7.3220872    831.09334  0.018959151  0.018149533           44 
 3654000   0.67076366   -7.2874925    830.73534  0.018945798  0.018144103           18 
 3655000    0.6478071   -7.3107928    830.81177  0.018942357  0.018138698           14 
 3656000   0.66735921    -7.322402    831.02602  0.018942059  0.018133274           15 
 3657000   0.66324598   -7.2978002    829.66798  0.018905933  0.018127844           27 
 3658000   0.66549223   -7.3367951    828.13696  0.018865887  0.018122401           19 
 3659000   0.65441752   -7.3178547    828.71964  0.018874001  0.018116954           15 
 3660000   0.65793275   -7.3089155    827.76234  0.018847048   0.01811152           41 
 3661000   0.66723597   -7.3216694    828.91018  0.018868027  0.018106082           17 
 3662000    0.6706812   -7.3116213    829.93876  0.018886282  0.018100635           10 
 3663000     0.665826     -7.30141    828.39456  0.018845995  0.018095182           17 
 3664000   0.66343465    -7.334074    829.40688  0.018863876   0.01808973           13 
 3665000   0.66487301   -7.3388161    828.71896  0.018843087  0.018084292           26 
 3666000   0.66621805   -7.3213593     830.1952  0.018871504  0.018078846           27 
 3667000   0.67362885    -7.330833    830.09454   0.01886407  0.018073395           40 
 3668000    0.6710411   -7.3375018    830.25369  0.018862543  0.018067954           46 
 3669000    0.6666894   -7.3438238    829.30148  0.018835775  0.018062499           29 
 3670000   0.66064764   -7.3552218    830.06157  0.018847901  0.018057043           33 
 3671000    0.6665965   -7.3368923    830.34262  0.018849147  0.018051594           36 
 3672000   0.66223625   -7.3373016    829.08777  0.018815536   0.01804614           46 
 3673000   0.65190741   -7.3171413    827.44897  0.018773232  0.018040685           58 
 3674000   0.66682704   -7.2980899    828.55089  0.018793116  0.018035229           30 
 3675000   0.66551321   -7.3219088    830.59722  0.018834404  0.018029789           53 
 3676000   0.64687627   -7.3258605    828.34405  0.018778202  0.018024323           82 
 3677000   0.67017561   -7.3230821    828.29657  0.018772019  0.018018871           94 
 3678000   0.66662891   -7.3077193    829.35935  0.018790995   0.01801343           92 
 3679000   0.66512576    -7.310992    828.74406   0.01877195  0.018007989           56 
 3680000   0.67409704   -7.3359408     828.2312  0.018755236  0.018002548           89 
 3681000   0.66899027    -7.338108    828.03755  0.018745756  0.017997079           89 
 3682000   0.66199788   -7.3427487    828.40354  0.018748948  0.017991608          112 
 3683000    0.6825687   -7.3271732    827.60818  0.018725862  0.017986143           57 
 3684000   0.66556195   -7.3278933    828.43255  0.018739426  0.017980689           38 
 3685000    0.6533154   -7.3444571    827.61537  0.018715861  0.017975222           37 
 3686000   0.65795663   -7.3595944    827.67243  0.018712073   0.01796976           46 
 3687000   0.65837871   -7.3405754    828.15504  0.018717906  0.017964313           38 
 3688000   0.67204102   -7.3436864    829.75745  0.018749039  0.017958868           66 
 3689000   0.67180943   -7.3570135    827.43255  0.018691437  0.017953395           42 
 3690000   0.66657411   -7.3404162    826.91111  0.018674596  0.017947919           44 
 3691000   0.66425522   -7.3345664    828.26697  0.018700148  0.017942438           71 
 3692000   0.67084084   -7.3359371    827.62185  0.018680522  0.017936968           50 
 3693000   0.65456354   -7.3404871    826.39634   0.01864781   0.01793151           42 
 3694000   0.66674944   -7.3450287    829.43274   0.01871126  0.017926053           44 
 3695000   0.66131168   -7.3492242    827.72983  0.018667791  0.017920601           34 
 3696000    0.6641415   -7.3439311    828.47739  0.018679595  0.017915139           50 
 3697000   0.66995407    -7.351017     828.0575  0.018665078  0.017909661           33 
 3698000   0.65067258   -7.3767882    828.39776  0.018667698  0.017904196           52 
 3699000    0.6691987   -7.3267657    828.68952  0.018669224  0.017898731           18 
 3700000    0.6650795   -7.3432804    828.28443  0.018655055  0.017893282           47 
 3701000   0.66331471   -7.3624538    828.38494  0.018652277  0.017887818           37 
 3702000   0.66148141    -7.335033    828.01217  0.018638848  0.017882368           48 
 3703000   0.66754014   -7.3583175     826.7373  0.018605124  0.017876903           35 
 3704000   0.65878333   -7.3498851    827.06533  0.018607481   0.01787144           35 
 3705000   0.65318064   -7.3644215    827.53103  0.018612934  0.017865977           48 
 3706000   0.65915177   -7.3528719    826.44273   0.01858344  0.017860509           44 
 3707000   0.67047688   -7.3538643    827.71063  0.018606929  0.017855054           33 
 3708000    0.6653536   -7.3468059    828.23602  0.018613719  0.017849602           16 
 3709000   0.64594384   -7.3656968    828.13141   0.01860635  0.017844156           11 
 3710000   0.65637011    -7.343419    828.05475  0.018599612  0.017838702           24 
 3711000    0.6521605   -7.3364171    828.49958  0.018604589  0.017833261           37 
 3712000   0.65290984   -7.3643301    828.08588   0.01859029  0.017827828           15 
 3713000   0.66880614   -7.3578477    828.16872  0.018587142  0.017822393           25 
 3714000   0.65110202    -7.356902    827.76254  0.018573024   0.01781697           53 
 3715000   0.65968207   -7.3407428    830.12685   0.01862106  0.017811556           23 
 3716000   0.65942009   -7.3342247     828.6556  0.018583055  0.017806135           10 
 3717000   0.66597082   -7.3253824    828.87754  0.018583032  0.017800724           10 
 3718000    0.6582724   -7.3448499    827.31928  0.018543107  0.017795306           13 
 3719000   0.65049259   -7.3328706    828.53221    0.0185653  0.017789892           15 
 3720000   0.65113253   -7.3543205    827.83437  0.018544677  0.017784475           17 
 3721000    0.6607332   -7.3480063    826.87855  0.018518287  0.017779049           19 
 3722000    0.6605755   -7.3337153    827.70854  0.018531895  0.017773628           17 
 3723000   0.64611599    -7.322151    829.18822  0.018560037  0.017768215           23 
 3724000   0.65210075   -7.3447007    830.04562   0.01857424   0.01776281           24 
 3725000   0.65556375   -7.3350554    829.65407  0.018560494  0.017757414           33 
 3726000   0.64895215   -7.3513665    828.04408  0.018519504  0.017752008           39 
 3727000   0.65180243   -7.3323672    829.78889  0.018553548  0.017746607           18 
 3728000   0.64935603   -7.3441939    829.59793  0.018544303  0.017741202           30 
 3729000   0.66493318   -7.3185465    829.23623  0.018531247  0.017735808           27 
 3730000   0.64154907   -7.3302997     828.5115  0.018510087  0.017730406           12 
 3731000   0.64882122   -7.3355284    830.48164   0.01854913  0.017725002           14 
 3732000   0.65143344   -7.3280396    825.89588  0.018441762  0.017719597           16 
 3733000   0.65645895   -7.3266894    827.96944  0.018483111   0.01771418           18 
 3734000   0.64552544   -7.3383376    826.90109  0.018454318  0.017708774           16 
 3735000    0.6484413   -7.3286009    828.31542  0.018480933  0.017703383           20 
 3736000   0.65677252   -7.3702258    829.91193  0.018511597  0.017697992           15 
 3737000   0.64789702   -7.3302212    827.44832  0.018451706  0.017692604           38 
 3738000   0.65919054   -7.3577321    829.89904  0.018501405  0.017687222           20 
 3739000   0.65168726   -7.3312728     827.8579  0.018450965  0.017681848           17 
 3740000   0.64706827   -7.3426454    828.52814  0.018460966  0.017676458           24 
 3741000   0.65198243   -7.3384995    826.48452  0.018410508  0.017671065           43 
 3742000   0.66810071    -7.338062    829.57782  0.018474475  0.017665683           23 
 3743000   0.63239605   -7.3489809    830.50681  0.018490222  0.017660307           13 
 3744000   0.65427169   -7.3464563    828.78655  0.018446994  0.017654927           20 
 3745000    0.6537977   -7.3295208    830.87604  0.018488563  0.017649556           21 
 3746000   0.64198615     -7.34986    829.41431   0.01845111   0.01764418           15 
 3747000   0.64419355   -7.3499222    828.58458  0.018427733    0.0176388           13 
 3748000   0.66267028   -7.3501776    826.55905   0.01837778  0.017633419           24 
 3749000   0.64814884   -7.3412844    829.28721   0.01843352  0.017628052           17 
 3750000   0.65919141   -7.3459806    828.75181  0.018416707   0.01762268           18 
 3751000   0.65575228   -7.3512462    827.87324  0.018392279  0.017617299           30 
 3752000   0.64317316   -7.3400328    828.38058  0.018398645  0.017611926           14 
 3753000   0.63983631   -7.3622565    826.68037   0.01835599  0.017606539           18 
 3754000   0.64407069    -7.346475    828.24775  0.018385894  0.017601138           24 
 3755000    0.6613289    -7.358639    826.62312  0.018344943  0.017595745           29 
 3756000   0.65371515   -7.3607669    828.06518  0.018372053  0.017590352           25 
 3757000   0.64981708   -7.3498822    829.22744  0.018392943  0.017584957           18 
 3758000   0.64114131   -7.3621818    827.81234  0.018356669   0.01757956           30 
 3759000    0.6459515   -7.3375476      827.767   0.01835078   0.01757418           25 
 3760000   0.64822505   -7.3468368    827.80448   0.01834673  0.017568798           42 
 3761000   0.66115629   -7.3596312    828.54922  0.018358354  0.017563408           22 
 3762000   0.63808088   -7.3465963    827.49353  0.018330089  0.017558021           13 
 3763000    0.6414366   -7.3572048    829.23815  0.018363853  0.017552647           36 
 3764000   0.64919858   -7.3592226    829.16182  0.018357284  0.017547283           22 
 3765000    0.6588155   -7.3412235    828.88299  0.018346237  0.017541918           42 
 3766000   0.64859389   -7.3612978     829.4228   0.01835331  0.017536542           59 
 3767000   0.64997512   -7.3667538     828.3944  0.018325688  0.017531153           68 
 3768000   0.65417912   -7.3568725    828.86664  0.018331269  0.017525774           64 
 3769000   0.64810009   -7.3503917      827.676   0.01830008  0.017520391           46 
 3770000   0.63236206   -7.3718855    827.95839  0.018301468  0.017515008           49 
 3771000   0.66204027   -7.3434016    828.25609  0.018303193  0.017509637           51 
 3772000   0.63151284   -7.3516057    828.85914  0.018311664  0.017504259           58 
 3773000   0.65464195   -7.3532351    829.80732  0.018327753  0.017498902           39 
 3774000    0.6539702    -7.341646    829.05852  0.018306362  0.017493546           17 
 3775000   0.65370327   -7.3550659    828.11353  0.018280652  0.017488187           42 
 3776000   0.64856909    -7.368185    827.31181  0.018258117   0.01748282           23 
 3777000   0.66743496   -7.3516747    828.96307  0.018289716  0.017477456           41 
 3778000   0.64600265   -7.3586314    828.20482  0.018268149  0.017472085           37 
 3779000   0.65362097   -7.3390474    828.92345  0.018279162  0.017466726           24 
 3780000    0.6551016   -7.3516491    828.38643  0.018262488  0.017461369           32 
 3781000   0.63983804   -7.3506303    828.02329  0.018249654  0.017456013           31 
 3782000   0.64617216    -7.357828    828.94056   0.01826504  0.017450657           24 
 3783000   0.65875446   -7.3514671     830.2256  0.018288519  0.017445304           21 
 3784000    0.6562782   -7.3696197    828.53739  0.018246507  0.017439961           36 
 3785000   0.64093246   -7.3658021    829.29279  0.018258318  0.017434618           70 
 3786000   0.65442091   -7.3772233    828.98563  0.018246734  0.017429266           61 
 3787000   0.64874399     -7.34801    828.89973  0.018240026  0.017423937           65 
 3788000   0.63977808   -7.3621443    827.95192  0.018214359  0.017418606           32 
 3789000   0.63782652   -7.3751019    828.12399  0.018213337  0.017413269           87 
 3790000   0.64697258   -7.3874154     827.8897   0.01820338  0.017407914           46 
 3791000   0.65163292   -7.3796607    828.39283  0.018209637  0.017402575           38 
 3792000   0.65158553   -7.3741785    828.06268   0.01819758  0.017397231           30 
 3793000   0.64216392   -7.3890692    827.80501  0.018187121  0.017391895           36 
 3794000   0.63807265   -7.3887901    828.73614  0.018202779  0.017386556           38 
 3795000   0.65904966   -7.3455685    829.21572  0.018208514  0.017381219           34 
 3796000   0.65634046   -7.3775833    828.52446  0.018188542  0.017375905           50 
 3797000   0.64330226   -7.3482963    829.14673  0.018197409  0.017370583           20 
 3798000   0.64671659    -7.355382    828.38486  0.018175901  0.017365245           36 
 3799000   0.64137273   -7.3722959    828.50256  0.018173698  0.017359915           34 
 3800000   0.64692207   -7.3855248    828.72524  0.018173799  0.017354576           69 
 3801000   0.65314826    -7.380809    828.84505  0.018171644   0.01734923           38 
 3802000   0.64213653   -7.3817809    826.94109  0.018125133  0.017343876           31 
 3803000   0.63608134   -7.3831302    826.65217  0.018114037  0.017338524           20 
 3804000   0.63963727   -7.3895992    828.96958  0.018160042   0.01733318           20 
 3805000    0.6544079   -7.3705423     828.0512  0.018135155  0.017327834           64 
 3806000   0.64367191    -7.366393    827.71629  0.018123058  0.017322491           25 
 3807000   0.65241872   -7.3665684    827.33619  0.018109977  0.017317141           54 
 3808000   0.63579438   -7.3866152    827.27115  0.018103798  0.017311808           54 
 3809000   0.63841898   -7.3804637    827.46014   0.01810318  0.017306467           36 
 3810000   0.64678227   -7.3899386     825.7151   0.01806026  0.017301115           51 
 3811000   0.64384351   -7.3881184    828.63419  0.018119352  0.017295772           40 
 3812000   0.63913919   -7.3676672    826.57361  0.018069552  0.017290424           37 
 3813000   0.64602599   -7.3934852    827.65562  0.018088461  0.017285084           38 
 3814000   0.65156337   -7.3912024    828.43299  0.018100703  0.017279741           71 
 3815000   0.63985144   -7.3837817    827.55142  0.018076702  0.017274405           35 
 3816000   0.65419765   -7.3763216    828.12614  0.018084516  0.017269068           34 
 3817000   0.65388084   -7.3729709    827.57949  0.018067843  0.017263737           37 
 3818000   0.64960907   -7.3916008    827.70037  0.018065749  0.017258401           33 
 3819000   0.64370729   -7.4091968    827.77931  0.018062741  0.017253065           67 
 3820000   0.64600021   -7.3810099    827.12084  0.018043648  0.017247736           33 
 3821000   0.64087366   -7.3893703    828.86196  0.018076899  0.017242408           31 
 3822000   0.63915368   -7.4099638     827.8605  0.018050334   0.01723709           91 
 3823000   0.64860452   -7.3775632    826.37936  0.018013326  0.017231769           57 
 3824000   0.64048742   -7.3980353    827.26544  0.018027925  0.017226439           41 
 3825000   0.65019478   -7.3823089     826.8011  0.018013096  0.017221114           37 
 3826000   0.64033081   -7.3868089    829.03137  0.018056965  0.017215789           51 
 3827000   0.63496643   -7.3863564    828.69941  0.018045018  0.017210469           51 
 3828000   0.63675433   -7.3912407     827.7502   0.01801964  0.017205151           91 
 3829000    0.6208849   -7.3859414    826.53414  0.017988468  0.017199831           43 
 3830000   0.63717963   -7.4123415    827.98944  0.018015436  0.017194503           54 
 3831000   0.64009748   -7.3897687     827.0093  0.017989413  0.017189183           49 
 3832000   0.63984902   -7.3880241    826.08532  0.017964625   0.01718386           67 
 3833000   0.63689043   -7.3874771    827.35805  0.017987609  0.017178544           59 
 3834000   0.64491586   -7.3907292     826.5331  0.017964987  0.017173226           64 
 3835000   0.63920295   -7.4175628    827.69137  0.017985471  0.017167911           63 
 3836000   0.63931371   -7.4024445    825.91271  0.017942143  0.017162607           51 
 3837000   0.63158065   -7.3895834    827.24115  0.017966318   0.01715731           55 
 3838000   0.63071159   -7.3946675    826.13473  0.017937614  0.017151991           63 
 3839000   0.63882798   -7.3985259    827.36836  0.017959719  0.017146686           52 
 3840000   0.63806863   -7.3900169    827.60269  0.017960128  0.017141393           47 
 3841000    0.6309552   -7.3574413    826.60079  0.017933715   0.01713609           68 
 3842000   0.64696923    -7.387614    827.10827  0.017940054  0.017130795           52 
 3843000   0.64193789    -7.388119    827.32116  0.017940003  0.017125509           56 
 3844000     0.644807   -7.3939143    827.72558  0.017944103  0.017120218           48 
 3845000   0.63439429   -7.3812666    827.05572  0.017924918  0.017114926           52 
 3846000   0.62291032   -7.4106896    827.60162  0.017932086  0.017109623           76 
 3847000   0.63087753   -7.3822003    828.43928   0.01794557  0.017104324           83 
 3848000   0.62850035   -7.4144063    827.59884  0.017922705  0.017099025           66 
 3849000   0.63237087    -7.398548    827.21083  0.017909648   0.01709373           47 
 3850000   0.64620852   -7.3863858    827.98861  0.017921831  0.017088433           58 
 3851000   0.63103473   -7.4078677    828.21761  0.017922133  0.017083142           89 
 3852000   0.63032173   -7.3903534    827.48802  0.017901697  0.017077841           90 
 3853000   0.64637646   -7.4000119    827.97638  0.017907613  0.017072551           88 
 3854000   0.62835583   -7.4187982    827.69899  0.017896968  0.017067266           91 
 3855000   0.63371993   -7.3851086    829.14479  0.017923579  0.017061988           37 
 3856000   0.63465771   -7.3867435    828.11654   0.01789671  0.017056704           29 
 3857000   0.62249123   -7.4062222    829.48649  0.017921668  0.017051427           36 
 3858000   0.64128641   -7.3967587    828.35852  0.017892659  0.017046137           24 
 3859000   0.63184714   -7.3910218    829.61036  0.017915055  0.017040858           22 
 3860000   0.62539513   -7.3867319    828.10301  0.017877871  0.017035575           43 
 3861000   0.63731451   -7.3921385    827.81234  0.017866968  0.017030305           35 
 3862000   0.64200419   -7.4163092    827.08561   0.01784666  0.017025025           66 
 3863000   0.64323973   -7.4055868    827.31799  0.017847053  0.017019745           38 
 3864000   0.63663014   -7.3980187     828.3822  0.017865386  0.017014467           61 
 3865000   0.64535233   -7.4199995    827.56405  0.017843123  0.017009187           57 
 3866000   0.62800586   -7.3911864     826.5261  0.017816134  0.017003916           66 
 3867000   0.64382963   -7.3910778     827.0306  0.017822399  0.016998653          103 
 3868000   0.64144248   -7.4023167    828.44769  0.017848322  0.016993381           75 
 3869000   0.63682906   -7.4323136    827.86232    0.0178311  0.016988105           79 
 3870000   0.63392984   -7.4252517    829.15437  0.017854315   0.01698284           61 
 3871000   0.63063116   -7.4037283    828.28189   0.01783092  0.016977571           62 
 3872000   0.62755028    -7.405207    826.68601  0.017791968  0.016972307           66 
 3873000   0.62455779   -7.4105001    828.40154  0.017824287  0.016967056           47 
 3874000   0.67046749   -7.4033099    827.79746  0.017806691  0.016961805           48 
 3875000   0.63674816    -7.416004    829.59549  0.017840763  0.016956551           30 
 3876000   0.62707754    -7.423951    828.67031  0.017816269  0.016951296          107 
 3877000   0.63449514   -7.3989152    827.84629  0.017793962  0.016946045           74 
 3878000   0.62545467   -7.4052755     827.8599  0.017789666    0.0169408           47 
 3879000    0.6235234   -7.4024346    828.83453  0.017806018  0.016935555           34 
 3880000    0.6298983   -7.4318739    827.82697  0.017779789   0.01693031           56 
 3881000   0.64202107   -7.4113063    827.22279  0.017762235  0.016925067           54 
 3882000   0.64134521   -7.4158353    829.07516  0.017797423  0.016919838           30 
 3883000   0.63317996   -7.4087394    828.68233  0.017784409  0.016914604           88 
 3884000   0.64362778    -7.415367    828.73959  0.017781059  0.016909373          109 
 3885000   0.62587018   -7.3945891    828.33508  0.017767805  0.016904146           60 
 3886000   0.63177046   -7.4061718    827.88778  0.017753641  0.016898906           41 
 3887000   0.63124623   -7.3966709    828.33247  0.017758607  0.016893667           31 
 3888000   0.64012681   -7.4286821    828.28372  0.017752995  0.016888424           42 
 3889000    0.6280324   -7.4131748    827.21449  0.017725518  0.016883181           63 
 3890000   0.61018787   -7.4356986    827.01834   0.01771676  0.016877924           57 
 3891000   0.62193138   -7.4305369    826.23529  0.017695436   0.01687267           36 
 3892000   0.62352899   -7.4213093    828.38693  0.017736959  0.016867424           36 
 3893000   0.62769172   -7.4213126    828.27255  0.017729954   0.01686218           56 
 3894000   0.64876839   -7.4057625     829.1933  0.017745106  0.016856943           71 
 3895000   0.61416106   -7.4080121    829.03399  0.017737141  0.016851723           62 
 3896000   0.63747996   -7.4151532    827.00386  0.017689165  0.016846497           40 
 3897000   0.62245952   -7.4220024    827.14524   0.01768765  0.016841259           67 
 3898000     0.629164   -7.4137637    826.76386  0.017674959  0.016836034           58 
 3899000   0.63543158   -7.4106095    826.31966  0.017660931  0.016830798           68 
 3900000   0.64197406   -7.4108107    829.00491   0.01771378   0.01682557           43 
 3901000   0.62842451   -7.3974218    826.05891  0.017646307  0.016820347           54 
 3902000   0.63308614   -7.4185169    827.82563  0.017679515  0.016815121           43 
 3903000   0.62734978   -7.4261519    829.27859  0.017706008  0.016809889           56 
 3904000   0.63988018   -7.4425365    827.90165  0.017672081  0.016804658           75 
 3905000   0.63189886   -7.3926326    828.06162  0.017670969  0.016799436           44 
 3906000    0.6330934   -7.4371245    827.59732  0.017656539  0.016794216           72 
 3907000   0.62223479   -7.4039299    827.65118  0.017653169  0.016788995           59 
 3908000   0.63226767   -7.4273968    828.47322  0.017666181  0.016783774           50 
 3909000   0.61283305   -7.4305312    828.35679   0.01765918  0.016778548           49 
 3910000   0.62013445   -7.3940661    829.08996  0.017670289  0.016773334           61 
 3911000   0.62910197   -7.4315163    828.35214   0.01765005  0.016768115           63 
 3912000    0.6290678   -7.4397834    826.34393  0.017602759  0.016762882           42 
 3913000     0.634371   -7.4224707    827.95996  0.017632677  0.016757659           41 
 3914000   0.63224327   -7.4273495    827.18534  0.017611679   0.01675244           47 
 3915000   0.61992992   -7.4157912    827.93667  0.017623173  0.016747216          102 
 3916000   0.61724255   -7.4311431    828.27568  0.017625887  0.016741997           64 
 3917000   0.61081812   -7.4183253    827.95918  0.017614654  0.016736791           98 
 3918000   0.61456685   -7.4224349    826.98767  0.017589494  0.016731581           80 
 3919000   0.62117679   -7.4224217    826.72391  0.017579398  0.016726361           83 
 3920000   0.61155186   -7.4354868    826.98136  0.017580386  0.016721156           63 
 3921000   0.60974016   -7.4061587    828.23827  0.017602616  0.016715947           98 
 3922000   0.63196348    -7.430122    825.92329   0.01754894  0.016710734           41 
 3923000   0.62159102   -7.4467085    825.58803  0.017537344  0.016705511           51 
 3924000   0.63927909   -7.4336998     827.4698  0.017572838  0.016700302           64 
 3925000   0.62262121   -7.4701185    827.27647  0.017564256  0.016695094           52 
 3926000   0.62719019   -7.4357687    826.85004  0.017550731  0.016689886          110 
 3927000   0.62482659   -7.4425804    826.51157  0.017539079  0.016684671           57 
 3928000   0.63528438   -7.4251555    827.47406  0.017555034  0.016679458          126 
 3929000   0.62901851   -7.4389226    827.29724  0.017546815  0.016674244          156 
 3930000   0.62889396   -7.4004232    825.80445  0.017510697  0.016669044          111 
 3931000   0.62432608   -7.4399194    827.58875  0.017544067  0.016663846           55 
 3932000    0.6264743    -7.425282     827.3564  0.017534681  0.016658639          137 
 3933000   0.61400368   -7.4161364    829.26727  0.017570711  0.016653449           62 
 3934000   0.61535586   -7.4267267    828.29807  0.017545714  0.016648258          167 
 3935000   0.61899881   -7.4287671    828.24512  0.017540134  0.016643065          132 
 3936000   0.61484157   -7.4455759    827.23992  0.017514395  0.016637874          102 
 3937000   0.61736074   -7.4236512    827.25566   0.01751028  0.016632693           49 
 3938000    0.6187451   -7.4293171     829.2432  0.017547892   0.01662752           49 
 3939000   0.60578661   -7.4104167    828.81987  0.017534481  0.016622343          105 
 3940000   0.61431639   -7.4304163    827.79816  0.017508421   0.01661716          108 
 3941000   0.63413641   -7.4102146    828.12822  0.017510958  0.016611985           66 
 3942000   0.62976248   -7.4133918    827.81481   0.01749989  0.016606814           64 
 3943000   0.63428096   -7.4182973    830.04415  0.017542568  0.016601656           59 
 3944000   0.61837169   -7.4013599    828.38706  0.017503107  0.016596504           56 
 3945000   0.60323139   -7.4136966    827.87734  0.017487903  0.016591352           51 
 3946000   0.61752237   -7.4095013    828.36976  0.017493871  0.016586212           54 
 3947000   0.62203607   -7.4413064    829.24135   0.01750784  0.016581063           54 
 3948000   0.61023704   -7.4432177    827.19204  0.017460149  0.016575901          139 
 3949000   0.62798655   -7.4128002    828.31766  0.017479481  0.016570743           85 
 3950000   0.60662412   -7.4053891    827.70296  0.017462088  0.016565593           67 
 3951000   0.61263891   -7.4326272     826.8975   0.01744068  0.016560432          132 
 3952000   0.62710347   -7.4320231    826.51761  0.017428256  0.016555269           62 
 3953000   0.61447888   -7.4371993    826.83824  0.017430606  0.016550115           66 
 3954000   0.61539281   -7.4399083    826.57164  0.017420579  0.016544952           61 
 3955000   0.62445081    -7.458695    826.80053  0.017420997   0.01653979           63 
 3956000   0.61283444    -7.435107    828.07844  0.017443513  0.016534632           66 
 3957000    0.6060151   -7.4156889    827.13634  0.017419264  0.016529477           92 
 3958000   0.62054849   -7.4167883    825.77282  0.017386155  0.016524318          146 
 3959000   0.62193858   -7.4341581    827.96589  0.017427926   0.01651916          101 
 3960000   0.61644776   -7.4267687    826.99812  0.017403159  0.016514004          115 
 3961000   0.61797576   -7.4165889    826.08441  0.017379542  0.016508851           85 
 3962000   0.60671002   -7.4302927    827.21865  0.017399013  0.016503701          135 
 3963000   0.62585785   -7.4485106    827.19163  0.017394054  0.016498536           87 
 3964000   0.61519987   -7.4417056    825.72348  0.017358802  0.016493388           71 
 3965000   0.60454398     -7.41446    827.79613  0.017397985  0.016488223           70 
 3966000   0.62659905    -7.453351    827.20359  0.017381148  0.016483067           93 
 3967000   0.60648632   -7.4314326    825.99265  0.017351329  0.016477916           89 
 3968000   0.62117694   -7.4343501    826.23007  0.017351942  0.016472772          116 
 3969000   0.62352139   -7.4341911    827.23188  0.017368604   0.01646763           53 
 3970000    0.6235758   -7.4154837    825.97491  0.017337845  0.016462494          107 
 3971000   0.61800673   -7.4200042    827.69064  0.017369484   0.01645736           82 
 3972000   0.61824484   -7.4373163    826.98951  0.017350401  0.016452231          101 
 3973000   0.60356175   -7.4485779    826.96583  0.017345537  0.016447103           79 
 3974000   0.60965406   -7.4193123    828.75411  0.017378672  0.016441977          100 
 3975000   0.62312343   -7.4176601    828.81561  0.017375589  0.016436852           64 
 3976000   0.61508178   -7.4264568    826.80957  0.017329174  0.016431724           92 
 3977000   0.61867147   -7.4217895    826.95925  0.017327953  0.016426603          122 
 3978000   0.61637051    -7.454607    827.95773  0.017344514  0.016421475          111 
 3979000   0.62192908   -7.4528186    826.70013  0.017313817  0.016416352          106 
 3980000   0.61914154   -7.4497345     826.5017  0.017305312  0.016411222          160 
 3981000   0.59634283    -7.439776    827.65448  0.017325096  0.016406104           91 
 3982000   0.61130694   -7.4334936     827.8177  0.017324161  0.016400979           72 
 3983000   0.62108019    -7.443781    826.81275  0.017298785  0.016395853           94 
 3984000   0.60928616    -7.457023    826.62829  0.017290585  0.016390721           79 
 3985000   0.61746102   -7.4558452    827.20854   0.01729838  0.016385584          117 
 3986000   0.62358091   -7.4418615     826.4654  0.017278504  0.016380457           87 
 3987000   0.60093149   -7.4369939    827.31423  0.017291912  0.016375342           96 
 3988000   0.62920117   -7.4267835    826.67705  0.017274261  0.016370227          101 
 3989000     0.606125   -7.4381203    828.76782  0.017313609  0.016365121          109 
 3990000   0.61318987    -7.442009    828.10597  0.017295446  0.016359997           83 
 3991000   0.59945614   -7.4650832    827.26591  0.017273572  0.016354885           97 
 3992000   0.62174887   -7.4556769    828.12824  0.017287246  0.016349776          120 
 3993000   0.62071118   -7.4508997    827.14571  0.017262412  0.016344664          114 
 3994000   0.60919691   -7.4413601    825.72097  0.017228363  0.016339544          141 
 3995000   0.62036404   -7.4386835    827.70377   0.01726541  0.016334427          112 
 3996000   0.61718878    -7.462475    828.10526  0.017269462  0.016329313           99 
 3997000   0.62628831    -7.451239    826.74155   0.01723671  0.016324202          111 
 3998000   0.60929718   -7.4383505    827.94511  0.017257485  0.016319093          104 
 3999000   0.62069221    -7.434975    826.92905  0.017231997  0.016313995          103 
 4000000   0.60355381   -7.4414822    827.58567  0.017241368  0.016308894           81 
 4001000   0.61685297   -7.4654179    827.50469  0.017235372  0.016303797           92 
 4002000   0.61440806    -7.441803    826.56299  0.017211457  0.016298702           90 
 4003000   0.63142096   -7.4552145    827.05882  0.017217479  0.016293619          124 
 4004000   0.62104561   -7.4480991    827.86988  0.017230059  0.016288539           87 
 4005000   0.61741931   -7.4362675    828.90478  0.017247291  0.016283457           98 
 4006000    0.6129873   -7.4575337    828.36175  0.017231689   0.01627837          102 
 4007000    0.6137489   -7.4525943    826.68811  0.017192582  0.016273291           94 
 4008000   0.60884273   -7.4734267    826.65301  0.017187563  0.016268207           81 
 4009000   0.60075927   -7.4425903    826.13399  0.017172487  0.016263127          112 
 4010000   0.60791449   -7.4361376    826.94341  0.017185025  0.016258044           90 
 4011000   0.60736587   -7.4715963    827.09678  0.017183927  0.016252966           85 
 4012000    0.6059304   -7.4579943    828.09778  0.017200436  0.016247895          114 
 4013000   0.61959173   -7.4510542    827.52232    0.0171842  0.016242826          100 
 4014000   0.60334919   -7.4444372    827.66615  0.017182905  0.016237759          117 
 4015000   0.60837218   -7.4242218    827.19666  0.017168881  0.016232691          155 
 4016000   0.61656276    -7.447852    827.28512  0.017166441  0.016227619          103 
 4017000   0.60747681    -7.451539    827.59026  0.017168498  0.016222558           97 
 4018000   0.60799549   -7.4283218    825.93311  0.017129856  0.016217493           96 
 4019000   0.59511602   -7.4334802    826.93902  0.017146451  0.016212425          140 
 4020000   0.60491139    -7.458481    827.64002  0.017156717  0.016207361          134 
 4021000   0.59406781   -7.4580791    826.69047  0.017132771  0.016202289          124 
 4022000   0.61931567   -7.4534011    827.72724  0.017149993   0.01619722          165 
 4023000   0.60540927    -7.433136    827.62684   0.01714365  0.016192164          143 
 4024000   0.61086871   -7.4498197    827.79312  0.017142833  0.016187099          146 
 4025000   0.62360987   -7.4308451    826.53985  0.017112626   0.01618204          123 
 4026000   0.61182219   -7.4558702     826.8899  0.017115621  0.016176983          108 
 4027000   0.60842358    -7.452566    826.82025   0.01710993  0.016171928          161 
 4028000   0.61257517   -7.4401514    825.82134  0.017085016  0.016166875          158 
 4029000   0.61111774    -7.444544    827.86903  0.017123129  0.016161823          139 
 4030000   0.61128649   -7.4307272    827.64764  0.017114302  0.016156783          122 
 4031000    0.6018853   -7.4537272    827.29696  0.017102807  0.016151738          191 
 4032000   0.59837697   -7.4614501    827.14404  0.017095404  0.016146699          133 
 4033000   0.61065116   -7.4399537    828.29856  0.017115021  0.016141666          100 
 4034000   0.62356313   -7.4413653    828.28156  0.017110427  0.016136641          169 
 4035000   0.59817436   -7.4342799    825.90621  0.017057129  0.016131619          188 
 4036000   0.60174239    -7.445053    828.17532  0.017099755  0.016126594          194 
 4037000   0.60619891   -7.4624205    826.82722  0.017067691  0.016121558          145 
 4038000   0.61115896   -7.4682921    830.09004    0.0171308  0.016116524          164 
 4039000   0.60297836   -7.4822938     826.3601  0.017049602  0.016111484          152 
 4040000   0.59332246   -7.4583464    827.86738  0.017076472  0.016106434          197 
 4041000   0.60913405   -7.4659147    826.50688   0.01704419  0.016101406          198 
 4042000   0.60728646   -7.4520638    827.87293  0.017068137  0.016096373          180 
 4043000   0.60945186   -7.4496628    827.67541  0.017059844   0.01609135          165 
 4044000   0.60482612    -7.469009    827.94114  0.017061102  0.016086329          141 
 4045000   0.61411403   -7.4536031    828.84975  0.017075602  0.016081313          148 
 4046000   0.59448006   -7.4648683    827.86261  0.017051051  0.016076298          161 
 4047000    0.5977851   -7.4626137    827.28482   0.01703494  0.016071279          114 
 4048000   0.60316275    -7.464978    826.95485  0.017023939  0.016066253          109 
 4049000   0.60196343   -7.4735548    827.00362  0.017020738  0.016061234          165 
 4050000   0.61662414   -7.4530742    827.98251  0.017036677   0.01605621          145 
 4051000   0.60479029   -7.4627086    828.54947  0.017044135   0.01605119          129 
 4052000   0.60553122   -7.4549278      829.426  0.017057955  0.016046174          172 
 4053000   0.60069694   -7.4577793    826.64666    0.0169966   0.01604117          146 
 4054000   0.58526274   -7.4676199    827.82073  0.017016542  0.016036156          162 
 4055000   0.59056606   -7.4657218    827.38756  0.017003443  0.016031139          136 
 4056000   0.60752949   -7.4627133    827.69047  0.017005475  0.016026122          128 
 4057000   0.59702977   -7.4437736    827.65342  0.017000522  0.016021113          258 
 4058000   0.59433113   -7.4848897    826.54326  0.016973535  0.016016101          216 
 4059000   0.59392861   -7.4694869    828.28066  0.017005023  0.016011087          277 
 4060000   0.61019751   -7.4663272    827.29285  0.016980559  0.016006075          243 
 4061000   0.60739416   -7.4743565    827.40649   0.01697871  0.016001058          286 
 4062000   0.59984298   -7.4529214    826.47029  0.016955323  0.015996047          158 
 4063000   0.60197385   -7.4606651    826.37714   0.01694924  0.015991034          246 
 4064000   0.61160858   -7.4874011    827.34872  0.016964992  0.015986037          220 
 4065000   0.60151246   -7.4701929    825.84441   0.01692998  0.015981038          250 
 4066000   0.60078252   -7.4559619    826.72012  0.016943764  0.015976035          228 
 4067000   0.60089147   -7.4424892    826.84796  0.016942217  0.015971046          219 
 4068000   0.60328596   -7.4520475    826.77673  0.016936593   0.01596605          257 
 4069000   0.58963114   -7.4631646    828.49202   0.01696756  0.015961058          247 
 4070000   0.60710919   -7.4790742    827.13035  0.016935511  0.015956058          119 
 4071000   0.59280452   -7.4690461    826.94355  0.016927527  0.015951064          222 
 4072000   0.60985054   -7.4629338    825.13166   0.01688629  0.015946064          226 
 4073000   0.59477352   -7.4881053    827.02215  0.016920823  0.015941062          249 
 4074000    0.5960213   -7.4651049    827.52859  0.016927029  0.015936068          232 
 4075000   0.59587763   -7.4699263    826.95626  0.016911171  0.015931074          113 
 4076000   0.59349165   -7.4581708    828.09572  0.016930318  0.015926087          182 
 4077000   0.59697929   -7.4690029    827.44146  0.016912793  0.015921105          161 
 4078000   0.59944445   -7.4667357    825.86328  0.016876395  0.015916119          179 
 4079000   0.59716425   -7.4675955    827.11704  0.016897872  0.015911139          200 
 4080000    0.5977896   -7.4751318    827.10292  0.016893442  0.015906154          191 
 4081000   0.60468227   -7.4810352    826.09372  0.016868695  0.015901168          188 
 4082000   0.59297856   -7.4734909    827.45442  0.016892341  0.015896182          184 
 4083000   0.60761884   -7.4725434    827.44908  0.016888094  0.015891202          115 
 4084000   0.58816793   -7.4700561    825.24387  0.016838962  0.015886224           94 
 4085000   0.60898127   -7.4865241    825.15455  0.016833018  0.015881239          223 
 4086000   0.59886828   -7.4725075    827.53795  0.016877508  0.015876252          154 
 4087000   0.58686242   -7.4763092    825.66524  0.016835194  0.015871272           87 
 4088000   0.60323115   -7.5094914    825.96791  0.016837245  0.015866284          278 
 4089000   0.60239052   -7.4845408    825.71686  0.016828011  0.015861302          201 
 4090000   0.59708998   -7.4744401    827.94932  0.016869383  0.015856313          280 
 4091000   0.59926373    -7.473789    826.34846   0.01683265  0.015851337          105 
 4092000   0.60807886   -7.4918844    826.80015  0.016837735   0.01584635          164 
 4093000   0.59220361   -7.4913635    825.94731  0.016816258  0.015841366          213 
 4094000    0.6005398   -7.4841815    826.50048   0.01682341  0.015836384          178 
 4095000   0.61487219   -7.5015936    826.88913  0.016827211  0.015831412          179 
 4096000   0.58927002   -7.4832599    825.56892  0.016796243  0.015826438          145 
 4097000   0.60706283   -7.4988309    825.44289   0.01678958  0.015821454          145 
 4098000   0.58989664     -7.51873     827.0061  0.016817271  0.015816472           96 
 4099000   0.60413662   -7.5081777    826.00215  0.016792757  0.015811495           81 
 4100000    0.5925003   -7.4861093     825.4866  0.016778183  0.015806516          129 
 4101000   0.60172143   -7.4886674    826.74713  0.016799706  0.015801549           79 
 4102000   0.59857955   -7.5116467    827.68503  0.016814664   0.01579658          234 
 4103000   0.58731544   -7.4893959    828.43714  0.016825842  0.015791614          116 
 4104000   0.59604646   -7.4673067    826.38857  0.016780145  0.015786652           65 
 4105000   0.59765501   -7.4960094    826.49621  0.016778242  0.015781692          175 
 4106000   0.60360202   -7.5006068    825.88052   0.01676166  0.015776737           84 
 4107000   0.59558206   -7.5019954    826.46076  0.016769352  0.015771776          186 
 4108000   0.58354122   -7.5025641    826.42068  0.016764457  0.015766814          141 
 4109000   0.59951751   -7.4889742    826.53522    0.0167627  0.015761856           87 
 4110000   0.59932326   -7.5050099    826.08311  0.016749455  0.015756905          236 
 4111000   0.59467414   -7.4888254    826.45731  0.016752966  0.015751954          180 
 4112000   0.60584937   -7.5261069    827.15028  0.016762935  0.015747006          204 
 4113000   0.58273298   -7.4876698    827.04152  0.016756656  0.015742065          220 
 4114000    0.6040131   -7.4901317    827.10115  0.016753791  0.015737122          241 
 4115000   0.58692169   -7.5011968    826.25525  0.016732589  0.015732176          244 
 4116000   0.59468077   -7.5071083    827.38991  0.016751496   0.01572724           86 
 4117000    0.6025338   -7.4914413    827.17552  0.016743088  0.015722304          178 
 4118000   0.59462508   -7.4873635    827.08678  0.016737226  0.015717363          207 
 4119000   0.60314626   -7.4817678    827.07431  0.016732911  0.015712428          220 
 4120000   0.58778465   -7.5045581    828.62163  0.016760146  0.015707495          199 
 4121000   0.58736899   -7.4891796    825.76591  0.016698332  0.015702571          113 
 4122000   0.59404919    -7.494787    825.34359  0.016685743  0.015697644          192 
 4123000   0.58487235   -7.4887914    825.93928  0.016693736  0.015692721          216 
 4124000   0.59371744   -7.4865461    827.59589  0.016723163  0.015687796          186 
 4125000   0.60098536   -7.5058893    827.43772  0.016715914  0.015682873          192 
 4126000   0.58363666   -7.5081808    826.53127  0.016693554  0.015677945          101 
 4127000   0.58792985   -7.4963599    825.61607   0.01667103  0.015673022          116 
 4128000   0.58754399   -7.4983791    826.42179  0.016683256  0.015668102          186 
 4129000   0.58526011   -7.4812646    825.39545  0.016658502   0.01566318          204 
 4130000    0.5786033   -7.4976429    826.52905  0.016677342  0.015658263          184 
 4131000   0.59306792   -7.5144293    825.97589  0.016662146  0.015653347          235 
 4132000   0.59530501   -7.5046289    825.79213  0.016654407  0.015648429          196 
 4133000   0.60535712    -7.470936    825.38565  0.016642182  0.015643521          100 
 4134000   0.59077672   -7.4907159    825.27166  0.016635858  0.015638615          125 
 4135000   0.60528157   -7.4920481    826.17412  0.016650023  0.015633708          193 
 4136000   0.58642195   -7.5135142    825.72795  0.016637007  0.015628796          190 
 4137000   0.59993741   -7.5083179    824.91793  0.016616669  0.015623882          180 
 4138000   0.59550144   -7.4979959    826.62133  0.016646958  0.015618969           90 
 4139000   0.58968274   -7.5193522    825.71946  0.016624778   0.01561406          147 
 4140000   0.59211072   -7.4881644     825.1846  0.016609996  0.015609147          119 
 4141000   0.58759874    -7.494094    825.36345  0.016609584  0.015604233           95 
 4142000   0.60378461    -7.500585    826.37432  0.016625912  0.015599337          110 
 4143000   0.58954197   -7.4924653    827.40993  0.016642729  0.015594437          196 
 4144000   0.57815866   -7.4901799    826.38069  0.016618016   0.01558953          196 
 4145000   0.58474882   -7.5176158    825.63949  0.016599105  0.015584623          212 
 4146000    0.5873628   -7.5025103    825.89022  0.016600141  0.015579712          189 
 4147000    0.5925042   -7.4939775    825.29928  0.016584263  0.015574809          263 
 4148000   0.58380664   -7.4998399    825.66217  0.016587556  0.015569907          169 
 4149000   0.58489418    -7.500399    824.74389  0.016565114  0.015565004          231 
 4150000   0.59111509   -7.5089436    825.84781  0.016583289  0.015560111          183 
 4151000   0.58402643   -7.4949051    827.58862  0.016614242   0.01555522          200 
 4152000   0.59312848    -7.500097    825.74865  0.016573311  0.015550335          252 
 4153000   0.58352375   -7.5023086    825.27234  0.016559763   0.01554545          209 
 4154000   0.58065075   -7.5011727     827.5274  0.016601015  0.015540569          142 
 4155000   0.59864255   -7.5016204    826.34507  0.016573307  0.015535681          267 
 4156000    0.5885528   -7.5094664    826.11293  0.016564664  0.015530797          243 
 4157000   0.59001967    -7.496903    827.23465  0.016583166  0.015525909          111 
 4158000   0.57711644   -7.4974462    825.80229  0.016550471  0.015521023          163 
 4159000   0.58312836   -7.5167368    826.06411  0.016551737  0.015516141          126 
 4160000   0.58451099   -7.4891576    826.77289  0.016561957  0.015511254          135 
 4161000   0.57188025   -7.4951078    825.50941  0.016532673  0.015506379          223 
 4162000   0.59474852    -7.486556    826.55745  0.016549685  0.015501497          141 
 4163000   0.59243501   -7.4946873    825.26584  0.016519854  0.015496618          127 
 4164000   0.57656758   -7.4992466    824.95666  0.016509699  0.015491734          277 
 4165000   0.58150318   -7.4945732    825.32627  0.016513131  0.015486856          340 
 4166000   0.59168206   -7.5221718    825.75829  0.016517809  0.015481981          189 
 4167000   0.58297471   -7.5130188    826.54944  0.016529667    0.0154771          364 
 4168000    0.5895017   -7.4954777    827.22803  0.016539268  0.015472225          343 
 4169000   0.56385232   -7.5081187    824.45907  0.016479953  0.015467346          394 
 4170000   0.58476702   -7.4915315    826.20779  0.016510947  0.015462474          271 
 4171000   0.59534924   -7.5039695    826.05295  0.016503895  0.015457612          442 
 4172000   0.58809265   -7.5007711    827.03847  0.016519624  0.015452752          251 
 4173000   0.58180518   -7.5186013    825.24939  0.016479938  0.015447892          259 
 4174000    0.5803103   -7.5187122    826.85158  0.016507978  0.015443025          134 
 4175000   0.58588649   -7.5297465    824.67625  0.016460604  0.015438162          240 
 4176000   0.59754318   -7.5098409     825.8251  0.016479588  0.015433293          216 
 4177000   0.58726309   -7.5200898    827.11791  0.016501435  0.015428432          352 
 4178000   0.57591952   -7.4912159    825.28509  0.016460928  0.015423568          187 
 4179000   0.58516996   -7.5183358    826.19761  0.016475186  0.015418707          253 
 4180000   0.58481203   -7.5306485    827.30366  0.016493295  0.015413844          271 
 4181000   0.59017641   -7.5168605    826.08067  0.016464974  0.015408981          323 
 4182000   0.59074804   -7.5205763    825.12111  0.016441916   0.01540412          229 
 4183000   0.59216521   -7.5373053    824.81443  0.016431876   0.01539926          241 
 4184000   0.57073857   -7.5214202    824.30957  0.016417893  0.015394403          345 
 4185000   0.57611322   -7.5083461    825.68955  0.016441449  0.015389541          397 
 4186000    0.5729959   -7.5269491    826.41489  0.016451961  0.015384688          152 
 4187000   0.57925132   -7.5368625    826.71954  0.016454095  0.015379835          360 
 4188000   0.58211893   -7.5306535    826.29166  0.016441652  0.015374988          318 
 4189000   0.58440795   -7.5165169    826.19618  0.016435827  0.015370139          189 
 4190000   0.57532035   -7.5089212    825.89245  0.016425864  0.015365288          196 
 4191000   0.56828563    -7.521717    825.53674  0.016414872  0.015360438          234 
 4192000   0.58055134   -7.5285891    825.16233  0.016403513  0.015355584          246 
 4193000   0.58323795   -7.5078566    824.63743  0.016389169  0.015350732          333 
 4194000   0.57714092   -7.5292889    824.14508  0.016375479  0.015345885          253 
 4195000   0.58562202   -7.5160598    825.68961  0.016402257  0.015341037          188 
 4196000   0.57453762   -7.5140023    825.88503  0.016402229  0.015336196          251 
 4197000   0.57160251   -7.5283935    825.54698  0.016391609  0.015331351          154 
 4198000   0.59011629   -7.5267551    824.67801  0.016370454  0.015326506          233 
 4199000   0.59017958   -7.5403324    825.08643  0.016374661  0.015321664          350 
 4200000   0.57907688   -7.5338152    825.14857  0.016371995  0.015316824          138 
 4201000   0.57638659    -7.528942    824.73901  0.016359974  0.015311984          230 
 4202000   0.57878949    -7.515808    823.97878  0.016341004   0.01530715          382 
 4203000   0.58413586   -7.5160298     826.1005  0.016379183  0.015302316          255 
 4204000   0.57898268   -7.5243794    826.73456  0.016387856  0.015297488          212 
 4205000   0.58656871   -7.5148683    825.43171  0.016358139  0.015292657          210 
 4206000   0.58300836   -7.5272685    825.98994   0.01636531   0.01528783          238 
 4207000   0.58165328   -7.5218942    824.72686  0.016336401  0.015283007          161 
 4208000   0.57519353   -7.5126716    824.81109  0.016334187  0.015278182          291 
 4209000    0.5808061    -7.519474     826.2926  0.016359638  0.015273372          164 
 4210000   0.57852894   -7.5333706    825.25551  0.016335224  0.015268558          300 
 4211000   0.57467216   -7.5222681    826.21115  0.016350256  0.015263754          111 
 4212000   0.57693421   -7.5131998    825.58052  0.016333898  0.015258943          201 
 4213000   0.57535405   -7.5258764    826.23452  0.016342957  0.015254138          161 
 4214000   0.58407101   -7.5187753    824.53634  0.016305496  0.015249324          197 
 4215000   0.57116742   -7.5176811    824.90741  0.016308964  0.015244513          275 
 4216000   0.57410774   -7.5445487    825.51241  0.016317054  0.015239699          247 
 4217000   0.57382801    -7.530843    825.37957   0.01631056   0.01523489          209 
 4218000   0.58211689   -7.5231099    825.60671   0.01631118  0.015230081          179 
 4219000   0.57894217   -7.5176043    826.00222  0.016315126  0.015225275          212 
 4220000   0.57990907   -7.5124877    826.67474  0.016324541  0.015220471          216 
 4221000   0.57845998   -7.5281851    824.09061  0.016269656   0.01521567          179 
 4222000   0.58930675   -7.5160638    825.44802  0.016292595  0.015210864          188 
 4223000   0.56387027   -7.5218991    825.31864  0.016286184  0.015206066          177 
 4224000   0.58322316   -7.5237694    825.25222  0.016281018  0.015201277          224 
 4225000   0.56863345   -7.5508188    826.28785  0.016297591  0.015196481          296 
 4226000   0.57690968   -7.5444146    824.87982  0.016265969  0.015191686          267 
 4227000   0.57815978   -7.5313435    825.23879  0.016269198  0.015186894          197 
 4228000   0.56518395   -7.5226158    824.73776  0.016255475  0.015182111          203 
 4229000   0.58105214   -7.5402706    825.02399  0.016257271  0.015177314          271 
 4230000   0.56294496   -7.5243723    825.56037  0.016263995   0.01517252          157 
 4231000   0.56607518   -7.5429304    823.69022  0.016223316  0.015167724          163 
 4232000   0.56035348   -7.5352969    825.45587  0.016254251  0.015162932          192 
 4233000   0.56759065   -7.5224598    826.06816  0.016262465   0.01515814          200 
 4234000   0.57537106   -7.5281527    824.83006  0.016234256  0.015153352          208 
 4235000   0.58808376   -7.5178309    824.94753  0.016232734  0.015148571          225 
 4236000   0.56752801   -7.5107635    824.08997  0.016212031  0.015143784          114 
 4237000   0.58235073   -7.5306845     824.9983   0.01622607  0.015138999          235 
 4238000    0.5915818     -7.52299    824.05973  0.016203786  0.015134215          268 
 4239000   0.57693977   -7.5257888    824.32747  0.016205227   0.01512943          129 
 4240000   0.57525606   -7.5338509    824.60426  0.016206845  0.015124648          163 
 4241000   0.58031063   -7.5252643    823.86693  0.016188535  0.015119871          169 
 4242000   0.57886049   -7.5162329    825.63966  0.016219544    0.0151151          120 
 4243000   0.57749245   -7.5408172    825.51981  0.016213367  0.015110321          190 
 4244000    0.5811976   -7.5436893    824.87455  0.016196877  0.015105538          157 
 4245000   0.58105675   -7.5505442    824.45087  0.016184744  0.015100764          109 
 4246000   0.57814951   -7.5380088     825.2911  0.016197423  0.015095987          207 
 4247000   0.56567284   -7.5403036     824.5909   0.01617987  0.015091216          129 
 4248000   0.57281544   -7.5473875    825.37364  0.016191416  0.015086438          128 
 4249000   0.57865786   -7.5350919    824.55406  0.016171532   0.01508167          116 
 4250000   0.57430822   -7.5403538    823.91855  0.016155266  0.015076891          123 
 4251000   0.57383079   -7.5128451    825.31249  0.016178791  0.015072122          107 
 4252000   0.56401208    -7.527396    825.45444  0.016177768  0.015067358          167 
 4253000   0.57289924   -7.5405593    824.24621   0.01615029  0.015062595          183 
 4254000   0.57514429   -7.5163227    826.75603   0.01619566  0.015057838          107 
 4255000    0.5700104   -7.5489961    824.16741  0.016141156  0.015053082          123 
 4256000   0.56770035   -7.5427502    825.27299  0.016159011   0.01504832          184 
 4257000   0.57597293   -7.5402876    825.49429  0.016159547  0.015043569          186 
 4258000   0.55747104   -7.5346341     825.5148  0.016156153  0.015038816          282 
 4259000    0.5747991    -7.537999    823.89632  0.016120692  0.015034057          117 
 4260000   0.54674044   -7.5399551    823.83924  0.016115791  0.015029298          128 
 4261000    0.5693331   -7.5474145    824.62518   0.01612738  0.015024541          322 
 4262000    0.5690053   -7.5529947    824.02575  0.016111875  0.015019782          130 
 4263000   0.57221737   -7.5466069    824.32838  0.016114012  0.015015032          281 
 4264000   0.56495954   -7.5432509     825.3427  0.016130056  0.015010284          261 
 4265000   0.57049432   -7.5348322    824.53307  0.016110455  0.015005542          123 
 4266000   0.57087026   -7.5368314    824.02284  0.016096711   0.01500079          120 
 4267000   0.57455906   -7.5513628    824.02778  0.016093035  0.014996042          125 
 4268000   0.58136116   -7.5544579    823.08576  0.016070872  0.014991291          240 
 4269000   0.56861335   -7.5254911    823.45547  0.016074324  0.014986542          125 
 4270000   0.57211684   -7.5355961    825.72484  0.016114849  0.014981802          136 
 4271000   0.57982301   -7.5474425    823.71279  0.016071817  0.014977066          127 
 4272000   0.55936523   -7.5385549    825.16342  0.016096353   0.01497233          145 
 4273000   0.56688338   -7.5306194    822.96304  0.016049673  0.014967596          122 
 4274000    0.5608692   -7.5443073    825.14706  0.016088501  0.014962866          170 
 4275000   0.56905804   -7.5492729    824.42685  0.016070699  0.014958134          201 
 4276000   0.57227725   -7.5321914    824.88615  0.016075892  0.014953405          334 
 4277000   0.56945344   -7.5446371    824.74931  0.016069467  0.014948672          214 
 4278000   0.57587082    -7.558541    825.39855  0.016078357  0.014943945          172 
 4279000   0.56046543   -7.5396044    824.30157  0.016053236  0.014939226          183 
 4280000   0.57081789   -7.5439274    825.93999  0.016081386   0.01493451          293 
 4281000   0.56438558   -7.5448252    825.05441  0.016060391  0.014929793          340 
 4282000   0.58283577   -7.5498466    824.51478  0.016046138  0.014925072          152 
 4283000   0.56424862   -7.5614015    823.43064  0.016021298  0.014920347          318 
 4284000   0.56383141   -7.5509781    824.19021  0.016032334  0.014915629          229 
 4285000    0.5712342   -7.5466776    825.30511  0.016050274  0.014910908          143 
 4286000    0.5791931   -7.5451278    823.26496  0.016006863  0.014906187          144 
 4287000   0.54686478   -7.5580108     825.2707  0.016042118  0.014901471          168 
 4288000   0.56687745   -7.5333612    825.30821  0.016039106  0.014896755          252 
 4289000   0.56150056   -7.5658661    823.32886  0.015996908  0.014892047          306 
 4290000    0.5724565   -7.5473161    824.66475  0.016019129  0.014887331          160 
 4291000   0.56042381   -7.5735077    823.70123  0.015996684  0.014882617          259 
 4292000   0.56662608   -7.5769337    824.10676   0.01600083  0.014877901          331 
 4293000   0.57080064   -7.5437097    824.13871  0.015997723  0.014873181          153 
 4294000    0.5736195    -7.553879    822.33008  0.015958898  0.014868464          204 
 4295000   0.55798403   -7.5724407    824.04618  0.015988479  0.014863747          182 
 4296000   0.56051079   -7.5520276    824.13394  0.015986459  0.014859034          178 
 4297000   0.57077468   -7.5708366    823.58225   0.01597204   0.01485432          196 
 4298000   0.57230445   -7.5659483    823.16597  0.015960252  0.014849613          184 
 4299000   0.55784785   -7.5499941    822.97017  0.015952744  0.014844904          187 
 4300000   0.57863172   -7.5619154    822.35126   0.01593704  0.014840194          189 
 4301000   0.56585486   -7.5603562    824.15616  0.015968305  0.014835486          184 
 4302000   0.55743091   -7.5678861    824.55194   0.01597226  0.014830783          199 
 4303000   0.56336037   -7.5593979    823.78611  0.015953717  0.014826081          317 
 4304000   0.56978135   -7.5547487    824.18039  0.015957644  0.014821378          299 
 4305000    0.5506285   -7.5588983    824.38656  0.015957928  0.014816674          294 
 4306000   0.55909382   -7.5792522    823.22316  0.015931707  0.014811963          329 
 4307000   0.55758575   -7.5826312    823.26641  0.015928845  0.014807258          183 
 4308000   0.55153554   -7.5677779    823.00322  0.015920056  0.014802557          188 
 4309000   0.57185236   -7.5542859    823.39241  0.015923888  0.014797855          310 
 4310000   0.55926437   -7.5815168    823.68437  0.015925839  0.014793167          196 
 4311000   0.56015253   -7.5692072    823.61151  0.015920736   0.01478847          178 
 4312000   0.57145402   -7.5779106    822.42464  0.015894106  0.014783773          326 
 4313000   0.56278813   -7.5592107    823.48991  0.015911004  0.014779078          298 
 4314000   0.55891903   -7.5677659    824.68682  0.015930436  0.014774386          291 
 4315000   0.55878149   -7.5771055      823.216  0.015898339  0.014769702          352 
 4316000   0.55410715   -7.5714946    823.43847  0.015898951  0.014765008          315 
 4317000   0.55084549   -7.5833034    822.77177  0.015882398  0.014760317          341 
 4318000   0.56913245   -7.5704217    824.04929  0.015903375  0.014755628          186 
 4319000   0.55963122   -7.5706982     823.5721  0.015890486  0.014750944          348 
 4320000   0.55663663   -7.5636707    822.33202  0.015862886  0.014746264          343 
 4321000   0.55125751   -7.5800281    821.84975  0.015849914  0.014741582          348 
 4322000   0.55924403   -7.5563923    824.02181  0.015888127  0.014736908          191 
 4323000   0.55084992   -7.5683117    823.84737  0.015881089  0.014732232          303 
 4324000   0.55424908   -7.5894854     823.0561  0.015862167  0.014727562          191 
 4325000   0.56771301   -7.5636121    823.06667  0.015858703  0.014722886          134 
 4326000   0.56127551   -7.5851249    823.86402  0.015870396  0.014718209          175 
 4327000   0.57627003   -7.5795929    823.31547  0.015856164  0.014713537          195 
 4328000   0.55506267   -7.5775563    823.65662  0.015859069  0.014708867          286 
 4329000   0.54398998    -7.572813    824.22541  0.015866355  0.014704195          440 
 4330000   0.55405592   -7.5759158    822.51969  0.015829863  0.014699529          411 
 4331000     0.551549   -7.5866801    825.61535  0.015885772  0.014694866          341 
 4332000   0.55193469    -7.568668    824.11172   0.01585318  0.014690208          280 
 4333000   0.55628684   -7.5513549    823.62157  0.015840095  0.014685543          171 
 4334000   0.56154263   -7.5729069    822.74971  0.015819676  0.014680883          349 
 4335000    0.5700555   -7.5627579    823.50279  0.015830503  0.014676234          151 
 4336000    0.5396412   -7.5485617    824.33543  0.015842855  0.014671585          225 
 4337000   0.56322276   -7.5754238     823.4428  0.015822051  0.014666933          373 
 4338000   0.54464176   -7.5664411    823.85597   0.01582634  0.014662282          318 
 4339000   0.55267569   -7.5614673     823.0285  0.015806801  0.014657633          306 
 4340000   0.55415442   -7.5778804    822.87041  0.015800123   0.01465298          403 
 4341000    0.5637915   -7.5525892    823.90849  0.015816411  0.014648336          284 
 4342000    0.5557641   -7.5808133    823.95465  0.015813654  0.014643698          193 
 4343000   0.56660496   -7.5951231    824.24564  0.015815597  0.014639058          315 
 4344000   0.55829416   -7.5668115    823.70029  0.015801494  0.014634419          163 
 4345000   0.54842687   -7.5847571    823.67489   0.01579737   0.01462978          406 
 4346000   0.55377414   -7.5987147     825.1073  0.015821201  0.014625142          305 
 4347000   0.56075881   -7.5559546    822.53555  0.015768261  0.014620507          344 
 4348000   0.56017712   -7.5666807     823.1083  0.015775611  0.014615873          359 
 4349000   0.56139158   -7.5671223    822.78984  0.015765882   0.01461124          458 
 4350000    0.5466865   -7.5834765    823.61877  0.015778137  0.014606607          454 
 4351000   0.56247922   -7.5634217    822.11923  0.015745791  0.014601973          335 
 4352000   0.54527464   -7.5563027    823.22852  0.015763414  0.014597347          347 
 4353000    0.5472131   -7.5670653    824.03359  0.015775205  0.014592719          423 
 4354000   0.56246779      -7.5811    824.27542   0.01577621  0.014588093          487 
 4355000   0.56209081    -7.571765    822.98525    0.0157479  0.014583466          288 
 4356000   0.54526819   -7.5814067    822.88172  0.015742304   0.01457884          560 
 4357000   0.54417096   -7.5668423    821.55948  0.015713401  0.014574212          494 
 4358000   0.56286661   -7.5821159    824.09655  0.015758309  0.014569596          415 
 4359000   0.55842817   -7.5745962     821.8899  0.015712509  0.014564979          255 
 4360000   0.54624987   -7.5712056    823.09561   0.01573195  0.014560364          433 
 4361000   0.55532247   -7.5778435    823.57683  0.015737538   0.01455575          469 
 4362000   0.54185544   -7.5835506    822.71182  0.015717404  0.014551132          449 
 4363000   0.55561505   -7.5796759    823.84273  0.015735402  0.014546515          478 
 4364000   0.55938649   -7.5675831    823.26463  0.015720758  0.014541907          510 
 4365000    0.5562193   -7.5866904    822.91875  0.015710553  0.014537296          489 
 4366000   0.56141857   -7.5948716    823.09871  0.015710389  0.014532687          451 
 4367000   0.54630407   -7.5774504    822.67688  0.015698742  0.014528078          482 
 4368000    0.5381315   -7.5840179     822.4852  0.015691491  0.014523472          471 
 4369000   0.55340291   -7.5800508    822.85359  0.015694926  0.014518858          483 
 4370000   0.55928618   -7.5891787    821.71683  0.015669657  0.014514247          563 
 4371000   0.56068431   -7.5785172    822.81363  0.015686983  0.014509637          559 
 4372000   0.54284813   -7.5730123    823.57497  0.015697907  0.014505033          557 
 4373000   0.54548598   -7.6023483    821.49115  0.015654607  0.014500426          457 
 4374000   0.56172906   -7.5912827    823.40505  0.015687491  0.014495821          418 
 4375000   0.57172589   -7.5858997    822.48365  0.015666355  0.014491222          496 
 4376000    0.5445505   -7.5770896    822.28577  0.015659007  0.014486622          531 
 4377000   0.54760488   -7.5816271    823.63554  0.015681128  0.014482032          467 
 4378000   0.54773871   -7.6233307    823.43907  0.015673806  0.014477434          500 
 4379000   0.54283961   -7.6012166     823.8564  0.015678168  0.014472836          466 
 4380000   0.55685383   -7.5918178    824.38709  0.015684686  0.014468245          417 
 4381000   0.54958155   -7.5764315    824.31345  0.015679705  0.014463658          486 
 4382000   0.55276253   -7.5846418    822.70858  0.015645607  0.014459065          490 
 4383000   0.54513751   -7.5872751    823.15871  0.015650595  0.014454478          440 
 4384000   0.55139252   -7.5849284    822.88046  0.015641736  0.014449891          432 
 4385000    0.5456944   -7.5914432    822.04439   0.01562228    0.0144453          502 
 4386000   0.54358105   -7.5884992    822.20897  0.015621845  0.014440717          216 
 4387000   0.54202961   -7.5777454    823.09705  0.015635154  0.014436132          389 
 4388000   0.55018337   -7.5832253    823.64665  0.015642028  0.014431557          426 
 4389000   0.55270285   -7.5831163     822.1423  0.015609902  0.014426981          446 
 4390000    0.5448002   -7.5702571    822.37376   0.01561074  0.014422402          523 
 4391000   0.55047279   -7.5869694    822.08084  0.015601625  0.014417831          422 
 4392000   0.55063374    -7.583075    821.22182  0.015581774  0.014413258          516 
 4393000   0.55354417   -7.5770696    822.40171  0.015600609  0.014408684          469 
 4394000   0.54066486   -7.5963572    823.54813  0.015618801  0.014404117          422 
 4395000   0.55994416   -7.5958503    822.70431  0.015599247  0.014399547          443 
 4396000    0.5436296   -7.5861298    822.40435  0.015590013  0.014394988          394 
 4397000   0.54569441    -7.591222    822.11618  0.015581006  0.014390421          205 
 4398000   0.55228428   -7.5904832    821.75792  0.015570675  0.014385855          440 
 4399000   0.55936358   -7.5887578    823.15797  0.015593657   0.01438129          415 
 4400000   0.54066899   -7.6082109    822.21747  0.015572301  0.014376727          488 
 4401000   0.54115118    -7.596648    823.90317  0.015600681  0.014372167          459 
 4402000   0.55208779   -7.5863615    822.97314  0.015579531  0.014367608          251 
 4403000   0.54768797   -7.5830783    822.10687  0.015559597  0.014363055          402 
 4404000   0.53802321   -7.5838525    823.62674  0.015584823  0.014358501          442 
 4405000   0.53551134   -7.5940263    822.95763  0.015568627  0.014353954          434 
 4406000    0.5387157   -7.5894936    822.74788  0.015561127  0.014349402          425 
 4407000   0.54163926   -7.5921918    822.10489  0.015545437  0.014344856          406 
 4408000   0.54843657   -7.5880986    822.28675  0.015545348  0.014340316          457 
 4409000   0.54660919   -7.5832832    822.31232  0.015542306  0.014335771          447 
 4410000   0.54177679   -7.5638009     823.3645  0.015558664  0.014331234          269 
 4411000    0.5520786   -7.5837162    821.76311  0.015524883  0.014326701          414 
 4412000   0.54471007   -7.5878806    821.90345  0.015524015  0.014322164          505 
 4413000   0.53816546   -7.5884936    822.78186  0.015537085   0.01431763          237 
 4414000   0.54651634   -7.5901498    823.30478  0.015543437  0.014313093          545 
 4415000   0.54561447   -7.5863315    821.92156  0.015513808  0.014308555          300 
 4416000   0.53895224   -7.5843572    821.35154  0.015499538  0.014304018          540 
 4417000   0.55359137   -7.5901689    822.67949  0.015521083  0.014299482          481 
 4418000   0.55026008    -7.590099    823.16826  0.015526789   0.01429495          488 
 4419000   0.54290251   -7.5935035    823.14914  0.015522915  0.014290419          285 
 4420000   0.54113386   -7.5801574    822.36939  0.015504702  0.014285887          501 
 4421000   0.53647839   -7.6037027    822.40231  0.015501815  0.014281351          293 
 4422000    0.5561235    -7.597561    821.36768  0.015478812  0.014276816          520 
 4423000   0.54258251   -7.6086451    821.52589  0.015478293  0.014272283          273 
 4424000   0.54985626    -7.596553    821.83277  0.015480575  0.014267754          231 
 4425000   0.54624346   -7.5920908    822.67556  0.015492948  0.014263232          495 
 4426000   0.54307932   -7.6108277     823.3759  0.015502634  0.014258706          263 
 4427000   0.53635528   -7.5971413    823.36114  0.015498854  0.014254183          257 
 4428000   0.54631603   -7.6012916    821.27836  0.015456157  0.014249659          470 
 4429000   0.54639223   -7.6042283    822.01787  0.015466582  0.014245139          443 
 4430000   0.53635519   -7.6110987    823.04193  0.015482354  0.014240628          294 
 4431000   0.55003487   -7.5907372    822.49047  0.015468489  0.014236115          298 
 4432000   0.54151039   -7.6048406    822.23752  0.015460242  0.014231606          279 
 4433000   0.53117028   -7.6120349    822.29428  0.015457822  0.014227091          431 
 4434000   0.53616813   -7.5955923    822.20286  0.015452617  0.014222579          246 
 4435000   0.53298518   -7.6021138    820.66178  0.015420176  0.014218066          518 
 4436000   0.54394243   -7.6008112    820.42686  0.015412287   0.01421355          501 
 4437000   0.54583582   -7.6329647    820.73186  0.015414542  0.014209032          318 
 4438000   0.53748847   -7.6030004     821.2043   0.01541994  0.014204517          543 
 4439000    0.5482983   -7.6026455    821.67685  0.015425337   0.01420001          278 
 4440000   0.54699353   -7.5914053    820.67119  0.015402988  0.014195495          495 
 4441000   0.55070606   -7.6012004    822.81481  0.015439744  0.014190981          304 
 4442000    0.5475566   -7.6155644    821.45273  0.015410715  0.014186475          541 
 4443000   0.53087535   -7.5921312    822.31744  0.015423465  0.014181969          496 
 4444000   0.54115777   -7.6235782    821.45344  0.015403792  0.014177469          330 
 4445000    0.5398514   -7.5967421    821.72525  0.015405423  0.014172969          327 
 4446000   0.54780713   -7.5903962    822.30689   0.01541286  0.014168473          287 
 4447000   0.53989144   -7.6044128    821.85703  0.015400964  0.014163979          277 
 4448000   0.54345629   -7.5990463    821.66403  0.015393885  0.014159496          495 
 4449000   0.54634777   -7.6007109    823.00082  0.015415465  0.014155007          326 
 4450000   0.54285343   -7.6025373    821.40903  0.015382192  0.014150519          287 
 4451000   0.53799274   -7.5876582    822.14739  0.015392559  0.014146027          261 
 4452000   0.53255973   -7.6190707    820.71122   0.01536222   0.01414154          466 
 4453000   0.53474086   -7.5982408    823.17989  0.015404968  0.014137054          292 
 4454000   0.53499756   -7.6055721    822.72605  0.015393019  0.014132574          298 
 4455000   0.53651019   -7.6023197     823.0991  0.015396541  0.014128096          295 
 4456000   0.54190037   -7.6027021    822.81987  0.015387864  0.014123622          330 
 4457000   0.54183036   -7.6096598    820.71229  0.015345006  0.014119148          555 
 4458000   0.54658492   -7.5985078    822.52037  0.015375362  0.014114673          335 
 4459000   0.53117828   -7.6021969    822.26162  0.015367078  0.014110201          273 
 4460000   0.53671569   -7.6138668    822.08936  0.015360414   0.01410573          479 
 4461000   0.54127291   -7.6019967    821.41836  0.015344436  0.014101261          315 
 4462000   0.55184645   -7.5916098    822.58138  0.015362718  0.014096794          265 
 4463000   0.53461984   -7.5978999    822.53012  0.015358319  0.014092325          583 
 4464000   0.54929654   -7.6112902    821.33766  0.015332618   0.01408786          575 
 4465000   0.53277361   -7.6043999    821.55072   0.01533316  0.014083389          351 
 4466000   0.53721774   -7.5799473    820.61797  0.015312322  0.014078926          537 
 4467000   0.53094924   -7.6170753    821.33394  0.015322251  0.014074463          564 
 4468000   0.54686779   -7.6056058    823.22348  0.015354064  0.014070002          332 
 4469000   0.53764169   -7.6003562     821.3725  0.015316113  0.014065539          295 
 4470000   0.53768244   -7.6072872    821.82365  0.015321097  0.014061077          578 
 4471000   0.53791039   -7.6071679    821.79696  0.015317173  0.014056616          556 
 4472000   0.54594365   -7.6137291    821.68157  0.015311597  0.014052154          318 
 4473000   0.53424776   -7.6167008    822.28022  0.015319327  0.014047693          624 
 4474000   0.53371289   -7.5973919     821.5599  0.015302487  0.014043236          556 
 4475000   0.54919278   -7.6226552    822.20394   0.01531106  0.014038784          387 
 4476000   0.54026532   -7.6042991    822.06807   0.01530511  0.014034333          366 
 4477000   0.54445159   -7.6008112    821.75317   0.01529583  0.014029882          374 
 4478000   0.53169797   -7.6103503    819.88891  0.015257721  0.014025437          623 
 4479000   0.53572463   -7.6064765    821.01988  0.015275357  0.014020986          632 
 4480000   0.53956251   -7.6033901    820.82826  0.015268383  0.014016533          585 
 4481000   0.53777328   -7.6326027    822.19162   0.01529033  0.014012084          614 
 4482000    0.5293514   -7.6246441     820.7424  0.015259973  0.014007637          599 
 4483000   0.53581943   -7.6020026    820.45125  0.015251157  0.014003194          565 
 4484000   0.53406634   -7.6192752    821.64312  0.015269906  0.013998755          535 
 4485000   0.54430111    -7.622599    821.20048  0.015258277  0.013994317          570 
 4486000   0.52125123   -7.6098875    820.13133  0.015235015  0.013989877          367 
 4487000   0.52384211   -7.6161879    821.39189  0.015255031  0.013985447          598 
 4488000   0.54003636   -7.6080906    823.20114  0.015285226  0.013981016          566 
 4489000   0.52256246   -7.6237738    821.52302  0.015250669  0.013976588          612 
 4490000   0.52820028   -7.5957089    821.57481  0.015248233  0.013972156          300 
 4491000    0.5380907   -7.6175519    820.77722  0.015230038  0.013967727          537 
 4492000   0.53106462   -7.6136792    821.56027  0.015241174  0.013963303          592 
 4493000   0.52992047   -7.6092157    823.34231  0.015270834  0.013958873          601 
 4494000   0.52215992   -7.6259055    821.88392  0.015240393  0.013954448          561 
 4495000   0.53293643   -7.6117987     822.5525  0.015249398  0.013950027          319 
 4496000   0.53351837   -7.6262459    822.17012  0.015238918  0.013945611          280 
 4497000   0.52605538   -7.6055664    821.18148  0.015217209  0.013941197          608 
 4498000   0.53980304   -7.6165714    821.53716  0.015220416  0.013936792          570 
 4499000   0.52057988   -7.6282794    820.20482  0.015192354  0.013932382          282 
 4500000   0.52770663   -7.6131106     822.1677  0.015225328  0.013927968          252 
 4501000   0.52779889   -7.6164709    821.28706  0.015205641  0.013923555          402 
 4502000   0.52866825   -7.6223279    822.61906  0.015226919   0.01391914          574 
 4503000   0.53937955   -7.6015861    821.32698  0.015199626  0.013914727          321 
 4504000   0.53984578   -7.6263204    821.31511  0.015196031  0.013910321          304 
 4505000   0.52172336   -7.6313775    821.70333   0.01519984  0.013905916          361 
 4506000    0.5268501   -7.6350573    820.17816   0.01516826  0.013901505          564 
 4507000   0.53055005    -7.633351    820.40409  0.015169072  0.013897096          329 
 4508000   0.52496949    -7.658232    821.16154  0.015179709  0.013892684          326 
 4509000   0.52834711   -7.6304541    821.07574  0.015174757  0.013888277          323 
 4510000   0.53563494   -7.6371186    821.08503  0.015171564  0.013883874          567 
 4511000   0.53592095   -7.6375482    821.21741  0.015170646  0.013879472          605 
 4512000   0.52779427   -7.6214927    821.08411  0.015164822   0.01387507          336 
 4513000    0.5323601   -7.6227408    821.87804  0.015176122   0.01387067          552 
 4514000    0.5198181   -7.6368143    821.85547  0.015172343  0.013866273          390 
 4515000   0.52148463   -7.6165273    822.71946  0.015184929   0.01386188          576 
 4516000   0.50998842    -7.608296    821.54481  0.015159891  0.013857483          604 
 4517000   0.52345383    -7.637437    821.15012  0.015149253  0.013853094          340 
 4518000   0.53387742    -7.613557    821.33103  0.015149237  0.013848706          295 
 4519000   0.52467584   -7.6283051    820.41262  0.015128949  0.013844316          624 
 4520000   0.53987592   -7.6346934    822.15224  0.015157674  0.013839927          493 
 4521000   0.53612455   -7.6292845      822.194  0.015155091  0.013835551          289 
 4522000   0.52563012   -7.6189715    820.15499  0.015114164  0.013831164          265 
 4523000   0.51777786   -7.6414611    822.07224  0.015146146  0.013826781          282 
 4524000   0.53119844   -7.6211951    820.19621  0.015108241  0.013822402          482 
 4525000   0.52993736   -7.6179602    822.31894  0.015143995  0.013818028          254 
 4526000   0.52663378   -7.6069076    820.94671  0.015115384  0.013813655          512 
 4527000   0.52785846   -7.6299516     820.2271  0.015098798  0.013809282          282 
 4528000   0.52261683   -7.6271128    821.42415  0.015117494  0.013804904          534 
 4529000   0.52387559   -7.6162284    821.63744  0.015118081  0.013800538          573 
 4530000   0.52862705   -7.6231906    822.06001  0.015122517  0.013796167          329 
 4531000   0.52431391   -7.6248583    822.18862  0.015121544  0.013791799          270 
 4532000   0.52895659   -7.6349819    821.15466  0.015099196  0.013787434          496 
 4533000   0.52906186   -7.6132367    820.25061  0.015079245  0.013783068          524 
 4534000   0.53119826   -7.6151651    820.96731  0.015089092  0.013778707          346 
 4535000   0.52996111   -7.6387512    820.36035  0.015074611  0.013774349          275 
 4536000   0.53212638   -7.6067524    821.83932  0.015098459  0.013769992          301 
 4537000   0.52065467   -7.6392681    820.94188  0.015078647  0.013765637          263 
 4538000   0.51657888   -7.6421974    821.92256  0.015093333  0.013761279          274 
 4539000    0.5135086   -7.6285925    820.57157  0.015065205  0.013756922          257 
 4540000   0.52821802    -7.626159    822.40808  0.015095596  0.013752568          470 
 4541000   0.51878003   -7.6199082    821.37093  0.015073239  0.013748215          311 
 4542000   0.52178592   -7.6330623    822.24932  0.015086036  0.013743865          293 
 4543000   0.52758873   -7.6310222    819.71265  0.015036185  0.013739515          265 
 4544000   0.52997211   -7.6188403    820.17606  0.015041374  0.013735169          307 
 4545000   0.52606553   -7.6496508    821.51529   0.01506262  0.013730826          358 
 4546000   0.52149248   -7.6359156     821.1105  0.015051886  0.013726486          298 
 4547000   0.52674554   -7.6149071    822.25895  0.015069624  0.013722144          544 
 4548000   0.52154433    -7.649696    821.06998  0.015044525  0.013717801          387 
 4549000   0.52613037   -7.6231244    821.01949  0.015040292  0.013713455          280 
 4550000   0.52356732   -7.6064525    820.99461  0.015036531  0.013709113          525 
 4551000   0.53515161   -7.6227922    821.35665  0.015039857  0.013704777          560 
 4552000    0.5268655   -7.6220003    820.10653  0.015013667  0.013700441          488 
 4553000   0.50547957   -7.6236992    820.43522  0.015016385  0.013696109          289 
 4554000   0.52097073   -7.6523626     820.3001  0.015010615  0.013691775          265 
 4555000   0.53361039   -7.6458045    822.85312  0.015054027  0.013687442          339 
 4556000   0.52588051   -7.6393583     820.8664  0.015014384  0.013683113          343 
 4557000   0.52576747    -7.622585    819.71314      0.01499  0.013678785          349 
 4558000     0.522653   -7.6419381    821.57108  0.015020679   0.01367446          329 
 4559000   0.52201377   -7.6304455    821.80431  0.015021648  0.013670135          300 
 4560000   0.52598295   -7.6512434    821.67479  0.015015987  0.013665811          516 
 4561000   0.51046279   -7.6358607    819.81722  0.014978755  0.013661492          535 
 4562000   0.52298828   -7.6288577    822.65486  0.015027306  0.013657177          308 
 4563000   0.52393756   -7.6471175    821.32512  0.014999728  0.013652866          550 
 4564000    0.5200058    -7.644164    821.60397  0.015001533  0.013648549          500 
 4565000   0.52362499   -7.6418024    822.11502  0.015007576  0.013644237          307 
 4566000   0.50909658   -7.6433695    819.71169  0.014960426  0.013639929          608 
 4567000   0.51910175   -7.6520943    820.68568  0.014974923  0.013635619          554 
 4568000   0.51946535   -7.6442906    820.09054  0.014960788  0.013631308          565 
 4569000   0.52664947   -7.6367535    820.95389   0.01497326  0.013627002          601 
 4570000   0.52644781   -7.6494871    819.27912  0.014939444  0.013622693          581 
 4571000   0.51208389   -7.6341631    820.73513   0.01496272  0.013618385          582 
 4572000   0.51322633   -7.6315627    821.93018   0.01498123  0.013614079          386 
 4573000   0.52056384   -7.6448449     820.9735   0.01496052  0.013609775          408 
 4574000   0.51330765   -7.6406424    821.52424  0.014967283  0.013605475          669 
 4575000   0.51993134   -7.6366895    821.04976  0.014955369  0.013601169          366 
 4576000   0.52938267   -7.6389005    821.50363  0.014960366  0.013596874          295 
 4577000   0.50437489   -7.6269076    822.08039  0.014967599   0.01359257          553 
 4578000   0.52250652   -7.6242016     821.1879  0.014948083  0.013588272          597 
 4579000   0.52132536   -7.6452194    821.07017  0.014942676   0.01358398          617 
 4580000   0.52164239   -7.6430421    819.90597  0.014918231  0.013579685          625 
 4581000   0.52736539   -7.6305326     821.5983   0.01494576   0.01357539          564 
 4582000   0.51872739   -7.6379319    820.77209  0.014927471  0.013571097          368 
 4583000    0.5160493   -7.6370875    820.06239   0.01491131  0.013566806          603 
 4584000   0.52317215    -7.633603    819.99829  0.014906891  0.013562514          610 
 4585000   0.52601544   -7.6465963    819.85059  0.014900956  0.013558228          371 
 4586000   0.52057816   -7.6562274    820.92167  0.014917169   0.01355394          362 
 4587000   0.51678244   -7.6273887    821.43406  0.014923226  0.013549652          353 
 4588000   0.52504085   -7.6384472    820.08625  0.014895493  0.013545369          580 
 4589000   0.51933472   -7.6464637    820.65632  0.014902599  0.013541092          351 
 4590000    0.5222508   -7.6385165    820.36095   0.01489399  0.013536817          366 
 4591000   0.51901125   -7.6345008    820.92171  0.014900924  0.013532542          686 
 4592000   0.50577026   -7.6532175    820.70764  0.014893794  0.013528266          369 
 4593000   0.52839555   -7.6521561     819.2656  0.014864388  0.013523992          420 
 4594000   0.50368819   -7.6381678    821.25661  0.014897268  0.013519724          568 
 4595000   0.52110089   -7.6453129    821.51121  0.014898644  0.013515455          529 
 4596000   0.51662278   -7.6355571    820.08735  0.014869585  0.013511184          568 
 4597000   0.52763175   -7.6487388    820.83262   0.01487986  0.013506914          400 
 4598000   0.51709098   -7.6449217     820.3759  0.014868347  0.013502645          537 
 4599000   0.50987598   -7.6454297    820.37639  0.014865123  0.013498382          595 
 4600000   0.52702142   -7.6450671    821.09747  0.014874954  0.013494118          566 
 4601000    0.5088804   -7.6750756    820.46282  0.014860226  0.013489852          323 
 4602000   0.52685205   -7.6416185    820.45775  0.014856905  0.013485586          314 
 4603000   0.51102552   -7.6501019    821.35336  0.014869892  0.013481325          581 
 4604000   0.51308935   -7.6441939    819.58324  0.014834623  0.013477062          371 
 4605000    0.5231436   -7.6629183    821.04488  0.014857852    0.0134728          639 
 4606000   0.51080458   -7.6453436    819.09799  0.014819402  0.013468542          332 
 4607000   0.50205162   -7.6359028    820.72195   0.01484556  0.013464286          546 
 4608000   0.50824173   -7.6658259    820.90711  0.014845687  0.013460032          592 
 4609000   0.51510862   -7.6387465    820.07327   0.01482739  0.013455779          336 
 4610000   0.52361368   -7.6492618    820.39805  0.014830044  0.013451528          621 
 4611000   0.51146939   -7.6460462     819.6775  0.014813806  0.013447278          507 
 4612000   0.50776449   -7.6473068    820.20416   0.01482011  0.013443027          538 
 4613000   0.51168461   -7.6414835    820.07272  0.014814523  0.013438779          559 
 4614000    0.5149588    -7.640648    821.23889  0.014832374  0.013434536          299 
 4615000   0.52508072   -7.6336929    820.17507  0.014809951  0.013430297          591 
 4616000   0.50217329   -7.6401431    820.13283   0.01480598  0.013426058          586 
 4617000   0.51086342   -7.6688848    820.64357  0.014811991  0.013421821          564 
 4618000   0.49740237    -7.646203    820.32396  0.014803017  0.013417586          326 
 4619000   0.52382438   -7.6560998    820.60271  0.014804841  0.013413354          297 
 4620000   0.50048041   -7.6436567     820.8166  0.014805494  0.013409123          536 
 4621000   0.51140744   -7.6364879    820.82108  0.014802371  0.013404895          276 
 4622000   0.50688134   -7.6354163    819.74285  0.014779728  0.013400666          303 
 4623000   0.50738604   -7.6736033    820.80048  0.014795596  0.013396439          549 
 4624000   0.51048822   -7.6352129    819.48287   0.01476865  0.013392207          551 
 4625000    0.5166916    -7.654273    820.20069  0.014778391  0.013387985          550 
 4626000   0.49776038   -7.6407572    819.89007  0.014769601  0.013383758          569 
 4627000   0.50939332    -7.648856    822.05192  0.014805344  0.013379537          548 
 4628000   0.51971187   -7.6378669     820.8389  0.014780303  0.013375318          341 
 4629000   0.51580603    -7.645634    820.92603  0.014778678  0.013371098          284 
 4630000    0.5130313   -7.6560873     819.7075  0.014753555  0.013366883          581 
 4631000   0.50662871   -7.6510524    820.01861  0.014755967  0.013362667          595 
 4632000   0.52356057   -7.6533607    820.09464  0.014754149  0.013358455          561 
 4633000   0.51276066   -7.6348435    820.06952  0.014750513  0.013354247          499 
 4634000   0.50832055   -7.6486836    819.78476  0.014742209  0.013350039          501 
 4635000     0.505717   -7.6637049    820.89189  0.014758934   0.01334583          304 
 4636000   0.50168298   -7.6512046    820.69348  0.014752184  0.013341624          542 
 4637000   0.50835465   -7.6425853    819.16139  0.014721469  0.013337419          544 
 4638000   0.51484038   -7.6579537    819.62242  0.014726578  0.013333215          614 
 4639000   0.50786779   -7.6601086    818.97172  0.014711714  0.013329011          302 
 4640000   0.51534293   -7.6418916    820.47807  0.014735597  0.013324807          599 
 4641000   0.49754939   -7.6672471    820.35425  0.014730199  0.013320607          325 
 4642000   0.49599019   -7.6647104    820.68222  0.014732914  0.013316406          321 
 4643000   0.52054769   -7.6557768     820.3445  0.014723679   0.01331221          599 
 4644000   0.51862998   -7.6501322    820.34135  0.014720452  0.013308011          580 
 4645000   0.50473263   -7.6682505     819.6949  0.014705685  0.013303815          557 
 4646000   0.51181211   -7.6433692    820.20271  0.014711628   0.01329962          600 
 4647000   0.50621779   -7.6614588    820.42043  0.014712367  0.013295428          321 
 4648000   0.51648342   -7.6600432    820.45027  0.014709737  0.013291234          606 
 4649000   0.50692135   -7.6485336    820.33664  0.014704536  0.013287044          601 
 4650000   0.52120974    -7.636503    821.05921  0.014714323   0.01328286          282 
 4651000   0.50767574   -7.6690721    819.72214  0.014687202  0.013278674          536 
 4652000   0.50476642   -7.6626513    819.94848    0.0146881  0.013274483          573 
 4653000   0.51764802   -7.6430017    819.81172  0.014682494  0.013270297          500 
 4654000   0.49933578   -7.6565916     820.1141  0.014684753  0.013266112          582 
 4655000   0.50184035   -7.6405667    820.06852  0.014680783  0.013261927          559 
 4656000   0.51019548   -7.6690939    820.90943   0.01469268  0.013257745          570 
 4657000   0.50166795   -7.6639761    820.95163   0.01469028   0.01325356          578 
 4658000   0.50256416   -7.6409317    818.83745  0.014649303  0.013249377          540 
 4659000   0.51198984   -7.6742109    820.02986  0.014667487  0.013245192          274 
 4660000   0.50933088   -7.6587125    818.86644  0.014643534  0.013241012          543 
 4661000   0.49453488   -7.6681967    819.84486  0.014657886  0.013236835          541 
 4662000   0.50990752   -7.6620985    820.15496  0.014660285  0.013232663          550 
 4663000   0.50548296   -7.6375463    820.67022  0.014666349  0.013228488          286 
 4664000   0.50795204   -7.6656821    820.21938  0.014655149  0.013224316          564 
 4665000   0.49975486   -7.6711016    819.74217  0.014643483  0.013220145          522 
 4666000   0.48799863   -7.6695574     820.2241  0.014648952  0.013215973          576 
 4667000   0.50022545    -7.675467    819.77426  0.014637781  0.013211806          594 
 4668000   0.49747989   -7.6666036    819.59825  0.014631503  0.013207638          585 
 4669000   0.50236817   -7.6687515    819.18034   0.01462091  0.013203471          594 
 4670000   0.51012407   -7.6596484    820.78798  0.014646466  0.013199309          567 
 4671000   0.50473347   -7.6581155    819.26154  0.014616098  0.013195147          565 
 4672000   0.49152278   -7.6345934    820.50528  0.014635154  0.013190987          580 
 4673000   0.50346629   -7.6789645      819.946  0.014622049  0.013186825          535 
 4674000   0.51682523   -7.6503194    820.90225  0.014635969  0.013182667          580 
 4675000   0.49982867   -7.6793108    820.20414  0.014620395  0.013178511          569 
 4676000   0.50152448   -7.6855464     819.7847  0.014609793  0.013174357          572 
 4677000   0.50288079   -7.6710908    819.72834  0.014605665  0.013170205          527 
 4678000   0.49562051   -7.6539183    819.31943  0.014595258  0.013166056          588 
 4679000   0.50069513   -7.6484993    819.03038  0.014586991  0.013161909          611 
 4680000   0.50133564   -7.6515364    820.87199  0.014616666  0.013157761          540 
 4681000    0.4936167   -7.6465735    819.13752  0.014582666   0.01315362          636 
 4682000   0.50972701    -7.657863    818.98244  0.014576791  0.013149471          521 
 4683000   0.49710162   -7.6683236    819.61328  0.014584904  0.013145328          507 
 4684000   0.50823329   -7.6694088    819.91623   0.01458718  0.013141188          511 
 4685000   0.50555287   -7.6775179    819.42495  0.014575328  0.013137049          515 
 4686000   0.50569082   -7.6542811    820.41021  0.014589739   0.01313291          613 
 4687000   0.50948948     -7.65123    819.36685  0.014568076  0.013128776          491 
 4688000   0.49498838    -7.661848    818.52372  0.014549981  0.013124641          319 
 4689000    0.4997371    -7.679012    818.26759  0.014542326  0.013120505          284 
 4690000   0.50424773    -7.680771      819.851   0.01456736  0.013116365          590 
 4691000    0.5037445   -7.6738253    818.70086  0.014543823  0.013112229          561 
 4692000   0.49276467   -7.6676704     818.9778  0.014545641  0.013108097          571 
 4693000   0.50388224   -7.6766519    819.40507  0.014550129  0.013103965          297 
 4694000   0.51071894   -7.6696582    819.78865  0.014553839  0.013099837          534 
 4695000   0.50465796   -7.6765767    819.14158  0.014539254  0.013095708          529 
 4696000   0.50543512   -7.6823755    819.47886  0.014542143  0.013091582          319 
 4697000   0.50411852   -7.6826648    819.80146  0.014544771  0.013087459          531 
 4698000   0.49864293   -7.6695128    820.21102   0.01454894  0.013083335          548 
 4699000   0.50884724   -7.6757737    818.73044  0.014519586  0.013079212          528 
 4700000   0.50533195    -7.659294    820.18657  0.014542315  0.013075091          553 
 4701000   0.49124893   -7.6835211    819.88076  0.014533801  0.013070973          543 
 4702000   0.48765347     -7.68061     819.1415  0.014517608  0.013066853          545 
 4703000   0.49326019   -7.6810986    818.36867  0.014500827  0.013062734          540 
 4704000   0.49691255   -7.6915062     819.9698  0.014526109  0.013058618          348 
 4705000    0.4987347   -7.6788338    819.14916  0.014508487  0.013054502          581 
 4706000   0.49971498   -7.6789634    819.99861  0.014520446  0.013050388          331 
 4707000   0.50588945   -7.6885366    819.35543  0.014505974  0.013046279          588 
 4708000   0.50685637    -7.677642    819.03984  0.014497307  0.013042168          291 
 4709000   0.49637338   -7.6854461    819.69372  0.014505799   0.01303806          595 
 4710000   0.49624973    -7.684617    818.74132  0.014485869  0.013033957          553 
 4711000   0.50716435   -7.6863905    818.80024  0.014483836  0.013029851          525 
 4712000   0.50684784   -7.6756177    819.50677  0.014493258  0.013025751          532 
 4713000   0.50225172   -7.6742468    820.16749  0.014501865  0.013021648          641 
 4714000   0.49304903   -7.6546842    819.08769    0.0144797   0.01301755          302 
 4715000   0.48949235    -7.690147    818.39445  0.014464377  0.013013453          265 
 4716000   0.48982837   -7.6682361    817.43764  0.014444403  0.013009353          645 
 4717000   0.49747483   -7.6866335    817.96138  0.014450593  0.013005253          569 
 4718000   0.49795681   -7.6933968    818.07975  0.014449621  0.013001158          535 
 4719000   0.48930311   -7.6746526    818.53779  0.014454648  0.012997064          593 
 4720000   0.49999618    -7.676742    820.93741  0.014493952  0.012992973          523 
 4721000    0.4890518   -7.6957174    819.08733  0.014458224   0.01298888          653 
 4722000   0.50821846   -7.6892527    819.27073  0.014458399  0.012984793          575 
 4723000   0.49624048   -7.6665596    820.43622  0.014475902  0.012980704          325 
 4724000   0.50772218   -7.6880316    817.48464  0.014420771  0.012976615          593 
 4725000   0.49963253   -7.6698195    819.78932  0.014458365   0.01297253          563 
 4726000    0.5042239   -7.6893876    818.05111  0.014424656  0.012968444          601 
 4727000   0.50031608   -7.6865813    819.60995  0.014449086  0.012964361          609 
 4728000   0.49558167   -7.6839667    818.59821  0.014428197   0.01296028          647 
 4729000   0.50025633   -7.6987033    819.80575  0.014446425  0.012956198          572 
 4730000   0.49925153    -7.696312    819.08896  0.014430743  0.012952117          265 
 4731000   0.49304284   -7.6894265    818.53025  0.014417851  0.012948036          562 
 4732000   0.49638511    -7.695562    818.58518  0.014415772  0.012943958          584 
 4733000   0.49373347   -7.6921417    819.36611  0.014426476  0.012939885          526 
 4734000   0.49378676   -7.6849299     818.8168  0.014413759   0.01293581          531 
 4735000   0.48526293   -7.6800549    817.91123  0.014394777  0.012931737          550 
 4736000   0.49223688   -7.6786434    818.78699  0.014407147  0.012927664          548 
 4737000   0.49587664   -7.6974468     820.4224  0.014432876  0.012923591          583 
 4738000   0.49005194   -7.6847957    818.19686  0.014390686   0.01291952          561 
 4739000   0.49291094   -7.6940157    818.57358  0.014394274  0.012915449          280 
 4740000    0.4850273   -7.6901537    819.20424  0.014402325  0.012911383          538 
 4741000   0.50278124   -7.6835281     817.4137  0.014367814  0.012907316          531 
 4742000   0.48552706   -7.6793272    819.39197   0.01439955  0.012903253          477 
 4743000   0.49506472   -7.6971644    817.45545  0.014362489   0.01289919          569 
 4744000    0.4963647   -7.7077393    817.33485  0.014357343  0.012895131          611 
 4745000   0.49493129   -7.6785201     817.7297  0.014361252  0.012891072          319 
 4746000    0.4992957   -7.6948238    818.51518  0.014372018  0.012887016          566 
 4747000   0.49605932   -7.7056604    819.69805  0.014389756  0.012882961          573 
 4748000   0.49798745   -7.6915604    819.08587  0.014375981  0.012878907          563 
 4749000   0.48881769   -7.6985727    818.17182  0.014356914  0.012874855          316 
 4750000   0.49004302    -7.698668    818.54014  0.014360353  0.012870805          570 
 4751000   0.49475927   -7.6994398    819.44077  0.014373128  0.012866754          597 
 4752000   0.48992194   -7.7120819     818.8043  0.014358942  0.012862707          559 
 4753000   0.49142871   -7.7079029    819.93453  0.014375737  0.012858658          633 
 4754000   0.49635374   -7.6909877    819.86235  0.014371448  0.012854611          623 
 4755000   0.48546588   -7.7000315     818.2286  0.014339793  0.012850563          389 
 4756000   0.49356454   -7.7000566    818.98146   0.01434997  0.012846523          594 
 4757000   0.49501354   -7.7133136    817.29653  0.014317436  0.012842482          647 
 4758000   0.48998351   -7.7123764    819.10551   0.01434611   0.01283844          314 
 4759000   0.50380856   -7.6840892    817.86482   0.01432137  0.012834404          581 
 4760000   0.49310901    -7.707333    819.28376  0.014343203  0.012830366          660 
 4761000   0.49372477   -7.7017832      819.045  0.014336011   0.01282633          584 
 4762000    0.4845436   -7.6886939    817.83221  0.014311777  0.012822296          588 
 4763000   0.48215229   -7.7010434    817.30458  0.014299541  0.012818258          584 
 4764000   0.48997382   -7.6907142    817.86399  0.014306325  0.012814227          346 
 4765000   0.48135389   -7.7034875    818.02184  0.014306083  0.012810196          598 
 4766000   0.47553058   -7.7213422    818.89384  0.014318328  0.012806167          554 
 4767000   0.48658912   -7.7049355     819.8696  0.014332382  0.012802139          622 
 4768000   0.49586656   -7.7033422    818.07471  0.014298006  0.012798112          618 
 4769000   0.48727344   -7.6985709    819.38174  0.014317847  0.012794089          531 
 4770000   0.48306038   -7.7099285     819.1449  0.014310708  0.012790067          567 
 4771000   0.48132862   -7.6961596    818.48654  0.014296209  0.012786044          573 
 4772000   0.49972847    -7.704027    818.11311  0.014286692  0.012782026          599 
 4773000   0.48994594   -7.7110936     818.0078   0.01428186  0.012778006          326 
 4774000   0.48747424   -7.7055775     817.5305  0.014270537  0.012773986          621 
 4775000   0.48726398   -7.6868024    817.93285   0.01427457  0.012769969          636 
 4776000   0.49464821   -7.7137373     818.6014  0.014283246  0.012765956          306 
 4777000   0.47817068    -7.688703     817.6645  0.014263912  0.012761945          607 
 4778000    0.4923186   -7.6809761    817.78693  0.014263062  0.012757934          595 
 4779000   0.49053342   -7.6994612    818.30264   0.01426907  0.012753928          578 
 4780000   0.49236401   -7.7234773    817.79066  0.014257159   0.01274992          587 
 4781000   0.48307355   -7.7012213    818.17066  0.014260801  0.012745915          641 
 4782000   0.48958685   -7.7108319    820.00939  0.014289861  0.012741909          322 
 4783000   0.49330316   -7.7163461    818.69877  0.014264039  0.012737908          580 
 4784000   0.48497004   -7.7151124    817.77135  0.014244902  0.012733905          583 
 4785000   0.47980193   -7.6964466     818.1856   0.01424914  0.012729903          610 
 4786000   0.48339441      -7.6935    818.36942  0.014249363  0.012725902          627 
 4787000   0.48646288   -7.7025279    818.46408  0.014248034  0.012721904          594 
 4788000   0.48103012   -7.7127597    818.00755  0.014237113  0.012717909          597 
 4789000   0.49888082   -7.7030808    818.45453  0.014241918  0.012713915          547 
 4790000   0.50030666   -7.7105654    819.21064  0.014252099  0.012709925          536 
 4791000   0.47782207   -7.6954235    819.23724  0.014249587  0.012705936          314 
 4792000   0.47883151   -7.7115283    818.27295  0.014229844  0.012701949          626 
 4793000   0.48518944   -7.7048719    818.80571  0.014236138  0.012697958          364 
 4794000   0.47957818   -7.6932837     816.9463  0.014200847  0.012693971          604 
 4795000   0.48303382   -7.6868953    819.06726  0.014234746  0.012689986          334 
 4796000   0.47431379   -7.6963627    817.83087  0.014210295  0.012686003          601 
 4797000   0.48488901   -7.6948726    817.97083  0.014209763  0.012682021          608 
 4798000   0.48161808   -7.7075324     817.3702   0.01419637  0.012678038          607 
 4799000   0.48468325   -7.7038773    818.14144  0.014206804  0.012674057          609 
 4800000   0.48274152   -7.7005439    819.03879  0.014219423  0.012670077          608 
 4801000   0.49060426   -7.7062233     818.7337  0.014211166  0.012666098          626 
 4802000   0.48538907   -7.6967562    817.81339  0.014192236  0.012662119          641 
 4803000   0.48460848   -7.6965126    817.43336  0.014182687  0.012658144          663 
 4804000   0.48497761   -7.7180471    818.10663  0.014191414  0.012654173          354 
 4805000   0.49100626   -7.6978318    817.34454  0.014175243  0.012650201          608 
 4806000   0.48768191   -7.6898827    817.81544  0.014180459  0.012646231          579 
 4807000   0.48394864   -7.6977183     818.0675  0.014181879  0.012642262          594 
 4808000   0.47969243   -7.7188946    819.12972   0.01419734  0.012638299          607 
 4809000   0.47197419   -7.7084174    818.98499   0.01419188  0.012634334          581 
 4810000   0.48569296   -7.7083375    818.07561  0.014173174  0.012630367          557 
 4811000   0.46944376   -7.7018163    818.05065  0.014169796  0.012626404          642 
 4812000   0.48527319   -7.7053363    819.51674  0.014192241  0.012622443          590 
 4813000    0.4804639   -7.7000453    817.54732  0.014155193  0.012618484          322 
 4814000   0.49053387   -7.6957083    816.77317  0.014138851  0.012614528          577 
 4815000   0.47759618   -7.7044091    818.44258  0.014164808  0.012610571          572 
 4816000   0.49165574   -7.7101171    818.56873  0.014164049  0.012606619          554 
 4817000    0.4796325    -7.701985    817.04057  0.014134672  0.012602665          568 
 4818000   0.48841402   -7.7088698    817.68551  0.014142893   0.01259871          535 
 4819000    0.4802473   -7.7167343     817.5989  0.014138461  0.012594761          575 
 4820000    0.4803026   -7.7131053    817.72078  0.014137634  0.012590812          618 
 4821000   0.48463642   -7.7025006    816.87157  0.014120023  0.012586863          631 
 4822000   0.47575997   -7.7023048    817.23445  0.014123366  0.012582915          629 
 4823000   0.47745472   -7.6927122    817.55219  0.014125928  0.012578968          621 
 4824000   0.48197244   -7.7117051     817.6033  0.014123882  0.012575026          579 
 4825000   0.48282274   -7.7003334    816.79922  0.014107068  0.012571084          609 
 4826000   0.47784666   -7.7033445    818.15763  0.014127601  0.012567144          619 
 4827000   0.48288694    -7.721832    817.93807  0.014120884  0.012563207          334 
 4828000   0.48082678   -7.7096171    816.81913  0.014098646   0.01255927          328 
 4829000   0.48695221    -7.713151    817.50591  0.014107578  0.012555337          644 
 4830000    0.4779075   -7.7053663    816.45488  0.014086523  0.012551403          578 
 4831000   0.47406917     -7.70583    817.69736   0.01410504  0.012547468          592 
 4832000   0.47794872   -7.7101805    818.25217  0.014111689  0.012543531          569 
 4833000   0.47321205    -7.701621    817.97216  0.014103941  0.012539596          356 
 4834000   0.47454686   -7.7110588    817.24526  0.014088492  0.012535664          367 
 4835000   0.46948598   -7.7175504    817.49578  0.014089896  0.012531731          350 
 4836000   0.47103984   -7.7033121    817.21374  0.014082123  0.012527802          336 
 4837000   0.47783317    -7.717535    818.66337  0.014104186  0.012523867          579 
 4838000    0.4785358    -7.721846    817.44465  0.014080279  0.012519941          639 
 4839000   0.47725825   -7.7220293    816.43743  0.014060023  0.012516012          610 
 4840000   0.46677074   -7.7182189    818.01144  0.014084219  0.012512086          335 
 4841000   0.46979927   -7.7208769    817.75874   0.01407696  0.012508163          578 
 4842000   0.48662334   -7.7009724    816.79364  0.014057443  0.012504238          614 
 4843000     0.488067   -7.7004691    817.46163  0.014066034  0.012500318          333 
 4844000   0.48149449   -7.7170762    817.35483  0.014061293  0.012496397          619 
 4845000   0.47913841   -7.7116938    818.13515  0.014071812  0.012492479          639 
 4846000     0.471562   -7.7099059    815.80032  0.014028758  0.012488561          642 
 4847000   0.47409717   -7.7168434    817.91465  0.014062215  0.012484649          603 
 4848000   0.48179012   -7.7186673    816.92647  0.014042328  0.012480733          407 
 4849000   0.46342174   -7.7144222    816.52074  0.014032459  0.012476819          624 
 4850000   0.47510414   -7.6987839      818.279  0.014059777  0.012472908          586 
 4851000   0.47967322   -7.6992787    818.27436  0.014056799  0.012469002          632 
 4852000   0.47996863   -7.7131519    817.09343  0.014033619  0.012465097          616 
 4853000   0.47401767   -7.7276112    818.40787  0.014053298  0.012461193          578 
 4854000   0.48590607   -7.7207941    817.57984  0.014036187  0.012457288          621 
 4855000   0.47402341   -7.7136601     816.5147  0.014015014  0.012453385          618 
 4856000   0.46672969   -7.7298438    816.95386  0.014019664  0.012449483          595 
 4857000   0.47651805   -7.7141532    817.38519  0.014024178  0.012445583          575 
 4858000   0.46985115   -7.7097246    817.23006   0.01401863  0.012441681          584 
 4859000   0.47364996   -7.7232386    816.80673  0.014008485  0.012437781          540 
 4860000   0.46828011   -7.7244303    819.41353  0.014050301  0.012433889          592 
 4861000   0.46705327   -7.7152532    817.76133  0.014019086  0.012429995          594 
 4862000   0.46490163   -7.7342921    818.67046  0.014031785  0.012426105          634 
 4863000   0.46325597   -7.7258218    816.90414  0.013998632  0.012422212          586 
 4864000   0.47547656   -7.7272552    817.23866  0.014001485  0.012418321          326 
 4865000   0.47305642   -7.7115786    817.07871  0.013995867  0.012414433          603 
 4866000   0.47713102   -7.7290586    817.82495  0.014005771  0.012410546          579 
 4867000   0.46467293   -7.7287712    816.87487  0.013986625  0.012406661          558 
 4868000   0.47794559    -7.714762     817.5406  0.013995149  0.012402777          598 
 4869000   0.46755547   -7.7207995    817.42832  0.013990353  0.012398892          620 
 4870000   0.46659163    -7.731919    816.81067  0.013976911  0.012395007          607 
 4871000   0.47826592   -7.7225843    816.78023  0.013973521  0.012391126          651 
 4872000   0.47010494     -7.71993    816.87074  0.013972201   0.01238725          599 
 4873000    0.4685027   -7.7211939    817.07819  0.013972881  0.012383373          640 
 4874000    0.4779272   -7.7352886    818.87227  0.014000689  0.012379502          607 
 4875000   0.47590799   -7.7198109     817.5575  0.013975342  0.012375627          568 
 4876000   0.46799539   -7.7244852    817.83663  0.013977246  0.012371753          590 
 4877000   0.46444204    -7.720715    817.96094  0.013976504  0.012367883          367 
 4878000   0.46233096   -7.7081917    816.59265  0.013950264  0.012364013          581 
 4879000    0.4675916   -7.7370447    817.45608  0.013962152  0.012360146          598 
 4880000   0.45998422   -7.7227704     816.3898  0.013941083  0.012356277          607 
 4881000   0.47281527   -7.7168846    816.14695   0.01393408  0.012352412          589 
 4882000   0.46819535    -7.708368    816.57559  0.013938543  0.012348548          557 
 4883000   0.47141834   -7.7443373    817.51527  0.013951725  0.012344685          608 
 4884000   0.46910845   -7.7357786    818.80975  0.013970955  0.012340823          572 
 4885000   0.47740813   -7.7168817    817.44825  0.013944869  0.012336963          611 
 4886000   0.48065756   -7.7309627    817.39215  0.013941059  0.012333104          593 
 4887000   0.47805769   -7.7330884    817.78134  0.013944842  0.012329247          344 
 4888000   0.47768972   -7.7252299     817.7318  0.013941145  0.012325391          349 
 4889000   0.47402782   -7.7278775    817.68149  0.013937436  0.012321537          567 
 4890000   0.47503111   -7.7379411    818.13801  0.013942366  0.012317684          650 
 4891000   0.48397606   -7.7383639    817.05991  0.013921146  0.012313836          575 
 4892000   0.47187396   -7.7340411     817.2784  0.013922022  0.012309987          596 
 4893000   0.46163387   -7.7327668    817.00265  0.013914481  0.012306139          320 
 4894000   0.47136449   -7.7095201    817.45735   0.01391938  0.012302291          363 
 4895000   0.46535975   -7.7181628    816.16448  0.013894526  0.012298447          620 
 4896000   0.47064193   -7.7334327    816.22225  0.013892672  0.012294605          604 
 4897000   0.47576021   -7.7441758    816.76222  0.013899023  0.012290762          605 
 4898000   0.47552591   -7.7325923    816.00672  0.013883332  0.012286919          651 
 4899000   0.45963481   -7.7326063    817.00781  0.013897527  0.012283077          615 
 4900000   0.46954176   -7.7152137    815.95357  0.013876761  0.012279243          636 
 4901000   0.46180753   -7.7245342    816.65716  0.013885893  0.012275406          621 
 4902000   0.46191982   -7.7256497    817.02615  0.013889333  0.012271569          585 
 4903000   0.47573403   -7.7379078    816.15749  0.013871736  0.012267736          631 
 4904000   0.46498816   -7.7381365    816.15366  0.013868843  0.012263904          682 
 4905000   0.46697993   -7.7249526    817.20562  0.013883888  0.012260072          589 
 4906000   0.48032699   -7.7331771    818.73175   0.01390698  0.012256243          658 
 4907000   0.46487006   -7.7369659    816.48798  0.013866041  0.012252415          574 
 4908000   0.46423377   -7.7316431    816.80571  0.013868611  0.012248588          581 
 4909000   0.46417295   -7.7510122    816.10196  0.013853839   0.01224476          604 
 4910000   0.46690417   -7.7382948    816.43691  0.013856702  0.012240937          592 
 4911000   0.46737878   -7.7226588     816.7857  0.013859799  0.012237115          345 
 4912000   0.47093736   -7.7403392    817.16114  0.013863347  0.012233295          621 
 4913000   0.45926772   -7.7305074    816.48403   0.01384904  0.012229474          615 
 4914000   0.46219653   -7.7206408    816.77852  0.013851216  0.012225657          561 
 4915000   0.47728237   -7.7247191    816.20973  0.013838754  0.012221837          613 
 4916000   0.47016017   -7.7230314     816.3198  0.013837805  0.012218021          550 
 4917000   0.46333952   -7.7363945    817.24024   0.01385059  0.012214207          616 
 4918000   0.46330103   -7.7417089    817.91796  0.013859258  0.012210399          607 
 4919000   0.45481568   -7.7425841    817.39288  0.013847545  0.012206589          589 
 4920000   0.46199895   -7.7271785    816.50878  0.013829756   0.01220278          606 
 4921000   0.46151462   -7.7367822    817.31583  0.013840612  0.012198967          566 
 4922000   0.46699789    -7.744567    815.70414  0.013810513  0.012195161          328 
 4923000   0.46334534   -7.7279013    816.52739  0.013821643  0.012191352          335 
 4924000   0.45799188   -7.7341046    816.67707  0.013821369  0.012187547          558 
 4925000   0.46466123   -7.7418099    816.90056  0.013822345  0.012183745          317 
 4926000   0.46621052   -7.7257166    816.17342  0.013807237  0.012179944          545 
 4927000     0.469558   -7.7405186    816.26049  0.013805908  0.012176145          538 
 4928000   0.46480542   -7.7305364    816.32027  0.013804117  0.012172344          554 
 4929000   0.46545336   -7.7337771    817.40777  0.013819703  0.012168546          616 
 4930000   0.46404225   -7.7400149    816.13428  0.013795373  0.012164753          574 
 4931000    0.4597217   -7.7391988    816.25871  0.013794678  0.012160961          572 
 4932000   0.45978517   -7.7257483    816.06491  0.013788607  0.012157165          606 
 4933000   0.46208669   -7.7466478     817.0334  0.013802173  0.012153374          306 
 4934000   0.46652058   -7.7436389    816.32784  0.013787458  0.012149582          608 
 4935000   0.45733099   -7.7311065    816.45859  0.013786872  0.012145792          629 
 4936000   0.45842635   -7.7231696    814.51862  0.013751327  0.012142005          563 
 4937000   0.46135133   -7.7345657    816.73677  0.013785983  0.012138216          634 
 4938000   0.46456204   -7.7299638    815.86139  0.013768418  0.012134431          598 
 4939000   0.45906092   -7.7213152    816.53479  0.013776993  0.012130649          625 
 4940000   0.46030165    -7.730565    816.38236  0.013771632  0.012126864          317 
 4941000   0.46903787   -7.7374163    817.68404  0.013790799  0.012123085          633 
 4942000    0.4588435   -7.7324019     817.3326  0.013782082  0.012119306          571 
 4943000   0.46192883   -7.7504419    816.08466  0.013758255  0.012115529          330 
 4944000   0.45454637   -7.7339572    816.03522  0.013754639  0.012111751          594 
 4945000   0.47154869   -7.7315538    815.64451  0.013745273  0.012107975          568 
 4946000   0.45953925   -7.7477935    816.08544  0.013749923  0.012104201          643 
 4947000   0.46696108   -7.7448201    816.76694  0.013758624  0.012100427          588 
 4948000   0.44456262   -7.7348067    817.55095  0.013769047  0.012096659          650 
 4949000   0.45429158   -7.7575376    816.99351  0.013756879   0.01209289          586 
 4950000   0.45897458   -7.7480551     816.2694  0.013741909  0.012089119          661 
 4951000   0.45958566   -7.7299566    816.58652  0.013744471   0.01208535          593 
 4952000   0.45621988   -7.7304945     815.6545  0.013726011  0.012081583          313 
 4953000   0.46112046   -7.7334092     816.5793    0.0137388  0.012077819          583 
 4954000   0.46313882   -7.7334647    817.07881  0.013744429  0.012074057          605 
 4955000   0.45469294   -7.7359762    816.64011  0.013734277  0.012070297          587 
 4956000   0.46421134   -7.7499575    817.15742  0.013740204  0.012066539          607 
 4957000   0.46060074   -7.7531212    817.20185  0.013738179  0.012062781          605 
 4958000   0.47172024   -7.7346271    816.06617   0.01371632  0.012059022          534 
 4959000   0.45669837   -7.7454479     816.1059  0.013714222  0.012055269          624 
 4960000   0.46174073    -7.732282    815.23859  0.013696885   0.01205152          601 
 4961000   0.45630455   -7.7393795     814.9806   0.01368979  0.012047764          553 
 4962000    0.4584332   -7.7403423     815.6636  0.013698502  0.012044012          580 
 4963000   0.46444383   -7.7411294    815.64327    0.0136954  0.012040261          602 
 4964000   0.45685099   -7.7280796    815.31238  0.013687087  0.012036511          636 
 4965000   0.45222871   -7.7496282    815.76111  0.013691861  0.012032761          604 
 4966000   0.45478101   -7.7408098    815.70364   0.01368814  0.012029014          580 
 4967000   0.46115896    -7.737942     816.5662  0.013699856  0.012025268          583 
 4968000   0.46007342   -7.7531375     816.3079  0.013692765  0.012021524          598 
 4969000   0.46338302   -7.7349014    815.66677  0.013679258  0.012017782          625 
 4970000   0.44763681   -7.7372198    817.02224  0.013699233   0.01201404          358 
 4971000   0.45455192   -7.7373467     817.2996  0.013701126  0.012010297          672 
 4972000   0.45803626   -7.7392716    815.88484  0.013674659  0.012006558          623 
 4973000   0.45234846   -7.7490584    817.02922  0.013691085  0.012002821          616 
 4974000   0.46574744   -7.7548608    815.87846  0.013669053  0.011999087          625 
 4975000    0.4563241   -7.7523246    816.59867   0.01367837  0.011995355          594 
 4976000   0.46084112   -7.7352811     816.1065  0.013667378  0.011991625          683 
 4977000   0.46043286   -7.7336961     814.6366  0.013640021  0.011987895          630 
 4978000   0.45786557   -7.7479252    816.50768  0.013668603  0.011984164          636 
 4979000   0.45813842   -7.7424916    816.07354  0.013658592  0.011980437          658 
 4980000   0.45148162   -7.7560453    816.77236  0.013667543  0.011976714          641 
 4981000   0.45613812   -7.7587946    815.26224  0.013639534   0.01197299          610 
 4982000   0.45697351   -7.7505987    816.02388  0.013649536  0.011969265          636 
 4983000   0.45380002   -7.7615585    817.24359  0.013667195  0.011965539          599 
 4984000   0.44817436   -7.7411132    814.53217  0.013619117  0.011961818          671 
 4985000   0.45914324   -7.7527685    816.32548  0.013646364  0.011958099          606 
 4986000   0.45941578   -7.7351486    815.61335  0.013631725  0.011954382          599 
 4987000   0.46086818   -7.7589474    816.42916  0.013642623  0.011950666          657 
 4988000   0.45754443   -7.7518237    816.14881  0.013635205  0.011946953          593 
 4989000   0.46314275   -7.7394029    815.98902  0.013629802  0.011943243          622 
 4990000   0.44619277    -7.743943    816.35065   0.01363311  0.011939532          614 
 4991000   0.45701858   -7.7238851    815.88469  0.013622599  0.011935818          688 
 4992000   0.45669533   -7.7493739    815.66149  0.013616144  0.011932109          604 
 4993000   0.45524976   -7.7397615    815.80182  0.013615759    0.0119284          657 
 4994000   0.45458092   -7.7450511    816.33613  0.013621948  0.011924693          605 
 4995000   0.44711844   -7.7529172    816.68541  0.013625049  0.011920986          690 
 4996000   0.44983605   -7.7491082    816.92165  0.013626262  0.011917282          632 
 4997000   0.45636739   -7.7500937    816.26792  0.013612633  0.011913579          625 
 4998000   0.45115543   -7.7546496    815.61858  0.013599083  0.011909878          638 
 4999000   0.45229399   -7.7606415    815.55225  0.013595257  0.011906181          620 
 5000000   0.44822798   -7.7521662    816.08204  0.013601367  0.011902484          647 
 5001000   0.45409518   -7.7659909    816.45879  0.013604925  0.011898787          643 
 5002000   0.44831403   -7.7467713    815.89023  0.013592733   0.01189509          666 
 5003000   0.45400361   -7.7534636    815.45749  0.013582809  0.011891393          610 
 5004000   0.44633358   -7.7455436    816.25634  0.013593398  0.011887699          658 
 5005000   0.44678589   -7.7521308    815.56821  0.013579224  0.011884007          636 
 5006000   0.45162765   -7.7623958    816.83066  0.013597527  0.011880317          658 
 5007000    0.4562277   -7.7488473    816.18383  0.013584046  0.011876629          624 
 5008000   0.44387434   -7.7447826     816.0004  0.013578281  0.011872943          653 
 5009000   0.45750108   -7.7542907    816.71971  0.013587538   0.01186926          625 
 5010000   0.45575262   -7.7468279    815.66064   0.01356721  0.011865578          641 
 5011000   0.45947839   -7.7487728    816.87087  0.013584628  0.011861895          605 
 5012000   0.44473183    -7.738497    815.83878  0.013564758  0.011858212          640 
Loop time of 10829.8 on 48 procs for 5000000 steps with 4000 atoms

Performance: 79780.183 tau/day, 461.691 timesteps/s
99.4% CPU use with 48 MPI tasks x no OpenMP threads

MPI task timing breakdown:
Section |  min time  |  avg time  |  max time  |%varavg| %total
---------------------------------------------------------------
Pair    | 692.02     | 724.81     | 749.7      |  44.1 |  6.69
Neigh   | 68.318     | 69.326     | 70.71      |   6.9 |  0.64
Comm    | 604.49     | 631.95     | 661.3      |  57.2 |  5.84
Output  | 14.001     | 14.006     | 14.093     |   0.3 |  0.13
Modify  | 9237       | 9271.9     | 9303.3     |  19.9 | 85.62
Other   |            | 117.8      |            |       |  1.09

Nlocal:        83.3333 ave          92 max          74 min
Histogram: 1 1 6 5 8 14 3 5 3 2
Nghost:        1806.04 ave        1832 max        1772 min
Histogram: 1 1 2 3 7 13 6 9 4 2
Neighs:        11101.2 ave       12472 max        9648 min
Histogram: 2 3 6 4 9 4 6 8 4 2
FullNghs:      22202.6 ave       24838 max       19201 min
Histogram: 1 0 5 3 12 12 4 7 2 2

Total # of neighbors = 1065724
Ave neighs/atom = 266.43100
Neighbor list builds = 269470
Dangerous builds = 2

#clear
#
#next RN
#
#jump SELF
Total wall time: 3:00:32
