
units lj                  # Use reduced LJ style units
atom_style atomic         # Uncharged point particles
atom_modify map hash      # Needed for indexing of clusters etc
                          # Used to be able to find where atoms are in relation to each other.

lattice fcc 1.0 spacing 1 1 1
Lattice spacing in x,y,z = 1.5874011 1.5874011 1.5874011
region box block 0 10 0 10 0 10 units lattice
create_box 2 box
Created orthogonal box = (0.0000000 0.0000000 0.0000000) to (15.874011 15.874011 15.874011)
  3 by 4 by 4 MPI processor grid
create_atoms 1 box
Created 4000 atoms
  using lattice units in orthogonal box = (0.0000000 0.0000000 0.0000000) to (15.874011 15.874011 15.874011)
  create_atoms CPU = 0.003 seconds
set type 1 type/fraction 2 0.4 78393
Setting atom values ...
  1612 settings made for type/fraction
mass 1 1.0
mass 2 1.0
pair_style lj/cut  3.5
pair_modify tail  yes
pair_coeff 1  1  1.0  1.0   # Intearaction between 1 and 1 set with epsilon = 1 and sigma = 1
pair_coeff 1  2  1.5  0.8
pair_coeff 2  2  0.5  0.88

write_data data.0
System init for write_data ...
Neighbor list info ...
  update every 1 steps, delay 10 steps, check yes
  max neighbors/atom: 2000, page size: 100000
  master list distance cutoff = 3.8
  ghost atom cutoff = 3.8
  binsize = 1.9, bins = 9 9 9
  1 neighbor lists, perpetual/occasional/extra = 1 0 0
  (1) pair lj/cut, perpetual
      attributes: half, newton on
      pair build: half/bin/atomonly/newton
      stencil: half/bin/3d
      bin: standard
WARNING: Not all mixed pair coeffs generated from mixing. Use write_data with 'pair ij' option to store all pair coeffs. (../write_data.cpp:312)


#############################
#   M E L T   S Y S T E M   #
#############################

velocity all create 2.4 6583654 mom yes dist gaussian # Assign velocities
                                                    # Temperature 2.4, random number seed, zero linear momentum
                                                                                # Gaussian distribution

timestep 0.002   # simulation timestep
thermo 1000       # output thermodynamic data every 1000 steps bf 100

# Define a fix  in this case with index 1 applied to all
# particles in the simulation. This fix is for simulations
# in the anisotropic NPT ensemble. Note that we use the MTK
# correction.
fix 1 all npt temp 2.4 2.4 0.1 iso 5.68 5.68 0.5 mtk yes tchain 5 pchain 5 # Use NPT ensemble
                                                                         # Set temperature and pressure and damping
                                                                         # Numbers of thermostats in chain and in barostat
run 10000          # run for 10000 steps
Per MPI rank memory allocation (min/avg/max) = 3.642 | 3.644 | 3.648 Mbytes
Step Temp E_pair E_mol TotEng Press Volume 
       0          2.4    -5.861415            0    -2.262315   -4.1716513         4000 
    1000    2.3944996   -5.0185608            0   -1.4277093    5.7335255    3888.7035 
    2000    2.3779512   -4.9850007            0   -1.4189656    5.7980113    3903.4756 
    3000    2.3837216   -4.9811018            0   -1.4064132    5.3991723    3935.2676 
    4000    2.3903959   -5.0397605            0   -1.4550632    5.5136607    3895.7514 
    5000    2.3885671    -5.014294            0    -1.432339    5.9176693    3875.6952 
    6000    2.3665081   -4.9945111            0   -1.4456364    6.0989558    3868.7018 
    7000    2.4005648   -5.0955397            0   -1.4955928    5.3910865    3885.2771 
    8000     2.427646   -5.0346487            0   -1.3940901    5.8969741    3873.5371 
    9000    2.4055187   -5.0549204            0   -1.4475444    5.5625262    3887.7584 
   10000    2.3585023   -4.9891235            0   -1.4522544    5.6113309    3920.9393 
Loop time of 2.48952 on 48 procs for 10000 steps with 4000 atoms

Performance: 694110.208 tau/day, 4016.841 timesteps/s
99.7% CPU use with 48 MPI tasks x no OpenMP threads

MPI task timing breakdown:
Section |  min time  |  avg time  |  max time  |%varavg| %total
---------------------------------------------------------------
Pair    | 1.0935     | 1.1745     | 1.3094     |   3.9 | 47.18
Neigh   | 0.20408    | 0.21616    | 0.24239    |   1.3 |  8.68
Comm    | 0.70768    | 0.84766    | 0.93555    |   4.9 | 34.05
Output  | 0.00023953 | 0.00024324 | 0.00030469 |   0.0 |  0.01
Modify  | 0.19254    | 0.23567    | 0.2734     |   4.8 |  9.47
Other   |            | 0.01524    |            |       |  0.61

Nlocal:        83.3333 ave          93 max          74 min
Histogram: 1 4 3 10 4 14 5 2 3 2
Nghost:        1658.38 ave        1687 max        1620 min
Histogram: 2 0 2 6 7 7 11 5 4 4
Neighs:        9730.35 ave       11088 max        8455 min
Histogram: 2 3 6 5 9 13 1 3 5 1

Total # of neighbors = 467057
Ave neighs/atom = 116.76425
Neighbor list builds = 905
Dangerous builds = 204

# Equilibrate just above the melting temperature to avoid step fn in T

fix 1 all npt temp 1.25 1.25 0.1 iso 5.68 5.68 0.5 mtk yes tchain 5 pchain 5
run 2000
Per MPI rank memory allocation (min/avg/max) = 3.643 | 3.645 | 3.649 Mbytes
Step Temp E_pair E_mol TotEng Press Volume 
   10000    2.3585023   -4.9891235            0   -1.4522544    5.6113309    3920.9393 
   11000    1.2570835   -7.0408437            0   -5.1556899    5.4096095    3091.6299 
   12000    1.2356303   -7.0985442            0   -5.2455621     5.487137    3074.5354 
Loop time of 0.595365 on 48 procs for 2000 steps with 4000 atoms

Performance: 580484.703 tau/day, 3359.286 timesteps/s
99.7% CPU use with 48 MPI tasks x no OpenMP threads

MPI task timing breakdown:
Section |  min time  |  avg time  |  max time  |%varavg| %total
---------------------------------------------------------------
Pair    | 0.26559    | 0.28991    | 0.31049    |   2.0 | 48.69
Neigh   | 0.039566   | 0.041556   | 0.044554   |   0.5 |  6.98
Comm    | 0.19276    | 0.21582    | 0.24294    |   2.6 | 36.25
Output  | 5.0361e-05 | 5.1731e-05 | 6.7306e-05 |   0.0 |  0.01
Modify  | 0.040396   | 0.043368   | 0.046272   |   0.9 |  7.28
Other   |            | 0.004656   |            |       |  0.78

Nlocal:        83.3333 ave          91 max          77 min
Histogram: 3 4 8 4 7 8 5 8 0 1
Nghost:        1959.69 ave        1985 max        1935 min
Histogram: 3 1 6 3 12 7 5 6 2 3
Neighs:        12442.4 ave       13679 max       11035 min
Histogram: 3 2 4 6 6 8 5 4 7 3

Total # of neighbors = 597234
Ave neighs/atom = 149.30850
Neighbor list builds = 144
Dangerous builds = 13

#############################
# L I N E A R  Q U E N C H  #
#############################

# Define solid atoms. This closely follows ten Wolde  Ruiz-Montero and Frenkel  Faraday Discuss  1996  104  93-110
# Compute components of the per-atom q6 vector
compute q6 all orientorder/atom degrees 1 6 components 6 nnn NULL cutoff 1.3 # compute the Q6 parameter.
                                                                             # Use all neighbours within 1.3 unit cell.

# get number of connections
compute coord_number all coord/atom orientorder q6 0.5

# An atom is solid if it has 8 or more connections (of a possible 14)
variable is_solid atom c_coord_number>=8
group solid dynamic all var is_solid    # Must be dynamic to update
dynamic group solid defined

# do clustering
compute cluster solid cluster/atom 1.3 # Create a cluster where all atoms within are solid and max 1.3 units from another member

# define chunks one chunk per cluster
compute clus_chunks solid chunk/atom c_cluster nchunk every compress yes  # Says which atoms are in which chunk

# count the size of each chunk
compute size_chunks solid property/chunk clus_chunks count


# Find the maximum entry in the vector of chunk sizes
variable max_n equal max(c_size_chunks)


# Thermo style which includes this variable
# thermo_style custom step temp pe vol v_max_n

thermo ${N}  # Print the thermo information every 100 steps
thermo 1000  

# Reset the npt fix at a lower temperature (below freezing)
fix 1  all npt temp  ${temp} ${temp}  0.1  iso  5.68  5.68  0.5  mtk yes tchain  5  pchain  5
fix 1  all npt temp  0.45 ${temp}  0.1  iso  5.68  5.68  0.5  mtk yes tchain  5  pchain  5
fix 1  all npt temp  0.45 0.45  0.1  iso  5.68  5.68  0.5  mtk yes tchain  5  pchain  5

dump dmp2 all dcd ${N} traj.dcd
dump dmp2 all dcd 1000 traj.dcd


compute msd all msd com yes
variable twopoint equal c_msd[4]/6/(step*dt+1.0e-6)
fix 9 all vector 10 c_msd[4]
variable fit equal slope(f_9)/6/(10*dt)
thermo_style custom step temp pe c_msd[4] v_twopoint v_fit v_max_n

fix 1 all npt temp 1.25 ${temp} 0.1 iso 5.68 5.68 0.5 mtk yes tchain 5 pchain 5
fix 1 all npt temp 1.25 0.45 0.1 iso 5.68 5.68 0.5 mtk yes tchain 5 pchain 5
run 500000 # 5000000  # Run for this many steps
Neighbor list info ...
  update every 1 steps, delay 10 steps, check yes
  max neighbors/atom: 2000, page size: 100000
  master list distance cutoff = 3.8
  ghost atom cutoff = 3.8
  binsize = 1.9, bins = 8 8 8
  4 neighbor lists, perpetual/occasional/extra = 1 3 0
  (1) pair lj/cut, perpetual
      attributes: half, newton on
      pair build: half/bin/atomonly/newton
      stencil: half/bin/3d
      bin: standard
  (2) compute orientorder/atom, occasional
      attributes: full, newton on
      pair build: full/bin/atomonly
      stencil: full/bin/3d
      bin: standard
  (3) compute coord/atom, occasional
      attributes: full, newton on
      pair build: full/bin/atomonly
      stencil: full/bin/3d
      bin: standard
  (4) compute cluster/atom, occasional
      attributes: full, newton on
      pair build: full/bin/atomonly
      stencil: full/bin/3d
      bin: standard
Per MPI rank memory allocation (min/avg/max) = 9.823 | 9.830 | 9.834 Mbytes
Step Temp PotEng c_msd[4] v_twopoint v_fit v_max_n 
   12000    1.2356303   -7.0985442 1.6962482e-30 1.1779501e-32 8.3333333e+20            2 
   13000    1.2352311   -7.0857531   0.48766876 0.0031260817  0.039843763            1 
   14000    1.2562415   -7.1201365   0.90798654 0.0054046816  0.037139283            2 
   15000    1.2366575   -7.1314202    1.3662973 0.0075905404  0.036623652            3 
   16000    1.2584799    -7.088355    1.7942679 0.0093451449  0.036669299            1 
   17000    1.2421474   -7.1160885    2.1983433  0.010776192  0.036303731            2 
   18000    1.2436891    -7.133838    2.5382407  0.011751114  0.035595164            2 
   19000     1.232839   -7.1110052    2.9740972  0.013044285  0.035007782            3 
   20000    1.2412862   -7.0918747    3.3714625   0.01404776  0.034581415            1 
   21000    1.2307437   -7.1790662    3.7902908  0.015040836  0.034371482            3 
   22000     1.226356   -7.1351776    4.1758617  0.015817658  0.034236601            3 
   23000    1.2315434   -7.1280909    4.5705621  0.016560007  0.033987573       -1e+20 
   24000    1.2359296   -7.1295587    5.0321307  0.017472676  0.033966938            3 
   25000     1.236978   -7.1239614    5.4114423  0.018038141  0.034053737            2 
   26000    1.2573935   -7.1405469    5.8093655  0.018619761  0.034049951       -1e+20 
   27000    1.2321161   -7.1113239    6.1928421   0.01911371  0.033945633            1 
   28000    1.2124001   -7.1495385    6.5619178  0.019529517  0.033846303            1 
   29000    1.2315315   -7.1821401    7.0060718   0.02013239  0.033773245            2 
   30000    1.2277486   -7.1800089    7.5002949  0.020834152  0.033853849            2 
   31000    1.2397091    -7.156183    7.8820566  0.021188324  0.033905119            1 
   32000    1.2161603   -7.2360829    8.1713214  0.021279482  0.033897462            2 
   33000    1.2446617   -7.1826714    8.6837163  0.021928576  0.033884798            1 
   34000    1.1909836   -7.1994159    9.0566185  0.022197594  0.033887078            1 
   35000    1.2084206   -7.1616965    9.5123796  0.022648523  0.033915738            2 
   36000    1.2207298   -7.1466747    9.9323736  0.022991605   0.03396574            1 
   37000    1.2191458   -7.1951335    10.291573  0.023179218  0.033988488            2 
   38000    1.1958934   -7.1958136    10.719576  0.023507842  0.033993012            1 
   39000    1.1915993   -7.1763292    11.093965  0.023705054  0.033983969            2 
   40000    1.1942329   -7.2101735    11.509317  0.023977743  0.033983279            3 
   41000    1.2078655   -7.2200607    11.922278  0.024232272  0.033991248            3 
   42000    1.2198641   -7.2603247    12.276725  0.024358581  0.033974935            2 
   43000    1.1960309   -7.2131828    12.701213  0.024614754  0.033954511            1 
   44000    1.2128454   -7.2544769    13.129838  0.024867117  0.033925891            1 
   45000    1.1844657   -7.2159423    13.619029  0.025220424  0.033948902            2 
   46000    1.2041819   -7.1946381    14.056185  0.025464103  0.033967902            1 
   47000    1.2165485   -7.2698245    14.360287  0.025461501  0.034001636            2 
   48000    1.1997438   -7.2044695    14.821668  0.025732062  0.034007891            2 
   49000     1.190646   -7.2296837    15.197452  0.025846007  0.034012649            3 
   50000    1.1637099    -7.184306    15.652173  0.026086954  0.034015301            3 
   51000     1.194185   -7.3122533     15.86446   0.02592232  0.033981858            2 
   52000    1.1981549   -7.2414889    16.308557  0.026135508   0.03394182            2 
   53000    1.1766726   -7.2651266    16.713558  0.026279179  0.033924624            1 
   54000    1.2019056   -7.2475153    17.138911  0.026448937  0.033905083            1 
   55000    1.1605163   -7.2371957    17.527758  0.026557209  0.033872817            1 
   56000    1.1728005   -7.2661902    17.658911  0.026278141  0.033814387            3 
   57000    1.1806185   -7.3102812    17.991595  0.026303501   0.03372254            1 
   58000    1.1890276   -7.2779017    18.472405  0.026540811  0.033637604            2 
   59000    1.1658758   -7.2643814    18.842439  0.026613615  0.033565981            3 
   60000     1.167063   -7.2696045    19.142972  0.026587461  0.033514038            1 
   61000    1.1886123   -7.2666004    19.428233  0.026541302  0.033436784            1 
   62000    1.1671134    -7.266177    19.714028  0.026497349  0.033328945            4 
   63000    1.1581178   -7.2614796    19.991336  0.026443567  0.033202999            1 
   64000    1.1469136   -7.2852186    20.116135  0.026192884  0.033077414            1 
   65000    1.1737731   -7.2870614     20.31042     0.026039  0.032916873            3 
   66000    1.1618957   -7.2841007    20.669508  0.026097863  0.032760661            2 
   67000    1.1583045   -7.3340723    20.891602   0.02598458  0.032609233            1 
   68000    1.1449963   -7.3588255    21.227416   0.02601399  0.032448622            1 
   69000    1.1504791   -7.2840641    21.777195   0.02630096  0.032301829            2 
   70000    1.1335621   -7.2648604    21.850581  0.026012597  0.032165462            2 
   71000    1.1743257   -7.3169912     22.23654  0.026099225  0.032026635            4 
   72000    1.1716618   -7.3086877    22.573788  0.026127069  0.031897344            1 
   73000    1.1852959   -7.3277112    23.020061  0.026278608  0.031774564            1 
   74000    1.1110422   -7.3149483    23.346797  0.026291438  0.031663123            4 
   75000    1.1628171   -7.3263419    23.593897  0.026215441  0.031548849            1 
   76000    1.1497043   -7.3546946    23.917049  0.026224835  0.031442324            1 
   77000     1.146079   -7.3304896    24.209117  0.026200343   0.03133835            2 
   78000    1.1346804    -7.333149    24.535901  0.026213569  0.031228849            2 
   79000    1.1483661   -7.3456053    24.907776  0.026274025  0.031121477            2 
   80000     1.130927   -7.3740781    25.192138   0.02624181  0.031025519            1 
   81000      1.13547   -7.3053428    25.589893   0.02632705  0.030933067            1 
   82000    1.1544507   -7.3856349    25.836426   0.02625653  0.030842696            1 
   83000    1.1455355   -7.3734882    26.039427  0.026144003  0.030745921            1 
   84000    1.1345844   -7.3903206     26.33696  0.026127936  0.030645081            1 
   85000    1.1220847   -7.3997146    26.634573  0.026112326   0.03054698            2 
   86000    1.1470837   -7.3957059    26.909707  0.026075298  0.030447664            2 
   87000    1.1508891   -7.3794473    27.284538  0.026134615  0.030350122            3 
   88000    1.1486014   -7.3608077    27.565357  0.026103557  0.030260548            2 
   89000    1.1203272     -7.40186    27.641119  0.025881197  0.030157632            1 
   90000    1.1219603    -7.403597    27.935647   0.02586634  0.030051869            1 
   91000    1.1376921   -7.4136974    28.073618  0.025708442  0.029943061            3 
   92000    1.0944861   -7.4421242     28.39013  0.025715697   0.02983592            2 
   93000    1.1497109   -7.4498567    28.577159  0.025606774  0.029726825            1 
   94000    1.1216884    -7.373097    28.880746  0.025603498  0.029614721            1 
   95000    1.1171469   -7.3875167    29.194803  0.025609476  0.029511585            3 
   96000    1.1182943   -7.4373712    29.516007  0.025621534  0.029409613            2 
   97000    1.1373035   -7.4091636    29.997949  0.025771434   0.02931882            1 
   98000    1.1412946   -7.4518319    30.159354  0.025645709  0.029228058            4 
   99000    1.0927857    -7.445078     30.31983  0.025521742  0.029136313            1 
  100000    1.0980023   -7.4225828    30.841104   0.02570092  0.029054334            1 
  101000     1.119056   -7.4109027    31.175767   0.02572258   0.02897855            2 
  102000    1.1246918   -7.4156757    31.505381   0.02573969  0.028905686            1 
  103000    1.0888028    -7.428391    31.760398  0.025696115  0.028835297            1 
  104000    1.0874018   -7.4358834    31.946625  0.025598257  0.028763664            1 
  105000    1.0864713   -7.4640204     32.14914  0.025515191   0.02869098            3 
  106000    1.1092248    -7.469048    32.328327  0.025415351  0.028610792            2 
  107000    1.0889689   -7.4770122    32.636476  0.025417816  0.028528418            1 
  108000    1.1029388   -7.4715873    32.884621  0.025373935  0.028446629            1 
  109000    1.0996878   -7.4323868    33.063684  0.025278046  0.028361609            4 
  110000    1.1149211    -7.485877    33.170859  0.025129439  0.028271152            2 
  111000    1.1148532   -7.4335814     33.76717  0.025350728   0.02818692            3 
  112000    1.0884406   -7.4675752    33.944137  0.025256054  0.028100841            2 
  113000    1.0869188   -7.4595213    34.168855  0.025198271  0.028022365            1 
  114000    1.0857802    -7.469644     34.53423   0.02524432  0.027944165            2 
  115000    1.0961942   -7.5203038    34.716215  0.025156677  0.027868492            2 
  116000    1.0995827   -7.5181047     35.00708  0.025148764  0.027796962            2 
  117000    1.0586965   -7.4882209    35.394801  0.025209972  0.027730978            3 
  118000     1.062641   -7.4848562    35.656173  0.025180913  0.027663219            1 
  119000    1.0598602   -7.5385176     35.83474  0.025094356  0.027596124            2 
  120000    1.0759788    -7.448538    36.295623  0.025205293  0.027533172            1 
  121000    1.0557279   -7.5041568    36.410248  0.025075928  0.027469537            1 
  122000    1.0760889   -7.4698473    36.752997  0.025104506  0.027405694            1 
  123000    1.0737804   -7.5554446    37.047079  0.025099647  0.027347366            1 
  124000    1.0738331   -7.5130834    37.410523   0.02514148  0.027290723            1 
  125000    1.0627193   -7.5453195    37.587339  0.025058226  0.027232495            3 
  126000     1.060154   -7.5831814    37.780118  0.024986851  0.027175532            5 
  127000    1.0671266    -7.547555    38.139137   0.02502568  0.027118203            1 
  128000    1.0621282   -7.5291371     38.27636  0.024919505  0.027058129            1 
  129000    1.0318605   -7.5160996    38.247988  0.024708003   0.02699195            1 
  130000    1.0503863   -7.5068898    38.540185  0.024705247  0.026922285            3 
  131000    1.0517327   -7.5586056    38.554324  0.024525651  0.026851557            1 
  132000    1.0440463    -7.562062    38.828378  0.024512865  0.026781165            2 
  133000    1.0466268   -7.5597575    39.188546  0.024554227  0.026709687            1 
  134000    1.0521258   -7.5636672    39.404283  0.024505151  0.026644214            3 
  135000    1.0686455   -7.5384566    39.702054  0.024507441   0.02657631            3 
  136000    1.0501702   -7.5640132    39.907295  0.024452999  0.026507452            3 
  137000    1.0371233    -7.584749    39.887871  0.024262695   0.02643789            2 
  138000    1.0404889   -7.5482953     40.17035  0.024257458  0.026367369            1 
  139000    1.0455469   -7.5370284    40.622171  0.024353819  0.026300888            1 
  140000    1.0337389   -7.5701837    40.665852  0.024205864  0.026234371            3 
  141000    1.0399642   -7.5663841    40.803347  0.024115453  0.026165432            2 
  142000    1.0278262   -7.5999939     41.24524  0.024204953  0.026100488            1 
  143000    1.0345984   -7.5701308    41.334877  0.024087924   0.02603507            2 
  144000    1.0447255   -7.5661595    41.681912  0.024121477  0.025969783            4 
  145000    1.0291573   -7.6013426    41.828926  0.024039613  0.025904231            5 
  146000    1.0564392   -7.5546729    42.092195  0.024025225  0.025837385            2 
  147000     1.034279   -7.5699265     42.51076   0.02409907  0.025774142            4 
  148000    1.0248505   -7.6037841    42.678381   0.02403062  0.025714037            2 
  149000    1.0065556   -7.5943664    42.955738  0.024024462  0.025653518            2 
  150000    1.0239072   -7.6241759    42.817033  0.023787241  0.025590889            1 
  151000    1.0266641   -7.5923907     43.07121  0.023769983  0.025527916            1 
  152000    1.0540202   -7.6502264    43.199126  0.023683731  0.025463883            4 
  153000    1.0228763   -7.6131785    43.635563  0.023766646  0.025398778            2 
  154000    1.0074347   -7.6594249    43.705951  0.023650407  0.025336304            5 
  155000    1.0330369    -7.646888    43.966743  0.023638034  0.025273884            1 
  156000    1.0285707   -7.6932893    44.353143  0.023692918   0.02521328            1 
  157000    1.0127286   -7.6471493    44.325798  0.023527494  0.025153452            4 
  158000    1.0000598   -7.6447432    44.567402  0.023506014  0.025093406            2 
  159000    1.0260112   -7.6452919    44.951192  0.023559325  0.025035186            1 
  160000    1.0062449   -7.6491466    44.982653  0.023428465  0.024973902            1 
  161000   0.99423074   -7.6819069    45.143049  0.023365967   0.02491439            3 
  162000    1.0159264   -7.6662071    45.544349  0.023428163  0.024856191            2 
  163000    1.0190943   -7.6637402     45.67778  0.023352648  0.024796466            2 
  164000   0.99644626    -7.693303    45.729829  0.023236701  0.024736421            1 
  165000    0.9962505   -7.6698712    46.009363  0.023237052  0.024676544            4 
  166000    1.0065182   -7.6985958    46.005638    0.0230952  0.024614331            1 
  167000     1.022401   -7.6951637     46.35455  0.023131013  0.024552763            2 
  168000    1.0047008   -7.7161528    46.313353  0.022972893  0.024492712            2 
  169000   0.98481182   -7.6920333     46.61615  0.022986267  0.024430651            5 
  170000   0.99307177   -7.6975847    46.768669  0.022925818  0.024369708            2 
  171000   0.99427643   -7.7482213    46.861866  0.022837167  0.024306969            2 
  172000   0.99400061   -7.6851938    47.053294  0.022797139  0.024243734            1 
  173000   0.99150715   -7.7492496    47.242523  0.022756514  0.024180167            2 
  174000   0.99612489   -7.7140083    47.506618  0.022752212  0.024118104            2 
  175000   0.97160111   -7.7183118    47.722378  0.022724942  0.024055971            1 
  176000   0.96433072   -7.7319702    47.822639  0.022643295  0.023994577            4 
  177000   0.99589499   -7.7483277     48.08245  0.022637688  0.023933334            2 
  178000    1.0027647   -7.7871006    48.015027  0.022478945  0.023872638            5 
  179000     0.979082   -7.7697374    48.243548  0.022459752  0.023810534            3 
  180000   0.97599261    -7.772506    48.644841   0.02252076  0.023750909            2 
  181000   0.98032642   -7.7500643    48.730815  0.022435918  0.023691384            1 
  182000    0.9781174    -7.738321    48.970811  0.022422533  0.023632386            1 
  183000   0.99256025   -7.7703695    49.134489   0.02237454  0.023575268            5 
  184000   0.95056213   -7.7620214    49.470166  0.022404967  0.023518943            4 
  185000   0.97999128   -7.7482379    49.451727  0.022275552  0.023460373            4 
  186000   0.97257499   -7.7716622    49.645689  0.022242692  0.023401938            1 
  187000   0.97477063   -7.7928491    49.809032  0.022196538  0.023344258            2 
  188000   0.96850893    -7.778458    49.998602  0.022162501   0.02328603            3 
  189000   0.97693669   -7.7556895    50.083952  0.022082871  0.023227348            2 
  190000   0.97532958   -7.7709186    50.371054  0.022092567  0.023169252            1 
  191000   0.95628892   -7.8122639    50.205717  0.021904763  0.023110678            3 
  192000    0.9646002   -7.7880054    50.463597  0.021902603  0.023051178            1 
  193000   0.95183199   -7.8252447    50.572143  0.021835986  0.022990991            2 
  194000   0.98000034   -7.8117448    50.563915  0.021719895  0.022931015            1 
  195000   0.95575158    -7.797384    50.918282   0.02175995  0.022870466            2 
  196000    0.9370033   -7.8051856      51.1359  0.021741454  0.022810378            3 
  197000    0.9446229   -7.8599435    51.054129  0.021596501  0.022750584            4 
  198000    0.9460462   -7.8074699    51.425495  0.021643727  0.022690495            1 
  199000   0.97718816   -7.8461718    51.386338  0.021518567   0.02263061            2 
  200000   0.94117592   -7.8136997    51.373692  0.021405705  0.022568643            1 
  201000   0.92100474    -7.846438    51.525073  0.021361971  0.022505901            2 
  202000   0.93119389   -7.8360638    51.578185  0.021278129  0.022443676            2 
  203000   0.93481472     -7.81023    51.842867  0.021281965  0.022381269            4 
  204000   0.95239095   -7.8746086    51.947726  0.021220476  0.022318731            2 
  205000   0.94163333   -7.8405706    51.929598  0.021109592  0.022255599            3 
  206000   0.92314532   -7.8791541    52.032268  0.021048652  0.022192862            1 
  207000   0.93578301   -7.8492695    52.233048  0.021027797  0.022129743            1 
  208000    0.9431205   -7.8526227     52.26739   0.02094046  0.022066067            2 
  209000   0.92964197   -7.8622461    52.448286  0.020912395  0.022002253            2 
  210000    0.9197172   -7.8640706    52.536542  0.020847834  0.021938914            2 
  211000   0.89713774    -7.892974    52.601772  0.020774791  0.021874761            1 
  212000   0.93193322   -7.8812393    52.677506  0.020706567  0.021809115            1 
  213000   0.92272477   -7.8620408    52.719719  0.020625868  0.021743971            2 
  214000    0.9401862   -7.8633029    52.777952  0.020552162  0.021679637            5 
  215000   0.89273321   -7.8737943    53.003163  0.020543862   0.02161483            2 
  216000   0.91106894   -7.8757185    53.103065  0.020487293  0.021550633            1 
  217000   0.91462604   -7.8475237    53.436472  0.020520919  0.021487662            2 
  218000   0.89509321   -7.9006042    53.412404  0.020417585  0.021425299            2 
  219000     0.920494   -7.8888964    53.465395  0.020344519  0.021362544            2 
  220000   0.91798317   -7.9428132     53.60009  0.020303064  0.021299605            2 
  221000   0.90775166    -7.952363    53.724956  0.020258279  0.021236852            2 
  222000   0.91677868   -7.9129942    53.904907  0.020234574  0.021175152            2 
  223000   0.91223818   -7.9490573    53.866503  0.020129485  0.021112764            1 
  224000    0.9116755    -7.964019    53.999179   0.02008898  0.021049606            2 
  225000   0.88213525   -7.9121282    54.030158   0.02001117  0.020986214            5 
  226000   0.88654013   -7.9303833    54.173979  0.019975656  0.020922725            2 
  227000   0.90905772   -7.9408128    54.324549  0.019942933  0.020859927            2 
  228000   0.90216993   -7.9598838    54.418913  0.019889954  0.020797865            3 
  229000   0.93433714   -7.9386228    54.660122  0.019890874  0.020736038            1 
  230000   0.90507049   -7.9582423    54.684882  0.019813363  0.020674132            1 
  231000   0.90027783   -7.9468818    54.880796  0.019798267  0.020613408            1 
  232000   0.90968106   -7.9611744    55.080892  0.019784803  0.020553544            2 
  233000   0.88418892   -7.9129034    55.186424  0.019737634  0.020493806            1 
  234000   0.87325652   -7.9739376    55.055706  0.019606733  0.020433646            2 
  235000   0.87742067   -7.9655982    55.210831  0.019578309  0.020373699            2 
  236000   0.90111883   -7.9765858    55.402539  0.019563043  0.020314001            1 
  237000   0.87772892   -7.9924615    55.228907  0.019419447  0.020253868            1 
  238000   0.89312556   -8.0214144    55.367685  0.019386444  0.020192444            4 
  239000    0.9010119   -8.0133854    55.519181  0.019358152  0.020131526            4 
  240000   0.89071006   -7.9834593     55.69095  0.019337135  0.020071051            3 
  241000   0.89280976    -7.972242    55.629745  0.019235735  0.020010078            2 
  242000   0.88778193   -7.9681973    55.868113  0.019238331  0.019949332            2 
  243000   0.87004503   -8.0043086    55.711782  0.019105549   0.01988861            3 
  244000   0.88494971   -7.9992135    55.763863  0.019045035  0.019828002            8 
  245000   0.91789211   -7.9995204     55.98309  0.019041867  0.019767247            8 
  246000   0.86912851   -8.0279018    56.018792  0.018976555  0.019706172            2 
  247000   0.87258104   -8.0343166    55.893497  0.018857455  0.019644623            2 
  248000   0.84795364   -8.0206954    56.092124   0.01884816  0.019583303            2 
  249000   0.86328305   -8.0327049    56.180701  0.018802109  0.019521883            2 
  250000   0.88266378   -8.0527804    56.313252  0.018771084  0.019461174            2 
  251000   0.86486852   -8.0380959    56.528018  0.018767602  0.019401519            2 
  252000   0.85988191   -8.0549813    56.606612  0.018719118  0.019342407            3 
  253000   0.86885895   -8.0566041    56.540124  0.018623229  0.019282244            4 
  254000   0.85928223   -8.0439732    56.598136  0.018568942  0.019221969            2 
  255000   0.86190376   -8.0789967    56.566826  0.018485891  0.019161671            3 
  256000   0.85897846   -8.0880495    56.554062  0.018409525  0.019100999            3 
  257000   0.87731581   -8.0538769    56.545611  0.018335153  0.019040278            2 
  258000   0.86136395   -8.0690587    56.499843  0.018249303  0.018979268            3 
  259000   0.85827238   -8.0664697    56.750104  0.018259364  0.018917684            3 
  260000   0.84328622   -8.1187533    56.557143  0.018127289  0.018856244            3 
  261000   0.85169016   -8.1322282     56.74719  0.018118515  0.018794291            3 
  262000   0.84287001   -8.0774339    56.833407  0.018076783   0.01873311            1 
  263000   0.86362401   -8.0734267    56.891841  0.018026566  0.018672424            2 
  264000   0.84291343   -8.0979835    57.021816  0.017999311  0.018611623            2 
  265000   0.85562579   -8.1379778    56.881386  0.017887228  0.018551513            2 
  266000   0.83577022   -8.1125819    57.101291  0.017888876  0.018491533            2 
  267000   0.84236063   -8.1161104    57.074542  0.017813527  0.018431776            2 
  268000   0.85847744   -8.1652662    57.294944  0.017815592  0.018372062            4 
  269000   0.84948889   -8.1291943    57.190722  0.017717076  0.018312107            2 
  270000   0.82166272   -8.1431306     57.39899  0.017715738  0.018252799            1 
  271000   0.82555848   -8.1500298    57.297872  0.017619272  0.018193303            3 
  272000   0.82967389   -8.1792766    57.355178  0.017572052  0.018133422            6 
  273000   0.83134305   -8.1736371    57.355849   0.01750789   0.01807356            2 
  274000   0.81442118   -8.1857406    57.474922  0.017480208  0.018013967            4 
  275000   0.81573694     -8.17645    57.582963  0.017449383  0.017954492            5 
  276000   0.83586341   -8.2197752    57.472909  0.017352931  0.017894334            2 
  277000   0.84685172   -8.2105886    57.365404  0.017257943  0.017834431            4 
  278000   0.80603849   -8.2092919    57.301584  0.017176734  0.017774178            2 
  279000   0.83043446   -8.1603922     57.73432  0.017244421   0.01771433            2 
  280000   0.81716372    -8.171497    57.614539  0.017147184  0.017655158            2 
  281000   0.82289003    -8.195129    57.812427  0.017144848  0.017596497            2 
  282000   0.82714543   -8.2201585    57.804035  0.017081571  0.017537872            5 
  283000   0.80736665    -8.215838    58.004063  0.017080113  0.017479788            3 
  284000   0.80584955   -8.2214706     57.93383  0.016999363  0.017422297            7 
  285000   0.80807447   -8.2048671    58.070558  0.016979695  0.017364745            3 
  286000   0.80431424   -8.1861401    58.048445  0.016913882  0.017307509            4 
  287000   0.81284257   -8.2325593     58.09548  0.016868606  0.017250081            3 
  288000   0.79435701   -8.1957392    58.198288  0.016839782  0.017193088            3 
  289000   0.83344611   -8.1978811    58.042141  0.016736488  0.017135911            3 
  290000   0.77975192   -8.1977554    58.273038  0.016745126  0.017078949            5 
  291000   0.79933409   -8.2254884    58.234238  0.016676471  0.017022116            2 
  292000   0.81270363   -8.2588156    58.180338  0.016603978    0.0169652            3 
  293000   0.78531686   -8.2091415    58.392627  0.016607687  0.016909026            2 
  294000   0.80746649   -8.2429926    58.378897  0.016547306  0.016853228            7 
  295000     0.804522   -8.2205736    58.571349  0.016545579  0.016797596            2 
  296000    0.7938888    -8.246673    58.406474  0.016443264  0.016742402            2 
  297000   0.80369819   -8.2820188     58.61111  0.016445317  0.016687043            3 
  298000   0.79979533   -8.2497457    58.631051  0.016395708  0.016632126            4 
  299000   0.77349667   -8.2335248    58.788252  0.016384686  0.016577352            2 
  300000   0.80489493   -8.2913318    58.624008  0.016284447  0.016522924            3 
  301000   0.78529323   -8.2784989    58.864309  0.016296874  0.016468822            3 
  302000   0.79275686   -8.2820276    58.738752  0.016208265   0.01641469            3 
  303000   0.78010466   -8.2973404    58.652005  0.016130914  0.016360522            4 
  304000    0.7661321   -8.2581894    58.756971  0.016106626  0.016306169            3 
  305000   0.78278012   -8.2580663     58.60588  0.016012535  0.016251911            1 
  306000   0.77141219   -8.2769832    58.853064  0.016027523  0.016197201            3 
  307000   0.78850038   -8.2989521    58.849268  0.015974286  0.016142754            2 
  308000     0.773399   -8.2849315    58.915001  0.015940206  0.016088935            2 
  309000   0.75679086   -8.2751922    58.834234  0.015866838  0.016035221            2 
  310000    0.7632372    -8.300701    58.710697  0.015782445   0.01598136            3 
  311000   0.78352474   -8.3292625    58.858109  0.015771197  0.015927357            4 
  312000   0.75300255   -8.3393325    58.983956  0.015754262  0.015873317            4 
  313000   0.75948394   -8.3279323    58.904963  0.015682897  0.015819478            3 
  314000   0.77049058    -8.356812     59.05227  0.015672046  0.015766173            2 
  315000   0.77683938   -8.3363993    58.916754  0.015586443  0.015712778            3 
  316000   0.76410979    -8.343952    59.068647  0.015577175  0.015659538            6 
  317000   0.77652835   -8.3349717    58.986173  0.015506355  0.015606348            3 
  318000    0.7542783   -8.3503742    58.854098  0.015422982  0.015553378            2 
  319000   0.76091801   -8.3498345    59.050613   0.01542597  0.015500614            8 
  320000     0.765954   -8.3459918    59.266215   0.01543391  0.015448632            5 
  321000   0.75326388   -8.3603779    59.197192  0.015367911  0.015396866            3 
  322000   0.76263526    -8.368567    59.122795   0.01530093  0.015344958            5 
  323000   0.74160605   -8.3994179    59.161642  0.015263582  0.015293101            2 
  324000   0.74544431   -8.3715165    59.110588   0.01520334  0.015241312            5 
  325000   0.75058408   -8.3868176    59.118304   0.01515854  0.015189406            2 
  326000   0.74810646   -8.3778274    59.140211  0.015117641  0.015137735            3 
  327000   0.75427788   -8.3918997    59.107078  0.015062966  0.015086034            3 
  328000   0.74974355    -8.402127     59.22472  0.015046931  0.015034629            5 
  329000   0.75545019   -8.3935055    59.398395  0.015045186  0.014983356            2 
  330000   0.74638687   -8.3941005    59.343829  0.014985815  0.014932767            3 
  331000   0.73295349   -8.4149367    59.231468  0.014912253  0.014882078            2 
  332000   0.72922072   -8.4063165       59.258  0.014873996   0.01483156            1 
  333000    0.7506105   -8.4185466    59.366472  0.014856475  0.014781247            2 
  334000   0.74450705   -8.3864828    59.228695  0.014777618  0.014730961            4 
  335000   0.73573938   -8.3976414    59.355878  0.014765144  0.014680807            1 
  336000   0.72576475   -8.4384512     59.35191  0.014720216  0.014630909            3 
  337000   0.73003514   -8.3982611     59.43646  0.014697443  0.014580925            2 
  338000   0.73205331   -8.4199132    59.271736  0.014613347   0.01453165            3 
  339000   0.71861454   -8.4177615    59.430535  0.014609276  0.014482334            2 
  340000   0.72477041   -8.4505397    59.325443   0.01454055  0.014432792            4 
  341000   0.74364762   -8.4082904    59.475343  0.014534541  0.014383497            3 
  342000   0.74016934   -8.4501058    59.223902  0.014430775  0.014334115            2 
  343000   0.71496512   -8.4677499     59.31492  0.014410816  0.014284683            1 
  344000    0.7159593    -8.445187    59.244018  0.014351748  0.014235334            1 
  345000   0.71260014   -8.4519383    59.296358  0.014322792  0.014186115            2 
  346000   0.71898978   -8.4666819    59.247448  0.014269617  0.014137108            4 
  347000   0.72173816   -8.4611104    59.409454    0.0142674  0.014087961            1 
  348000   0.71184415   -8.4842104    59.260626  0.014190763  0.014039005            4 
  349000   0.71725912   -8.4678334    59.178408   0.01413047   0.01398997            6 
  350000   0.70439566   -8.4835431    59.329175  0.014125994  0.013940997            1 
  351000   0.71750394    -8.511374      59.1736  0.014048813  0.013892102            1 
  352000   0.69645026   -8.5047591    59.292974  0.014037162  0.013843542            2 
  353000   0.70765436   -8.5199863    59.263296  0.013990391  0.013795005            2 
  354000    0.6971869   -8.4951613    59.364542  0.013974704  0.013746565            3 
  355000   0.70650802   -8.5346224    59.225538  0.013902708  0.013698603            2 
  356000   0.69767747   -8.5035113     59.15415  0.013846945  0.013650613            4 
  357000   0.69131962   -8.4843324    59.327618   0.01384865  0.013602851            3 
  358000   0.70102023   -8.5269036    59.278219  0.013798468  0.013555169            4 
  359000    0.6867488   -8.5007785    59.362284  0.013779546  0.013507918            2 
  360000    0.6913854   -8.5323922    59.289369  0.013724391  0.013460517            5 
  361000   0.70837389   -8.5037067    59.322356  0.013693988  0.013413558            2 
  362000   0.68799934   -8.4897179    59.398023  0.013673578  0.013366803            8 
  363000   0.68932771   -8.5275778    59.468293  0.013652042  0.013320305            7 
  364000   0.67351858   -8.5289656    59.327473  0.013582297  0.013273836            2 
  365000   0.68446211    -8.494108    59.417047  0.013565536  0.013227535            3 
  366000   0.69397749   -8.5383683    59.337033  0.013510253  0.013181165            6 
  367000    0.6967527   -8.5599654    59.203496  0.013443119  0.013135109            3 
  368000   0.66938424   -8.5667039    59.221202  0.013410598  0.013089132            5 
  369000   0.66622709   -8.5467924    59.404908  0.013415743  0.013043299            8 
  370000    0.6828625   -8.5332944    59.356131  0.013368498  0.012997625            3 
  371000   0.68402764   -8.5446406    59.433984  0.013349951   0.01295237            2 
  372000   0.67278325   -8.5427912    59.447129  0.013317009  0.012907344            2 
  373000    0.6681943   -8.5613231    59.386442  0.013267748  0.012862241            1 
  374000   0.66143708   -8.5722863    59.291836  0.013211193  0.012817292            3 
  375000   0.67919796   -8.5587442    59.334949  0.013185544  0.012772425            4 
  376000   0.64765727   -8.5695152    59.265076   0.01313499  0.012727707            4 
  377000   0.66983086   -8.5909017     59.26916  0.013101052   0.01268306            4 
  378000   0.66045443   -8.5911305    59.406888  0.013096757  0.012638798            5 
  379000   0.67372424   -8.5842726    59.331003  0.013045515  0.012594777            5 
  380000   0.65532631   -8.5991374    59.366832  0.013019042  0.012550736            4 
  381000   0.65844261   -8.5920585    59.345751   0.01298026  0.012506944            2 
  382000   0.64627817   -8.5865931    59.268026  0.012929325   0.01246307            2 
  383000   0.64439219   -8.5828992    59.258514  0.012893497  0.012419352            5 
  384000   0.63976288   -8.6064918      59.3007  0.012869075  0.012375928            2 
  385000   0.65628108   -8.6097881     59.34125  0.012844426   0.01233264            2 
  386000   0.65626179   -8.6275554     59.26908   0.01279557  0.012289469            3 
  387000    0.6429975    -8.595824     59.29505  0.012768099  0.012246509            2 
  388000   0.64193926   -8.6140057    59.171456  0.012708646   0.01220345            3 
  389000   0.63655363   -8.6297003    59.283677  0.012700016  0.012160659            3 
  390000   0.64777861   -8.6590635    59.201881  0.012649975  0.012117841            2 
  391000   0.65337974   -8.6325486     59.19276  0.012615678  0.012075148            3 
  392000   0.63566276   -8.6647063    59.209278  0.012587006   0.01203259            3 
  393000   0.63430716   -8.6365277    59.281603  0.012570314  0.011990173            1 
  394000   0.65017292   -8.6418945    59.172836  0.012515405   0.01194812            5 
  395000   0.61954365   -8.6537152    59.223563  0.012494423   0.01190617            3 
  396000   0.63357145   -8.6506679    59.290897  0.012477041  0.011864393            2 
  397000   0.62051057   -8.6520806    59.224683  0.012431714  0.011822813            3 
  398000   0.62388253    -8.650479    59.249681  0.012405712  0.011781295            2 
  399000   0.61929964   -8.6829298    59.165895  0.012357121  0.011739925            3 
  400000   0.62400939   -8.6643737    59.166301  0.012326313  0.011698758            2 
  401000   0.63659704   -8.6681248    59.203004  0.012303201  0.011657761            3 
  402000   0.63546098   -8.6772095     59.25818  0.012284034  0.011616985            2 
  403000    0.6170133   -8.6695355    59.048784  0.012210253  0.011576131            3 
  404000   0.61171882   -8.6734348    59.131813  0.012197156   0.01153547            2 
  405000   0.61446821   -8.6938588    59.199435  0.012180954  0.011495059            2 
  406000   0.62041291   -8.6688568    59.251119   0.01216156  0.011454889            3 
  407000   0.61400229   -8.6779599     59.20454  0.012122142  0.011414909            2 
  408000   0.61266279   -8.7083517     59.24492  0.012100678  0.011375144            4 
  409000   0.62279204   -8.7002122    59.262648  0.012074704   0.01133539            1 
  410000   0.61622108   -8.7153273    59.245933  0.012041856  0.011295931            5 
  411000       0.6119   -8.7078033    59.228002  0.012008922  0.011256569            4 
  412000   0.61933257   -8.7196611    59.207305  0.011975587   0.01121727            4 
  413000    0.6023719   -8.7109664    59.145154   0.01193405   0.01117806            7 
  414000   0.62273631   -8.7188232    59.180165  0.011912272   0.01113897            5 
  415000   0.59919542   -8.7253054    59.007707  0.011848937  0.011099964            4 
  416000   0.61104006   -8.7531333    59.005159  0.011819944   0.01106116            4 
  417000   0.60273456   -8.7404534    58.957352  0.011782045  0.011022478            4 
  418000   0.60681251   -8.7213611    59.067423  0.011775802  0.010984033            6 
  419000   0.59083288   -8.7247886    59.066114  0.011747437  0.010945704            3 
  420000    0.5997841   -8.7306554    59.152011   0.01173651  0.010907532            1 
  421000   0.58795606   -8.7275393    59.114679  0.011701243  0.010869554            3 
  422000   0.60175835   -8.7378571    59.069669  0.011664627  0.010831725            3 
  423000   0.60997353   -8.7464998    59.033179  0.011629862  0.010794049            3 
  424000   0.59219787   -8.7646061    59.045309  0.011604817  0.010756507            3 
  425000   0.58991493   -8.7907954      59.0339  0.011575274  0.010719081            5 
  426000   0.57296665   -8.7597816    59.149169  0.011570651  0.010681859            4 
  427000   0.56595045    -8.783655    58.995884  0.011513638  0.010644716            4 
  428000   0.58255036   -8.7553757    58.877924   0.01146377  0.010607681            5 
  429000   0.57618371   -8.7756251    59.053011  0.011471059  0.010570928            7 
  430000   0.57511085    -8.779293    59.137062  0.011460671   0.01053428            4 
  431000   0.56643907   -8.7740958    59.054496  0.011418116  0.010497792            3 
  432000   0.58415046   -8.7684738      59.0109  0.011383275  0.010461435            3 
  433000   0.58640143   -8.7685179    59.118403  0.011377676  0.010425337            5 
  434000   0.58770355   -8.7618187    59.027926  0.011334087  0.010389277            5 
  435000   0.57433815   -8.7920589    58.982347    0.0112993  0.010353394            3 
  436000   0.56660388   -8.7886477    59.043747   0.01128512  0.010317669            4 
  437000   0.56486154   -8.7866248    59.020626  0.011254887  0.010282076            4 
  438000   0.57054713    -8.797392     59.00129  0.011225512  0.010246598            4 
  439000   0.56454074   -8.8211687    59.087999  0.011216401  0.010211285            3 
  440000   0.57825776   -8.7981508    59.036758  0.011181204  0.010176045            2 
  441000   0.56170979   -8.7982649    58.853146  0.011121154  0.010140975            5 
  442000   0.54922285   -8.8068996    58.929587  0.011110405  0.010105957            3 
  443000   0.55523072   -8.8072682    58.908709  0.011081397   0.01007102            3 
  444000    0.5551783   -8.8183608    58.922671   0.01105906  0.010036325            2 
  445000    0.5437629   -8.8356875    58.939059  0.011037277  0.010001697            3 
  446000   0.55310865   -8.8319624    58.948285  0.011014254 0.0099672293            3 
  447000   0.54927247   -8.8190851    58.882308  0.010977313 0.0099329191            2 
  448000   0.54303126   -8.8299124    58.898953  0.010955906 0.0098987618            3 
  449000   0.54092206   -8.8181838    58.907006     0.010933 0.0098647914            5 
  450000   0.54512488   -8.8401992    59.008083  0.010927423 0.0098309417            1 
  451000   0.54824347   -8.8497756    58.864761  0.010876711 0.0097972163            3 
  452000   0.55152324   -8.8481884    58.815451  0.010843557 0.0097636017            2 
  453000    0.5393798   -8.8522652    58.912705   0.01083751 0.0097300932            2 
  454000     0.551809   -8.8481593    58.796709  0.010792347 0.0096967017            2 
  455000   0.54191604   -8.8335804     58.85817  0.010779885 0.0096634548            5 
  456000   0.53410477   -8.8611813    58.844995  0.010753837 0.0096303537            3 
  457000    0.5363987   -8.8259878    58.803527  0.010722744 0.0095974074            3 
  458000   0.53089171   -8.8392206    58.747582  0.010689152 0.0095646269            4 
  459000   0.52575003   -8.8372418    58.797944  0.010675008 0.0095319508            4 
  460000    0.5275068    -8.852763    58.731581  0.010639779 0.0094994385            2 
  461000   0.53250981   -8.8532692    58.824534  0.010633502 0.0094670623            2 
  462000   0.53918134   -8.8487035    58.729498  0.010593344 0.0094348054            4 
  463000   0.53597955   -8.8598767    58.833611  0.010589203 0.0094026858            3 
  464000    0.5236644   -8.8374074    58.871928  0.010573263 0.0093707469            4 
  465000     0.522145   -8.8628752    58.869006  0.010550001 0.0093389935            3 
  466000   0.51812457   -8.8633329    58.785869  0.010512494 0.0093073226            2 
  467000   0.51832916   -8.8669207    58.819717  0.010496024 0.0092757924            2 
  468000   0.52467084   -8.8775377    58.818957  0.010473461  0.009244419            3 
  469000   0.51610623   -8.8772374    58.760835  0.010440802 0.0092131811            3 
  470000   0.53412212   -8.8879596    58.726748  0.010412544 0.0091820547            4 
  471000   0.52573652   -8.8811057    58.772451  0.010398523 0.0091510467            6 
  472000   0.51438064   -8.8686961    58.714002  0.010366173 0.0091201435            3 
  473000   0.51922404   -8.8849098     58.81431  0.010361929 0.0090893578            3 
  474000   0.50501232   -8.8860053    58.710708  0.010321854 0.0090587418            3 
  475000   0.51338758   -8.8939193    58.660981    0.0102914 0.0090282292            3 
  476000   0.50538938   -8.9058631    58.717403  0.010279657 0.0089977613            2 
  477000   0.50574469   -8.8941276    58.675336  0.010250758 0.0089675496            2 
  478000   0.51385415   -8.8900995    58.609142  0.010217772 0.0089373862            2 
  479000   0.49620938   -8.9070507    58.667919  0.010206667 0.0089073303            4 
  480000   0.50186721   -8.8874014    58.687949   0.01018888 0.0088773792            3 
  481000   0.50657279   -8.9012178    58.710316  0.010171572 0.0088476016            1 
  482000   0.50271118   -8.9197199    58.634181  0.010137307  0.008817909            4 
  483000   0.49617604   -8.9020951    58.752409  0.010136717 0.0087882935            3 
  484000   0.49561555   -8.9283983    58.664545  0.010100645  0.008758835            3 
  485000    0.4836859   -8.9217641    58.664604  0.010079829 0.0087295563            5 
  486000   0.50012174   -8.9223625    58.633611  0.010053774 0.0087003667            4 
  487000   0.49609521   -8.9223562    58.673326  0.010039926 0.0086712934            3 
  488000   0.48267941   -8.9371961    58.593426  0.010005708 0.0086422954            3 
  489000   0.47547266   -8.9297166    58.632709 0.0099919408 0.0086134299            3 
  490000   0.48611647   -8.9397272    58.526758 0.0099535303 0.0085847203            3 
  491000   0.48059475   -8.9267963    58.686968 0.0099604495 0.0085561204            5 
  492000   0.48143072   -8.9195791    58.584551 0.0099228575  0.008527703            1 
  493000   0.48321333   -8.9470796    58.597537 0.0099049252 0.0084994058            4 
  494000    0.4845951   -8.9325171    58.571449 0.0098804738 0.0084712506            4 
  495000   0.47310776   -8.9495166    58.647511 0.0098733183 0.0084432253            4 
  496000   0.47250506   -8.9316313    58.602771 0.0098458956 0.0084152528            3 
  497000   0.46822633   -8.9467275    58.551481 0.0098174851 0.0083873613            2 
  498000   0.46929425   -8.9483527    58.527076 0.0097936874  0.008359606            4 
  499000   0.46859002   -8.9654351    58.528568 0.0097743099 0.0083319255            3 
  500000   0.47062207   -8.9530816    58.555896  0.009759316 0.0083043984            3 
  501000   0.47025416   -8.9597628    58.540796 0.0097373247 0.0082770208            3 
  502000   0.46347864   -8.9507891    58.661654 0.0097379903 0.0082497148            3 
  503000   0.47200459    -8.946782    58.465947 0.0096862073 0.0082226163            2 
  504000   0.46321342   -8.9684881    58.413656 0.0096583426 0.0081955129            3 
  505000   0.45907791    -8.978743    58.485502  0.009651073 0.0081685541            5 
  506000    0.4642422   -8.9622184    58.520197 0.0096377136 0.0081417493            2 
  507000   0.45815211   -8.9797913    58.455749 0.0096081113   0.00811507            2 
  508000   0.45500271   -8.9836183    58.449022 0.0095880942 0.0080884547            3 
  509000   0.45017792   -8.9687142    58.469032  0.009572533 0.0080619213            5 
  510000   0.45304236   -8.9756621    58.446014 0.0095500022 0.0080355191            4 
  511000   0.44262356   -8.9803218    58.465715 0.0095345262 0.0080091802            3 
  512000   0.45141334    -8.987336    58.427629 0.0095097053 0.0079829738            5 
Loop time of 1246.26 on 48 procs for 500000 steps with 4000 atoms

Performance: 69327.676 tau/day, 401.202 timesteps/s
99.4% CPU use with 48 MPI tasks x no OpenMP threads

MPI task timing breakdown:
Section |  min time  |  avg time  |  max time  |%varavg| %total
---------------------------------------------------------------
Pair    | 79.323     | 86.685     | 90.89      |  28.4 |  6.96
Neigh   | 8.1813     | 8.5676     | 9.1146     |   7.4 |  0.69
Comm    | 78.185     | 83.533     | 91.741     |  32.1 |  6.70
Output  | 0.89735    | 0.89782    | 0.90736    |   0.1 |  0.07
Modify  | 1051.8     | 1055.2     | 1058.5     |   3.8 | 84.67
Other   |            | 11.33      |            |       |  0.91

Nlocal:        83.3333 ave          89 max          76 min
Histogram: 2 1 2 7 8 6 9 2 8 3
Nghost:        2190.19 ave        2213 max        2170 min
Histogram: 4 3 6 9 7 4 5 4 3 3
Neighs:        14564.4 ave       16118 max       12586 min
Histogram: 2 0 3 0 11 11 9 9 2 1
FullNghs:      29128.4 ave       31124 max       26403 min
Histogram: 3 0 4 4 6 10 4 5 7 5

Total # of neighbors = 1398164
Ave neighs/atom = 349.54100
Neighbor list builds = 26718
Dangerous builds = 0

#clear
#
#next RN
#
#jump SELF
Total wall time: 0:20:49
