
units lj                  # Use reduced LJ style units
atom_style atomic         # Uncharged point particles
atom_modify map hash      # Needed for indexing of clusters etc
                          # Used to be able to find where atoms are in relation to each other.

lattice fcc 1.0 spacing 1 1 1
Lattice spacing in x,y,z = 1.5874011 1.5874011 1.5874011
region box block 0 10 0 10 0 10 units lattice
create_box 2 box
Created orthogonal box = (0.0000000 0.0000000 0.0000000) to (15.874011 15.874011 15.874011)
  3 by 4 by 4 MPI processor grid
create_atoms 1 box
Created 4000 atoms
  using lattice units in orthogonal box = (0.0000000 0.0000000 0.0000000) to (15.874011 15.874011 15.874011)
  create_atoms CPU = 0.002 seconds
set type 1 type/fraction 2 0.12 78393
Setting atom values ...
  508 settings made for type/fraction
mass 1 1.0
mass 2 1.0
pair_style lj/cut  3.5
pair_modify tail  yes
pair_coeff 1  1  1.0  1.0   # Intearaction between 1 and 1 set with epsilon = 1 and sigma = 1
pair_coeff 1  2  1.5  0.8
pair_coeff 2  2  0.5  0.88

write_data data.0
System init for write_data ...
Neighbor list info ...
  update every 1 steps, delay 10 steps, check yes
  max neighbors/atom: 2000, page size: 100000
  master list distance cutoff = 3.8
  ghost atom cutoff = 3.8
  binsize = 1.9, bins = 9 9 9
  1 neighbor lists, perpetual/occasional/extra = 1 0 0
  (1) pair lj/cut, perpetual
      attributes: half, newton on
      pair build: half/bin/atomonly/newton
      stencil: half/bin/3d
      bin: standard
WARNING: Not all mixed pair coeffs generated from mixing. Use write_data with 'pair ij' option to store all pair coeffs. (../write_data.cpp:312)


#############################
#   M E L T   S Y S T E M   #
#############################

velocity all create 2.4 9622624 mom yes dist gaussian # Assign velocities
                                                    # Temperature 2.4, random number seed, zero linear momentum
                                                                                # Gaussian distribution

timestep 0.002   # simulation timestep
thermo 1000       # output thermodynamic data every 1000 steps bf 100

# Define a fix  in this case with index 1 applied to all
# particles in the simulation. This fix is for simulations
# in the anisotropic NPT ensemble. Note that we use the MTK
# correction.
fix 1 all npt temp 2.4 2.4 0.1 iso 5.68 5.68 0.5 mtk yes tchain 5 pchain 5 # Use NPT ensemble
                                                                         # Set temperature and pressure and damping
                                                                         # Numbers of thermostats in chain and in barostat
run 10000          # run for 10000 steps
Per MPI rank memory allocation (min/avg/max) = 3.642 | 3.644 | 3.648 Mbytes
Step Temp E_pair E_mol TotEng Press Volume 
       0          2.4   -7.5560252            0   -3.9569252   -3.1663949         4000 
    1000    2.3663826   -4.6509242            0   -1.1022377    5.6902349    4760.0892 
    2000    2.4699531   -4.6687806            0  -0.96477715    5.5960692    4771.1335 
    3000    2.4146137   -4.7150028            0   -1.0939877    5.4134412    4765.0237 
    4000    2.4155548   -4.6826171            0   -1.0601908    5.6969533    4749.5876 
    5000    2.4193094   -4.6845286            0   -1.0564717    5.6659293    4754.6962 
    6000    2.3721816   -4.6536493            0   -1.0962665    5.5840407    4774.2386 
    7000    2.3345908   -4.6348815            0   -1.1338709    5.7867336    4747.9829 
    8000    2.4024423   -4.6558521            0   -1.0530896    5.6593028    4767.3253 
    9000    2.3674626   -4.6139265            0   -1.0636204    5.7515508    4778.1928 
   10000    2.4408927   -4.6225468            0  -0.96212312    5.8185358    4765.2128 
Loop time of 2.20873 on 48 procs for 10000 steps with 4000 atoms

Performance: 782350.504 tau/day, 4527.491 timesteps/s
99.6% CPU use with 48 MPI tasks x no OpenMP threads

MPI task timing breakdown:
Section |  min time  |  avg time  |  max time  |%varavg| %total
---------------------------------------------------------------
Pair    | 0.91368    | 0.9778     | 1.0753     |   2.9 | 44.27
Neigh   | 0.18951    | 0.19874    | 0.21675    |   1.1 |  9.00
Comm    | 0.69658    | 0.77695    | 0.86285    |   4.3 | 35.18
Output  | 0.00024418 | 0.00024986 | 0.00030665 |   0.0 |  0.01
Modify  | 0.19889    | 0.24032    | 0.27987    |   4.5 | 10.88
Other   |            | 0.01467    |            |       |  0.66

Nlocal:        83.3333 ave          92 max          73 min
Histogram: 1 1 4 6 9 9 8 4 5 1
Nghost:        1467.77 ave        1491 max        1442 min
Histogram: 1 3 5 6 9 5 7 4 4 4
Neighs:        8000.52 ave        9037 max        6970 min
Histogram: 3 6 1 8 7 6 6 6 4 1

Total # of neighbors = 384025
Ave neighs/atom = 96.006250
Neighbor list builds = 902
Dangerous builds = 197

# Equilibrate just above the melting temperature to avoid step fn in T

fix 1 all npt temp 1.25 1.25 0.1 iso 5.68 5.68 0.5 mtk yes tchain 5 pchain 5
run 2000
Per MPI rank memory allocation (min/avg/max) = 3.642 | 3.644 | 3.648 Mbytes
Step Temp E_pair E_mol TotEng Press Volume 
   10000    2.4408927   -4.6225468            0  -0.96212312    5.8185358    4765.2128 
   11000    1.2418597   -6.2403164            0   -4.3779926    5.6989181    3926.4998 
   12000     1.247177   -6.2697599            0   -4.3994621    5.7038778    3915.7735 
Loop time of 0.478322 on 48 procs for 2000 steps with 4000 atoms

Performance: 722525.208 tau/day, 4181.280 timesteps/s
99.6% CPU use with 48 MPI tasks x no OpenMP threads

MPI task timing breakdown:
Section |  min time  |  avg time  |  max time  |%varavg| %total
---------------------------------------------------------------
Pair    | 0.21346    | 0.22915    | 0.2504     |   1.6 | 47.91
Neigh   | 0.032283   | 0.033862   | 0.035465   |   0.5 |  7.08
Comm    | 0.14193    | 0.16238    | 0.18261    |   2.1 | 33.95
Output  | 4.9175e-05 | 5.1244e-05 | 6.2962e-05 |   0.0 |  0.01
Modify  | 0.043606   | 0.048422   | 0.056099   |   1.4 | 10.12
Other   |            | 0.004456   |            |       |  0.93

Nlocal:        83.3333 ave          91 max          74 min
Histogram: 1 2 5 6 6 8 6 5 8 1
Nghost:        1662.58 ave        1690 max        1641 min
Histogram: 2 7 5 5 12 5 7 3 1 1
Neighs:        9730.35 ave       10613 max        8471 min
Histogram: 1 3 3 7 4 5 5 8 6 6

Total # of neighbors = 467057
Ave neighs/atom = 116.76425
Neighbor list builds = 144
Dangerous builds = 14

#############################
# L I N E A R  Q U E N C H  #
#############################

# Define solid atoms. This closely follows ten Wolde  Ruiz-Montero and Frenkel  Faraday Discuss  1996  104  93-110
# Compute components of the per-atom q6 vector
compute q6 all orientorder/atom degrees 1 6 components 6 nnn NULL cutoff 1.3 # compute the Q6 parameter.
                                                                             # Use all neighbours within 1.3 unit cell.

# get number of connections
compute coord_number all coord/atom orientorder q6 0.5

# An atom is solid if it has 8 or more connections (of a possible 14)
variable is_solid atom c_coord_number>=8
group solid dynamic all var is_solid    # Must be dynamic to update
dynamic group solid defined

# do clustering
compute cluster solid cluster/atom 1.3 # Create a cluster where all atoms within are solid and max 1.3 units from another member

# define chunks one chunk per cluster
compute clus_chunks solid chunk/atom c_cluster nchunk every compress yes  # Says which atoms are in which chunk

# count the size of each chunk
compute size_chunks solid property/chunk clus_chunks count


# Find the maximum entry in the vector of chunk sizes
variable max_n equal max(c_size_chunks)


# Thermo style which includes this variable
# thermo_style custom step temp pe vol v_max_n

thermo ${N}  # Print the thermo information every 100 steps
thermo 1000  

# Reset the npt fix at a lower temperature (below freezing)
fix 1  all npt temp  ${temp} ${temp}  0.1  iso  5.68  5.68  0.5  mtk yes tchain  5  pchain  5
fix 1  all npt temp  0.45 ${temp}  0.1  iso  5.68  5.68  0.5  mtk yes tchain  5  pchain  5
fix 1  all npt temp  0.45 0.45  0.1  iso  5.68  5.68  0.5  mtk yes tchain  5  pchain  5

dump dmp2 all dcd ${N} traj.dcd
dump dmp2 all dcd 1000 traj.dcd


compute msd all msd com yes
variable twopoint equal c_msd[4]/6/(step*dt+1.0e-6)
fix 9 all vector 10 c_msd[4]
variable fit equal slope(f_9)/6/(10*dt)
thermo_style custom step temp pe c_msd[4] v_twopoint v_fit v_max_n

fix 1 all npt temp 1.25 ${temp} 0.1 iso 5.68 5.68 0.5 mtk yes tchain 5 pchain 5
fix 1 all npt temp 1.25 0.45 0.1 iso 5.68 5.68 0.5 mtk yes tchain 5 pchain 5
run 5000000 # 5000000  # Run for this many steps
Neighbor list info ...
  update every 1 steps, delay 10 steps, check yes
  max neighbors/atom: 2000, page size: 100000
  master list distance cutoff = 3.8
  ghost atom cutoff = 3.8
  binsize = 1.9, bins = 9 9 9
  4 neighbor lists, perpetual/occasional/extra = 1 3 0
  (1) pair lj/cut, perpetual
      attributes: half, newton on
      pair build: half/bin/atomonly/newton
      stencil: half/bin/3d
      bin: standard
  (2) compute orientorder/atom, occasional
      attributes: full, newton on
      pair build: full/bin/atomonly
      stencil: full/bin/3d
      bin: standard
  (3) compute coord/atom, occasional
      attributes: full, newton on
      pair build: full/bin/atomonly
      stencil: full/bin/3d
      bin: standard
  (4) compute cluster/atom, occasional
      attributes: full, newton on
      pair build: full/bin/atomonly
      stencil: full/bin/3d
      bin: standard
Per MPI rank memory allocation (min/avg/max) = 9.755 | 9.759 | 9.764 Mbytes
Step Temp PotEng c_msd[4] v_twopoint v_fit v_max_n 
   12000     1.247177   -6.2697599 1.1832914e-33 8.2173008e-36 8.3333333e+20            2 
   13000    1.2472501    -6.269071   0.54050169 0.0034647543  0.044327624            2 
   14000    1.2631759   -6.2890339    1.0886646 0.0064801461  0.044571052            3 
   15000    1.2652726   -6.3112065    1.5970769 0.0088726489  0.044260036            2 
   16000    1.2322502   -6.3278104     2.101114  0.010943301  0.043563355            5 
   17000    1.2710537      -6.2518    2.6132383  0.012809991  0.043068091            1 
   18000    1.2232667   -6.3081653    3.1132468  0.014413179  0.042734074            2 
   19000    1.2478887   -6.2354714    3.6088591  0.015828329  0.042556518            3 
   20000    1.2447316   -6.2684269    4.1084069  0.017118362  0.042364191            3 
   21000    1.2284687   -6.2562816    4.6268201  0.018360397  0.042284784            2 
   22000    1.2581339   -6.2895608    5.1152598  0.019375984  0.042255714            2 
   23000     1.256222   -6.2841947    5.6133866  0.020338357   0.04218775            1 
   24000     1.235596   -6.2797418    6.0982403  0.021174445  0.042113308            2 
   25000    1.2558021   -6.3121546    6.6067049  0.022022349  0.042058806            3 
   26000    1.2444456   -6.3244007    7.0664233  0.022648792  0.041978382            2 
   27000    1.2733705   -6.3062083    7.6697008  0.023671916  0.041947146            2 
   28000    1.2663784   -6.2899875    8.1936907  0.024385984  0.042016517            2 
   29000    1.2384722   -6.2511419    8.7240264  0.025069041  0.042092895            1 
   30000    1.2163347   -6.2707464     9.302391  0.025839975  0.042281233            2 
   31000    1.2552453   -6.2832742    9.8500982  0.026478758  0.042466507            3 
   32000    1.2265286   -6.3110044    10.299713  0.026822169  0.042561288            3 
   33000    1.2500564   -6.2753326    10.787707  0.027241684  0.042640778            2 
   34000    1.2276838   -6.2674112    11.206011  0.027465713  0.042611018            1 
   35000    1.2277658   -6.3379136    11.657954  0.027757034  0.042527922            2 
   36000    1.2687849   -6.2813417    12.207888     0.028259  0.042423332            2 
   37000    1.2632138   -6.2993015    12.784295  0.028793458  0.042381992            1 
   38000    1.2573799   -6.3183133    13.271886  0.029105013  0.042366752            2 
   39000    1.2661478   -6.3160457    13.866875  0.029630074  0.042410258            2 
   40000    1.2360315   -6.2560252      14.3285  0.029851042  0.042431776            2 
   41000    1.2510403   -6.2699635     14.89402  0.030272398  0.042457374            1 
   42000    1.2342074   -6.2906927    15.377976  0.030511856  0.042470543            2 
   43000    1.2310448   -6.3163163    15.835187  0.030688347  0.042471019            6 
   44000    1.2340696    -6.272448    16.457132  0.031168809  0.042491729            3 
   45000    1.1979332     -6.31579    17.064368  0.031600682  0.042559897            2 
   46000     1.259285   -6.2597661    17.722291    0.0321056  0.042670602            2 
   47000     1.225091   -6.2640228    18.327115  0.032494884   0.04281518            2 
   48000    1.2210032   -6.3246244    18.729133  0.032515856  0.042934072            3 
   49000    1.2397738   -6.2828595     19.34784   0.03290449  0.043025233            4 
   50000    1.2218357   -6.2884141    19.785185  0.032975308  0.043108659            2 
   51000    1.2335631   -6.2714927    20.324142  0.033209382  0.043169867            2 
   52000    1.2190525   -6.2916138    20.828796  0.033379481  0.043221788            2 
   53000    1.2343486   -6.2868671    21.429992  0.033694955  0.043271802            2 
   54000    1.2472066    -6.277652    21.892403  0.033784572  0.043338813            2 
   55000    1.2835717   -6.2888795    22.528733  0.034134443  0.043407405            1 
   56000    1.2399731   -6.3191369    23.095809  0.034368763   0.04348283            3 
   57000    1.2272281    -6.269157     23.80221  0.034798553  0.043575478            2 
   58000    1.2359674   -6.3448117    24.300185  0.034914059   0.04367753            2 
   59000    1.2470267   -6.2956399    24.819751  0.035056145   0.04375538            1 
   60000    1.2496515   -6.3062156    25.309929  0.035152679  0.043822323            3 
   61000    1.2187081   -6.3152383    25.693575  0.035100512  0.043864203            4 
   62000    1.2492743   -6.3580374    25.999535  0.034945611   0.04385875            1 
   63000    1.2294934   -6.3208844    26.596117  0.035180049  0.043852052            2 
   64000     1.273269   -6.3105312    27.072242  0.035250314  0.043829434            3 
   65000    1.2305434   -6.2765818    27.544446  0.035313392  0.043801647            2 
   66000    1.2428061    -6.325398    28.030578  0.035392144  0.043770624            4 
   67000    1.2633924   -6.2888551    28.656764  0.035642741  0.043753793            2 
   68000    1.2255515    -6.280836    29.092223  0.035652233   0.04373493            2 
   69000    1.2089221   -6.2974943    29.751832  0.035932164  0.043732265            4 
   70000    1.2312162   -6.2798427    30.559174  0.036379969   0.04375346            2 
   71000    1.2307582   -6.2961386    31.100866  0.036503363  0.043780678            3 
   72000    1.2600311   -6.3274699    31.611013   0.03658682  0.043816506            1 
   73000    1.2552498   -6.3315647    32.003469   0.03653364  0.043836248            3 
   74000    1.2516997   -6.2647904    32.735243  0.036864012   0.04386184            2 
   75000    1.2339992   -6.3131718    33.369328  0.037077031  0.043906796            3 
   76000    1.2543673   -6.3335025    33.788745  0.037049062  0.043950684            2 
   77000    1.2723332   -6.2892549    34.428697  0.037260495  0.043985894            4 
   78000    1.2516221   -6.3113127    35.134984  0.037537376  0.044032813            1 
   79000    1.2443196   -6.2744928    35.866288  0.037833637  0.044091642            2 
   80000    1.2413554   -6.2803571    36.594513  0.038119284  0.044168311            2 
   81000    1.2542936   -6.3070951    36.823663  0.037884427  0.044233902            1 
   82000    1.2634152   -6.3086851     37.52736  0.038137561  0.044294017            1 
   83000    1.2321861    -6.284371    38.343529  0.038497519  0.044369779            1 
   84000    1.2382886    -6.295609    38.692052  0.038384972  0.044438707            3 
   85000    1.2360007   -6.3497254    39.276776  0.038506643  0.044505834            3 
   86000    1.2448306   -6.3085301     39.94448  0.038705892  0.044582227            3 
   87000    1.2460611   -6.3120385    40.594808  0.038883915  0.044658803            4 
   88000    1.2353088   -6.3117825     41.01113  0.038836297  0.044729668            1 
   89000    1.2449917   -6.2668703    41.742004  0.039084273  0.044786005            3 
   90000    1.2465738   -6.2852905    41.984323  0.038874373  0.044832193            4 
   91000    1.2585912   -6.2424782    42.433704  0.038858703  0.044868561            4 
   92000    1.2265403   -6.2977358    42.992169  0.038942182  0.044890977            3 
   93000    1.2541516   -6.2971778     43.59412  0.039062831  0.044914114            4 
   94000    1.2282685   -6.2820134    44.379778  0.039343775  0.044946863            3 
   95000    1.2584361   -6.2910743    44.820724  0.039316425  0.044987321            2 
   96000    1.2394752   -6.3178099    45.268916  0.039295934  0.045020384            6 
   97000      1.24434   -6.3087673    45.899251  0.039432346  0.045053396            3 
   98000    1.2343717   -6.2890252    46.246516  0.039325269  0.045084127            3 
   99000    1.2115182   -6.3130348    47.040564  0.039596434  0.045112476            3 
  100000    1.2416205   -6.2981859    47.564363  0.039636969  0.045141532            4 
  101000    1.2347943   -6.3193992    47.903093  0.039524004  0.045160879            2 
  102000      1.23247   -6.2802196    48.538455  0.039655601  0.045181063            2 
  103000    1.2748052   -6.2776346     49.19178  0.039799175  0.045204754            4 
  104000    1.2216815   -6.3246078    49.457683  0.039629553  0.045225192            2 
  105000    1.2585362   -6.3116176    50.262134  0.039890582  0.045241627            2 
  106000    1.2350008   -6.3246847    50.990915  0.040087197  0.045260045            4 
  107000    1.2174154   -6.2610003     51.67002  0.040241449  0.045286336            3 
  108000    1.2386363   -6.2745367    51.734162  0.039918335  0.045306138            4 
  109000    1.2298035   -6.3254468     52.54108  0.040169021  0.045316252            1 
  110000    1.2296205   -6.3352701    52.764607  0.039973187  0.045326711            5 
  111000    1.2392301   -6.3267794    53.265674  0.039989245  0.045329372            2 
  112000    1.2254193   -6.3086002    53.963326  0.040151284  0.045332928            3 
  113000    1.2494018   -6.2883737    54.292693  0.040038859  0.045339036            5 
  114000    1.2323023   -6.3161332     54.77065  0.040037025  0.045339128            2 
  115000    1.2385683   -6.3520234    55.173453  0.039980763  0.045334833            3 
  116000    1.2371226    -6.294882    55.963524  0.040203681  0.045334299            2 
  117000    1.2508378    -6.302585     56.42473  0.040188554  0.045340164            3 
  118000    1.2329713   -6.3474647    56.723822  0.040059196  0.045336852            2 
  119000    1.2543994   -6.3175421    57.231566  0.040078128  0.045327928            3 
  120000    1.2271604   -6.3134059    57.604195  0.040002913  0.045313009            3 
  121000    1.2099774   -6.3126595    58.161708  0.040056272  0.045297659            3 
  122000     1.234566   -6.3334945    58.569443   0.04000645  0.045275101            2 
  123000    1.2041426   -6.3352183    59.094111   0.04003666  0.045252831            3 
  124000    1.2124239   -6.2959799    59.780357  0.040174971  0.045230573            1 
  125000    1.2320236    -6.318243    60.104141  0.040069427  0.045211295            2 
  126000    1.2312509    -6.307222     60.45864  0.039985873  0.045186475            2 
  127000    1.2538554    -6.302045    60.897998  0.039959316   0.04515757            5 
  128000      1.23263   -6.3026686    61.289661  0.039902123  0.045125375            3 
  129000     1.242478   -6.3178337     61.98681  0.040043159  0.045098803            2 
  130000    1.2470433   -6.3507191    62.364058   0.03997696  0.045072376            4 
  131000    1.2297329   -6.3224687    62.869526  0.039993337  0.045040795            2 
  132000    1.2455538   -6.3071329    63.338471  0.039986408  0.045006092            3 
  133000    1.2093683   -6.3348424    63.915814  0.040047502  0.044975026            2 
  134000     1.213507   -6.3241063    64.440177  0.040074737  0.044942751            3 
  135000    1.2320985   -6.3404467     64.94369  0.040088697  0.044909288            3 
  136000    1.2422076   -6.3255117    65.345656   0.04004023  0.044876871            1 
  137000    1.2271621   -6.3520226    65.918679   0.04009652   0.04484567            2 
  138000    1.2465861   -6.3119241    66.604064  0.040219845  0.044820969            1 
  139000    1.2451553   -6.3116879    67.416213  0.040417394  0.044804445            2 
  140000    1.2304189   -6.3165041    67.835411  0.040378221  0.044784157            3 
  141000    1.2357554   -6.3369874    68.350793   0.04039645  0.044765373            7 
  142000    1.2199155   -6.3414783     68.96694  0.040473556  0.044749952            2 
  143000    1.1961217    -6.341106    69.871095  0.040717421  0.044744642            2 
  144000    1.2208291   -6.3047085     70.12255  0.040580179  0.044737613            1 
  145000     1.237293   -6.3239787     70.51308  0.040524758  0.044724485            2 
  146000    1.2069006   -6.3334461    71.147474  0.040609289  0.044709718            3 
  147000     1.228754   -6.2957336    71.481347  0.040522305  0.044697058            2 
  148000    1.2317002   -6.3277978    72.215774  0.040662035  0.044684926            1 
  149000    1.2203674    -6.324647    72.722743  0.040672675   0.04467256            2 
  150000    1.2059383   -6.3029165    73.421539  0.040789744  0.044657038            2 
  151000    1.2261167   -6.3627473    73.794781  0.040725596  0.044648857            2 
  152000    1.2335855   -6.3542246    74.205061  0.040682599  0.044644762            2 
  153000    1.1752191   -6.3461732    75.324043  0.041026167  0.044645405            3 
  154000    1.2355672   -6.3245164    75.715257  0.040971459  0.044648003            4 
  155000    1.2445682   -6.3636493    76.193348  0.040964166  0.044648534            2 
  156000    1.2289582   -6.3450073    76.592812  0.040914964  0.044638733            4 
  157000    1.2065257   -6.3309149    76.653111  0.040686364  0.044626514            1 
  158000    1.2125409   -6.2971911    77.433371  0.040840385   0.04461687            2 
  159000    1.2198855   -6.3340437    78.008161   0.04088478  0.044606889            1 
  160000    1.2085052   -6.3510848    78.693728  0.040986316  0.044599304            7 
  161000    1.2404166    -6.336627    79.083183  0.040933325  0.044591203            1 
  162000    1.2217294   -6.3610566    79.818525  0.041058912  0.044586595            2 
  163000    1.2291308   -6.2654369    80.246746  0.041025944  0.044579362            4 
  164000    1.2148944   -6.3239281    80.677218  0.040994521  0.044572811            2 
  165000    1.2543153   -6.3111157    81.406175   0.04111423  0.044567156            3 
  166000    1.2176919   -6.3078807    82.003293  0.041166312  0.044564172            2 
  167000    1.2438782   -6.3189953    82.619318  0.041227205   0.04456141            3 
  168000    1.1991766    -6.318809    82.877868  0.041110054   0.04456032            1 
  169000    1.2400969   -6.3417858    83.443315  0.041145619  0.044555104            2 
  170000    1.2105676   -6.3512778    83.706461  0.041032579  0.044547234            3 
  171000    1.2445419   -6.3421526    84.184727  0.041025695   0.04453807            5 
  172000    1.2057501   -6.3276088     84.77466  0.041072994  0.044528456            3 
  173000    1.2197662   -6.3755516    84.919082  0.040905145  0.044515227            2 
  174000    1.2067183   -6.3342567    85.301192  0.040853061  0.044496711            3 
  175000    1.2172702   -6.3383441    85.806415  0.040860198  0.044479655            2 
  176000    1.2476471   -6.2913128    86.570611  0.040989873  0.044464053            4 
  177000    1.2245389   -6.2975823    87.229654  0.041068575  0.044447679            2 
  178000    1.2389349   -6.2972412    87.553111  0.040989284  0.044431101            2 
  179000    1.2424899   -6.3090166    87.805616  0.040877847  0.044413942            3 
  180000    1.2221877    -6.355656    87.988692  0.040735505  0.044392837            3 
  181000    1.2082914   -6.3422883    88.745538  0.040858903  0.044374695            2 
  182000    1.2120656   -6.3581382    89.182218  0.040834349  0.044354725            4 
  183000    1.2358149   -6.2784534    90.232275  0.041089378  0.044336225            2 
  184000    1.2169031   -6.3209078    90.373997  0.040930252  0.044317775            1 
  185000    1.2116105   -6.3387254    90.890581  0.040941703  0.044297991            2 
  186000    1.2341081   -6.3116364    91.338226  0.040922144  0.044281069            4 
  187000    1.2291068   -6.3409135    92.091059  0.041038796  0.044266808            3 
  188000    1.2388089   -6.3435049    92.668124  0.041076296  0.044252812            2 
  189000    1.2064967   -6.3150724    93.271156  0.041124848  0.044242315            2 
  190000    1.2142984   -6.3556548    93.754915  0.041120577   0.04423309            3 
  191000    1.2186035   -6.3226541     94.43865    0.0412036   0.04422398            3 
  192000    1.2331744   -6.3005606    95.088309  0.041270967  0.044217519            4 
  193000    1.2343852   -6.3420366    95.240693  0.041122924  0.044211954            2 
  194000    1.2138922   -6.3256088    96.002415   0.04123815  0.044204768            4 
  195000    1.2110704    -6.318023    96.782924  0.041360224  0.044198997            3 
  196000     1.200008   -6.3052954    97.467067  0.041440079   0.04419213            3 
  197000    1.2178187   -6.3233524    97.902034   0.04141372  0.044185729            3 
  198000    1.2224615   -6.3157022    98.009525    0.0412498  0.044177248            3 
  199000    1.1899572   -6.3405987    98.425898  0.041216875  0.044165613            2 
  200000     1.218032    -6.336874    98.607038  0.041086266  0.044152375            2 
  201000    1.2043727   -6.3550588     98.81805  0.040969341  0.044137995            3 
  202000    1.2208766   -6.3339444    99.768299  0.041158539  0.044122017            2 
  203000    1.2310026   -6.3346562    100.10385  0.041093536  0.044104475            3 
  204000    1.2320947   -6.3312731    100.07565  0.040880575  0.044089504            2 
  205000     1.208913     -6.31824    100.79043  0.040971721  0.044071795            2 
  206000    1.2088241    -6.341449    101.56189  0.041084908  0.044054758            5 
  207000    1.2476272   -6.3475386    101.95576  0.041044992  0.044040775            5 
  208000    1.2321636   -6.3396875    102.64833  0.041125134  0.044025035            5 
  209000    1.2256522   -6.3511433    102.89874  0.041028206  0.044012367            3 
  210000    1.2279092   -6.3330626    103.69687   0.04114955  0.043998661            5 
  211000    1.2085791   -6.2935574    104.51529  0.041277762    0.0439875            2 
  212000    1.2003513   -6.3452001      104.932  0.041246854   0.04397639            5 
  213000    1.1986977   -6.3389733     105.2419  0.041174453  0.043965008            3 
  214000    1.2178014   -6.3703605    105.82329  0.041208446   0.04395294            2 
  215000    1.2172447   -6.2773347    106.36523  0.041226833  0.043943751            4 
  216000    1.2289226   -6.3310966    107.00501  0.041282798  0.043934332            2 
  217000    1.2325233   -6.3139426    107.25041  0.041186794  0.043924625            3 
  218000    1.2209965    -6.344633    107.83941  0.041223014  0.043914485            4 
  219000    1.2084491   -6.3714463    108.03902  0.041110738  0.043901739            2 
  220000    1.2170649   -6.3792079    108.46649  0.041085793  0.043885906            2 
  221000    1.2319854   -6.3311028    109.42988  0.041263151   0.04387097            2 
  222000     1.246515   -6.3372751    109.44902  0.041084468  0.043856097            2 
  223000    1.2056305   -6.3644061    110.60569  0.041332469  0.043840806            2 
  224000    1.2362787   -6.3483938    110.77268  0.041210074  0.043825502            5 
  225000    1.2512483   -6.3312874    111.68327  0.041364174  0.043815978            1 
  226000    1.2438374    -6.339856    111.68362  0.041181277  0.043805087            4 
  227000    1.2032967   -6.3592863    112.20286  0.041190479  0.043793547            2 
  228000    1.2131938   -6.3087803    112.85614  0.041248589  0.043781839            1 
  229000     1.202111   -6.3238271    113.16404   0.04118051  0.043769665            3 
  230000    1.2027266   -6.3421807    113.43385  0.041099219  0.043755112            2 
  231000    1.1896833   -6.3700957    114.43178  0.041281305  0.043741357            3 
  232000    1.2446353   -6.3464266    114.44885    0.0411095  0.043728624            2 
  233000    1.2217118   -6.3473919    114.94117  0.041109144  0.043715069            1 
  234000    1.2108918   -6.3885201    114.80157  0.040883751  0.043700872            3 
  235000    1.2130498   -6.3765074    115.82811  0.041073798  0.043683208            2 
  236000    1.2263663    -6.355389    116.02859  0.040970547  0.043666311            2 
  237000    1.2033434   -6.3346728    116.57251  0.040988928  0.043647356            1 
  238000    1.2286581    -6.326545    116.73599  0.040873946  0.043626989            2 
  239000    1.1920038   -6.3531567    117.16667  0.040853092  0.043606112            6 
  240000    1.2195411   -6.3115103    117.19255  0.040691857  0.043585787            3 
  241000    1.1914641   -6.3304231     118.0944  0.040834854   0.04356528            3 
  242000    1.1957536   -6.3220551    118.12564  0.040676873  0.043543496            3 
  243000    1.2105656   -6.3120283    119.18565  0.040872994  0.043521474            1 
  244000    1.1960784   -6.3560455    119.58873  0.040843145  0.043502015            4 
  245000     1.216954   -6.3631915    119.54361   0.04066109  0.043483132            3 
  246000    1.2104561   -6.3392665     120.9059  0.040957282   0.04346395            1 
  247000    1.2111712   -6.3415136     121.0207  0.040830196  0.043443171            1 
  248000    1.2148865    -6.324927    121.83459  0.040939041  0.043424415            3 
  249000    1.2055531   -6.3458089    121.91093  0.040800177   0.04340604            4 
  250000    1.2133543   -6.3225608    122.74672  0.040915573  0.043388439            2 
  251000    1.2195486   -6.3419544    123.48172  0.040996586   0.04337179            3 
  252000    1.1873533   -6.2991843    123.93401   0.04098347  0.043356918            3 
  253000    1.2123643     -6.33897    124.85463  0.041124715  0.043344157            4 
  254000    1.2018258   -6.3844432    124.95764    0.0409966  0.043331217            2 
  255000    1.2338153   -6.3424184    125.46366  0.041001195  0.043315846            2 
  256000    1.2245295   -6.3564326    125.89394  0.040981099  0.043301011            8 
  257000    1.2151222   -6.3373698    126.42011  0.040992252  0.043286871            2 
  258000    1.2065593   -6.3295707     127.2953  0.041116052  0.043273732            3 
  259000    1.2010391    -6.359029    127.94941  0.041167763  0.043260559            4 
  260000    1.2066308   -6.3276836    128.20043  0.041089882  0.043247599            3 
  261000    1.1806146   -6.3450344    128.91879   0.04116181  0.043235746            2 
  262000    1.1948125   -6.3379453     129.2065  0.041096213  0.043225458            3 
  263000    1.1962887   -6.3446444    129.85523  0.041145509  0.043214786            1 
  264000    1.2303486   -6.3151848    130.27994   0.04112372  0.043202535            2 
  265000    1.2044097   -6.3176245    130.49069  0.041034809  0.043191474            2 
  266000    1.1972625   -6.3788911    131.14746  0.041086298  0.043179803            2 
  267000    1.2059796   -6.3737139    131.71137  0.041108419  0.043169888            2 
  268000    1.1990725   -6.3585148    132.53541   0.04121126  0.043163115            6 
  269000    1.1700377   -6.3552551    133.33363  0.041305339  0.043157682            1 
  270000    1.2293505   -6.3823806    133.50378  0.041204872  0.043153014            2 
  271000    1.2455522   -6.3786242    134.70646   0.04142265  0.043147728            2 
  272000    1.2084876   -6.4001433    134.71346  0.041272507  0.043141747            3 
  273000    1.1986995    -6.360749    134.98869  0.041205338  0.043134527            3 
  274000    1.2031863   -6.3641084    135.82225   0.04130847  0.043129665            3 
  275000     1.229365   -6.3590778      136.364  0.041322425  0.043124381            2 
  276000    1.2053883   -6.3283694    136.65144  0.041259491  0.043119422            4 
  277000    1.2176306   -6.3597252    137.50694  0.041367911  0.043113844            4 
  278000    1.2124871   -6.3486037    137.73647   0.04128791   0.04310758            3 
  279000    1.2009352   -6.3415893    138.32942  0.041317032  0.043101999            2 
  280000    1.1900843   -6.3749883    138.80998  0.041312494  0.043095555            1 
  281000    1.1941479   -6.3580878    139.10148  0.041251922  0.043088459            1 
  282000    1.2145699     -6.37925    139.34909  0.041178809  0.043081957            1 
  283000    1.2123857   -6.4029491     140.0733  0.041246555  0.043075124            3 
  284000    1.2182337   -6.3778985    140.17643  0.041131581  0.043067981            2 
  285000    1.1836223   -6.3279431    140.61116  0.041114375  0.043058429            1 
  286000    1.2028563   -6.3459849    140.65596   0.04098367  0.043047477            2 
  287000    1.1858685   -6.3480725    141.81058  0.041176127  0.043035549            2 
  288000    1.1710681   -6.3581916    141.94903  0.041073213  0.043025592            2 
  289000    1.2157987   -6.3644075    142.51156  0.041093299  0.043015497            3 
  290000    1.2179012   -6.3563616    142.92524  0.041070472  0.043003921            4 
  291000    1.2236323   -6.3479073    143.77816  0.041173585  0.042995727            4 
  292000    1.2090287   -6.3703046     144.6376  0.041277855  0.042987855            2 
  293000    1.2011395   -6.3414226    144.65608  0.041142231  0.042979432            2 
  294000    1.1983976   -6.3484466    145.26012  0.041173505  0.042970191            3 
  295000    1.2028745   -6.3360149    145.71188  0.041161548  0.042960547            4 
  296000     1.204285   -6.3347527    146.64937  0.041286422  0.042952535            8 
  297000    1.2147478   -6.3958244    146.59314  0.041131633  0.042943855            3 
  298000    1.1901511   -6.3419404    147.11479  0.041139483  0.042935504            5 
  299000     1.186682   -6.3372636    147.35806  0.041069695   0.04292689            2 
  300000    1.2200739   -6.3607599    148.08652  0.041135146  0.042919408            2 
  301000    1.2131146   -6.3335685    149.02923  0.041259477  0.042912551            2 
  302000    1.1883062   -6.3784188    148.93092  0.041095729   0.04290524            1 
  303000    1.1826849   -6.3746355    150.15791  0.041297556  0.042898697            3 
  304000     1.209516    -6.355956    150.72317  0.041316657   0.04289249            2 
  305000    1.2280443   -6.3495141    150.33341  0.041074701  0.042885337            3 
  306000    1.2251543   -6.3838666    151.19722  0.041175712  0.042877449            3 
  307000    1.1986101   -6.3499249    151.28547  0.041065547  0.042869089            4 
  308000    1.1812957   -6.3592199     151.9613   0.04111507  0.042861153            2 
  309000    1.2058269   -6.3293792    152.82219  0.041214182  0.042855423            2 
  310000    1.2069092   -6.4113151     153.4269   0.04124379  0.042849097            3 
  311000    1.1867797   -6.3506108    154.55457  0.041413335  0.042842573            2 
  312000    1.2179634   -6.3605852     154.2775  0.041206598  0.042837761            2 
  313000    1.1994163   -6.3721893    154.72535  0.041194183  0.042832417            4 
  314000    1.2367788   -6.3881798    155.03614  0.041145473  0.042826271            1 
  315000    1.2134567   -6.3767715    155.68077  0.041185388  0.042820006            2 
  316000    1.2054305   -6.3543982    156.30591  0.041219913   0.04281272            4 
  317000    1.2059534   -6.3634874    156.45398  0.041128806  0.042805574            1 
  318000    1.1826859   -6.3672869    157.39579  0.041246277  0.042797863            4 
  319000    1.2059013   -6.3623666    158.11889  0.041305874  0.042791984            1 
  320000    1.2072841    -6.381341    158.11983  0.041177039  0.042787675            3 
  321000    1.2047336   -6.3482653    159.52469  0.041413471  0.042784411            1 
  322000    1.1968732   -6.3750301    160.16399  0.041450308  0.042780878            3 
  323000    1.2158426   -6.3723141    160.07307  0.041298521  0.042777401            3 
  324000    1.1767368    -6.356305    160.60635  0.041308217  0.042774889            3 
  325000     1.224946   -6.4151391    161.41247  0.041387812  0.042772423            4 
  326000    1.1910503   -6.3638203    161.78743  0.041356704  0.042769239            1 
  327000    1.1876378   -6.3598884    162.71854  0.041467517  0.042767313            2 
  328000     1.193903   -6.4121261      163.097  0.041437245  0.042764292            5 
  329000    1.2162578    -6.396993    163.05117  0.041299687  0.042760766            1 
  330000    1.1929628   -6.3455374    164.00899  0.041416411  0.042756537            2 
  331000    1.1932846   -6.3632606    164.20315   0.04134017  0.042752918            1 
  332000    1.1631766   -6.3993838    164.18094  0.041210075  0.042748169            2 
  333000    1.1654709   -6.3588645    165.35254  0.041379514  0.042743365            2 
  334000    1.2057783   -6.3645328    165.27068  0.041235199  0.042737785            3 
  335000    1.1980894   -6.4112705     165.3218  0.041124827  0.042732999            2 
  336000    1.1907837   -6.3973062    166.15221  0.041208386  0.042727313            2 
  337000    1.1898487   -6.3916786    166.11649  0.041077271   0.04272162            3 
  338000    1.1853185   -6.3452571    167.08853  0.041195397  0.042715476            4 
  339000    1.1868015   -6.3823428     167.9289  0.041280457  0.042709896            5 
  340000    1.1676253   -6.3708999    168.60073  0.041323707  0.042705737            3 
  341000     1.188316   -6.3987043    168.62392  0.041208192  0.042700987            4 
  342000    1.2031608    -6.363946    169.81918  0.041378942  0.042697737            2 
  343000     1.194481   -6.3681305    169.77047  0.041246469  0.042694802            2 
  344000    1.2001282   -6.3451556    170.70048   0.04135186  0.042690223            4 
  345000    1.2063021   -6.3777223    170.40308  0.041160165  0.042685138            6 
  346000    1.1938073   -6.3479603    172.11874  0.041454416  0.042680207            6 
  347000    1.2224608   -6.3636303    171.90987  0.041284792   0.04267527            2 
  348000    1.2067134   -6.3761522    171.92065  0.041168739  0.042669151            3 
  349000    1.2059182   -6.3940769     172.7837  0.041256853  0.042662838            1 
  350000    1.1822327   -6.3663363    172.82742  0.041149386  0.042657116            2 
  351000    1.1900611   -6.3340042    173.68266  0.041235199  0.042652032            4 
  352000    1.1962922   -6.3818579     174.2404  0.041250095  0.042647025            3 
  353000    1.1994819    -6.384635    174.96388  0.041304032  0.042641764            8 
  354000    1.1678121    -6.399779    175.38865  0.041287347  0.042637717            5 
  355000    1.1815206   -6.3765531    175.90961  0.041293337  0.042632166            4 
  356000    1.2015651    -6.358129    176.13451  0.041229989  0.042625797            2 
  357000    1.1830551   -6.4104875    176.53882  0.041208874  0.042619405            4 
  358000    1.1936867   -6.3557188    176.71014  0.041133645  0.042612663            2 
  359000    1.1866666   -6.3704935    176.43897  0.040956121  0.042604579            5 
  360000    1.1840454   -6.3991197    177.52472  0.041093685   0.04259693            3 
  361000    1.1935978   -6.4239026    177.71057  0.041022753   0.04258898            1 
  362000    1.1872852   -6.4242929    178.32375  0.041050587  0.042580211            1 
  363000    1.1788317   -6.4051577    178.58455  0.040997371  0.042570614            3 
  364000    1.1797617   -6.3615293    178.38038     0.040838  0.042559901            2 
  365000    1.1977389   -6.4089521    178.60108  0.040776502  0.042548265            3 
  366000     1.197944   -6.3685366    179.56647  0.040884897  0.042537232            2 
  367000    1.1925249   -6.3589386    180.17711   0.04091215  0.042525956            4 
  368000    1.2191271   -6.3716815    180.73497  0.040927302  0.042515111            2 
  369000    1.1738891   -6.3405687    180.62989  0.040792657  0.042504329            3 
  370000    1.1725685     -6.37994    182.01636  0.040994676  0.042492684            3 
  371000    1.2245458   -6.3814975    182.47732  0.040987718  0.042482076            1 
  372000    1.2071815   -6.4136492    182.50209  0.040883085  0.042471292            4 
  373000    1.2218492   -6.4026449    181.95593   0.04065146  0.042459356            3 
  374000    1.1767084   -6.3709929    182.79711  0.040730194  0.042447638            2 
  375000     1.199495   -6.3789754    183.83543  0.040852318  0.042437244            2 
  376000    1.1937598   -6.3885807    184.38107  0.040864599  0.042427529            5 
  377000    1.1604115   -6.4150239    184.13498  0.040701808  0.042417296            3 
  378000    1.2023058   -6.4122739    185.12578  0.040812561  0.042406193            3 
  379000    1.2017154   -6.3857899    185.66701  0.040823882  0.042395655            4 
  380000    1.1952962   -6.3718937    186.43783  0.040885489  0.042385317            3 
  381000    1.1740964    -6.392239    187.05419   0.04091299  0.042375007            3 
  382000    1.1642473   -6.4196031    187.47255  0.040897153  0.042364351            3 
  383000    1.1652031   -6.4151361    187.00606  0.040688874  0.042352856            6 
  384000    1.1788045    -6.396623    187.89693  0.040776243  0.042341062            2 
  385000    1.1795122   -6.3424225    188.61707  0.040826206  0.042330295            2 
  386000    1.2044058   -6.3928341    188.95712  0.040793852  0.042319293            7 
  387000    1.2184634   -6.3750216    188.75945  0.040645876  0.042307298            4 
  388000    1.1537471   -6.3807106    189.40565  0.040679907  0.042295857            7 
  389000    1.1538642     -6.39876    189.89175  0.040679466  0.042283348            3 
  390000    1.1829821   -6.3731905    191.25968  0.040867452  0.042272816            2 
  391000    1.1903671   -6.3574438    191.57053  0.040829184   0.04226223            4 
  392000    1.1907082   -6.3982308    191.33613  0.040675197   0.04225216            1 
  393000    1.1800355   -6.3564819    191.18757  0.040540198  0.042241508            4 
  394000    1.1941887   -6.3913679    192.22488  0.040656701  0.042229939            5 
  395000    1.1824507   -6.4039458    191.98946  0.040504106  0.042217033            3 
  396000    1.2184498   -6.3896455    192.33364   0.04047425  0.042203128            4 
  397000    1.1857891   -6.3283186    193.69169  0.040657366  0.042189106            3 
  398000    1.1794679   -6.4017998    193.43671  0.040501824  0.042177173            5 
  399000    1.1976803   -6.3674436    194.32315  0.040585452  0.042164364            3 
  400000    1.1898197   -6.3800127    194.39538  0.040499037  0.042151789            2 
  401000    1.1786859   -6.3787504    194.94429  0.040512113  0.042138855            2 
  402000    1.1936209   -6.3977453    196.11217  0.040653435  0.042125771            2 
  403000    1.1807798   -6.3956243     195.8187  0.040491873  0.042112391            1 
  404000    1.1801226   -6.4090828    196.42214  0.040516118  0.042098875            3 
  405000    1.1839327   -6.4255054    196.64496  0.040461926  0.042086544            4 
  406000    1.1979203   -6.3719504    197.86082  0.040611826  0.042074872            3 
  407000    1.1977583   -6.3651201    198.20014  0.040581519  0.042063342            3 
  408000    1.1982575    -6.378326    199.02925  0.040651398  0.042051598            1 
  409000    1.2053713   -6.3997986    199.35648   0.04061868  0.042039651            2 
  410000    1.1828675   -6.3828428    199.77901  0.040605489  0.042027382            3 
  411000    1.1979317   -6.4120578    199.79093  0.040509109   0.04201579            2 
  412000    1.2058417    -6.386283    200.50433  0.040555083  0.042003781            1 
  413000    1.1697185   -6.4160555    200.71815   0.04050003  0.041991727            2 
  414000    1.1888209    -6.385654    201.14515  0.040488154  0.041978852            3 
  415000     1.169618   -6.3914641    202.34014   0.04063055  0.041966869            2 
  416000    1.1884671   -6.4084448    202.15404    0.0404956  0.041955563            3 
  417000    1.1873238   -6.4369594    201.80676  0.040329088  0.041943707            2 
  418000    1.2037511   -6.3787693     203.4907  0.040568322  0.041931164            2 
  419000    1.1864541   -6.4150639    202.99636  0.040373182  0.041918059            3 
  420000    1.2022701   -6.4101358    203.16694  0.040310901  0.041904482            2 
  421000    1.2062092   -6.4188436    203.44258  0.040269711  0.041890007            2 
  422000    1.1728587   -6.4462761    203.68444  0.040222045  0.041875748            1 
  423000    1.1609834   -6.3795009    204.82789  0.040352224  0.041862811            2 
  424000    1.1870748   -6.4150661     205.4437  0.040378087  0.041850201            2 
  425000    1.2069094   -6.4028469    206.34019   0.04045886  0.041837818            4 
  426000    1.1670077   -6.4083584    206.19335  0.040335161  0.041826069            2 
  427000      1.19456   -6.3836626    206.72079  0.040343636  0.041813379            4 
  428000    1.1591538   -6.4112491    207.01463  0.040306587  0.041800253            2 
  429000     1.168464   -6.4368883    207.25824  0.040259953  0.041786535            2 
  430000    1.1999193   -6.3759252    208.16145  0.040341366  0.041772905            1 
  431000     1.176352   -6.4115376     207.8096  0.040179737  0.041759329            3 
  432000    1.1538093    -6.388806    208.42412  0.040205271  0.041746358            5 
  433000    1.1829661   -6.4109439    209.35971  0.040292476  0.041733618            3 
  434000    1.1587943   -6.3902641    209.61274  0.040248221  0.041719491            2 
  435000    1.1915891   -6.4128279    209.70172  0.040172743  0.041705731            3 
  436000    1.1655638   -6.3980462    210.89348  0.040308388   0.04169274            2 
  437000    1.1598074   -6.3905576    211.21509  0.040277477    0.0416807            3 
  438000    1.1686055   -6.3885332     211.8893  0.040313794  0.041669474            4 
  439000    1.1983811   -6.4347735    211.85354  0.040215175  0.041658726            2 
  440000    1.1764635   -6.4289088     212.3491  0.040217632  0.041646952            2 
  441000    1.1773776   -6.4159376    212.80577  0.040212731  0.041634791            4 
  442000    1.1756502   -6.3968523    213.69085  0.040288621  0.041623107            2 
  443000    1.2022351   -6.3747739    213.90247  0.040237486  0.041612162            2 
  444000    1.1805183   -6.3849359    214.67616  0.040292072  0.041600885            3 
  445000    1.1581115   -6.4309225    214.22961  0.040117905  0.041588312            4 
  446000    1.1779468   -6.4047265    215.23076  0.040215015  0.041575734            4 
  447000     1.175789   -6.4091384     215.3944  0.040155556  0.041562776            5 
  448000    1.1739675   -6.3979315    215.28568  0.040045699  0.041549532            7 
  449000    1.1904839   -6.3937769    216.12397  0.040112095  0.041535855            2 
  450000    1.1935829   -6.3319935    216.98977   0.04018329  0.041522734            4 
  451000    1.1672116   -6.3737985    217.06052  0.040107265  0.041510199            3 
  452000    1.1801416    -6.388748    216.54438  0.039923373  0.041496052            2 
  453000    1.1773032   -6.4252294    216.63927  0.039852698  0.041481327            3 
  454000    1.1717445   -6.4184224    217.73168  0.039965432  0.041466686            5 
  455000    1.1708142   -6.4151466    218.28829  0.039979539  0.041452784            3 
  456000     1.177153    -6.403433    219.66814  0.040144032  0.041439154            3 
  457000    1.1694646   -6.3746501    218.73779  0.039886541  0.041425756            6 
  458000    1.2122788   -6.3858719    220.26778  0.040077835  0.041412032            3 
  459000    1.1868127   -6.4135268    219.52246  0.039855203  0.041399043            3 
  460000    1.1743462     -6.39356    221.22618  0.040077207   0.04138591            2 
  461000    1.1844136   -6.3755788    220.84529  0.039921419  0.041372758            2 
  462000    1.1737955   -6.4342813    221.81158  0.040009303  0.041359542            2 
  463000    1.2144339   -6.4104519    221.99867  0.039956564     0.041347            2 
  464000    1.1781638   -6.4145674    223.50539  0.040141055  0.041334733            1 
  465000    1.1526787   -6.4475448     222.7353  0.039916721  0.041322282            5 
  466000    1.1697382   -6.3772905    223.77066  0.040016213  0.041310203            2 
  467000    1.1972923   -6.3793065    224.44491   0.04005084  0.041298044            2 
  468000    1.1574802   -6.4565881    223.63586    0.0398212  0.041284946            5 
  469000    1.1835071   -6.3996851    224.73656  0.039931869  0.041271504            1 
  470000    1.1849853   -6.4384736    224.84703  0.039866495  0.041257321            2 
  471000    1.1924597   -6.4270546    224.97854  0.039805121  0.041243585            3 
  472000    1.1768663    -6.401389    225.81204  0.039867946   0.04122884            2 
  473000    1.1731625   -6.4266402    225.90739  0.039800457  0.041214594            3 
  474000    1.1469425    -6.412848    227.09146  0.039924658  0.041200741            2 
  475000    1.2040074   -6.4438752    226.34037  0.039708836  0.041187114            3 
  476000    1.1861141   -6.4127525    228.34489  0.039976347   0.04117379            4 
  477000    1.1712127   -6.4472486      227.307  0.039711216  0.041160761            3 
  478000    1.2011987   -6.4202152    228.22471  0.039788129  0.041147493            2 
  479000    1.1846548    -6.375126    229.45466  0.039919043  0.041134703            4 
  480000    1.2031149   -6.3751787      229.836  0.039902083  0.041122324            1 
  481000    1.1963857   -6.4012278    229.94173  0.039837445   0.04110963            3 
  482000    1.1765314   -6.4161775    229.93369  0.039753404  0.041096735            5 
  483000    1.1589993   -6.4518197    230.20838  0.039718492  0.041083489            3 
  484000    1.1580331   -6.3927451    230.73343  0.039726829  0.041070639            3 
  485000    1.1678805   -6.4285864    231.47594  0.039772498  0.041058068            2 
  486000    1.1670943   -6.4050685    231.38136  0.039674445   0.04104503            3 
  487000    1.2045765   -6.3862831    232.91353  0.039855156  0.041032787            2 
  488000    1.1641402   -6.3906964    232.79681  0.039753553  0.041020132            4 
  489000    1.1763994   -6.3864982    233.33794  0.039764474  0.041007378            4 
  490000    1.1773534   -6.4270867    233.55769  0.039720695  0.040994686            4 
  491000    1.1518601   -6.4244474    234.25892  0.039758812  0.040982485            2 
  492000       1.1713    -6.427478    235.94417  0.039963444  0.040971121            2 
  493000    1.1715643   -6.4165346     235.8351  0.039863946  0.040960662            2 
  494000    1.1833693   -6.4056643    235.96846  0.039805746  0.040950253            4 
  495000    1.1620153   -6.4268484    236.61436  0.039834067  0.040939797            3 
  496000    1.1910991   -6.4321331    237.99215   0.03998524  0.040928741            2 
  497000    1.1740517   -6.4032153    237.76937  0.039867433  0.040918215            4 
  498000    1.1762117   -6.4360434     237.7807  0.039789274  0.040908086            4 
  499000    1.1712264   -6.4292254     238.9036  0.039897061  0.040898272            1 
  500000    1.1490485   -6.4018003    239.27015  0.039878359  0.040888595            3 
  501000    1.1605957   -6.4127776    239.38984  0.039818669  0.040878646            2 
  502000    1.1973802    -6.428444    239.60386  0.039774877  0.040868511            2 
  503000     1.159217   -6.4138309    240.04235  0.039768447   0.04085862            5 
  504000    1.1628527   -6.4187284    240.77478  0.039810645  0.040848503            3 
  505000    1.1692944   -6.3974466     241.2314  0.039807162  0.040838669            3 
  506000    1.1736504   -6.4143845    240.81737  0.039660304  0.040828184            3 
  507000    1.1748572   -6.4327185    242.00728  0.039777659  0.040817284            3 
  508000    1.1902888   -6.4166882    242.15019    0.0397228  0.040806445            5 
  509000    1.1679832   -6.4182225    241.88511  0.039601361  0.040795114            3 
  510000    1.1772256   -6.4241607    242.68838  0.039654964  0.040784048            2 
  511000    1.1607565   -6.4243869    243.22227  0.039664427  0.040772766            3 
  512000    1.1662741   -6.4377888    243.81802  0.039683923  0.040762269            3 
  513000    1.1759929   -6.4465561    244.39126  0.039699685  0.040751715            4 
  514000    1.1647214   -6.4472326    245.37294  0.039781605  0.040742054            2 
  515000    1.1644479   -6.4081416    245.82632  0.039777722   0.04073224            2 
  516000    1.1647229   -6.4371029    246.44219  0.039800095  0.040722844            4 
  517000    1.1462932   -6.4195465    246.11803  0.039670862  0.040712768            3 
  518000    1.1767999   -6.4154452    247.10146  0.039752487  0.040702932            2 
  519000    1.1838205   -6.4816036    247.56168  0.039749789  0.040693855            2 
  520000    1.1676136   -6.4009552    247.82333  0.039715277  0.040684601            2 
  521000    1.1760725   -6.4244242    248.56433  0.039757571  0.040674795            2 
  522000    1.1954175   -6.4373485    248.44326  0.039662079  0.040665551            3 
  523000    1.1665886   -6.4099117    248.57976  0.039607993  0.040655376            3 
  524000    1.1589545   -6.4438012    248.98414  0.039596714  0.040645482            4 
  525000    1.1788111   -6.4409181    250.60362  0.039778353  0.040635837            3 
  526000    1.1882698   -6.4290082    249.94261  0.039598005  0.040625885            1 
  527000    1.1799992   -6.4288867    250.92138  0.039677637  0.040615954            2 
  528000    1.1559387   -6.4368107    251.50366  0.039694391  0.040606359            2 
  529000    1.1565964   -6.4612973    250.48132  0.039458304  0.040596623            2 
  530000    1.1589496   -6.4146668    251.92639  0.039611068  0.040587206            6 
  531000    1.1634301    -6.435566     252.0917  0.039562413   0.04057773            3 
  532000    1.1754148   -6.4570243    253.64062  0.039730674  0.040568415            4 
  533000    1.1830054   -6.4332275    254.00918  0.039713755  0.040559126            7 
  534000    1.1955197   -6.4522585    254.21693  0.039671805  0.040550214            3 
  535000    1.1595986   -6.4718251    254.16554  0.039589649  0.040540871            7 
  536000    1.1631242   -6.4467261    254.90398  0.039630594  0.040531953            3 
  537000     1.144834   -6.4210022    255.72671  0.039684467  0.040523359            2 
  538000    1.1959033   -6.4414991    256.09614  0.039667927  0.040515427            2 
  539000    1.1821296    -6.485658    256.89313  0.039717553  0.040507264            2 
  540000    1.1680006   -6.4532342     256.8948   0.03964426  0.040498899            2 
  541000    1.1621113   -6.4451597    257.73393  0.039700235  0.040491344            1 
  542000    1.1531382   -6.4455026    258.31264  0.039715965   0.04048411            4 
  543000    1.1673792   -6.4137344    258.96334  0.039742685  0.040477058            3 
  544000    1.1738396   -6.4380444    259.55329  0.039760002  0.040469333            4 
  545000    1.1490901   -6.4152444    259.34887  0.039655791  0.040461524            2 
  546000    1.1842315    -6.388413    260.80717  0.039805734   0.04045448            3 
  547000    1.1552046   -6.4242524    261.52717  0.039842652   0.04044739            3 
  548000    1.1954382   -6.4340638    262.17247  0.039868077  0.040440907            1 
  549000    1.1382353   -6.4412597     261.4912  0.039692046   0.04043415            2 
  550000    1.1747683   -6.4629072    262.89097  0.039831965  0.040428101            3 
  551000    1.1536047   -6.4696427    262.38762  0.039683549  0.040421746            4 
  552000     1.158929   -6.4316738    263.61156  0.039796431  0.040415791            3 
  553000    1.1241641   -6.4510377    264.20034  0.039813192  0.040409639            4 
  554000    1.1721868     -6.39798    265.06112  0.039870806  0.040403632            3 
  555000    1.1828526   -6.4370721    264.21799  0.039672371  0.040397039            4 
  556000    1.1635611   -6.4273811    264.52951  0.039647708  0.040389648            4 
  557000    1.1680716   -6.4479121    265.07908  0.039658749  0.040382579            3 
  558000    1.1545775   -6.4492077    265.23245   0.03961058  0.040375055            3 
  559000    1.1590543   -6.4327661    266.65706  0.039752096   0.04036849            1 
  560000    1.1553608   -6.4075165    266.84802  0.039709527  0.040361121            2 
  561000    1.1695396   -6.4185593    266.42293  0.039575599  0.040353541            7 
  562000    1.1600606   -6.4703435    267.02368  0.039594258  0.040345791            6 
  563000    1.1540494   -6.4407759    267.17354  0.039546113  0.040337428            2 
  564000    1.1889417   -6.4276214    267.36776  0.039504693  0.040329182            2 
  565000    1.1849233   -6.4501056    268.50465  0.039602456  0.040321616            6 
  566000    1.1516907   -6.4179537    269.87289  0.039733936  0.040314353            2 
  567000    1.1737536     -6.43967    269.55898  0.039617723  0.040307273            3 
  568000    1.1869631   -6.4407502    269.52095  0.039542393  0.040299222            6 
  569000    1.1410044   -6.4615858    269.17513  0.039422251  0.040290892            3 
  570000    1.1517968   -6.4202135    269.44232  0.039392151  0.040281977            2 
  571000    1.1457675   -6.4506402    270.06386  0.039413873  0.040272752            6 
  572000    1.1618952   -6.4337331    270.43268  0.039398701  0.040262965            2 
  573000    1.1568304   -6.4324912     270.7902  0.039381937  0.040254026            3 
  574000    1.1550234   -6.4306468    270.92793  0.039333323  0.040245486            4 
  575000    1.1682509   -6.4542358    272.33297  0.039468546  0.040236391            4 
  576000    1.1610809   -6.4709138    272.62148  0.039441765    0.0402276            3 
  577000    1.1686815   -6.4059389    273.23615  0.039462183  0.040219482            2 
  578000    1.1590217   -6.4367821    274.26006  0.039541531   0.04021069            3 
  579000     1.178103   -6.4091292    274.14356  0.039456471    0.0402025            1 
  580000     1.151758   -6.5036341     273.2196  0.039255689  0.040193498            3 
  581000    1.1637074   -6.4525847    274.83638  0.039420021  0.040184254            3 
  582000    1.1645492   -6.4381339    273.63449  0.039180196  0.040175323            3 
  583000    1.1528224   -6.4506598    275.92559  0.039440478  0.040166587            1 
  584000    1.1373347   -6.4570028    275.69685  0.039340304  0.040157464            2 
  585000    1.1646335   -6.4298666    276.01008  0.039317675  0.040148441            3 
  586000    1.1630423   -6.4528686    276.43838  0.039311487  0.040139094            2 
  587000     1.164935   -6.4766729    276.47931  0.039250328  0.040129973            2 
  588000     1.144942   -6.4444283    277.01901  0.039260063  0.040120747            2 
  589000    1.1590253   -6.4430072    277.36019   0.03924168  0.040111482            5 
  590000    1.1648677   -6.4267211    278.48734   0.03933437  0.040102327            6 
  591000    1.1738464   -6.4267656     279.5727  0.039420855  0.040093714            3 
  592000    1.1265825   -6.4486177    278.25855  0.039169277  0.040084633            8 
  593000    1.1686534   -6.4551822    278.44464  0.039129375  0.040074368            6 
  594000    1.1492642   -6.4451887    279.61513  0.039227711  0.040064138            2 
  595000    1.1638598    -6.466876    279.45787  0.039139757  0.040054545            2 
  596000    1.1613087   -6.4701928    280.84949  0.039268665  0.040045569            4 
  597000    1.1453116    -6.452457    281.58465  0.039305507  0.040036504            3 
  598000    1.1583112   -6.4351892     282.0227  0.039300822   0.04002772            2 
  599000    1.1467963   -6.4181106     281.7184  0.039192877  0.040018521            2 
  600000    1.1378445   -6.4642802    282.20055   0.03919452  0.040009435            2 
  601000    1.1503685   -6.4599431    282.83356  0.039217078   0.03999973            2 
  602000    1.1559686   -6.4332887    283.11986  0.039191564  0.039990643            1 
  603000    1.1653469   -6.4754746    282.69127  0.039067339  0.039980924            2 
  604000    1.1321138   -6.4915257    282.85469  0.039025206  0.039971031            2 
  605000    1.1505168   -6.4359935    284.20711  0.039146984  0.039961582            3 
  606000    1.1616583   -6.4344655      284.286  0.039093235  0.039952301            2 
  607000     1.154112   -6.4452456    285.68131  0.039220389  0.039942865            2 
  608000     1.137151   -6.4235788    285.66958  0.039154274  0.039933522            2 
  609000    1.1574145   -6.4678048    286.35149  0.039183291  0.039924675            2 
  610000    1.1588203   -6.4611139    286.21041  0.039099783  0.039915426            2 
  611000    1.1609209   -6.4511892    286.06861   0.03901645  0.039906211            3 
  612000     1.144124   -6.4798496    287.31795  0.039122815  0.039896685            1 
  613000    1.1590347   -6.4870654    286.63055  0.038965545  0.039886826            2 
  614000    1.1161302   -6.4459152     287.0788   0.03896292  0.039877247            2 
  615000    1.1570786   -6.4481195    287.95811  0.039018715  0.039867082            3 
  616000    1.1938793   -6.4310434     288.4197  0.039017817  0.039857506            2 
  617000    1.1297171   -6.4412763    289.17102  0.039056053   0.03984734            3 
  618000    1.1701941    -6.468238     289.0705  0.038979301  0.039837273            4 
  619000    1.1476745   -6.4403727    289.74823  0.039007571  0.039827698            2 
  620000    1.1491938   -6.4615967     290.5329  0.039050121  0.039818483            1 
  621000    1.1467718    -6.457062     291.1878   0.03907512  0.039810077            3 
  622000    1.1732332   -6.5024828    291.23286  0.039018336  0.039800978            2 
  623000    1.1541261    -6.483187    291.81788  0.039033959  0.039791836            4 
  624000    1.1276969   -6.4858937    292.09838  0.039008865  0.039782772            3 
  625000    1.1344858   -6.4849841     293.1935  0.039092466  0.039773801            1 
  626000    1.1581819   -6.4660924    294.25228  0.039170964  0.039765646            2 
  627000    1.1467223   -6.4408333    294.94796  0.039200952  0.039757308            5 
  628000    1.1473145   -6.4348967    293.84978  0.038992805  0.039748663            4 
  629000    1.1378601   -6.4720772    293.31537  0.038860012  0.039739509            1 
  630000     1.145049   -6.4330023    295.11748  0.039036704  0.039730019            3 
  631000    1.1549058   -6.4854172    295.87458  0.039074826  0.039721145            2 
  632000    1.1430953   -6.4465796    295.27162  0.038933494  0.039711758            2 
  633000    1.1521343    -6.450971    295.31115  0.038877192  0.039702178            2 
  634000    1.1487547   -6.4997715     296.6836  0.038996267   0.03969266            3 
  635000    1.1445516    -6.428916     297.0419  0.038981876  0.039683295            3 
  636000    1.1318788   -6.4630473    296.91888  0.038904465  0.039673613            2 
  637000     1.183951   -6.4746424    296.92905  0.038844721  0.039663699            3 
  638000    1.1561407    -6.467302    298.06135  0.038931733  0.039653402            2 
  639000    1.1488546   -6.4619876    297.41718    0.0387868  0.039643504            2 
  640000    1.1485404   -6.4508939    298.48045  0.038864642  0.039633811            2 
  641000    1.1622663   -6.4781411     298.3531  0.038787454  0.039623612            2 
  642000    1.1458509   -6.4358994    299.20522  0.038837646   0.03961315            1 
  643000     1.160403   -6.4607696    298.73822  0.038716721  0.039602488            3 
  644000    1.1451223   -6.5020176     299.0455  0.038696364  0.039591624            2 
  645000    1.1124148    -6.507491    299.38255  0.038679916  0.039580856            1 
  646000    1.1518693   -6.5065803     299.3492  0.038615738   0.03956992            2 
  647000    1.1102392   -6.4997916    299.75694  0.038608571  0.039558897            6 
  648000    1.1580546   -6.4555803    300.31774  0.038621109  0.039548359            3 
  649000     1.166191    -6.464864    301.21132  0.038676338  0.039537682            3 
  650000    1.1579007   -6.4627066    301.89874  0.038704967  0.039527089            2 
  651000    1.1442256   -6.4166507    302.79892  0.038760742   0.03951713            1 
  652000     1.128397   -6.4571712    303.15457   0.03874675   0.03950688            4 
  653000    1.1638464   -6.4796746    302.56451  0.038612113  0.039496937            2 
  654000    1.1705959   -6.4760738    303.46391  0.038667674  0.039486967            3 
  655000    1.1498436   -6.4739874    303.49544  0.038612651  0.039476638            2 
  656000    1.1451695    -6.454026    304.23334  0.038647528  0.039466013            3 
  657000    1.1538228    -6.473751    304.64874  0.038641393  0.039455897            2 
  658000    1.0976611   -6.4611161    305.67513  0.038712655  0.039446335            3 
  659000    1.1612389   -6.4821778     305.0302  0.038572357  0.039436734            4 
  660000    1.1441169   -6.5017675    306.47509   0.03869635  0.039427072            2 
  661000    1.1351383   -6.4452995    306.67833   0.03866343  0.039417357            3 
  662000     1.127203   -6.4667297    307.42305  0.038698773  0.039407938            2 
  663000     1.147596   -6.4820492    306.85826  0.038569414  0.039398946            3 
  664000    1.1769434   -6.4523714    308.47121  0.038713757  0.039389704            3 
  665000    1.1433048   -6.4514368    309.57925  0.038794392  0.039380467            2 
  666000    1.1542113   -6.4894703    308.02372  0.038541507  0.039370798            3 
  667000    1.1156142   -6.4676835    309.94952  0.038724328  0.039361495            2 
  668000    1.1417077   -6.4440312    309.15258  0.038566939   0.03935153            2 
  669000     1.154597   -6.4701085    310.02152  0.038617529  0.039342451            2 
  670000    1.1282171   -6.4684727    310.64684  0.038637667  0.039332735            3 
  671000    1.1266888   -6.4381271     310.5243  0.038564865  0.039322956            2 
  672000    1.1406912   -6.4920988    310.81325   0.03854331  0.039313689            6 
  673000    1.1541656   -6.4573051    312.44203  0.038687721  0.039304927            2 
  674000    1.1615978   -6.5166708    311.94725  0.038569145  0.039296424            2 
  675000    1.1255971    -6.444832    313.56453  0.038711671  0.039287691            3 
  676000    1.1417256   -6.4697909    313.52862  0.038649978  0.039279032            2 
  677000    1.1498338    -6.508363    313.02102  0.038530406  0.039270204            2 
  678000    1.1083996   -6.4847702    314.30742  0.038631688  0.039261109            2 
  679000    1.1438371   -6.5134519     314.5181  0.038600651  0.039252562            4 
  680000    1.1363368   -6.4845479    315.06459  0.038610856  0.039243797            4 
  681000    1.1463173   -6.4698487     315.9922   0.03866767  0.039235596            2 
  682000    1.1530281   -6.5314559    314.86217  0.038472894  0.039227097            3 
  683000    1.1434657   -6.4710627     316.1966   0.03857938  0.039218288            4 
  684000     1.144332   -6.4738195    316.87009  0.038605031  0.039209482            6 
  685000    1.1253024   -6.4679311    316.78702  0.038538567  0.039200605            4 
  686000    1.1468105   -6.4830548    316.90758  0.038497033  0.039191841            2 
  687000     1.123437   -6.5199914    317.52784  0.038516235  0.039182936            2 
  688000    1.1439038   -6.4534234    317.94709  0.038511034  0.039173657            6 
  689000    1.1152871   -6.4810857    318.38749  0.038508405  0.039164288            3 
  690000    1.1430703   -6.4772634     319.5813  0.038596775  0.039155397            4 
  691000    1.1354083   -6.4638762    319.38575  0.038517336  0.039146246            5 
  692000     1.155775   -6.5084915    319.98988  0.038534427   0.03913698            6 
  693000    1.1205723   -6.4859494    319.21389  0.038385509  0.039127953            2 
  694000    1.0991192   -6.4549104    321.01437  0.038546394  0.039119489            5 
  695000    1.1608232   -6.5040643    320.43157  0.038421051  0.039110824            3 
  696000    1.1738199   -6.5086493    320.47492  0.038371039  0.039102102            6 
  697000    1.1247411   -6.4783158    321.31838  0.038416832  0.039093196            5 
  698000    1.1499578   -6.4661449    322.29994   0.03847898  0.039084618            3 
  699000    1.1415136   -6.4934718     322.0073  0.038389044   0.03907589            4 
  700000     1.128685   -6.4640582    322.91344  0.038442076   0.03906667            4 
  701000    1.1477022   -6.4699298    323.15978  0.038416521   0.03905812            2 
  702000    1.1459358   -6.4916188    324.49616  0.038520437  0.039049656            2 
  703000    1.1350568   -6.5330138    323.75183   0.03837741  0.039041168            3 
  704000    1.1227212   -6.4916728    325.45502  0.038524505  0.039032334            3 
  705000    1.1327523   -6.4893576    324.38283  0.038343124  0.039023424            4 
  706000    1.1639633   -6.4812758    324.73265  0.038330105  0.039014096            2 
  707000     1.132801     -6.46538    325.67939  0.038387481  0.039004579            5 
  708000    1.1296657   -6.4643087     325.3889   0.03829907  0.038995567            6 
  709000    1.1065406   -6.4693596    326.90847  0.038423657  0.038986497            3 
  710000    1.1399721   -6.4774458     325.9177  0.038253251  0.038977523            2 
  711000    1.1345343   -6.4760074      326.459  0.038262893    0.0389682            2 
  712000    1.1481482   -6.4893336    327.35681  0.038314233  0.038958956            3 
  713000    1.1604128   -6.4758802    326.69957  0.038183681  0.038949679            3 
  714000    1.1338778   -6.4691777    328.31237  0.038318437  0.038940022            2 
  715000    1.1441685   -6.4610745    328.45317  0.038281256  0.038930447            4 
  716000    1.1231292   -6.5172169     328.5084  0.038234217  0.038921109            4 
  717000     1.167477    -6.491661    329.50329  0.038296524   0.03891161            4 
  718000    1.1400009   -6.4989761    329.48531  0.038241099  0.038902637            2 
  719000    1.1436541   -6.4743833    330.54077  0.038310242   0.03889373            2 
  720000     1.122081   -6.4770686    330.27885  0.038226719  0.038884728            3 
  721000    1.1240873   -6.4552664     330.0198  0.038143759  0.038875031            2 
  722000    1.1148206    -6.498133    329.85154  0.038071508  0.038865632            3 
  723000    1.1386654   -6.5153735     330.2802  0.038068257  0.038856265            2 
  724000    1.1308061   -6.4843084    331.99922  0.038213538  0.038847044            4 
  725000    1.1474667   -6.4824583    332.22184  0.038186418  0.038837907            4 
  726000    1.1322133   -6.4861854    332.60388  0.038177672  0.038828815            3 
  727000    1.1567926   -6.4744282    332.96721  0.038166805   0.03881991            2 
  728000    1.1416801   -6.5282404     332.9878  0.038116736  0.038810496            3 
  729000    1.1102435    -6.465325    334.00112  0.038180284  0.038801185            2 
  730000    1.1254565   -6.4976697    333.33386   0.03805181  0.038791917            3 
  731000    1.1376441   -6.5051685      334.254  0.038104651  0.038782196            4 
  732000    1.1306601    -6.481224     334.4009  0.038069319  0.038772609            3 
  733000     1.127757   -6.4876309     335.6102  0.038154866  0.038763023            3 
  734000    1.1367357   -6.4742699     335.6217  0.038104189  0.038753287            2 
  735000    1.1232124   -6.4513339    335.88557  0.038082264    0.0387438            2 
  736000    1.1400042     -6.47667    336.11451  0.038056443   0.03873407            3 
  737000    1.1305074   -6.5406525    336.33904  0.038030195  0.038724444            3 
  738000    1.1250428   -6.4697828    337.37756   0.03809593  0.038714573            3 
  739000    1.1587685   -6.4781348    338.05867  0.038121185  0.038704928            3 
  740000    1.1316999   -6.5024763    336.46328  0.037890009  0.038695125            4 
  741000       1.1112   -6.4979877    338.63186  0.038082755  0.038685003            2 
  742000    1.1330629   -6.4952912    337.98999  0.037959343  0.038675381            2 
  743000     1.140072   -6.4638916    338.18577  0.037930212  0.038665577            2 
  744000    1.1385209    -6.489986    337.69867  0.037824672  0.038655329            7 
  745000    1.1106992    -6.504888    339.41723  0.037966133  0.038645134            2 
  746000    1.1249233   -6.5051143    339.35181  0.037907932  0.038635051            3 
  747000    1.1466947    -6.499555     338.7589  0.037791042  0.038625014            5 
  748000    1.1432353   -6.5350485    340.62857  0.037948816  0.038614481            3 
  749000    1.1581914   -6.4852601    341.13696  0.037954712  0.038604319            2 
  750000    1.1524519   -6.5306865    341.32952  0.037925502   0.03859448            3 
  751000    1.1461196   -6.4699608    341.65635  0.037911268  0.038585041            4 
  752000    1.1419825   -6.5363884     340.3761  0.037718982  0.038574906            3 
  753000    1.1287275   -6.5189836    341.23433   0.03776387  0.038564409            2 
  754000     1.136836   -6.5012029     341.9864  0.037796905  0.038553737            5 
  755000    1.1312919   -6.5017382    343.24247  0.037885483  0.038543324            3 
  756000    1.1273962   -6.4810568    342.65387  0.037770488  0.038532974            4 
  757000    1.1127876   -6.4866709    343.77886  0.037844436  0.038522488            4 
  758000    1.1540102   -6.4983226    342.45935  0.037649445  0.038511865            2 
  759000    1.1430508   -6.4880034    343.95011  0.037763517  0.038501771            5 
  760000    1.1124819   -6.5684269    342.92671  0.037601613  0.038491363            3 
  761000    1.1412697   -6.4791364    344.13305  0.037684302   0.03848106            2 
  762000    1.1540678   -6.4728816     345.7284  0.037809317  0.038471041            3 
  763000    1.1273829   -6.4874943    345.39403  0.037723244  0.038460606            4 
  764000    1.1375123   -6.4911285     346.7435  0.037821062  0.038450066            3 
  765000    1.1250124   -6.4969301    347.15272  0.037816201  0.038439999            4 
  766000    1.1214848   -6.5006773    347.25242  0.037777679  0.038430082            3 
  767000    1.1243999   -6.5021206    346.56525  0.037653764   0.03842012            2 
  768000    1.1051984    -6.483354    347.14186  0.037667303  0.038410185            3 
  769000    1.1236277   -6.5332001    348.20581  0.037733616  0.038400283            3 
  770000     1.129674    -6.489009    349.19279  0.037791427  0.038390199            7 
  771000     1.134994    -6.530022     348.6521  0.037683971  0.038380101            4 
  772000    1.1603227   -6.4894534      349.614   0.03773899  0.038370175            2 
  773000    1.1291167   -6.4903647    349.91382   0.03772249  0.038360996            3 
  774000     1.142983   -6.5068885    350.64474  0.037752448  0.038351175            2 
  775000    1.1156838   -6.5172916    350.20395  0.037656338  0.038341217            4 
  776000    1.1258144   -6.5016017    351.56428  0.037753896  0.038331338            3 
  777000    1.1202099   -6.5264291    350.72887  0.037615708   0.03832177            2 
  778000    1.1393679   -6.4974322    351.42531  0.037641956  0.038311517            3 
  779000    1.1254804    -6.483353    352.47432  0.037705854  0.038301817            3 
  780000    1.1444468   -6.5055919    352.47608  0.037657701  0.038291759            5 
  781000    1.0938611   -6.5453902    353.00572  0.037665996  0.038281678            4 
  782000     1.118701   -6.4988717    352.30725  0.037543399  0.038271643            3 
  783000    1.1454697   -6.5396959    353.35937  0.037607426   0.03826169            8 
  784000    1.1413249   -6.4874227    354.13703  0.037642116  0.038251858            3 
  785000    1.1300415   -6.5091932    354.04434  0.037584325  0.038242332            2 
  786000    1.1404135   -6.4928188    355.46231  0.037686844  0.038232709            2 
  787000     1.105724   -6.5111358     355.7033  0.037664475  0.038223209            2 
  788000    1.1220056   -6.5571588     355.1748  0.037560787  0.038213356            4 
  789000    1.1466784   -6.4888228    355.84822  0.037584308  0.038203725            3 
  790000    1.1514149   -6.5314792    356.12789  0.037566233  0.038194129            1 
  791000    1.1354408    -6.501194    356.42156  0.037549679  0.038184643            6 
  792000    1.1255272    -6.538455    357.48573  0.037614239  0.038175569            4 
  793000    1.1455621   -6.5144595    358.90469   0.03771592  0.038166213            4 
  794000      1.13834   -6.4940666    358.83988  0.037661616  0.038157162            3 
  795000    1.1291082   -6.5207739    358.77009  0.037606927  0.038148291            3 
  796000    1.1231944   -6.5171432    358.56912  0.037538643  0.038139116            3 
  797000     1.100298   -6.4728951    359.54489  0.037593569  0.038129981            3 
  798000    1.1126226   -6.4984654    358.95573  0.037484934  0.038120727            3 
  799000    1.1269793   -6.4937959    360.01471  0.037548468  0.038111535            2 
  800000    1.1471695   -6.5185463    360.40457  0.037542143  0.038102518            2 
  801000    1.1252682   -6.5208221    360.28321  0.037482647   0.03809336            5 
  802000    1.1456333   -6.4831946    361.77469  0.037590887   0.03808438            5 
  803000    1.1050987   -6.4957175    362.24119  0.037592485   0.03807516            2 
  804000    1.1170337   -6.5025469    361.56836   0.03747599  0.038066202            5 
  805000    1.1209912   -6.4929421    362.32371  0.037507631  0.038056868            3 
  806000    1.1203258   -6.5438409    362.99898  0.037530912   0.03804768            5 
  807000    1.1235353   -6.5366849     362.2522  0.037407291  0.038038177            4 
  808000     1.128617    -6.527214    362.94751  0.037432705  0.038028942            3 
  809000     1.134504     -6.48385     364.6387   0.03756064  0.038019814            9 
  810000    1.1240218   -6.5039213    364.15719  0.037464732  0.038010752            4 
  811000    1.1169237   -6.4962705    364.74771  0.037479214  0.038001681            2 
  812000    1.1354115   -6.5460624    363.72977  0.037328589  0.037992396            3 
  813000    1.1170723   -6.4942014     365.6027  0.037474651  0.037983319            3 
  814000    1.1272347   -6.5205411     365.6104  0.037429403  0.037974357            2 
  815000    1.1081098   -6.5046414    366.19807  0.037443565  0.037965423            2 
  816000    1.1345568   -6.5279769    365.63073   0.03733974  0.037956164            3 
  817000    1.1038639   -6.4846908    367.61864  0.037496802  0.037947109            3 
  818000    1.1129427   -6.4819127    366.88093  0.037375808  0.037938058            3 
  819000    1.1231299   -6.5651389    366.83162  0.037325155  0.037928389            3 
  820000    1.1294557   -6.5014722    366.66185  0.037262384  0.037919078            5 
  821000    1.1115403   -6.5382266     367.7289  0.037325305  0.037909521            2 
  822000    1.1077089   -6.4990119    368.55913  0.037364065  0.037900276            2 
  823000    1.1233812   -6.5148154      369.827  0.037447044  0.037890814            4 
  824000    1.1191041    -6.493001    368.70076  0.037287698  0.037881625            8 
  825000    1.1250967   -6.5160396    368.61822  0.037234164  0.037872219            3 
  826000    1.1009709   -6.5378683    370.61791  0.037390831  0.037862701            1 
  827000    1.0945338    -6.518001    369.87963  0.037271224  0.037853791            4 
  828000    1.1378758   -6.5260773    370.88463  0.037327358   0.03784465            3 
  829000    1.1252372   -6.5315162    372.10888  0.037405396  0.037835385            3 
  830000    1.1399785   -6.4944178     371.2524  0.037274337  0.037826301            1 
  831000    1.1247309   -6.5215268    371.43732  0.037248026  0.037817231            2 
  832000    1.1242701   -6.5127909    372.12634  0.037272269  0.037808183            2 
  833000     1.103627   -6.5008994    372.84875  0.037299795  0.037799301            2 
  834000    1.1174598   -6.5031496    373.68596  0.037338725  0.037790414            2 
  835000    1.0895152   -6.5241884    373.98301  0.037323654  0.037781651            3 
  836000    1.1433965   -6.5108005    374.82987  0.037363424  0.037773382            2 
  837000    1.1292994   -6.5259609    373.77316  0.037213576  0.037764777            4 
  838000    1.1151047   -6.5428807    374.96975  0.037288161  0.037756128            2 
  839000    1.1304545   -6.4973551    376.23969  0.037369854  0.037747377            6 
  840000    1.1061379   -6.4989761    375.18849  0.037221081  0.037738791            4 
  841000    1.0943015   -6.5272475    376.00164  0.037257396  0.037730453            3 
  842000    1.1073957   -6.5280963    378.05999  0.037416864  0.037721785            2 
  843000    1.1048577   -6.5547334    376.26529  0.037195067  0.037713416            4 
  844000    1.0948761    -6.501443    378.30738  0.037352624  0.037705347            3 
  845000    1.1315139   -6.5197734    377.89579   0.03726783  0.037697422            4 
  846000    1.1254115   -6.5195062    379.17101   0.03734939  0.037689721            4 
  847000    1.1271721   -6.5392305    380.14136  0.037400764  0.037682261            5 
  848000     1.091799   -6.5162001    381.23167  0.037463804  0.037674785            4 
  849000     1.118438   -6.5462804     382.2076  0.037515469  0.037667638            4 
  850000    1.1000316   -6.5152823    381.54821  0.037406687  0.037660523            2 
  851000    1.1073122   -6.5134485    381.42256  0.037350427  0.037653477            2 
  852000    1.1059079   -6.5144986    383.66495  0.037525914  0.037646595            2 
  853000    1.1261882   -6.5479675    383.54378  0.037470084  0.037639227            4 
  854000    1.1005072   -6.5138048    382.56078  0.037330287  0.037631617            1 
  855000    1.1008934   -6.4883409    384.12771  0.037439348  0.037624308            2 
  856000     1.125269   -6.5381255    384.01311  0.037384454  0.037617184            1 
  857000    1.0963338   -6.5612783    382.87192  0.037229864  0.037609877            6 
  858000    1.1181868   -6.5477674    383.45074  0.037242691  0.037602287            1 
  859000    1.1322758   -6.5010598    385.38971  0.037387438   0.03759485            3 
  860000    1.1233094   -6.5357322    384.94272  0.037300651  0.037587487            2 
  861000    1.0890187   -6.5310853    385.64732  0.037325525  0.037579844            2 
  862000    1.0992927   -6.5347098     385.6526  0.037282734  0.037572465            4 
  863000    1.1075934   -6.5352507    385.57944  0.037232468  0.037565059            3 
  864000    1.1179441   -6.5326737    385.30306  0.037162718  0.037557002            4 
  865000    1.1172467   -6.4964024    386.60057  0.037244756  0.037548899            5 
  866000    1.1078289   -6.4971191    386.80747  0.037221658  0.037541103            3 
  867000    1.1151924   -6.5193031    387.28256  0.037224391  0.037533401            3 
  868000    1.1331789   -6.5110071    388.10014  0.037259998  0.037525775            2 
  869000    1.0984416   -6.5164225    388.21986  0.037228602  0.037518364            2 
  870000    1.1316715   -6.5590048    387.81935  0.037147447  0.037510716            3 
  871000    1.1363254   -6.5523743    389.45777  0.037261555  0.037502871            6 
  872000    1.1207135   -6.5323595    388.46038  0.037123507  0.037495044            2 
  873000    1.1160396   -6.5133956    389.97396  0.037225464  0.037487536            2 
  874000    1.1131116   -6.5313201     390.2321  0.037207485  0.037479773            5 
  875000     1.114143   -6.5133088    390.30885  0.037172272  0.037472312            6 
  876000    1.1127177   -6.5155734    391.94304  0.037285297  0.037464853            4 
  877000    1.1006689   -6.5321564    391.04088  0.037157058  0.037457474            3 
  878000    1.1060894   -6.5353824    391.72663  0.037179824  0.037449621            2 
  879000    1.1244553   -6.5945901    392.55701   0.03721625  0.037441851            2 
  880000    1.1106677   -6.5529454    391.77346  0.037099759  0.037434119            2 
  881000    1.1493798   -6.5087672    393.24901   0.03719722  0.037426711            1 
  882000    1.1048442   -6.5329318    393.58872  0.037187143  0.037418914            2 
  883000    1.1171723   -6.5665237    393.43596  0.037130611  0.037411287            2 
  884000    1.1268685   -6.5087825    392.94676  0.037042493  0.037403641            5 
  885000    1.1419907    -6.477484    394.79376  0.037174553  0.037395986            3 
  886000    1.1109671   -6.5439759    394.35039  0.037090895  0.037388453            2 
  887000     1.120411   -6.4959197    394.81913  0.037093117  0.037380971            4 
  888000    1.1303595   -6.4730222    395.56531  0.037121369  0.037373354            4 
  889000    1.1212858   -6.5680529    396.01797  0.037122044  0.037365735            3 
  890000    1.1173755   -6.5590059    394.90942  0.036976537  0.037357991            3 
  891000    1.0921778   -6.5211007    395.54092    0.0369941  0.037350215            4 
  892000    1.1068528   -6.5367228    396.39698  0.037032602   0.03734267            3 
  893000    1.1034222   -6.5135257    396.96504  0.037044143  0.037334905            3 
  894000      1.12481   -6.5062178    397.02112  0.037007935  0.037327299            2 
  895000     1.084187   -6.5170214    397.62206  0.037022538  0.037319633            5 
  896000    1.1058679   -6.5546422    398.38864  0.037052515  0.037312295            3 
  897000     1.082985   -6.5538199    399.26196  0.037092341  0.037305061            3 
  898000    1.1142208   -6.5652431    398.56461  0.036986322  0.037297545            4 
  899000    1.0775001   -6.5423802    399.48201  0.037030219  0.037290262            2 
  900000    1.0938858    -6.537708    399.20739  0.036963648  0.037282985            2 
  901000    1.1023502   -6.5540281     399.3449  0.036935341  0.037275812            2 
  902000    1.1299348   -6.5308603    402.05212  0.037144505   0.03726886            4 
  903000     1.104136   -6.5638608    400.45201  0.036955704  0.037261601            3 
  904000     1.131329   -6.5352195    400.69867  0.036937561  0.037254249            5 
  905000    1.1190696   -6.5070325    402.96749  0.037105662   0.03724699            2 
  906000    1.1031211   -6.5408567    403.53472   0.03711688  0.037240006            1 
  907000    1.1263795   -6.5135999    401.80443  0.036916982  0.037232965            3 
  908000    1.1120662   -6.5511825     404.0045  0.037078239  0.037225641            5 
  909000    1.1157519   -6.5704893    403.89955  0.037027828  0.037218171            8 
  910000    1.1167797   -6.5277384    404.35536  0.037028879  0.037211172            3 
  911000    1.0753782   -6.5430204    405.66001  0.037107575  0.037204082            4 
  912000    1.0985256   -6.5900368    405.09658  0.037015404  0.037197173            3 
  913000    1.1118587   -6.5672548    405.81705  0.037040622  0.037190344            2 
  914000    1.1208934     -6.56538    405.88302   0.03700611  0.037183638            3 
  915000    1.1298174   -6.5492773     406.3622  0.037009308  0.037176982            3 
  916000    1.1191594   -6.5351735    407.89552  0.037108399    0.0371705            1 
  917000    1.1000395   -6.5507146    407.75663  0.037055309  0.037164194            1 
  918000    1.1016244   -6.5564617    408.24728  0.037059484  0.037157539            4 
  919000    1.1089843   -6.5652473    408.39182  0.037032265  0.037151031            3 
  920000    1.1189176   -6.5520596    409.51467   0.03709372  0.037144214            4 
  921000    1.1136205   -6.5544166    409.76464  0.037076062   0.03713774            3 
  922000    1.0815381   -6.5572267     408.8621  0.036954275  0.037131191            3 
  923000    1.0992206   -6.5329585    409.92536  0.037010235  0.037124596            3 
  924000    1.1080146    -6.562312    410.11077  0.036986902  0.037117961            4 
  925000    1.0912986    -6.550601    410.03591  0.036940172  0.037110938            3 
  926000    1.1072342   -6.5914162    409.38668  0.036841854  0.037104028            4 
  927000    1.1279181   -6.5515451    410.38483   0.03689184  0.037097151            3 
  928000    1.1187374   -6.5409379    411.20732  0.036925945  0.037090423            2 
  929000    1.1050506   -6.5702345    410.67555  0.036838495  0.037083454            3 
  930000    1.1088194   -6.5346892    411.09113  0.036836123  0.037076197            4 
  931000    1.1239985   -6.5600834    412.12044   0.03688869  0.037068958            2 
  932000    1.0976047   -6.5757897    411.71895  0.036813211  0.037061542            2 
  933000    1.1397252   -6.5671433    412.64599  0.036856555  0.037054306            3 
  934000    1.1021312    -6.562361    413.12723  0.036860031  0.037047214            2 
  935000    1.0975853   -6.5851917    413.31314  0.036837178  0.037040289            3 
  936000    1.1180746   -6.5305556      415.717  0.037011841  0.037033399            4 
  937000    1.1067477   -6.5507053    415.67541  0.036968642  0.037026499            3 
  938000    1.1009524   -6.5487232    413.90919  0.036772316  0.037019731            2 
  939000    1.1151651   -6.5399635    414.74277  0.036807133  0.037012952            3 
  940000    1.1151357   -6.5320486    416.02184  0.036881369  0.037006075            2 
  941000    1.1047191   -6.5417567    416.26746  0.036863927  0.036999218            2 
  942000    1.1149576    -6.526859    415.81892  0.036785113  0.036992393            2 
  943000    1.0931842   -6.5778123     416.2472  0.036783952  0.036985437            2 
  944000    1.1104618   -6.5277129    418.10567  0.036909045  0.036978651            3 
  945000    1.1018824   -6.5859518    417.65485  0.036830233  0.036972092            2 
  946000    1.1026314   -6.5694452    417.83659  0.036807311  0.036965438            2 
  947000    1.1167989   -6.5410981    417.83019   0.03676788  0.036958635            4 
  948000      1.09982   -6.5693373    417.43354  0.036694228  0.036951893            5 
  949000     1.101231   -6.5420043    418.57152   0.03675549  0.036945188            2 
  950000    1.0827286   -6.5253849    421.10511  0.036939044  0.036938569            3 
  951000    1.1088578   -6.5321673    421.62849  0.036946065   0.03693225            4 
  952000    1.1224864   -6.5544159    420.49834  0.036808328  0.036925693            5 
  953000    1.0726591   -6.5705179    420.37006  0.036758488  0.036919088            2 
  954000     1.094181   -6.5785587    420.40458  0.036722972  0.036912211            3 
  955000    1.1011008   -6.5861911    420.80474  0.036719436   0.03690543            6 
  956000    1.1045907   -6.5787158    422.84478  0.036858855  0.036898857            4 
  957000    1.0914767   -6.5684484    422.14381  0.036759301  0.036892422            3 
  958000    1.1134466   -6.5352983    423.87414  0.036871445  0.036886231            3 
  959000    1.0701189    -6.581511    422.18191  0.036685949  0.036879579            2 
  960000    1.0704793    -6.537003     424.4782  0.036847066   0.03687292            3 
  961000    1.1124977   -6.4834918     423.6895  0.036740332  0.036866339            3 
  962000    1.0957091   -6.5639048    422.71977  0.036618136  0.036859396            5 
  963000    1.0924781   -6.5444996    423.67601   0.03666286  0.036852417            3 
  964000    1.1137214   -6.5494511     423.5092  0.036610408  0.036845172            3 
  965000    1.0967101   -6.5388075    424.31288  0.036641872  0.036837826            2 
  966000    1.1098595   -6.5808841    423.79478  0.036559246  0.036830376            3 
  967000    1.0977721   -6.5889335    424.42884   0.03657608  0.036823224            4 
  968000    1.1011503   -6.5540555    424.54821  0.036548572  0.036816329            4 
  969000    1.0868105   -6.5651485    426.29325  0.036660926  0.036808997            4 
  970000    1.0936493   -6.5786581     426.9088  0.036676014  0.036801734            2 
  971000    1.0795369   -6.5501108    427.41776  0.036681923    0.0367945            4 
  972000    1.1157323   -6.5546724    426.55916  0.036570573  0.036787369            1 
  973000    1.0848692   -6.5677255    426.75583  0.036549831   0.03678007            3 
  974000    1.1017027   -6.5467689     427.0921  0.036541076   0.03677272            3 
  975000    1.0878019   -6.5319242    428.02333   0.03658319  0.036765308            4 
  976000    1.0912599      -6.5389    428.14322  0.036555944  0.036758552            6 
  977000    1.0878205     -6.52913    430.10602  0.036685945  0.036751702            3 
  978000     1.084759   -6.5494564    429.17402  0.036569021  0.036744767            3 
  979000    1.1144361   -6.5373115    429.82714  0.036587261  0.036737994            2 
  980000    1.0988818   -6.5755701    428.85181  0.036466991  0.036730961            2 
  981000    1.1022376   -6.5823196    429.42123  0.036478188  0.036723548            4 
  982000    1.0600129   -6.5857481    429.57473  0.036454067  0.036716095            2 
  983000    1.1036349   -6.5778096    430.82357  0.036522853  0.036708851            3 
  984000    1.0629305   -6.5809186    431.73359  0.036562804   0.03670171            1 
  985000    1.1050342   -6.5630372    432.46296  0.036587391  0.036694793            3 
  986000    1.0915937   -6.5696352    433.13945  0.036607459  0.036687847            8 
  987000    1.0915868    -6.564593    433.17487  0.036573359  0.036681047            4 
  988000     1.075286   -6.5548421     433.7834  0.036587668  0.036674309            2 
  989000    1.0912264   -6.5460098    432.57643  0.036448974  0.036667228            2 
  990000    1.1105143   -6.5843205    433.23221  0.036467358  0.036660372            3 
  991000    1.1144838   -6.5561538    434.81087  0.036563309  0.036653866            2 
  992000    1.0968251   -6.5369602      435.099  0.036550655  0.036646991            1 
  993000    1.1221299   -6.5523783    436.53212  0.036634116  0.036640241            4 
  994000    1.0899982   -6.5538049    434.66788  0.036440969  0.036633179            4 
  995000    1.1053489   -6.6098484    435.28004  0.036455615  0.036625976            2 
  996000    1.0802749   -6.5833359    436.51341  0.036522207  0.036619139            3 
  997000    1.0760938   -6.5764951    436.69547  0.036500791  0.036612289            1 
  998000    1.0830773   -6.5571932    436.99853  0.036489523  0.036605623            4 
  999000    1.1010164   -6.5767771    436.68826  0.036427116  0.036599057            3 
 1000000     1.111497   -6.5671447    438.38426  0.036532022  0.036592003            3 
 1001000    1.0685838   -6.5612239    438.55481  0.036509724  0.036585047            3 
 1002000    1.1185866   -6.5715563    437.81539  0.036411792  0.036578053           12 
 1003000    1.0922335   -6.5789121    438.53345  0.036435148  0.036571079            3 
 1004000    1.0883845   -6.5988696    439.03998  0.036440901  0.036564265            9 
 1005000    1.0900824   -6.5997605    437.15029  0.036247951  0.036557414            3 
 1006000    1.0916178   -6.5411781     439.5895  0.036413975  0.036550786            5 
 1007000    1.0866395    -6.575845    440.09404  0.036419566  0.036543637            2 
 1008000    1.0664103   -6.5923783    440.00014  0.036375673  0.036536679            2 
 1009000    1.0948139    -6.611354    439.56834  0.036303959   0.03652958            2 
 1010000    1.0848333   -6.5953152    440.51138  0.036345824  0.036522309            3 
 1011000    1.0875723   -6.5574916    441.38238  0.036381666  0.036515227            2 
 1012000    1.0811201   -6.5469247    440.17851  0.036246583  0.036508102            4 
 1013000    1.0762561   -6.5892349    439.85321  0.036184041  0.036500887            3 
 1014000    1.0998697   -6.5506868    442.39848  0.036357535  0.036494048            3 
 1015000    1.0943105   -6.5860051    442.36806  0.036319217  0.036487065            3 
 1016000    1.0588058   -6.5599947    443.56861   0.03638194  0.036480315            5 
 1017000    1.0974353     -6.56435    444.23299  0.036400605  0.036473837            2 
 1018000    1.0709133   -6.5917338    444.03112  0.036348324  0.036467475            1 
 1019000    1.0888931   -6.5884036    444.38293  0.036341423  0.036460975            3 
 1020000    1.0902638   -6.6055269    444.45241  0.036311471  0.036454404            5 
 1021000    1.0914815   -6.5403817    445.39882  0.036353152    0.0364477            5 
 1022000    1.0932795   -6.6172358    444.92433  0.036278892  0.036441287            2 
 1023000    1.0772259   -6.6148399    445.55999  0.036295209  0.036434701            2 
 1024000    1.0842409   -6.5653212    445.54171  0.036258277  0.036427774            3 
 1025000    1.0913537   -6.5583995    447.18249    0.0363563  0.036421075            3 
 1026000    1.1312962   -6.6027697     446.3025  0.036249391   0.03641447            5 
 1027000    1.0748135   -6.5380782    448.04302  0.036355324  0.036407959            3 
 1028000    1.0852756   -6.5794405    448.25636  0.036337254  0.036401513            4 
 1029000    1.0693811    -6.568596    448.00112   0.03628127  0.036394873            3 
 1030000     1.119246   -6.6107189    448.30286  0.036270458  0.036388404            6 
 1031000    1.0913627   -6.5754591    449.25773  0.036312458  0.036381956            3 
 1032000    1.0851035   -6.5710749    451.17418  0.036432024  0.036375465            2 
 1033000    1.0873969   -6.6170332    449.16018  0.036234284    0.0363691            2 
 1034000    1.0760077   -6.6130076    451.27676  0.036369823  0.036362655            3 
 1035000     1.084178   -6.5887409     451.3059  0.036337029  0.036356257            2 
 1036000    1.0935906    -6.562985    451.95853  0.036354451  0.036349798            3 
 1037000    1.0739185   -6.5956379    450.96515  0.036239565  0.036343177            2 
 1038000    1.0871997    -6.569558    453.30042  0.036392134  0.036336601            4 
 1039000    1.1073272   -6.5551753    452.88203  0.036323551  0.036330517            4 
 1040000    1.0998207   -6.5866909    452.73924  0.036277182  0.036324162            3 
 1041000     1.089904   -6.6118203    453.20777   0.03627984  0.036317801            6 
 1042000    1.0857048   -6.5837201    454.15308  0.036320624   0.03631165            3 
 1043000    1.0888279   -6.5961994     454.5923  0.036320894  0.036305307            4 
 1044000     1.097453   -6.5717822    454.90839  0.036311334  0.036298863            4 
 1045000    1.1023109   -6.5756908    454.43029   0.03623846   0.03629247            1 
 1046000     1.076654   -6.5776156    455.34103  0.036276372   0.03628607            3 
 1047000     1.086655   -6.6197806    454.28751  0.036157873  0.036279622            2 
 1048000    1.0838423   -6.5907541    455.26772  0.036201313  0.036273067            8 
 1049000    1.0615906   -6.5673396    455.98332  0.036223651  0.036266595            2 
 1050000    1.0838333   -6.5905295    456.14846  0.036202258  0.036260054            1 
 1051000    1.0842617   -6.5834758    457.88036  0.036305135  0.036253839            2 
 1052000    1.0666771   -6.5591604    456.89326  0.036192432  0.036247633            2 
 1053000    1.0761448   -6.5993265    457.36563  0.036195444  0.036241418            4 
 1054000    1.0912166   -6.5399646    459.14602  0.036301867  0.036235529            4 
 1055000    1.0857258   -6.6078437    458.84164  0.036243415  0.036229869            3 
 1056000    1.0982762   -6.5787772    459.80352     0.036285   0.03622402            3 
 1057000    1.0814479   -6.5913485    458.81759  0.036172941  0.036218084            5 
 1058000    1.0715338   -6.5811854    459.42812   0.03618684   0.03621207            3 
 1059000     1.073304   -6.5537679    461.39833  0.036307706  0.036206314            3 
 1060000    1.0935192   -6.6095244    460.13029  0.036173765  0.036200517            6 
 1061000    1.0684886    -6.587604     460.7694  0.036189868  0.036194605            7 
 1062000    1.1183093   -6.5782016    460.98237  0.036172503  0.036188623            6 
 1063000    1.0708132   -6.6138024    461.27825  0.036161669  0.036182614            8 
 1064000    1.0978303   -6.6117082    462.01664  0.036185514  0.036176736            2 
 1065000      1.06171   -6.5535936    463.72106  0.036284903  0.036170821            2 
 1066000    1.0715536   -6.5924138    463.11326   0.03620335  0.036164999            1 
 1067000    1.0672198   -6.5711683    464.29615  0.036261805  0.036159366            2 
 1068000    1.0482937   -6.6047994    464.00325  0.036204997  0.036153494           13 
 1069000    1.0765807   -6.5882254    463.97557  0.036168972  0.036147768            3 
 1070000     1.047465   -6.6049229    465.61451  0.036262812  0.036142073            5 
 1071000    1.0711447   -6.5823993    464.93976  0.036176452   0.03613661            5 
 1072000    1.0813351   -6.5713647    465.90974  0.036218108  0.036131145            3 
 1073000    1.0837417   -6.6080104    464.78183  0.036096756  0.036125257            3 
 1074000    1.0988957   -6.6013421    465.86945  0.036147536   0.03611937            2 
 1075000    1.0748285   -6.5859235    465.17847  0.036060347  0.036113463            4 
 1076000    1.0819375   -6.5976161    466.89318  0.036159633  0.036107538            2 
 1077000    1.0840363   -6.5846898    467.92123  0.036205604  0.036101612            1 
 1078000    1.0797475   -6.5944895     466.2409  0.036042123   0.03609535            3 
 1079000    1.0872737   -6.6176239    466.90318  0.036059869   0.03608904            2 
 1080000     1.074256   -6.5900369    467.06679  0.036039104  0.036082838            2 
 1081000    1.1004854    -6.610824    466.72493  0.035979412  0.036076826            2 
 1082000    1.0717216   -6.6195503    469.62933   0.03616985  0.036070927            2 
 1083000    1.0846185   -6.5721768    468.91788  0.036081708  0.036065333            4 
 1084000    1.0763864    -6.592608    468.71145  0.036032553  0.036059506            3 
 1085000    1.0555898   -6.6051014     470.1317  0.036108426  0.036053706            3 
 1086000    1.0545652   -6.6046395    471.07769  0.036147766  0.036047811            2 
 1087000     1.068244   -6.6318625    470.82728  0.036095315   0.03604186            5 
 1088000    1.0798873   -6.6075741    472.71229  0.036206518  0.036036166            2 
 1089000    1.0667391   -6.6153168    472.30112  0.036141806  0.036030616            3 
 1090000    1.0794416   -6.5879996    472.29669   0.03610831  0.036024984            2 
 1091000    1.0835822     -6.61315    472.53004  0.036093037   0.03601936            1 
 1092000    1.0819017   -6.6131526    474.21085  0.036188251  0.036013734            2 
 1093000    1.0411338   -6.6128363    472.74011  0.036043009  0.036008047            2 
 1094000    1.0615297   -6.5771484    474.27142  0.036126708  0.036002522            4 
 1095000    1.0690589   -6.6188646    473.91336  0.036066466  0.035996978            4 
 1096000    1.0856812   -6.5757363    475.56117  0.036158848  0.035991311            3 
 1097000    1.0678588   -6.5858887    475.50623  0.036121713  0.035985749            4 
 1098000    1.0615348   -6.5905652     473.3116  0.035922252  0.035979999            4 
 1099000    1.0813623   -6.5798658    475.74819  0.036074324   0.03597452            3 
 1100000     1.095462   -6.5954186    476.30648  0.036083825  0.035968865            3 
 1101000      1.10128   -6.6172303    476.98328  0.036102277  0.035962997            4 
 1102000    1.0862086   -6.5751951    477.32012  0.036094988  0.035957381            4 
 1103000    1.0495132   -6.6023058    477.18389  0.036051971  0.035951827            2 
 1104000    1.0934186   -6.6071614    475.87217  0.035920303  0.035946173            3 
 1105000    1.0866059    -6.621963    476.90335  0.035965562   0.03594045            9 
 1106000    1.0617232   -6.5768656    476.90517   0.03593318  0.035934793            3 
 1107000    1.0736976   -6.5918124    478.73055  0.036038132  0.035929036            4 
 1108000    1.0526446   -6.6322772    478.11986  0.035959677  0.035923316            3 
 1109000    1.0791158   -6.5937524    478.65935   0.03596779  0.035917741            3 
 1110000    1.0864986   -6.5905329    479.71041  0.036014295  0.035912085            2 
 1111000    1.0787772   -6.6074816     477.9613  0.035850682  0.035906369            3 
 1112000    1.0529397   -6.5872739    480.02179  0.035972856  0.035900595            4 
 1113000    1.0720272   -6.6258943    479.80929  0.035924625  0.035894696            4 
 1114000    1.0659805   -6.6186931    478.68267  0.035808099  0.035888744            7 
 1115000    1.0679987   -6.6196465    479.77292  0.035857468  0.035882498            4 
 1116000     1.067377   -6.6524472    479.69809   0.03581975  0.035876165            7 
 1117000    1.0784147   -6.6230572    479.86522  0.035800151  0.035870002            5 
 1118000    1.0943548   -6.5864445    481.46558  0.035887417  0.035863746            5 
 1119000    1.0704283   -6.6060983    481.79705  0.035880031  0.035857498            2 
 1120000    1.0654381   -6.6169899    481.75798  0.035845088  0.035851189            8 
 1121000    1.0920544   -6.6308811    482.09226  0.035837961  0.035844946            2 
 1122000    1.0563289   -6.5987115    481.74662  0.035780349  0.035838588            7 
 1123000    1.0691107   -6.6287516    480.94469   0.03568898  0.035831986            2 
 1124000    1.0551505   -6.6292691    481.33254  0.035685983  0.035825352            1 
 1125000    1.0680685   -6.6308315    481.41005  0.035660004  0.035818813            5 
 1126000    1.0617244   -6.6124222    482.07059  0.035677219  0.035812121            3 
 1127000    1.0527387   -6.6290777    482.65351  0.035688665  0.035805527            4 
 1128000    1.0740303   -6.5992406    484.55271  0.035797334  0.035799178            9 
 1129000    1.0697346   -6.6017817    486.08894  0.035879018  0.035792963            3 
 1130000    1.0646791   -6.5812179    485.03188  0.035769312  0.035786696            3 
 1131000    1.1117392   -6.6206537    485.10978  0.035743426  0.035780485            4 
 1132000    1.0766414   -6.6532826    484.83771  0.035691822  0.035774147            4 
 1133000    1.0661086   -6.6018404     486.1894  0.035759738  0.035767797            5 
 1134000    1.0716216   -6.6022281    487.84034  0.035849525  0.035761463            3 
 1135000    1.0612392   -6.6299968    486.19028   0.03569679  0.035755249            4 
 1136000    1.0783944   -6.6045087    487.31547  0.035747907  0.035749059            7 
 1137000    1.0583704   -6.5720535    487.36777    0.0357203  0.035743018           10 
 1138000    1.0872169   -6.6081483    488.45298  0.035768379  0.035736771            4 
 1139000     1.083214   -6.5974559    488.69243  0.035754494  0.035730666            6 
 1140000    1.0812927   -6.6198832    488.70253  0.035723869  0.035724666            2 
 1141000    1.0735566   -6.6612082    486.11919  0.035503885  0.035718658            3 
 1142000    1.0702378    -6.599432    489.67165  0.035732024   0.03571251            3 
 1143000    1.0584489   -6.6052173    489.56063  0.035692667  0.035706482            2 
 1144000     1.047562   -6.6259923    489.43901  0.035652609  0.035700379            5 
 1145000    1.0713281    -6.602745    489.56261  0.035630467  0.035694122            4 
 1146000    1.0553769   -6.6264939    489.94148  0.035626926  0.035687929            5 
 1147000    1.0709599   -6.6258985    490.48804  0.035635574  0.035681876            3 
 1148000     1.060117   -6.6265941    491.30467  0.035663812   0.03567547            3 
 1149000    1.0439844   -6.6105086    491.08698  0.035616984  0.035669124            7 
 1150000    1.0721046   -6.6314644    491.25609  0.035598267   0.03566307            4 
 1151000    1.0576801   -6.6213576     492.2337  0.035638119  0.035656928            5 
 1152000    1.0580297   -6.6186313    493.57902  0.035704501  0.035650866            2 
 1153000    1.0700061    -6.616542    493.03718  0.035634373  0.035644817            4 
 1154000    1.0652965   -6.5949235      491.702  0.035507077  0.035638518            3 
 1155000     1.090725   -6.6111959    493.35859  0.035595858  0.035632214            3 
 1156000    1.0753675   -6.5894788    495.64715  0.035730043   0.03562611            5 
 1157000    1.0610571   -6.6371916    493.14289  0.035518791  0.035619968            7 
 1158000    1.0660009   -6.5912464    494.94673  0.035617928  0.035613789            2 
 1159000    1.0917299   -6.6570185     494.3207  0.035542185  0.035607693            3 
 1160000    1.0860593   -6.6423926    495.66798  0.035608332  0.035601517            3 
 1161000    1.0654479   -6.6609944     496.1388  0.035611455   0.03559525            3 
 1162000    1.0582147   -6.6438181    496.25401  0.035589071  0.035589289            6 
 1163000    1.0764884   -6.6054949    495.68009  0.035517346  0.035582977            2 
 1164000    1.0800366   -6.6277303    495.42682  0.035468702  0.035576771            1 
 1165000    1.0722961   -6.6269356    495.79851  0.035464844  0.035570279            1 
 1166000    1.0925757   -6.6091255     497.7252  0.035572127  0.035563855            4 
 1167000    1.0488712   -6.6406515    496.18758  0.035431846  0.035557436            4 
 1168000    1.0666577   -6.5955207    496.54024  0.035426672  0.035550856            2 
 1169000    1.0290172   -6.5953534    498.49298   0.03553557  0.035544399            6 
 1170000    1.0477187   -6.6524843    498.41245  0.035499462  0.035537895            3 
 1171000    1.0754594   -6.6541555    498.46017  0.035472543   0.03553128            2 
 1172000    1.0743493   -6.6495837    498.22517  0.035425566  0.035524731            3 
 1173000    1.0518535   -6.6436062     499.5187  0.035487262  0.035518147            2 
 1174000    1.0428872   -6.6451033    499.29458  0.035441126  0.035511639            4 
 1175000    1.0686778    -6.617284    500.44359  0.035492453  0.035505162            5 
 1176000    1.0758199   -6.6400542    501.84336  0.035561462  0.035498968            3 
 1177000    1.0586965   -6.6716417     500.0403   0.03540359  0.035492772            4 
 1178000    1.0671734   -6.6174765    501.31776  0.035463905  0.035486636            3 
 1179000    1.0538154   -6.6317053    500.57592  0.035381391  0.035480194            2 
 1180000    1.0378624   -6.6067335    502.22653  0.035467975  0.035473869            2 
 1181000    1.0647628   -6.6216319    501.86257  0.035412262   0.03546761            2 
 1182000    1.0626569   -6.6403418    501.75311  0.035374585  0.035461417            2 
 1183000    1.0568083   -6.6382645    502.01905  0.035363416  0.035455103            2 
 1184000    1.0668922    -6.640087    502.21599  0.035347409  0.035448698            4 
 1185000     1.069052   -6.6261563    500.91516  0.035226101  0.035442116            2 
 1186000    1.0553532   -6.6478142    502.16626  0.035284307  0.035435444            4 
 1187000    1.0660119   -6.6331344    502.53624  0.035280556  0.035428706            3 
 1188000    1.0813135   -6.6336416    502.93691  0.035278964  0.035422161            6 
 1189000    1.0576989   -6.6502994    504.53853  0.035361546  0.035415637            2 
 1190000    1.0701433   -6.6039354     504.1231  0.035302738  0.035409129            3 
 1191000    1.0541981   -6.6344737    505.10025  0.035341467  0.035402635            2 
 1192000    1.0575004   -6.6186384    505.14577     0.035315  0.035396194            2 
 1193000    1.0432311   -6.6335626    504.51653  0.035241445   0.03538968            4 
 1194000    1.0553186   -6.6255893    505.32524  0.035268372  0.035383008            2 
 1195000    1.0515134   -6.6212175     505.5399  0.035253828  0.035376236            5 
 1196000    1.0486212   -6.6424205    505.40941   0.03521526  0.035369501            3 
 1197000    1.0304971   -6.6294338    504.40101  0.035115637  0.035362873            3 
 1198000    1.0525521   -6.6408802    508.00568  0.035337067  0.035356378            2 
 1199000    1.0754263   -6.6701704    506.34589  0.035192236   0.03534983            3 
 1200000    1.0753844   -6.6257014    506.78177  0.035193178  0.035343167            5 
 1201000    1.0557806   -6.6239485    508.69736  0.035296792  0.035336664            8 
 1202000    1.0873662   -6.6049749    509.63218  0.035332237  0.035330427            3 
 1203000    1.0516494   -6.5754721    509.58777   0.03529979  0.035324319            3 
 1204000    1.0643036   -6.6646354    508.47652  0.035193557  0.035318127            7 
 1205000    1.0570905   -6.6398828     511.8293  0.035396217  0.035311887            3 
 1206000    1.0677874   -6.6316872    510.05326  0.035244144  0.035305627            3 
 1207000    1.0578311   -6.6248513    510.55295  0.035249444  0.035299227            3 
 1208000    1.0411516   -6.6627936    510.00055  0.035182157  0.035292882            2 
 1209000    1.0529983   -6.6461459    510.96709  0.035219678  0.035286379            2 
 1210000    1.0403678   -6.6141565    510.03311  0.035126247  0.035279884            5 
 1211000    1.0576841   -6.6196026    511.14247  0.035173581  0.035273291            2 
 1212000     1.061433   -6.6106793    513.01323  0.035273187  0.035266783            3 
 1213000    1.0709975   -6.6747982    511.58247  0.035145814  0.035260397            3 
 1214000    1.0511458   -6.6560923    512.84085  0.035203243  0.035253841            3 
 1215000    1.0539039   -6.6498683    513.95048  0.035250376  0.035247396            3 
 1216000    1.0408751    -6.638247    512.85561  0.035146355  0.035240929            4 
 1217000    1.0387574   -6.6783589    513.67152  0.035173344  0.035234633            4 
 1218000    1.0740374   -6.6172954    514.93289  0.035230767  0.035228202            5 
 1219000    1.0645359   -6.6314672    514.70198   0.03518608  0.035222045            2 
 1220000    1.0793623   -6.6517708    515.36727  0.035202682  0.035215696            4 
 1221000    1.0664704   -6.6408857     512.1317  0.034953023  0.035209191            3 
 1222000    1.0789516   -6.6396343    514.22606  0.035067244  0.035202689            5 
 1223000    1.0498034     -6.64189    515.72891  0.035140973  0.035196209            5 
 1224000    1.0399314   -6.6368691    516.66119  0.035175734   0.03518991            4 
 1225000     1.082301    -6.618155    516.69389  0.035149244  0.035183541            4 
 1226000    1.0563015   -6.6231725     517.5317  0.035177522  0.035177252            4 
 1227000    1.0362171   -6.6370626    518.16287  0.035191719  0.035171075            4 
 1228000    1.0318456   -6.6469547    518.82331   0.03520788  0.035165091            3 
 1229000    1.0256115   -6.6625088    517.85403  0.035113509  0.035159104            2 
 1230000    1.0395891   -6.6617556    519.52322   0.03519805  0.035152971            4 
 1231000    1.0433078   -6.6082799    518.71802  0.035114948  0.035146805            2 
 1232000    1.0413586   -6.6481375    520.68711  0.035219636  0.035140501            5 
 1233000     1.035873   -6.6499309     520.1955  0.035157847  0.035134236            9 
 1234000    1.0597301   -6.6242709    520.00835  0.035116717  0.035128182            3 
 1235000     1.039957   -6.6300209    521.38717  0.035181321  0.035122009            2 
 1236000    1.0649809   -6.6328336    521.37582  0.035152091  0.035115816            3 
 1237000    1.0493854   -6.6396642    522.31039  0.035186634  0.035109589            4 
 1238000    1.0378947   -6.6505359    520.96426  0.035067599  0.035103056            4 
 1239000    1.0303699     -6.63807    521.81889  0.035096778  0.035096506            2 
 1240000    1.0334731   -6.6337643    520.33999  0.034969085  0.035090137            3 
 1241000    1.0640916   -6.6572355    521.74123  0.035035001  0.035083642            2 
 1242000    1.0522613   -6.6411506    520.57988   0.03492887  0.035077083            3 
 1243000    1.0282913   -6.6265701    521.85531  0.034986277  0.035070516            6 
 1244000    1.0477234   -6.6578994    521.79753  0.034954283  0.035064015            2 
 1245000    1.0395202   -6.6459947    523.06183  0.035010832   0.03505744            2 
 1246000    1.0487577   -6.6513617    521.99406   0.03491132  0.035050848            2 
 1247000    1.0545297     -6.62501     522.2669  0.034901557  0.035044285            3 
 1248000    1.0703631   -6.6383826    523.29901  0.034942509  0.035037779            4 
 1249000    1.0579455   -6.6381446    522.90438  0.034888202  0.035031128            4 
 1250000    1.0636608   -6.6563283    523.29694  0.034886462  0.035024485            3 
 1251000    1.0311521   -6.6834198    524.85034  0.034962053  0.035017855            3 
 1252000    1.0709319   -6.6350617     525.2002  0.034957415  0.035011326            6 
 1253000    1.0451283   -6.6377589     525.8753  0.034974415  0.035004933            4 
 1254000    1.0393148   -6.6815911      524.936  0.034884104  0.034998245            3 
 1255000    1.0611439   -6.6397086    524.87981  0.034852577  0.034991696            2 
 1256000    1.0580565   -6.6325074    526.34672  0.034922155  0.034985195            2 
 1257000    1.0602605   -6.6443272    526.53536  0.034906879  0.034978579            2 
 1258000    1.0412878   -6.6787998    527.67864  0.034954865  0.034971965            2 
 1259000    1.0735373   -6.6537065    526.38645   0.03484157  0.034965406            3 
 1260000    1.0644469   -6.6578636    524.53986   0.03469179  0.034958641            1 
 1261000    1.0526271   -6.6717936     526.3059  0.034780988  0.034951632            2 
 1262000    1.0503303   -6.6061569    528.71457  0.034912478  0.034944774            2 
 1263000    1.0821933    -6.658151    527.91094  0.034831812  0.034937938            5 
 1264000    1.0501004   -6.6746306    528.12335  0.034818259  0.034931082            2 
 1265000      1.05788   -6.6764777    526.50262  0.034683967  0.034924094            5 
 1266000    1.0739131   -6.6191331    529.01771  0.034822124  0.034917164            9 
 1267000    1.0299426   -6.6387378    527.33363  0.034683875  0.034910235            4 
 1268000    1.0488695   -6.6427209    530.03585  0.034834112  0.034903457            4 
 1269000    1.0337596    -6.609769    529.36887  0.034762863  0.034896627            3 
 1270000    1.0438759   -6.6155751    530.66111  0.034820283  0.034889784            7 
 1271000    1.0421321   -6.6356209    530.49013  0.034781676  0.034882981            3 
 1272000    1.0447536    -6.670413    529.86018  0.034713062   0.03487609            4 
 1273000    1.0482071   -6.6710995    531.39904  0.034786531  0.034869223            4 
 1274000    1.0643372   -6.6479271    532.09141  0.034804514  0.034862407            3 
 1275000     1.047964    -6.652212    531.31592  0.034726531  0.034855697            4 
 1276000    1.0608706    -6.662235    532.06497  0.034748235  0.034849039            3 
 1277000    1.0428713   -6.6296645    532.20542  0.034730189  0.034842269            3 
 1278000    1.0439871   -6.6008971    532.92201   0.03474974  0.034835655            5 
 1279000    1.0764422    -6.627273    533.32242  0.034748659  0.034829076            4 
 1280000    1.0408232   -6.6299807    534.97298   0.03482897  0.034822565            2 
 1281000    1.0617388   -6.6624805    533.13452  0.034682183  0.034815975            5 
 1282000    1.0408389   -6.6604587    532.95295  0.034643328  0.034809496            4 
 1283000    1.0622631   -6.6614154    534.33392  0.034706022  0.034802922            3 
 1284000    1.0570836   -6.6806424    534.70445  0.034703041  0.034796044            3 
 1285000    1.0338993   -6.6328137     535.8468  0.034750117  0.034789343            4 
 1286000    1.0344463   -6.6788922    534.32844  0.034624704  0.034782466            3 
 1287000    1.0280376   -6.6557997    533.92829  0.034571891  0.034775718            3 
 1288000    1.0420656   -6.6611172    534.31357  0.034569977  0.034768859            3 
 1289000    1.0371554   -6.6586995    534.99123  0.034586968  0.034762092            8 
 1290000    1.0565979   -6.6651863    535.58056  0.034598228  0.034755269            4 
 1291000    1.0712092   -6.6942376    536.60809  0.034637755  0.034748451            3 
 1292000    1.0391216   -6.6353455    535.97324  0.034569997  0.034741603            3 
 1293000    1.0261827   -6.6278961    538.52319  0.034707604  0.034734647            3 
 1294000    1.0398973   -6.6524084    538.27003  0.034664479  0.034727786            4 
 1295000    1.0280865    -6.668344    536.66998  0.034534748  0.034720872            3 
 1296000    1.0329342   -6.6834322    536.41772   0.03449188  0.034713905            3 
 1297000    1.0593883   -6.6238146    537.07583  0.034507571  0.034707099            2 
 1298000    1.0595154   -6.6632785    537.36298  0.034499421  0.034700114            3 
 1299000    1.0582829   -6.6606936    540.26897  0.034659288  0.034693292            3 
 1300000     1.030902   -6.6437766      538.989  0.034550577  0.034686646            2 
 1301000    1.0488241    -6.666592    539.36328  0.034547994  0.034679935            3 
 1302000    1.0404647   -6.6639251    539.57094  0.034534751  0.034673135            3 
 1303000    1.0532039    -6.660503    540.10612  0.034542474  0.034666272            3 
 1304000    1.0602809   -6.6658893    538.55214  0.034416676  0.034659513            4 
 1305000    1.0501048   -6.6539366     539.8803  0.034475115  0.034652537            3 
 1306000    1.0591415   -6.6718606    540.68126  0.034499825  0.034645524            3 
 1307000    1.0357812   -6.6493385    541.48291  0.034524542  0.034638413            3 
 1308000    1.0547903   -6.6443758     542.7273  0.034577427  0.034631601            4 
 1309000    1.0190905   -6.6851563    540.44386  0.034405644  0.034624565            4 
 1310000    1.0461682   -6.6701347    541.36159   0.03443776  0.034617725            4 
 1311000     1.026575   -6.6253798    542.55406  0.034487291  0.034610837            3 
 1312000    1.0457321   -6.6807796    542.88043  0.034481735  0.034603986            2 
 1313000    1.0498173   -6.6580557    542.88534  0.034455785  0.034597193            6 
 1314000    1.0346037   -6.6820162    543.17102   0.03444768  0.034590395            2 
 1315000    1.0420179   -6.6797161     543.6857    0.0344541  0.034583623            3 
 1316000    1.0456306   -6.6557023    545.30636  0.034530545  0.034576822            3 
 1317000    1.0500763   -6.6782966    545.15889  0.034494994  0.034570048            3 
 1318000    1.0310132   -6.6668302    544.40901  0.034421409  0.034563195            3 
 1319000    1.0496939   -6.6855248    544.90207  0.034426464  0.034556377            3 
 1320000    1.0450389   -6.6481445    545.64861  0.034447513  0.034549582            3 
 1321000    1.0360451   -6.6855653    546.12727  0.034451632  0.034542691            3 
 1322000    1.0365534   -6.6676742    546.33371  0.034438585  0.034535883            2 
 1323000    1.0152515   -6.6434158     546.5611  0.034426877  0.034529022            4 
 1324000    1.0076686   -6.6991114    546.88742  0.034421414  0.034522075            4 
 1325000    1.0440469   -6.6727821    546.08628  0.034345049  0.034515193            6 
 1326000    1.0347038   -6.7024038     545.4288  0.034277828  0.034508224            4 
 1327000    1.0572228   -6.7064195    546.75578  0.034335329  0.034501232            6 
 1328000    1.0400985   -6.6979088    546.14584    0.0342712  0.034494347            6 
 1329000    1.0524928   -6.6634684    548.63772  0.034401663  0.034487443            2 
 1330000    1.0681833   -6.6693226    548.16629  0.034346259  0.034480474            3 
 1331000     1.043079    -6.665445    548.48995  0.034340718  0.034473448            5 
 1332000   0.99731935   -6.6679022    548.62855  0.034323608  0.034466423            4 
 1333000    1.0280935   -6.6565872    550.01581  0.034384584  0.034459577            2 
 1334000    1.0457607   -6.6317274    548.53853  0.034266525  0.034452671            3 
 1335000    1.0429493   -6.6302725    551.04729  0.034397459  0.034445679            5 
 1336000    1.0409957   -6.6674803    549.63412  0.034283565  0.034438837            3 
 1337000    1.0463606   -6.6355931    549.98891  0.034280037  0.034431869            4 
 1338000    1.0243806   -6.6473208    550.73499  0.034300884  0.034425183            3 
 1339000     1.004841   -6.6656785    551.32138  0.034311761  0.034418256            5 
 1340000    1.0368941   -6.6981314    550.89857  0.034259861  0.034411475            4 
 1341000    1.0119358   -6.6463736    550.75113  0.034225151  0.034404546            2 
 1342000    1.0388629   -6.6780519    551.87896  0.034269682  0.034397572            3 
 1343000    1.0330674   -6.6286595    554.26921   0.03439248  0.034390877            7 
 1344000    1.0415513   -6.7223003    552.12831  0.034234146  0.034384225            3 
 1345000    1.0676056   -6.6741641    553.08311   0.03426785  0.034377604            3 
 1346000    1.0389729   -6.6547621    553.01656  0.034238271  0.034370931            4 
 1347000    1.0473791   -6.6767224    555.07048  0.034339921  0.034364235            4 
 1348000     1.039045   -6.6904252    553.68591  0.034228852  0.034357686            3 
 1349000    1.0251751   -6.6881085    553.79394  0.034210152  0.034350891            3 
 1350000    1.0441819   -6.6678144    556.70111  0.034364266  0.034344372            6 
 1351000    1.0179782   -6.6945592    555.46529  0.034262601  0.034337705            3 
 1352000    1.0364083   -6.6917548    554.91857  0.034203561   0.03433094            3 
 1353000    1.0454199   -6.7059481    555.98851   0.03424418  0.034324065            1 
 1354000    1.0462489   -6.6788707    556.34415  0.034240777  0.034317143            4 
 1355000    1.0222221   -6.6581889    556.98511  0.034254927  0.034310354            4 
 1356000    1.0470186   -6.6656514    558.92735  0.034349026  0.034303702            4 
 1357000    1.0337196   -6.6922488    558.07197  0.034271185  0.034297004            3 
 1358000    1.0291119   -6.6811963    557.88491  0.034234469   0.03429049            7 
 1359000    1.0345968   -6.6797287    558.36723  0.034238854  0.034283849            6 
 1360000    1.0420789   -6.6436947    559.12937  0.034260378  0.034277187            2 
 1361000      1.02044   -6.6623203    556.94954  0.034101735  0.034270442            6 
 1362000    1.0290326   -6.6639965    556.18077  0.034029661  0.034263579            2 
 1363000    1.0352241   -6.6646057    557.39701  0.034079054  0.034256597            2 
 1364000    1.0367908   -6.6844168    559.14758   0.03416102  0.034249599            6 
 1365000    1.0580317   -6.6872782    558.69491  0.034108359  0.034242827            4 
 1366000    1.0234852   -6.7072653    559.65193  0.034141772  0.034236003            3 
 1367000    1.0287992   -6.6744301    560.21253  0.034150971  0.034229302            4 
 1368000    1.0480259   -6.6726191    559.32107  0.034071703  0.034222575            3 
 1369000    1.0260311   -6.6795998    559.93341  0.034084089  0.034215668            6 
 1370000    1.0273113   -6.6901233    560.21869  0.034076563  0.034208927            6 
 1371000    1.0191305   -6.6966815    559.74811  0.034023104  0.034201929            4 
 1372000     1.032268   -6.7068473    559.72293  0.033996777  0.034194897            7 
 1373000    1.0537101   -6.6839003    560.44859  0.034016059  0.034187932            2 
 1374000    1.0213282   -6.6935886    560.53317  0.033996432  0.034181025            4 
 1375000    1.0377775   -6.6941038    562.59739  0.034096811   0.03417412            6 
 1376000     1.032613   -6.7099434    560.52379  0.033946451  0.034167288            7 
 1377000    1.0404512   -6.6646679    563.27988  0.034088591  0.034160397            3 
 1378000    1.0222187   -6.6735804    564.08408  0.034112487  0.034153672            4 
 1379000    1.0245842   -6.6921872    564.91634  0.034138043  0.034146928            4 
 1380000    1.0205627   -6.7276399    565.11967  0.034125584  0.034140124            3 
 1381000    1.0272113   -6.6924893    564.16621  0.034043339  0.034133283            9 
 1382000    1.0278412   -6.6470361    565.92574  0.034124804  0.034126568            2 
 1383000    1.0242403   -6.7030844    563.00072   0.03392388  0.034119691            3 
 1384000   0.99704455   -6.7116164    564.17185  0.033969885  0.034112691            2 
 1385000    1.0429456   -6.6564264    564.77406  0.033981592  0.034105907            3 
 1386000    1.0277817   -6.7146877    564.94138  0.033967134  0.034099096            3 
 1387000    1.0511611   -6.6843636    563.93834   0.03388238  0.034092227            7 
 1388000    1.0254602   -6.6867879    564.37489  0.033884179  0.034085256            3 
 1389000    1.0149391   -6.6714682    563.66944  0.033817461  0.034078173            2 
 1390000    1.0422154   -6.6941932    564.16896  0.033823079  0.034071167            3 
 1391000    1.0337497   -6.7286692    565.69582  0.033890236  0.034063952            3 
 1392000    1.0351914   -6.6952857    565.81356  0.033872938   0.03405661            2 
 1393000    1.0500677   -6.6984343     567.2691  0.033935696  0.034049513            2 
 1394000    1.0241603   -6.6766799    566.17391  0.033845882  0.034042274            3 
 1395000    1.0288436   -6.6834595     565.9671  0.033809265  0.034035219            4 
 1396000    1.0298724   -6.6853462    567.85698  0.033897862  0.034028096            2 
 1397000    1.0306831   -6.6826342    567.01036  0.033823095   0.03402099            7 
 1398000    1.0393288   -6.6677091    567.96869  0.033856026  0.034013764            3 
 1399000    1.0325318    -6.725821    565.77446  0.033701123  0.034006444            5 
 1400000    1.0401162   -6.7218049    565.68726  0.033671861  0.033998897            3 
 1401000    1.0172744   -6.6732866    567.08153   0.03373076   0.03399143            3 
 1402000    1.0313081   -6.7058638    566.30959  0.033660817  0.033983715            5 
 1403000     1.018164   -6.6579376    567.16563  0.033687671  0.033976026            2 
 1404000    1.0555333   -6.7066707    566.72818  0.033637713  0.033968183            4 
 1405000    1.0304371   -6.6807714    567.46306  0.033657358  0.033960403            5 
 1406000     1.017659   -6.7106846    566.92344  0.033601437  0.033952749            3 
 1407000    1.0341706   -6.7078807     569.8585  0.033751392   0.03394516            4 
 1408000     1.028022   -6.6673571    568.90618  0.033671057  0.033937448            5 
 1409000    1.0183155    -6.679409     567.9029  0.033587822  0.033929651            2 
 1410000    1.0273929   -6.6543203     567.6918  0.033551525   0.03392192            3 
 1411000     1.015654   -6.6869156     568.7359  0.033589411  0.033914027            3 
 1412000    1.0260952   -6.7047741    567.60084  0.033498633  0.033906156            3 
 1413000    1.0343393   -6.6936323    568.01229  0.033499191  0.033898207            4 
 1414000    1.0352956    -6.698651    567.81349  0.033463784  0.033890208            2 
 1415000    1.0140567   -6.6782264    568.51657  0.033481541  0.033882133            3 
 1416000    1.0239122   -6.7134839    568.11787  0.033434432  0.033874114            4 
 1417000     1.029194   -6.6959332    568.40252  0.033427577  0.033865935            3 
 1418000    1.0587336    -6.694518    568.58024  0.033414447  0.033857798            2 
 1419000    1.0336008   -6.7059283    569.86408  0.033466296  0.033849756            3 
 1420000    1.0352913   -6.6982859    570.68527  0.033490919  0.033841586            7 
 1421000    1.0214545   -6.7191827    569.32135  0.033387365  0.033833504            2 
 1422000    1.0265404   -6.7153982    568.96257   0.03334286  0.033825383            2 
 1423000    1.0186304   -6.6966139    568.53237  0.033294236  0.033817154            5 
 1424000    1.0113157   -6.7028299    571.35237  0.033435883  0.033808778            6 
 1425000    1.0307466   -6.6733999     571.5472  0.033423813  0.033800462            7 
 1426000    1.0326166   -6.7092037    569.89327  0.033303721  0.033792043            2 
 1427000    1.0033817   -6.6986023    569.90466  0.033281047  0.033783645            9 
 1428000     1.028375   -6.7004897    569.95431  0.033260639  0.033775184            3 
 1429000      1.02602   -6.6941766    569.72427  0.033223949  0.033766978            5 
 1430000    1.0362752   -6.6991762    570.46202  0.033243707  0.033758455            2 
 1431000    1.0105146   -6.7240098    570.34817  0.033213846  0.033749962            3 
 1432000    1.0282393   -6.7191014    569.02984  0.033113934  0.033741415            4 
 1433000    1.0080095   -6.7008307    571.60968  0.033240851  0.033733007            3 
 1434000     1.004161   -6.6516582    572.08294  0.033245173  0.033724617            3 
 1435000     1.000757   -6.6889277    571.73659  0.033201893   0.03371614            1 
 1436000    1.0180198   -6.6972837    572.47201  0.033221449  0.033707523            4 
 1437000    1.0030223    -6.719455    574.26207  0.033302138  0.033698994            2 
 1438000    1.0237535   -6.7386045    571.82872  0.033137965  0.033690436            2 
 1439000    1.0046401   -6.6975253    573.28045  0.033199007  0.033681825            6 
 1440000    1.0184448   -6.7585138    571.98547  0.033101011  0.033673291            4 
 1441000    1.0192062   -6.7117359    574.56378  0.033227145  0.033664792            3 
 1442000    1.0093318   -6.7089639    574.38532  0.033193789  0.033656245            9 
 1443000    1.0541649   -6.7206266    574.61137   0.03318384  0.033647728            6 
 1444000    1.0150251   -6.6993292    574.98136  0.033182211  0.033639378            2 
 1445000    1.0116737    -6.709157    573.61426  0.033080407  0.033631065            3 
 1446000    1.0105223   -6.6860423    576.77912  0.033239922  0.033622909            2 
 1447000    1.0288913    -6.700911    578.09453  0.033292705  0.033614817            4 
 1448000    1.0271053   -6.7234381    576.90572  0.033201296   0.03360667            5 
 1449000    1.0203067   -6.7048435    577.38587  0.033205997  0.033598466            2 
 1450000    1.0034308   -6.7288405    576.65776  0.033141251  0.033590326            3 
 1451000    1.0344386   -6.7148449    577.47632  0.033165421  0.033582119            4 
 1452000     1.009547   -6.6943869    579.11807  0.033236804  0.033573973            2 
 1453000    1.0368191   -6.7217849    577.40439  0.033115645  0.033565786            2 
 1454000    1.0323407   -6.6960102    577.55916   0.03310174   0.03355756            4 
 1455000     1.036625   -6.7270005    576.03816  0.032991876  0.033548978            2 
 1456000    1.0196654   -6.6929668    577.53155   0.03305469  0.033540667            2 
 1457000     1.038375   -6.7040104     578.9127  0.033110999   0.03353227            2 
 1458000     1.014178   -6.7156242    578.66282  0.033074006   0.03352386            2 
 1459000    1.0349315   -6.7018565    578.62835  0.033049369  0.033515538            4 
 1460000    1.0292811   -6.7692699     576.5222  0.032906519  0.033506883            4 
 1461000    1.0289608   -6.6857927    578.22723  0.032981247  0.033498343            3 
 1462000    1.0122801   -6.7055919    580.43943  0.033084783  0.033489769            3 
 1463000    0.9934159   -6.7108329    579.89209  0.033030992  0.033481358            7 
 1464000   0.99370817    -6.711218    580.27969  0.033030492  0.033472908            2 
 1465000    1.0256135   -6.7492192     578.8896  0.032928874  0.033464505            8 
 1466000    1.0336548   -6.7105531    580.26824  0.032984779  0.033455981            4 
 1467000    1.0442307   -6.7202673    580.68289  0.032985849  0.033447531            3 
 1468000    1.0459971   -6.6946933    581.72333  0.033022441  0.033439165            3 
 1469000    1.0238697   -6.7122403    581.84526  0.033006879  0.033430672            2 
 1470000     1.019611   -6.7377846    581.07358  0.032940679  0.033422158            2 
 1471000    1.0181646   -6.7279273    581.46678  0.032940561  0.033413718            6 
 1472000    1.0190805   -6.7431497    581.18643  0.032902312  0.033405267            4 
 1473000    1.0141416   -6.6892392    583.16073  0.032991668  0.033396939            5 
 1474000    1.0121729    -6.738025    583.39986  0.032982805   0.03338845            3 
 1475000    1.0169637   -6.7245949    583.91305  0.032989438  0.033380023            4 
 1476000    1.0225804   -6.7128603    583.34998  0.032935297  0.033371846            3 
 1477000    1.0092277   -6.7023625    583.40909  0.032916333  0.033363557            3 
 1478000    1.0475736   -6.6893101    583.69173  0.032909998  0.033355313            4 
 1479000    1.0152655   -6.7107209    583.72948  0.032889874  0.033346992            5 
 1480000    1.0305131     -6.74749    585.67085  0.032976962  0.033338667            2 
 1481000    1.0215311   -6.7240796    584.70565  0.032900385  0.033330351            6 
 1482000     1.017805   -6.7030661    585.52567  0.032924295  0.033322041            3 
 1483000    1.0093498   -6.7241698    584.45247  0.032841788  0.033313657            2 
 1484000    1.0180613   -6.7027738    586.91103  0.032957717  0.033305398            2 
 1485000    1.0299423   -6.6808943    585.35876  0.032848415  0.033297154            4 
 1486000    0.9854997   -6.7051719    587.72176  0.032958825  0.033288903            3 
 1487000    1.0167993   -6.7405233     586.0651  0.032843819  0.033280814            2 
 1488000   0.98716086   -6.7165662    585.94213  0.032814859  0.033272561            3 
 1489000    1.0152721   -6.7200768    586.41983  0.032819556  0.033264346            3 
 1490000    1.0315412   -6.7076498    587.07733  0.032834303  0.033256302            4 
 1491000    1.0089976   -6.7529074    586.84264  0.032799164  0.033248025            2 
 1492000   0.99468906   -6.7092638    587.57685  0.032818189  0.033239725            7 
 1493000    1.0282699    -6.698958    589.66507  0.032912763  0.033231493            7 
 1494000    1.0157187   -6.7520345    588.19091  0.032808507  0.033223126            9 
 1495000    1.0184855   -6.7106681    587.43711  0.032744543  0.033214715            4 
 1496000   0.98737134   -6.7106698      588.672  0.032791444  0.033206456            5 
 1497000   0.99729428   -6.7352409    588.91034  0.032782806  0.033198111            6 
 1498000    1.0299632   -6.7543629    588.32154  0.032728168   0.03318967            3 
 1499000    1.0113722   -6.7102446    588.33419  0.032707038  0.033181271            6 
 1500000    1.0267755    -6.732571    588.61012  0.032700562  0.033172806            6 
 1501000    1.0179416   -6.7512207    588.56329  0.032676176  0.033164358            5 
 1502000    1.0226511    -6.707937    589.37692  0.032699563  0.033155691            4 
 1503000    1.0015042   -6.6896602    590.73598  0.032753159  0.033147126            4 
 1504000    1.0083477   -6.7441578    588.10362  0.032585528  0.033138475            9 
 1505000    1.0178592   -6.7575186    589.19916  0.032624538  0.033129876            4 
 1506000    0.9959746   -6.7271315    587.88828  0.032530338  0.033121001            3 
 1507000    1.0071909    -6.726973    589.66453  0.032606975  0.033112077            3 
 1508000    1.0144523   -6.7292797    587.56076  0.032469096  0.033103066            3 
 1509000    1.0114865   -6.7251446    589.25438  0.032541108  0.033094066            5 
 1510000    1.0172709   -6.7337095    588.05715  0.032453485  0.033084922            4 
 1511000    1.0175183   -6.7258174    588.17185  0.032438333  0.033075797            3 
 1512000    1.0286022   -6.7373068    587.99282  0.032407012  0.033066542            4 
 1513000    1.0120284   -6.7431498     588.2908  0.032402005  0.033057374            3 
 1514000    1.0000697   -6.6702509    588.43982  0.032388806  0.033048206            5 
 1515000   0.99125239   -6.7079079    590.53624  0.032482741  0.033039007            3 
 1516000    1.0281337   -6.7386842    589.70571  0.032415661  0.033029736            3 
 1517000    1.0188498   -6.7568617    590.01368  0.032411211  0.033020373            4 
 1518000    1.0034352   -6.6947094     588.0063  0.032279661  0.033011097            2 
 1519000    1.0094393   -6.7046008    590.78604  0.032410908   0.03300179            2 
 1520000     1.009158   -6.7291709    589.35858  0.032311326  0.032992552            4 
 1521000    1.0227367   -6.7174749    589.92912  0.032321341  0.032983288            3 
 1522000    1.0080521   -6.7415334    590.38103  0.032324848  0.032974131            5 
 1523000    1.0024939   -6.7437953    590.71177  0.032321721  0.032964868            3 
 1524000   0.98814845   -6.7774249    590.75161  0.032302691  0.032955596            4 
 1525000    1.0052066   -6.7140257    592.05883  0.032352942  0.032946477            4 
 1526000    1.0038611    -6.733075    592.83664  0.032374216  0.032937534            2 
 1527000    1.0205355   -6.7192139    591.40917  0.032275113   0.03292856            7 
 1528000   0.99027261   -6.7174309    592.72364  0.032325678  0.032919521            4 
 1529000   0.99136264   -6.7299858    594.15191   0.03238238  0.032910448            3 
 1530000    1.0015776    -6.719328     595.0541  0.032410354  0.032901494            5 
 1531000   0.98836347   -6.7150245    594.05957  0.032335052  0.032892601            4 
 1532000   0.99805794   -6.7105973    594.04193  0.032312986  0.032883627            4 
 1533000   0.99739747   -6.7167585    593.85971  0.032282002  0.032874681            7 
 1534000    1.0178973   -6.7447923    595.00404  0.032323122  0.032865663            5 
 1535000    1.0149095   -6.7589906    593.97904  0.032246419  0.032856605            4 
 1536000     1.019405   -6.7286873    595.64693  0.032315914  0.032847576            4 
 1537000   0.99635042   -6.7319509    596.24532  0.032327332  0.032838656            5 
 1538000    1.0143333   -6.7592421    596.18497  0.032303044  0.032829796            4 
 1539000    1.0064286   -6.7286634    597.04877  0.032328827  0.032820853            5 
 1540000    1.0006625   -6.7100914    597.95207  0.032356714  0.032812007            4 
 1541000   0.97807361   -6.7562938    595.50637  0.032203459  0.032803101            4 
 1542000   0.98626903   -6.7695163    596.78314  0.032251575  0.032794215            2 
 1543000    1.0115781   -6.7228334    597.97493  0.032295038  0.032785329            7 
 1544000   0.99977474   -6.7166031     595.9827  0.032166596  0.032776534            1 
 1545000    1.0162001   -6.7513666    597.35888  0.032220005  0.032767583            4 
 1546000    1.0108587   -6.7249151    599.02521  0.032288983  0.032758793            3 
 1547000    1.0061671   -6.7044645    599.17559  0.032276211  0.032749993            3 
 1548000    1.0160515   -6.7101473    598.58249  0.032223433  0.032741228            4 
 1549000   0.99014226   -6.6950413    600.77005  0.032320317   0.03273246            5 
 1550000   0.99921669    -6.724041    601.37571  0.032332028  0.032723802            2 
 1551000    1.0127667   -6.7739168    599.45745  0.032208115  0.032715076            9 
 1552000    1.0025554   -6.7141562    600.50824  0.032243784   0.03270631            7 
 1553000   0.98288258   -6.7154767    602.00634  0.032303409  0.032697636            6 
 1554000    0.9969866   -6.7578731    600.82873  0.032219473  0.032688955            3 
 1555000    1.0184564   -6.7434219    600.74945  0.032194504  0.032680347            4 
 1556000    1.0079114   -6.7536104    601.64691  0.032221878  0.032671831            5 
 1557000    1.0068047   -6.7878398    601.71127  0.032204628    0.0326632            4 
 1558000   0.99175164   -6.7447104    601.29694  0.032161796  0.032654578            5 
 1559000    1.0004507   -6.7259573    602.97275  0.032230744  0.032646195            4 
 1560000   0.99540063   -6.7259275    604.23206  0.032277354    0.0326378            5 
 1561000   0.99762153   -6.7429769    602.01127   0.03213812  0.032629371            3 
 1562000    1.0072468   -6.7104674    604.63862  0.032257716   0.03262086            3 
 1563000    1.0170828   -6.7320431    603.64148  0.032183914  0.032612386            3 
 1564000    1.0063279   -6.7766279    603.14646  0.032136959   0.03260389            4 
 1565000   0.98857183   -6.7764105    603.20061  0.032119308  0.032595258            5 
 1566000     1.013916   -6.7505766    605.37285  0.032214392  0.032586786            6 
 1567000   0.99385515   -6.8011385    603.53279  0.032095979  0.032578319            1 
 1568000    1.0143004   -6.7530822    606.21738  0.032218186  0.032569894            3 
 1569000    1.0124437   -6.7086868    607.30114  0.032255212  0.032561453            3 
 1570000    0.9867526    -6.719325    605.62253   0.03214557  0.032553105            5 
 1571000   0.99649147   -6.7279701    605.98482  0.032144325  0.032544665            3 
 1572000    1.0284967   -6.7434215     604.7269  0.032057193  0.032536256            5 
 1573000   0.98431023   -6.7651134    605.58263  0.032082148  0.032527935            1 
 1574000   0.99683091   -6.7312806    606.65407  0.032118492  0.032519659            3 
 1575000   0.98272996   -6.7586437    606.94038  0.032113247  0.032511357            4 
 1576000    1.0236186   -6.7411381    607.76229  0.032136331  0.032503078            4 
 1577000   0.98977461   -6.7601669    609.71864  0.032219332  0.032495065            8 
 1578000   0.98543431   -6.7835397     607.6818   0.03209135  0.032486929            5 
 1579000   0.98893221    -6.747666    608.75951  0.032127903  0.032478878            4 
 1580000   0.97624153   -6.7646679    610.16855  0.032181886  0.032470814            4 
 1581000    1.0134092   -6.7628013    609.91257  0.032148038  0.032462707            4 
 1582000    1.0078782   -6.7653085    611.64429  0.032218936  0.032454751            2 
 1583000    1.0059933   -6.7639448    610.43037  0.032134679  0.032446835           13 
 1584000   0.97818421   -6.7490518    610.16729  0.032100552  0.032438957            8 
 1585000    1.0011186   -6.7320853    612.11208  0.032182549  0.032431128            2 
 1586000    1.0128207   -6.7694145    611.99133  0.032155913  0.032423232            4 
 1587000    1.0239765   -6.6961989    613.02735  0.032190052  0.032415415            8 
 1588000    1.0025843   -6.7452806    611.67676  0.032098907  0.032407555            6 
 1589000    1.0066556    -6.772799    611.68105  0.032078931  0.032399588            6 
 1590000   0.99501402   -6.7625983    613.42577  0.032150197  0.032391704            5 
 1591000    1.0167722   -6.7369882    613.65251  0.032141866  0.032384003            5 
 1592000   0.97858472   -6.7273261     614.5121  0.032166672  0.032376276            3 
 1593000    1.0045239   -6.7466632    614.53794  0.032147831  0.032368624           10 
 1594000   0.99496818   -6.7373768    612.73545   0.03203343  0.032360924            2 
 1595000   0.99868049   -6.7339628    614.77029   0.03211966  0.032353009            3 
 1596000   0.97732183   -6.7543859    614.13664   0.03206645  0.032345086            4 
 1597000     0.990321   -6.7960794    612.98682  0.031986371  0.032337012            3 
 1598000    1.0018973   -6.7759576    613.76708  0.032007044  0.032328983            5 
 1599000   0.98457351   -6.7422127    615.89012  0.032097671  0.032320969            5 
 1600000   0.98221023   -6.7277125    614.55274  0.032007955  0.032313046            7 
 1601000    1.0015505   -6.7366919    615.69934  0.032047644  0.032305276            5 
 1602000   0.99532943   -6.7565207    613.88964  0.031933502  0.032297429            3 
 1603000   0.96782831    -6.735937    617.23148  0.032087309    0.0322896           10 
 1604000   0.98654196   -6.7233778    617.65595  0.032089357  0.032281888            8 
 1605000   0.98018937   -6.7422855    617.03566  0.032037158  0.032274078            3 
 1606000   0.99646923   -6.7760157    616.75189  0.032002485  0.032266248            2 
 1607000   0.99297101   -6.7486044    618.67384  0.032082236  0.032258394            6 
 1608000   0.99267563   -6.7268056    618.05105  0.032030009  0.032250639            3 
 1609000   0.98901362   -6.7696923    617.26776  0.031969534  0.032242806            3 
 1610000    1.0115742   -6.7383378    618.46144  0.032011462  0.032235092            4 
 1611000    1.0134934   -6.7532863    618.19301  0.031977706  0.032227364            5 
 1612000    1.0042838   -6.7692322    618.86184  0.031992444   0.03221959            5 
 1613000   0.99341251   -6.7479224     619.3174  0.031996146  0.032211874            3 
 1614000   0.97157298   -6.7729293    617.72874  0.031894297  0.032204181            2 
 1615000   0.97510553     -6.73686    619.73582  0.031978112  0.032196403            5 
 1616000    0.9837084   -6.7611912    619.83892  0.031963641  0.032188684            3 
 1617000    0.9872194   -6.7733109    619.52531  0.031927712  0.032180826            4 
 1618000   0.99299663   -6.7442969    620.96782  0.031982273  0.032172977            3 
 1619000   0.97678557   -6.7944405    620.03795  0.031914657   0.03216516            2 
 1620000   0.98169182   -6.7885427    620.89134  0.031938855  0.032157521            7 
 1621000    1.0113721   -6.7570739    621.17414   0.03193369  0.032149765            5 
 1622000   0.99157906   -6.7761894    621.66655  0.031939301  0.032142022            9 
 1623000   0.97314548   -6.7882488    621.39036  0.031905441  0.032134437            2 
 1624000   0.97392494     -6.73829    624.41872   0.03204119  0.032126868            3 
 1625000    0.9860774   -6.7694624     622.1349  0.031904354  0.032119183            5 
 1626000   0.99970162   -6.7776667    621.78523  0.031866812  0.032111462            4 
 1627000   0.99927072   -6.7446161    624.15767   0.03196874   0.03210388            7 
 1628000    1.0192084    -6.740787    625.14167  0.031999471  0.032096431            2 
 1629000    0.9988712   -6.7190582    625.26677  0.031986227  0.032089099            3 
 1630000   0.99731688   -6.7880362    624.58317  0.031931655  0.032081739            3 
 1631000   0.98779714   -6.7744791    625.92531  0.031980651  0.032074266            5 
 1632000   0.97931323   -6.7481271    625.80765  0.031955048  0.032066904            8 
 1633000   0.99001394   -6.7748857    625.05153  0.031896894  0.032059543            4 
 1634000   0.99000023   -6.7717052    625.48251  0.031899353  0.032052232            3 
 1635000    1.0108661   -6.7819032    627.66344  0.031991001  0.032044877            3 
 1636000   0.97236985   -6.7648696    626.67125  0.031920907  0.032037621            5 
 1637000    1.0017665   -6.7987309    625.13304  0.031823103  0.032030276            4 
 1638000   0.98036529   -6.7701606    627.99737  0.031949398  0.032022942            4 
 1639000   0.97613075   -6.7351596    628.38428  0.031949577  0.032015656            3 
 1640000   0.98675761   -6.7776055    626.02604  0.031810266  0.032008334            4 
 1641000   0.97958172   -6.7630837    628.85832  0.031934711  0.032000969            4 
 1642000   0.99791796   -6.7808232    628.90849  0.031917808   0.03199353           12 
 1643000    1.0127714   -6.7388812    629.35966  0.031921265  0.031986264            3 
 1644000   0.99499405   -6.7858655    627.27949  0.031796406  0.031978852            5 
 1645000     1.008689   -6.7796244    628.86747  0.031857521  0.031971449            3 
 1646000   0.99354025   -6.7457738    629.71587  0.031881119  0.031964072            3 
 1647000    1.0076855   -6.7633735    630.51392  0.031902141  0.031956836            7 
 1648000    0.9778111   -6.7875231    628.08264  0.031759842  0.031949559            9 
 1649000    0.9879666   -6.7648148     631.2507  0.031900682  0.031942204            2 
 1650000   0.98901663   -6.7599604    630.05076  0.031820745  0.031934728            4 
 1651000   0.97901573   -6.7976494    630.79088  0.031838829  0.031927302            3 
 1652000   0.99676613   -6.7637571    629.10491  0.031734509  0.031919808            6 
 1653000   0.97711414   -6.7943054    629.21449  0.031720835  0.031912401            3 
 1654000   0.99915893   -6.7612025    630.92632  0.031787904  0.031904955            5 
 1655000   0.94486721   -6.7765096    630.43827  0.031744122  0.031897392            7 
 1656000   0.99889651   -6.7674955    632.71221  0.031839383  0.031889879            6 
 1657000   0.97811707   -6.7378948    631.39593   0.03175397  0.031882487            5 
 1658000   0.98383664    -6.752302    629.87417  0.031658332   0.03187502            7 
 1659000    0.9964955   -6.7269495    632.70747  0.031781569  0.031867481            3 
 1660000    1.0000823   -6.7651057    631.42988  0.031698287  0.031860018            5 
 1661000   0.98572487    -6.780006    631.78327  0.031696933  0.031852592            4 
 1662000   0.97190932   -6.7502108    630.71419  0.031624258  0.031845143            5 
 1663000    0.9905093   -6.8188818    630.64392   0.03160172  0.031837641            4 
 1664000   0.98943596    -6.756999     631.6433  0.031632778  0.031830065            2 
 1665000    1.0030013   -6.7580913    632.78341  0.031670841  0.031822531            2 
 1666000   0.99604285   -6.7473353    631.70818  0.031598048  0.031814899            4 
 1667000   0.97359751   -6.7943346    631.75199  0.031581283  0.031807266            2 
 1668000   0.97695033   -6.7477987     634.1256  0.031680935  0.031799727            3 
 1669000   0.97744569   -6.7993388    632.52379  0.031581975  0.031792164            2 
 1670000   0.99287268   -6.7928931    634.00483  0.031636967  0.031784632            4 
 1671000   0.97452159   -6.7451627    633.41287  0.031588513  0.031777157            2 
 1672000   0.99684896   -6.7966549    632.98272  0.031548182  0.031769574            2 
 1673000    1.0048083   -6.7524676    635.03213  0.031631407  0.031762055            3 
 1674000    1.0148596   -6.7402855    634.68814  0.031595387  0.031754603            4 
 1675000   0.98908986   -6.7545207    635.26299  0.031605124  0.031747059            4 
 1676000    1.0019479   -6.7696177     635.6697  0.031606488  0.031739641           10 
 1677000   0.96753417   -6.7622566    635.44666  0.031576558  0.031732098            5 
 1678000   0.99522913   -6.7705459    636.69258  0.031619616  0.031724601            4 
 1679000   0.97811088   -6.7705922    637.11864   0.03162193  0.031717056            3 
 1680000   0.97591764    -6.823139    635.80303  0.031537849   0.03170957            3 
 1681000    1.0042105   -6.7597387    635.92142  0.031524956   0.03170207            7 
 1682000   0.97382947   -6.7788155    635.91095  0.031505695  0.031694567           10 
 1683000   0.96906828   -6.7872506    637.91054  0.031585984  0.031687171            5 
 1684000   0.96944208   -6.8034308    639.11125  0.031626645  0.031679619            5 
 1685000    1.0017162   -6.7529259    636.78079  0.031492621   0.03167212           15 
 1686000    1.0001409   -6.8035724    636.67676    0.0314688  0.031664676            3 
 1687000    1.0033544   -6.7762698    636.33816   0.03143342  0.031657136            4 
 1688000   0.95256805   -6.7832635    638.08259  0.031500918  0.031649472            3 
 1689000   0.99722766   -6.7886158    638.75161  0.031515276  0.031641863            8 
 1690000   0.94373281   -6.7933432    638.46164  0.031482329  0.031634169           13 
 1691000     1.007905   -6.7564197     638.4716  0.031464202  0.031626491            3 
 1692000   0.98740998   -6.7668478    637.43084  0.031394348  0.031618962            2 
 1693000   0.98292201   -6.7951307     638.4705  0.031426979  0.031611369            2 
 1694000   0.97190139   -6.7673189    638.13451  0.031391899  0.031603744            7 
 1695000   0.98991099   -6.8024719    640.01757  0.031465957  0.031596147            5 
 1696000   0.98707965   -6.8022114    638.52534  0.031374083  0.031588344            3 
 1697000   0.98352502   -6.7963688    639.80961  0.031418661  0.031580683            4 
 1698000   0.99044518   -6.8176124    638.54451   0.03133807   0.03157298            4 
 1699000    0.9767567   -6.7623555     641.4537  0.031462316  0.031565261            6 
 1700000   0.98905886   -6.7825734    641.68027  0.031454915  0.031557613            3 
 1701000   0.99125641   -6.8063934    639.11154  0.031310579  0.031549886            6 
 1702000   0.97642529   -6.7846437    640.23739  0.031347307   0.03154215            3 
 1703000   0.98520503   -6.8034386    639.43033  0.031289408  0.031534521            7 
 1704000   0.98656706   -6.7570982    640.85936  0.031340931  0.031526732            4 
 1705000   0.97662988   -6.7897305    639.17602  0.031240275  0.031518874            4 
 1706000    0.9869671   -6.7985976    637.97858  0.031163471  0.031510993            4 
 1707000   0.99932006   -6.7811537    640.05556   0.03124661  0.031503071            1 
 1708000   0.99217289   -6.8044322    640.26827  0.031238694  0.031495178            4 
 1709000   0.95234982   -6.8403795     639.7164  0.031193505  0.031487182            3 
 1710000   0.96509338   -6.7437254    638.81752  0.031131458  0.031479026            4 
 1711000   0.97432643   -6.8093588    639.90661  0.031166307  0.031470883            6 
 1712000   0.97675981   -6.7904855    639.50485  0.031128546  0.031462747            2 
 1713000   0.97312266   -6.8197804    638.87142  0.031079559  0.031454629            5 
 1714000   0.96491343   -6.7841276    640.62712  0.031146787  0.031446471            3 
 1715000    1.0016764   -6.8111133    638.03538  0.031002691  0.031438275            5 
 1716000   0.97766428   -6.8095969    642.27319  0.031190423  0.031430195            5 
 1717000   0.97442586   -6.7819857    640.66368  0.031094141  0.031422177            3 
 1718000   0.98511808    -6.779567    641.07684  0.031096083  0.031414169            3 
 1719000   0.98730872   -6.7726782    642.53835  0.031148844  0.031406191            4 
 1720000   0.97835545   -6.8089676    640.97216  0.031054853  0.031398341            4 
 1721000   0.96882881   -6.7821145    644.42732  0.031204112  0.031390401            6 
 1722000    0.9836751   -6.7945716    641.73149  0.031055531  0.031382445            5 
 1723000   0.95884398   -6.7726786    641.78734  0.031040208  0.031374405            2 
 1724000   0.99833941   -6.7899663    641.20143  0.030993882  0.031366321            2 
 1725000   0.99155437   -6.8112772    642.43685  0.031035597  0.031358226            4 
 1726000   0.99695638   -6.7990396    643.50185  0.031069035   0.03135008            6 
 1727000   0.97357419   -6.8059798    641.88649  0.030973098  0.031341957            5 
 1728000   0.99150781   -6.7773781    642.99413   0.03100859  0.031333787            5 
 1729000   0.97447856    -6.802152    642.69931  0.030976446  0.031325657            6 
 1730000   0.97425733   -6.7830811    643.20723  0.030983007  0.031317525            4 
 1731000   0.95980048   -6.8126513    644.75586  0.031039662  0.031309485            5 
 1732000   0.97605821   -6.8171625    644.13449  0.030991844  0.031301449            6 
 1733000   0.97001141   -6.8082965    644.77939  0.031004972  0.031293379            4 
 1734000   0.96383568   -6.7797205     643.6245  0.030931589  0.031285204            3 
 1735000   0.98575227   -6.8019493    644.15152  0.030939074  0.031277158            2 
 1736000   0.97841754   -6.8128577    645.41512  0.030981909  0.031269162            5 
 1737000   0.97494416   -6.7844784    645.35229  0.030961058   0.03126113            5 
 1738000   0.98789123   -6.7974554    646.72889  0.031009249  0.031253177            5 
 1739000   0.97376472    -6.817871    648.64825  0.031083393  0.031245074            6 
 1740000   0.96555294   -6.7849702    645.80541  0.030929378  0.031237072            3 
 1741000   0.96443869   -6.8503336    644.86634  0.030866664  0.031228894            4 
 1742000    0.9774611   -6.8005206    645.53647  0.030881002  0.031220733            4 
 1743000   0.96876707   -6.8083736    647.02478  0.030934441  0.031212592            2 
 1744000   0.95577434   -6.7564467    646.95851  0.030913537  0.031204545            5 
 1745000   0.97419798   -6.8153177    646.28696  0.030863752  0.031196559            4 
 1746000   0.98368938   -6.8175998    646.73606   0.03086751  0.031188513            4 
 1747000   0.97157536   -6.7976361    646.76507  0.030851224   0.03118048            2 
 1748000   0.98585331   -6.8075385    647.24662  0.030856532  0.031172487            6 
 1749000    0.9669343   -6.8165905    647.91501  0.030870736  0.031164448            6 
 1750000   0.98435436   -6.8043412    647.72524  0.030844059   0.03115645            2 
 1751000   0.97460566   -6.7777893    649.12187  0.030892912  0.031148424            2 
 1752000   0.96302735   -6.7649111    651.05957  0.030967445  0.031140495            4 
 1753000   0.97806717   -6.7846454    650.32889  0.030915045  0.031132452            2 
 1754000   0.97628104   -6.8106627    648.71101  0.030820554  0.031124372            6 
 1755000   0.97856041   -6.8350073    648.84621  0.030809412  0.031116363            4 
 1756000   0.97357634   -6.8035977    648.59348  0.030779873  0.031108407            5 
 1757000   0.97218319   -6.7804954    651.60607   0.03090524  0.031100475            3 
 1758000   0.96196089   -6.8056779      651.422  0.030878935  0.031092543            2 
 1759000   0.99219787   -6.7831518     651.5064  0.030865378   0.03108476            5 
 1760000   0.96340989   -6.7904973    651.59536  0.030852053  0.031076908            1 
 1761000   0.96378496   -6.8071563    651.72998  0.030840904   0.03106892            2 
 1762000   0.97049651   -6.8354406     651.2709  0.030801689  0.031061016            5 
 1763000   0.97874558   -6.8291928    650.84963  0.030764305  0.031053126            2 
 1764000   0.95587258   -6.8106572    650.96452  0.030752292  0.031045331            3 
 1765000   0.98327009   -6.8054105    651.11978  0.030742199  0.031037407            3 
 1766000   0.97108001   -6.7918102    650.00176  0.030672035  0.031029464            4 
 1767000   0.95635797   -6.7904044    652.63541  0.030778882  0.031021529            4 
 1768000   0.95527697    -6.813691    653.85074  0.030818757  0.031013711            5 
 1769000   0.94230073   -6.8037683    653.57548  0.030788368  0.031005904            3 
 1770000   0.97161718   -6.8393941    653.54527  0.030769552  0.030998061            4 
 1771000   0.96413017   -6.8323576    652.70594  0.030712683  0.030990248            4 
 1772000    0.9578298   -6.8265488    654.55864  0.030782479  0.030982354            7 
 1773000   0.95307559   -6.7805466    654.11036  0.030744048   0.03097444            2 
 1774000   0.96132417   -6.8016307    655.56669  0.030795128  0.030966497            3 
 1775000   0.95793973   -6.7929894    655.25688  0.030763234   0.03095865            5 
 1776000   0.98286141   -6.8198039    654.67093  0.030718418  0.030950725            5 
 1777000   0.97391161   -6.8382371    655.16479  0.030724292   0.03094281            3 
 1778000   0.96539935   -6.7729873    654.40705  0.030671496  0.030934895            3 
 1779000   0.97112562   -6.8368694    656.01234  0.030729452  0.030927001            6 
 1780000   0.95967594   -6.8347063    655.75984  0.030700367   0.03091909            3 
 1781000   0.97113052   -6.8246189    655.42232  0.030667337   0.03091121            3 
 1782000   0.95061216   -6.8113725    655.04518  0.030632491  0.030903308            4 
 1783000   0.97343893   -6.8138361    655.06399  0.030616189  0.030895275            6 
 1784000    0.9719364   -6.8279667    653.74981  0.030537641  0.030887205            5 
 1785000   0.95360816   -6.8188038    655.09313  0.030583246  0.030879137            6 
 1786000   0.96287653   -6.8399968    654.17376  0.030523225  0.030871126            7 
 1787000   0.95993244   -6.8524387    658.51064  0.030708386  0.030863101            2 
 1788000   0.95098389   -6.8106966    656.85054   0.03061384  0.030855152            9 
 1789000   0.95699938   -6.8253522    657.82538  0.030642136  0.030847196            2 
 1790000   0.98640581   -6.8115667    654.95075   0.03049119  0.030839211            5 
 1791000   0.99185585   -6.7967595    657.12719  0.030575432  0.030831321            3 
 1792000   0.97855954   -6.8118662    657.47761  0.030574666  0.030823403            3 
 1793000   0.97442887   -6.8016461    656.71121  0.030521993  0.030815414            5 
 1794000   0.95714934   -6.8343451    657.34447  0.030534396  0.030807425            6 
 1795000   0.94145997   -6.7845812    657.73539  0.030535533  0.030799373            3 
 1796000   0.97346823   -6.8226468    655.69306  0.030423769  0.030791265            8 
 1797000   0.97039103    -6.809285    657.60589  0.030495543  0.030783123           13 
 1798000   0.96443256   -6.8049072    656.57836  0.030430959  0.030774954            3 
 1799000   0.95094963   -6.8175428    657.62944  0.030462731  0.030766832            3 
 1800000    0.9600351   -6.8362686    658.42608  0.030482689  0.030758727            5 
 1801000   0.95733929   -6.8604466    656.52779  0.030377929  0.030750502            2 
 1802000    0.9796711   -6.8008373    658.09168  0.030433393  0.030742389            7 
 1803000   0.97260964   -6.8139292    657.71105  0.030398921  0.030734294            5 
 1804000    0.9464927   -6.7960744    658.31464  0.030409952  0.030726174            5 
 1805000   0.96931389   -6.8256663    659.44109   0.03044511  0.030718106            5 
 1806000   0.94854542   -6.8543168    656.84096  0.030308276  0.030709975            3 
 1807000   0.95808048   -6.8367562    658.94196  0.030388395  0.030701762            3 
 1808000   0.96573603   -6.8460329    657.61712  0.030310524  0.030693517            3 
 1809000   0.96821677   -6.8490432    657.06809  0.030268477  0.030685272            2 
 1810000   0.95562173    -6.832192     658.3872  0.030312486  0.030677042            5 
 1811000   0.94715445   -6.8026769    659.45526  0.030344895  0.030668828            8 
 1812000   0.95672849   -6.8689424    657.98495  0.030260529  0.030660589            7 
 1813000   0.97679935    -6.813709     657.1654  0.030206169   0.03065225            3 
 1814000   0.93877904    -6.824255     660.6753  0.030350758  0.030643942            2 
 1815000   0.95090788   -6.8352872    660.28771   0.03031624  0.030635792            5 
 1816000   0.95426526   -6.8316406    660.91012  0.030328108  0.030627723            3 
 1817000   0.97289645   -6.8567589    661.36882  0.030332454  0.030619617            4 
 1818000   0.96865829   -6.8277898    661.21277  0.030308616  0.030611562            7 
 1819000    0.9611608   -6.8098664    662.44532   0.03034842  0.030603564            6 
 1820000   0.96834228   -6.8435102    663.27546  0.030369756  0.030595647            5 
 1821000   0.95078977   -6.8182753    663.56025  0.030366111  0.030587721            3 
 1822000    0.9723788   -6.8205296    664.55128  0.030394772  0.030579788            2 
 1823000   0.96501945    -6.806329    664.28205  0.030365791  0.030571971            4 
 1824000   0.96125123   -6.8319773    664.00216  0.030336356  0.030564101            6 
 1825000   0.95424028   -6.8117692    664.60744  0.030347372  0.030556196            5 
 1826000   0.95325474      -6.8471    663.90261  0.030298586   0.03054825            6 
 1827000   0.95722144   -6.8363218    664.36438  0.030303064  0.030540298            9 
 1828000   0.97496963   -6.8279345    664.72185  0.030302783  0.030532312            4 
 1829000   0.96682431    -6.885831    662.62894  0.030190857  0.030524301            4 
 1830000    0.9650034   -6.8215742    665.03986  0.030284146  0.030516257            4 
 1831000   0.94725507   -6.8276153    665.98024  0.030310406  0.030508369            5 
 1832000   0.96443036   -6.8224577    666.17329  0.030302642  0.030500475            5 
 1833000   0.95478984   -6.8458014    664.78443  0.030222969  0.030492562            8 
 1834000   0.95360571   -6.8472564    664.38107  0.030188162  0.030484618            7 
 1835000   0.94985189   -6.8265291    665.72467  0.030232728  0.030476704            2 
 1836000   0.97547599   -6.8305719    665.91488  0.030224895  0.030468798            4 
 1837000   0.97581411   -6.8384969    666.56508  0.030237937  0.030460985            2 
 1838000   0.96845854   -6.8349652    667.35383  0.030257246  0.030453045            4 
 1839000   0.96960368   -6.8590917    667.64018  0.030253769  0.030445296            7 
 1840000   0.97035273   -6.8509013    668.55191  0.030278619  0.030437464            5 
 1841000   0.96238959   -6.8601992    667.61202  0.030219628  0.030429604            3 
 1842000   0.97753861   -6.8355529    667.66405  0.030205576  0.030421802            3 
 1843000   0.96087963   -6.8486087    667.92168  0.030200836  0.030413959            4 
 1844000   0.96142746   -6.8556665    667.50551   0.03016565  0.030406096            7 
 1845000   0.94771569   -6.8628849    668.18478  0.030179981  0.030398197            2 
 1846000   0.96835827   -6.8255649    668.84117  0.030193263  0.030390383            4 
 1847000   0.96546862   -6.8532539    668.40807  0.030157375  0.030382508            3 
 1848000   0.92464697    -6.836953    668.72823  0.030155494  0.030374567            8 
 1849000   0.94273866   -6.8368056    668.55273  0.030131275  0.030366608            2 
 1850000   0.94617511   -6.8510047    668.97235   0.03013389  0.030358638            6 
 1851000   0.94446656   -6.8363529    669.40837   0.03013724  0.030350661            3 
 1852000   0.94425704   -6.8096552    668.36571  0.030074051  0.030342712            4 
 1853000   0.94460322   -6.8290462    669.26848   0.03009842  0.030334891            4 
 1854000    0.9604091    -6.846662    670.27419  0.030127391  0.030327129            3 
 1855000   0.94102496   -6.8597679     669.8985  0.030094272  0.030319271            5 
 1856000   0.96223557    -6.848432    669.70107  0.030069193  0.030311459            8 
 1857000   0.96085844   -6.8490209    670.20838  0.030075767   0.03030368            2 
 1858000   0.92592923   -6.8104149    672.36281  0.030156208  0.030295889            4 
 1859000    0.9545611   -6.8257947    670.72361  0.030066506  0.030288107           11 
 1860000   0.96343048   -6.8297377    671.04836  0.030064891  0.030280284            5 
 1861000   0.93816441   -6.8221883    673.27785  0.030148569  0.030272523            5 
 1862000   0.94250042    -6.841607    670.46266  0.030006385  0.030264733            3 
 1863000   0.96227456   -6.8288159    671.96373  0.030057422  0.030256909            4 
 1864000   0.95575401   -6.8341902    670.37043  0.029970066  0.030249073            2 
 1865000   0.95833895   -6.8364636     672.2909  0.030039808   0.03024123            3 
 1866000   0.97123493    -6.855312    672.60859  0.030037897  0.030233493            5 
 1867000   0.97128128   -6.8682144    672.89413  0.030034553  0.030225712            3 
 1868000   0.96129598   -6.8195044    675.54531  0.030136747  0.030218004            3 
 1869000   0.95502421   -6.8290683    674.26553   0.03006356  0.030210338            5 
 1870000   0.96567821   -6.8226358    674.48276  0.030057164   0.03020259            5 
 1871000   0.94150872    -6.831706    673.58964   0.03000132  0.030194823            2 
 1872000   0.94741506   -6.8639966    673.57366  0.029984582  0.030187061            6 
 1873000   0.93872578   -6.8515299    677.12149  0.030126423  0.030179392            4 
 1874000   0.94625476   -6.8241534    674.46425  0.029992185  0.030171713            7 
 1875000   0.95167578   -6.8269832    676.85209  0.030082315  0.030164014           10 
 1876000   0.96977753   -6.8495188    675.88634  0.030023381  0.030156366            4 
 1877000    0.9743017   -6.8508216    676.09469  0.030016635  0.030148688            3 
 1878000   0.94646022   -6.8556397    675.89666  0.029991865  0.030141157            3 
 1879000   0.94209534   -6.8435437    678.54997  0.030093577  0.030133641            5 
 1880000   0.96180178   -6.8517601    676.37392  0.029981113  0.030126123            2 
 1881000   0.94382961   -6.8330008    678.52916  0.030060657  0.030118515            8 
 1882000   0.94018778    -6.855009    678.31931  0.030035393  0.030110943            6 
 1883000   0.93291822   -6.8513919    676.53308  0.029940391  0.030103393            3 
 1884000   0.93263231   -6.8211535    677.04909  0.029947324  0.030095738            6 
 1885000   0.95173689   -6.8351999    680.77573  0.030096186  0.030088144            3 
 1886000   0.94997513   -6.8614558    679.14593  0.030008215  0.030080646            2 
 1887000   0.93344927   -6.8386805    678.97211  0.029984637  0.030073094            3 
 1888000   0.94259415   -6.8395856    680.14717   0.03002062  0.030065609            6 
 1889000   0.96208951   -6.8713271    678.88727  0.029949147  0.030058069            3 
 1890000   0.95879846   -6.8269676    679.94446  0.029979915   0.03005066            9 
 1891000   0.94411938   -6.8132237    679.39207  0.029939717  0.030043326            7 
 1892000   0.95137011   -6.8431626    681.95251  0.030036668  0.030035929            5 
 1893000   0.94593063   -6.8299183    681.02406  0.029979929  0.030028573            7 
 1894000   0.94468629   -6.8565474    680.69156   0.02994947  0.030021275            3 
 1895000   0.94701936   -6.8581052    679.93703  0.029900485  0.030013938            5 
 1896000   0.92369342   -6.8534753    682.02376  0.029976431  0.030006666            8 
 1897000   0.95368974   -6.8389932     681.8638  0.029953602  0.029999345            6 
 1898000   0.96070809   -6.8615181    683.05039  0.029989919  0.029991936            5 
 1899000   0.94591104   -6.8395596    683.98665  0.030015212  0.029984624            4 
 1900000   0.93672631   -6.8278012    683.09617  0.029960358  0.029977398            6 
 1901000   0.95466539    -6.826158    682.50438  0.029918656  0.029970087            5 
 1902000   0.95045124   -6.8587784    682.43699  0.029899973  0.029962705            6 
 1903000   0.96514283    -6.853656    680.70831  0.029808561  0.029955319            7 
 1904000    0.9303316   -6.8593829    681.94369  0.029846975  0.029947867            4 
 1905000   0.95040612   -6.8410806    683.60003  0.029903763  0.029940439            6 
 1906000   0.94119042   -6.8478726      683.422   0.02988029  0.029933039            3 
 1907000   0.93969482   -6.8901448    681.40552  0.029776504  0.029925618            6 
 1908000   0.95087867   -6.8448345    683.27226  0.029842429   0.02991823            3 
 1909000   0.96387443   -6.8534739    682.68123  0.029800997  0.029910796            2 
 1910000   0.94792417   -6.8856984    682.23693  0.029766009  0.029903295            9 
 1911000     0.919839   -6.8628131     685.4055  0.029888605  0.029895907            2 
 1912000   0.94152209   -6.8298197    685.01651   0.02985602  0.029888572            4 
 1913000   0.96766956   -6.9057507    685.35802  0.029855289   0.02988137            5 
 1914000   0.93618162   -6.8414195    685.29535  0.029836962  0.029874113            3 
 1915000   0.94565782   -6.8654617    685.12468  0.029813955   0.02986671            6 
 1916000   0.94711304   -6.8377325    684.99223  0.029792634  0.029859302            3 
 1917000   0.94000339   -6.8648311    685.20197   0.02978621  0.029851945            6 
 1918000   0.94970753   -6.8417948    686.39226  0.029822396  0.029844522            4 
 1919000   0.93444257   -6.8565055    684.39936  0.029720313  0.029837142            6 
 1920000   0.93588583   -6.8658012    685.53607   0.02975417  0.029829735            6 
 1921000   0.94946913   -6.8316867    686.09493  0.029762924  0.029822336            6 
 1922000   0.96396398   -6.8693946    686.59529  0.029769133  0.029814961            5 
 1923000   0.95208146   -6.8627626    687.85839  0.029808389   0.02980771            4 
 1924000    0.9463686   -6.8349285    687.63765  0.029783335  0.029800451            5 
 1925000    0.9496912   -6.8641223    687.19737  0.029748804  0.029793212            7 
 1926000   0.94052393    -6.867591     687.5991   0.02975074  0.029785958            3 
 1927000   0.96133002   -6.8807795    688.34878  0.029767721  0.029778677            2 
 1928000   0.94286591    -6.824323     690.2559  0.029834712  0.029771485            6 
 1929000   0.95950625   -6.8715714    690.27957  0.029820268  0.029764345            6 
 1930000   0.92511397   -6.8568955    689.98945  0.029792291   0.02975726            3 
 1931000   0.95584605   -6.8857499    689.41085  0.029751892  0.029750049            4 
 1932000   0.94523023   -6.8564658    688.78765  0.029709612  0.029742822            6 
 1933000   0.94999644   -6.8662076    688.61946  0.029686992   0.02973564            5 
 1934000    0.9293579   -6.8460454    690.21672  0.029740465  0.029728434            2 
 1935000   0.94096385   -6.8450119    691.81021  0.029793721  0.029721341            3 
 1936000   0.94480664   -6.8518382    690.96981  0.029742158  0.029714214            6 
 1937000   0.91695335   -6.8826386    691.32393  0.029742038  0.029707075            3 
 1938000   0.93222598   -6.8548442    691.32024  0.029726533  0.029699937            6 
 1939000   0.93583006   -6.8639412    690.80789  0.029689182  0.029692787           13 
 1940000   0.92618117   -6.8607388    692.68903  0.029754683  0.029685654            4 
 1941000   0.92715205   -6.8563021    693.36688  0.029768456  0.029678605            7 
 1942000   0.97002824   -6.8730594    692.60293  0.029720346  0.029671681            5 
 1943000   0.94039383   -6.8501951    693.97696   0.02976398  0.029664635            8 
 1944000   0.95429337   -6.8708102      693.061  0.029709405  0.029657631            4 
 1945000   0.93710806   -6.9010586    692.91761  0.029687987  0.029650631            3 
 1946000    0.9236868   -6.9162317    694.21921  0.029728469  0.029643547            4 
 1947000   0.94704546   -6.8247856    694.70622  0.029734045  0.029636547            4 
 1948000   0.95609738   -6.8931742    693.65373  0.029673756  0.029629622            3 
 1949000   0.92034104   -6.8891662    693.98047  0.029672502  0.029622528            3 
 1950000   0.92844799   -6.8584156    694.27903  0.029670044  0.029615432            4 
 1951000   0.96245956   -6.8568553    695.10045  0.029689922   0.02960841           14 
 1952000   0.92228127   -6.8559316    696.89222  0.029751205  0.029601447            8 
 1953000   0.92770317   -6.8975478    694.51802  0.029634666  0.029594441            5 
 1954000   0.93995597   -6.8637697    695.85878   0.02967668   0.02958737            5 
 1955000   0.93871257   -6.8862021    697.34049  0.029724658  0.029580305            2 
 1956000   0.94860396   -6.8736288    694.55842  0.029590935  0.029573234            2 
 1957000   0.93343105   -6.8736215    694.57818  0.029576656  0.029566248            5 
 1958000    0.9439385   -6.8823437     695.2283  0.029589219  0.029559148            3 
 1959000   0.93251709   -6.9176689    695.51551  0.029586333  0.029551995            6 
 1960000   0.93944363   -6.8730408    695.28481  0.029561429  0.029544997            7 
 1961000   0.95128504   -6.8314622    698.70529  0.029691709  0.029537982            5 
 1962000   0.95200457   -6.8700641    696.07159  0.029564713  0.029530911            4 
 1963000   0.93176828   -6.8929904    694.69522  0.029491222  0.029523798            4 
 1964000   0.93095596   -6.8799236    696.93033  0.029571042  0.029516623            4 
 1965000   0.92387628   -6.8433414    695.21865  0.029483403  0.029509547            5 
 1966000    0.9176408   -6.9000384    698.43092  0.029604566  0.029502362            2 
 1967000   0.94227191   -6.8393732    697.54435  0.029551955  0.029495186            4 
 1968000   0.90314411   -6.8555841    698.26562  0.029567481  0.029487962            5 
 1969000   0.91056239   -6.8458842    697.95718   0.02953941  0.029480811            4 
 1970000    0.9328319   -6.8572542    698.10572  0.029530699  0.029473771            3 
 1971000   0.92462681   -6.8500269    696.21242  0.029435668  0.029466693            9 
 1972000    0.9296981    -6.859404    699.98293  0.029580076   0.02945959            4 
 1973000   0.93699148    -6.882694    698.70981  0.029511311  0.029452598            2 
 1974000    0.9387657    -6.878842    698.58021   0.02949089  0.029445562            5 
 1975000   0.92152542   -6.8481285    700.27709  0.029547557  0.029438604            6 
 1976000   0.94250662   -6.8871048    698.47149  0.029456456  0.029431663            4 
 1977000   0.95106156   -6.8718018    700.98684  0.029547582  0.029424714           10 
 1978000   0.93012023   -6.9005253    698.67196  0.029435118   0.02941771            6 
 1979000   0.93861185    -6.876768    699.90741  0.029472268  0.029410634            2 
 1980000   0.93944429   -6.8793017    700.32822  0.029475093  0.029403559            5 
 1981000   0.94366795   -6.8711436    701.09954  0.029492661  0.029396516            7 
 1982000   0.94967735   -6.8890537    701.82934  0.029508466  0.029389483           10 
 1983000   0.93440591   -6.8853029    699.44058  0.029393199   0.02938245            3 
 1984000   0.93907817   -6.8641917    701.27067  0.029455253  0.029375314            4 
 1985000   0.94587843   -6.8551677    702.70558  0.029500654  0.029368309            4 
 1986000   0.94572761   -6.8831893    701.32842  0.029428014  0.029361242            4 
 1987000   0.93041091   -6.8401167    700.92811  0.029396415  0.029354156            3 
 1988000   0.94816783   -6.8769384    701.32608   0.02939831  0.029347175            5 
 1989000   0.92870546   -6.9000145     699.4658  0.029305589  0.029340128            9 
 1990000   0.93436084   -6.8512828    701.51652  0.029376739  0.029333012            5 
 1991000   0.92946806   -6.8922783    701.89339  0.029377758   0.02932604            3 
 1992000   0.94027838   -6.8951842    702.43097  0.029385499  0.029319051            5 
 1993000   0.93357324   -6.8786118    702.68591  0.029381415  0.029311967            7 
 1994000   0.95053492    -6.897337    700.96435  0.029294732  0.029304858            3 
 1995000   0.94976499   -6.8888946    702.86609  0.029359486  0.029297735            5 
 1996000   0.94852603   -6.8587702    703.22258   0.02935966  0.029290681            3 
 1997000   0.90862954   -6.8953327     703.0283  0.029336851  0.029283665            7 
 1998000    0.9227806   -6.8619993    702.48279  0.029299415  0.029276554            2 
 1999000   0.90310306   -6.8813305    702.29699  0.029277013  0.029269379            6 
 2000000   0.91211441   -6.8999703    700.75986  0.029198328  0.029262098            4 
 2001000    0.9261509   -6.9149934    703.01873  0.029277808  0.029254859            1 
 2002000   0.93032671   -6.8724109    702.90145  0.029258302  0.029247794            5 
 2003000   0.92866132   -6.9061501    701.11728  0.029169466  0.029240695            6 
 2004000   0.93765054   -6.8923492    702.43794  0.029209828  0.029233471            5 
 2005000   0.92386992   -6.8763802    703.01215  0.029219125  0.029226284            7 
 2006000   0.92668823   -6.8761077    705.00405  0.029287307  0.029219166            6 
 2007000   0.91887708   -6.8953712    703.74093  0.029220268  0.029212035            2 
 2008000   0.93585754   -6.8621968     703.1879  0.029182765  0.029204882            6 
 2009000   0.92407085   -6.8939907    703.27289  0.029171764   0.02919768            2 
 2010000   0.93867504   -6.8813382    703.34564  0.029160267  0.029190458            5 
 2011000   0.91760441   -6.8839643     705.4159  0.029231555  0.029183224            6 
 2012000   0.92552846   -6.8597784    705.13924  0.029205568  0.029175999            3 
 2013000   0.93806889   -6.8949401    703.46399  0.029121708  0.029168768           11 
 2014000   0.93201584   -6.8763556    704.39048  0.029145584  0.029161622            6 
 2015000   0.91616653   -6.8650442    704.31728  0.029128093  0.029154419            6 
 2016000   0.91030968   -6.8611576    705.81796  0.029175676   0.02914725            2 
 2017000   0.92911899   -6.8901335    705.01641  0.029128095  0.029140049            6 
 2018000   0.92451565   -6.9253686     704.4061  0.029088458  0.029132865           17 
 2019000   0.95236032   -6.8822341    706.21655  0.029148776  0.029125687            4 
 2020000   0.91836084   -6.8679272    706.10784  0.029129861  0.029118465            3 
 2021000   0.92758052   -6.8917403    707.38921  0.029168284  0.029111363            2 
 2022000   0.92173422   -6.8876888    708.39188  0.029195181  0.029104217            4 
 2023000   0.93294413   -6.9131037    706.16031  0.029088825  0.029097081            5 
 2024000    0.9321041   -6.8950595    706.12974  0.029073194  0.029089824            5 
 2025000   0.94986912   -6.8853343    706.35353  0.029068047  0.029082578            7 
 2026000   0.94343215   -6.8968677    706.23186  0.029048694  0.029075259            6 
 2027000   0.93439156   -6.8883528    706.88688  0.029061293  0.029067938            7 
 2028000   0.92340391   -6.8990466    708.59789   0.02911727   0.02906065            5 
 2029000   0.91658542   -6.8948615    707.00853  0.029037643  0.029053362            3 
 2030000    0.9249068   -6.8687476    707.96937  0.029062782  0.029046099            2 
 2031000   0.94006051   -6.8831512     705.3029  0.028939065  0.029038847            3 
 2032000   0.91679142   -6.8778213    705.80298  0.028945332  0.029031585            6 
 2033000   0.92486299   -6.8798321    706.32237  0.028952384  0.029024272            4 
 2034000   0.93775165   -6.8918709    708.72726  0.029036679  0.029016991            9 
 2035000   0.91257023    -6.909717    705.21501  0.028878584  0.029009604            3 
 2036000    0.9291427   -6.8808883    708.01233  0.028978894   0.02900232            4 
 2037000   0.94436825   -6.9087814    707.80309  0.028956107  0.028995003            4 
 2038000   0.91571646   -6.8891858    707.62064  0.028934439  0.028987688            3 
 2039000   0.91295888   -6.8930628    709.75586  0.029007514  0.028980494            4 
 2040000   0.90846192   -6.8902276    710.32804  0.029016668  0.028973325            3 
 2041000   0.90649684   -6.8896399      708.712  0.028936469  0.028966155            4 
 2042000   0.92626826   -6.8930282    709.82654  0.028967782  0.028958981            7 
 2043000   0.91648991   -6.8920313    709.81338  0.028953066  0.028951816            3 
 2044000   0.92977595   -6.9217864    710.64686  0.028972882  0.028944663            7 
 2045000   0.92811295   -6.8825959    710.11934  0.028937218  0.028937463            8 
 2046000   0.93894441   -6.9021439    708.29758  0.028848875  0.028930334            3 
 2047000   0.91485726    -6.905556    709.85652  0.028898246  0.028923116           13 
 2048000    0.9061988   -6.8883572    710.31789  0.028902909  0.028915961            3 
 2049000   0.90079588   -6.9042284     710.5508  0.028898276  0.028908701            4 
 2050000   0.91673068   -6.9148885    710.72061  0.028891082  0.028901455            3 
 2051000   0.93541519   -6.8717112    709.49489  0.028827194  0.028894136            6 
 2052000   0.93488647   -6.8809503    711.63045  0.028899872  0.028886854            5 
 2053000   0.93233054   -6.9136432     710.1099  0.028824075  0.028879568            8 
 2054000   0.93454845   -6.8929284    712.03357  0.028888087  0.028872257            7 
 2055000   0.91297444   -6.9197112    712.00777  0.028872984  0.028864944            9 
 2056000   0.89595097   -6.8945417     711.7535  0.028848634  0.028857632            8 
 2057000     0.915748   -6.9043183    710.62569  0.028788919  0.028850327            3 
 2058000   0.90278763   -6.9055343    709.03828  0.028710653  0.028843011            6 
 2059000   0.93474834   -6.9454931    710.21012  0.028744136  0.028835592            6 
 2060000   0.92185986   -6.8926924    710.45287  0.028740003  0.028828192            4 
 2061000   0.92449139   -6.9014706    713.28668  0.028840639  0.028820857            5 
 2062000   0.90289341   -6.8903804    710.75226  0.028724226  0.028813532            2 
 2063000   0.91718325   -6.8954375    712.52248  0.028781809  0.028806198            6 
 2064000   0.92154557   -6.9078322    712.71063  0.028775462  0.028798892            5 
 2065000   0.94988669   -6.9019194    712.49616  0.028752872  0.028791618            9 
 2066000   0.92728945   -6.9012732    713.55922  0.028781834  0.028784278            6 
 2067000   0.90865904   -6.9258591    713.90828  0.028781982  0.028776992            5 
 2068000   0.90329549   -6.9125086    713.11826  0.028736229  0.028769633            3 
 2069000   0.93085124   -6.9101017    714.16467  0.028764486  0.028762304            7 
 2070000    0.9294308   -6.9228769    714.22882  0.028753173   0.02875507            4 
 2071000   0.94172954   -6.8905331    714.58005  0.028753422  0.028747864            3 
 2072000   0.92828505   -6.9000673    714.98372   0.02875578  0.028740661            4 
 2073000   0.93149512   -6.9118952    713.15747  0.028668494  0.028733397           11 
 2074000   0.93259161    -6.918914    713.51194  0.028668914  0.028726172            4 
 2075000   0.91826539   -6.9387905    715.57573  0.028737981  0.028718986            7 
 2076000   0.92392291   -6.9050875    716.59368     0.028765   0.02871173            5 
 2077000   0.93197342   -6.8909413    716.03066  0.028728561  0.028704553            4 
 2078000   0.93010961   -6.9371371    716.84429  0.028747365  0.028697338            3 
 2079000   0.93128926   -6.9167928    714.93089  0.028656842   0.02869023            4 
 2080000   0.92042656   -6.9188263    716.76001  0.028716346  0.028683185            6 
 2081000   0.92657216   -6.8981524    718.26939   0.02876299  0.028676088           10 
 2082000   0.91103667   -6.8991233    715.78103  0.028649577  0.028668941            7 
 2083000   0.89636684    -6.929605    717.40718   0.02870088  0.028661806            8 
 2084000   0.93101587    -6.912101    716.48295   0.02865015   0.02865462            5 
 2085000   0.89883282    -6.906239    717.17306  0.028663991  0.028647519            5 
 2086000   0.91534736   -6.9005767      717.948  0.028681208  0.028640405            5 
 2087000   0.90700488   -6.8810228    718.26048  0.028679943  0.028633189            2 
 2088000   0.90505165   -6.9167521    717.59396  0.028639606  0.028626013            4 
 2089000   0.92332528   -6.9447465    719.04268  0.028683688  0.028618792            6 
 2090000   0.91237839   -6.9354363    716.26585  0.028559244  0.028611603            4 
 2091000    0.9175997   -6.9021434    719.06517  0.028657149  0.028604381            8 
 2092000   0.90635112   -6.9206435    718.18553   0.02860841  0.028597206            4 
 2093000   0.92775447   -6.9320433    717.04812  0.028549455  0.028590042            6 
 2094000   0.92855367   -6.9150489    717.48788  0.028553322  0.028582869            8 
 2095000   0.93787238    -6.902603    719.46939  0.028618512  0.028575744            5 
 2096000   0.92743392   -6.9110258     718.9714  0.028585059  0.028568583            3 
 2097000   0.92867532   -6.9166903     719.0041  0.028572727  0.028561475            2 
 2098000   0.92018161   -6.9113166    720.80259  0.028630544   0.02855436            4 
 2099000   0.92665789    -6.905248    720.42768   0.02860202  0.028547224           12 
 2100000   0.90765296   -6.9344357    718.37395  0.028506903  0.028539982            5 
 2101000   0.92114198   -6.9038611    720.35739  0.028572005  0.028532828            5 
 2102000   0.88770089   -6.9337693    718.00891  0.028465307  0.028525601            6 
 2103000    0.9004891   -6.9041561    721.39402   0.02858591   0.02851844            5 
 2104000   0.91549858   -6.9040475    720.23041  0.028526236  0.028511277            5 
 2105000   0.92187106   -6.9067573    721.11565   0.02854773  0.028504142            4 
 2106000   0.93647485   -6.9312073    722.12539  0.028574129   0.02849695            7 
 2107000   0.91462706   -6.9442664     719.7584  0.028466951  0.028489782            4 
 2108000   0.91416848   -6.9300132     720.2064  0.028471158  0.028482629            3 
 2109000   0.89937365   -6.8922468    720.83731  0.028482587  0.028475456            3 
 2110000   0.90309796   -6.9093838    719.83765  0.028429607  0.028468313            3 
 2111000   0.90983385   -6.8852867    722.16908  0.028508175  0.028461186            8 
 2112000   0.91307404   -6.9535401    724.12201  0.028571733  0.028454097            6 
 2113000   0.91525435    -6.902616    721.68891  0.028462254  0.028447013           11 
 2114000   0.92278885   -6.9082717    722.91891  0.028497277  0.028439869            5 
 2115000     0.901779   -6.9085148    722.18907  0.028455046  0.028432764            5 
 2116000   0.92242557   -6.8968074    723.24424  0.028483154  0.028425679            5 
 2117000   0.92720032   -6.9437722     722.9709  0.028458939  0.028418575            9 
 2118000   0.91525302    -6.944568    722.78677  0.028438258  0.028411393            5 
 2119000   0.89978257   -6.9469099    720.43065  0.028332179  0.028404256            6 
 2120000   0.90782996   -6.9141633    723.39687  0.028435411  0.028397071            3 
 2121000   0.89161439   -6.9357444    723.56271  0.028428521  0.028389916            7 
 2122000   0.91505997   -6.9273776     722.6006  0.028377341    0.0283828            8 
 2123000   0.91105937   -6.9157364    724.36657  0.028433293   0.02837565            2 
 2124000   0.90538398   -6.9323322    723.33096  0.028379275  0.028368523            2 
 2125000   0.92603509   -6.9139554    724.20769  0.028400302  0.028361295            8 
 2126000   0.90091992   -6.9032339    724.42022  0.028395273  0.028354229            7 
 2127000   0.91352994   -6.9197967    725.87871  0.028439066   0.02834715            9 
 2128000   0.89590071   -6.9436405    725.90478  0.028426722  0.028340033            5 
 2129000   0.91464234   -6.9201867    726.31025  0.028429241  0.028332915            8 
 2130000   0.92000698   -6.9599776    725.70185  0.028392091   0.02832583            4 
 2131000   0.88953388   -6.9158873    726.83035  0.028422898  0.028318858           10 
 2132000   0.90867491   -6.9042578    726.03555    0.0283785  0.028311866            5 
 2133000   0.92630066   -6.8953606    726.93253  0.028400239  0.028304967            5 
 2134000    0.9132545   -6.9293226    728.25773   0.02843868  0.028298022            4 
 2135000   0.92442741   -6.9448539    727.73018  0.028404769  0.028291093            4 
 2136000   0.89518015   -6.9180328     727.9254  0.028399087   0.02828416            8 
 2137000   0.92004999   -6.9004686    729.70614  0.028455239   0.02827732           19 
 2138000   0.90228583   -6.9127235    728.96586  0.028413075  0.028270454            5 
 2139000   0.92026134    -6.944794    727.75283  0.028352534  0.028263539            2 
 2140000   0.91033732   -6.9294139    730.10771  0.028430986  0.028256668            3 
 2141000   0.90994473   -6.9307612    729.70236  0.028401929  0.028249847            4 
 2142000   0.90028055   -6.9242398    728.42009  0.028338783  0.028242994            3 
 2143000   0.89491127    -6.905807     729.7918    0.0283789   0.02823612            2 
 2144000   0.90361904   -6.9280543    727.60989  0.028280857  0.028229239            8 
 2145000   0.91438089   -6.9608241    727.77949  0.028274262  0.028222283            4 
 2146000    0.9045795   -6.9438173     728.6969  0.028296711  0.028215309            7 
 2147000    0.9135842   -6.9416252    730.20284  0.028341982  0.028208388            7 
 2148000   0.91743063   -6.9461296    729.51272  0.028302014   0.02820152            2 
 2149000   0.90841469   -6.9342674    728.27464  0.028240834  0.028194648            7 
 2150000   0.90698548    -6.922612    728.63866  0.028241808  0.028187764            3 
 2151000   0.92107613   -6.9430451    728.71679  0.028231706  0.028180818            6 
 2152000   0.89675047   -6.9445732     730.3536   0.02828197  0.028173861            4 
 2153000   0.90187684    -6.952586    729.59167  0.028239343  0.028166889            6 
 2154000   0.91009258   -6.9404643    731.40411  0.028296352  0.028159919            5 
 2155000   0.92046829   -6.9591051    727.82624  0.028144866  0.028152918            6 
 2156000   0.90009914   -6.9318701    731.40333  0.028270073  0.028146054            7 
 2157000   0.89684125   -6.9412728    732.10493  0.028284072   0.02813914            4 
 2158000   0.91394624    -6.932386    730.98357  0.028227663  0.028132207            9 
 2159000   0.91848099   -6.9213666    730.80628  0.028207746  0.028125297            3 
 2160000   0.90042421   -6.9092763     731.7196  0.028229923  0.028118434            4 
 2161000   0.89860673   -6.9166343     732.2535  0.028237448  0.028111551            2 
 2162000   0.89236974   -6.9319524    732.29488  0.028225982  0.028104592            5 
 2163000   0.90372569   -6.9182141      731.214   0.02817129  0.028097648            5 
 2164000   0.90262358   -6.9386633    730.60467  0.028134807  0.028090681            8 
 2165000    0.9051698   -6.9346394    730.35484  0.028112196  0.028083707            3 
 2166000   0.90781718   -6.9410983    731.79701  0.028154702  0.028076787            4 
 2167000   0.89140637   -6.9361332      732.387  0.028164398  0.028069822            5 
 2168000    0.8997821   -6.9166022    732.95095  0.028173084  0.028062831            4 
 2169000   0.87759933   -6.9360099    732.27552  0.028134145  0.028055784            7 
 2170000    0.9367239    -6.925643    731.81072   0.02810333  0.028048752            6 
 2171000    0.9210204   -6.9331756    733.64687  0.028160866  0.028041824           12 
 2172000    0.8874824   -6.9111604    731.42101    0.0280625  0.028034836            4 
 2173000   0.89835492   -6.9343952     731.2098  0.028041486  0.028027829           12 
 2174000   0.91770068   -6.9188733    732.40955  0.028074576  0.028020794            2 
 2175000    0.9123991   -6.8891749    732.52285   0.02806601   0.02801374            5 
 2176000   0.90314397   -6.9114747    732.92826  0.028068637   0.02800669            2 
 2177000   0.91321065   -6.9603612    732.40298  0.028035637  0.027999568            5 
 2178000   0.89995928   -6.8888757    734.16048  0.028090009  0.027992517            3 
 2179000   0.89006161   -6.9282659     732.4675  0.028012372  0.027985481           10 
 2180000   0.89771222   -6.9548356    732.84842  0.028014083  0.027978388            4 
 2181000   0.89178601   -6.9615211    732.76707   0.02799813  0.027971224            4 
 2182000    0.9156287    -6.956362    732.36116  0.027969797  0.027964109            3 
 2183000   0.89379434   -6.9270279    731.23955  0.027914168   0.02795694            7 
 2184000   0.90237001   -6.9307741    731.12071  0.027896852  0.027949755            4 
 2185000   0.91670862   -6.9524236    731.19631  0.027886968  0.027942544            4 
 2186000   0.91038217   -6.9381678    733.28894  0.027953985  0.027935329            2 
 2187000   0.89450112   -6.9607677    731.19306  0.027861342  0.027928057            5 
 2188000   0.88483831   -6.9666361    732.45295  0.027896593  0.027920755            5 
 2189000   0.90249284   -6.9614779    731.30636  0.027840199  0.027913403            4 
 2190000    0.8924339   -6.9363094     732.0337  0.027855164  0.027906111            4 
 2191000   0.88445431   -6.9458771    733.69921  0.027905797  0.027898843            8 
 2192000   0.90755377   -6.9635614    732.78099  0.027858158  0.027891639            3 
 2193000    0.9108849   -6.9369378    733.82738  0.027885217  0.027884477            2 
 2194000   0.89852449   -6.9570487    734.22636  0.027887662  0.027877347            2 
 2195000   0.90459236   -6.9718281    735.19027  0.027911552   0.02787014            6 
 2196000   0.91385088   -6.9410656    733.52232  0.027835546  0.027862904            4 
 2197000   0.90369124    -6.918204     735.1008  0.027882749  0.027855711            6 
 2198000   0.89197445   -6.9440889    736.52515  0.027924066  0.027848514            2 
 2199000   0.92278891   -6.9328195    733.88166  0.027811189  0.027841369            8 
 2200000    0.8978045   -6.9439066    735.84504  0.027872918  0.027834208           15 
 2201000   0.89584025   -6.9790943    735.09277  0.027831772  0.027827013            9 
 2202000    0.8922609   -6.9599697    735.77302  0.027844877  0.027819888            4 
 2203000   0.91623138    -6.959412    735.07813  0.027805951  0.027812855            3 
 2204000   0.89834417   -6.9837246    736.76704  0.027857193  0.027805741            2 
 2205000   0.90422798   -6.9376826    738.43938  0.027907762  0.027798641           11 
 2206000   0.88492141   -6.9580191    735.44242  0.027781899  0.027791509            8 
 2207000   0.89309605   -6.9435488    738.24048  0.027874961  0.027784395            4 
 2208000   0.91043772   -6.9580597    736.93807  0.027813182  0.027777274            7 
 2209000      0.90254   -6.9465368    737.36411  0.027816663  0.027770141            6 
 2210000   0.88848523   -6.9641308    737.08601   0.02779359  0.027762994           11 
 2211000   0.90398069   -6.9701554    736.82121  0.027771039  0.027755846            2 
 2212000   0.91327216   -6.9903303    737.28352  0.027775901  0.027748695           14 
 2213000    0.8839908   -6.9463504     737.6677  0.027777817  0.027741537            6 
 2214000   0.87038269   -6.9531187    738.19263  0.027785028  0.027734452            6 
 2215000   0.91725414   -6.9656462    738.57559  0.027786892  0.027727354           11 
 2216000   0.88885001   -6.9234249    740.92982  0.027862884  0.027720277            4 
 2217000   0.89640991   -6.9480352    738.04425  0.027741853  0.027713185            4 
 2218000   0.90369856   -6.9541927     736.5215  0.027672133  0.027706066            7 
 2219000   0.88668274   -6.9704205    737.62103  0.027700955  0.027698876            5 
 2220000   0.89810761   -6.9806318    735.35518  0.027603422  0.027691642            3 
 2221000   0.89585113   -6.9398712    738.67394  0.027715516  0.027684486            6 
 2222000   0.90705507   -6.9338071    739.20758  0.027723056  0.027677315            5 
 2223000   0.89268322   -6.9566922    737.83303  0.027659058  0.027670192            2 
 2224000   0.90926803   -6.9566143    740.45834  0.027744992   0.02766305            4 
 2225000   0.88519125    -6.945572    739.91532  0.027712184  0.027655882            5 
 2226000    0.9049398    -6.950606    737.59067  0.027612708  0.027648669            8 
 2227000   0.89087396   -6.9652983    738.78777  0.027645104  0.027641491            6 
 2228000   0.89067914   -6.9617577     739.5358  0.027660675  0.027634297            4 
 2229000   0.88252501   -6.9590961    738.55139  0.027611462  0.027627073            5 
 2230000   0.91630027   -6.9675306    738.76082  0.027606906  0.027619852            3 
 2231000   0.87503957   -6.9494486    739.11529  0.027607773  0.027612587            4 
 2232000   0.90183057   -6.9523961    738.91468  0.027587914  0.027605377            2 
 2233000   0.90332798    -6.958856     740.3593  0.027629471  0.027598133            3 
 2234000   0.88803604   -6.9610062    738.43339  0.027545262  0.027590933            3 
 2235000   0.89678123    -6.936434    738.97435  0.027553108  0.027583763            7 
 2236000   0.86997754   -6.9598686    741.50088  0.027634946  0.027576556            4 
 2237000   0.89615232   -6.9772019    738.65529  0.027516588  0.027569318            4 
 2238000   0.88052679   -6.9902353    739.87058  0.027549545  0.027562112            7 
 2239000    0.9009688   -6.9335706    741.30741  0.027590718  0.027554974            6 
 2240000   0.89177979   -6.9544513    739.23129  0.027501164   0.02754782            8 
 2241000   0.88515165   -6.9650595    740.60202  0.027539864  0.027540667            4 
 2242000   0.87740282   -6.9344665    741.59875  0.027564628  0.027533445            3 
 2243000   0.90080762   -6.9774565    739.48081  0.027473652    0.0275262            6 
 2244000   0.87501273   -6.9164774    742.51276  0.027574003  0.027519067            3 
 2245000   0.87635659   -6.9439248    741.37522  0.027519496  0.027511906            3 
 2246000   0.89721291    -6.980068    741.58319   0.02751496  0.027504723            4 
 2247000   0.90055255   -6.9684033    739.98582  0.027443473  0.027497471            6 
 2248000   0.91083073   -6.9599297    740.78237  0.027460794  0.027490369            5 
 2249000   0.87795586   -6.9836556    741.34247  0.027469337  0.027483217            3 
 2250000   0.88938863   -6.9775132    743.43983  0.027534808  0.027476095            8 
 2251000   0.89882377   -6.9709079    741.94566  0.027467261  0.027469017            5 
 2252000   0.87956413   -6.9573144    742.52251   0.02747641  0.027461852            4 
 2253000   0.88966959   -6.9794063    743.14977  0.027487415   0.02745475            4 
 2254000   0.89443325   -6.9776761    743.43504  0.027485768  0.027447599            4 
 2255000   0.87921575   -6.9567866    744.23549  0.027503159  0.027440403            4 
 2256000   0.89479057   -6.9712705    743.22996  0.027453825   0.02743324            6 
 2257000   0.88372509   -6.9744693    742.78528  0.027425243  0.027426123            5 
 2258000   0.87970717    -6.974831    744.25911   0.02746749   0.02741892            6 
 2259000   0.87458565   -6.9463107    745.03076  0.027483797  0.027411799            5 
 2260000   0.88609092   -6.9696064    742.99112  0.027396428  0.027404685            6 
 2261000   0.89917041   -6.9615006    744.42366   0.02743711  0.027397596            3 
 2262000   0.89425439   -6.9397743    745.17282  0.027452579  0.027390501            6 
 2263000   0.88667227   -6.9278439    746.80217  0.027500448  0.027383419            7 
 2264000     0.898122   -6.9471783    746.54345  0.027478778  0.027376389            2 
 2265000    0.8883555   -6.9659403    746.39232  0.027461086  0.027369363            4 
 2266000   0.87674944   -6.9397471    745.79948  0.027427165   0.02736229           14 
 2267000   0.88276879   -6.9426973    746.52499  0.027441736   0.02735521            4 
 2268000   0.90176764   -6.9629303      746.083  0.027413396  0.027348143            4 
 2269000   0.88544943   -6.9616765    746.10991  0.027402303  0.027341033            6 
 2270000   0.89896222   -6.9810543    745.27789  0.027359688  0.027333889            6 
 2271000   0.88077204   -6.9961435    744.55262  0.027321027   0.02732666            4 
 2272000    0.8697542   -6.9780103    745.49854  0.027343696  0.027319458            6 
 2273000   0.91007421   -6.9939812    744.01644   0.02727733    0.0273123            8 
 2274000    0.8771061   -6.9859405    747.41083  0.027389725  0.027305173            6 
 2275000   0.88996185   -6.9684563    748.72863  0.027425957   0.02729815            5 
 2276000   0.88518466   -6.9407704    748.06944  0.027389772  0.027291097            4 
 2277000   0.89158789   -6.9660609     748.2014  0.027382572  0.027284066           17 
 2278000   0.88926523    -6.961772     748.7688  0.027391308  0.027277054            8 
 2279000   0.88595702   -6.9943991    746.54803  0.027298085  0.027270034            8 
 2280000   0.88515059   -6.9717538    747.85317  0.027333815  0.027263007            4 
 2281000   0.85575648   -6.9991258     748.4428  0.027343373  0.027255944            5 
 2282000   0.88161978   -6.9540771    748.70716  0.027341044  0.027248847            2 
 2283000   0.90174968   -6.9955274    747.45784  0.027283466  0.027241775            5 
 2284000    0.8868604   -6.9315541    748.94737  0.027325867   0.02723466            3 
 2285000   0.89175515   -6.9736547    749.55562  0.027336091   0.02722765            4 
 2286000    0.8619219   -6.9794067    748.56805  0.027288132  0.027220593            7 
 2287000    0.8961105   -6.9610733    749.72643  0.027318409  0.027213555            8 
 2288000   0.89070876   -6.9838885     748.4798  0.027261065  0.027206471            2 
 2289000   0.88604432   -6.9517303    748.34046  0.027244083  0.027199445            4 
 2290000   0.88471152   -6.9582958    748.30345  0.027230839  0.027192417           11 
 2291000    0.9095676   -6.9642307    745.21349  0.027106558  0.027185306            4 
 2292000   0.88626796   -7.0038809    748.62472  0.027218758   0.02717819            4 
 2293000   0.88136329   -6.9861133    747.41835  0.027163045   0.02717111            6 
 2294000   0.87146981   -6.9780647    749.26336  0.027218227  0.027164023            3 
 2295000   0.89237607   -6.9237219    751.23385  0.027277918  0.027156994            3 
 2296000   0.89229528   -6.9876734    749.84187  0.027215515  0.027149944            9 
 2297000   0.87907266    -6.948976    752.71726  0.027307984  0.027142952            5 
 2298000   0.88286738    -6.986268     749.0059  0.027161514  0.027135912            5 
 2299000   0.89708815   -6.9756992    751.45667  0.027238534  0.027128889            3 
 2300000   0.88504473   -6.9788075    749.95865  0.027172415  0.027121866           11 
 2301000   0.89648651   -6.9967686    749.88586   0.02715797  0.027114874            3 
 2302000   0.86820863   -6.9616031    751.75085  0.027213686  0.027107872            5 
 2303000   0.91038061   -6.9863572    750.66628  0.027162624  0.027100827            3 
 2304000   0.88991836   -6.9751941    752.10709  0.027202947  0.027093824            3 
 2305000   0.88632883   -6.9636383    751.47407   0.02716826   0.02708686            4 
 2306000   0.90547629   -6.9553633    752.40444    0.0271901  0.027079895            4 
 2307000   0.86687136   -6.9629908    751.21923  0.027135502  0.027072946            4 
 2308000   0.86436827    -6.980536    751.14731  0.027121148  0.027065941           18 
 2309000   0.88796656   -6.9657159    754.01647  0.027212952  0.027058937            4 
 2310000   0.85976024   -6.9648782    751.65526  0.027115991   0.02705195            2 
 2311000   0.88369547   -6.9671276    752.48824  0.027134294  0.027044955            8 
 2312000   0.88343601   -6.9699266    753.21566  0.027148777  0.027037996            4 
 2313000   0.87629202   -6.9878291    751.78401  0.027085459  0.027030978            6 
 2314000   0.86913351   -7.0309757    753.11692  0.027121756  0.027023967            5 
 2315000   0.88975938   -6.9854577    754.25166  0.027150888  0.027016933            5 
 2316000   0.86259494   -7.0004239    751.63688  0.027045081  0.027009915            5 
 2317000   0.88526901   -7.0074031    751.19884  0.027017653  0.027002839            4 
 2318000    0.9025369    -6.996873    750.08599  0.026965991  0.026995836            3 
 2319000   0.87697559   -6.9833177    751.65403   0.02701071  0.026988798            5 
 2320000   0.86672767   -7.0117716    751.75252  0.027002605    0.0269817            3 
 2321000   0.87124283   -6.9697563    752.94831  0.027033905  0.026974682            4 
 2322000   0.88312231   -6.9773752    754.27943  0.027070034  0.026967692            4 
 2323000   0.88342315   -6.9805547    755.40957  0.027098923  0.026960731            3 
 2324000   0.87672274   -6.9760823    754.18913    0.0270435  0.026953831            3 
 2325000   0.89390787   -6.9774388      754.497  0.027042903  0.026946861            8 
 2326000    0.8982851    -6.976138     754.8345  0.027043368  0.026939857            4 
 2327000   0.88866268    -6.989834    754.31512  0.027013147  0.026932854            6 
 2328000   0.87115826   -7.0207256    756.02198  0.027062642  0.026925846            4 
 2329000   0.87474536   -6.9908356     754.9031  0.027010988  0.026918903            9 
 2330000   0.87213177   -6.9969128    754.78668  0.026995232  0.026911979            5 
 2331000   0.87995965   -7.0007937    755.49922  0.027009124   0.02690503            6 
 2332000   0.87087934   -7.0003017    755.03257  0.026980867  0.026898047           16 
 2333000   0.88663351   -7.0196368    756.61635  0.027025873  0.026891111            3 
 2334000   0.89096675   -6.9674254    755.27089  0.026966256  0.026884182            3 
 2335000   0.88772156   -7.0299326    755.19828  0.026952116  0.026877197            4 
 2336000   0.86582933   -7.0082917    756.24006  0.026977742   0.02687024            8 
 2337000   0.86965259   -6.9830114    756.14951  0.026962969   0.02686331            6 
 2338000   0.87135887   -7.0133444    755.86596   0.02694133  0.026856371            5 
 2339000   0.87882052   -6.9832633    757.34662  0.026982564  0.026849428            3 
 2340000   0.86892739    -6.974895    758.53435  0.027013332  0.026842554            6 
 2341000    0.8764608   -6.9775856     756.3388  0.026923637  0.026835702            6 
 2342000   0.85330612   -6.9696572    757.06072  0.026937828   0.02682884            8 
 2343000   0.88747143   -6.9971891    757.17032  0.026930229  0.026821929           14 
 2344000   0.88224477   -6.9656038    759.05496  0.026985742  0.026814972            4 
 2345000   0.87971857   -7.0035325    756.28959  0.026875963  0.026808059            3 
 2346000   0.86088758    -6.983584    758.86616   0.02695603  0.026801075            9 
 2347000   0.87467826   -6.9998112    757.18764  0.026884947  0.026794152            9 
 2348000   0.89416349   -6.9823089    759.76291  0.026964896  0.026787247            6 
 2349000   0.85357316   -7.0260976    760.53674  0.026980869  0.026780383            4 
 2350000      0.87104   -6.9773117    759.68577  0.026939212  0.026773514           12 
 2351000   0.89018886   -6.9967056    759.66472  0.026927007  0.026766712            4 
 2352000   0.87773193   -7.0209285      759.087  0.026895089  0.026759854            7 
 2353000   0.87514223   -6.9957052    758.70063  0.026869975  0.026752994            8 
 2354000   0.88335283   -7.0083528      757.251  0.026807243  0.026746117            6 
 2355000   0.86135419   -6.9847188    757.59606   0.02680807  0.026739237            8 
 2356000   0.89215086   -6.9932402    757.66966  0.026799295  0.026732346            5 
 2357000   0.86770334   -7.0176709    759.93408  0.026867985  0.026725486            4 
 2358000   0.87312135   -7.0064306    759.31777   0.02683481  0.026718583            8 
 2359000   0.88662495   -6.9797198    761.38635  0.026896508  0.026711692            4 
 2360000   0.88210272   -6.9952984    761.15759  0.026877034  0.026704804            4 
 2361000   0.89263734   -6.9927549    760.03531  0.026826038   0.02669791            6 
 2362000    0.8745592   -6.9622865    761.46178  0.026865008  0.026691062            5 
 2363000   0.86519117   -6.9790361    761.01042  0.026837721  0.026684218            6 
 2364000    0.8838369   -6.9939743    761.43046  0.026841175   0.02667732            4 
 2365000   0.86291854   -6.9938387    758.97888  0.026743442  0.026670398            8 
 2366000   0.88237818   -7.0404332    761.00742  0.026803586  0.026663485            3 
 2367000   0.84476644   -7.0174233    761.85071  0.026821951  0.026656584           16 
 2368000    0.8751504   -7.0398941    762.74452  0.026842079  0.026649691            9 
 2369000   0.87282235   -6.9900477    760.63403  0.026756509  0.026642858            4 
 2370000   0.87753406   -7.0096986    761.85375  0.026788106  0.026636003            2 
 2371000   0.88162365   -7.0205859    761.42646   0.02676179  0.026629131            6 
 2372000   0.87142675   -7.0264959    761.64737  0.026758269  0.026622218            4 
 2373000   0.87046059   -6.9908541    762.49432  0.026776736  0.026615337            6 
 2374000   0.88034535   -6.9868761    762.08803  0.026751194  0.026608532            5 
 2375000   0.87424124   -7.0336697    764.07053  0.026809492  0.026601778            6 
 2376000   0.86585283   -7.0156694    762.03561  0.026726838   0.02659498            8 
 2377000   0.89003455   -6.9893372    761.51003  0.026697168  0.026588146            4 
 2378000   0.90092736   -7.0113168    759.30737  0.026608753  0.026581226            5 
 2379000   0.88361156   -6.9787142    764.24012  0.026770356  0.026574375            7 
 2380000   0.85252109   -7.0121958    762.66075  0.026703808  0.026567496            3 
 2381000     0.869877   -6.9963963    761.57806  0.026654699  0.026560658           10 
 2382000   0.87500053   -7.0242468    760.99593  0.026623143  0.026553723            4 
 2383000   0.86138363   -7.0068781    763.19639  0.026688921  0.026546802            4 
 2384000     0.888405   -7.0220777    763.43117  0.026685933  0.026539881            4 
 2385000   0.89166649   -7.0179521    763.14242  0.026664655  0.026532992            8 
 2386000   0.86903721   -7.0059264    763.72373  0.026673782  0.026526118           10 
 2387000     0.873762   -7.0010087    765.35656  0.026719612  0.026519311           11 
 2388000   0.86462391   -7.0096139    763.83666  0.026655383  0.026512451            7 
 2389000   0.87896596   -7.0211843    763.58273  0.026635368  0.026505604            4 
 2390000   0.87271177   -7.0132658    763.66168  0.026626976  0.026498742            6 
 2391000    0.8638838   -7.0059035    763.91151  0.026624547  0.026491896            6 
 2392000   0.87399895   -6.9814761    765.31959  0.026662472  0.026485062            6 
 2393000   0.84812772   -6.9676712    763.70744  0.026595189  0.026478264            5 
 2394000   0.85762485   -7.0022044    765.27172  0.026638531  0.026471478            3 
 2395000   0.87296777   -7.0022909    766.06433  0.026654987  0.026464712            4 
 2396000   0.87854246   -6.9901791    765.11281  0.026610768  0.026457965            4 
 2397000   0.89273614   -6.9905765    767.64968  0.026687863  0.026451216            8 
 2398000   0.86865108   -7.0162123    766.91297  0.026651132  0.026444473           17 
 2399000   0.87028075   -7.0264947      765.373  0.026586529  0.026437717            6 
 2400000   0.88548887   -7.0048621    765.52049  0.026580572  0.026430891            8 
 2401000   0.86448116   -7.0323697    767.41328  0.026635196  0.026424036            6 
 2402000    0.8673404    -7.041348    765.83194  0.026569246  0.026417151            9 
 2403000   0.87384273   -7.0301316    765.64384  0.026551666  0.026410291            9 
 2404000   0.85548947   -7.0414819     766.3293  0.026564382  0.026403489            7 
 2405000   0.85518684   -7.0150926    766.47199  0.026558281  0.026396615            2 
 2406000   0.87949848    -7.041792    764.85645  0.026491287  0.026389762            3 
 2407000   0.87652597   -7.0356613    763.81187  0.026444117  0.026382927            3 
 2408000   0.87791611   -7.0014908    766.61006  0.026529972  0.026376097            3 
 2409000   0.87529643   -7.0209198    765.85009   0.02649267  0.026369297            6 
 2410000   0.87505932    -7.003507    766.14058  0.026491721  0.026362476            7 
 2411000   0.86410325   -7.0265985    766.40198  0.026489768  0.026355644            7 
 2412000   0.84215384   -7.0276243    765.00706  0.026430592  0.026348782            8 
 2413000    0.8590247   -6.9878296    767.37146  0.026501294  0.026341989            9 
 2414000   0.87244854   -7.0339836    767.79744  0.026505021  0.026335134            7 
 2415000   0.86216924   -6.9936148    766.01211   0.02643244  0.026328283            3 
 2416000   0.85341466   -7.0149135    767.43603  0.026470614   0.02632146            7 
 2417000   0.86192971   -6.9855416    768.58447  0.026499258  0.026314615           11 
 2418000   0.86501756   -7.0320366    767.47325  0.026450002  0.026307797            7 
 2419000   0.85465323   -7.0457619    768.64237  0.026479343  0.026300934            5 
 2420000   0.85634456   -7.0331456    767.42401  0.026426447  0.026294127            8 
 2421000   0.88757349   -7.0323921    767.90598  0.026432121   0.02628731            3 
 2422000   0.84964242   -7.0085507     768.1503  0.026429614   0.02628048            6 
 2423000   0.87287849   -6.9994851    768.52081  0.026431449  0.026273745            6 
 2424000   0.86399831   -7.0079473    769.54085  0.026455612  0.026267014            5 
 2425000   0.88309322    -6.988307    768.53016  0.026409971  0.026260218           12 
 2426000   0.87053181   -7.0494493    768.49121  0.026397747  0.026253421            4 
 2427000   0.86447489    -6.972797     771.7588  0.026499066  0.026246641            7 
 2428000   0.84379911   -7.0424449    768.46763  0.026375193  0.026239855            4 
 2429000   0.87000261   -7.0406405    767.61035  0.026334924  0.026232951           11 
 2430000   0.86797411   -6.9916321    771.30866  0.026450914  0.026226079            7 
 2431000   0.86036815    -7.002034    770.34588   0.02640703  0.026219274            5 
 2432000   0.86048067   -7.0202606     768.5868  0.026335896  0.026212386            5 
 2433000   0.85917637   -7.0253377    769.71965  0.026363874  0.026205519            5 
 2434000   0.86236243   -7.0189619    768.34619  0.026306019  0.026198631            9 
 2435000    0.8460599   -6.9860043    766.85266  0.026244102  0.026191715            4 
 2436000   0.85869064   -6.9969992    769.63043  0.026328354  0.026184775            3 
 2437000   0.87454082     -7.03669    768.67758  0.026284967  0.026177908            6 
 2438000   0.86067896   -7.0020445    769.09026  0.026288292  0.026170985            4 
 2439000   0.86234547   -7.0457991    767.23621  0.026214166  0.026164024            8 
 2440000   0.87254474   -7.0469116    768.07701  0.026232138  0.026157068            8 
 2441000   0.85057517   -7.0283907    767.82454  0.026212773  0.026150061            4 
 2442000   0.84725702   -7.0551762    769.51305  0.026259659  0.026143123            6 
 2443000   0.87074119   -7.0147953    769.05526  0.026233294   0.02613619            5 
 2444000   0.84423029    -7.026189    770.23346  0.026262734  0.026129307            6 
 2445000   0.86032156   -7.0070991    770.41029  0.026258019  0.026122443            5 
 2446000   0.85554114   -7.0167217    767.50339  0.026148248  0.026115523            5 
 2447000   0.86669777   -7.0286198    768.51856  0.026172135  0.026108575            6 
 2448000   0.85429103   -7.0330449     769.1464  0.026182816  0.026101604           12 
 2449000   0.84966223   -7.0355368    768.11999  0.026137199  0.026094642            6 
 2450000   0.85464577   -7.0344734    771.38057  0.026237434  0.026087678            3 
 2451000   0.86748877   -7.0428647    769.71377  0.026170059  0.026080734            3 
 2452000   0.83608262   -7.0384468    770.03057  0.026170153  0.026073822           11 
 2453000   0.87415062   -7.0495115    771.12506  0.026196666  0.026066917            6 
 2454000   0.85629813   -7.0203508    771.34966  0.026193618  0.026059985           11 
 2455000   0.87500623   -7.0593657    770.08906  0.026140158  0.026053097            5 
 2456000   0.86029103   -7.0560328    770.16472  0.026132082  0.026046174            7 
 2457000   0.84744509   -7.0389873    769.16585  0.026087568  0.026039177            9 
 2458000   0.86670709   -7.0568728    771.95799  0.026171616   0.02603221            6 
 2459000   0.85654213   -7.0314542    770.01838  0.026095241  0.026025246            4 
 2460000   0.86511826    -7.014151    770.58193  0.026103724  0.026018321            3 
 2461000   0.86752586   -7.0229885    770.68089  0.026096468  0.026011421           11 
 2462000   0.86054905   -7.0267298    772.89184  0.026160704  0.026004515           13 
 2463000   0.86538738   -7.0842399    771.76835   0.02611207  0.025997611            8 
 2464000   0.87255052   -7.0540645    772.03041  0.026110336   0.02599075            9 
 2465000   0.85219726   -7.0647381    770.17756  0.026037105  0.025983842           10 
 2466000   0.86409229    -7.018234    772.95133   0.02612028  0.025976975            5 
 2467000   0.87823785   -7.0210286    771.69755   0.02606734  0.025970089            4 
 2468000   0.83729001   -6.9894775    772.95999  0.026099406  0.025963185            6 
 2469000   0.84020513   -7.0040797    772.74084  0.026081438  0.025956341            4 
 2470000   0.84203802   -7.0303483    772.36498  0.026058198  0.025949451            9 
 2471000   0.84460618     -7.05337    774.06835  0.026105098  0.025942584            6 
 2472000     0.847479   -7.0559757    772.95393  0.026056969  0.025935683            5 
 2473000   0.85722216   -7.0427889    771.63048  0.026001836  0.025928787            3 
 2474000   0.84918215    -7.068601    772.10837  0.026007423  0.025921866            9 
 2475000   0.86403626   -7.0456914     773.2817  0.026036421  0.025914955            5 
 2476000   0.84917554   -7.0306766    775.54481  0.026102074  0.025908109            3 
 2477000   0.84708956   -7.0575524    773.49706  0.026022644  0.025901224            9 
 2478000    0.8470951   -7.0515286    773.60298  0.026015704  0.025894361            4 
 2479000   0.86131942   -7.0393972    774.76101  0.026044138  0.025887483           10 
 2480000   0.85155712   -7.0532817    775.31455  0.026052236  0.025880607            4 
 2481000   0.85287349   -7.0394948    773.16581  0.025969562  0.025873714            9 
 2482000    0.8444703   -7.0260595    772.58579  0.025939625  0.025866862            2 
 2483000   0.85149568   -7.0273729    774.79385  0.026003284   0.02585998            5 
 2484000   0.84896243   -7.0387538    775.46232  0.026015242  0.025853077            5 
 2485000   0.85594802   -7.0229767    773.05065  0.025923899  0.025846163           12 
 2486000   0.81953618   -7.0413256    772.24191  0.025886361  0.025839186            4 
 2487000   0.85344656   -7.0599303    772.48861  0.025884218  0.025832195            4 
 2488000   0.87286457   -7.0103388    776.05361  0.025993221  0.025825257            5 
 2489000   0.85565047   -7.0105203     775.7775  0.025973534  0.025818391            4 
 2490000   0.87435075   -7.0547648    773.62537  0.025891077  0.025811481            9 
 2491000    0.8371593   -7.0394356     775.1078  0.025930276  0.025804548            5 
 2492000   0.83807031    -7.015977    776.34867  0.025961365  0.025797626            6 
 2493000   0.84224652    -7.023202    776.41073  0.025953026   0.02579072            8 
 2494000   0.87882589   -7.0427787    773.72001  0.025852713  0.025783785            6 
 2495000   0.84352909    -7.036131    776.35759  0.025930447  0.025776872            8 
 2496000   0.86933641    -7.040183    776.58115  0.025927522   0.02576992           10 
 2497000   0.84202681   -7.0438939     774.1629  0.025836434  0.025762897            2 
 2498000   0.86592043   -7.0389015    775.23629  0.025861899  0.025755953            6 
 2499000   0.86398516   -7.0627288    774.61182  0.025830726  0.025749009            7 
 2500000   0.84725799   -7.0598881    776.15191   0.02587173  0.025742061            3 
 2501000   0.85048633   -7.0637214    776.88106  0.025885681  0.025735127            7 
 2502000   0.84536467   -7.0422664    775.21448  0.025819827   0.02572822           10 
 2503000   0.85357065   -7.0858226    776.44844  0.025850594  0.025721271            9 
 2504000   0.86356067   -7.0889847    774.65445  0.025780566  0.025714318            6 
 2505000   0.82853493   -7.0525197    774.99325  0.025781545  0.025707344            5 
 2506000   0.85070844   -7.0171875    775.40667  0.025785005  0.025700461            7 
 2507000   0.84062061   -7.0727012    776.28275  0.025803841  0.025693575           10 
 2508000   0.85414802   -7.0095093    777.41119  0.025831047   0.02568668            9 
 2509000   0.84641715   -7.0242355    777.39014  0.025820052   0.02567985            4 
 2510000   0.84463012   -7.0204041    777.53046  0.025814424  0.025672996            6 
 2511000   0.84142915   -7.0465893    778.87073  0.025848624   0.02566613            6 
 2512000   0.85847072    -7.029718    779.92317  0.025873247  0.025659281           11 
 2513000   0.83003993   -7.0069219    778.05965  0.025801156  0.025652416            8 
 2514000   0.84550613   -7.0645329    779.05444  0.025823868  0.025645595            4 
 2515000    0.8372872   -7.0491642    776.71568  0.025736106  0.025638679            6 
 2516000   0.83653802   -7.0457588    777.83418  0.025762923  0.025631766           11 
 2517000   0.85720431   -7.0369218    780.05104  0.025826084  0.025624898            7 
 2518000   0.84614977   -7.0545381      778.546  0.025766018  0.025618032            3 
 2519000    0.8377124   -7.0823267    777.32242  0.025715311  0.025611192            4 
 2520000   0.84358501    -7.062919    778.55793  0.025745963  0.025604313            6 
 2521000   0.83572518   -7.0702406     778.0346  0.025718452  0.025597503            3 
 2522000   0.84340261   -7.0490346    776.63087  0.025661871  0.025590635            7 
 2523000   0.82926025   -7.0454399    778.96808  0.025728897  0.025583726            5 
 2524000   0.85009581   -7.0758161    777.61241  0.025673944  0.025576781            4 
 2525000    0.8484585   -7.0748619    776.96731  0.025642485  0.025569879            5 
 2526000   0.85922678   -7.0679292    779.73378  0.025723601  0.025562986            4 
 2527000    0.8581846   -7.0584111    778.56611  0.025674914  0.025556049            6 
 2528000   0.82976716   -7.0682879    777.53895  0.025630899  0.025549137            4 
 2529000    0.8446051   -7.0949356     777.6309  0.025623794  0.025542228            7 
 2530000   0.84445725   -7.0600004    780.35376  0.025703352  0.025535313            9 
 2531000   0.86606328   -7.0581298    778.57954   0.02563478  0.025528457            8 
 2532000   0.83624435   -7.0549131    778.53614  0.025623227  0.025521589            7 
 2533000   0.86396643   -7.0455486     779.0433  0.025629797   0.02551472            4 
 2534000     0.853211   -7.0821959    778.56231  0.025603865  0.025507874            5 
 2535000     0.859698   -7.0458107    779.08777  0.025611038  0.025501067            7 
 2536000   0.86508498   -7.0574234    778.22401  0.025572555   0.02549425            4 
 2537000   0.83284065   -7.0659728    780.98153  0.025653053  0.025487429            5 
 2538000   0.83555986   -7.0285999    780.94657  0.025641797  0.025480579           14 
 2539000   0.84129706   -7.0865158    780.15109  0.025605589  0.025473726           15 
 2540000   0.84592748    -7.056677    778.96374  0.025556553  0.025466872            5 
 2541000   0.82807641   -7.0709509    779.32438  0.025558323  0.025459985            7 
 2542000    0.8518943   -7.0480261    781.38714  0.025615891    0.0254531            7 
 2543000   0.84895457   -7.0759092    782.00015  0.025625906  0.025446242            4 
 2544000   0.84776397   -7.0850523    781.88877  0.025612185  0.025439371           11 
 2545000    0.8122733   -7.0831091    779.04337  0.025508951   0.02543248            6 
 2546000   0.83938844   -7.0959974     779.3942  0.025510415  0.025425626            5 
 2547000   0.85589485   -7.0130604    781.49987  0.025569293  0.025418817            3 
 2548000   0.84795704   -7.0491533    781.78714  0.025568653  0.025412043            3 
 2549000   0.83963227   -7.0472813    783.44043  0.025612673  0.025405296            5 
 2550000   0.85430317   -7.0493339    783.43527   0.02560246  0.025398491            3 
 2551000   0.84057549   -7.0644844    780.92859  0.025510538   0.02539169           13 
 2552000   0.85108912   -7.0564928    783.74694  0.025592573  0.025384907            8 
 2553000   0.84490779   -7.0728558     782.4319  0.025539623  0.025378078            8 
 2554000   0.83000766   -7.0648615    783.77708  0.025573515  0.025371272            4 
 2555000   0.84246952   -7.0716099    783.22037  0.025545348  0.025364456            3 
 2556000   0.83749629   -7.0463272    781.96124  0.025494302  0.025357624            5 
 2557000   0.83038401   -7.0689839    781.80883  0.025479365  0.025350819            8 
 2558000   0.86028647     -7.07492    783.95611  0.025539357  0.025344004            5 
 2559000    0.8406673   -7.0876977     781.2262  0.025440478  0.025337169            7 
 2560000   0.83951622   -7.0724122    783.04333  0.025489692  0.025330304            8 
 2561000    0.8247066   -7.0827055    782.67314  0.025467693  0.025323485            6 
 2562000   0.85057108   -7.0540826    785.19202  0.025539683  0.025316717            5 
 2563000   0.82443733   -7.0852255    783.06902  0.025460691  0.025309902            9 
 2564000   0.82954559   -7.0828581    782.77499  0.025441205  0.025303104            7 
 2565000   0.83732064   -7.0544843     783.5646  0.025456939  0.025296319           11 
 2566000    0.8317156   -7.0714357    783.45013  0.025443301  0.025289492            6 
 2567000    0.8485774   -7.0651824    782.56901  0.025404786  0.025282654           11 
 2568000   0.83079792   -7.0824386    784.78515  0.025466808  0.025275878            5 
 2569000   0.84152605   -7.0523657    783.99656  0.025431314  0.025269102            7 
 2570000   0.85076845   -7.0848841    783.61905  0.025409178  0.025262307            6 
 2571000    0.8477239    -7.098853    782.47281  0.025362142  0.025255465            5 
 2572000   0.84155256   -7.0780899    784.29106  0.025411193  0.025248642           10 
 2573000   0.86118983   -7.0845545     785.2706  0.025433042  0.025241813            5 
 2574000   0.85698998   -7.0736614    783.75345  0.025374043  0.025235059            5 
 2575000   0.83236356   -7.0775075    784.59454  0.025391409  0.025228281            5 
 2576000    0.8418101    -7.090535    784.88552  0.025390965  0.025221475            6 
 2577000   0.85019277   -7.0836416       785.15  0.025389665  0.025214715            5 
 2578000   0.85277271   -7.0472444    786.49387  0.025423257  0.025207982            5 
 2579000   0.85369263   -7.0956866    784.41711  0.025346294   0.02520122           10 
 2580000   0.83588811   -7.0593722    785.42774  0.025369113  0.025194454            6 
 2581000   0.83188957   -7.1071403    783.71933  0.025304124  0.025187677            5 
 2582000   0.81830123   -7.0651177    784.54885  0.025321096  0.025180833            2 
 2583000   0.85413252   -7.0874118     785.3901  0.025338434   0.02517404            6 
 2584000   0.83438163   -7.0666474    786.99524  0.025380393  0.025167239            7 
 2585000   0.84292086   -7.0477633     785.3774  0.025318421  0.025160432            5 
 2586000   0.83824067    -7.063935     784.3208  0.025274581  0.025153571           10 
 2587000   0.81793621   -7.0598427    785.66343   0.02530806  0.025146719            3 
 2588000   0.83669137   -7.1170188    784.63659  0.025265217  0.025139877            6 
 2589000   0.82029152   -7.1229003    785.51433  0.025283711  0.025132981            5 
 2590000   0.84580788   -7.0611518    783.95271  0.025223704   0.02512616            4 
 2591000   0.83429082   -7.0845634    786.05889  0.025281709  0.025119351            9 
 2592000   0.82607883   -7.0636782    786.71589  0.025293078  0.025112579            8 
 2593000   0.84549919   -7.0949187    787.29292  0.025301868  0.025105744           21 
 2594000   0.83249384   -7.0644702    788.43439  0.025328784  0.025098985            7 
 2595000   0.82340395   -7.1255739    786.40668  0.025253908  0.025092232           17 
 2596000   0.83225812   -7.0705267    788.50967  0.025311687  0.025085439            8 
 2597000   0.82701545   -7.0556718    787.43553  0.025267473  0.025078689           11 
 2598000   0.84462688   -7.0609541    788.89122   0.02530444  0.025071954            9 
 2599000   0.83270075   -7.0743694    788.42984   0.02527991  0.025065225            8 
 2600000   0.83570165   -7.1129012    787.27202  0.025233077  0.025058411            5 
 2601000   0.84571164   -7.0869436    787.94648  0.025244985  0.025051661           10 
 2602000   0.85782454   -7.0746871    789.58635  0.025287802  0.025044919            8 
 2603000   0.83184986   -7.0828082    786.98148  0.025194695  0.025038192            8 
 2604000   0.82894116   -7.0729692    788.24892   0.02522558  0.025031519            8 
 2605000   0.82851024   -7.0535067    789.40932  0.025253017  0.025024842            4 
 2606000   0.84183724   -7.0910953    787.09759  0.025169404  0.025018154           14 
 2607000   0.83418495   -7.0825908    789.18394   0.02522644  0.025011477            2 
 2608000    0.8322006   -7.0716386    789.68456  0.025232763  0.025004806            6 
 2609000   0.82545755   -7.0835324    788.88158  0.025197444  0.024998096            3 
 2610000   0.82419483   -7.0833233    789.76325   0.02521594  0.024991404            6 
 2611000   0.82487133   -7.0999016    788.70502  0.025172508  0.024984674            4 
 2612000   0.80743407   -7.0653687    788.79699  0.025165805  0.024977969            8 
 2613000    0.8316911   -7.1198508    787.55284  0.025116496  0.024971181            3 
 2614000    0.8407544   -7.0865239    787.86593  0.025116868  0.024964436            5 
 2615000   0.83503263   -7.0819174    792.00053  0.025239022   0.02495772            4 
 2616000   0.83442876   -7.1218411    790.01383  0.025166088  0.024950976            8 
 2617000    0.8364685   -7.0917888    788.77537  0.025117035  0.024944264            8 
 2618000   0.82780067     -7.09787    789.18993  0.025120637   0.02493757            5 
 2619000   0.83096077   -7.1102224     790.6934  0.025158884  0.024930866           10 
 2620000   0.82323205   -7.0517334    790.33125  0.025137762  0.024924184           14 
 2621000   0.84813284   -7.0695482    788.95101  0.025084287  0.024917491           10 
 2622000   0.83473781   -7.1028268    791.00479  0.025139995  0.024910866            4 
 2623000     0.816262   -7.0957518     789.7627  0.025090949  0.024904221           11 
 2624000   0.82629158   -7.0620968    793.30121  0.025193763  0.024897594           11 
 2625000    0.8199804   -7.0956013    791.08344   0.02511376  0.024890954            4 
 2626000   0.84124378   -7.0940426     790.0997  0.025072978  0.024884274            5 
 2627000   0.83974552   -7.0882266    789.26814  0.025037056  0.024877565            4 
 2628000   0.83305766   -7.0703907    790.56028  0.025068502  0.024870903            4 
 2629000   0.83444389    -7.075522    793.26928  0.025144836  0.024864261           10 
 2630000   0.83506188   -7.0800572    790.45544  0.025046117  0.024857583            3 
 2631000   0.83715333     -7.09942    789.54115  0.025007638  0.024850815            6 
 2632000   0.84317708   -7.0667416    790.05186  0.025014307  0.024844142            6 
 2633000   0.83524031   -7.0552376    790.86307  0.025030481  0.024837447            8 
 2634000   0.81817881   -7.0747459    788.22984  0.024937669  0.024830716            4 
 2635000   0.82593416   -7.1125905    789.38084  0.024964606  0.024823963            7 
 2636000   0.81695152   -7.1005335    790.67463  0.024996037  0.024817188            9 
 2637000   0.81304214   -7.1138364    790.28907  0.024974373  0.024810447            3 
 2638000   0.83397321   -7.1043404    791.77622  0.025011884    0.0248037            5 
 2639000   0.84403501   -7.0726528    791.44276  0.024991877  0.024796965            3 
 2640000   0.83478708   -7.0794438    789.46254  0.024919904  0.024790223            3 
 2641000   0.81927009   -7.0913483    789.81794  0.024921682  0.024783453            4 
 2642000   0.83453837   -7.0730971    790.32065  0.024928105    0.0247767            4 
 2643000   0.83071599   -7.1250037    789.53104  0.024893777  0.024769932            5 
 2644000   0.83328937   -7.1090897    791.58219   0.02494901  0.024763164            8 
 2645000   0.81684112   -7.0928482    792.87303  0.024980247   0.02475639            4 
 2646000   0.84778329    -7.109834    791.63284  0.024931747  0.024749618            6 
 2647000   0.82145327   -7.0679414    791.69801   0.02492438  0.024742885            7 
 2648000   0.82542872   -7.1062274    790.74745  0.024885053  0.024736134            5 
 2649000   0.81997463   -7.1300208    790.76208  0.024876119  0.024729347            8 
 2650000    0.8125478   -7.0801177    791.03442  0.024875296  0.024722582           10 
 2651000   0.82007577   -7.1184496    790.44132  0.024847269  0.024715825            3 
 2652000   0.83247344   -7.0997296    791.31589  0.024865381  0.024709088           10 
 2653000    0.8244742   -7.1118064    791.18297  0.024851833  0.024702351            6 
 2654000   0.82943032   -7.0747476    792.71493  0.024890572  0.024695614           10 
 2655000   0.83219067   -7.1180674    790.98185    0.0248268  0.024688848            4 
 2656000   0.83169577   -7.1005921    790.39461  0.024799028  0.024682107            5 
 2657000   0.82850396   -7.1248599    790.76813  0.024801409  0.024675376           18 
 2658000   0.83022522   -7.1072157    792.14636  0.024835288  0.024668654            5 
 2659000   0.83422502   -7.0973341    792.23719  0.024828795  0.024661922            7 
 2660000   0.83097592   -7.0749923    794.71705  0.024897151  0.024655166           12 
 2661000   0.83937648   -7.0757076    792.70263   0.02482471  0.024648397            5 
 2662000   0.82811172   -7.1052506    793.77407  0.024848925  0.024641657            7 
 2663000   0.82282761   -7.0939729    792.61365  0.024803281  0.024634862            6 
 2664000   0.82195542   -7.1203067    791.48328  0.024758611  0.024628099            7 
 2665000   0.83565587   -7.1442083    791.14329  0.024738689  0.024621285            9 
 2666000   0.84511083   -7.1019824    793.23382  0.024794756  0.024614473           16 
 2667000   0.82321483   -7.1256421    793.35028  0.024789098  0.024607695            4 
 2668000   0.82872991   -7.1100938    794.62135  0.024819507   0.02460096            6 
 2669000   0.81650939    -7.106149    793.11788  0.024763266  0.024594219           12 
 2670000   0.83045667    -7.115897    793.64026  0.024770295  0.024587479            6 
 2671000   0.83027997   -7.1164955    794.10063  0.024775385  0.024580734            7 
 2672000   0.80684913   -7.1241758    793.95224  0.024761485  0.024574032            3 
 2673000   0.84016591   -7.0829401    795.94521  0.024814354  0.024567383            8 
 2674000    0.8347585   -7.0974865    796.55921  0.024824209  0.024560784            6 
 2675000   0.81189897   -7.1022608    794.41633  0.024748172  0.024554162            5 
 2676000    0.8279537   -7.1199825    795.64627  0.024777226  0.024547528            4 
 2677000   0.82670768   -7.1120518    795.51951  0.024764024  0.024540872           18 
 2678000   0.80726543   -7.0930331    796.85775   0.02479642  0.024534267           11 
 2679000   0.83964354   -7.0968322    796.09679  0.024763494  0.024527657           11 
 2680000   0.81461635    -7.075762     796.3456   0.02476199  0.024521112            4 
 2681000   0.82382602   -7.1236984    796.21885  0.024748814   0.02451456            6 
 2682000   0.83838354   -7.0912342    796.21129  0.024739352  0.024507957            2 
 2683000   0.81018579   -7.1150925    796.38604  0.024735558  0.024501363            4 
 2684000   0.81920344   -7.1083128    797.19332  0.024751407  0.024494788            6 
 2685000   0.82521205   -7.1167238    795.85767  0.024700735   0.02448818            8 
 2686000   0.82029165   -7.1112414    796.57395  0.024713761  0.024481575           11 
 2687000   0.82504417   -7.1060782    796.01481  0.024687223  0.024474917            6 
 2688000   0.82884987   -7.1054541    797.07264  0.024710833  0.024468284            9 
 2689000   0.81229359   -7.1007332    797.54595  0.024716312  0.024461635           11 
 2690000   0.81581391   -7.0883971     793.7982  0.024591022  0.024454992           12 
 2691000   0.82547472    -7.127852    797.21614  0.024687729  0.024448343            6 
 2692000   0.83701118   -7.1026792    797.26104  0.024679948  0.024441702            8 
 2693000   0.82111555    -7.088536    796.05502  0.024633464  0.024435097           16 
 2694000   0.82888157   -7.1068588    796.52626  0.024638897  0.024428464            7 
 2695000   0.82354843   -7.1163424    798.17308  0.024680677  0.024421834            9 
 2696000   0.83235977   -7.1058943    796.33829  0.024614809  0.024415201            4 
 2697000   0.81704166    -7.115792    798.35957  0.024668137   0.02440854            5 
 2698000   0.82160888   -7.1414348    799.19084  0.024684669  0.024401876            9 
 2699000   0.81103217   -7.1126406    797.42611  0.024621036  0.024395234            6 
 2700000     0.815174    -7.113538    798.45987  0.024643823  0.024388593           13 
 2701000   0.81889293   -7.1073702    797.52143  0.024605746  0.024382017            4 
 2702000   0.82713627   -7.1302057    796.90862  0.024577739  0.024375378            4 
 2703000   0.80367234   -7.1396472    798.95394  0.024631704  0.024368725            7 
 2704000    0.8003496   -7.1163109    796.63149   0.02455102  0.024362122            5 
 2705000   0.79559132   -7.1088093    797.10827  0.024556632  0.024355482            5 
 2706000   0.80799753   -7.1017196    798.82192   0.02460033  0.024348863            7 
 2707000   0.81440257   -7.0986667    800.75911  0.024650878    0.0243423           11 
 2708000   0.80654313   -7.1289054    796.93682  0.024524151  0.024335766            5 
 2709000   0.80265916   -7.0972105    799.80409    0.0246033  0.024329225            6 
 2710000   0.81931702   -7.1407058    798.08191  0.024541264  0.024322635            6 
 2711000   0.79800049   -7.0711095    799.06637  0.024562473  0.024316051            5 
 2712000   0.83400479   -7.1432646    799.48443  0.024566262  0.024309502            6 
 2713000   0.84170517   -7.1164592    799.64522  0.024562146  0.024302891            9 
 2714000   0.81364485   -7.1291426    798.44711  0.024516308  0.024296303            3 
 2715000   0.82316789   -7.1184278    800.18087  0.024560493  0.024289698            5 
 2716000   0.82078449   -7.1041103    800.41742  0.024558708  0.024283146            4 
 2717000    0.8183616   -7.1143326     797.3668  0.024456104  0.024276546            4 
 2718000   0.82629624   -7.0962559    800.13892  0.024532098  0.024269968            6 
 2719000   0.81100614   -7.1343718     799.0007  0.024488191  0.024263396           13 
 2720000   0.82098242   -7.1318812    798.82563  0.024473824  0.024256743           12 
 2721000   0.80976387   -7.1107108    800.15252  0.024505467  0.024250097            3 
 2722000   0.82205965   -7.1063661    800.26842  0.024500013  0.024243512            5 
 2723000   0.82798268   -7.1227171    800.75775   0.02450599  0.024236891            6 
 2724000   0.80320636    -7.137073    799.78289  0.024467171  0.024230274            5 
 2725000   0.81836058   -7.1464671    800.06192  0.024466725  0.024223607            5 
 2726000   0.81750427   -7.1139988    799.00463  0.024425429  0.024217007            6 
 2727000    0.8287343   -7.0960254    800.05216  0.024448483  0.024210402            9 
 2728000   0.80092671   -7.1358563    797.52169  0.024362222  0.024203819            9 
 2729000    0.8242801   -7.1127852    800.65756  0.024449052   0.02419725            6 
 2730000   0.80933887   -7.1239688    800.62543  0.024439116  0.024190687            4 
 2731000   0.81147966   -7.1268617     800.9454  0.024439931  0.024184087           10 
 2732000   0.81586764   -7.1458094     801.1786  0.024438098  0.024177535            5 
 2733000   0.82116935   -7.0979235    800.93775  0.024421812  0.024170969            6 
 2734000   0.79989275   -7.1196942    800.94349  0.024413054  0.024164404            9 
 2735000   0.81271418   -7.1162462    801.46069  0.024419887  0.024157863           10 
 2736000   0.81092427   -7.1226946    801.77262  0.024420462  0.024151329            6 
 2737000    0.8229298   -7.1240414       801.34  0.024398368  0.024144785            4 
 2738000   0.80788929   -7.1128177    802.73858  0.024432024  0.024138265            7 
 2739000   0.80309181   -7.1255181      800.727  0.024361902  0.024131728           10 
 2740000   0.81750944   -7.1329517    802.08649  0.024394358  0.024125143            3 
 2741000   0.80448101   -7.1230525    801.43876  0.024365765  0.024118629           10 
 2742000   0.83241898   -7.1114591    801.58092    0.0243612  0.024112075            3 
 2743000   0.80523663   -7.1346075    799.68184  0.024294624  0.024105544            9 
 2744000   0.82718974   -7.1054356    803.32973  0.024396554   0.02409904            7 
 2745000   0.81027506   -7.1616725    803.05879  0.024379441  0.024092524            7 
 2746000   0.81710019   -7.1240012    803.56264  0.024385853  0.024086031            9 
 2747000   0.81633567   -7.1465295    802.38894  0.024341371  0.024079537           15 
 2748000   0.82120084    -7.095527    805.86334  0.024437874  0.024073082           15 
 2749000   0.81168134   -7.1263102    802.54495  0.024328391   0.02406661           15 
 2750000   0.82030926   -7.1139067    802.80463  0.024327413  0.024060111           11 
 2751000   0.80082382   -7.1117088     804.1845  0.024360369  0.024053607            7 
 2752000   0.81144583   -7.1293861    805.51636  0.024391847  0.024047125            5 
 2753000   0.80116967   -7.1436265    803.08732   0.02430946  0.024040609            6 
 2754000   0.81440496    -7.159041     800.3865  0.024218909  0.024034071            9 
 2755000   0.80666245   -7.1351784    802.35997  0.024269812  0.024027519            9 
 2756000   0.81997963   -7.1654774    802.50876  0.024265504  0.024020971            9 
 2757000   0.80396788     -7.15055    803.19436  0.024277426  0.024014384            8 
 2758000   0.81296957   -7.1564588    802.60119  0.024250701  0.024007824            8 
 2759000   0.80719715   -7.1213782    804.73374  0.024306323  0.024001327            6 
 2760000   0.81569253   -7.1086153    804.27473  0.024283657  0.023994826           10 
 2761000   0.82753988   -7.1049274    804.86474   0.02429267   0.02398837            6 
 2762000   0.81460713   -7.1437141    805.16936  0.024293065   0.02398191            7 
 2763000   0.82992091   -7.1154704    805.60857   0.02429752  0.023975461            7 
 2764000   0.80288779   -7.1511081    804.60128   0.02425836  0.023969013            7 
 2765000    0.7863249   -7.1375618     804.5935  0.024249352  0.023962516            6 
 2766000   0.81578625   -7.1217296    806.98107  0.024312517  0.023956071            9 
 2767000   0.82080721   -7.1303211    806.56558  0.024291217   0.02394967            3 
 2768000   0.82926033   -7.1577245    807.58779  0.024313216  0.023943236            4 
 2769000   0.79349489   -7.1621512    805.04644  0.024227954  0.023936808           15 
 2770000   0.81882509   -7.1192363      806.529  0.024263809  0.023930395            9 
 2771000   0.82075672   -7.1319125    806.20225  0.024245226  0.023923952           10 
 2772000   0.80935346    -7.132788    805.03697  0.024201448  0.023917504            6 
 2773000   0.79566947   -7.1343011    805.02083  0.024192235  0.023911071           12 
 2774000   0.80214555   -7.1523605    804.51084  0.024168194  0.023904641            5 
 2775000   0.82823067   -7.1531869    804.65141  0.024163706  0.023898179            6 
 2776000   0.79624595   -7.1575185    805.50372  0.024180587  0.023891701            4 
 2777000   0.83121465   -7.1323058    806.53418  0.024202802  0.023885229            4 
 2778000   0.80581657   -7.1482802    805.84606  0.024173448  0.023878813            8 
 2779000   0.80306871   -7.1250704    806.65872  0.024189118  0.023872371            4 
 2780000   0.81940635   -7.1500501    806.05672  0.024162372  0.023865894            6 
 2781000   0.81172121   -7.1688433    806.56013  0.024168768  0.023859436            7 
 2782000   0.81440017   -7.1279126    806.32093  0.024152916  0.023852958            7 
 2783000   0.80720805   -7.1713904     805.6242  0.024123374  0.023846448            7 
 2784000   0.79782538   -7.1483667    807.41424   0.02416829  0.023839952           14 
 2785000   0.80557982   -7.1419789     805.0756  0.024089635   0.02383348           15 
 2786000   0.81503614   -7.1152108    808.10112  0.024171486  0.023826995            5 
 2787000    0.7945593   -7.1730377    804.51142  0.024055478  0.023820487            9 
 2788000    0.7959353   -7.1566451    806.96894  0.024120305  0.023813917            6 
 2789000   0.78949748   -7.1424031    804.98762  0.024052457  0.023807366           17 
 2790000   0.79266481   -7.1253801    805.86741  0.024070114  0.023800829            8 
 2791000   0.80960853   -7.1322984    806.65825  0.024085102  0.023794333            8 
 2792000   0.81748188   -7.1657878    806.22325  0.024063493  0.023787847           12 
 2793000   0.79027585   -7.1367424    806.69334  0.024068903  0.023781336           10 
 2794000   0.80723006   -7.1328633    806.20393  0.024045691  0.023774833            4 
 2795000     0.799341   -7.1544469    806.38301  0.024042427  0.023768295           12 
 2796000   0.79903123   -7.1610817    806.57802   0.02403964  0.023761768           15 
 2797000   0.80483674   -7.1274345      806.114  0.024017221  0.023755293            5 
 2798000   0.81509636   -7.1415096    807.54224  0.024051175  0.023748836            8 
 2799000   0.78205028   -7.1318735    807.00404  0.024026558  0.023742354           16 
 2800000   0.80173432   -7.1774765    808.26806  0.024055597  0.023735836           16 
 2801000   0.79540243   -7.1525252    807.26138  0.024017059  0.023729332            3 
 2802000   0.80051655   -7.1542344    806.56681   0.02398783  0.023722843            5 
 2803000   0.80429033   -7.1543924    807.04323  0.023993436  0.023716385            9 
 2804000   0.80163967   -7.1713924    808.30625  0.024022416  0.023709915           12 
 2805000   0.81104794    -7.157178    805.86695  0.023941383  0.023703381           25 
 2806000   0.80969784   -7.1219549    806.26335  0.023944623  0.023696861           19 
 2807000   0.80945957   -7.1542975    807.05645  0.023959638  0.023690312            9 
 2808000   0.81499168   -7.1555115    808.59745  0.023996838  0.023683776           14 
 2809000   0.80610062   -7.1525527    807.91317  0.023967995  0.023677234           12 
 2810000   0.80652696   -7.1397022    807.90266  0.023959154  0.023670724           11 
 2811000   0.78907208   -7.1180987    808.91142  0.023980535  0.023664188            4 
 2812000   0.80811272   -7.1490029    805.78897  0.023879474  0.023657675            4 
 2813000   0.80713926   -7.1663805    807.68524  0.023927161  0.023651131            7 
 2814000    0.7929914   -7.1855335    807.29906  0.023907222  0.023644591            9 
 2815000   0.79519368   -7.1564417    808.55771  0.023935989  0.023638045            4 
 2816000   0.81433563   -7.1739026    806.32489  0.023861414  0.023631492           12 
 2817000   0.80428538   -7.1852224     804.8965  0.023810688  0.023624918            6 
 2818000   0.80530247   -7.1637032    806.38768  0.023846336  0.023618376            4 
 2819000   0.78035424      -7.1569    806.62989  0.023845036  0.023611845            9 
 2820000   0.80973061   -7.1763087    806.53905  0.023833896  0.023605326            6 
 2821000    0.7875325   -7.1556995    808.55189  0.023884908  0.023598821            6 
 2822000   0.81142472   -7.1551354    808.59285  0.023877653  0.023592354            6 
 2823000   0.78366435   -7.1590723    808.21618  0.023858076  0.023585888            4 
 2824000   0.79034091   -7.1892207    808.06261  0.023845096   0.02357941           21 
 2825000   0.80496385   -7.1268704    810.79578   0.02391728  0.023572942            4 
 2826000   0.79476499   -7.1539069    809.51752  0.023871123  0.023566498            8 
 2827000   0.79647973   -7.1397793    807.74103  0.023810312  0.023560042            6 
 2828000   0.79257417   -7.1722739    809.07436  0.023841182  0.023553586            5 
 2829000   0.79355912   -7.1416422    806.66361  0.023761742  0.023547107            7 
 2830000    0.7927935   -7.1835088    807.29166  0.023771839  0.023540593            8 
 2831000   0.81572221   -7.1578816    809.26528  0.023821538  0.023534086            8 
 2832000   0.80149481   -7.1798139    809.73047  0.023826815    0.0235276            6 
 2833000   0.78282852   -7.1661779    808.67756  0.023787433  0.023521069            7 
 2834000    0.7962372   -7.1734302    808.09276  0.023761843  0.023514554            3 
 2835000    0.8104193   -7.1892146    809.74988  0.023802172  0.023508055            3 
 2836000   0.80387712   -7.1396261    808.70272  0.023763009  0.023501547            5 
 2837000   0.80737997   -7.1734546    810.39512  0.023804345  0.023495077            4 
 2838000   0.80624365   -7.1661866    811.43112  0.023826378  0.023488617            9 
 2839000   0.79805896   -7.1620114    809.80066  0.023770126  0.023482178           12 
 2840000    0.8127753   -7.1342273    810.58231  0.023784692  0.023475748           12 
 2841000   0.80450074   -7.1777424    811.92313   0.02381565  0.023469317            2 
 2842000   0.79423959    -7.184352    811.36048  0.023790772  0.023462896            4 
 2843000   0.78241638   -7.1298629    810.06901  0.023744548  0.023456431           10 
 2844000   0.79180775   -7.1476181    811.06355  0.023765341   0.02344999            5 
 2845000   0.81178201   -7.1822426    809.60987  0.023714407  0.023443519            8 
 2846000    0.7916896   -7.1784921    809.78071  0.023711077  0.023437041           10 
 2847000    0.7998678   -7.1948287    809.70018  0.023700392  0.023430529            6 
 2848000   0.79927735   -7.1476695    811.49682   0.02374464  0.023424052            5 
 2849000   0.79482618   -7.1488124    809.22943  0.023669985  0.023417559           11 
 2850000   0.80234428   -7.1589654    811.42954   0.02372601  0.023411073            7 
 2851000   0.79042268   -7.1577302    810.38075  0.023687032  0.023404616           11 
 2852000   0.81590277   -7.1541409    811.21532  0.023703113  0.023398131           19 
 2853000   0.79880699   -7.1769019     811.1904  0.023694077  0.023391648            7 
 2854000   0.78540794   -7.1731565    809.93145  0.023649015  0.023385176            9 
 2855000   0.80655265   -7.1577739    811.02516  0.023672655  0.023378737           12 
 2856000   0.79943744   -7.1843444    809.46977  0.023618983  0.023372255           10 
 2857000   0.78924611   -7.2014186    809.59213  0.023614284  0.023365728            6 
 2858000    0.7923387   -7.1735476    809.60453  0.023606383  0.023359211            5 
 2859000   0.79261936   -7.1442143    810.86952  0.023634998  0.023352747            9 
 2860000   0.78985817     -7.19057    810.22779  0.023608036  0.023346263            8 
 2861000   0.78291971   -7.1775549    811.39237  0.023633705  0.023339746            5 
 2862000   0.80261389    -7.194727    810.77256    0.0236074  0.023333237            4 
 2863000     0.791106   -7.1502375    811.62779  0.023624048  0.023326735            8 
 2864000   0.79912597   -7.1765157    811.38635  0.023608774  0.023320257            5 
 2865000    0.7914094   -7.1693193     812.6741   0.02363799  0.023313804            6 
 2866000   0.79727853    -7.155739    813.73753  0.023660663  0.023307334            4 
 2867000   0.77928991   -7.1641444    811.95656  0.023600644  0.023300882            6 
 2868000   0.78630049   -7.1503675    813.15596  0.023627265  0.023294454            5 
 2869000   0.79342706   -7.1810221    811.78517  0.023579214  0.023287968           17 
 2870000   0.79277955   -7.2047981    811.63817   0.02356673  0.023281485           12 
 2871000   0.78328811   -7.1613976    811.14234  0.023544129  0.023275016            9 
 2872000   0.79211587   -7.1838458    812.55065  0.023576795  0.023268546           13 
 2873000   0.79291726   -7.1780291    810.27516  0.023502586  0.023262097           10 
 2874000   0.77649802   -7.1491696    811.63602  0.023533867  0.023255662            4 
 2875000   0.78618577     -7.15558    810.85373  0.023503007  0.023249198            5 
 2876000   0.77326499    -7.180153    812.50317  0.023542628  0.023242736            5 
 2877000   0.80069883   -7.1864927     810.7182  0.023482742  0.023236257           10 
 2878000   0.79281601   -7.1564627    810.41051  0.023465674  0.023229759            7 
 2879000   0.79377294   -7.1755999    810.20026  0.023451438  0.023223256            9 
 2880000   0.80080139   -7.1723151    811.95504   0.02349407  0.023216763            5 
 2881000   0.78340411   -7.1881524    812.78656  0.023509966  0.023210254            5 
 2882000   0.78576824   -7.1917684    810.02261  0.023421889   0.02320373            6 
 2883000   0.78820288   -7.1904633    809.73468  0.023405442  0.023197237           11 
 2884000    0.7940517   -7.1858893    810.38023   0.02341598  0.023190759            6 
 2885000   0.80365707   -7.1897515    811.61531  0.023443539   0.02318427            4 
 2886000   0.78949242    -7.197071    811.97642  0.023445843  0.023177794            6 
 2887000   0.78415404   -7.2045582    811.60583  0.023427024  0.023171335           22 
 2888000   0.77972651   -7.1711992    813.26914  0.023466907  0.023164878            9 
 2889000   0.80358933   -7.1824194    813.21746  0.023457294  0.023158438            9 
 2890000   0.78871944     -7.18256    814.07081  0.023473784  0.023152007            7 
 2891000   0.79279676   -7.1646828    813.36546  0.023445332  0.023145572            6 
 2892000   0.79090238   -7.1727606    814.37331  0.023466266  0.023139108           18 
 2893000   0.76582828   -7.2144314    813.83767  0.023442726  0.023132649            7 
 2894000    0.8049229   -7.1855485    813.41194  0.023422366  0.023126181           12 
 2895000    0.7944318   -7.1971171    815.95771  0.023487556   0.02311975           15 
 2896000   0.77940553   -7.1638911    813.09268  0.023397004  0.023113305            8 
 2897000   0.77616455   -7.1753433    813.22624   0.02339277  0.023106868            8 
 2898000   0.79550735   -7.1916019    812.29757  0.023357993  0.023100413            7 
 2899000   0.78430816   -7.2115814    813.20563  0.023376039  0.023093918            8 
 2900000   0.79904948   -7.1908585    813.35373  0.023372234  0.023087431            5 
 2901000   0.78375443    -7.184778    812.87502  0.023350426  0.023080948           12 
 2902000   0.78289876   -7.1630906      815.121  0.023406875  0.023074477            9 
 2903000   0.80469635   -7.1645911     813.9942  0.023366466  0.023068034            3 
 2904000   0.77519423   -7.1792881    815.28175  0.023395367  0.023061616           10 
 2905000   0.77043728   -7.1733259     813.6663  0.023340972  0.023055198           13 
 2906000   0.77588327   -7.1779256    813.74526  0.023335205  0.023048791            9 
 2907000   0.79246153   -7.1974781    814.26604  0.023342106   0.02304235            8 
 2908000   0.77948069   -7.1935792    814.11491  0.023329749  0.023035882            9 
 2909000   0.80324202   -7.2034121    813.76046  0.023311575  0.023029422           11 
 2910000   0.75712517   -7.1996757    813.48234    0.0232956  0.023022959            7 
 2911000   0.78770576   -7.1955108    814.95715  0.023329816  0.023016507            5 
 2912000   0.79355006   -7.1868117    814.62307  0.023312244  0.023010049            7 
 2913000   0.78291965   -7.2083196     812.8604  0.023253816  0.023003577            5 
 2914000   0.79438429   -7.1836764    814.78368  0.023300837  0.022997106            5 
 2915000   0.78915026   -7.1811949    814.37173  0.023281067  0.022990638            7 
 2916000   0.78104665   -7.1770495    813.56126  0.023249922  0.022984175            6 
 2917000    0.7952701   -7.1992658    812.95131  0.023224526  0.022977695            6 
 2918000   0.77753658   -7.2044501    813.77667  0.023240138  0.022971196           16 
 2919000   0.79296972   -7.1787809    811.92252  0.023179243  0.022964696            6 
 2920000   0.77931737   -7.1784966    813.76736  0.023223954  0.022958185           10 
 2921000   0.76937998   -7.1854316    816.08395  0.023282094  0.022951694            9 
 2922000   0.77688897   -7.1766031    815.37197  0.023253821  0.022945211           12 
 2923000   0.77357389   -7.1825721    813.05111  0.023179699  0.022938753            7 
 2924000   0.78323877   -7.2073341    814.81599   0.02322207  0.022932309            6 
 2925000   0.80980152   -7.2153164    814.71397  0.023211224  0.022925863            8 
 2926000   0.78444206   -7.1999813    814.01011  0.023183245  0.022919421           10 
 2927000   0.79983274   -7.1707985    814.38629  0.023186035  0.022912978           10 
 2928000   0.77104644   -7.1761964    817.17151  0.023257386  0.022906567           24 
 2929000   0.78407506   -7.1685539    814.86439  0.023183805  0.022900129           11 
 2930000   0.78877468   -7.1855071    815.53593  0.023194992  0.022893751            4 
 2931000   0.78776592   -7.1850949     817.3244  0.023237928  0.022887347            4 
 2932000    0.7741954   -7.1695439    816.05452   0.02319391   0.02288093            4 
 2933000   0.78600351   -7.1993424      817.221  0.023219144  0.022874539            8 
 2934000   0.78850625   -7.1844102    813.07269  0.023093407  0.022868082            6 
 2935000   0.80149907   -7.2099348    816.20757  0.023174548  0.022861643           13 
 2936000   0.78308891   -7.2158072    815.21352   0.02313844  0.022855216            6 
 2937000   0.78443444   -7.2322066    815.46534  0.023137707  0.022848789            4 
 2938000   0.76690836   -7.2190023    816.00453  0.023145125  0.022842338            3 
 2939000    0.7839559   -7.1954275    815.21265  0.023114797   0.02283587            8 
 2940000   0.77455726   -7.2299454    815.47857  0.023114472  0.022829429            6 
 2941000   0.78426619   -7.1765759    816.06695  0.023123284  0.022822959           16 
 2942000   0.76546208   -7.2050168     816.9129  0.023139386  0.022816524            6 
 2943000   0.77577502   -7.1772416    813.79961  0.023043369  0.022810101            8 
 2944000   0.78508097   -7.1733315     818.3674  0.023164838  0.022803697            7 
 2945000   0.79104459       -7.201    815.48051  0.023075283  0.022797276           12 
 2946000   0.77930695    -7.205219    818.19427  0.023144215  0.022790897            7 
 2947000   0.78329965   -7.1689613    816.49778  0.023088389  0.022784527            4 
 2948000   0.79284413   -7.2004955    817.05555  0.023096324  0.022778137           11 
 2949000    0.7880741   -7.2135042    818.09228  0.023117788  0.022771742            3 
 2950000   0.78069837   -7.1686742    818.68926  0.023126815  0.022765385            6 
 2951000   0.76963389   -7.1967632    816.76266  0.023064573  0.022759004            9 
 2952000   0.77578258     -7.21085    817.13671  0.023067319   0.02275258           28 
 2953000   0.78576016   -7.1927229    818.29574  0.023092215  0.022746194            9 
 2954000   0.75677245   -7.1988133    820.08936  0.023134997  0.022739812           12 
 2955000   0.77148799   -7.2048045    815.78355   0.02300574   0.02273344            3 
 2956000   0.78892445   -7.1847267    816.89846  0.023029388  0.022727049            8 
 2957000   0.79601448   -7.1767019    818.09778  0.023055399  0.022720687            4 
 2958000   0.77283374   -7.2383664    817.75927  0.023038068  0.022714315            5 
 2959000   0.78016926   -7.2135703    817.35138  0.023018795  0.022707932            7 
 2960000    0.7807811   -7.1827049    818.05306  0.023030773  0.022701614            8 
 2961000   0.78389324   -7.2111954    818.46559  0.023034605  0.022695279            6 
 2962000   0.77256859   -7.2009278     817.4421  0.022998033  0.022688926            8 
 2963000   0.79294284   -7.2177892    817.55756  0.022993519  0.022682553           13 
 2964000   0.77989197   -7.2014075    816.64248  0.022960034  0.022676177            7 
 2965000   0.78065181   -7.2129566    819.81881  0.023041563  0.022669796            7 
 2966000   0.77984782   -7.1894403    816.71593  0.022946615   0.02266343            4 
 2967000   0.77397719   -7.2150568    817.85256  0.022970806  0.022657046            7 
 2968000   0.77901196   -7.2118749     818.8874  0.022992121  0.022650647            5 
 2969000   0.78485255   -7.2121265    818.65688  0.022977907  0.022644276            3 
 2970000   0.76752327   -7.2057081    817.72378  0.022943989    0.0226379            5 
 2971000   0.79075204   -7.1904775    817.72691  0.022936355  0.022631497            5 
 2972000   0.79106319   -7.1981127    818.13307  0.022940025  0.022625093            6 
 2973000   0.76624936   -7.1995541    818.66844  0.022947316  0.022618727            7 
 2974000   0.76552785   -7.1967791    820.58889  0.022993412  0.022612359            6 
 2975000   0.76123001   -7.2241512    819.31261  0.022949933  0.022605969            3 
 2976000   0.76476455   -7.2383298    818.79164  0.022927633  0.022599565           14 
 2977000   0.78681969   -7.2221866    819.64708  0.022943878  0.022593197            6 
 2978000   0.78043043    -7.203534    820.30924  0.022954702  0.022586891            5 
 2979000   0.78816895   -7.1953048    820.70039  0.022957938  0.022580568            6 
 2980000   0.79689264   -7.2257023     819.7296  0.022923087   0.02257425            9 
 2981000   0.76888169   -7.2173745    818.94446  0.022893449  0.022567892            7 
 2982000   0.78931682   -7.2214744    819.35945  0.022897369  0.022561523            8 
 2983000    0.7722582   -7.2242719    819.86648  0.022903857  0.022555156           12 
 2984000   0.77515018   -7.2128234    819.18192  0.022877064  0.022548787            5 
 2985000   0.77920617   -7.1997081     820.3367  0.022901639  0.022542408           10 
 2986000   0.76983005   -7.2302859     818.0555  0.022830305  0.022536033            9 
 2987000   0.76961412   -7.2512912    819.88655  0.022873746  0.022529653           11 
 2988000   0.78499494   -7.2100389    818.90624  0.022838751   0.02252329            4 
 2989000   0.76957822   -7.2179597    820.29929  0.022869948  0.022516964            9 
 2990000   0.77039108   -7.2007415    820.83781  0.022877308  0.022510639            6 
 2991000    0.7770261   -7.2403439    818.83569  0.022813877    0.0225043            7 
 2992000    0.7683343   -7.2300005     819.6467  0.022828841  0.022497938            5 
 2993000   0.78142641   -7.2265141     819.1896  0.022808487   0.02249157           10 
 2994000   0.76062636   -7.1876451    819.42588  0.022807445  0.022485231           12 
 2995000   0.78084051   -7.2272164    821.66559  0.022862148  0.022478895           11 
 2996000   0.76350174   -7.2320815    820.64636  0.022826167  0.022472545            5 
 2997000   0.76343269   -7.2183494     820.7525  0.022821502  0.022466212            6 
 2998000   0.77594259   -7.2077183    820.60708  0.022809848  0.022459881            5 
 2999000   0.78563081   -7.2171245    821.22319  0.022819362  0.022453531            5 
 3000000   0.79197119   -7.1990943     820.0544  0.022779289  0.022447202            5 
 3001000   0.77276641   -7.2181618    820.14078  0.022774097  0.022440851            5 
 3002000   0.77568208   -7.1860736    819.53749  0.022749764  0.022434491           11 
 3003000   0.76689753   -7.1993404    820.74602  0.022775725  0.022428163           19 
 3004000   0.78516341   -7.2004366    818.70331  0.022711477  0.022421825           12 
 3005000    0.7678598   -7.2108299    820.92512  0.022765533  0.022415463            8 
 3006000   0.75737605   -7.2206143    819.27223  0.022712138  0.022409101            4 
 3007000   0.76097764    -7.251413    820.49669  0.022738518  0.022402741            6 
 3008000   0.77600467   -7.2342367    819.84714  0.022712964  0.022396371            4 
 3009000   0.77824174   -7.2180609    820.51424  0.022723891  0.022390013            5 
 3010000   0.77522541   -7.2140351    821.84109  0.022753076  0.022383647            6 
 3011000   0.76186134   -7.2572465    819.44961  0.022679332  0.022377279            8 
 3012000   0.76719664   -7.2217111    819.91447  0.022684663  0.022370899            9 
 3013000   0.77820489   -7.2087403    821.06879   0.02270906  0.022364552            7 
 3014000   0.78622906   -7.2200431    822.76716  0.022748484  0.022358238            9 
 3015000   0.78422025   -7.2242769    820.90676  0.022689518  0.022351903            6 
 3016000    0.7724728   -7.2487412     820.1753  0.022661784  0.022345559            7 
 3017000   0.76895916   -7.2050601    822.90249  0.022729602  0.022339254            5 
 3018000   0.78252907   -7.2359749     820.0297  0.022642746  0.022332896           18 
 3019000   0.76997602   -7.2205038     821.3425  0.022671483  0.022326574            8 
 3020000   0.76002106   -7.2019387    821.82219  0.022677213  0.022320269            5 
 3021000   0.77090127   -7.2129856    820.36409  0.022629485  0.022313956            4 
 3022000   0.76133355   -7.2074993    822.46387  0.022679899  0.022307618            7 
 3023000   0.77961288   -7.2236239    822.54161   0.02267454  0.022301283           10 
 3024000   0.76066676    -7.208226    819.73288  0.022589641  0.022294938           13 
 3025000   0.76728787    -7.215596    819.52614  0.022576478   0.02228859           22 
 3026000   0.78840367   -7.2553656    819.51899   0.02256882  0.022282214           17 
 3027000   0.77148423   -7.2492453    821.82257  0.022624782  0.022275841            6 
 3028000   0.77624371   -7.2252121    821.09424  0.022597265  0.022269482            7 
 3029000   0.74232734    -7.251591    820.07036  0.022561636  0.022263118            7 
 3030000   0.76055126   -7.2522421    823.12948  0.022638324  0.022256785            5 
 3031000   0.78354251   -7.2385812    822.33066  0.022608893  0.022250465            8 
 3032000   0.77051336   -7.2209165    821.11279  0.022567964   0.02224413           21 
 3033000   0.76044513   -7.2172069    821.75323  0.022578119  0.022237811            4 
 3034000   0.76312257   -7.2309203    821.45912    0.0225626  0.022231477            6 
 3035000   0.75769804   -7.2261118    821.80515  0.022564666   0.02222515            8 
 3036000   0.75820801   -7.2692324    821.31681   0.02254383  0.022218809           11 
 3037000     0.761569   -7.2531378     823.1499  0.022586705  0.022212482            5 
 3038000   0.76644978   -7.2430604    822.53877  0.022562507   0.02220616           10 
 3039000   0.74615087    -7.237399    823.29359  0.022575781  0.022199841            7 
 3040000   0.76875353   -7.2079423    823.00114  0.022560338  0.022193536            4 
 3041000   0.76339841   -7.2303291    823.25913  0.022559989  0.022187229            6 
 3042000    0.7794589   -7.2300783    823.80482  0.022567522  0.022180947            7 
 3043000   0.77199951   -7.2027887    824.06064  0.022567111   0.02217468            9 
 3044000   0.76456412   -7.2352288    822.33822  0.022512544  0.022168443            5 
 3045000   0.76791401   -7.2266242    822.08064  0.022498102   0.02216219           13 
 3046000   0.75563045   -7.2101861    824.48577  0.022556516  0.022155945            9 
 3047000   0.77179127   -7.2433942    823.05674   0.02251003  0.022149689           11 
 3048000   0.76369936   -7.2122936    822.54034  0.022488526  0.022143404           10 
 3049000   0.76102931   -7.2288723    824.20413  0.022526624  0.022137131           21 
 3050000   0.73894929    -7.238588    824.86997  0.022537431  0.022130835            4 
 3051000   0.77398897   -7.2547528    824.60498  0.022522806  0.022124532           10 
 3052000   0.77805469   -7.2315712    823.22954  0.022477871  0.022118231            7 
 3053000   0.77047483   -7.2381823    823.17485  0.022469016  0.022111921           12 
 3054000    0.7737402   -7.2360177    822.66354  0.022447706  0.022105641            8 
 3055000   0.76661006   -7.2652895    820.63994  0.022385159  0.022099303           10 
 3056000   0.76228648   -7.2442125    822.52605  0.022429266  0.022092991            9 
 3057000   0.76700552   -7.2386285     822.2174  0.022413516  0.022086698            9 
 3058000   0.76265431   -7.2621904     821.3527  0.022382622  0.022080388           12 
 3059000   0.77672722   -7.2639557    821.93581   0.02239119  0.022074051           11 
 3060000    0.7559557   -7.2580413    820.84596  0.022354193  0.022067719            8 
 3061000   0.76066617   -7.2414552    822.46929  0.022391084  0.022061348            9 
 3062000   0.76332241   -7.2664449    822.86996  0.022394676  0.022054989           16 
 3063000   0.74381407   -7.2327431    824.90472  0.022442723   0.02204867           12 
 3064000   0.76204771   -7.2312657      824.084  0.022413077  0.022042362           35 
 3065000   0.77884798   -7.2338943    823.10279  0.022379086  0.022036058           11 
 3066000    0.7453015   -7.2325209    822.98578  0.022368607  0.022029738           19 
 3067000    0.7663543   -7.2323877    823.99921  0.022388849  0.022023435            8 
 3068000   0.75384559   -7.2342874    824.61625  0.022398312  0.022017146           15 
 3069000   0.74457212   -7.2358388    824.40797  0.022385358  0.022010834           16 
 3070000    0.7576825   -7.2244425    825.50217  0.022407768  0.022004524            5 
 3071000     0.763871   -7.2332691     824.1072  0.022362618   0.02199826            6 
 3072000   0.76705312     -7.25689    824.71807   0.02237191  0.021991996            9 
 3073000    0.7574234    -7.260574    824.83638  0.022367838  0.021985727           13 
 3074000   0.75155395   -7.2892298    824.91307   0.02236264   0.02197947            5 
 3075000   0.75647977   -7.2203423    824.80273  0.022352378  0.021973201            7 
 3076000   0.76795416   -7.2555727    823.90556  0.022320805  0.021966976            4 
 3077000   0.76723439   -7.2443843    825.73902  0.022363206  0.021960726           10 
 3078000   0.76832279   -7.2210339    826.38499  0.022373429  0.021954476           17 
 3079000   0.76783317   -7.2656744    823.96406   0.02230064  0.021948235           14 
 3080000   0.75360365   -7.2384355    826.57665  0.022364087  0.021941999           14 
 3081000   0.75602306   -7.2439385    825.58514   0.02233001  0.021935782           21 
 3082000   0.75592746   -7.2188768    826.77514  0.022354941  0.021929586            9 
 3083000    0.7595415   -7.2268189    825.08687  0.022302056  0.021923411            7 
 3084000   0.78104746    -7.257019    825.94902  0.022318121   0.02191724            8 
 3085000   0.75489328    -7.230069    824.25831  0.022265216  0.021911033            5 
 3086000   0.74668059   -7.2477567    826.47352   0.02231782  0.021904849            8 
 3087000   0.76251523   -7.2158352    826.08956  0.022300226  0.021898685            7 
 3088000   0.74817224   -7.2330228    826.00846  0.022290815  0.021892522            4 
 3089000   0.74527551   -7.2096352    829.77107  0.022385105  0.021886361            8 
 3090000    0.7554334   -7.2517473    828.55234  0.022344993  0.021880181            5 
 3091000   0.75842748   -7.2406171    827.26953  0.022303179  0.021873983            6 
 3092000   0.75514014     -7.24424    829.36902   0.02235255   0.02186782            6 
 3093000   0.74369897   -7.2530945     825.6567  0.022245304   0.02186168            8 
 3094000   0.75802278   -7.2699831    827.95337  0.022299972  0.021855523            5 
 3095000   0.75088236   -7.2400653    826.98771  0.022266766  0.021849355            5 
 3096000   0.75555897    -7.250098    827.02693   0.02226063  0.021843185            7 
 3097000   0.76843215   -7.2370571    826.70951  0.022244901   0.02183704            5 
 3098000   0.76481927   -7.2510384    827.77334  0.022266337  0.021830923            4 
 3099000   0.75015506   -7.2578845    827.63423  0.022255411  0.021824792            9 
 3100000   0.75653935   -7.2698571    826.70859  0.022223349  0.021818608           10 
 3101000   0.74277241   -7.2582626    826.53645  0.022211557  0.021812438           14 
 3102000   0.75964751   -7.2206124    827.79028   0.02223808  0.021806267            7 
 3103000   0.77283077   -7.2466627     827.9897  0.022236269  0.021800121            9 
 3104000   0.74837217    -7.248258     829.8182  0.022278195  0.021793982            4 
 3105000   0.75687452    -7.238979    827.52837  0.022209564  0.021787833            7 
 3106000   0.75768951   -7.2523322    827.90638  0.022212556  0.021781675            6 
 3107000   0.74601561   -7.2260108    828.24493  0.022214487  0.021775539            4 
 3108000   0.75813868   -7.2685013     827.7187   0.02219323  0.021769366           12 
 3109000   0.74664663   -7.2592662    828.52444  0.022207688  0.021763223           20 
 3110000   0.76242935   -7.2377002    828.11725  0.022189637  0.021757065           12 
 3111000   0.74093874   -7.2503236    827.63114  0.022169483  0.021750904           17 
 3112000   0.76325613   -7.2373815    828.13168  0.022175763  0.021744723           15 
 3113000   0.73687558   -7.2429149    828.78766  0.022186199  0.021738557            6 
 3114000   0.73300429   -7.2441206    826.81131  0.022126186  0.021732394            8 
 3115000   0.75334197   -7.2908503    827.94171  0.022149323   0.02172622            8 
 3116000   0.75108732   -7.2592736    829.86153  0.022193558  0.021720052           12 
 3117000   0.74424239   -7.2664635    827.28718  0.022117613   0.02171387           10 
 3118000   0.76754784   -7.2739106    827.83178  0.022125074  0.021707711           12 
 3119000   0.76661059   -7.2458767    828.31092  0.022130782  0.021701553           11 
 3120000   0.75529944   -7.2472582    827.18836  0.022093706  0.021695402            7 
 3121000   0.75595302   -7.2466975    826.71594  0.022074013  0.021689247            6 
 3122000   0.76244282   -7.2586838    828.43725  0.022112888  0.021683105            7 
 3123000   0.75607825   -7.2766536    828.16391  0.022098514  0.021676924           23 
 3124000   0.74114449    -7.259209     829.2144  0.022119462  0.021670768           28 
 3125000   0.76206474   -7.2656206    829.09541  0.022109211  0.021664594            7 
 3126000   0.73437155   -7.2928893    827.92914  0.022071048  0.021658396            7 
 3127000   0.74208455   -7.2550454    826.58445  0.022028154  0.021652203           13 
 3128000   0.76023654   -7.2690109    827.60272  0.022048239  0.021646009            7 
 3129000   0.75195474   -7.2997207    827.86004  0.022048046  0.021639785            7 
 3130000    0.7316868   -7.2643311    828.35909  0.022054289  0.021633572           15 
 3131000   0.74469997   -7.2532449    827.36209  0.022020709  0.021627387            5 
 3132000   0.74853265   -7.2675395    827.85224   0.02202672   0.02162121            8 
 3133000   0.77699646   -7.2630635    828.29884  0.022031568  0.021615042            6 
 3134000   0.74945806   -7.2616742    828.95605  0.022042014  0.021608875            9 
 3135000   0.74617792    -7.233996    828.00364  0.022009666  0.021602709           11 
 3136000   0.74072107   -7.2247405      827.953  0.022001302  0.021596557            8 
 3137000   0.74194903   -7.2332577    828.64643  0.022012709  0.021590412           16 
 3138000   0.74679055   -7.2662331     826.8629  0.021958331  0.021584212           13 
 3139000   0.75364265   -7.2483396    828.99034  0.022007814   0.02157803           12 
 3140000   0.74973365   -7.2427115    829.09972  0.022003708  0.021571861           12 
 3141000   0.74723058   -7.2688479    827.36921  0.021950791  0.021565686            8 
 3142000   0.74221668    -7.272032    827.70184  0.021952627  0.021559467           10 
 3143000   0.74380738   -7.2660467    826.51785   0.02191425  0.021553228           10 
 3144000   0.76509559   -7.2708891    825.99315  0.021893372  0.021546962            8 
 3145000   0.76159205   -7.2706894     827.1316  0.021916576  0.021540737            9 
 3146000   0.75534984   -7.2445063     829.2497  0.021965716  0.021534527            5 
 3147000     0.739493   -7.2569467    828.04078  0.021926723  0.021528326            8 
 3148000   0.76071623   -7.2228487    827.08571  0.021894476  0.021522113           16 
 3149000   0.75478733   -7.2414475    828.98018  0.021937657  0.021515923            7 
 3150000   0.75119697   -7.2749207    830.44454  0.021969432  0.021509719            8 
 3151000   0.73429668   -7.2748508     829.1877  0.021929221  0.021503533            8 
 3152000   0.75920626   -7.2522437    828.83296  0.021912885   0.02149736           11 
 3153000   0.74093573   -7.2815309    827.45758  0.021869584  0.021491166           18 
 3154000   0.75599608   -7.2712578    825.55628  0.021812415   0.02148495           13 
 3155000   0.76381427   -7.2785493    828.46745  0.021882394  0.021478743            5 
 3156000   0.72310204   -7.2868287    829.35068  0.021898782  0.021472551            5 
 3157000   0.75059674   -7.2923013    828.73453  0.021875582  0.021466341           13 
 3158000   0.72439384    -7.293457    825.32995  0.021778814  0.021460116            7 
 3159000   0.75648669   -7.2837416    825.94639  0.021788182  0.021453874            7 
 3160000   0.75818667   -7.3010369    828.56937  0.021850458  0.021447658            8 
 3161000   0.75740913   -7.2776902     827.9456  0.021827101  0.021441433            8 
 3162000   0.74585695   -7.2892532    827.10645  0.021798083  0.021435206           12 
 3163000    0.7478854   -7.2553068     828.8575  0.021837325  0.021428993            4 
 3164000   0.76457877    -7.287701     827.6231  0.021797911  0.021422772            5 
 3165000   0.75870073   -7.3010502    826.82661  0.021770053  0.021416585           10 
 3166000   0.74740786   -7.2672362    827.98544  0.021793679  0.021410416            8 
 3167000   0.74674674   -7.2757606    830.14287  0.021843566  0.021404227           16 
 3168000   0.74539546   -7.2778173    828.73954  0.021799756  0.021398005           13 
 3169000   0.72562192   -7.2757947    828.18695  0.021778346  0.021391809           21 
 3170000   0.74898259    -7.277546    828.25032  0.021773142   0.02138561           21 
 3171000   0.74257397   -7.2826978    829.04746  0.021787224  0.021379418           16 
 3172000   0.75243927   -7.3038497    828.04425     0.021754  0.021373199           25 
 3173000   0.74674548   -7.3006268    828.11315  0.021748953  0.021366975           21 
 3174000   0.74371693   -7.2825982    828.56776  0.021754037  0.021360744           23 
 3175000   0.73712073   -7.2929315    829.47265  0.021770936  0.021354528           17 
 3176000   0.73743933   -7.2490634    827.39775  0.021709639  0.021348322           10 
 3177000   0.74599406   -7.2660749     828.3533   0.02172787  0.021342103           24 
 3178000   0.74640078   -7.2895447    826.38034  0.021669298  0.021335891           19 
 3179000   0.74780019   -7.2815791    827.92446  0.021702959  0.021329686           40 
 3180000   0.74725443   -7.2737873    828.97991  0.021723792  0.021323497           15 
 3181000   0.72338079   -7.2786037    826.48896  0.021651707  0.021317287           16 
 3182000   0.76140871   -7.2633696    828.99746  0.021710598  0.021311093           24 
 3183000   0.73976224   -7.2662243    829.83054  0.021725588  0.021304882           11 
 3184000   0.70972393   -7.3048149    826.33173  0.021627191  0.021298647           10 
 3185000   0.75233562   -7.2394988    828.92179  0.021688168  0.021292421            9 
 3186000   0.72429793   -7.2656398    829.05896  0.021684949  0.021286232            7 
 3187000    0.7410002   -7.2812723    826.72148  0.021617024  0.021280047            7 
 3188000   0.73033481   -7.2626979    829.39398  0.021680102  0.021273854           11 
 3189000   0.74841811   -7.2816474    827.79045  0.021631401  0.021267668           15 
 3190000   0.73648719   -7.3259702     828.7915  0.021650771  0.021261461           13 
 3191000   0.73295882   -7.2825063     828.8947  0.021646681  0.021255233            7 
 3192000   0.74011763   -7.3091353    830.62293  0.021685018  0.021249021            5 
 3193000   0.72635898   -7.2763918    829.05494  0.021637304  0.021242824            7 
 3194000    0.7466054   -7.2943281    829.10627  0.021631869  0.021236604            8 
 3195000   0.73916601   -7.2829695     828.5631  0.021610931  0.021230399            7 
 3196000   0.73031275   -7.2898098    829.08135  0.021617682  0.021224193           13 
 3197000   0.74184919   -7.2727762     830.1477  0.021638716  0.021217998           14 
 3198000   0.75447658   -7.2877634    829.39125  0.021612238  0.021211818            4 
 3199000   0.73337407   -7.2924972    830.59758  0.021636907  0.021205649            5 
 3200000   0.74370275   -7.2817674    829.52395  0.021602186   0.02119948           13 
 3201000   0.75046865   -7.2904057    829.81469  0.021603007    0.0211933           14 
 3202000    0.7324569   -7.2818549    828.36158  0.021558442   0.02118714            9 
 3203000   0.75156722   -7.2726117    829.95818  0.021593251  0.021180968            9 
 3204000   0.73059018    -7.273522    831.10608  0.021616367  0.021174787            8 
 3205000   0.74241274    -7.275806    829.62703  0.021571166  0.021168632            6 
 3206000   0.74543557   -7.2686024    829.73314  0.021567195  0.021162507           13 
 3207000   0.74579235     -7.31265    831.32244  0.021601768   0.02115637            6 
 3208000   0.72938944   -7.2790452    830.91731   0.02158451  0.021150213           10 
 3209000   0.73500238   -7.2957491    830.53616  0.021567886  0.021144068            7 
 3210000   0.72391739   -7.2825419    831.10155  0.021575845  0.021137938           11 
 3211000   0.73394904   -7.2874653    828.27736  0.021495831  0.021131767            5 
 3212000    0.7421679   -7.2917684     829.0111  0.021508175  0.021125606            5 
 3213000   0.73044613   -7.3090034    831.44335  0.021564565   0.02111943           12 
 3214000   0.74502677   -7.2879695    829.68084  0.021512156   0.02111328            9 
 3215000   0.74476834   -7.2792243    830.94374    0.0215382  0.021107119            6 
 3216000   0.72946322   -7.2945432     831.8958  0.021556172  0.021100946           13 
 3217000   0.72284357   -7.2841359    830.93366  0.021524548  0.021094785            6 
 3218000   0.71792549   -7.3243187    829.82197  0.021489071  0.021088601           19 
 3219000     0.729659    -7.303998    829.62835  0.021477383  0.021082404           18 
 3220000   0.75097031   -7.3181534    829.10823  0.021457252  0.021076218           17 
 3221000   0.73131989   -7.3121973    826.91125  0.021393751  0.021070028            8 
 3222000    0.7297415   -7.2879299    830.81371  0.021488043  0.021063845           11 
 3223000   0.73149219   -7.2826594    829.63615  0.021450929  0.021057676            4 
 3224000   0.75220416   -7.2968029    830.37875  0.021463471  0.021051523           10 
 3225000   0.73327163   -7.2957893    831.33432  0.021481507  0.021045352            5 
 3226000   0.74751432   -7.3100757    830.16071  0.021444532   0.02103916            7 
 3227000   0.73579869   -7.3062543    830.97305  0.021458864  0.021032968            7 
 3228000   0.72703415   -7.2968709    830.86873  0.021449523  0.021026792            8 
 3229000    0.7408341    -7.306276    828.95102  0.021393389  0.021020631            9 
 3230000   0.73728369   -7.3044682    830.99532  0.021439508  0.021014469           10 
 3231000   0.75519544   -7.2852757     831.5219  0.021446454   0.02100833           11 
 3232000   0.73014389   -7.2639045    830.32036  0.021408838   0.02100219           10 
 3233000   0.73482983    -7.313344    831.27892  0.021426923  0.020996052           11 
 3234000   0.74105318   -7.3056719    831.45594  0.021424859  0.020989914           10 
 3235000    0.7264359   -7.2745605    831.37364  0.021416116   0.02098376            6 
 3236000   0.74311216   -7.3300418    830.90371  0.021397397  0.020977622            3 
 3237000   0.73140969   -7.3093282    830.98156  0.021392791  0.020971481            6 
 3238000   0.73081572   -7.2925566    832.50145    0.0214253  0.020965341            9 
 3239000   0.73474258   -7.2967631    832.11179   0.02140866  0.020959209           19 
 3240000   0.72973259   -7.2999111    831.42066  0.021384276  0.020953076            9 
 3241000   0.72733643   -7.3108293     828.9669  0.021314586  0.020946909           12 
 3242000   0.73716309    -7.324003    829.29826   0.02131653  0.020940743            8 
 3243000   0.75292018   -7.3117605    830.71481  0.021346356  0.020934582           10 
 3244000   0.73445368   -7.3250546    829.96433  0.021320497  0.020928399            7 
 3245000   0.73562445   -7.3163689    829.89469  0.021312139  0.020922234            8 
 3246000   0.73878445   -7.3018897     829.7142   0.02130094  0.020916068           11 
 3247000   0.74013296   -7.3210666    830.91876  0.021325294  0.020909916            5 
 3248000   0.74055117   -7.3120392    831.05441  0.021322209  0.020903754            9 
 3249000   0.72825257    -7.287046    833.20909  0.021370911  0.020897613            6 
 3250000   0.74194051   -7.2941376    830.33658  0.021290682   0.02089147            8 
 3251000   0.74457676   -7.2868097    831.66593  0.021318208  0.020885348            8 
 3252000   0.73061248   -7.3134637    831.23843  0.021300698  0.020879206           30 
 3253000   0.74274467   -7.3197736    831.38936  0.021298016  0.020873059            5 
 3254000   0.71479458   -7.3097873    830.67496  0.021273176  0.020866897            6 
 3255000   0.73756856   -7.2968635    830.43878  0.021260593  0.020860703           12 
 3256000   0.73837578    -7.324952    831.37417  0.021278004  0.020854524            7 
 3257000   0.74415807   -7.2988078    829.73514  0.021229535  0.020848333           21 
 3258000    0.7190227   -7.3043854    829.56069  0.021218557  0.020842164            6 
 3259000    0.7334133   -7.3105534    829.93011  0.021221492  0.020836004            8 
 3260000   0.73131595   -7.3173318    829.50197  0.021204038  0.020829848            6 
 3261000     0.728049   -7.2955694    828.76639  0.021178738  0.020823672           11 
 3262000   0.73266285   -7.2963192    830.56147  0.021218104  0.020817514            7 
 3263000   0.73182516    -7.315565    830.71984  0.021215646  0.020811341            6 
 3264000   0.72755478   -7.3167062    829.66546  0.021182227  0.020805173            8 
 3265000    0.7248672    -7.304437    830.66222   0.02120118  0.020799022            8 
 3266000   0.71687553   -7.3228151    829.58719  0.021167258   0.02079284            9 
 3267000   0.72695178   -7.2958036    831.56013  0.021211104  0.020786678           19 
 3268000   0.74194851    -7.310431    829.22418  0.021145047  0.020780516           12 
 3269000   0.73903053   -7.3314567    830.73039  0.021176975  0.020774372            7 
 3270000   0.73459775   -7.3150075    831.57136  0.021191931  0.020768228            4 
 3271000   0.74073681   -7.2950814    830.56552  0.021159827  0.020762083            8 
 3272000   0.73028148   -7.3035042    830.56981  0.021153469  0.020755947           14 
 3273000   0.72432288   -7.3223327    831.75951  0.021177297  0.020749789            6 
 3274000   0.72399243   -7.2908699    831.94844  0.021175637   0.02074364            9 
 3275000   0.71534705   -7.3208067    830.76524  0.021139065   0.02073748            7 
 3276000   0.71561387   -7.3117505    829.79286  0.021107877  0.020731315           12 
 3277000   0.72141036   -7.3131313    829.21955  0.021086857  0.020725128            5 
 3278000   0.73421813   -7.3306561    828.82222  0.021070323  0.020718918            6 
 3279000     0.730278   -7.3017902    829.77054  0.021087998  0.020712735            9 
 3280000    0.7157275   -7.3101211    830.57198   0.02110193  0.020706574            4 
 3281000   0.71518399   -7.3284864    830.39541  0.021091014  0.020700407            8 
 3282000   0.72569558   -7.3044092    830.80158  0.021094901  0.020694257            6 
 3283000   0.72956939   -7.3020315    832.57427  0.021133472  0.020688094           11 
 3284000   0.73132871   -7.2903265    832.20738  0.021117727  0.020681943            8 
 3285000   0.72801989   -7.2919449    831.19273  0.021085559   0.02067579           15 
 3286000   0.71495534   -7.3076263    830.95843    0.0210732  0.020669624            5 
 3287000   0.72101404   -7.3194124    829.64603  0.021033517  0.020663455           16 
 3288000   0.73059118   -7.3156684    831.49239  0.021073915  0.020657284           19 
 3289000   0.75666133    -7.324351    830.92756  0.021053197  0.020651097           10 
 3290000    0.7194294   -7.3040552    830.85423   0.02104494  0.020644938           10 
 3291000   0.72601323   -7.3205537    830.46553  0.021028703  0.020638772            6 
 3292000   0.72109712   -7.3236172    830.55089  0.021024476  0.020632625            9 
 3293000   0.71999258   -7.3196531    830.16827  0.021008408  0.020626494           21 
 3294000   0.72565314    -7.339248    832.16494  0.021052544  0.020620359            9 
 3295000    0.7131424   -7.3128049    830.32263  0.020999561  0.020614193           20 
 3296000   0.72921889   -7.2969237    831.47023  0.021022204  0.020608058            8 
 3297000   0.72420273   -7.3081198    832.60238  0.021044444  0.020601923           13 
 3298000   0.74096962   -7.3314381    831.06704  0.020999268  0.020595777            7 
 3299000   0.71807662   -7.3313873    828.71184   0.02093341  0.020589631           11 
 3300000   0.72506804   -7.3403623    831.00613  0.020985003  0.020583465           20 
 3301000   0.71205792   -7.3398634    830.06442  0.020954873  0.020577294           10 
 3302000   0.72967819   -7.3203067    830.19911  0.020951926  0.020571115            7 
 3303000   0.71885615   -7.3388207    829.75422  0.020934358  0.020564943            6 
 3304000   0.70044267   -7.3392439    829.71419  0.020927013  0.020558763            8 
 3305000   0.71733701   -7.3399067    830.96347   0.02095218  0.020552585            9 
 3306000   0.74278802   -7.3217701    831.83322  0.020967766  0.020546413           16 
 3307000   0.72448058    -7.328029    832.82082  0.020986312  0.020540301            9 
 3308000    0.7095689   -7.3196147    831.03425  0.020934962  0.020534172            4 
 3309000   0.72238136   -7.3277423    830.75407  0.020921579  0.020528047           13 
 3310000   0.71839922   -7.3556529    829.35256  0.020879974  0.020521905            6 
 3311000   0.72659459   -7.3558779    831.59978  0.020930227  0.020515764           10 
 3312000   0.73060514   -7.3428393    830.65271  0.020900078  0.020509615           13 
 3313000    0.7147665   -7.3431744    831.15925  0.020906511  0.020503474           11 
 3314000   0.72282837   -7.3295285    831.32309  0.020904322  0.020497331           12 
 3315000   0.72980825   -7.3435404    832.39835  0.020925046    0.0204912           11 
 3316000   0.73008325   -7.3251379    831.87139  0.020905493  0.020485082            8 
 3317000   0.73630216   -7.3106933    831.73427  0.020895746   0.02047895           16 
 3318000   0.70422693   -7.3283455    830.61164  0.020861253  0.020472828            6 
 3319000   0.73285094   -7.3204755    833.18079  0.020919473  0.020466718            6 
 3320000   0.71832232   -7.3392436    832.60442  0.020898705  0.020460617            7 
 3321000   0.71779809   -7.2976505    832.82683  0.020897993  0.020454525           12 
 3322000   0.71056138   -7.3142703    832.78994  0.020890777  0.020448452            6 
 3323000   0.73086162   -7.2991152    834.54247   0.02092844  0.020442403           11 
 3324000   0.70886273   -7.3092272    834.41058  0.020918837  0.020436351           11 
 3325000   0.71996015   -7.3468337    831.78168  0.020846659  0.020430259           12 
 3326000   0.72103724   -7.3437256    832.17699  0.020850295  0.020424167            8 
 3327000   0.70934045    -7.338137    830.61297  0.020804854  0.020418078            9 
 3328000    0.7185223   -7.3533821    833.34014   0.02086689  0.020411965           12 
 3329000   0.72176812   -7.3360459    831.15318  0.020805877  0.020405887            5 
 3330000   0.72850223   -7.3143079    833.99379  0.020870715  0.020399808            9 
 3331000   0.72748275   -7.3025629    834.09927  0.020867089  0.020393744            9 
 3332000   0.71962325    -7.329375    832.97839  0.020832793  0.020387672            9 
 3333000   0.71035263   -7.3105799    832.02691  0.020802753  0.020381615            7 
 3334000   0.71599982   -7.3134896    834.20372  0.020850923  0.020375555           17 
 3335000   0.73359121   -7.3102455    833.36943  0.020823824   0.02036951            6 
 3336000   0.71705608   -7.3295022    834.66158   0.02084986  0.020363455            5 
 3337000   0.71468782   -7.3544257    831.93051   0.02077541  0.020357388           13 
 3338000   0.71616037    -7.325239    830.87701  0.020742885  0.020351302            9 
 3339000   0.73443746     -7.34956    832.16108   0.02076872  0.020345236            5 
 3340000   0.70082815   -7.3309901    832.43088  0.020769234  0.020339142           17 
 3341000   0.70315248   -7.3368113    833.09705  0.020779633  0.020333033           10 
 3342000   0.71995016   -7.3318297    832.21764  0.020751487  0.020326903            7 
 3343000   0.73409875   -7.3495377    831.42182  0.020725442  0.020320791            6 
 3344000   0.72281976   -7.3251238    832.61663  0.020749019    0.0203147            8 
 3345000   0.70884422   -7.3322092    833.22439  0.020757957  0.020308605           12 
 3346000   0.71224404     -7.35483    834.24525  0.020777178  0.020302498            7 
 3347000   0.70187629   -7.3380213    831.59488  0.020704982  0.020296401            7 
 3348000   0.71322813   -7.3493453    831.38297  0.020693523  0.020290311           11 
 3349000   0.69917553   -7.3362659     830.4461  0.020664032  0.020284209           11 
 3350000   0.72025091   -7.3473484     832.2559  0.020702883  0.020278094           22 
 3351000   0.70755355   -7.3609984    832.14428  0.020693929   0.02027198           14 
 3352000   0.71601808   -7.3411699    834.01284  0.020734209  0.020265864            8 
 3353000   0.70770532   -7.3285705    831.15076  0.020656893  0.020259767           14 
 3354000   0.71804688   -7.3645744    832.72168  0.020689765  0.020253666            8 
 3355000   0.72089518   -7.3362106    831.14096  0.020644336  0.020247591           19 
 3356000   0.71213423   -7.3356465    834.41562  0.020719498  0.020241504           14 
 3357000   0.71971071   -7.3236272    834.05178  0.020704294  0.020235418           16 
 3358000   0.73300409   -7.3473744    833.73613  0.020690295  0.020229349            7 
 3359000   0.71143187   -7.3336278    832.88926  0.020663125  0.020223251           11 
 3360000   0.71290427   -7.3381983    832.64658  0.020650957  0.020217173           10 
 3361000   0.72337441     -7.35312    833.54929  0.020667195  0.020211112           12 
 3362000   0.70542275   -7.3267698    834.50763  0.020684801  0.020205036           13 
 3363000   0.70792049    -7.317148    832.35043  0.020625196  0.020198958           15 
 3364000    0.7030186    -7.323867    833.11131  0.020637914  0.020192899           15 
 3365000   0.71440275   -7.3300479    832.60455  0.020619231   0.02018685           12 
 3366000   0.71503915   -7.3417227     832.8018  0.020617989  0.020180793           23 
 3367000   0.71270327   -7.3441007    831.25986  0.020573702  0.020174749           11 
 3368000   0.69739468   -7.3375065    832.96717  0.020609837  0.020168676            7 
 3369000   0.71990466   -7.3486446    832.16185    0.0205838  0.020162611           12 
 3370000   0.72059107    -7.350132    833.39225  0.020608117  0.020156557           13 
 3371000    0.7209231   -7.3554792    833.43833  0.020603143  0.020150475            9 
 3372000   0.70718798   -7.3504603    831.10835  0.020539451  0.020144405            5 
 3373000   0.71220048   -7.3644252    832.28723  0.020562487  0.020138319           16 
 3374000   0.70849545    -7.374788    833.19462  0.020578804  0.020132227            9 
 3375000    0.7070445   -7.3537583    833.05515  0.020569263  0.020126141           13 
 3376000   0.70070624   -7.3433906    831.97891  0.020536604  0.020120044           19 
 3377000   0.71617893   -7.3537382    832.42829  0.020541612  0.020113977           14 
 3378000   0.70154613   -7.3568757    831.29167  0.020507491  0.020107901           10 
 3379000   0.71104084   -7.3150378    831.64431  0.020510119  0.020101847           15 
 3380000   0.71644306   -7.3343284    834.65859  0.020578368  0.020095814            9 
 3381000   0.70893066   -7.3540885     834.7728  0.020575096  0.020089784           17 
 3382000   0.70980965    -7.353955     833.2625  0.020531798  0.020083737           16 
 3383000    0.7075267   -7.3477989    832.90295  0.020516872  0.020077687            8 
 3384000   0.69948133   -7.3614532    832.07416    0.0204904  0.020071641            7 
 3385000   0.70568219   -7.3552838    834.04001  0.020532743  0.020065586           11 
 3386000   0.70557916    -7.342651    833.20883  0.020506223  0.020059549            9 
 3387000   0.70905978   -7.3448238    835.39866  0.020554046  0.020053506            8 
 3388000   0.71017845   -7.3421362    833.06435  0.020490563  0.020047476            6 
 3389000    0.7241286   -7.3393109    832.74513  0.020476668  0.020041453            4 
 3390000   0.70251065     -7.34545    833.59676  0.020491562  0.020035433            5 
 3391000   0.70480667   -7.3471203     833.6007  0.020485616  0.020029417            9 
 3392000   0.71198856   -7.3377155    835.57725  0.020528136  0.020023386           12 
 3393000   0.70957969   -7.3522073    833.69268    0.0204758  0.020017355           11 
 3394000    0.7127877   -7.3407734    833.07593  0.020454624  0.020011336           14 
 3395000   0.70476648    -7.359067    834.58301  0.020485592   0.02000533            7 
 3396000   0.70296721   -7.3647276    831.26873  0.020398231  0.019999309            5 
 3397000   0.69747546   -7.3560007    833.73086  0.020452626  0.019993266            6 
 3398000   0.69911529   -7.3729031    832.48511  0.020416056  0.019987249           14 
 3399000   0.71640106   -7.3540295     835.8106  0.020491581  0.019981236           18 
 3400000   0.71646019   -7.3987941    833.75551  0.020435184  0.019975208           10 
 3401000   0.71918113   -7.3646003    833.19702  0.020415491   0.01996918           12 
 3402000   0.69986379   -7.3612358    835.25729  0.020459957   0.01996315           11 
 3403000   0.70338746   -7.3657988    835.07815  0.020449558  0.019957129           17 
 3404000   0.71728312   -7.3908571    834.34181  0.020425524  0.019951106           21 
 3405000   0.71621488   -7.3317195    833.75545  0.020405175  0.019945107            8 
 3406000   0.70380065   -7.3580091    833.61678  0.020395791  0.019939099           16 
 3407000   0.70887903   -7.3734921    834.35465  0.020407853  0.019933076           17 
 3408000   0.71632447   -7.3588317     833.6526  0.020384698  0.019927072           20 
 3409000   0.70156943   -7.3463107    834.33897  0.020395497   0.01992107           18 
 3410000   0.70792905   -7.3474762    835.44563   0.02041656  0.019915092           23 
 3411000    0.6869737   -7.3286775     836.4886  0.020436055  0.019909085           18 
 3412000   0.70179465   -7.3713233    832.39789  0.020330156  0.019903079            8 
 3413000    0.7276554   -7.3512355    834.82835  0.020383542  0.019897085           10 
 3414000   0.71588166   -7.3576796    835.67708  0.020398288  0.019891091           11 
 3415000   0.71323544   -7.3651369    833.05364  0.020328298    0.0198851           19 
 3416000   0.71105812    -7.348927    836.13872  0.020397607  0.019879106           17 
 3417000   0.70477148   -7.3733682    835.32298  0.020371744   0.01987313            9 
 3418000   0.71664174   -7.3467974    834.47979  0.020345226  0.019867165           24 
 3419000   0.70273572   -7.3349983    835.94627  0.020375019  0.019861196           17 
 3420000   0.70706029   -7.3398943    835.61985  0.020361107  0.019855209           16 
 3421000   0.71455577   -7.3385973    835.01927  0.020340526   0.01984924           15 
 3422000   0.71000852   -7.3420551    834.83801  0.020330168  0.019843257           21 
 3423000   0.70461187   -7.3424052    836.21625  0.020357782  0.019837319           25 
 3424000   0.69076114    -7.362741    835.52604  0.020335038  0.019831377           15 
 3425000   0.68892789   -7.3591574    835.59378  0.020330749  0.019825409            7 
 3426000   0.68735883   -7.3661659    835.04543  0.020311477  0.019819434           10 
 3427000   0.71027585   -7.3495973    835.85917  0.020325337  0.019813455            7 
 3428000   0.70816611   -7.3556797    834.20666  0.020279236  0.019807481           25 
 3429000   0.70309364   -7.3352113    834.70001  0.020285312  0.019801511            7 
 3430000   0.70480657   -7.3558014    836.00241   0.02031104  0.019795522           13 
 3431000   0.68704105   -7.3818726    834.72161  0.020274012  0.019789522            6 
 3432000   0.72352715    -7.347188    835.62481  0.020290035  0.019783545            5 
 3433000   0.70839888   -7.3430331     834.3775  0.020253847  0.019777576            8 
 3434000   0.70987651   -7.3737987    834.84316   0.02025925  0.019771602            6 
 3435000   0.70506896    -7.365946    833.38485  0.020217973  0.019765596            8 
 3436000   0.69312025   -7.3531777    834.47627  0.020238559  0.019759589            7 
 3437000   0.70950947   -7.3764783    834.38338  0.020230418  0.019753575           13 
 3438000   0.70155368   -7.3829422    833.16442  0.020194988  0.019747563            8 
 3439000   0.69745734   -7.3765454    833.24398  0.020191044  0.019741549           30 
 3440000   0.70653146   -7.3625668    834.36798  0.020212403  0.019735531           34 
 3441000   0.69907416   -7.3779833    834.92894  0.020220114  0.019729532           25 
 3442000   0.70481038   -7.3572425    834.41192  0.020201722  0.019723541           35 
 3443000   0.70632221   -7.3479352    832.50444  0.020149686  0.019717574           17 
 3444000   0.68897699   -7.3503053    834.66461  0.020196105  0.019711574           18 
 3445000   0.69941603    -7.376645    833.92359  0.020172317  0.019705577           29 
 3446000   0.69493954   -7.3711114    834.48382  0.020180011  0.019699578           18 
 3447000   0.70196927    -7.372764    835.31488  0.020194248  0.019693563           12 
 3448000   0.70236513   -7.3520871    833.76716  0.020150985   0.01968755           21 
 3449000   0.70565212   -7.3782496    835.08345  0.020176946  0.019681557            5 
 3450000   0.72573214   -7.3882961    834.68056  0.020161366  0.019675581           14 
 3451000   0.68741239   -7.3743473    834.80048   0.02015842  0.019669611           12 
 3452000   0.67942717   -7.3891658    834.25203   0.02013934  0.019663622           13 
 3453000   0.70021305   -7.3770206    833.79932  0.020122582  0.019657632           13 
 3454000   0.70661307   -7.3770805     835.9924  0.020169668  0.019651634           16 
 3455000   0.68563754   -7.3758775     835.6355  0.020155222  0.019645641            8 
 3456000   0.70230264   -7.4211571      833.416  0.020095872  0.019639646           15 
 3457000   0.68775931   -7.4006775    833.06518  0.020081602  0.019633626           22 
 3458000   0.69314942   -7.3910876    833.39265  0.020083686  0.019627624           10 
 3459000   0.70086266   -7.4242314    832.55769  0.020057765  0.019621626           15 
 3460000   0.69244471   -7.3917814    834.13809  0.020090031  0.019615621            6 
 3461000   0.70499319   -7.3963418    832.84831  0.020053171  0.019609634           17 
 3462000   0.70340515   -7.4098575    834.37739  0.020084185   0.01960365           21 
 3463000   0.67975983   -7.3968639    834.53014  0.020082061  0.019597669           14 
 3464000     0.697372   -7.4152213    833.88896  0.020060839  0.019591678           14 
 3465000   0.69326556   -7.4081229    832.46837  0.020020884  0.019585676            8 
 3466000   0.68740589   -7.3781828    834.06793  0.020053566  0.019579676            8 
 3467000   0.70155394   -7.3926165    833.44492  0.020032807  0.019573674            8 
 3468000   0.69186829    -7.409532    835.99035  0.020088196    0.0195677            8 
 3469000   0.70437739    -7.394672    834.01995  0.020035071  0.019561726            9 
 3470000   0.68547635   -7.3694344    835.26394  0.020059173  0.019555759            5 
 3471000   0.70430796   -7.3679102    835.20366  0.020051946  0.019549812            7 
 3472000   0.69717028    -7.394367     835.7945  0.020060352  0.019543876            9 
 3473000    0.6948106   -7.3785504    836.52755  0.020072165  0.019537965           13 
 3474000   0.69330642   -7.3769022    836.88341  0.020074923  0.019532043           11 
 3475000   0.70590959   -7.3827732    836.51993   0.02006043  0.019526131            6 
 3476000   0.71789939    -7.353425    836.54554  0.020055273  0.019520223           18 
 3477000   0.70011688   -7.3875096    836.08703  0.020038516  0.019514314           12 
 3478000    0.6919146   -7.3695508    836.34836  0.020039016  0.019508392           11 
 3479000   0.69310362    -7.386481    836.21344  0.020030024  0.019502474           20 
 3480000   0.69870855   -7.3510557    834.63547  0.019986481  0.019496559           14 
 3481000   0.71217006   -7.3610907    835.28563  0.019996305  0.019490664           10 
 3482000   0.71338044   -7.3754044    835.48249  0.019995273  0.019484753           15 
 3483000   0.69350233   -7.3872579    834.71235  0.019971106  0.019478844           14 
 3484000   0.68857869   -7.3944009    836.24657  0.020002071  0.019472933           22 
 3485000   0.69629981   -7.3990159     837.1101   0.02001698  0.019467037           17 
 3486000   0.67525088    -7.394875     836.3923  0.019994079  0.019461138           10 
 3487000   0.69190669   -7.3852313    835.34334  0.019963277  0.019455253           23 
 3488000   0.71012508   -7.3855983    835.52065  0.019961789  0.019449367           27 
 3489000   0.69429809   -7.3859565    836.25785  0.019973676  0.019443491            6 
 3490000   0.68800912    -7.378177    835.81083  0.019957279   0.01943762            8 
 3491000   0.68981763   -7.3832003    836.59657  0.019970318  0.019431748           12 
 3492000   0.68680744   -7.3789538    836.45276  0.019961167  0.019425861           10 
 3493000   0.69772098   -7.4336154    835.74179  0.019938491  0.019419972            9 
 3494000   0.69243228   -7.3801125    838.06213  0.019988126  0.019414086           13 
 3495000   0.70112477   -7.3865367    837.17328  0.019961213  0.019408225           15 
 3496000   0.70402284   -7.3745389    835.09386  0.019905937  0.019402356           12 
 3497000   0.68038566   -7.3960865    837.11875  0.019948498  0.019396516           12 
 3498000   0.68068248   -7.4033162    835.85425   0.01991267  0.019390641            7 
 3499000   0.69716424    -7.352271     838.8916  0.019979318  0.019384785            7 
 3500000   0.70477386   -7.3908462    837.33095  0.019936451  0.019378943           12 
 3501000     0.703474   -7.3762869    836.90934  0.019920721  0.019373095           17 
 3502000   0.69724826   -7.3813993    836.51738  0.019905706  0.019367245           15 
 3503000   0.69172073   -7.4038161    836.45527  0.019898546  0.019361407           10 
 3504000   0.69713805   -7.3957535    837.92067  0.019927717  0.019355555            8 
 3505000   0.69736256   -7.4014488    838.12742  0.019926948    0.0193497           10 
 3506000   0.70324842   -7.3955615    838.14588  0.019921703  0.019343842           11 
 3507000   0.68094347   -7.4095618    835.95035  0.019863852  0.019337961            8 
 3508000   0.70021322   -7.3971883    837.27735  0.019889713    0.0193321           11 
 3509000    0.7089305    -7.402633    837.00674  0.019877618  0.019326241           11 
 3510000    0.6864073   -7.4166934    836.77415  0.019866433  0.019320392           14 
 3511000   0.68222927   -7.4278807    836.43506  0.019852726  0.019314529           11 
 3512000   0.71527374   -7.3861375    837.00281  0.019860545  0.019308663           14 
 3513000   0.68032925   -7.3667009    837.12294  0.019857741  0.019302828           19 
 3514000   0.69722828   -7.3990286    838.49265  0.019884572  0.019296985           12 
 3515000   0.69687833    -7.357526    837.35475  0.019851938  0.019291164           13 
 3516000   0.69606404   -7.3906159    838.87907   0.01988242  0.019285352           10 
 3517000   0.69400703   -7.3772666    839.38258  0.019888697  0.019279553           14 
 3518000   0.68409448   -7.3744809    836.99096  0.019826392  0.019273774            9 
 3519000   0.68758857   -7.3590421     839.6187  0.019882985  0.019267983            7 
 3520000   0.68601772   -7.3973424    838.46998  0.019850142  0.019262189           14 
 3521000   0.67951506   -7.3925362      838.245  0.019839179  0.019256389           11 
 3522000    0.6802748   -7.3921359    838.98495  0.019851054  0.019250575            9 
 3523000   0.67799407   -7.4199512    837.17961  0.019802716  0.019244759            5 
 3524000   0.69284562   -7.3910168    837.80236  0.019811823   0.01923893           11 
 3525000   0.67006555   -7.4212051    836.92026  0.019785349  0.019233102           14 
 3526000    0.6934163   -7.4170379    839.05449  0.019830178  0.019227275            7 
 3527000   0.68299228   -7.4430515    837.57461   0.01978959   0.01922144           17 
 3528000    0.6813004   -7.4067046    835.61708  0.019737743  0.019215608            6 
 3529000   0.68364261   -7.3981549    836.77988  0.019759608  0.019209775           12 
 3530000   0.66729019   -7.4098531    836.35656  0.019744017  0.019203942           12 
 3531000   0.67192584   -7.4277536     835.9421  0.019728644   0.01919812            9 
 3532000   0.68608776   -7.4227703    837.18519  0.019752387  0.019192304            5 
 3533000   0.69169012   -7.3962198     837.2115  0.019747417  0.019186482            6 
 3534000   0.68347724   -7.4259263    837.51724  0.019749039  0.019180671           13 
 3535000   0.68182092   -7.4093064    838.72177  0.019771847  0.019174872           13 
 3536000   0.68452296   -7.4169011    838.85997  0.019769513  0.019169073           19 
 3537000   0.66123401   -7.4211371     838.7389  0.019761071  0.019163271           13 
 3538000   0.69708551   -7.4191784    837.97056  0.019737388  0.019157483           19 
 3539000   0.67878964     -7.41985    837.37869  0.019717874  0.019151672           12 
 3540000   0.67735331   -7.4111486    837.06697  0.019704966  0.019145866            6 
 3541000   0.68282703   -7.3947791    839.40527  0.019754431  0.019140073           13 
 3542000   0.68260936   -7.4247088    838.48111  0.019727111  0.019134287           12 
 3543000   0.68909489   -7.4291726    838.42303  0.019720177  0.019128494           13 
 3544000   0.68502354   -7.4328386    836.94946  0.019679963  0.019122688            5 
 3545000   0.68550925   -7.4172868    836.36105  0.019660579  0.019116902           11 
 3546000   0.67989385   -7.4189437    836.81005  0.019665587  0.019111121           15 
 3547000    0.6882373   -7.4110472    838.41894  0.019697842  0.019105344           17 
 3548000   0.69344905   -7.4132041    838.73308  0.019699668  0.019099571           16 
 3549000   0.69355569   -7.3972385    837.38557  0.019662477  0.019093807           11 
 3550000   0.66333334   -7.4079381    838.07398  0.019673098  0.019088023            5 
 3551000   0.67785722   -7.4270014    837.07363  0.019644082  0.019082229           23 
 3552000   0.68559979   -7.4292891    836.32461  0.019620979  0.019076444           11 
 3553000   0.67958409   -7.4208198    837.54937  0.019644183   0.01907065           21 
 3554000   0.68262312   -7.4115665    840.04964  0.019697281  0.019064875           19 
 3555000   0.67960781   -7.4327098    837.69534  0.019636553   0.01905911           35 
 3556000   0.67412045   -7.4462293     838.5479   0.01965101  0.019053346            8 
 3557000    0.6901167    -7.460838    839.43468  0.019666261  0.019047574           13 
 3558000   0.68701515   -7.4194042    836.96525  0.019602896  0.019041801           10 
 3559000   0.68424156   -7.4581686    837.56199  0.019611361  0.019036023           19 
 3560000   0.67007569   -7.4372895    838.57879  0.019629653  0.019030255           12 
 3561000   0.67909331   -7.4362098    839.64878   0.01964918  0.019024477            9 
 3562000   0.68240966   -7.4398933    837.81371  0.019600732  0.019018727           23 
 3563000   0.66187874   -7.4258789    837.65219  0.019591454  0.019012974           14 
 3564000    0.6832655   -7.4377525    837.88875  0.019591488  0.019007196           42 
 3565000   0.68529824   -7.4479052    837.55905  0.019578285  0.019001429           21 
 3566000   0.68246409   -7.4391344    839.57871  0.019619992   0.01899567           17 
 3567000   0.67993859   -7.4352662    837.41842  0.019564022  0.018989914           15 
 3568000    0.6661977   -7.4305461    839.99357  0.019618684  0.018984157           15 
 3569000   0.66439071   -7.4208797    838.42243  0.019576502  0.018978401           18 
 3570000   0.67601672   -7.4351085    838.36997  0.019569794  0.018972654           19 
 3571000   0.68288878    -7.427912    840.01817  0.019602776  0.018966903           16 
 3572000   0.68996133   -7.4519534    839.21133  0.019578465  0.018961138           28 
 3573000   0.67894949   -7.4541543    838.36922  0.019553345  0.018955388           14 
 3574000   0.67467642   -7.4123633    838.20904  0.019544139  0.018949624           17 
 3575000   0.68319477   -7.4190686    839.28632  0.019563784  0.018943865           32 
 3576000   0.66281942   -7.4053352    837.68841  0.019521076  0.018938139            8 
 3577000   0.69127022   -7.4023682    839.23872  0.019551736  0.018932411           11 
 3578000   0.69106888   -7.3986869    838.01745  0.019517828  0.018926706           22 
 3579000   0.67250519   -7.4254157    839.82825  0.019554537     0.018921           16 
 3580000   0.68244181    -7.406774    840.05204  0.019554284  0.018915314           21 
 3581000   0.66737121   -7.4318367     838.9271  0.019522645  0.018909619           11 
 3582000   0.69205729   -7.4319345    838.29833  0.019502567  0.018903903           14 
 3583000   0.67102984   -7.4317185    840.16681  0.019540581  0.018898206           14 
 3584000   0.65556644   -7.4373615    839.50137  0.019519656  0.018892486           19 
 3585000   0.67846541   -7.4478775    838.31468  0.019486627  0.018886758           19 
 3586000   0.69502003   -7.4508835    837.03693    0.0194515   0.01888104           29 
 3587000   0.67071648   -7.4399493    838.67626  0.019484162  0.018875333            9 
 3588000   0.67210521    -7.445229    840.47799  0.019520578  0.018869645           25 
 3589000   0.67894613   -7.4368081    840.88212  0.019524522  0.018863944           20 
 3590000   0.67641844   -7.4512277    839.85261  0.019495186  0.018858243           18 
 3591000   0.67280391   -7.4332171    840.23452   0.01949862  0.018852533           43 
 3592000   0.67115603   -7.4712885    838.15296    0.0194449  0.018846825           40 
 3593000   0.67456187   -7.4140324    838.13407   0.01943905  0.018841104           40 
 3594000   0.67906446   -7.4329908    838.95202  0.019452607  0.018835385           42 
 3595000   0.66914742   -7.4269992    839.70706  0.019464698  0.018829673           33 
 3596000    0.6803132   -7.4440112    839.93902   0.01946466  0.018823968           20 
 3597000   0.69107652   -7.4415964      839.217  0.019442521  0.018818257           14 
 3598000   0.68143001   -7.4456563    839.95564  0.019454225  0.018812561           18 
 3599000   0.68445081   -7.4521477    838.79933  0.019422046  0.018806858           31 
 3600000   0.68738296   -7.4166712    836.96241   0.01937413  0.018801147           16 
 3601000   0.66558258   -7.4203562    838.13304   0.01939584   0.01879546           16 
 3602000   0.67376739   -7.4300853    839.69458  0.019426582  0.018789763           31 
 3603000   0.68215292   -7.4391642    839.32123  0.019412555  0.018784087           14 
 3604000    0.6780974   -7.4587758    838.65018  0.019391652  0.018778389           11 
 3605000   0.67774249   -7.4450374    839.30575  0.019401427  0.018772705           12 
 3606000   0.69014424   -7.4159917    840.39339  0.019421182  0.018767036           15 
 3607000    0.6858631   -7.4419117    838.68845  0.019376408  0.018761344            8 
 3608000   0.67302382   -7.4410631    838.32108  0.019362553   0.01875566           12 
 3609000   0.66750035   -7.4446322    838.53252   0.01936207  0.018749983           27 
 3610000   0.67148593   -7.4267551    840.26281  0.019396648  0.018744303           25 
 3611000   0.67181185   -7.4203475    840.57333  0.019398443   0.01873863           14 
 3612000   0.68225101   -7.4230023    839.75667  0.019374231  0.018732955           10 
 3613000   0.68116615   -7.4495937    839.76928  0.019369159  0.018727296           16 
 3614000   0.67075531   -7.4576629    839.44091  0.019356228  0.018721615           14 
 3615000    0.6702542   -7.4319286    840.30967  0.019370901  0.018715949            9 
 3616000   0.68502441   -7.4447502    839.08888   0.01933741  0.018710286           17 
 3617000   0.67576875    -7.435462    841.29209  0.019382824  0.018704632           13 
 3618000   0.66202572   -7.4560356    840.21301  0.019352612   0.01869898            7 
 3619000   0.67983715   -7.4306344    839.90144   0.01934009  0.018693326           13 
 3620000   0.68905759   -7.4438359    840.15251  0.019340527  0.018687669           14 
 3621000   0.66943257   -7.4379566    841.58556  0.019368166  0.018682014           17 
 3622000   0.67184352   -7.4470788    839.59442  0.019317008   0.01867638           26 
 3623000   0.67262834   -7.4476001    841.64175  0.019358767  0.018670744           13 
 3624000    0.6846412   -7.4526108    840.53657  0.019328012  0.018665102           11 
 3625000   0.67113113   -7.4436906      838.485  0.019275517  0.018659475           21 
 3626000     0.677615   -7.4434749    839.97093  0.019304351  0.018653846           15 
 3627000   0.65614099   -7.4567933    841.51211  0.019334439  0.018648213           20 
 3628000   0.67024641    -7.448482    841.53888  0.019329724   0.01864257           19 
 3629000   0.68007324    -7.434433    839.24984  0.019271834  0.018636946           17 
 3630000   0.67071944   -7.4266303    840.94462  0.019305432  0.018631317           21 
 3631000   0.67386277   -7.4364812    840.45375   0.01928885  0.018625701           21 
 3632000   0.66785813   -7.4561343    839.60167  0.019263988  0.018620069           15 
 3633000   0.66760104   -7.4387156    839.55854  0.019257697  0.018614446           23 
 3634000   0.68496425   -7.4395638    841.03516  0.019286258   0.01860883           16 
 3635000   0.66555675   -7.4377426     840.0189  0.019257655  0.018603209           22 
 3636000   0.67284484   -7.4108516    841.92652  0.019296079  0.018597585           28 
 3637000   0.69128809   -7.4343028    841.18533  0.019273791   0.01859198           22 
 3638000   0.66788505   -7.4554014    839.99217  0.019241162  0.018586378           32 
 3639000    0.6792529   -7.4360693    841.82089  0.019277752  0.018580761            6 
 3640000   0.65648475   -7.4744494    839.33977  0.019215654  0.018575155           25 
 3641000   0.66471348   -7.4489155    840.13214  0.019228512  0.018569541           16 
 3642000   0.66060784   -7.4376543    840.65277  0.019235145  0.018563935           10 
 3643000   0.66656714   -7.4382805    840.42512  0.019224657  0.018558318           13 
 3644000   0.65709902   -7.4487626     838.7071  0.019180093  0.018552701           12 
 3645000   0.67328409   -7.4687988    839.55281  0.019194166   0.01854708           18 
 3646000   0.67659574   -7.4377093    841.61534  0.019236043  0.018541472           23 
 3647000   0.65014022   -7.4718513    840.13838   0.01919702   0.01853586           19 
 3648000   0.66844155   -7.4551079    841.84995  0.019230856  0.018530242           18 
 3649000   0.65488253   -7.4615193    839.65843  0.019175537  0.018524619           27 
 3650000   0.67063909   -7.4721498    840.08869  0.019180107  0.018519002           20 
 3651000   0.64732473   -7.4392614    841.70144  0.019211664    0.0185134           19 
 3652000   0.66287869   -7.4390714    839.98828  0.019167312  0.018507815           20 
 3653000   0.66856772   -7.4563724    839.85068  0.019158926  0.018502205           15 
 3654000   0.66410939   -7.4583548     839.9942  0.019156956  0.018496596           20 
 3655000   0.66498285   -7.4502963    841.35696  0.019182785  0.018490988           12 
 3656000   0.64723856    -7.462187    839.33203  0.019131383  0.018485384            9 
 3657000   0.66056597   -7.4583631    841.50209  0.019175601  0.018479783           14 
 3658000   0.66211945   -7.4520123    841.47465  0.019169734  0.018474179           29 
 3659000   0.67120648     -7.45378    840.39164   0.01913983  0.018468564           20 
 3660000   0.66397866   -7.4510158    839.87122  0.019122751  0.018462965           23 
 3661000    0.6554381   -7.4391823    841.11749  0.019145896  0.018457379           17 
 3662000   0.65947958   -7.4444542    840.26531  0.019121275  0.018451778           31 
 3663000   0.66482074    -7.452088    839.62119  0.019101401  0.018446186           16 
 3664000   0.65676757   -7.4691033    841.52805  0.019139557  0.018440601           18 
 3665000   0.66419871   -7.4442605    840.26693   0.01910566  0.018435012           10 
 3666000   0.67557214   -7.4382462    839.40196  0.019080786  0.018429425           27 
 3667000   0.66576841    -7.425141    840.09766  0.019091393  0.018423847           13 
 3668000   0.66255877   -7.4480315    839.30206  0.019068113  0.018418255           20 
 3669000   0.65952445     -7.44186     839.9844  0.019078414  0.018412661           13 
 3670000   0.65916508   -7.4304694    841.21513  0.019101161  0.018407068           27 
 3671000   0.66135204    -7.435503    840.87208   0.01908817  0.018401501           40 
 3672000   0.66256158   -7.4489833    840.16528  0.019066932  0.018395916           23 
 3673000   0.67095431   -7.4457861    839.22397  0.019040384  0.018390336           26 
 3674000    0.6601607   -7.4306537    841.24353  0.019081009  0.018384757           20 
 3675000   0.66236815   -7.4390525    841.20122  0.019074858  0.018379166            9 
 3676000   0.66863872   -7.4542835    840.24389  0.019047966  0.018373589           20 
 3677000   0.66243579   -7.4409809    841.22925  0.019065118  0.018368016           17 
 3678000   0.65368578   -7.4530182    841.15624   0.01905828  0.018362456           37 
 3679000   0.65503517   -7.4507414    841.85019  0.019068818  0.018356897           27 
 3680000   0.66126278   -7.4601764    840.75348  0.019038802  0.018351332           23 
 3681000   0.66095002   -7.4486512    839.99122  0.019016373  0.018345771           28 
 3682000   0.65894465   -7.4592943    839.56554  0.019001574  0.018340189           31 
 3683000   0.65503434   -7.4700695    840.72353  0.019022616  0.018334615           18 
 3684000   0.66455735   -7.4629062    841.21233  0.019028509  0.018329037           19 
 3685000   0.67117181   -7.4490065    840.52501  0.019007802  0.018323477           42 
 3686000   0.66638265   -7.4502542    840.68689  0.019006305  0.018317903           12 
 3687000   0.66237484   -7.4638066    840.48282  0.018996538  0.018312339           10 
 3688000    0.6659782   -7.4318775    842.70223  0.019041536  0.018306791           10 
 3689000   0.65637497   -7.4709969    840.69051  0.018990931  0.018301247           35 
 3690000   0.65097644   -7.4579434    840.85416   0.01898948  0.018295682           23 
 3691000   0.66341901    -7.458689    841.80063  0.019005704   0.01829011           18 
 3692000   0.65563714   -7.4647687    841.52053  0.018994234  0.018284541           15 
 3693000   0.66492905   -7.4437121     841.9372  0.018998493  0.018278975           20 
 3694000   0.65413578   -7.4568683     841.6847  0.018987653  0.018273426           17 
 3695000   0.66154223   -7.4473998    841.86752  0.018986638   0.01826789           19 
 3696000   0.66972721   -7.4776424     840.7398  0.018956074  0.018262346           25 
 3697000   0.64811833   -7.4652924    840.62744  0.018948414  0.018256788            7 
 3698000   0.66567966    -7.444222    840.22118  0.018934135  0.018251239            7 
 3699000   0.66738179   -7.4512235    840.43293  0.018933787   0.01824569            8 
 3700000   0.65009545   -7.4501188    840.30914  0.018925881  0.018240144            7 
 3701000   0.66281397   -7.4455442    840.51061  0.018925304  0.018234605           12 
 3702000   0.64120345   -7.4286846    840.02662  0.018909297  0.018229072           11 
 3703000   0.65440296    -7.480468    840.38088  0.018912163  0.018223515           14 
 3704000   0.65036938   -7.4369486    842.37102  0.018951832  0.018217967           22 
 3705000   0.66075705   -7.4608836    840.20256  0.018897943  0.018212417           12 
 3706000   0.64191252   -7.4419844    841.53833   0.01892288   0.01820686           13 
 3707000   0.66586762   -7.4422219     839.0778  0.018862463  0.018201316           17 
 3708000   0.66236705   -7.4488827     841.3454  0.018908338   0.01819578           13 
 3709000    0.6545151   -7.4549577     842.7926  0.018935755  0.018190237           11 
 3710000   0.64673425   -7.4675706     843.6223  0.018949288  0.018184721            9 
 3711000   0.66958971    -7.431084    842.99909  0.018930187  0.018179193           12 
 3712000   0.65573972   -7.4837755    841.33433  0.018887714  0.018173685           14 
 3713000   0.65399484   -7.4303701    840.18212  0.018856767  0.018168163           14 
 3714000   0.65896098   -7.4601903    840.63998  0.018861963   0.01816264           16 
 3715000   0.65138402   -7.4659748    841.11194  0.018867473  0.018157114           14 
 3716000   0.65864046   -7.4525942    841.60672  0.018873491  0.018151583           11 
 3717000   0.64196238   -7.4599458    841.80665  0.018872896  0.018146048           13 
 3718000   0.66569389   -7.4875159     842.5098   0.01888358  0.018140513           25 
 3719000   0.66159521   -7.4528483    841.34655  0.018852437  0.018134991           13 
 3720000   0.65217062   -7.4796992    840.33104   0.01882462   0.01812947           37 
 3721000   0.65462239   -7.4683286    840.74323  0.018828792  0.018123943           41 
 3722000   0.65194528   -7.4706599    842.35608  0.018859844  0.018118418           28 
 3723000   0.64808028   -7.4794275    841.25121  0.018830048  0.018112903           49 
 3724000   0.64826652    -7.454636    840.79907  0.018814873  0.018107378           31 
 3725000   0.66067466   -7.4705417    842.30411  0.018843492  0.018101858           16 
 3726000   0.64634626    -7.472229    842.02883  0.018832278  0.018096338           27 
 3727000   0.65013007   -7.4767685    841.13012  0.018807131  0.018090815           30 
 3728000   0.65473858    -7.459209    841.28931  0.018805644  0.018085291            9 
 3729000   0.65896137    -7.448883    841.93285  0.018814983  0.018079785           33 
 3730000   0.64054467   -7.4381983    841.04376  0.018790075  0.018074283           31 
 3731000   0.65093788   -7.4596216      840.519  0.018773318  0.018068765           24 
 3732000   0.65869801   -7.4828844    843.40825  0.018832803  0.018063247           24 
 3733000   0.64988747   -7.4806483    841.18406  0.018778107  0.018057725           30 
 3734000   0.64791081   -7.4544447      841.578  0.018781869  0.018052188           26 
 3735000    0.6603658   -7.4909699    840.22928  0.018746749  0.018046647           21 
 3736000   0.66011805   -7.4990022    840.86822  0.018755983  0.018041093           27 
 3737000   0.65060598   -7.4814512    841.07549  0.018755586  0.018035556           34 
 3738000   0.64411154   -7.4905263    840.48037  0.018737301  0.018030017           21 
 3739000   0.66460105   -7.4674438    839.58629  0.018712363  0.018024487           23 
 3740000   0.65464153   -7.4790085    841.46702  0.018749265  0.018018961           19 
 3741000   0.66019995   -7.4973042    839.93628  0.018710155  0.018013425           19 
 3742000    0.6515794   -7.4871551    838.56981  0.018674724   0.01800788           18 
 3743000   0.65881775   -7.4622324    840.74098  0.018718073  0.018002353           24 
 3744000   0.64263725   -7.5050513    839.07168  0.018675919  0.017996819           30 
 3745000   0.64384379   -7.4842902    840.37749  0.018699989  0.017991294           37 
 3746000    0.6514547   -7.4891901    839.58668  0.018677404  0.017985756           18 
 3747000   0.65161304    -7.478987    840.03063  0.018682293  0.017980218           24 
 3748000   0.64830648   -7.4939501    839.77666  0.018671662  0.017974692           30 
 3749000   0.64502254   -7.4758334     841.7103  0.018709663  0.017969175           20 
 3750000   0.65619341   -7.4539836    840.42779  0.018676173  0.017963654           15 
 3751000   0.65731675   -7.5063028    839.86089    0.0186586  0.017958137           14 
 3752000   0.64764756   -7.4852339    840.77629  0.018673958  0.017952623           19 
 3753000   0.65570701   -7.5001855    840.49387  0.018662711  0.017947102           10 
 3754000   0.65253024   -7.4867366    840.67141  0.018661681  0.017941577           11 
 3755000   0.65647935   -7.5082314    839.40551  0.018628618  0.017936045           24 
 3756000   0.65573069   -7.5043817    841.13729   0.01866208  0.017930521           22 
 3757000    0.6586635   -7.4979259    838.03169  0.018588228  0.017924989           13 
 3758000   0.64735295   -7.5118506    839.60235  0.018618111  0.017919445           19 
 3759000   0.64797466   -7.5192433    838.83472  0.018596141  0.017913898           16 
 3760000   0.63875945   -7.4939541    840.06518  0.018618466  0.017908359           12 
 3761000   0.64353697   -7.5036589    840.40044  0.018620944  0.017902821           22 
 3762000   0.65103264   -7.5224811    840.04397  0.018608098  0.017897287           19 
 3763000   0.64311644   -7.5027496    839.81914  0.018598174  0.017891762           18 
 3764000   0.65471113   -7.4718585    840.52387  0.018608835  0.017886243           35 
 3765000   0.65318318   -7.5067342    839.28686  0.018576513  0.017880728           29 
 3766000   0.64764953    -7.493125    841.31316  0.018616418  0.017875206           16 
 3767000   0.64786776   -7.5149598    839.48318  0.018570993  0.017869685           13 
 3768000   0.64293601    -7.523445    841.14574  0.018602834  0.017864177           21 
 3769000   0.64583227   -7.4672122    841.51293  0.018606017  0.017858684           22 
 3770000    0.6426986   -7.4861403    841.35069  0.018597495  0.017853207           27 
 3771000    0.6463779   -7.4988839    839.85727  0.018559561  0.017847726           19 
 3772000   0.66594981   -7.4879487    842.95342  0.018623043  0.017842245           22 
 3773000   0.64734603   -7.4860618    841.20777  0.018579551  0.017836769           20 
 3774000   0.64952627   -7.4753265     840.0757  0.018549631  0.017831294           25 
 3775000   0.63770611   -7.4927991    840.29167  0.018549485  0.017825803           48 
 3776000   0.66239055   -7.4892491    839.74576  0.018532525  0.017820333           10 
 3777000   0.65887069   -7.4893575    841.74581  0.018571746  0.017814873            7 
 3778000   0.64993604   -7.4790785    841.10437  0.018552682  0.017809401           15 
 3779000   0.64963916   -7.4837611     840.6922  0.018538683  0.017803921            9 
 3780000   0.64576317   -7.4898603    840.76445  0.018535371  0.017798446           11 
 3781000   0.65223235   -7.4956288     841.0594   0.01853697  0.017792969           17 
 3782000   0.64505032   -7.4984676    840.40898  0.018517737  0.017787503           14 
 3783000   0.64322268   -7.4988709    842.67262  0.018562706  0.017782041           14 
 3784000   0.63331396   -7.4879472    841.56866  0.018533489  0.017776571           17 
 3785000    0.6432493   -7.4907378    840.02598  0.018494627  0.017771104           13 
 3786000   0.66101213   -7.5097361    840.54419  0.018501149  0.017765629           28 
 3787000   0.63874079   -7.4953894    838.86022  0.018459207  0.017760161           10 
 3788000   0.64389419   -7.4855678    840.56724  0.018491888  0.017754707           23 
 3789000   0.65460899   -7.4951473    839.73348   0.01846867  0.017749252           14 
 3790000   0.63933763   -7.4807336    841.05328  0.018492816  0.017743795           11 
 3791000   0.65395386   -7.4937589    838.74638  0.018437228  0.017738329           14 
 3792000   0.65484179   -7.5301565    840.73421  0.018476051  0.017732859           21 
 3793000    0.6395845   -7.4959038    839.79255  0.018450491  0.017727383           22 
 3794000   0.65251664    -7.482502    840.35251  0.018457927  0.017721919           23 
 3795000   0.65483697     -7.48954    841.59969   0.01848045  0.017716477           20 
 3796000   0.62836943   -7.4994533    840.66102  0.018454975  0.017711027           20 
 3797000   0.65276811   -7.4814428    840.34345  0.018443145  0.017705573           19 
 3798000   0.63736613   -7.5084552    839.43864  0.018418436  0.017700124           18 
 3799000   0.65081261   -7.5223274    840.90437   0.01844574  0.017694668           25 
 3800000   0.64027491   -7.4882202    842.70277  0.018480324  0.017689214           23 
 3801000   0.63841722   -7.4950847    841.33022   0.01844537  0.017683768            9 
 3802000   0.64392446   -7.5236176    839.81605   0.01840733  0.017678321           24 
 3803000   0.63874475   -7.5175163    838.06553  0.018364132  0.017672854           40 
 3804000   0.64361684   -7.5107028    841.49706  0.018434478  0.017667386           18 
 3805000   0.64291203   -7.5100533    838.18521  0.018357101  0.017661918           12 
 3806000   0.63492191     -7.51278    839.24422  0.018375465  0.017656435           33 
 3807000   0.63935522   -7.5165082    840.23845  0.018392401  0.017650962           37 
 3808000   0.62915772   -7.5104389    842.05054  0.018427226  0.017645498           19 
 3809000   0.62082889   -7.5332102     840.2541  0.018383086  0.017640032           21 
 3810000   0.64686663   -7.5045647    840.17398  0.018376509  0.017634562           21 
 3811000   0.63584314   -7.5235351    840.82152  0.018385846  0.017629109           14 
 3812000   0.63904034   -7.5008455    841.08618  0.018386809   0.01762367           26 
 3813000   0.63835436   -7.5099143    842.00663  0.018402103  0.017618233           17 
 3814000   0.66545109   -7.5079391    840.15204  0.018356757  0.017612796           23 
 3815000   0.65313382   -7.5153696    838.33354  0.018312222   0.01760736           24 
 3816000   0.64279574   -7.5283717    839.20012  0.018326348  0.017601917           20 
 3817000   0.63394338   -7.5219767    838.44508  0.018305063   0.01759648           15 
 3818000   0.64584138   -7.4931797    840.23493  0.018339334  0.017591049           14 
 3819000   0.65128378   -7.5135416    840.97564  0.018350695  0.017585612           20 
 3820000   0.65321094   -7.5127138    840.29266  0.018330992  0.017580174           17 
 3821000   0.62856238   -7.5189742    841.70136  0.018356917  0.017574742           14 
 3822000   0.62613237   -7.5198085    839.76576  0.018309911    0.0175693           14 
 3823000   0.63879247   -7.5083569    840.12424  0.018312936  0.017563852           11 
 3824000   0.63524742   -7.5155585     839.8596   0.01830238  0.017558412            9 
 3825000      0.62437   -7.4984953    839.15096  0.018282156  0.017552983           13 
 3826000   0.64396197   -7.5099463     840.8255   0.01831385  0.017547548           22 
 3827000   0.63734394   -7.5040257    840.16958  0.018294782  0.017542117           13 
 3828000   0.64835017   -7.5116384    841.61612  0.018321493  0.017536698           23 
 3829000   0.63800265   -7.5043823    841.33712  0.018310636  0.017531265           18 
 3830000   0.65357656   -7.5329125    841.35343   0.01830621  0.017525832           15 
 3831000   0.63582334   -7.5140628    841.32164   0.01830074  0.017520417           13 
 3832000   0.62853408   -7.5322579    839.15691  0.018248889  0.017514983           14 
 3833000   0.63464189   -7.5299982     840.2402   0.01826768  0.017509561           16 
 3834000   0.63482131   -7.5289967    840.29557  0.018264119  0.017504136           20 
 3835000   0.63891859   -7.5037251     840.3211  0.018259911   0.01749871           23 
 3836000   0.65618912   -7.5274649    840.66015  0.018262516  0.017493291           21 
 3837000   0.63816975   -7.5059607     840.4689  0.018253603  0.017487876           22 
 3838000   0.64209863   -7.4948042    840.63626  0.018252481  0.017482464            9 
 3839000   0.63315824   -7.4991584    839.82567  0.018230131  0.017477067           15 
 3840000   0.62046211   -7.4988263      840.206  0.018233637  0.017471659            5 
 3841000   0.64207878   -7.5221582    839.42115  0.018211862  0.017466247           10 
 3842000   0.64650993   -7.5166939    841.88306  0.018260521  0.017460843           17 
 3843000   0.64019994   -7.5150443    842.08045   0.01826005  0.017455453           10 
 3844000   0.62334518   -7.5104144    840.84335  0.018228481  0.017450054           11 
 3845000   0.62610703   -7.5313845      840.955   0.01822616  0.017444649           31 
 3846000   0.63831638   -7.5262351    840.96024  0.018221534  0.017439253           15 
 3847000   0.64170272    -7.525522    840.02869  0.018196618  0.017433839           16 
 3848000   0.63710642   -7.5165853    840.26444  0.018196995  0.017428439           24 
 3849000   0.62274462   -7.5254489    839.99164  0.018186361  0.017423035           27 
 3850000   0.64685235   -7.5238669    840.19855  0.018186116  0.017417624           22 
 3851000   0.63619532   -7.5280996    839.80422   0.01817286  0.017412212           39 
 3852000   0.63488173   -7.5020279    839.68573  0.018165579  0.017406808           15 
 3853000   0.63263448   -7.5243061    840.02733  0.018168253  0.017401392           27 
 3854000   0.63984575   -7.5137605    840.69537  0.018177983  0.017395992           24 
 3855000   0.64204729   -7.5264025     840.0696  0.018159741  0.017390599           14 
 3856000   0.63143423   -7.5171239    839.44464  0.018141525  0.017385205           17 
 3857000   0.65081548   -7.4999247    838.99461  0.018127098  0.017379813           13 
 3858000    0.6440356   -7.5309778      839.907  0.018142107  0.017374415            7 
 3859000   0.64277568   -7.5430929    840.55197  0.018151334  0.017369027           10 
 3860000   0.63759428   -7.5271009     841.4069  0.018165089  0.017363642           15 
 3861000   0.62300904   -7.5326674    839.57737  0.018120896  0.017358253           16 
 3862000   0.63063717   -7.5257287    840.77938  0.018142141  0.017352867           18 
 3863000   0.61793628   -7.5244689     841.4163  0.018151184  0.017347496           12 
 3864000   0.63835321   -7.5338115    839.60237  0.018107367  0.017342114           13 
 3865000   0.64028763   -7.5287285    841.01236  0.018133082  0.017336738            9 
 3866000   0.63097963    -7.539497    840.11873  0.018109129  0.017331367           19 
 3867000   0.63603457   -7.5332881    839.28208  0.018086417  0.017325994           11 
 3868000   0.62798865   -7.5090085    841.21556  0.018123396  0.017320621            8 
 3869000   0.62526656   -7.5184947    840.38959  0.018100922  0.017315246           15 
 3870000   0.64211128   -7.5355678     840.0559  0.018089059  0.017309873            8 
 3871000   0.61261714   -7.5357997    840.55818  0.018095199  0.017304496           11 
 3872000    0.6335541   -7.5247458    840.62006  0.018091857  0.017299126            6 
 3873000   0.63470052   -7.5200727    840.34228  0.018081209  0.017293757           11 
 3874000   0.62795031   -7.5295274    839.57433  0.018060023  0.017288386           10 
 3875000   0.64311195   -7.5297724    840.70305  0.018079635  0.017283012           13 
 3876000   0.62467904   -7.5236356    839.67307  0.018052826  0.017277661           10 
 3877000   0.63568867     -7.50831    841.69404   0.01809161  0.017272319           19 
 3878000   0.61027179   -7.5150846    840.18142   0.01805444  0.017266969           10 
 3879000   0.64284824   -7.5305998    840.12812   0.01804864  0.017261627           16 
 3880000   0.63994412   -7.5060449    838.63642  0.018011951  0.017256287            9 
 3881000   0.63044387   -7.5232392     839.8661  0.018033713  0.017250935           13 
 3882000   0.63176981   -7.5548598    840.48348  0.018042321  0.017245593           12 
 3883000   0.63502346    -7.525015    841.64892  0.018062686  0.017240242           25 
 3884000   0.64137127   -7.5361053     841.1596  0.018047537  0.017234899           13 
 3885000    0.6468147   -7.5254522    839.94012  0.018016734  0.017229555           34 
 3886000   0.63510067   -7.5630169    840.57796  0.018025775  0.017224208           23 
 3887000   0.63009356   -7.5121065    840.91845  0.018028438  0.017218863           15 
 3888000   0.62960135   -7.5419106    841.35729  0.018033207  0.017213529           21 
 3889000    0.6375073    -7.527336    841.01001  0.018021128  0.017208215           25 
 3890000    0.6254787   -7.5493563    839.60992  0.017986502  0.017202891           24 
 3891000   0.63778712    -7.545113    841.74761  0.018027662  0.017197565           19 
 3892000   0.63942672   -7.5464717    841.40885  0.018015777  0.017192234           18 
 3893000   0.62904583    -7.521252    841.36206  0.018010148  0.017186908           40 
 3894000   0.61646043   -7.5421173    841.19091   0.01800186  0.017181594           18 
 3895000   0.62583968   -7.5138077    843.07405  0.018037528  0.017176282           20 
 3896000   0.61694126   -7.5404475    841.35772  0.017996187  0.017170963           25 
 3897000    0.6259317   -7.5212039     840.6395   0.01797621  0.017165652           13 
 3898000   0.62244886   -7.5241372    841.46963  0.017989346  0.017160344           21 
 3899000   0.63249693   -7.5260844    839.42712  0.017941077  0.017155026           26 
 3900000   0.63921822   -7.5264514    839.32906  0.017934382  0.017149704           24 
 3901000   0.62639933   -7.5511655    840.45931  0.017953929  0.017144386           17 
 3902000   0.62481945   -7.5284945    841.42674  0.017969989  0.017139076           25 
 3903000    0.6280336   -7.5380835    839.35653  0.017921183  0.017133765           25 
 3904000   0.61378507   -7.5302123    840.46147  0.017940178  0.017128454           28 
 3905000   0.61808671   -7.5359868    838.33569   0.01789022  0.017123141           30 
 3906000   0.61995427   -7.5485305    839.75395  0.017915898  0.017117842           48 
 3907000   0.62913339    -7.531486    840.86958  0.017935107  0.017112537           33 
 3908000   0.62306029   -7.5109483    840.83295  0.017929737   0.01710725           28 
 3909000   0.62779146    -7.521925     841.5787  0.017941048  0.017101955           57 
 3910000   0.63403738    -7.527864    841.14237  0.017927161  0.017096652           28 
 3911000   0.63076028   -7.5266462    839.66717  0.017891144  0.017091344           40 
 3912000   0.63465003   -7.5218724    840.51419  0.017904614  0.017086048           14 
 3913000   0.62920242   -7.5443247    840.60068   0.01790188  0.017080765           31 
 3914000   0.61855374    -7.515003    841.33989  0.017913045  0.017075471           17 
 3915000   0.62084533   -7.5257146    842.55029  0.017934234  0.017070193           19 
 3916000   0.63437725   -7.5080392    840.62559  0.017888696  0.017064901           35 
 3917000   0.62435304    -7.545532    839.96534  0.017870082  0.017059617           39 
 3918000   0.62994964   -7.5337959    840.48732  0.017876623  0.017054331           14 
 3919000   0.62778873   -7.5206688    841.43663  0.017892248  0.017049056           23 
 3920000   0.62917606   -7.5348278    840.02569  0.017857689  0.017043776           20 
 3921000   0.63378119   -7.5445784    841.30951   0.01788042  0.017038489           32 
 3922000   0.63622325   -7.5460195    841.14091  0.017872278  0.017033209           43 
 3923000    0.6239087   -7.5420296    839.56533  0.017834254  0.017027923           77 
 3924000   0.61961396   -7.5326783    840.68159  0.017853415  0.017022631           32 
 3925000     0.615703   -7.5349183    840.84661   0.01785237  0.017017346           25 
 3926000   0.61291171   -7.5333603    840.54801  0.017841484  0.017012057           19 
 3927000    0.6349218   -7.5268789    840.51512  0.017836243   0.01700677           22 
 3928000   0.62903754   -7.5444868    840.10625  0.017823028   0.01700148           25 
 3929000   0.63248256   -7.5498451    840.07892  0.017817912  0.016996186           18 
 3930000   0.63417485   -7.5571389    840.52028  0.017822737  0.016990905           38 
 3931000   0.61506507   -7.5358758    842.06625  0.017850976  0.016985619           27 
 3932000    0.6190169   -7.5405461    840.21883  0.017807283  0.016980339           14 
 3933000    0.6065205    -7.545778    839.32879  0.017783897  0.016975044           16 
 3934000   0.63648568   -7.5593283    839.41922  0.017781292  0.016969766           19 
 3935000   0.62652861   -7.5351336    841.80633  0.017827326  0.016964493           17 
 3936000   0.63603675   -7.5383342    841.04739  0.017806728  0.016959223           17 
 3937000   0.63101726   -7.5522055    840.49353  0.017790482  0.016953949           16 
 3938000   0.62919598   -7.5767337    839.17209  0.017758001  0.016948674           20 
 3939000   0.61993568   -7.5661684    839.63699  0.017763328  0.016943398           24 
 3940000   0.63021459   -7.5234829    839.86391  0.017763619  0.016938126           11 
 3941000   0.62799337    -7.554925    838.97539  0.017740324  0.016932846           36 
 3942000   0.60961834   -7.5494246    839.30741  0.017742842  0.016927565           13 
 3943000   0.61587161   -7.5558247    841.10088  0.017776246   0.01692229           11 
 3944000   0.62123879   -7.5329972    840.96695  0.017768909  0.016917018           25 
 3945000   0.62167963   -7.5483093    839.02069  0.017723293  0.016911751           26 
 3946000    0.6293195   -7.5641501    839.32636  0.017725257  0.016906487           36 
 3947000   0.63213686   -7.5447536    840.03454  0.017735718  0.016901236           13 
 3948000   0.62520553   -7.5558389    838.94357  0.017708198  0.016895978           14 
 3949000   0.61426703    -7.561572     839.6028  0.017717625  0.016890718           14 
 3950000   0.63128237   -7.5624075    839.78984  0.017717085  0.016885465           12 
 3951000   0.61816909   -7.5487942    841.35014   0.01774551  0.016880211           13 
 3952000   0.61782135   -7.5657496    839.87258  0.017709864  0.016874956           13 
 3953000   0.61822741    -7.572502    841.12876  0.017731865  0.016869705           14 
 3954000   0.61738878    -7.582496    841.14099  0.017727638  0.016864445           12 
 3955000    0.6187108   -7.5460731    840.24526  0.017704283  0.016859196           15 
 3956000   0.61983497   -7.5721662    841.47761  0.017725767  0.016853943           14 
 3957000   0.62549969   -7.5663121    840.48183  0.017700316  0.016848697           12 
 3958000   0.62843758   -7.5681241     839.8045  0.017681584  0.016843452           17 
 3959000    0.6287461   -7.5688993    839.77169  0.017676427  0.016838202           19 
 3960000   0.61213093    -7.556204    840.64816  0.017690407  0.016832954           12 
 3961000   0.61385479   -7.5384591     841.4741  0.017703318  0.016827711           16 
 3962000   0.62802116   -7.5628041    839.37837   0.01765477  0.016822467           24 
 3963000   0.62082226   -7.5598613    841.75896  0.017700374  0.016817228           14 
 3964000   0.60762736   -7.5731059    840.92647  0.017678407  0.016811985           16 
 3965000   0.60255036   -7.5809384    840.50256  0.017665039  0.016806757           22 
 3966000   0.61153407   -7.5680398    840.91546  0.017669261  0.016801535           13 
 3967000   0.60991216   -7.5670482    841.55649  0.017678273  0.016796312           23 
 3968000   0.62118815   -7.5519164    839.54453  0.017631564   0.01679109           24 
 3969000    0.6107546   -7.5339302    841.82428  0.017674987   0.01678588           31 
 3970000   0.60603488   -7.5536247    840.55682   0.01764393  0.016780673           19 
 3971000   0.62004502   -7.5848292    840.18576    0.0176317  0.016775454           55 
 3972000   0.61207311   -7.5724438    840.91157  0.017642489  0.016770244           16 
 3973000   0.62258009   -7.5482527    842.29291  0.017667021  0.016765035           32 
 3974000   0.63427046   -7.5556195    841.68543  0.017649837  0.016759835           23 
 3975000   0.61022077   -7.5767498    841.82408  0.017648303  0.016754631           15 
 3976000   0.62145238   -7.5586289    840.14389   0.01760865  0.016749425           33 
 3977000   0.60828118   -7.5745921    841.99587  0.017643028  0.016744231           21 
 3978000   0.61052786   -7.5840712    840.78739  0.017613277   0.01673903           15 
 3979000   0.62976577   -7.5563221    841.14481  0.017616336  0.016733839           23 
 3980000   0.60514241   -7.5821219    840.73742   0.01760338  0.016728658           43 
 3981000   0.61172218   -7.5453827    841.97449  0.017624853  0.016723481           24 
 3982000   0.60396099    -7.546422    843.23719  0.017646852  0.016718309           13 
 3983000   0.62433334   -7.5664643    840.59498  0.017587141  0.016713125           21 
 3984000    0.6013939   -7.5605328    841.97758  0.017611646  0.016707939           20 
 3985000   0.61518083   -7.5576009    839.73685  0.017560369   0.01670276           21 
 3986000   0.60997159   -7.5479886    841.00564   0.01758249  0.016697568           23 
 3987000   0.62367161    -7.557892    842.54971  0.017610353  0.016692387           12 
 3988000    0.6101148   -7.5738688    839.99475  0.017552548    0.0166872           33 
 3989000   0.60698449   -7.5671884    840.79442  0.017564854  0.016682008           30 
 3990000   0.61745023   -7.5718143    841.64158  0.017578145  0.016676816           23 
 3991000   0.61071601   -7.5637009    838.01332  0.017497981  0.016671641           30 
 3992000   0.62222317   -7.5305923     839.5648  0.017525985  0.016666474           21 
 3993000   0.60139568   -7.5684938     839.2586  0.017515206  0.016661297           20 
 3994000   0.60648023   -7.5524639    843.13186  0.017591634   0.01665613           15 
 3995000   0.60385669   -7.5701266    840.83513  0.017539323  0.016650957           20 
 3996000   0.62115674   -7.5639389    840.98301  0.017538017  0.016645786           28 
 3997000   0.62526408   -7.5615868    839.11047  0.017494589  0.016640628           31 
 3998000   0.62671509   -7.5744681    840.68071  0.017522943  0.016635468           17 
 3999000    0.6215009   -7.5672096    839.78491  0.017499894  0.016630289           20 
 4000000   0.61167531   -7.5589429    842.42922  0.017550609   0.01662512           22 
 4001000   0.62448962   -7.5798276    841.37163  0.017524195  0.016619952           19 
 4002000   0.61910232   -7.5653707    840.80098  0.017507933  0.016614781           17 
 4003000   0.60509783   -7.5794002    839.96142  0.017486082  0.016609611           11 
 4004000   0.60463779   -7.5793667    839.84636   0.01747932  0.016604443           18 
 4005000   0.60370334   -7.5474993     841.2028  0.017503179  0.016599276           32 
 4006000   0.61419209   -7.5668853    841.76711  0.017510549  0.016594115           13 
 4007000    0.6149601   -7.5724592    841.95213  0.017510027  0.016588956           18 
 4008000   0.61093782   -7.5803154     839.6795  0.017458406  0.016583792           39 
 4009000   0.60562885   -7.5708431    840.23069  0.017465509  0.016578632           18 
 4010000   0.59880325   -7.5885743    840.78529  0.017472678   0.01657348           22 
 4011000   0.61279834   -7.5759398    841.40269   0.01748115  0.016568321           26 
 4012000     0.614753   -7.5910378    841.97574  0.017488695  0.016563171           25 
 4013000   0.59859765   -7.5730006    840.87565  0.017461493  0.016558028           18 
 4014000   0.61891557   -7.5492718     842.0363  0.017481239  0.016552887           17 
 4015000   0.60127844   -7.5573226     839.9777  0.017434157   0.01654775           14 
 4016000   0.61132573   -7.5646144    840.85155  0.017447949  0.016542615           18 
 4017000   0.61275357   -7.5798927    840.22037  0.017430511  0.016537483           13 
 4018000   0.60645244   -7.5731568    841.06835   0.01744376  0.016532367           17 
 4019000   0.60992615   -7.5618148    841.16047   0.01744133  0.016527242           30 
 4020000   0.60146678    -7.582758    842.47152  0.017464169   0.01652213           20 
 4021000   0.61286076   -7.5450546    839.84715  0.017405437  0.016517024           19 
 4022000    0.5957313   -7.5797821    842.59081  0.017457956  0.016511913           17 
 4023000   0.60523284   -7.5702788    841.62992  0.017433713  0.016506808           13 
 4024000   0.59861254   -7.5449374    842.77321  0.017453057  0.016501709           10 
 4025000   0.60148262   -7.5634093    840.17393  0.017394905  0.016496608           17 
 4026000   0.60250149   -7.5735698    840.81179  0.017403788  0.016491505           14 
 4027000   0.59740373   -7.5609539    840.17322  0.017386252  0.016486388           23 
 4028000   0.60442472   -7.5606063    841.68685   0.01741325  0.016481275           13 
 4029000   0.60440274   -7.5661342    840.82343   0.01739107  0.016476162           21 
 4030000    0.6146222   -7.5656927    841.48701  0.017400476  0.016471051           20 
 4031000   0.61351614   -7.5867588    841.86297  0.017403931   0.01646594           16 
 4032000   0.60220612   -7.5803373    841.73483  0.017396967   0.01646083           23 
 4033000   0.58971009   -7.5804746    841.58539  0.017389565  0.016455711           19 
 4034000   0.60803977    -7.573908    840.95048  0.017372139  0.016450591           21 
 4035000   0.62270252   -7.5873564    841.01115  0.017369086  0.016445481           51 
 4036000   0.60934703   -7.5731195    842.45614  0.017394618  0.016440382           28 
 4037000   0.60682487   -7.5787255    840.16957  0.017343109  0.016435285           14 
 4038000   0.60657426   -7.5768449    842.06798  0.017377992  0.016430188           29 
 4039000   0.60716907   -7.5864278    840.87127  0.017348999  0.016425095           24 
 4040000   0.60263503   -7.5786123    839.74218  0.017321415  0.016419993           20 
 4041000   0.60209542    -7.560939    840.92279  0.017341475  0.016414887           36 
 4042000   0.60897899   -7.6025104     841.9006  0.017357344  0.016409782           24 
 4043000   0.60835015   -7.5568296    839.89094  0.017311628  0.016404674           11 
 4044000   0.60590101   -7.5814423     839.0269  0.017289542  0.016399578           44 
 4045000   0.59763934   -7.5648803    840.38038  0.017313152  0.016394481           31 
 4046000   0.60246055   -7.5762442    841.95565  0.017341317  0.016389377           32 
 4047000   0.61408365   -7.5835863    840.35682   0.01730411  0.016384281           14 
 4048000   0.60879474   -7.5791604    840.50391  0.017302864   0.01637919           22 
 4049000   0.61368408   -7.5828132     840.1943  0.017292218  0.016374108           28 
 4050000   0.61099967   -7.5713616    840.67922  0.017297926  0.016369027           19 
 4051000   0.60068237    -7.580715    840.30703     0.017286  0.016363944           29 
 4052000   0.59788496   -7.6011832     840.5124  0.017285958  0.016358863           25 
 4053000   0.60665284   -7.5686211    842.50364  0.017322634  0.016353774           13 
 4054000   0.59781091   -7.5807102    841.64472  0.017300705  0.016348695           20 
 4055000   0.60103182   -7.5606772    840.37842  0.017270415  0.016343613           27 
 4056000   0.60973486   -7.5809651    841.34642  0.017286046  0.016338529           18 
 4057000   0.60290127   -7.5699422     841.5543  0.017286055  0.016333452           31 
 4058000   0.61102941    -7.567653     842.0816  0.017292624  0.016328388           15 
 4059000   0.60777671   -7.5752875    840.73933  0.017260806  0.016323325           19 
 4060000   0.59642719   -7.5803476    841.21748  0.017266369  0.016318261           18 
 4061000   0.60207804   -7.5645217    840.30214  0.017243334  0.016313205           14 
 4062000   0.59751151    -7.573625    840.29376  0.017238917   0.01630816           18 
 4063000   0.59813431   -7.5604274     840.8048  0.017245156  0.016303104           18 
 4064000   0.58658057    -7.549571    840.43778  0.017233386  0.016298044           20 
 4065000   0.60257713   -7.5781108    840.83234  0.017237235  0.016292985           18 
 4066000   0.59308244    -7.587635    839.78376  0.017211505  0.016287919           11 
 4067000   0.59898916    -7.569153    840.61164  0.017224237  0.016282849           23 
 4068000   0.60593988    -7.575462     840.7808  0.017223468  0.016277778           14 
 4069000   0.60410863   -7.5703281    841.23236  0.017228483  0.016272718           21 
 4070000   0.59603911   -7.5797199     841.1328  0.017222211  0.016267663            8 
 4071000   0.59686926   -7.5726286     839.5095  0.017184752  0.016262608           10 
 4072000   0.59949256   -7.5604435    841.24776  0.017216105  0.016257554           11 
 4073000   0.60488824   -7.5953478    841.12563  0.017209379  0.016252496           11 
 4074000   0.60911608   -7.5848008    840.63995  0.017195221  0.016247427           21 
 4075000   0.58299819   -7.5947253    839.85831  0.017175017  0.016242355           32 
 4076000   0.58938479   -7.6021989    839.50349  0.017163549  0.016237283           30 
 4077000   0.60699425   -7.6083274    840.43149  0.017178307  0.016232214           22 
 4078000   0.60491684    -7.589854    840.65832   0.01717873  0.016227147           11 
 4079000   0.59239266   -7.5823963    841.31859  0.017188007  0.016222092            8 
 4080000   0.59022358   -7.6270812    840.15876  0.017160105  0.016217017           16 
 4081000   0.60628681   -7.6049476    839.69226  0.017146375  0.016211941           10 
 4082000   0.59596893   -7.6153888    840.58032  0.017160304  0.016206888           13 
 4083000   0.60000046   -7.5950881    841.87147  0.017182453  0.016201838           10 
 4084000    0.5971679   -7.5929348    840.98332  0.017160123  0.016196779           18 
 4085000   0.59613598    -7.582679    839.87052  0.017133222  0.016191729           11 
 4086000    0.5931122   -7.5946308    840.53527  0.017142586   0.01618667           15 
 4087000    0.6050862   -7.6124177    839.45839  0.017116434  0.016181616            9 
 4088000   0.60849205    -7.591245    840.91885  0.017142018  0.016176563           21 
 4089000   0.60284151   -7.5925847    838.80281  0.017094702  0.016171515           16 
 4090000   0.59086346   -7.5889957    839.43583   0.01710342   0.01616646           16 
 4091000   0.58098849    -7.608089    840.22833  0.017115382  0.016161414           23 
 4092000   0.60242063   -7.6129245    840.15674  0.017109741  0.016156373            8 
 4093000   0.59142409   -7.6082155    839.69064  0.017096071   0.01615133           10 
 4094000   0.59969804   -7.6028978    840.78666  0.017114205  0.016146283           16 
 4095000   0.59875918   -7.6188228    840.69893   0.01710824  0.016141239            9 
 4096000   0.59243106   -7.5972154    840.66933  0.017103461  0.016136201            9 
 4097000   0.60563302    -7.608417    840.21278      0.01709  0.016131157            9 
 4098000   0.59241466   -7.5653022    839.41891  0.017069687  0.016126115           15 
 4099000   0.60111396    -7.619004    839.38334  0.017064799  0.016121079            8 
 4100000    0.6094771   -7.5970986    840.63712   0.01708612  0.016116043           15 
 4101000   0.59971884   -7.6020007    839.39452  0.017056704  0.016111016           13 
 4102000   0.58837093   -7.6092445    840.34355  0.017071826  0.016105989           10 
 4103000   0.60175393   -7.6014093    839.21909  0.017044827  0.016100963           49 
 4104000    0.5858006   -7.5980175    839.77382  0.017051938  0.016095926           36 
 4105000   0.57935619    -7.628128    841.06373  0.017073969  0.016090892           19 
 4106000   0.59215105   -7.6090663    840.40272  0.017056396   0.01608587           13 
 4107000   0.60136096   -7.5964637    841.04893  0.017065354  0.016080847           13 
 4108000   0.61379077   -7.5879741    840.85778  0.017057323  0.016075836           18 
 4109000   0.59399615   -7.5937542    841.85687  0.017073434  0.016070831            7 
 4110000   0.60010869   -7.5870277    839.94907  0.017030597  0.016065829            8 
 4111000   0.58696949   -7.6020136    841.01268  0.017048015  0.016060818           13 
 4112000   0.60045428   -7.6059411    840.44705  0.017032406  0.016055814            8 
 4113000   0.59814055    -7.605126    840.30097  0.017025305  0.016050802           15 
 4114000   0.58349383   -7.6112944    840.44593  0.017024103  0.016045792           16 
 4115000   0.59895475    -7.587056    839.16039  0.016993933  0.016040784           24 
 4116000   0.59349286   -7.6219699     839.6123  0.016998953  0.016035773           21 
 4117000   0.60652252   -7.5767708    840.62203  0.017015262  0.016030778           14 
 4118000   0.57599797    -7.618672    840.31845  0.017004987  0.016025772           13 
 4119000   0.60842222   -7.5948847    840.32689  0.017001029  0.016020764           15 
 4120000   0.58377988   -7.6027214     840.0528  0.016991359  0.016015768           14 
 4121000   0.58728371   -7.6070773    839.74682  0.016981049  0.016010764           13 
 4122000   0.58626459   -7.6184926    840.66598  0.016995511  0.016005769           13 
 4123000    0.5972043   -7.6050874    840.49976   0.01698803  0.016000781           11 
 4124000   0.58348149   -7.6121191    840.54737  0.016984872  0.015995789           24 
 4125000   0.59038357   -7.6206716    839.18718  0.016953276  0.015990799           27 
 4126000   0.59423356   -7.6188547    839.72098  0.016959949  0.015985807           14 
 4127000   0.58855856   -7.6038454    839.09361  0.016943171  0.015980816           14 
 4128000   0.58644198   -7.5990327    839.44439  0.016946148  0.015975826           17 
 4129000   0.59368377    -7.635333    841.08458  0.016975147  0.015970839           13 
 4130000   0.58738527   -7.6075321    841.59295  0.016981294  0.015965847           10 
 4131000   0.58990087   -7.6242827    839.95173  0.016944076  0.015960863           14 
 4132000   0.59386429   -7.5922463    839.83455  0.016937612  0.015955883           20 
 4133000   0.59368231   -7.6097574    841.21469  0.016961341  0.015950903           14 
 4134000   0.58299397    -7.595831     840.4566  0.016941957  0.015945922           13 
 4135000   0.58508975   -7.6179147    839.67383  0.016922084  0.015940933           13 
 4136000   0.57553949   -7.6083747    840.19965  0.016928587  0.015935945           17 
 4137000    0.5866887   -7.6021726    841.69161  0.016954549  0.015930964           23 
 4138000   0.58048382   -7.6198393    839.80397  0.016912437  0.015925984           15 
 4139000   0.59063017   -7.5984701    840.95299  0.016931485  0.015921008           24 
 4140000   0.58482435   -7.5960717    837.80884  0.016864107  0.015916039           18 
 4141000   0.59874197   -7.5943565    839.58765  0.016895831  0.015911068           30 
 4142000   0.58006523   -7.6150129    838.92298   0.01687838  0.015906088           22 
 4143000   0.60129627   -7.6064701    840.96143  0.016915308  0.015901118           37 
 4144000    0.5766679    -7.618678    840.99432  0.016911887  0.015896149           27 
 4145000   0.58790572   -7.6218436    840.34665  0.016894786  0.015891177           24 
 4146000   0.57844212   -7.6017061     840.3512  0.016890802  0.015886205           23 
 4147000   0.59806599   -7.6089542    840.71364  0.016894012  0.015881241           14 
 4148000   0.59166964   -7.6208883    838.30191  0.016841488  0.015876275           29 
 4149000   0.59569948    -7.607079    839.91887  0.016869906  0.015871312           27 
 4150000   0.57533329   -7.6115325    839.05337  0.016848461  0.015866353           27 
 4151000   0.57714717   -7.6126648    840.03234  0.016864056  0.015861386           23 
 4152000   0.59018778   -7.6364636    838.07006   0.01682061  0.015856422           48 
 4153000   0.58135229   -7.5979585    839.86703  0.016852617  0.015851457           43 
 4154000   0.59379535   -7.6193195    840.81574  0.016867592  0.015846509           28 
 4155000   0.58357132   -7.6199708    840.15841  0.016850349  0.015841559           55 
 4156000   0.58626797   -7.6370314     839.2901  0.016828884    0.0158366           50 
 4157000    0.5937257   -7.6160693    839.30675  0.016825169  0.015831644           27 
 4158000   0.57291787   -7.6308843    838.67282  0.016808418  0.015826692           45 
 4159000   0.59278643   -7.6325556     839.8806  0.016828577  0.015821741           37 
 4160000   0.58236878   -7.5963788    840.37157  0.016834366  0.015816791           31 
 4161000   0.59032762   -7.6192177      838.851  0.016799868  0.015811844           73 
 4162000   0.57011581   -7.6085132    840.59667  0.016830784  0.015806902           27 
 4163000   0.58251728   -7.6252681     839.8298   0.01681139   0.01580196           39 
 4164000   0.59363888   -7.6195227    839.44573  0.016799666  0.015797012           37 
 4165000   0.58366398   -7.6244665    840.08817  0.016808487  0.015792064           48 
 4166000    0.5748271   -7.6365762    840.81182  0.016818927  0.015787121           36 
 4167000   0.56763068   -7.6184326    838.52481  0.016769155  0.015782177           26 
 4168000   0.59035513   -7.6283832    838.77465  0.016770127  0.015777236           36 
 4169000   0.58068522   -7.6284739    837.65138  0.016743651  0.015772291           50 
 4170000   0.58965625   -7.6134623    839.58037  0.016778185  0.015767347           42 
 4171000   0.59139393   -7.6383691    839.75561  0.016777663  0.015762406           41 
 4172000    0.5806506   -7.6396573    839.25511  0.016763645  0.015757463           34 
 4173000   0.58708467    -7.630067    839.01175  0.016754768  0.015752529           27 
 4174000   0.58327427   -7.6335702     838.9804  0.016750128  0.015747601           41 
 4175000   0.57347265   -7.6274941    838.92691  0.016745048  0.015742673           28 
 4176000   0.57040821   -7.6275051    840.02716  0.016762994  0.015737753           26 
 4177000   0.58905706   -7.6222579    839.28181  0.016744111  0.015732836           43 
 4178000    0.5901839   -7.6209043    839.58779  0.016746206  0.015727928           37 
 4179000   0.57256049   -7.6299158    839.70864  0.016744609  0.015723008           33 
 4180000   0.56999568   -7.6503829    839.16856  0.016729836  0.015718082           35 
 4181000    0.5712852   -7.6149575    838.80644  0.016718617  0.015713166           38 
 4182000   0.59605725   -7.6235446    840.20653  0.016742518   0.01570824           48 
 4183000   0.57934514   -7.6452752     839.6058  0.016726548  0.015703321           29 
 4184000   0.58963276   -7.6264769    837.96192  0.016689809  0.015698393           25 
 4185000   0.57541002   -7.6491521     839.4793  0.016716035  0.015693471           35 
 4186000   0.57414329   -7.6165187    840.23539  0.016727094  0.015688559           35 
 4187000   0.57436224   -7.6474676    840.35166  0.016725413  0.015683638           68 
 4188000   0.58165799   -7.6276112    839.30655  0.016700624  0.015678726           46 
 4189000   0.58837676   -7.6106776    838.32025  0.016677016   0.01567381           40 
 4190000   0.58628978   -7.6411345    839.12463  0.016689034  0.015668899           39 
 4191000   0.57784564   -7.6271475    840.48935  0.016712188   0.01566399           24 
 4192000   0.57331937   -7.6241209    838.60161  0.016670674  0.015659079           30 
 4193000      0.57765   -7.6144891    838.02646  0.016655268  0.015654166           47 
 4194000   0.58156384   -7.6335662    838.85879  0.016667835  0.015649257           44 
 4195000   0.58332236   -7.6401988    838.22657  0.016651302  0.015644351           31 
 4196000   0.58412289   -7.6440762    839.48923  0.016672411  0.015639446           53 
 4197000   0.58290345   -7.6533845    838.93656  0.016657465  0.015634539           92 
 4198000   0.57732693   -7.6506828    838.37177  0.016642285  0.015629628           82 
 4199000   0.58167767   -7.6437426     837.4262  0.016619556  0.015624718           65 
 4200000   0.57333771    -7.638086    839.33141  0.016653401  0.015619816           22 
 4201000   0.57374265   -7.6518098    839.39647  0.016650727  0.015614921           43 
 4202000   0.57574807   -7.6343048    838.90692  0.016637056  0.015610026           40 
 4203000   0.57954645    -7.628987    840.33021  0.016661318   0.01560513           43 
 4204000   0.58351719   -7.6333613    839.76823  0.016646215  0.015600231           73 
 4205000   0.57508277   -7.6331344    838.44387   0.01661601  0.015595335           68 
 4206000   0.57339594   -7.6520813    838.97954  0.016622673  0.015590434           57 
 4207000   0.57633485   -7.6171694    837.85173  0.016596382  0.015585531           50 
 4208000   0.58394948   -7.6341937    837.56852  0.016586829  0.015580643           90 
 4209000   0.56935357   -7.6452925    838.55364  0.016602392  0.015575756           87 
 4210000   0.58108484   -7.6312829    838.89155  0.016605138  0.015570862           30 
 4211000   0.56971933    -7.631749    838.05582  0.016584656   0.01556597           46 
 4212000   0.57548601   -7.6473529    839.51961  0.016609679  0.015561084           60 
 4213000   0.57790957   -7.6392957    838.88228   0.01659313  0.015556199           63 
 4214000   0.58339539   -7.6588816    838.48624   0.01658136  0.015551306           45 
 4215000   0.56710059   -7.6392656     838.6831  0.016581319  0.015546418           69 
 4216000   0.57189871   -7.6263656    839.82896  0.016600035  0.015541542           50 
 4217000   0.57569448   -7.6618504    839.92763  0.016598048  0.015536669           55 
 4218000   0.57085334   -7.6511066    838.06026   0.01655722  0.015531791           45 
 4219000   0.57814768   -7.6595373    840.08712   0.01659333  0.015526915           73 
 4220000    0.5680921   -7.6554753    838.37531  0.016555595  0.015522036           62 
 4221000   0.57610919   -7.6508079    839.93335  0.016582432  0.015517162           61 
 4222000   0.57287052   -7.6417642    838.35336  0.016547319  0.015512287           64 
 4223000   0.57788449   -7.6471834    839.70671  0.016570106   0.01550742           49 
 4224000   0.58312816   -7.6377793    839.20261  0.016556238  0.015502552           66 
 4225000   0.57000389   -7.6324959     838.7974  0.016544327  0.015497692           77 
 4226000   0.56972344   -7.6558761    839.51303  0.016554524  0.015492828           63 
 4227000   0.57387924   -7.6358105    838.92815  0.016539077  0.015487961           75 
 4228000   0.58855599   -7.6463425    837.41219  0.016505286  0.015483099           69 
 4229000   0.58078863   -7.6194884    839.00102  0.016532691  0.015478244           91 
 4230000   0.58237489   -7.6417617    839.58454  0.016540278  0.015473393           73 
 4231000   0.58436934   -7.6399992    837.36056  0.016492566  0.015468535           39 
 4232000   0.57558118   -7.6637011    837.62951  0.016493965  0.015463678           67 
 4233000     0.569629   -7.6607013    838.23905  0.016502068  0.015458826           88 
 4234000   0.56808253   -7.6571978    838.22038  0.016497803  0.015453973           49 
 4235000   0.57894454   -7.6617661    837.76794  0.016485005  0.015449123           74 
 4236000   0.57964906   -7.6526669    838.31238  0.016491824  0.015444265           68 
 4237000   0.57177678   -7.6416665    838.97042  0.016500874  0.015439418           58 
 4238000   0.57615356   -7.6688015    839.24733  0.016502425  0.015434578           62 
 4239000   0.56344822   -7.6316241    839.35245  0.016500599  0.015429741           55 
 4240000   0.56248565   -7.6754322    838.99299  0.016489642  0.015424902           69 
 4241000   0.56030625   -7.6229606    838.11258  0.016468454  0.015420065           50 
 4242000   0.57797097   -7.6402234    837.20434   0.01644673  0.015415232           60 
 4243000   0.57212215   -7.6523407    839.90624   0.01649592  0.015410408           67 
 4244000   0.55711357   -7.6259621    839.17132  0.016477602  0.015405577           53 
 4245000   0.56874479   -7.6405596    839.24895  0.016475244  0.015400755           35 
 4246000   0.56948072   -7.6614671    838.11088  0.016449028  0.015395921           50 
 4247000   0.57113055    -7.649133     838.4316  0.016451448  0.015391088           68 
 4248000      0.57422   -7.6753012    838.94107   0.01645757  0.015386259           72 
 4249000   0.56760572    -7.653052    839.08782  0.016456575  0.015381433           87 
 4250000    0.5664308   -7.6794527    838.79443   0.01644695  0.015376602           80 
 4251000   0.57304358    -7.665429    839.49795  0.016456872  0.015371769           52 
 4252000   0.57545426   -7.6652382    838.32296  0.016429973  0.015366936           61 
 4253000   0.56543421   -7.6625693    838.93249  0.016438053  0.015362107           63 
 4254000   0.56908774   -7.6706536    839.04989  0.016436489  0.015357282           70 
 4255000   0.57533061   -7.6682606    839.22424  0.016436041  0.015352456           71 
 4256000   0.56701905   -7.6486691    838.30781  0.016414235  0.015347632           52 
 4257000   0.57064169   -7.6576627    838.70471  0.016418149  0.015342811           75 
 4258000   0.57729591   -7.6680993    839.25888  0.016425139  0.015337996           52 
 4259000   0.57081184   -7.6326693    837.90885  0.016394867   0.01533318           54 
 4260000   0.57228079   -7.6618904    839.00059  0.016412375  0.015328365           55 
 4261000   0.56415669   -7.6761312    838.49657  0.016398666  0.015323552           49 
 4262000   0.57998911   -7.6596019     839.2121  0.016408808  0.015318741           66 
 4263000   0.56593135   -7.6696884    839.40744  0.016408778  0.015313933           49 
 4264000   0.56545657   -7.6607607    838.13686  0.016380098  0.015309122           63 
 4265000    0.5733395   -7.6703041    838.23895  0.016378252  0.015304319           74 
 4266000   0.57742698   -7.6694047    837.10961  0.016352352  0.015299512           76 
 4267000   0.57797118   -7.6467223    839.50152  0.016395233  0.015294708           55 
 4268000   0.57510282   -7.6752167     839.4466  0.016390319  0.015289911           63 
 4269000   0.55580734    -7.661839    838.76322   0.01637314  0.015285107           78 
 4270000   0.57265867   -7.6651615    838.37827  0.016361793  0.015280313           63 
 4271000   0.56770149   -7.6691133    838.16908   0.01635388  0.015275515           79 
 4272000   0.57050896   -7.6700894    838.90193  0.016364348  0.015270714           45 
 4273000   0.56008186    -7.647834    839.01343  0.016362693  0.015265911           72 
 4274000    0.5721002   -7.6692604    840.47771  0.016387414  0.015261117          101 
 4275000   0.57311844   -7.6701565    838.96356  0.016354066  0.015256323           79 
 4276000   0.57377356   -7.6824558    839.01345  0.016351213  0.015251528           90 
 4277000   0.56639724   -7.6581009    838.45276  0.016336466   0.01524673           79 
 4278000   0.57255014   -7.6699757    837.75962  0.016319145  0.015241942           98 
 4279000   0.56558121   -7.6456564    837.30421  0.016306462  0.015237157          107 
 4280000   0.56969753    -7.685516    836.97408  0.016296224  0.015232371          107 
 4281000   0.57721929   -7.6616869    837.76189  0.016307753  0.015227582           85 
 4282000   0.56327098   -7.6782479    838.57913  0.016319849  0.015222794           55 
 4283000   0.56672532   -7.6805843    837.94601   0.01630372   0.01521801          112 
 4284000   0.56694728   -7.6818557    837.89297  0.016298883  0.015213225           46 
 4285000   0.56185607   -7.6749244    839.16058  0.016319731  0.015208439           38 
 4286000   0.56659242   -7.6527942    837.78579  0.016289193  0.015203655           39 
 4287000   0.55662535    -7.689846    838.12499  0.016291987   0.01519887           63 
 4288000    0.5628536   -7.6674102    837.53365  0.016276696  0.015194081           63 
 4289000   0.57912062   -7.6863971    837.81053   0.01627828  0.015189301           66 
 4290000   0.56017001   -7.6663488    837.17863  0.016262211  0.015184516           75 
 4291000   0.56707362   -7.6635744    838.28564   0.01627992  0.015179737           56 
 4292000   0.57542324   -7.6766615    838.23913  0.016275224  0.015174954           59 
 4293000   0.55614443   -7.6992822    837.53681    0.0162578  0.015170178          121 
 4294000   0.55950892   -7.6997209    838.10529  0.016265046  0.015165401           96 
 4295000   0.56155416   -7.6752061    838.29052  0.016264853   0.01516063           72 
 4296000   0.56308546   -7.6926816    838.48054  0.016264753   0.01515587          111 
 4297000   0.56087987    -7.657303    837.63538  0.016244577  0.015151101           51 
 4298000   0.57039747   -7.6744466    837.24777  0.016233282  0.015146335           61 
 4299000   0.57577549   -7.6834547    837.24296  0.016229413  0.015141579           65 
 4300000    0.5663253   -7.6801058    838.74591  0.016254766  0.015136818           31 
 4301000   0.56212454     -7.67834    837.25801  0.016222158  0.015132051           49 
 4302000    0.5701395   -7.6697342    837.09314  0.016215193  0.015127287           37 
 4303000   0.57231447   -7.6854825    835.69643  0.016184376  0.015122525           29 
 4304000   0.56215747   -7.6743074    837.35449  0.016212719  0.015117766           30 
 4305000    0.5555575    -7.660406    837.47916  0.016211366  0.015113013           40 
 4306000    0.5690686   -7.6830819    837.48822  0.016207776  0.015108262           29 
 4307000   0.56504476    -7.670226    837.45805   0.01620343  0.015103507           32 
 4308000   0.54650661   -7.6615142    838.43127  0.016218494  0.015098753           37 
 4309000   0.55692476   -7.6906486    837.23166  0.016191531  0.015094006           40 
 4310000   0.56673544   -7.6766368    837.67991  0.016196441  0.015089259           53 
 4311000   0.56187859   -7.6598514    837.29747  0.016185291  0.015084508           58 
 4312000   0.56238523   -7.6784258    837.54142  0.016186252  0.015079761           75 
 4313000   0.57233145    -7.669103    837.60399  0.016183708   0.01507502           43 
 4314000   0.55238296   -7.6602896    838.66307  0.016200415  0.015070284           34 
 4315000    0.5651661   -7.6684085     838.1435  0.016186626  0.015065549           25 
 4316000   0.55133189    -7.690775    836.96677  0.016160155  0.015060807           55 
 4317000   0.55750513   -7.6746161    838.97714  0.016195219  0.015056067           26 
 4318000   0.56003382   -7.6798465    838.46339  0.016181554  0.015051328           51 
 4319000   0.57435008   -7.6885827    836.97263  0.016149044  0.015046594           55 
 4320000     0.572054   -7.6769674    838.88464  0.016182188  0.015041858           46 
 4321000   0.56312262   -7.6954961    837.79434  0.016157416  0.015037128           40 
 4322000   0.56349094   -7.6776327    836.43485  0.016127465  0.015032401           33 
 4323000   0.55810994    -7.684478    837.49275  0.016144127   0.01502767           50 
 4324000   0.54249727    -7.675084    838.10709  0.016152233   0.01502294           41 
 4325000   0.56634418   -7.6727071     839.2455  0.016170434  0.015018213          130 
 4326000   0.56733116   -7.6879012    839.16721  0.016165187  0.015013486           48 
 4327000     0.549715   -7.6935422    837.69459   0.01613309  0.015008758           62 
 4328000   0.56160055   -7.6898057    838.60721  0.016146935  0.015004034           39 
 4329000   0.56678006   -7.6824113    838.37093  0.016138656  0.014999318           77 
 4330000   0.55487682   -7.6798246     837.4851  0.016117881  0.014994595           38 
 4331000   0.55637179   -7.6716908    837.66414  0.016117605  0.014989877           35 
 4332000   0.57222746   -7.7059431    837.60305  0.016112709  0.014985154           44 
 4333000   0.54609939   -7.6873306    836.40505   0.01608595  0.014980438          147 
 4334000   0.55306723   -7.6900181    836.82206  0.016090256  0.014975725           37 
 4335000   0.55341904   -7.6933232     837.7472  0.016104329  0.014971011           49 
 4336000   0.55412796     -7.70094    837.62764  0.016098317  0.014966303           42 
 4337000   0.55835611   -7.6955393    836.70469  0.016076871  0.014961586           93 
 4338000   0.54726048   -7.6995082    838.10855  0.016100133  0.014956875           52 
 4339000   0.56102602   -7.6945492    836.88933  0.016073007  0.014952167           50 
 4340000   0.56317584   -7.6918463    837.99858  0.016090603  0.014947455           56 
 4341000   0.55893617   -7.6867256    838.22934  0.016091326  0.014942744           92 
 4342000   0.56346854   -7.7044359    837.17901  0.016067461  0.014938033           45 
 4343000   0.55937659   -7.6902227     836.3034  0.016046961  0.014933328           47 
 4344000   0.57319328    -7.677654    837.19215  0.016060316  0.014928621           32 
 4345000   0.55441153   -7.6941069     836.6665  0.016046538  0.014923914           51 
 4346000   0.55305288   -7.7058806     836.1492  0.016032927  0.014919206           52 
 4347000   0.55889493   -7.7044685    837.73123  0.016059567    0.0149145           53 
 4348000   0.56065343   -7.7093128    836.50189  0.016032312    0.0149098           51 
 4349000   0.54670105   -7.6950868    834.87322  0.015997417  0.014905092           55 
 4350000   0.55185849   -7.6959776    837.42482  0.016042621  0.014900394           46 
 4351000   0.55116538   -7.7015848    837.89711   0.01604798  0.014895698           47 
 4352000   0.55147332   -7.7151563    838.35902  0.016053137  0.014891007          101 
 4353000   0.55111072   -7.6814763    836.42764  0.016012475  0.014886313           61 
 4354000   0.54564382   -7.6978899    837.63874  0.016031977  0.014881626           68 
 4355000    0.5579544   -7.7089028    837.58862  0.016027337  0.014876942           60 
 4356000   0.57096492   -7.6975135    836.21373  0.015997355  0.014872256           33 
 4357000   0.55627497   -7.6627891    835.93636  0.015988378  0.014867567          115 
 4358000   0.55245306   -7.6801787    837.54473  0.016015464  0.014862887           89 
 4359000   0.55567292    -7.696679    837.42507  0.016009503  0.014858208           65 
 4360000   0.55356548   -7.6873939    837.48938   0.01600706  0.014853533           61 
 4361000   0.55739028   -7.7032903    837.81794  0.016009668  0.014848852           43 
 4362000   0.56501614   -7.7058078    836.30409  0.015977076   0.01484418          101 
 4363000   0.54847533   -7.7124633    836.33515  0.015974008  0.014839507           51 
 4364000   0.55565112   -7.6776229    836.80494  0.015979318  0.014834836           67 
 4365000   0.56563646   -7.6877941    837.64292  0.015991656  0.014830172           24 
 4366000   0.54574791   -7.7134483    836.72734  0.015970517  0.014825502           57 
 4367000   0.54886792   -7.7075345    835.69989  0.015947254  0.014820828           26 
 4368000   0.53685647    -7.708989    836.09291  0.015951101  0.014816158           17 
 4369000   0.53289911   -7.7025847    836.72804  0.015959564  0.014811489           24 
 4370000    0.5523292   -7.7070701    836.34503  0.015948608  0.014806825           23 
 4371000   0.54987662   -7.7005736    837.91127   0.01597482  0.014802163           28 
 4372000   0.55999916    -7.694551    836.85406  0.015951015  0.014797503           26 
 4373000    0.5597232   -7.6853097    836.89012  0.015948055  0.014792849           33 
 4374000   0.55032322   -7.6992014    836.71812  0.015941132  0.014788194           22 
 4375000    0.5506422   -7.7090659    836.05392  0.015924837  0.014783539           16 
 4376000   0.55406983   -7.6898594    837.13807  0.015941843   0.01477888           11 
 4377000   0.55310059   -7.7016236    837.90365  0.015952777  0.014774231           24 
 4378000   0.54814601   -7.6905133    836.70812  0.015926377   0.01476958           23 
 4379000   0.55110314   -7.6895149    837.45332  0.015936921  0.014764927           53 
 4380000   0.54568028   -7.6990933    836.74345  0.015919776  0.014760276           39 
 4381000    0.5516219   -7.6984733    836.22072  0.015906199  0.014755626           60 
 4382000   0.55033775   -7.7235937    835.68752   0.01589243  0.014750977           22 
 4383000   0.55704476   -7.7008261    836.62987  0.015906721   0.01474633           56 
 4384000   0.55629494   -7.7138172    837.45707  0.015918816   0.01474168           29 
 4385000   0.53969992   -7.7045905    837.54023  0.015916766   0.01473704           36 
 4386000   0.55235471   -7.7201989    837.44058  0.015911244    0.0147324           53 
 4387000   0.55239244   -7.7080273    837.21499  0.015903332  0.014727758           60 
 4388000   0.55320563    -7.698042    836.36911  0.015883643  0.014723123           89 
 4389000    0.5700096   -7.6780656    836.88852  0.015889886  0.014718491           21 
 4390000   0.55216459   -7.6909263    836.70432   0.01588277  0.014713861           24 
 4391000    0.5542922   -7.7024395    836.27266  0.015870961   0.01470923           30 
 4392000   0.55199452   -7.7001092    837.84872  0.015897251  0.014704602           32 
 4393000   0.54908962   -7.6893959    837.04418   0.01587837  0.014699985           37 
 4394000   0.55153456   -7.6943588    836.79932  0.015870113  0.014695359           29 
 4395000    0.5372511   -7.7095657    837.78436  0.015885179   0.01469074           37 
 4396000   0.55718239   -7.6992903     838.3583  0.015892446  0.014686123           51 
 4397000   0.54304976   -7.7111319    836.28441  0.015849526  0.014681501           30 
 4398000   0.54883362   -7.7069918    837.48594  0.015868689  0.014676877           48 
 4399000    0.5529552   -7.7253681    835.74623  0.015832125  0.014672255           41 
 4400000   0.54540193   -7.7030058    837.09954  0.015854158  0.014667631           76 
 4401000   0.55794335   -7.7206965    835.41976  0.015818749  0.014663009           33 
 4402000   0.54823239   -7.7102961    836.06748  0.015827417  0.014658388           34 
 4403000   0.54808907   -7.7132324    836.52201  0.015832425  0.014653771           25 
 4404000   0.55444029   -7.7193438    835.46709  0.015808869  0.014649154           38 
 4405000   0.54287851   -7.6924551    837.02465  0.015834745  0.014644536           66 
 4406000   0.52910365   -7.7102556    836.07312  0.015813155  0.014639919           30 
 4407000   0.54965166   -7.7050255    835.20311  0.015793115  0.014635304           57 
 4408000   0.53301428   -7.7105644    836.54499  0.015814901  0.014630687           60 
 4409000    0.5652438   -7.7028161    835.87573  0.015798664  0.014626074           24 
 4410000   0.55235809   -7.7116008    836.44649  0.015805867  0.014621465           40 
 4411000   0.54759925   -7.7058533    836.90333  0.015810915  0.014616854           56 
 4412000   0.53453588    -7.711956    835.99148  0.015790108  0.014612249           37 
 4413000   0.54101724   -7.7158904    835.44834  0.015776274  0.014607634           25 
 4414000    0.5484841   -7.7019095     834.6622  0.015757858  0.014603029           40 
 4415000   0.56040932   -7.7326816    837.05209  0.015799398  0.014598422           28 
 4416000   0.55697124   -7.7199664    837.45856   0.01580349  0.014593816           37 
 4417000   0.53548937   -7.7057735    836.79215   0.01578734  0.014589213           31 
 4418000   0.55016168   -7.7009133    837.00243  0.015787733  0.014584616           42 
 4419000   0.53788784    -7.718084    836.30429  0.015770994  0.014580032           43 
 4420000   0.54324251   -7.7213744    837.21043   0.01578451  0.014575436           30 
 4421000   0.52994714   -7.7184367    835.51487   0.01574898  0.014570845           50 
 4422000   0.55549062   -7.7000366    836.16919  0.015757749  0.014566254           43 
 4423000   0.52571594   -7.7125765    836.18496  0.015754483  0.014561666           28 
 4424000    0.5517207   -7.7329242    837.17799  0.015769628  0.014557072           27 
 4425000   0.55339249   -7.7339284    837.66295  0.015775197  0.014552479           47 
 4426000   0.54083437   -7.7139914    835.67445  0.015734193  0.014547894           28 
 4427000   0.54989339   -7.7116783    836.02831    0.0157373   0.01454331           66 
 4428000   0.53836972   -7.7032826     836.4104  0.015740936  0.014538725           25 
 4429000   0.53766883   -7.7201744    835.89085  0.015727607   0.01453414           28 
 4430000   0.54105517   -7.7299538    836.15774  0.015729077  0.014529558           21 
 4431000   0.55082886   -7.7225169    835.08561  0.015705364  0.014524975           38 
 4432000   0.52769431   -7.7112946     835.4813   0.01570926  0.014520402           28 
 4433000   0.55112263   -7.7176203    836.28564  0.015720837  0.014515828           26 
 4434000   0.53389694   -7.7307269    836.99844  0.015730688  0.014511259           30 
 4435000   0.54529215   -7.7105505    836.33143  0.015714608  0.014506682           58 
 4436000   0.54457737   -7.7127105    836.80141  0.015719894  0.014502108           20 
 4437000   0.54174069   -7.7185067    837.18384  0.015723534  0.014497539           31 
 4438000   0.53995924    -7.702906    837.11419  0.015718683  0.014492977           25 
 4439000   0.53363342    -7.702896    835.42031  0.015683343  0.014488417           48 
 4440000   0.54137447   -7.7083424    836.60836  0.015702109   0.01448385           53 
 4441000   0.54260699   -7.7175525    836.52004  0.015696916  0.014479285           63 
 4442000   0.53916328   -7.7416495    836.54504  0.015693851  0.014474719           36 
 4443000    0.5443029   -7.7175407    835.61647  0.015672903   0.01447016           45 
 4444000   0.53933602   -7.7081802    835.92447  0.015675151  0.014465601           43 
 4445000    0.5542331   -7.7171781    836.30011  0.015678667  0.014461043           56 
 4446000   0.53878918   -7.7324562    835.67832  0.015663486  0.014456486           58 
 4447000    0.5409489   -7.7257249    835.75927  0.015661481  0.014451933           53 
 4448000   0.53824899   -7.7273803    835.85545  0.015659762  0.014447382           49 
 4449000   0.55193702   -7.7261318    834.67146  0.015634065  0.014442828           63 
 4450000   0.52744192   -7.7091729    834.73082  0.015631663  0.014438272           51 
 4451000    0.5555809   -7.7261442    835.63816  0.015645139  0.014433721           43 
 4452000   0.53871045   -7.7228088    836.45456  0.015656906  0.014429171           25 
 4453000   0.53359774   -7.7225354    834.65923  0.015619792   0.01442463           94 
 4454000   0.54444482   -7.7402445    835.42433    0.0156306  0.014420084           72 
 4455000   0.53819065   -7.7123253    834.52852  0.015610335  0.014415546           63 
 4456000   0.53540733   -7.7271393    837.03089   0.01565363  0.014411007           47 
 4457000   0.54022884   -7.7098516    835.50569  0.015621601  0.014406469           29 
 4458000   0.54073093   -7.7343538    835.99703  0.015627281  0.014401937           22 
 4459000   0.55431014    -7.735947    835.40365  0.015612687  0.014397397           31 
 4460000   0.53631902   -7.7182001    835.23868  0.015606104  0.014392858           25 
 4461000   0.53991353   -7.7329003      836.161  0.015619835  0.014388325           49 
 4462000   0.53649601   -7.7276393    835.60634  0.015605975  0.014383792           32 
 4463000   0.54186806   -7.7295852    835.33438    0.0155974  0.014379258           29 
 4464000   0.53173794   -7.7327493    834.11056   0.01557106  0.014374721           36 
 4465000   0.54412166   -7.7283555    834.18872  0.015569032  0.014370192           23 
 4466000   0.53174994    -7.725824    835.91706  0.015597795  0.014365663           25 
 4467000   0.53088374   -7.7292554    834.75835  0.015572688   0.01436114           33 
 4468000   0.53507641   -7.7269151    835.81489  0.015588908  0.014356619           27 
 4469000   0.54585425   -7.7331667    836.50071  0.015598208  0.014352095           39 
 4470000   0.54544776    -7.718614    835.25968  0.015571582  0.014347574           32 
 4471000   0.52665071   -7.7340219    836.41627  0.015589657  0.014343054           27 
 4472000   0.52758419    -7.733455    836.44804  0.015586763  0.014338535           30 
 4473000   0.53095381   -7.7329506    836.79851  0.015589808  0.014334017           33 
 4474000   0.53479214   -7.7200542    834.07496  0.015535594    0.0143295           54 
 4475000   0.53295228   -7.7164468     835.2385   0.01555379   0.01432499           23 
 4476000   0.53567167   -7.7381442    834.96639  0.015545248  0.014320483           28 
 4477000   0.52640768   -7.7194602    836.92494  0.015578232  0.014315981           30 
 4478000   0.54074075   -7.7283817    836.33048  0.015563691  0.014311478           50 
 4479000   0.53351108   -7.7422464    837.37899  0.015579724  0.014306972           25 
 4480000   0.53193122   -7.7200267    835.80541  0.015546976  0.014302475           30 
 4481000   0.52925131   -7.7313374    837.86305  0.015581772  0.014297979           42 
 4482000   0.53417679   -7.7369976    835.18689  0.015528538   0.01429348           79 
 4483000   0.53194354   -7.7334299     835.0509  0.015522546  0.014288986           34 
 4484000   0.54350872   -7.7309186    836.14134   0.01553935  0.014284494           35 
 4485000   0.52978725   -7.7429203    835.66159  0.015526971  0.014280003           37 
 4486000   0.52558865   -7.7322896    837.05654  0.015549423  0.014275511           28 
 4487000   0.54110701   -7.7345932    835.43184  0.015515783  0.014271017           27 
 4488000   0.54577393   -7.7378554    835.60526  0.015515546   0.01426652           32 
 4489000   0.52799839   -7.7549037    836.23212  0.015523727  0.014262028           35 
 4490000   0.53005468   -7.7511293    835.82073  0.015512634  0.014257537           27 
 4491000   0.53931796   -7.7350626    835.04983  0.015494876  0.014253053           21 
 4492000   0.54446613   -7.7215174    836.60129  0.015520208  0.014248567           23 
 4493000   0.54615974   -7.7398558    834.26594  0.015473439  0.014244087           49 
 4494000   0.52136816   -7.7491783    835.66812  0.015495997  0.014239605           32 
 4495000   0.53287787   -7.7269199    835.69947  0.015493131  0.014235123           26 
 4496000   0.54190631   -7.7343175    835.57678  0.015487411  0.014230644           28 
 4497000   0.53056652   -7.7263833    834.81988  0.015469941   0.01422617           37 
 4498000    0.5366288   -7.7478708    833.94345  0.015450264  0.014221689           29 
 4499000   0.53469539   -7.7177484    836.05727  0.015485983  0.014217214           25 
 4500000   0.53539935   -7.7294871    835.84222   0.01547856  0.014212739           22 
 4501000   0.51820688   -7.7478556    835.04945  0.015460443  0.014208262           30 
 4502000    0.5408884    -7.752267     835.2722  0.015461132  0.014203785           41 
 4503000   0.53325304   -7.7364285     834.8702  0.015450259  0.014199309           27 
 4504000   0.54018584    -7.739269    835.50242  0.015458526  0.014194843           26 
 4505000   0.52477427   -7.7587781     834.4065  0.015434822   0.01419037           24 
 4506000   0.53386164   -7.7541058    835.97989  0.015460495  0.014185903           24 
 4507000   0.53739936   -7.7642837    835.54192  0.015448967  0.014181441           25 
 4508000    0.5379635    -7.733775    835.51441  0.015445031  0.014176976           37 
 4509000   0.53706172    -7.740538     835.8328   0.01544749  0.014172515           22 
 4510000   0.52601839   -7.7206071    836.79664  0.015461874  0.014168063           23 
 4511000   0.52618431   -7.7438414    834.63481   0.01541851  0.014163606           28 
 4512000    0.5428869   -7.7473474     835.0903  0.015423506  0.014159147           47 
 4513000   0.53558862   -7.7396023    835.62682  0.015429995  0.014154693           37 
 4514000   0.53361037   -7.7337748    835.90819  0.015431771  0.014150235           28 
 4515000      0.52429   -7.7361288    834.23718  0.015397512  0.014145784           39 
 4516000   0.52608022   -7.7586328    836.28608   0.01543191  0.014141336           52 
 4517000   0.52989675   -7.7318335    834.99028  0.015404588  0.014136887           61 
 4518000   0.52765097   -7.7224651    835.70767   0.01541441  0.014132438           35 
 4519000   0.52183542   -7.7443429    835.86942  0.015413982  0.014127992           53 
 4520000   0.51561592   -7.7362884    835.61637  0.015405907  0.014123548           38 
 4521000   0.53221063   -7.7277732    836.43497  0.015417588  0.014119105           29 
 4522000   0.53125236   -7.7535621     833.9665  0.015368688  0.014114662           52 
 4523000    0.5246319   -7.7460283      835.005  0.015384424  0.014110218           40 
 4524000   0.52424419   -7.7446812    833.82682  0.015359321  0.014105774           26 
 4525000   0.52173536    -7.747688    832.88883  0.015338653  0.014101337           27 
 4526000    0.5271034   -7.7553334     834.3381  0.015361948  0.014096901           30 
 4527000    0.5176799   -7.7595105    835.75734   0.01538468  0.014092463           67 
 4528000   0.52668066    -7.760504    835.56458  0.015377735  0.014088025           57 
 4529000   0.53819932   -7.7481185    834.89142  0.015361953  0.014083593           41 
 4530000   0.52683752   -7.7525702    834.72758  0.015355548  0.014079165           48 
 4531000   0.53165956   -7.7511289    834.99106  0.015357005  0.014074733           44 
 4532000   0.52563042   -7.7471045    833.93573  0.015334211  0.014070306           25 
 4533000   0.53738918   -7.7706502    836.21728  0.015372772  0.014065881           44 
 4534000   0.52299152   -7.7404767    835.31791  0.015352851  0.014061454           33 
 4535000   0.51350316   -7.7563347     836.1609  0.015364956  0.014057031           40 
 4536000   0.52207058   -7.7336818    834.41083  0.015329417  0.014052611           41 
 4537000   0.51931204   -7.7374569    834.21482  0.015322438  0.014048192           35 
 4538000   0.53249146   -7.7551892    834.82603  0.015330286  0.014043774           29 
 4539000    0.5306514   -7.7447613    835.91593  0.015346918  0.014039359           29 
 4540000   0.52362243   -7.7248873    835.71216  0.015339797  0.014034946           35 
 4541000   0.51757215   -7.7433996    835.18511  0.015326747  0.014030534           58 
 4542000   0.53081079   -7.7420605    836.27413  0.015343353  0.014026124           71 
 4543000    0.5225719   -7.7513324    834.31944  0.015304121   0.01402172           68 
 4544000    0.5191781   -7.7536631    835.83752  0.015328593  0.014017318           35 
 4545000   0.52722435   -7.7521393    835.59942  0.015320855  0.014012917           62 
 4546000   0.52412554   -7.7268132     834.7475  0.015301868  0.014008517           41 
 4547000   0.52731414   -7.7605673    835.33124  0.015309201   0.01400412           32 
 4548000   0.53587045   -7.7553112    836.07727  0.015319504  0.013999724           38 
 4549000   0.51863296   -7.7395235    833.34973  0.015266171  0.013995323           60 
 4550000   0.52753729   -7.7511519    834.68655  0.015287299  0.013990927           53 
 4551000   0.53167593    -7.757855    835.50533  0.015298933  0.013986526           57 
 4552000   0.51007296   -7.7582198    834.42359  0.015275769  0.013982129           32 
 4553000   0.53022579   -7.7578566    834.09134  0.015266333  0.013977735           54 
 4554000   0.53013417   -7.7497745    834.69403  0.015274009  0.013973339           45 
 4555000    0.5286177    -7.764039    834.70424  0.015270842  0.013968945           66 
 4556000   0.52615119   -7.7395013     835.1887  0.015276352  0.013964555           42 
 4557000   0.52448029   -7.7660513    835.31758  0.015275356  0.013960163           56 
 4558000   0.53377778   -7.7314062    834.46799  0.015256472  0.013955772           32 
 4559000   0.52168894   -7.7487667    835.63347  0.015274429  0.013951388           68 
 4560000   0.52119266   -7.7533629    835.44321  0.015267603  0.013947005           28 
 4561000   0.52683204   -7.7517647     835.5677   0.01526653  0.013942622           44 
 4562000   0.52588585   -7.7459982      834.993  0.015252685  0.013938243           34 
 4563000   0.52304073    -7.777006    833.57489  0.015223444  0.013933859           38 
 4564000   0.52372572   -7.7530265    833.65321  0.015221538  0.013929476           40 
 4565000   0.51551569   -7.7731848    834.75863  0.015238383  0.013925099           42 
 4566000    0.5185916   -7.7578172    835.29093  0.015244761  0.013920727           35 
 4567000   0.53208502    -7.775672    836.07477  0.015255725  0.013916358           37 
 4568000   0.51239686   -7.7703107     835.1809  0.015236079  0.013911984           50 
 4569000   0.53153951   -7.7458435    834.56081  0.015221435  0.013907617           43 
 4570000   0.52861298    -7.733013    835.23852  0.015230462  0.013903252           41 
 4571000    0.5149426   -7.7645929    835.08791  0.015224384  0.013898889           43 
 4572000   0.52167411   -7.7482198    833.02087  0.015183378  0.013894523           73 
 4573000   0.52279792   -7.7423316    834.03047  0.015198456  0.013890161           46 
 4574000    0.5285959   -7.7622939    836.17488  0.015234202  0.013885798           26 
 4575000   0.52536024   -7.7544228    835.17582  0.015212674   0.01388144           36 
 4576000   0.52829608    -7.780209     835.1396   0.01520869  0.013877079           48 
 4577000   0.51813945   -7.7516829    834.16395  0.015187604  0.013872723           36 
 4578000   0.51328011   -7.7657406     835.1285  0.015201844  0.013868366           46 
 4579000   0.50869779    -7.759871    834.98108  0.015195841  0.013864007           40 
 4580000   0.52349382    -7.768095    833.88957  0.015172663  0.013859653           51 
 4581000   0.51605933   -7.7564181    833.98117  0.015171017  0.013855298           40 
 4582000   0.52748919   -7.7622484    834.26802  0.015172923  0.013850939           51 
 4583000   0.50758606   -7.7566252     834.2799  0.015169829  0.013846593           39 
 4584000   0.51301403   -7.7608903     834.7828  0.015175662  0.013842241           39 
 4585000   0.52413747   -7.7451624    835.21791   0.01518026  0.013837895           38 
 4586000   0.52871996   -7.7509584    833.65499   0.01514855  0.013833548           54 
 4587000   0.51265974   -7.7595991    835.78691  0.015183978  0.013829201           41 
 4588000   0.51727809   -7.7501764    835.02754  0.015166876  0.013824855           43 
 4589000   0.50411217   -7.7507785    833.97902  0.015144531  0.013820515           57 
 4590000   0.51962338   -7.7459107    833.95559  0.015140806  0.013816173           60 
 4591000   0.52595525   -7.7604852    834.75754  0.015152065  0.013811836           64 
 4592000   0.51046843   -7.7725406    833.95671  0.015134232  0.013807501           70 
 4593000   0.51305334   -7.7599505    834.63041   0.01514316  0.013803163           42 
 4594000   0.52857431   -7.7660684    834.04574  0.015129258  0.013798828           55 
 4595000   0.52094333   -7.7761912    834.58193   0.01513569  0.013794495           40 
 4596000   0.51264732   -7.7695979    834.11453  0.015123922  0.013790164          106 
 4597000   0.51575429   -7.7660813    833.51361  0.015109738  0.013785833           54 
 4598000     0.500688   -7.7586179    833.69219  0.015109689  0.013781507           43 
 4599000   0.51288017   -7.7642394    835.24436  0.015134528   0.01377718           52 
 4600000   0.51954481   -7.7469249    833.91124  0.015107088  0.013772854           41 
 4601000   0.50946675    -7.767537    835.91794   0.01514015  0.013768534           49 
 4602000   0.51744589   -7.7525862    835.05216  0.015121182  0.013764209           43 
 4603000   0.51652768   -7.7777693    835.47377   0.01512553   0.01375989           40 
 4604000    0.5298908   -7.7733595    834.67788  0.015107839   0.01375557           33 
 4605000   0.50858404   -7.7840123    834.82091  0.015107146  0.013751251           32 
 4606000   0.51135915    -7.789369    835.18246  0.015110408  0.013746935           31 
 4607000   0.51601257   -7.7834214    834.31492  0.015091436  0.013742619           34 
 4608000   0.51386155   -7.7670627    834.68692  0.015094888  0.013738303           31 
 4609000    0.5182879   -7.7723413    833.11963  0.015063275  0.013733991           42 
 4610000   0.50515684   -7.7695852    835.28796  0.015099204  0.013729678           40 
 4611000   0.50875533    -7.777654    834.57383  0.015083023  0.013725368           37 
 4612000   0.52692672   -7.7774576    833.93977  0.015068296  0.013721061           39 
 4613000   0.51912429   -7.7669771    833.29853  0.015053446  0.013716757           44 
 4614000   0.51852502   -7.7649242    835.05805  0.015081962  0.013712451           52 
 4615000   0.52632267   -7.7747596    834.03984  0.015060308  0.013708144           32 
 4616000   0.50435415   -7.7583257    834.13483   0.01505876   0.01370384           33 
 4617000   0.51409728   -7.7626559    834.09339   0.01505475   0.01369954           32 
 4618000   0.51315236   -7.7807088    833.93558  0.015048643  0.013695241           65 
 4619000   0.50393118   -7.7741876    833.04286  0.015029279   0.01369094           68 
 4620000     0.515445   -7.7741567    833.52659  0.015034751  0.013686639           50 
 4621000   0.51146975   -7.7744793    832.57247  0.015014291  0.013682342           61 
 4622000   0.51295771    -7.783232    834.25352  0.015041351  0.013678044           56 
 4623000   0.50535996   -7.7838392    834.42765  0.015041237   0.01367375           25 
 4624000   0.51923214    -7.776728    834.90737  0.015046629  0.013669461           42 
 4625000   0.52313981   -7.7693417    833.74122  0.015022364  0.013665169           53 
 4626000   0.51095149    -7.770025    833.64261  0.015017341  0.013660881           45 
 4627000   0.50682171   -7.7744071    832.39856  0.014991689  0.013656593           37 
 4628000   0.50642879   -7.7730696    834.39653  0.015024426  0.013652304           58 
 4629000   0.50139523   -7.7865504    834.66696  0.015026049  0.013648018           40 
 4630000   0.50690701   -7.7635378    832.92609   0.01499147  0.013643731           47 
 4631000   0.51374204   -7.7807443    832.29441  0.014976866  0.013639447           52 
 4632000   0.51502374   -7.7874876    834.70495     0.015017  0.013635163           41 
 4633000   0.50860459   -7.7843335    833.62595  0.014994351   0.01363088           35 
 4634000   0.51816104   -7.7560243    834.04234  0.014998603  0.013626597           31 
 4635000   0.51912918   -7.7913727    834.05532  0.014995601  0.013622315           28 
 4636000   0.50491079    -7.782702    834.06897  0.014992612  0.013618042           55 
 4637000   0.50607617   -7.7834352    832.58395  0.014962691  0.013613765           48 
 4638000   0.50965973   -7.7895287    834.76676  0.014998684  0.013609494           67 
 4639000   0.51184921   -7.7691828    832.53707  0.014955398  0.013605224           46 
 4640000   0.50600934   -7.7810491    834.55868  0.014988482  0.013600952           62 
 4641000   0.51673023   -7.7846885    832.13233  0.014941685  0.013596679           53 
 4642000   0.51880133   -7.7849499    833.21293  0.014957865   0.01359241           34 
 4643000   0.52245111   -7.7815374    832.99569  0.014950745  0.013588142           61 
 4644000   0.51748782    -7.771476     834.8949  0.014981605  0.013583875           53 
 4645000   0.51716221   -7.7721339    833.72425  0.014957378  0.013579608           49 
 4646000   0.50717685   -7.7836125    833.20781  0.014944895  0.013575345           62 
 4647000   0.50338302   -7.7739542     832.6737  0.014932101  0.013571082           47 
 4648000   0.49563698   -7.7986644    832.78116  0.014930815   0.01356682           29 
 4649000   0.50745236   -7.7664968    834.08838  0.014951036  0.013562562           56 
 4650000   0.51739242   -7.7944585    832.96074  0.014927612  0.013558304           47 
 4651000   0.51197289   -7.7923209    832.50789  0.014916288  0.013554046           56 
 4652000   0.50479167   -7.7673405    833.66173  0.014933751  0.013549789           66 
 4653000   0.51172273   -7.7872031    832.82433  0.014915544  0.013545538           63 
 4654000   0.51311162   -7.7679715    834.48006  0.014941986  0.013541287           65 
 4655000   0.51868309   -7.7827737    834.10802  0.014932116   0.01353704           63 
 4656000   0.50398332   -7.7680339    833.66202  0.014920927  0.013532793           94 
 4657000   0.50584825   -7.7870277    834.91833  0.014940204  0.013528549           54 
 4658000   0.50187604   -7.7859552    833.87687  0.014918364    0.0135243           29 
 4659000   0.51605941   -7.7834105    833.70683   0.01491212  0.013520057           42 
 4660000   0.51350302   -7.7859613    833.14416  0.014898858  0.013515811           42 
 4661000   0.51279404   -7.7826708    833.06371  0.014894223  0.013511569           60 
 4662000   0.50792404   -7.7748194    833.43454  0.014897657   0.01350733           39 
 4663000   0.51070343   -7.8024953    834.00901  0.014904729  0.013503092           35 
 4664000   0.50036086    -7.796978    833.12539  0.014885745  0.013498852           32 
 4665000   0.50158311   -7.7821442    834.84148   0.01491321  0.013494616           52 
 4666000   0.51893812   -7.7877247    833.37771  0.014883871  0.013490379           35 
 4667000   0.50661462   -7.7848563    834.46016   0.01490001  0.013486143           51 
 4668000   0.50823441   -7.7921311    833.56311  0.014880804  0.013481909           65 
 4669000     0.495571   -7.7948727    833.19775  0.014871096  0.013477679           76 
 4670000   0.50461482   -7.7919031    833.72788  0.014877371  0.013473454           48 
 4671000   0.50140419   -7.7865856    831.95925  0.014842633  0.013469232           56 
 4672000   0.50973519   -7.7855914    832.97743  0.014857617  0.013465009           76 
 4673000   0.49521518   -7.7736002    833.49607  0.014863686  0.013460787           84 
 4674000   0.50314962   -7.7965151    834.10584  0.014871378  0.013456564           79 
 4675000   0.50247432   -7.7982324    834.34038  0.014872378  0.013452339           87 
 4676000   0.51048202   -7.7875099    832.32693  0.014833314  0.013448117           39 
 4677000    0.4999494   -7.8045474    834.25177  0.014864439    0.0134439           63 
 4678000   0.50838789   -7.7757435    833.56835  0.014849087  0.013439687           35 
 4679000   0.49791781   -7.7938529    833.49632  0.014844631  0.013435474           75 
 4680000   0.50179566   -7.7891593    833.83763  0.014847536  0.013431262           45 
 4681000   0.50129838   -7.7798396    832.30399  0.014817062  0.013427055           52 
 4682000    0.5059542   -7.7915732     833.5649   0.01483634  0.013422849           67 
 4683000   0.50595305   -7.7900949    834.46882  0.014849257  0.013418642           78 
 4684000    0.4912722   -7.7997033    834.59002  0.014848243  0.013414441           68 
 4685000   0.50793888   -7.7809784    834.94443  0.014851377   0.01341024           39 
 4686000   0.49460645   -7.7828657     834.0051  0.014831503  0.013406043           58 
 4687000   0.50708547   -7.7860876    832.82471  0.014807352  0.013401845           40 
 4688000   0.50909401    -7.792479    833.54644  0.014817023  0.013397647           53 
 4689000   0.50886234   -7.7810014    831.99777   0.01478634  0.013393453           73 
 4690000   0.50203754   -7.7953981    833.72118  0.014813809  0.013389259           47 
 4691000   0.49602104   -7.8000308     832.9806  0.014797495  0.013385062           56 
 4692000   0.49704108   -7.7913369    833.64708  0.014806179  0.013380871           78 
 4693000    0.4987706   -7.7764296    833.10059   0.01479332  0.013376685           78 
 4694000   0.50083239   -7.8030181    834.65998  0.014817852  0.013372496           56 
 4695000   0.50042077   -7.7965193    833.41587  0.014792614  0.013368308           51 
 4696000   0.51477006     -7.77964     832.9331  0.014780897  0.013364127           48 
 4697000   0.49776457   -7.7860633    833.46579  0.014787201  0.013359946           63 
 4698000   0.50455081   -7.7924791    832.99126  0.014775636  0.013355766          100 
 4699000   0.50096286   -7.7820977    832.51802  0.014764099  0.013351584           46 
 4700000   0.49483302   -7.7937037    833.00975  0.014769676  0.013347406           85 
 4701000   0.51166822   -7.7922505    832.65581   0.01476026  0.013343225           72 
 4702000   0.50994787   -7.7897036    832.47361  0.014753892   0.01333905           49 
 4703000    0.5009881   -7.7898012    834.78516  0.014791714  0.013334869           75 
 4704000   0.50371849   -7.8080638    834.32199  0.014780364  0.013330695           94 
 4705000   0.49154398   -7.8012559     834.0459  0.014772333  0.013326519           83 
 4706000   0.50298025   -7.8152994    833.38035  0.014757408  0.013322349           70 
 4707000    0.4981806   -7.7834865    832.20045  0.014733384  0.013318178           47 
 4708000   0.49682394   -7.8001032    832.68929  0.014738907  0.013314011           52 
 4709000   0.50400476    -7.804541    833.97331    0.0147585  0.013309842           90 
 4710000   0.50410848   -7.7974019    833.45258  0.014746153  0.013305676           61 
 4711000   0.48923991   -7.8007062    833.34616  0.014741141   0.01330151           95 
 4712000   0.49853639   -7.8009775    833.98317  0.014749278  0.013297345           65 
 4713000   0.47806025   -7.7925869    833.08654  0.014730295   0.01329318           82 
 4714000   0.49757173   -7.8031547     833.3063  0.014731055   0.01328902          113 
 4715000   0.49288836   -7.7857059    833.17757  0.014725655  0.013284857           55 
 4716000   0.50274712   -7.8039065    833.20614  0.014723038  0.013280698           60 
 4717000   0.49754724   -7.7943455    832.77373  0.014712277  0.013276542           44 
 4718000   0.50131547   -7.7973895     831.9169  0.014694025  0.013272389           76 
 4719000   0.49371343   -7.7847302    833.39043  0.014716932  0.013268235           74 
 4720000   0.49060464   -7.7874919    833.89185  0.014722667  0.013264085           82 
 4721000    0.5034184   -7.7961688    832.76438  0.014699647  0.013259935           47 
 4722000    0.5007674    -7.800003    833.67516  0.014712607  0.013255785           59 
 4723000    0.4918869   -7.8068866    831.75069  0.014675536  0.013251633           38 
 4724000   0.49849665   -7.7958464    833.10051  0.014696241  0.013247484           54 
 4725000   0.49360532   -7.8059614    832.52256  0.014682938  0.013243339           69 
 4726000   0.48769435   -7.7823876    831.21304   0.01465674  0.013239193           56 
 4727000    0.5116941     -7.81341    832.36977  0.014674032  0.013235049           87 
 4728000   0.49673598   -7.8121863    833.47131  0.014690343  0.013230902           64 
 4729000   0.49864976   -7.8336001    833.31235  0.014684436  0.013226759           65 
 4730000   0.49700472   -7.8073633    832.88953  0.014673882  0.013222616           36 
 4731000   0.49270913   -7.8034449    833.13695  0.014675138  0.013218479           49 
 4732000   0.50421024   -7.8095318    831.89519  0.014650169  0.013214344           57 
 4733000   0.49209756   -7.7985034    832.75946  0.014662291  0.013210206           59 
 4734000   0.49727015   -7.8190925    832.99097  0.014663269  0.013206069           53 
 4735000   0.48827345   -7.7941645    832.71787  0.014655366  0.013201936           92 
 4736000   0.50364166   -7.7992403    832.06445  0.014640774  0.013197804           73 
 4737000   0.49027404   -7.7811779    832.80501  0.014650711  0.013193676           43 
 4738000   0.49361202   -7.7990465    832.35306   0.01463967  0.013189545           42 
 4739000   0.49436529   -7.7941588     833.2568  0.014652472  0.013185421           65 
 4740000   0.48564872   -7.7924921    832.49686  0.014636021  0.013181295           59 
 4741000   0.48719201   -7.8146217    832.82728  0.014638741  0.013177171           40 
 4742000   0.49686677   -7.8047736    832.67272  0.014632938   0.01317305           49 
 4743000   0.48907964   -7.8085629    833.48511  0.014644127  0.013168926           71 
 4744000   0.48388881   -7.8032783     834.0527   0.01465101   0.01316481           37 
 4745000     0.493796    -7.808955    833.59959  0.014639965  0.013160691           44 
 4746000   0.49875305   -7.8094013    833.21536  0.014630134  0.013156575           54 
 4747000   0.49216049    -7.820787    831.55044  0.014597824  0.013152462           71 
 4748000   0.49337377   -7.8064978    833.29409  0.014625353  0.013148348           59 
 4749000   0.49255136   -7.8327751    831.77033  0.014595535  0.013144239           51 
 4750000   0.48188344   -7.8077898    832.33911   0.01460244  0.013140133           64 
 4751000   0.48775364   -7.7970024    833.58739  0.014621262  0.013136029           69 
 4752000   0.49479142   -7.8171558     831.8854  0.014588338   0.01313192           55 
 4753000   0.49736036   -7.7984705    832.38923  0.014594103  0.013127814           49 
 4754000   0.49824462   -7.8109866    832.40904   0.01459138   0.01312371           53 
 4755000   0.49460074   -7.7997592    834.59855  0.014626683   0.01311961           62 
 4756000   0.49880525    -7.810565    832.30911  0.014583493  0.013115511           48 
 4757000   0.48873394   -7.8161205    832.72772  0.014587761  0.013111413           63 
 4758000    0.4868166   -7.8101474    832.76708  0.014585384  0.013107317           43 
 4759000   0.48998914   -7.7973984    832.57328  0.014578925  0.013103219           52 
 4760000   0.48805101   -7.7964759    833.39647  0.014590274  0.013099123           95 
 4761000   0.49552689   -7.8071471    832.67959  0.014574662  0.013095026           61 
 4762000   0.49024482    -7.806625    832.94182   0.01457619  0.013090931           67 
 4763000   0.49206908   -7.7920949    831.60178  0.014549685  0.013086839           56 
 4764000   0.48533981   -7.8239873    831.74901  0.014549206   0.01308275          103 
 4765000   0.47568072   -7.8221119    832.72007  0.014563135  0.013078662           63 
 4766000   0.49115157   -7.8159712     832.0093  0.014547652  0.013074572           53 
 4767000   0.48892217   -7.8045911    832.12295  0.014546587  0.013070488           60 
 4768000   0.50074709   -7.8063706    832.94575  0.014557916  0.013066408           44 
 4769000   0.48749684   -7.8027098    832.15376  0.014541025  0.013062329           80 
 4770000   0.48839566   -7.8131693    831.17109  0.014520809  0.013058246           56 
 4771000   0.49600255   -7.8063244     831.7753  0.014528319  0.013054166           33 
 4772000   0.50220259   -7.8079053    833.08481  0.014548142  0.013050093           43 
 4773000   0.48677052   -7.8077478    832.17391   0.01452919  0.013046017           72 
 4774000   0.49205497   -7.8039005    831.03308  0.014506233  0.013041942           64 
 4775000    0.4922151   -7.8134851    832.85636  0.014535015  0.013037874           40 
 4776000   0.48533675   -7.8105165    834.18981  0.014555238  0.013033806           36 
 4777000   0.49273939   -7.8113198    831.68976  0.014508579  0.013029735           56 
 4778000   0.48916368   -7.8139144    834.72735  0.014558521  0.013025669           46 
 4779000   0.47596351   -7.8129712     831.1219  0.014492605  0.013021599           35 
 4780000   0.48158183   -7.8136365    831.23168  0.014491487  0.013017533           57 
 4781000   0.48905491   -7.8223302    832.74001  0.014514746  0.013013466           65 
 4782000   0.49523313   -7.8203476     832.5695  0.014508739  0.013009404           55 
 4783000   0.47777335   -7.8046671    832.24612  0.014500072  0.013005343           49 
 4784000   0.48471742   -7.8011738    832.33518  0.014498592  0.013001282           58 
 4785000   0.49294587   -7.8158859    831.26484  0.014476922  0.012997225           49 
 4786000   0.48970355   -7.8251082    831.87442  0.014484511   0.01299317           44 
 4787000   0.47547032    -7.809065    832.96518  0.014500473  0.012989114           58 
 4788000   0.48159071   -7.8096037     832.8249  0.014495003  0.012985063           45 
 4789000   0.48805375   -7.8104785    832.68132  0.014489478   0.01298101           37 
 4790000   0.48668125   -7.8144219     832.6479  0.014485872  0.012976959           36 
 4791000   0.50393059   -7.8083152     831.4388  0.014461817   0.01297291           66 
 4792000   0.48501831   -7.8112327    832.41383  0.014475755  0.012968858           28 
 4793000   0.49604814    -7.819996    831.58539  0.014458331  0.012964811           48 
 4794000   0.48417551   -7.8132429     831.1327  0.014447447  0.012960763           60 
 4795000   0.48955958   -7.8286017    831.40767  0.014449212  0.012956723           85 
 4796000   0.48346497   -7.8243168    832.32401  0.014462121  0.012952683           40 
 4797000   0.49100685   -7.8181728    833.55049  0.014480413  0.012948644           34 
 4798000   0.48123783   -7.8175419    831.40698  0.014440166  0.012944607           81 
 4799000   0.49001237   -7.8230362    831.76219  0.014443325  0.012940569           47 
 4800000   0.48736442   -7.8233364    832.81703  0.014458629  0.012936533           82 
 4801000   0.48514521    -7.816435    831.82461  0.014438391  0.012932499           79 
 4802000   0.48860698   -7.8268631    832.26462  0.014443021  0.012928468           70 
 4803000   0.49039599    -7.834679    831.40273   0.01442506  0.012924435           70 
 4804000   0.48089449   -7.8131085    831.57394  0.014425027  0.012920405           61 
 4805000   0.47922167   -7.8284004     832.9513  0.014445912  0.012916372           33 
 4806000   0.48551534   -7.8264723    833.32151  0.014449326  0.012912345           49 
 4807000   0.49510329   -7.8115396    832.03235  0.014423971  0.012908319           89 
 4808000    0.4831908   -7.8222657    831.33539  0.014408891  0.012904295           53 
 4809000   0.48959424   -7.8204648    830.83807  0.014397277   0.01290027           47 
 4810000   0.48038605   -7.8287148    831.91106  0.014412874  0.012896249           52 
 4811000   0.48717844   -7.8309742    831.80674  0.014408071  0.012892227           31 
 4812000   0.48754408   -7.8142197    832.58884  0.014418621  0.012888209           61 
 4813000   0.48637634   -7.8180558    832.17281  0.014408422  0.012884193           56 
 4814000   0.48308163   -7.8226771    833.10709  0.014421602   0.01288018           55 
 4815000   0.46840666   -7.8280818    832.19564  0.014402832  0.012876167           79 
 4816000   0.47739798   -7.8189785    832.52719  0.014405579  0.012872155           53 
 4817000   0.48412826   -7.8207775    830.59655  0.014369188  0.012868147           48 
 4818000   0.48024912   -7.8350982      831.213  0.014376868  0.012864137           82 
 4819000   0.47969849   -7.8209335    831.33769  0.014376041  0.012860131           78 
 4820000     0.475801   -7.8174881    831.88765  0.014382567  0.012856129           62 
 4821000   0.47500057   -7.8186922    832.78488  0.014395092  0.012852126           27 
 4822000   0.47640793   -7.8212605    832.62924  0.014389417  0.012848126           57 
 4823000   0.48246468   -7.8034711    832.43331  0.014383048  0.012844131           74 
 4824000   0.47860677   -7.8252388    832.24661  0.014376842  0.012840136           44 
 4825000   0.47176006   -7.8210996    832.59319  0.014379848  0.012836138           37 
 4826000   0.48356017   -7.8353977    832.97841   0.01438352  0.012832142           56 
 4827000   0.47529178   -7.8177418    832.36391  0.014369931  0.012828145           56 
 4828000   0.46671902   -7.8343375    833.08185  0.014379347   0.01282415           57 
 4829000   0.49239341   -7.8367272    831.68493  0.014352263  0.012820155           34 
 4830000   0.47379234    -7.822462    830.92873  0.014336245  0.012816158           63 
 4831000   0.46960893   -7.8321558     832.5202  0.014360729  0.012812164           56 
 4832000   0.48202773   -7.8247346     831.6931  0.014343493  0.012808175          100 
 4833000   0.47854628   -7.8105732    832.16272  0.014348623  0.012804187           49 
 4834000   0.47794128   -7.8241602    832.55947  0.014352494  0.012800197          102 
 4835000   0.46984654   -7.8166013    832.34692  0.014345862   0.01279621           78 
 4836000   0.47787771   -7.8272645    831.55243  0.014329205  0.012792224           53 
 4837000   0.47884908   -7.8315198    831.73326  0.014329358  0.012788243           47 
 4838000   0.47206297   -7.8331008    831.08719  0.014315268   0.01278426           55 
 4839000    0.4761383    -7.815275     831.5166  0.014319704  0.012780275           60 
 4840000   0.47889007   -7.8399148    830.66006  0.014301998  0.012776294           47 
 4841000   0.47227513   -7.8357199    832.38523  0.014328741  0.012772317           58 
 4842000   0.47757229   -7.8287965    830.86825  0.014299674  0.012768341           48 
 4843000   0.47219712   -7.8173613     830.0677  0.014282946  0.012764369           45 
 4844000   0.47657927   -7.8210962    832.39138  0.014319973  0.012760395           76 
 4845000   0.47564405   -7.8348526    831.77533  0.014306421  0.012756417           74 
 4846000   0.47599596   -7.8245997    830.53416  0.014282125  0.012752442           70 
 4847000   0.46491949   -7.8456478    832.51878    0.0143133  0.012748468           87 
 4848000    0.4758047   -7.8371003    831.15695  0.014286939  0.012744497          112 
 4849000   0.47986775   -7.8306158    830.65878  0.014275431  0.012740527           54 
 4850000   0.47302165   -7.8228155    831.07599  0.014279656   0.01273656           61 
 4851000   0.46159447   -7.8272215    831.80777  0.014289284  0.012732588           64 
 4852000   0.47624932   -7.8433879    831.81545   0.01428647  0.012728623           50 
 4853000   0.48054428   -7.8448709    831.37643  0.014275988  0.012724659           52 
 4854000   0.48125616   -7.8401096    831.46586  0.014274582  0.012720692           65 
 4855000   0.47631802   -7.8408932    831.28169  0.014268481  0.012716733           58 
 4856000   0.47320735   -7.8345718    831.65865  0.014272012  0.012712775           47 
 4857000   0.48981805    -7.845099    831.33957  0.014263598  0.012708818          120 
 4858000   0.47709532   -7.8431371    831.25324  0.014259181  0.012704862          108 
 4859000   0.46961106   -7.8213266    833.58856  0.014296298  0.012700913           49 
 4860000   0.48179185   -7.8197039    831.46387  0.014256925  0.012696967           55 
 4861000   0.47136044   -7.8264822    830.47018  0.014236957  0.012693019           50 
 4862000   0.48223229   -7.8220692     831.1815  0.014246221  0.012689073           61 
 4863000   0.47955114    -7.834449    831.28354   0.01424504  0.012685124           27 
 4864000   0.48728414   -7.8317019    831.66649  0.014248672  0.012681176           60 
 4865000    0.4776983   -7.8234398    830.56639  0.014226899  0.012677231           53 
 4866000   0.47155888   -7.8512521    831.97662  0.014248127   0.01267329           74 
 4867000   0.46710222   -7.8310265    830.73126  0.014223876  0.012669349           46 
 4868000   0.46708177   -7.8410302    831.20104  0.014228996   0.01266541           69 
 4869000   0.47063814   -7.8377233    830.88882   0.01422073  0.012661471           66 
 4870000   0.46795596    -7.840821    831.05214  0.014220605  0.012657533           54 
 4871000   0.48569131   -7.8400948    830.68448  0.014211395  0.012653597           95 
 4872000   0.47105241     -7.83759    833.00498   0.01424817   0.01264966           52 
 4873000   0.47623867   -7.8367659    831.35197  0.014216977  0.012645725           78 
 4874000   0.48488616   -7.8493956    832.09075  0.014226692  0.012641792           53 
 4875000   0.46916901   -7.8498947    831.56489  0.014214784  0.012637861           49 
 4876000   0.46845433   -7.8410518    832.18352  0.014222442  0.012633934           68 
 4877000   0.46465157   -7.8445259    830.93945  0.014198268  0.012630008           63 
 4878000   0.48441808    -7.830747    831.50556  0.014205029  0.012626084           90 
 4879000   0.47306765   -7.8456399    832.45376  0.014218312   0.01262216           64 
 4880000   0.47589137   -7.8531006    831.47162  0.014198627  0.012618234           56 
 4881000    0.4689063   -7.8489533    831.70484    0.0141997  0.012614311           48 
 4882000   0.46143837   -7.8430707    831.43459  0.014192179  0.012610391           68 
 4883000   0.46903318   -7.8476257    829.99668  0.014164733  0.012606473           65 
 4884000   0.46588357   -7.8452423    832.82824  0.014210146  0.012602556           96 
 4885000   0.48128792   -7.8497866    831.64586  0.014187067  0.012598638           70 
 4886000   0.46945882   -7.8424355    831.99717  0.014190155  0.012594722           62 
 4887000   0.47631499   -7.8371337    830.88235  0.014168241  0.012590807           89 
 4888000   0.46649518   -7.8378639    832.35055  0.014190373  0.012586893           84 
 4889000   0.46580504   -7.8237089    829.56292  0.014139956  0.012582979           39 
 4890000   0.46382505   -7.8439821    831.84195  0.014175902  0.012579073           70 
 4891000   0.47381556   -7.8402868    830.57436  0.014151407  0.012575164           88 
 4892000   0.47286548   -7.8571806    830.85087  0.014153224  0.012571255           73 
 4893000   0.46479357   -7.8359826    829.99955  0.014135833   0.01256735           67 
 4894000   0.46769269   -7.8364779    831.79089  0.014163447  0.012563446           91 
 4895000   0.47655648   -7.8416885    831.66203  0.014158359  0.012559546          115 
 4896000   0.46063595   -7.8282978    830.72525  0.014139523  0.012555648          124 
 4897000   0.46487292   -7.8360158    831.64836  0.014152344  0.012551751           56 
 4898000   0.46645069   -7.8323915    831.00737  0.014138549  0.012547857           57 
 4899000   0.45998902   -7.8339611    831.23528   0.01413954  0.012543966           59 
 4900000   0.46201613    -7.848407    833.04057  0.014167357  0.012540071           66 
 4901000    0.4694765   -7.8507237    830.22916  0.014116663  0.012536182           53 
 4902000   0.46224639    -7.833145    829.17052  0.014095786  0.012532294           91 
 4903000   0.48083647   -7.8488488    831.43956  0.014131477  0.012528406           85 
 4904000     0.468882   -7.8379892    830.25639  0.014108489  0.012524514           89 
 4905000   0.47277819   -7.8376394    831.10965   0.01412011  0.012520627           52 
 4906000   0.46543662   -7.8547311    830.36211  0.014104534  0.012516739           62 
 4907000   0.46361119   -7.8239505    830.93612  0.014111407  0.012512856           70 
 4908000   0.46443442   -7.8503879    830.88654   0.01410769  0.012508977           49 
 4909000   0.46616914   -7.8407468    831.20576  0.014110236  0.012505098           74 
 4910000   0.46596414   -7.8568325    831.60233  0.014114093  0.012501218           79 
 4911000   0.46979859   -7.8437978    831.63778   0.01411182  0.012497338           57 
 4912000   0.46410948   -7.8447041    830.44272  0.014088673  0.012493462           62 
 4913000   0.46847474   -7.8412256    831.23901  0.014099312  0.012489583           57 
 4914000   0.46760318   -7.8367621    832.45038  0.014116985  0.012485712           56 
 4915000   0.46887734   -7.8370146    831.30255  0.014094651  0.012481839           67 
 4916000   0.47519462   -7.8541427    832.06504   0.01410471  0.012477967           55 
 4917000   0.46147859   -7.8531255      829.913  0.014065368  0.012474096           58 
 4918000   0.44935926   -7.8495185    830.93634  0.014079849  0.012470224           63 
 4919000   0.47544411   -7.8402646    829.24536  0.014048339  0.012466351          101 
 4920000    0.4616142   -7.8524813    831.25803  0.014079574  0.012462485          101 
 4921000   0.45774176   -7.8553209    830.81945  0.014069286  0.012458619           93 
 4922000   0.45814178   -7.8617662    830.88349  0.014067511  0.012454754           56 
 4923000   0.46166614    -7.842029    830.25165  0.014053959  0.012450891           99 
 4924000    0.4675893   -7.8472889    830.75098  0.014059555  0.012447032           58 
 4925000   0.46470542   -7.8512194    831.05555  0.014061854  0.012443175           28 
 4926000   0.46938394   -7.8585874    829.94552  0.014040221  0.012439317           53 
 4927000   0.46424545   -7.8513702    830.84212  0.014052536  0.012435461           98 
 4928000   0.46636362   -7.8542644     831.8588  0.014066876  0.012431607           29 
 4929000   0.46497028   -7.8515749     830.2284  0.014036458  0.012427753           95 
 4930000   0.46520702   -7.8544576    830.51824   0.01403851  0.012423901           72 
 4931000   0.45491258     -7.84394    831.27664   0.01404848  0.012420048           87 
 4932000   0.46757415    -7.856789     831.4967   0.01404935  0.012416201           29 
 4933000    0.4665692   -7.8367048    830.83769  0.014035369  0.012412349           36 
 4934000    0.4649718    -7.854208    832.54663  0.014061387  0.012408503           43 
 4935000   0.46763777   -7.8499499    831.15868  0.014035101  0.012404657           40 
 4936000   0.46893269   -7.8524621    830.71683  0.014024798  0.012400811           56 
 4937000   0.46924987   -7.8615083    831.69497  0.014038468  0.012396966           24 
 4938000   0.45718013   -7.8495107    829.84904  0.014004473  0.012393124           77 
 4939000   0.45487112   -7.8467947    830.89858  0.014019346  0.012389283           28 
 4940000   0.46775579   -7.8425926    830.83674  0.014015465  0.012385446           37 
 4941000   0.46250773   -7.8565825    830.68959  0.014010146  0.012381608           71 
 4942000   0.46502224   -7.8719056    829.97724  0.013995299  0.012377771           35 
 4943000   0.45282708   -7.8510831    830.08869  0.013994347  0.012373938           37 
 4944000   0.46422397   -7.8633327    830.70135  0.014001843  0.012370107          108 
 4945000    0.4663302   -7.8457739     831.0318   0.01400458  0.012366278           63 
 4946000   0.44744169   -7.8521486    830.46915  0.013992269  0.012362447           62 
 4947000   0.46093094   -7.8584996    829.58059  0.013974473  0.012358621           66 
 4948000   0.45753991    -7.848171    830.68575  0.013990261  0.012354795           56 
 4949000    0.4565959   -7.8495989    831.70877   0.01400466   0.01235097           49 
 4950000   0.45691144   -7.8581428    830.03893  0.013973719  0.012347145          100 
 4951000   0.45214028   -7.8468668    831.31291   0.01399234  0.012343325           38 
 4952000   0.45882864   -7.8573836    830.63506  0.013978108  0.012339508           55 
 4953000   0.46174913   -7.8494604    830.09853  0.013966258  0.012335692           35 
 4954000    0.4563268   -7.8541327    831.98797  0.013995222  0.012331875          114 
 4955000   0.45566149   -7.8540757    829.76068  0.013954939  0.012328057           64 
 4956000   0.45530541   -7.8531726    830.83708  0.013970223  0.012324244           42 
 4957000   0.45624084   -7.8513972    831.06263  0.013971196  0.012320429          116 
 4958000   0.46375341   -7.8473978    830.77664  0.013963571  0.012316615           41 
 4959000   0.45706762   -7.8787309    829.79721  0.013944297  0.012312803           39 
 4960000   0.46137944   -7.8579805    830.09803   0.01394654  0.012308992           61 
 4961000   0.46197037   -7.8541936    830.59171  0.013952021   0.01230518          105 
 4962000   0.45195343   -7.8535976    830.04538  0.013940034  0.012301374           48 
 4963000   0.45489339    -7.860728    831.15563  0.013955867  0.012297568           61 
 4964000   0.46327604   -7.8783022    829.88142  0.013931665  0.012293762           96 
 4965000   0.45818048   -7.8467058    829.87328  0.013928722  0.012289953           56 
 4966000   0.45383847   -7.8530119    830.65976  0.013939115  0.012286152           58 
 4967000   0.45886838   -7.8619859    829.92365  0.013923959  0.012282352          100 
 4968000   0.46224617   -7.8531043    829.53447  0.013914628  0.012278557           54 
 4969000   0.45453421   -7.8647896      829.689  0.013914419  0.012274765           45 
 4970000   0.45809565   -7.8449819    830.32029  0.013922205  0.012270969           69 
 4971000   0.44983546   -7.8682445    831.52818  0.013939653   0.01226718           60 
 4972000     0.448423   -7.8495828    830.91652  0.013926598  0.012263387           48 
 4973000   0.45958724   -7.8601463     830.5494  0.013917645    0.0122596           52 
 4974000   0.44723988   -7.8652801    830.37185  0.013911873  0.012255811          105 
 4975000   0.45969141   -7.8532709    830.45459  0.013910462  0.012252019           89 
 4976000   0.45606003   -7.8498083    830.53875  0.013909076  0.012248235           67 
 4977000    0.4488542   -7.8504127    829.51321   0.01388911   0.01224445           52 
 4978000   0.45434722   -7.8770951    830.48131  0.013902526  0.012240665          107 
 4979000   0.45228048   -7.8635597    830.57368   0.01390128   0.01223688          116 
 4980000    0.4650329   -7.8600056    830.24792  0.013893037  0.012233095           95 
 4981000   0.46011975   -7.8544941    830.62839  0.013896614  0.012229316           47 
 4982000     0.460767   -7.8569302    829.21459  0.013870176  0.012225537           57 
 4983000   0.45789877   -7.8654736    830.37711  0.013886834  0.012221759          113 
 4984000   0.45649582   -7.8759854    830.14373  0.013880145  0.012217983          173 
 4985000   0.44821741   -7.8558177    830.61232  0.013885194   0.01221421          109 
 4986000   0.45351948   -7.8615594      829.988  0.013871975  0.012210438           75 
 4987000   0.44790965   -7.8662004    830.28219  0.013874109  0.012206665           68 
 4988000   0.46398016   -7.8638696    831.08258    0.0138847  0.012202897           47 
 4989000   0.44998337   -7.8715014    830.15265  0.013866384  0.012199128          115 
 4990000   0.46019097   -7.8613633    829.99865  0.013861033  0.012195361           52 
 4991000   0.45922048   -7.8654115    830.48805  0.013866427  0.012191594          130 
 4992000   0.44339179   -7.8549942    829.85576  0.013853094  0.012187825           39 
 4993000    0.4479783   -7.8718983    830.72594  0.013864843  0.012184061           70 
 4994000   0.45018349   -7.8548159    830.52533  0.013858719  0.012180302           91 
 4995000    0.4556496    -7.853804    830.35347  0.013853078  0.012176541           49 
 4996000   0.44625332    -7.862574    831.12448  0.013863165  0.012172779           37 
 4997000   0.44820767   -7.8591448    831.35404  0.013864219   0.01216902           58 
 4998000   0.46217542   -7.8507952    830.57357  0.013848432  0.012165264          100 
 4999000   0.45047094   -7.8623735    830.11889  0.013838083  0.012161506          102 
 5000000   0.44840385   -7.8707212    830.35645  0.013839274  0.012157754           54 
 5001000   0.44543229   -7.8783945    830.98908  0.013847049  0.012154001           62 
 5002000   0.45309337   -7.8784491    830.67392   0.01383903  0.012150252           76 
 5003000   0.43970642   -7.8688657    830.19662  0.013828313  0.012146504           35 
 5004000   0.45428074   -7.8685671    830.07592   0.01382354  0.012142757           68 
 5005000    0.4530313    -7.882844    831.36746  0.013842282  0.012139009           84 
 5006000   0.44179332   -7.8651766    829.91039  0.013815261  0.012135264           78 
 5007000   0.45866214   -7.8705155    829.38988  0.013803839  0.012131523           78 
 5008000   0.44432809   -7.8815163    829.71494  0.013806492  0.012127778          117 
 5009000   0.45279212   -7.8656099      831.573  0.013834648  0.012124037           86 
 5010000   0.44979841   -7.8630007    829.97468  0.013805301  0.012120295           95 
 5011000   0.44152003   -7.8677039    829.81074  0.013799819  0.012116556           97 
 5012000   0.44760399   -7.8705081    830.35401  0.013806099  0.012112819           48 
Loop time of 11056.4 on 48 procs for 5000000 steps with 4000 atoms

Performance: 78144.641 tau/day, 452.226 timesteps/s
99.4% CPU use with 48 MPI tasks x no OpenMP threads

MPI task timing breakdown:
Section |  min time  |  avg time  |  max time  |%varavg| %total
---------------------------------------------------------------
Pair    | 686.77     | 727.66     | 764.09     |  74.9 |  6.58
Neigh   | 68.821     | 70.593     | 72.516     |  11.5 |  0.64
Comm    | 626.54     | 659.17     | 701.39     |  70.5 |  5.96
Output  | 13.426     | 13.43      | 13.515     |   0.3 |  0.12
Modify  | 9425.4     | 9468       | 9498       |  20.2 | 85.63
Other   |            | 117.5      |            |       |  1.06

Nlocal:        83.3333 ave          95 max          77 min
Histogram: 3 10 6 10 8 7 1 1 1 1
Nghost:        1840.15 ave        1867 max        1822 min
Histogram: 6 3 10 5 8 6 3 4 2 1
Neighs:        11371.3 ave       12967 max        9853 min
Histogram: 1 3 6 7 5 12 7 3 2 2
FullNghs:      22742.0 ave       26328 max       20993 min
Histogram: 8 8 7 6 12 3 2 1 0 1

Total # of neighbors = 1091614
Ave neighs/atom = 272.90350
Neighbor list builds = 269248
Dangerous builds = 0

#clear
#
#next RN
#
#jump SELF
Total wall time: 3:04:19
