
units lj                  # Use reduced LJ style units
atom_style atomic         # Uncharged point particles
atom_modify map hash      # Needed for indexing of clusters etc
                          # Used to be able to find where atoms are in relation to each other.

lattice fcc 1.0 spacing 1 1 1
Lattice spacing in x,y,z = 1.5874011 1.5874011 1.5874011
region box block 0 10 0 10 0 10 units lattice
create_box 2 box
Created orthogonal box = (0.0000000 0.0000000 0.0000000) to (15.874011 15.874011 15.874011)
  3 by 4 by 4 MPI processor grid
create_atoms 1 box
Created 4000 atoms
  using lattice units in orthogonal box = (0.0000000 0.0000000 0.0000000) to (15.874011 15.874011 15.874011)
  create_atoms CPU = 0.015 seconds
set type 1 type/fraction 2 0.37 78393
Setting atom values ...
  1496 settings made for type/fraction
mass 1 1.0
mass 2 1.0
pair_style lj/cut  3.5
pair_modify tail  yes
pair_coeff 1  1  1.0  1.0   # Intearaction between 1 and 1 set with epsilon = 1 and sigma = 1
pair_coeff 1  2  1.5  0.8
pair_coeff 2  2  0.5  0.88

write_data data.0
System init for write_data ...
Neighbor list info ...
  update every 1 steps, delay 10 steps, check yes
  max neighbors/atom: 2000, page size: 100000
  master list distance cutoff = 3.8
  ghost atom cutoff = 3.8
  binsize = 1.9, bins = 9 9 9
  1 neighbor lists, perpetual/occasional/extra = 1 0 0
  (1) pair lj/cut, perpetual
      attributes: half, newton on
      pair build: half/bin/atomonly/newton
      stencil: half/bin/3d
      bin: standard
WARNING: Not all mixed pair coeffs generated from mixing. Use write_data with 'pair ij' option to store all pair coeffs. (../write_data.cpp:312)


#############################
#   M E L T   S Y S T E M   #
#############################

velocity all create 2.4 5833274 mom yes dist gaussian # Assign velocities
                                                    # Temperature 2.4, random number seed, zero linear momentum
                                                                                # Gaussian distribution

timestep 0.002   # simulation timestep
thermo 1000       # output thermodynamic data every 1000 steps bf 100

# Define a fix  in this case with index 1 applied to all
# particles in the simulation. This fix is for simulations
# in the anisotropic NPT ensemble. Note that we use the MTK
# correction.
fix 1 all npt temp 2.4 2.4 0.1 iso 5.68 5.68 0.5 mtk yes tchain 5 pchain 5 # Use NPT ensemble
                                                                         # Set temperature and pressure and damping
                                                                         # Numbers of thermostats in chain and in barostat
run 10000          # run for 10000 steps
Per MPI rank memory allocation (min/avg/max) = 3.642 | 3.644 | 3.648 Mbytes
Step Temp E_pair E_mol TotEng Press Volume 
       0          2.4   -6.0326183            0   -2.4335183   -4.1254262         4000 
    1000    2.4366223   -4.9981988            0   -1.3441792    5.8473484    3967.9628 
    2000    2.3787434   -4.9990311            0   -1.4318081    5.4030553     4003.123 
    3000    2.3699608   -5.0072029            0   -1.4531504    5.6577802    3973.2043 
    4000     2.402542   -5.0490022            0   -1.4460902    5.8647981     3947.513 
    5000    2.4069194    -4.978974            0   -1.3694975    5.9603473    3964.0744 
    6000    2.3742264   -5.0701982            0    -1.509749    5.8997484    3926.0306 
    7000    2.3815621   -5.0749395            0   -1.5034894     5.864782    3927.7052 
    8000    2.4058019   -5.0473241            0   -1.4395234    5.7571974    3949.6153 
    9000    2.3771026   -5.0352482            0   -1.4704856     5.953043    3937.1641 
   10000    2.4417465   -5.0777689            0   -1.4160648     5.468525    3957.1142 
Loop time of 2.51957 on 48 procs for 10000 steps with 4000 atoms

Performance: 685832.069 tau/day, 3968.936 timesteps/s
99.6% CPU use with 48 MPI tasks x no OpenMP threads

MPI task timing breakdown:
Section |  min time  |  avg time  |  max time  |%varavg| %total
---------------------------------------------------------------
Pair    | 1.0996     | 1.1671     | 1.256      |   3.1 | 46.32
Neigh   | 0.20705    | 0.21681    | 0.23339    |   1.0 |  8.61
Comm    | 0.77561    | 0.86845    | 0.95216    |   4.5 | 34.47
Output  | 0.00026554 | 0.00027138 | 0.00034092 |   0.0 |  0.01
Modify  | 0.20214    | 0.25165    | 0.29722    |   5.5 |  9.99
Other   |            | 0.01528    |            |       |  0.61

Nlocal:        83.3333 ave          93 max          73 min
Histogram: 2 1 2 8 9 8 6 6 4 2
Nghost:        1651.10 ave        1671 max        1631 min
Histogram: 5 5 3 6 3 8 4 2 5 7
Neighs:        9658.31 ave       11315 max        8067 min
Histogram: 2 2 3 11 9 4 9 4 2 2

Total # of neighbors = 463599
Ave neighs/atom = 115.89975
Neighbor list builds = 908
Dangerous builds = 218

# Equilibrate just above the melting temperature to avoid step fn in T

fix 1 all npt temp 1.25 1.25 0.1 iso 5.68 5.68 0.5 mtk yes tchain 5 pchain 5
run 2000
Per MPI rank memory allocation (min/avg/max) = 3.643 | 3.645 | 3.649 Mbytes
Step Temp E_pair E_mol TotEng Press Volume 
   10000    2.4417465   -5.0777689            0   -1.4160648     5.468525    3957.1142 
   11000    1.2650419   -6.9711888            0   -5.0741003    5.7378578    3160.2725 
   12000    1.2501006   -7.0274241            0   -5.1527419    5.4135675    3165.9253 
Loop time of 0.596586 on 48 procs for 2000 steps with 4000 atoms

Performance: 579296.599 tau/day, 3352.411 timesteps/s
99.6% CPU use with 48 MPI tasks x no OpenMP threads

MPI task timing breakdown:
Section |  min time  |  avg time  |  max time  |%varavg| %total
---------------------------------------------------------------
Pair    | 0.25029    | 0.28943    | 0.30983    |   2.2 | 48.51
Neigh   | 0.038575   | 0.041724   | 0.043506   |   0.5 |  6.99
Comm    | 0.19458    | 0.21619    | 0.25869    |   2.8 | 36.24
Output  | 5.3026e-05 | 5.4422e-05 | 7.1129e-05 |   0.0 |  0.01
Modify  | 0.040895   | 0.043997   | 0.047678   |   0.9 |  7.37
Other   |            | 0.005187   |            |       |  0.87

Nlocal:        83.3333 ave          91 max          75 min
Histogram: 1 3 2 8 10 7 6 5 4 2
Nghost:        1922.90 ave        1944 max        1906 min
Histogram: 4 7 4 5 6 10 3 4 4 1
Neighs:        12076.6 ave       13747 max       11070 min
Histogram: 6 8 6 6 8 7 3 1 2 1

Total # of neighbors = 579678
Ave neighs/atom = 144.91950
Neighbor list builds = 144
Dangerous builds = 9

#############################
# L I N E A R  Q U E N C H  #
#############################

# Define solid atoms. This closely follows ten Wolde  Ruiz-Montero and Frenkel  Faraday Discuss  1996  104  93-110
# Compute components of the per-atom q6 vector
compute q6 all orientorder/atom degrees 1 6 components 6 nnn NULL cutoff 1.3 # compute the Q6 parameter.
                                                                             # Use all neighbours within 1.3 unit cell.

# get number of connections
compute coord_number all coord/atom orientorder q6 0.5

# An atom is solid if it has 8 or more connections (of a possible 14)
variable is_solid atom c_coord_number>=8
group solid dynamic all var is_solid    # Must be dynamic to update
dynamic group solid defined

# do clustering
compute cluster solid cluster/atom 1.3 # Create a cluster where all atoms within are solid and max 1.3 units from another member

# define chunks one chunk per cluster
compute clus_chunks solid chunk/atom c_cluster nchunk every compress yes  # Says which atoms are in which chunk

# count the size of each chunk
compute size_chunks solid property/chunk clus_chunks count


# Find the maximum entry in the vector of chunk sizes
variable max_n equal max(c_size_chunks)


# Thermo style which includes this variable
# thermo_style custom step temp pe vol v_max_n

thermo ${N}  # Print the thermo information every 100 steps
thermo 1000  

# Reset the npt fix at a lower temperature (below freezing)
fix 1  all npt temp  ${temp} ${temp}  0.1  iso  5.68  5.68  0.5  mtk yes tchain  5  pchain  5
fix 1  all npt temp  0.45 ${temp}  0.1  iso  5.68  5.68  0.5  mtk yes tchain  5  pchain  5
fix 1  all npt temp  0.45 0.45  0.1  iso  5.68  5.68  0.5  mtk yes tchain  5  pchain  5

dump dmp2 all dcd ${N} traj.dcd
dump dmp2 all dcd 1000 traj.dcd


compute msd all msd com yes
variable twopoint equal c_msd[4]/6/(step*dt+1.0e-6)
fix 9 all vector 10 c_msd[4]
variable fit equal slope(f_9)/6/(10*dt)
thermo_style custom step temp pe c_msd[4] v_twopoint v_fit v_max_n

fix 1 all npt temp 1.25 ${temp} 0.1 iso 5.68 5.68 0.5 mtk yes tchain 5 pchain 5
fix 1 all npt temp 1.25 0.45 0.1 iso 5.68 5.68 0.5 mtk yes tchain 5 pchain 5
run 5000000 # 5000000  # Run for this many steps
Neighbor list info ...
  update every 1 steps, delay 10 steps, check yes
  max neighbors/atom: 2000, page size: 100000
  master list distance cutoff = 3.8
  ghost atom cutoff = 3.8
  binsize = 1.9, bins = 8 8 8
  4 neighbor lists, perpetual/occasional/extra = 1 3 0
  (1) pair lj/cut, perpetual
      attributes: half, newton on
      pair build: half/bin/atomonly/newton
      stencil: half/bin/3d
      bin: standard
  (2) compute orientorder/atom, occasional
      attributes: full, newton on
      pair build: full/bin/atomonly
      stencil: full/bin/3d
      bin: standard
  (3) compute coord/atom, occasional
      attributes: full, newton on
      pair build: full/bin/atomonly
      stencil: full/bin/3d
      bin: standard
  (4) compute cluster/atom, occasional
      attributes: full, newton on
      pair build: full/bin/atomonly
      stencil: full/bin/3d
      bin: standard
Per MPI rank memory allocation (min/avg/max) = 9.818 | 9.826 | 9.831 Mbytes
Step Temp PotEng c_msd[4] v_twopoint v_fit v_max_n 
   12000    1.2501006   -7.0274241            0            0 8.3333333e+20            1 
   13000     1.236294   -7.0351977   0.49989181 0.0032044346  0.041238093            1 
   14000    1.2350346    -7.055671   0.90414718 0.0053818282  0.037460162            1 
   15000    1.2661643   -7.0690011    1.2908774 0.0071715407  0.035007676            2 
   16000    1.2614457   -7.0168958    1.7270692 0.0089951516  0.034556754            5 
   17000    1.2296709   -7.0743183    2.1775163  0.010674099  0.034926835            3 
   18000    1.2815359   -7.0380169    2.6269872  0.012161978  0.035524455            1 
   19000    1.2571121   -7.0618379    3.0908401  0.013556316  0.035895059            5 
   20000    1.2543119   -7.0534794    3.5856015  0.014940006  0.036373444            2 
   21000    1.2604729   -7.0357759    4.1183799  0.016342777  0.037085438            2 
   22000    1.2259239   -7.0648087    4.5733932  0.017323459   0.03769042            1 
   23000    1.2533553   -7.0276536    4.9761371  0.018029482  0.037940537            3 
   24000    1.2570311   -6.9852725    5.4332801  0.018865556  0.038025225            2 
   25000    1.2388086   -7.0590312    5.9447219  0.019815739  0.038079258            1 
   26000    1.2616563   -7.0497474    6.3642367  0.020398194  0.038196932            2 
   27000    1.2411185   -7.0306025    6.8462176  0.021130301  0.038225557            1 
   28000    1.2568136   -7.0654948    7.2786373  0.021662611  0.038246527            2 
   29000    1.2529875   -7.0664018    7.7245796  0.022197068  0.038274341            1 
   30000    1.2302693   -7.0658544    8.2242343  0.022845095  0.038281221            1 
   31000    1.2630613    -7.058151    8.6734939  0.023315843  0.038300987            1 
   32000    1.2530898   -7.0623782    9.1500816  0.023828337  0.038337335            1 
   33000    1.2568283   -7.0680656    9.3849734  0.023699427  0.038277951            3 
   34000     1.238173   -7.0511097    9.7380112  0.023867674  0.038039074            1 
   35000      1.24631   -7.0260504    10.291514  0.024503604  0.037838895            1 
   36000    1.2490634   -7.0497326    10.704721  0.024779446  0.037682901            1 
   37000     1.245819   -7.0522563    11.062994  0.024916652  0.037522168            1 
   38000    1.2405832   -7.0676888    11.600713   0.02544016  0.037400446            1 
   39000    1.2700339   -7.0602675    11.952258  0.025539012  0.037278994            1 
   40000     1.281292   -7.0537742    12.333873  0.025695568   0.03714257            1 
   41000    1.2566299   -7.0288522    12.770781  0.025956871  0.037025234            5 
   42000    1.2370483   -7.1049499    13.282611  0.026354386  0.036955101            2 
   43000    1.2270534   -7.0291517    13.684013  0.026519404  0.036914741            1 
   44000    1.2512699   -7.0368517    14.051996  0.026613628  0.036846817            2 
   45000    1.2548431    -7.067456    14.470713  0.026797616  0.036739079            2 
   46000    1.2144976   -7.0675686    14.864753  0.026928901  0.036629794            1 
   47000     1.262281   -7.0387232    15.397075  0.027299778  0.036564545            3 
   48000    1.2509799   -7.0665829    15.809727  0.027447442  0.036529495            2 
   49000    1.2705067   -7.0475995    16.260073  0.027653185  0.036497161            1 
   50000     1.221443   -7.0730704    16.657462  0.027762436  0.036455902            3 
   51000    1.2288436   -7.0465699    17.071944  0.027895333  0.036411995            1 
   52000    1.2531067    -7.024384    17.520908  0.028078379  0.036367023       -1e+20 
   53000    1.2694671   -7.0574267    18.042161  0.028368178  0.036352374            1 
   54000    1.2653743    -7.039679    18.529543  0.028594974   0.03637203       -1e+20 
   55000    1.2496231   -7.0617795    18.873819  0.028596695  0.036378886            2 
   56000    1.2529743   -7.0354376    19.339201  0.028778573  0.036376451            1 
   57000    1.2421136   -7.0774395    19.754542  0.028880909  0.036365546            1 
   58000    1.2499246   -7.0666168    20.275507  0.029131475  0.036367298            1 
   59000    1.2419715   -7.0367819    20.814459  0.029398953  0.036392239            1 
   60000    1.2268279   -7.1262972    21.236818   0.02949558  0.036420288            1 
   61000    1.2692453   -7.0649861    21.596258  0.029503085  0.036431371            1 
   62000    1.2530117   -7.0521613    22.049512  0.029636441   0.03643265            1 
   63000    1.2655781   -7.0379712    22.471362  0.029724024  0.036439303            1 
   64000    1.2262852   -7.0882816    22.881854   0.02979408  0.036455323            2 
   65000     1.234073   -7.0971951    23.389557  0.029986611  0.036467592            1 
   66000    1.2527885   -7.0631438    23.948544   0.03023806  0.036491519            4 
   67000    1.2475201   -7.0919829    24.485311  0.030454366  0.036519736            1 
   68000    1.2451211     -7.07242    24.950119  0.030576126  0.036563682            3 
   69000    1.2432881   -7.0539211    25.522482  0.030824253  0.036618752            2 
   70000    1.2366551   -7.0560746    26.102677  0.031074616  0.036688694            1 
   71000    1.2302852   -7.0608679    26.571917  0.031187696  0.036768474            2 
   72000    1.2263208   -7.0811787    26.933455  0.031172981  0.036825821            1 
   73000    1.2613324   -7.0028261    27.511514  0.031405838  0.036878851            1 
   74000    1.2692487   -7.0750824    27.926742  0.031449033  0.036930961       -1e+20 
   75000    1.2489792   -7.0506564    28.444507  0.031605008  0.036986759            1 
   76000    1.2560029   -7.0404301    28.868273  0.031653808  0.037035107            2 
   77000    1.2397658    -7.083873    29.004074  0.031389691   0.03705809       -1e+20 
   78000    1.2336407   -7.0701306    29.529371  0.031548473  0.037076144            5 
   79000    1.2094625   -7.0719982    29.911644  0.031552367  0.037096411            1 
   80000     1.270336   -7.0894476    30.333263  0.031597149   0.03710958            1 
   81000    1.2497544   -7.1027411    30.870188  0.031759453  0.037119073            1 
   82000    1.2554932   -7.0531791    31.240458  0.031748432  0.037134058            1 
   83000    1.2698498   -7.0730963    31.558311  0.031685051  0.037134024            1 
   84000    1.2454884   -7.0477575     31.83327  0.031580625   0.03712184            2 
   85000     1.256596   -7.0845934     32.11792  0.031488157  0.037094433            2 
   86000     1.228725   -7.0839604    32.646602  0.031634304  0.037064903            1 
   87000    1.2486956   -7.0700649    32.812889   0.03142997  0.037028434            1 
   88000    1.2521939   -7.1109101    33.096016  0.031340924  0.036985514            2 
   89000     1.249989   -7.0643036    33.540367  0.031404838  0.036943285            1 
   90000    1.2355377   -7.0996861     33.92725   0.03141412  0.036888195            2 
   91000    1.2366686   -7.0907872     34.29582  0.031406428  0.036840494            1 
   92000     1.238972    -7.067403    35.020786  0.031721726  0.036799568            1 
   93000    1.2400229   -7.0605062    35.366367  0.031690292  0.036768644            1 
   94000    1.2728034   -7.0982672    35.681185  0.031632256  0.036729661            2 
   95000    1.2295984   -7.0806231    36.459836  0.031982312  0.036711272            1 
   96000    1.2354622   -7.0768195    36.823705  0.031965022    0.0366921            1 
   97000    1.2457964   -7.0860039    37.044008  0.031824749  0.036667526            2 
   98000    1.2520426   -7.0698599    37.666069   0.03202897  0.036633563            1 
   99000    1.2318157   -7.0789027    38.185581  0.032142745  0.036615355            1 
  100000    1.2492483    -7.002584    38.757089  0.032297574  0.036604477            2 
  101000    1.2118134   -7.0888388    38.986285  0.032166902  0.036594548            1 
  102000    1.2393306   -7.0740372    39.718172  0.032449487  0.036589183            2 
  103000    1.2160324   -7.1013597    40.037181  0.032392541  0.036589331            2 
  104000     1.253686    -7.051815    40.490224   0.03244409  0.036583566            1 
  105000    1.2193573   -7.0852329    40.981664   0.03252513  0.036582385            3 
  106000    1.2345527   -7.1158567    41.083532  0.032298374  0.036575318            1 
  107000    1.2332418   -7.1300655    41.478899  0.032304438  0.036565587            1 
  108000     1.229537   -7.0225869    41.948183  0.032367425  0.036551631            1 
  109000    1.2014972   -7.0405835    42.400772  0.032416492  0.036532791            1 
  110000    1.2314004   -7.0526308    42.655438  0.032314726  0.036513578            1 
  111000    1.2380356   -7.1260412    42.873761  0.032187508  0.036487365            1 
  112000    1.2340598   -7.1081691    43.342515  0.032248895   0.03646597            1 
  113000    1.2339197   -7.1156538    43.674361  0.032208231  0.036439416            2 
  114000    1.2192619   -7.0901519    44.392792  0.032450871   0.03641888            1 
  115000    1.2401651   -7.0857539    44.837907  0.032491237  0.036400546            1 
  116000    1.2173273   -7.0490072    45.133626  0.032423582  0.036376935            2 
  117000    1.2387351   -7.1165091    45.388269  0.032327827  0.036349708            1 
  118000    1.2283908   -7.1078778    45.898339  0.032414081  0.036323955            2 
  119000      1.19383   -7.0759171    46.393648  0.032488549  0.036300014            2 
  120000    1.2569931   -7.0478316    46.886835  0.032560302  0.036280525            2 
  121000    1.1985355   -7.0425646    47.318827  0.032588724   0.03626344            2 
  122000    1.2595279    -7.088527    47.414703  0.032387092   0.03624325            2 
  123000    1.2302993    -7.076755    47.923655  0.032468601  0.036216784            2 
  124000    1.2418765    -7.090735    48.475918  0.032577901  0.036193506            1 
  125000    1.2360562   -7.0414338    48.702759  0.032468506  0.036170209            1 
  126000     1.221409   -7.1033165    49.065385  0.032450651  0.036143256            1 
  127000    1.2191506   -7.0399536    49.623754  0.032561518  0.036118728            1 
  128000    1.2317756   -7.1160533    49.847557  0.032452836  0.036093902            1 
  129000    1.2251567    -7.068579    50.263466  0.032469939   0.03606204            1 
  130000    1.2185835   -7.1077765     50.30013  0.032243673  0.036029572            1 
  131000    1.2251985   -7.1196666    50.514092  0.032133646  0.035989312            2 
  132000    1.2277086   -7.1031572    51.280111  0.032373807  0.035954399            3 
  133000    1.2136704   -7.0683019    51.633577  0.032351865  0.035924875            2 
  134000    1.2321634    -7.040855    51.961881  0.032314602  0.035894641            1 
  135000    1.2299936   -7.1036554    52.302219   0.03228532  0.035861441            2 
  136000    1.2175637   -7.1029963    52.658026  0.032265947  0.035825049            1 
  137000    1.2274486   -7.1106205    52.921673  0.032190799   0.03578465            1 
  138000    1.2050299   -7.0879788    53.168947  0.032106852  0.035743046            2 
  139000     1.198107   -7.1139826    53.557503  0.032108814  0.035704102            1 
  140000    1.2249635   -7.0703976     54.18529  0.032253148  0.035667361            2 
  141000    1.2269769   -7.0756408    54.776564  0.032373856   0.03563304            1 
  142000    1.2273643   -7.1041673    55.239573   0.03241759  0.035607431            1 
  143000    1.2262341    -7.077509    56.040368  0.032657557  0.035586118            3 
  144000    1.2303617   -7.0655115    56.293945  0.032577514  0.035565445            2 
  145000    1.2175364   -7.0833994     56.61406  0.032536816  0.035546731            1 
  146000    1.2327654   -7.1137005    57.152309  0.032621181  0.035527829            2 
  147000    1.2315167   -7.1034428    57.433589  0.032558724  0.035508062            1 
  148000    1.2119864   -7.0959524    57.690002  0.032483109  0.035488412            5 
  149000    1.2550908   -7.0866354    58.059312  0.032471651  0.035463962            2 
  150000    1.2200238   -7.0990862    58.272234  0.032373463   0.03543543            1 
  151000    1.2088391   -7.0963563    58.578361  0.032328014  0.035405431            1 
  152000    1.1941088   -7.0788492    58.907575  0.032295819  0.035377292            1 
  153000    1.1990966   -7.1085063    59.536268  0.032427161  0.035347889            1 
  154000    1.2284605     -7.13707    59.807157   0.03236318   0.03532083            5 
  155000    1.2190841   -7.1139086    59.959336  0.032236202  0.035291722            1 
  156000    1.2343822   -7.0811284    60.297345   0.03221012  0.035260218            1 
  157000     1.217707   -7.0826799    60.847624   0.03229704  0.035228476            1 
  158000    1.2097678   -7.1026084    61.358618   0.03236214  0.035200252            2 
  159000    1.2072982   -7.1261533    61.982082  0.032485368  0.035177202            1 
  160000    1.2441709   -7.0932793    62.303587  0.032449785  0.035154722            3 
  161000     1.230594   -7.0333317    62.774899  0.032492184  0.035133008            1 
  162000    1.2276286   -7.1131861    63.184709  0.032502422   0.03511254            1 
  163000    1.2331233   -7.1135877    63.651649  0.032541743  0.035095545            2 
  164000    1.2436932   -7.1342582    63.699371  0.032367567    0.0350751            1 
  165000    1.1964177   -7.0848854    64.382986  0.032516659  0.035053651            1 
  166000    1.2222376   -7.0703014    64.889641  0.032575121  0.035036044            2 
  167000    1.2434143   -7.1007424    65.042842  0.032456508  0.035018498            1 
  168000    1.2195898   -7.0815623    65.616272  0.032547754  0.035000732            1 
  169000    1.2324266   -7.0742092    66.075302   0.03258151  0.034983157            2 
  170000    1.2196157   -7.1140105    66.296853  0.032498457   0.03496618            1 
  171000    1.2375271   -7.1363605    66.700414  0.032505075  0.034948729            1 
  172000    1.2193925   -7.1287572    67.191273  0.032553911  0.034932293            2 
  173000    1.2348414   -7.1351785    67.343116  0.032438881  0.034914942            2 
  174000    1.2283012   -7.1086188    67.747112  0.032445935   0.03489414            1 
  175000    1.2148407   -7.0855968    68.344388  0.032544947  0.034876233            1 
  176000    1.2255622   -7.0806585    68.713034   0.03253458   0.03485662            1 
  177000    1.2160432   -7.1274974     69.19065  0.032575635    0.0348399            2 
  178000    1.2431027    -7.087189    69.558347  0.032564769  0.034823905            1 
  179000    1.2229265   -7.0869441     69.86508  0.032525642  0.034807722            1 
  180000    1.2253319   -7.1040642    70.416933  0.032600432  0.034792073            3 
  181000    1.2294926   -7.1467357    70.656729  0.032530722   0.03477809            1 
  182000    1.2145723   -7.1345026    71.076467   0.03254417  0.034763137            2 
  183000    1.2010793   -7.1450322    71.514201  0.032565665   0.03474748            1 
  184000    1.2018362   -7.1061795    72.024716   0.03261989  0.034735589            2 
  185000    1.1971458   -7.0794261     72.51615  0.032664933   0.03472314            3 
  186000    1.2136844   -7.1118309    72.982981  0.032698468  0.034713064            1 
  187000    1.2009928   -7.0821303    73.270419  0.032651702  0.034702754            1 
  188000    1.2339804   -7.1273632    73.366013  0.032520396  0.034689674            2 
  189000    1.2171458   -7.0945364    73.918744  0.032592039  0.034673043            1 
  190000    1.2364635   -7.1156056    74.054395  0.032479998  0.034654805            1 
  191000    1.2390928   -7.0874406    74.687284  0.032586075  0.034638637            2 
  192000    1.2159251   -7.1293596    75.094826  0.032593241  0.034624543            1 
  193000    1.2116588   -7.1086432     75.70553  0.032688053  0.034611332            1 
  194000     1.231585   -7.1279722    75.967704  0.032632175  0.034599586            1 
  195000    1.2399614     -7.14081     76.05211  0.032500902  0.034584085            1 
  196000    1.1825969   -7.1359981    76.624776  0.032578561  0.034571653            2 
  197000    1.1912687   -7.1288967    76.967413  0.032558127  0.034558573            1 
  198000    1.1707827   -7.1163525    77.177899   0.03248228  0.034542999            1 
  199000     1.211674   -7.1369136     77.45797  0.032436336    0.0345253            1 
  200000    1.2107623    -7.113046    77.872475  0.032446864  0.034506689            2 
  201000    1.2172186   -7.1130113    78.248634  0.032441391  0.034487962            1 
  202000    1.2057156    -7.123872    78.611355  0.032430427  0.034469833            2 
  203000    1.2142302   -7.1509764    79.044128  0.032448328  0.034452444            1 
  204000    1.1943908   -7.1181381    79.533353  0.032489115   0.03443582            1 
  205000    1.2191594   -7.1259603    79.697504  0.032397359  0.034420041            3 
  206000     1.218063   -7.0786611     80.36912   0.03251178  0.034404233            1 
  207000    1.2160975   -7.1328223    80.462081  0.032392142  0.034386777            2 
  208000    1.2168134   -7.0807069    81.118198  0.032499278  0.034368593            1 
  209000    1.2114629   -7.1160068    81.416202    0.0324626  0.034354292            2 
  210000    1.2395157   -7.0941965    81.755908  0.032442821  0.034338935            1 
  211000    1.2440323   -7.1227064    82.200822   0.03246478  0.034321106            1 
  212000    1.2280079   -7.1598251    82.084848  0.032266057  0.034300663            2 
  213000    1.2094218   -7.1690746    82.391948  0.032234722  0.034280617            1 
  214000    1.2040455   -7.0936144    82.881774  0.032274834  0.034260437            1 
  215000    1.2428074   -7.1246269    82.864172  0.032117896  0.034239005            2 
  216000    1.2100074   -7.1051993    83.727875  0.032302421  0.034219459            1 
  217000    1.2006658    -7.110333    84.048199  0.032276574  0.034201263            1 
  218000    1.2065156   -7.1105017    84.674577  0.032367958  0.034183353            2 
  219000    1.2070432    -7.097213    84.643792  0.032208444  0.034162679            1 
  220000    1.2218946   -7.0882267    84.969767  0.032185518  0.034143349            1 
  221000    1.2356091   -7.1739151    85.620967  0.032285432  0.034125475            1 
  222000     1.216643   -7.0874623    86.501458  0.032470517   0.03410981            1 
  223000    1.2061528   -7.1457046    86.702905  0.032400189  0.034096783            2 
  224000    1.2267725   -7.1008302    86.806555  0.032294105  0.034080886            1 
  225000    1.2095828   -7.1168412    87.238591  0.032310589  0.034064023            2 
  226000    1.2212458   -7.0781482     87.77036  0.032363702   0.03404754            1 
  227000    1.2268812   -7.1320039    87.528664  0.032132402   0.03402944            1 
  228000    1.2261653   -7.1520785     88.02909  0.032174375  0.034010635            3 
  229000    1.1938844   -7.1153885    88.501969  0.032205956  0.033992046            1 
  230000    1.2005702   -7.0586389     89.31183  0.032359359  0.033975266            1 
  231000    1.2371481   -7.1072479    89.414403  0.032256278  0.033959906            2 
  232000    1.2079664   -7.1121141    90.144814  0.032379603  0.033944295            1 
  233000    1.2010485   -7.0680581    90.576208  0.032394924  0.033930882            1 
  234000     1.211686   -7.1385455    90.502548  0.032230252  0.033916155            2 
  235000    1.1926164   -7.1275392     90.83676  0.032211617  0.033901073            1 
  236000     1.225172    -7.130831    91.040553  0.032147088  0.033884508            1 
  237000      1.18608   -7.1122483    91.302442  0.032103531  0.033867227            2 
  238000    1.2036689   -7.1240959    91.761638  0.032129425   0.03384966            1 
  239000    1.2451352   -7.1089666    92.296689  0.032181551  0.033831968       -1e+20 
  240000    1.2034949   -7.1310384    92.212447  0.032018211   0.03381375            2 
  241000    1.2252996   -7.2018888    92.275858  0.031907281  0.033793931            2 
  242000    1.2071568   -7.1220462    93.092219  0.032056549  0.033773973            1 
  243000    1.2130932   -7.1619478    93.327554  0.032005334  0.033755111            1 
  244000    1.1834146   -7.1415062    93.857953  0.032055312  0.033735271            2 
  245000    1.2266855   -7.1383509    93.845486  0.031920233   0.03371616            2 
  246000    1.2131991   -7.1447349    94.242465  0.031924954  0.033695129            2 
  247000    1.2070981   -7.1289143    95.017874  0.032057312  0.033676317            2 
  248000    1.1931525   -7.1207793    95.858518  0.032210523  0.033659661            2 
  249000    1.2232727    -7.124567    96.162612  0.032182936  0.033643995            2 
  250000    1.1940699   -7.1693126    96.148419  0.032049473  0.033627646            2 
  251000    1.2134026   -7.1678748    96.798751  0.032137699  0.033612451            1 
  252000    1.2291844   -7.1449937    97.186039   0.03213824  0.033597557            2 
  253000    1.1865482   -7.1381481    97.213875   0.03202038  0.033581615            1 
  254000    1.2434439   -7.1521589     97.48478  0.031983195   0.03356331            1 
  255000    1.1764333   -7.1037462    98.104267  0.032060218  0.033545687            1 
  256000    1.1962451    -7.159763    98.195037   0.03196453  0.033527672            2 
  257000    1.2114179    -7.137597    98.639758  0.031984357  0.033509471            1 
  258000    1.2273069   -7.1547741    99.090195  0.032005877  0.033492561            2 
  259000    1.2269128   -7.1021024    99.525558   0.03202238  0.033477439            1 
  260000    1.2089819   -7.1761469    99.702778  0.031956018  0.033461663            1 
  261000    1.1858663   -7.1246767    100.56412  0.032108596  0.033446094            1 
  262000    1.2030004   -7.1514286    100.62294  0.032004751  0.033431779            2 
  263000    1.2199032   -7.0748148    101.14353  0.032048013  0.033418023            2 
  264000    1.1820026   -7.1262245    101.88978  0.032162178  0.033403872            1 
  265000    1.1867546   -7.1541091    102.05181  0.032091763   0.03339051            1 
  266000    1.2356095   -7.0946793    102.21807  0.032023203  0.033376044            3 
  267000    1.2115772   -7.1375528    102.19013  0.031894549  0.033361455            1 
  268000    1.2063667   -7.0766963      103.391  0.032148942  0.033349121            2 
  269000    1.2136877   -7.1499828    103.57122  0.032085259  0.033336936            1 
  270000    1.2198926   -7.1350524    103.89779  0.032067218  0.033323746            1 
  271000    1.2179878   -7.1774215    104.16858  0.032032158   0.03331209            1 
  272000    1.1798171   -7.1438138    104.06743  0.031883403  0.033298205            3 
  273000    1.1973387   -7.1503276    104.99322  0.032049212  0.033284227            2 
  274000    1.1901337   -7.1601962    105.07363    0.0319567  0.033270473            1 
  275000    1.2192377   -7.1308136    105.25937  0.031896778  0.033256893            1 
  276000    1.2087406   -7.1460646    106.03867  0.032016506  0.033241651            1 
  277000    1.2401077   -7.1444737     105.9123  0.031862906  0.033226468            1 
  278000    1.2176234    -7.139857    106.21733  0.031839729  0.033211356            2 
  279000    1.1993419   -7.1184719    106.85641  0.031916489  0.033195822            1 
  280000     1.205998   -7.1677915    106.56405  0.031715491  0.033179279            2 
  281000    1.2139528   -7.1220299    107.17754  0.031784561  0.033162766            1 
  282000    1.2292228   -7.1494625     107.4382  0.031748877  0.033147299            3 
  283000    1.2216579   -7.1145193    108.31493  0.031894857  0.033132007            1 
  284000    1.2092846   -7.1378045      108.764   0.03191432  0.033115382            2 
  285000     1.203051   -7.1692356    108.80337  0.031813851  0.033098926            1 
  286000    1.1901773   -7.1732072    109.09324  0.031787075  0.033084302            2 
  287000    1.2117909   -7.1493488    109.39465  0.031763835  0.033069476            2 
  288000    1.2156722   -7.1217961    109.78307  0.031765936  0.033054534            2 
  289000    1.2113277   -7.1616818    110.12124   0.03175353  0.033040117            1 
  290000    1.2007085   -7.1274246     110.4444  0.031736898  0.033025264            2 
  291000    1.2075793   -7.1440647    111.05912   0.03180387  0.033009697            2 
  292000    1.1768812   -7.1523023    111.09043   0.03170389  0.032994408            1 
  293000    1.2107965   -7.1454431    111.61418  0.031744646  0.032979872            1 
  294000    1.1930245    -7.150509     111.7065  0.031662841  0.032964217            1 
  295000    1.1858812   -7.1670631    112.30793  0.031725404  0.032949253            1 
  296000    1.1995447   -7.1281529    112.93048  0.031793491   0.03293454            1 
  297000    1.2210215   -7.1278566    113.26921  0.031781485  0.032920789            1 
  298000    1.1789613    -7.183004    113.65892  0.031783814  0.032908145            2 
  299000    1.1922671   -7.1477782    114.20781  0.031830492  0.032895676            3 
  300000      1.21452   -7.1681416    114.32212  0.031756143  0.032883124            4 
  301000    1.2058379   -7.1729296    115.10442  0.031867226  0.032871821            2 
  302000    1.1810912   -7.1686955    115.10654   0.03176229  0.032860977            2 
  303000    1.2259759   -7.1511039    116.01933  0.031908506  0.032850427            2 
  304000    1.2100268   -7.1485503    116.00453  0.031799488  0.032839302            2 
  305000    1.2204468   -7.1801459     116.4254   0.03181022  0.032828376            1 
  306000    1.2091204   -7.1697491    116.66292  0.031770949  0.032817288            1 
  307000    1.2029114   -7.1464569     117.8233  0.031982439  0.032808453            1 
  308000    1.2132318   -7.0886033    118.06888  0.031945042  0.032800862            2 
  309000     1.168556   -7.1399224    118.45671  0.031946255  0.032793248            1 
  310000    1.2124819   -7.1200176    119.02748  0.031996635  0.032786329            2 
  311000    1.2070643   -7.1624221    119.46143  0.032010028  0.032780398            1 
  312000     1.206785    -7.137486     120.0357  0.032060817  0.032774906            2 
  313000    1.2267866   -7.1554119    119.95774   0.03193763  0.032769041            1 
  314000    1.2103693   -7.1666577    120.40013  0.031953327   0.03276246            2 
  315000    1.1965034   -7.1672022    120.63407  0.031913776  0.032756205            2 
  316000    1.1946125   -7.1576919    121.37485  0.032008136  0.032749886            1 
  317000    1.2196381   -7.1455752    122.22519  0.032130702  0.032744944            1 
  318000    1.2096006   -7.1378497    122.29702  0.032048486  0.032739882            1 
  319000     1.227044   -7.1697795    122.44399  0.031986414  0.032734852            2 
  320000    1.1998611   -7.1326104     123.3103  0.032112056  0.032729159            1 
  321000    1.1973827   -7.1196727    123.09746  0.031956765  0.032723172            1 
  322000    1.2015515    -7.152969    123.56106  0.031977499  0.032717049            1 
  323000    1.1982749   -7.1374255    123.78846  0.031937168  0.032710671            2 
  324000     1.211656   -7.1941451    124.10692  0.031920503   0.03270542            1 
  325000    1.2369896   -7.1642079    124.96591   0.03204254  0.032700476            1 
  326000    1.1951851   -7.1722425     125.3682  0.032047085  0.032695962            1 
  327000    1.2130448   -7.1337312    125.75405  0.032047413  0.032691576            1 
  328000    1.2126314   -7.1355764    126.32712  0.032095305  0.032688067            1 
  329000    1.1808587   -7.1949896    126.22305   0.03197139  0.032683536            1 
  330000    1.1850402   -7.1694888    127.00791  0.032072704   0.03267839            1 
  331000     1.194763   -7.1957433    127.17577  0.032018069  0.032673199            1 
  332000    1.1875051   -7.1936013    127.03775  0.031886986  0.032666782            1 
  333000    1.1827769   -7.1663818    127.90279  0.032007706  0.032660279            1 
  334000    1.2137778   -7.1590848    127.63726  0.031845624  0.032653724            1 
  335000    1.1856449   -7.1376974    127.99336  0.031839145  0.032645099            1 
  336000    1.1856114   -7.1201797    128.83263  0.031952537    0.0326376            3 
  337000     1.197249   -7.1468477    128.80928   0.03185195  0.032629856            2 
  338000    1.2322958   -7.1075459    129.50327  0.031928814  0.032622424            1 
  339000    1.1981216   -7.1532681     129.3215  0.031789947  0.032615165            2 
  340000     1.197921    -7.159368    129.47649  0.031734434  0.032607853            2 
  341000    1.1849615   -7.1734358    130.20282   0.03181887  0.032600439            1 
  342000    1.1908348   -7.0928293    130.84805  0.031883052  0.032593521            1 
  343000     1.202937   -7.1589003     131.2212  0.031880759  0.032587614            3 
  344000    1.1935203   -7.1834247    131.49781  0.031855089  0.032580905            1 
  345000    1.2174843   -7.1459492    132.87891  0.032096356  0.032575346            2 
  346000    1.2092415   -7.1708491    132.81857  0.031989059  0.032571565            5 
  347000    1.2057063   -7.2088384    132.66217   0.03185931   0.03256721            3 
  348000    1.1882801   -7.1593919    133.50411  0.031969376  0.032562957            3 
  349000    1.1742808   -7.1511041    133.94092  0.031982073  0.032559189            1 
  350000    1.1882416   -7.1866449    134.39772  0.031999456  0.032555526            1 
  351000    1.2243943   -7.1486597    134.48946  0.031930071  0.032552449            1 
  352000    1.1897056   -7.2147395    134.85161  0.031925098  0.032548196            2 
  353000    1.1959978   -7.1790371    135.42922  0.031971015  0.032543821            1 
  354000    1.1991106   -7.1597844    135.29547  0.031849217  0.032539034            2 
  355000    1.1841622    -7.172039    135.93947  0.031910675  0.032535256            1 
  356000    1.1473295   -7.1864317    136.26929  0.031898242  0.032530965            1 
  357000    1.1865354    -7.206541    136.95062  0.031967933  0.032526837            1 
  358000    1.1954551   -7.1408299    137.30383  0.031960854  0.032521877            2 
  359000    1.1858096   -7.1652502    137.97963  0.032028699  0.032517724            1 
  360000    1.1803722   -7.2052646    137.80731  0.031899841  0.032513294            1 
  361000    1.2279794   -7.1728042    138.29274  0.031923531  0.032508654            1 
  362000     1.185849   -7.1428171    139.22898  0.032050871  0.032504829            2 
  363000    1.1805711   -7.1408909    139.44903  0.032013092  0.032502832            1 
  364000    1.2040119   -7.1836636    140.31593  0.032123611  0.032500797            3 
  365000    1.2103729   -7.1870294    140.32864  0.032038501  0.032499198            1 
  366000    1.2084249   -7.1955966    140.56101  0.032003873  0.032498082            1 
  367000    1.1689603     -7.22852    141.04107  0.032025675  0.032495797            2 
  368000    1.1960166   -7.1730415      141.807  0.032112092  0.032492417            1 
  369000    1.1705942   -7.1595905    141.95199  0.032057811  0.032489904            1 
  370000    1.1730057   -7.1714237    141.97877  0.031977201   0.03248765            2 
  371000    1.1777118   -7.1531948    142.53305  0.032015509  0.032485001            3 
  372000    1.2019001   -7.2102592     142.6247  0.031949978  0.032482385            1 
  373000    1.1788467   -7.1755052    142.72276   0.03188623  0.032479187            2 
  374000    1.1806503   -7.1840469    143.47226  0.031967971  0.032475444            2 
  375000    1.2001368   -7.1720753    144.18502  0.032041116  0.032472425            1 
  376000    1.1829014   -7.1768748    144.23469  0.031966909  0.032468788            1 
  377000    1.2117074   -7.1993048     144.1626  0.031866181  0.032465274            1 
  378000    1.2082143   -7.1462955    144.94565  0.031954509  0.032461703            1 
  379000    1.1964041   -7.1848152    145.17183  0.031919928  0.032458084            1 
  380000     1.161115   -7.2205114    145.65486  0.031941856  0.032453811            1 
  381000    1.1809072   -7.1762188    146.03036  0.031940149  0.032448857            1 
  382000    1.1961774   -7.1924661    145.88235  0.031824248  0.032444394            2 
  383000    1.2038733   -7.1695091    146.60068  0.031897449  0.032440203            1 
  384000    1.1899326   -7.1477876    147.16944  0.031937813  0.032436633            2 
  385000    1.1892816   -7.1962984    147.19097  0.031859517  0.032432334            1 
  386000    1.1767111   -7.1944621     147.6776  0.031882038    0.0324286            1 
  387000    1.1881759   -7.1935378    148.09294  0.031889091  0.032425203            2 
  388000    1.1954363   -7.2007298     148.6887  0.031934858  0.032422055            2 
  389000    1.1896125    -7.162127    149.27572  0.031978517  0.032419091            1 
  390000    1.1904071   -7.2144214    149.66893   0.03198054  0.032416809            1 
  391000    1.1877865   -7.1793325    150.23986  0.032020431   0.03241522            1 
  392000    1.1822857   -7.1832462    150.66027  0.032028119  0.032414074            1 
  393000    1.2177787   -7.2188353    151.12708  0.032045606   0.03241314            1 
  394000    1.1866525   -7.2086037    151.51517  0.032046355  0.032411734            2 
  395000    1.2122154   -7.1450576    152.51469  0.032176094  0.032411461            2 
  396000     1.195782   -7.1857578    152.90488  0.032176953  0.032410394            2 
  397000    1.1876844   -7.1836197     153.1835  0.032154388  0.032409533            2 
  398000      1.21562   -7.2001505    152.90794  0.032015901   0.03240816            1 
  399000    1.2002221   -7.1991879    153.22152  0.032001153  0.032405651            1 
  400000     1.152589   -7.2039126    153.70857  0.032022619  0.032403182            3 
  401000    1.1302281   -7.1709571    154.11041  0.032026269  0.032401037            2 
  402000    1.1808687   -7.2039388    154.56105  0.032040018  0.032398983            2 
  403000    1.1984302   -7.1905036    155.05498  0.032062651  0.032396806            1 
  404000    1.1741475   -7.2224812    155.28709  0.032031165  0.032395163            2 
  405000    1.2007784   -7.2116049    155.93796     0.032086  0.032394542            1 
  406000     1.187191   -7.2007666     156.2514  0.032071305  0.032393529            1 
  407000     1.149316   -7.1643276    157.04673   0.03215535  0.032393646            3 
  408000     1.193161   -7.1895694    156.95509  0.032057821  0.032393483            1 
  409000    1.1966195   -7.2106715     157.5085  0.032092195  0.032392754            1 
  410000    1.1746772    -7.202741    157.91091  0.032095714  0.032392703            1 
  411000    1.1466751   -7.1584089    159.04799  0.032248173  0.032392815            1 
  412000    1.1784414   -7.1553519    158.97237  0.032154606  0.032392442            1 
  413000    1.1861355   -7.1611593     159.6368  0.032210815  0.032392088            1 
  414000    1.1896503   -7.1674483    159.19226   0.03204353  0.032391467            2 
  415000    1.1871887   -7.1719861    159.25448  0.031978812  0.032390672            4 
  416000    1.1769036   -7.1875587    160.52713  0.032156877  0.032389658            3 
  417000     1.175159   -7.1940729    159.71886  0.031918238  0.032387087            2 
  418000    1.1816516   -7.1994878    160.47001  0.031991629  0.032384036            1 
  419000    1.1938288   -7.2026912    160.39655  0.031900666  0.032380773            2 
  420000    1.1830768   -7.2385814    160.94317  0.031933169  0.032377941            4 
  421000    1.1771545   -7.1645002    161.43072  0.031953824  0.032374843            1 
  422000    1.1873278    -7.175479    162.11313  0.032012861  0.032371621            1 
  423000    1.1985611   -7.1801691    161.80411  0.031876302  0.032367556            2 
  424000    1.2011319   -7.2142108    162.13988  0.031867115  0.032363767            1 
  425000    1.1957475   -7.1685655    162.10491  0.031785277  0.032359538            1 
  426000     1.186079   -7.1739442    162.24443  0.031737955  0.032354442            1 
  427000    1.1835852   -7.1789469    163.04018  0.031818926  0.032348937            1 
  428000    1.1912638   -7.2289791    162.95553  0.031728101  0.032343266            2 
  429000    1.1695001   -7.1868864    163.82201  0.031822458  0.032337516            1 
  430000    1.2149001   -7.1375527    164.46715  0.031873478  0.032332411            2 
  431000    1.1806941   -7.2167671    163.99042  0.031707351  0.032327383            4 
  432000    1.1950777   -7.1908419    164.11794  0.031658554  0.032321901            2 
  433000      1.19697   -7.1657428    164.83629  0.031723689  0.032316029            2 
  434000    1.1933223   -7.1560343    165.69389  0.031815263  0.032310469            1 
  435000     1.172606   -7.2352899    165.64923   0.03173357  0.032305193            2 
  436000    1.1700184   -7.2184857    166.10707  0.031748292  0.032299888            1 
  437000    1.2054248   -7.1592032    167.35924  0.031914423  0.032295527            1 
  438000    1.1933236   -7.2039874    167.29738  0.031829792  0.032291673            3 
  439000    1.1707946    -7.190122    167.35812  0.031768815   0.03228774            1 
  440000    1.2040041   -7.2219193    167.34742  0.031694587  0.032282871            2 
  441000    1.1696122   -7.2051488    168.17296  0.031778715  0.032278384            6 
  442000     1.179292    -7.189168    168.72752  0.031811372  0.032274413            1 
  443000    1.1769018   -7.1247901    169.02414  0.031795361  0.032270975            1 
  444000      1.17836   -7.1945803    169.34067  0.031783158  0.032266695            3 
  445000     1.190684   -7.1864759    169.78963  0.031795812  0.032262746            2 
  446000    1.1962594   -7.1990494    170.45511  0.031848863  0.032259064            3 
  447000    1.1609147   -7.2291789    170.06373  0.031704648  0.032255458            2 
  448000    1.1921348   -7.2084864     170.9477  0.031798308  0.032250841            1 
  449000    1.1782402    -7.242506     170.9011  0.031718838  0.032246076            1 
  450000    1.1622638   -7.2613758    171.73579  0.031802924  0.032241715            3 
  451000    1.1762903   -7.1547533    172.64168  0.031899793  0.032238333            3 
  452000    1.1935468   -7.1945325    172.65801  0.031832229  0.032234185            3 
  453000    1.1959558   -7.2247995    172.73047  0.031775288  0.032230362            2 
  454000    1.1587241   -7.2114498    173.61834  0.031868271   0.03222691            2 
  455000    1.1799537   -7.2352389    173.73186  0.031819021  0.032223374            1 
  456000    1.1787881   -7.2070811    174.31217  0.031855295  0.032220433            1 
  457000    1.2187296   -7.2238726    174.74497   0.03186451  0.032217998            1 
  458000    1.1977804    -7.171747    175.45467  0.031924067   0.03221562            1 
  459000    1.1942997   -7.2196827    174.66699  0.031711509  0.032213146            2 
  460000    1.1889264   -7.2052013    175.66323  0.031823048  0.032209529            2 
  461000    1.1624691     -7.22485    175.13713  0.031658916  0.032205138            3 
  462000    1.1520759   -7.1494589    176.64365   0.03186213  0.032201477            2 
  463000    1.1704207   -7.1768784    176.72231  0.031807471  0.032198606            2 
  464000    1.1669219   -7.1952193    177.29584  0.031841925  0.032195111            2 
  465000    1.1647922   -7.2357404    177.30698  0.031775444  0.032191592            1 
  466000    1.1699132   -7.2246865    177.60362  0.031760303  0.032188169            2 
  467000    1.1537639   -7.1993364    178.77256  0.031900885  0.032185728            1 
  468000    1.1877147   -7.2173304     178.2863  0.031746135  0.032183691            1 
  469000    1.1935239   -7.2069846    179.22534  0.031845298  0.032180721            3 
  470000    1.1825444   -7.2110152    179.29378  0.031789678  0.032177885            1 
  471000     1.164104   -7.2599509    179.83118  0.031817265  0.032174153            2 
  472000    1.1510984    -7.254077    179.80209  0.031744719  0.032170325            1 
  473000    1.1734639   -7.2501595    180.12146  0.031733873  0.032166734            1 
  474000    1.1612042   -7.2311961    180.18161  0.031677499  0.032162876            1 
  475000     1.161064   -7.2483947    181.10735  0.031773219  0.032159595            2 
  476000    1.1745254   -7.1794324     181.2883  0.031738147  0.032155867            3 
  477000    1.1380651   -7.1979508    181.58927   0.03172419   0.03215248            1 
  478000    1.1652093   -7.2356061    181.86445  0.031705797  0.032149173            2 
  479000    1.1803118   -7.1735952    182.67883  0.031781285  0.032146338            2 
  480000     1.188674   -7.2164319    182.97056  0.031765723  0.032143055            1 
  481000    1.1968044   -7.2305587    182.69718  0.031652318  0.032138698            1 
  482000    1.1863859   -7.2049719    183.38008  0.031704717  0.032134578            1 
  483000    1.1768266   -7.2019715    183.22004  0.031611463   0.03213043            1 
  484000    1.1814968   -7.2062719    183.89312  0.031662039  0.032126297            2 
  485000    1.1686063   -7.2089752    183.98957  0.031613328  0.032122431            1 
  486000    1.1727677   -7.2238562    185.16068  0.031749088   0.03211858            2 
  487000    1.1675565   -7.1987231    185.61886  0.031762296  0.032114937            1 
  488000    1.1631382    -7.202826    186.56265  0.031858376  0.032112252            2 
  489000    1.1712809   -7.2190118    186.67076   0.03181165  0.032109712            2 
  490000    1.1907614   -7.2318857    187.15256  0.031828667  0.032107498            2 
  491000    1.1637933   -7.2487805    187.33634  0.031795033  0.032105044            1 
  492000     1.164119     -7.22645    187.66164  0.031785508  0.032102696            1 
  493000    1.1587126   -7.2169785    188.07067  0.031790174  0.032100439            1 
  494000    1.1809637   -7.2478028    188.37787  0.031777644  0.032097601            4 
  495000    1.1487796   -7.2475618    189.05593  0.031827598   0.03209464            1 
  496000    1.1865578    -7.234078    189.25422  0.031796744  0.032091697            3 
  497000    1.1715037   -7.2118177    189.76936  0.031819141   0.03208902            1 
  498000    1.1744263   -7.1973601    189.77698  0.031756523   0.03208566            1 
  499000    1.1618772   -7.2409415    189.93984  0.031720081  0.032081952            2 
  500000    1.1928699   -7.2420834    190.38893  0.031731488  0.032078118            1 
  501000    1.1743398    -7.243356    189.85388  0.031579154   0.03207368            2 
  502000    1.1582637   -7.2058383    190.04273  0.031547598   0.03206856            3 
  503000    1.1682696   -7.2197092     191.1035   0.03166062  0.032063147            1 
  504000    1.1740732   -7.2094408    191.45039  0.031655157  0.032058393            2 
  505000    1.1511319    -7.179361    191.35214  0.031576261  0.032053945            1 
  506000    1.1754433   -7.1978227    191.97513  0.031616457  0.032049678            1 
  507000    1.1788253   -7.1690825    192.40678  0.031625045  0.032044934            1 
  508000    1.1718761   -7.2270303    192.34931  0.031553365  0.032040585            1 
  509000     1.175158   -7.2142513    193.31898  0.031650127  0.032035767            1 
  510000    1.1876739   -7.2042885    193.65259  0.031642579  0.032031486            3 
  511000    1.1560867   -7.2373967     193.4068  0.031540573  0.032026707            3 
  512000    1.1890502   -7.2054399    193.78492  0.031540515  0.032022041            2 
  513000    1.1553778   -7.2050677    194.25183  0.031554879   0.03201712            1 
  514000    1.1664524   -7.2626692    193.55349  0.031380267  0.032011649            1 
  515000    1.1668919   -7.2470849     194.3113  0.031441957  0.032005418            2 
  516000    1.1695934   -7.2517696    194.57026  0.031422845  0.031999053            1 
  517000    1.1741597   -7.1929735    195.04204  0.031438111  0.031992819            1 
  518000    1.1882891   -7.2248217     195.5952  0.031466409  0.031986487       -1e+20 
  519000    1.1774465   -7.1949084    195.85058  0.031446786  0.031980333            1 
  520000    1.1730516   -7.2222216    196.33465  0.031463887  0.031974003            2 
  521000    1.1887192   -7.2188133     196.3135  0.031400113   0.03196787            2 
  522000    1.1358834   -7.2266597    196.91365  0.031435768  0.031961256            2 
  523000    1.1529092   -7.2213696    197.18406  0.031418747  0.031955026            1 
  524000    1.1918823   -7.2306514    197.45669  0.031402146  0.031949124            2 
  525000    1.1842126   -7.2263666    197.98784  0.031426642  0.031943635            1 
  526000    1.1426048   -7.2729917    197.98453   0.03136637  0.031937528            3 
  527000    1.1923372   -7.2329467    198.40546  0.031373412   0.03193188            2 
  528000    1.1610915   -7.2286254    199.07968  0.031420403  0.031926253            5 
  529000    1.1916893   -7.2500926    199.14118  0.031370696  0.031920252            2 
  530000    1.1554301   -7.2371847    199.49049   0.03136643  0.031914877            2 
  531000    1.1615752   -7.2341237    199.61339  0.031326646   0.03190949            1 
  532000    1.1556724   -7.2606411    200.47558  0.031402817  0.031904143            2 
  533000    1.1882548   -7.2454685    200.69131  0.031377628  0.031898308            1 
  534000    1.1673229   -7.2427912    200.78365  0.031333279  0.031893138            1 
  535000    1.1460898    -7.272467    201.50888  0.031387675  0.031887679            1 
  536000    1.1650289   -7.2978167    200.77907  0.031215652  0.031881889            1 
  537000    1.1259423   -7.2550176    201.97322  0.031342834  0.031875798            2 
  538000    1.1801828   -7.2346022    202.55024  0.031373953  0.031870081            2 
  539000     1.177474   -7.2193526    203.77749  0.031505487  0.031865105            2 
  540000    1.1571701   -7.2605926    203.36119  0.031382899  0.031860006            1 
  541000    1.1556374    -7.262762    203.67426  0.031373114  0.031854404            3 
  542000    1.1576129    -7.248531    204.01495  0.031367613   0.03184887            1 
  543000    1.1771556   -7.2537892    204.47938  0.031381121  0.031843637            1 
  544000    1.1546621   -7.2526791    204.43398   0.03131648  0.031838329            1 
  545000     1.158431   -7.2426746    204.81324  0.031317009  0.031832611            2 
  546000    1.1802345   -7.2412367    205.18438  0.031316298  0.031826603            1 
  547000    1.1505948   -7.2376515    205.57786  0.031318991  0.031820479            1 
  548000    1.1690549   -7.2427548    205.60121   0.03126539  0.031814257            2 
  549000    1.1790482   -7.2197681    205.97595  0.031265323  0.031808118            2 
  550000    1.1778467   -7.2318593    206.55598  0.031296361  0.031801588            2 
  551000    1.1868961   -7.2461843    207.15435  0.031330058  0.031795443            2 
  552000    1.1565122   -7.2208059    207.64304  0.031347077  0.031789578            1 
  553000    1.1414382   -7.2586529    207.25286  0.031231594  0.031783348            1 
  554000    1.1770731   -7.2492058    207.39554  0.031196682  0.031777398            1 
  555000    1.1523075   -7.2634699    207.99599  0.031230629  0.031771134            1 
  556000    1.1450975   -7.2084163     208.6096  0.031266427  0.031764651            1 
  557000    1.1699888   -7.2837324     208.0943  0.031133199  0.031757953            1 
  558000    1.1618067   -7.2302869    209.09943  0.031227513   0.03175126            1 
  559000    1.1722777   -7.2255166    208.96588  0.031151741   0.03174445            1 
  560000    1.1671779   -7.2389308    209.52045  0.031178638  0.031737685            1 
  561000    1.1569307    -7.200124    210.39197   0.03125252  0.031731108            1 
  562000     1.172873   -7.2262302     210.2811  0.031180472  0.031724692            1 
  563000    1.1532624   -7.2741494    210.10838  0.031099523  0.031718614            1 
  564000    1.1803146   -7.2874257    210.27782  0.031069418  0.031711618            3 
  565000    1.1682404   -7.2832148    210.74954  0.031084002  0.031704506            1 
  566000    1.2087668   -7.2643569    210.84422  0.031043024  0.031697713            2 
  567000    1.1440569   -7.2682408    210.79866  0.030981579  0.031690997            1 
  568000    1.1753987    -7.247151    212.12384  0.031121455  0.031683981            1 
  569000    1.1415558   -7.2474666    211.69236  0.031003567  0.031677132            1 
  570000    1.1864773   -7.2762476    212.67215  0.031092419  0.031670051            1 
  571000    1.1244688   -7.2137184    213.54795  0.031165784  0.031663276            1 
  572000    1.1734583   -7.2351894    213.58197  0.031116254  0.031656587            1 
  573000    1.1675141   -7.2408936    214.50913   0.03119679  0.031650008            2 
  574000     1.165286   -7.2762487    214.23046  0.031101984  0.031643344            1 
  575000    1.1506878   -7.3395416     213.5175  0.030944565  0.031636342            1 
  576000    1.1363499   -7.2832751    214.94753  0.031097733  0.031629199            1 
  577000    1.1839307   -7.2281257    215.16908  0.031075834  0.031622454            1 
  578000    1.1641744   -7.2649985    215.31714  0.031043417  0.031615626            2 
  579000    1.1461412   -7.2493028    216.04838  0.031095045   0.03160856            3 
  580000    1.1489133   -7.2471922     216.4417  0.031097946  0.031602128            5 
  581000    1.1516518   -7.2440886    216.88789  0.031108418  0.031596223            1 
  582000    1.1156313   -7.2392487    217.28493  0.031111817  0.031589915            2 
  583000     1.176773   -7.2575582    217.32349  0.031063964  0.031584364            1 
  584000    1.1715178   -7.2519251    218.29577  0.031149511  0.031578746            3 
  585000    1.1546871   -7.2433719    218.91853  0.031184975  0.031573865            2 
  586000    1.1500025   -7.2348684    219.35246  0.031193468  0.031568074            1 
  587000    1.1417948   -7.2410095    219.14964  0.031111533  0.031562434            2 
  588000    1.1484237   -7.2698558    219.51606  0.031110553  0.031556795            1 
  589000    1.1267427   -7.3014417    219.25711  0.031021097  0.031551289            3 
  590000    1.1517384   -7.2542497    220.10713  0.031088578  0.031545409            1 
  591000    1.1744556   -7.2949049     220.1042  0.031035562  0.031539516            1 
  592000    1.1463237   -7.2455374    220.99839  0.031109008  0.031533288       -1e+20 
  593000    1.1528466   -7.2560501    219.99985  0.030916224  0.031526997            2 
  594000    1.1351238   -7.2786149    220.39398   0.03091947  0.031520089            1 
  595000    1.1365251    -7.271789    221.01859  0.030954984  0.031512994            1 
  596000    1.1530804   -7.2422675    221.50538   0.03097111  0.031505784            1 
  597000    1.1184094   -7.2735863    221.91959  0.030977051  0.031498806            1 
  598000    1.1503796   -7.2241639    222.38409  0.030989979  0.031492009            6 
  599000    1.1476721   -7.2375315    222.56049  0.030962784  0.031485217            1 
  600000    1.1591825   -7.2615327    223.00886  0.030973453  0.031478159            2 
  601000    1.1915403   -7.2872323    222.46207  0.030846099  0.031470683            1 
  602000    1.1710605   -7.2497359    223.37613  0.030921391  0.031463843            2 
  603000    1.1622669   -7.2439981    223.21627   0.03084802  0.031457135            1 
  604000    1.1440581    -7.237809    224.53295  0.030978608  0.031450674            1 
  605000    1.1677501   -7.2594301    225.61611  0.031076599  0.031444421            1 
  606000     1.167887   -7.2762875    225.31431  0.030983816  0.031438283            1 
  607000    1.1678854   -7.2642564    225.50774  0.030959327  0.031432205            2 
  608000    1.1731745    -7.236206    225.82768  0.030952259  0.031426169            2 
  609000    1.1376312   -7.2643289    226.69293  0.031019831  0.031420743            3 
  610000    1.1402672   -7.2842357    226.43963  0.030934376  0.031415064            3 
  611000    1.1655736   -7.2641215    227.30026  0.031001126  0.031409342            1 
  612000    1.1474038   -7.2537071    227.16316  0.030931802  0.031403562            3 
  613000    1.1601499   -7.2150161     228.0985  0.031008497  0.031397991            1 
  614000    1.1408874   -7.2507606    227.27647  0.030846426  0.031392003            2 
  615000    1.1277506   -7.2505111    227.95635  0.030888395  0.031385473            1 
  616000    1.1444908   -7.2619315    227.27317  0.030745829  0.031378813            4 
  617000    1.1330646   -7.2757314    228.58547  0.030873239  0.031372172            2 
  618000    1.1551747   -7.2521149    228.44057  0.030803745  0.031365497            1 
  619000     1.165304   -7.2655592    228.90642  0.030816697  0.031358428            1 
  620000    1.1639324   -7.2552225    229.60095  0.030860343  0.031351723            4 
  621000    1.1551867   -7.2897759    229.74584  0.030830092  0.031344862            1 
  622000    1.1579236   -7.2419515    230.46273  0.030876571  0.031338174            1 
  623000    1.1445339   -7.2915008    230.35206  0.030812207  0.031331557            1 
  624000    1.1406615   -7.2543211    230.99602  0.030848828  0.031324983            3 
  625000    1.1501591   -7.3025661    230.88309  0.030784412  0.031318505            2 
  626000    1.1427366   -7.2607326    231.39891  0.030803902  0.031312038            4 
  627000    1.1266814    -7.278836    232.00927  0.030835895  0.031305677            3 
  628000    1.1732687   -7.2547083    232.73692  0.030883349  0.031299492            1 
  629000    1.1569558   -7.2791653    232.32579  0.030779781  0.031293589            1 
  630000    1.1373839   -7.2505729    233.09291  0.030832396  0.031287467            1 
  631000    1.1633275   -7.2551374    232.92583  0.030761468  0.031281283            1 
  632000    1.1477945   -7.3041222    233.01659  0.030724761  0.031274807            2 
  633000    1.1836236     -7.23042    233.45427  0.030733843  0.031268119            2 
  634000    1.1386018   -7.2661741    233.89599  0.030743427  0.031261389            2 
  635000    1.1468318   -7.2833372    234.64673  0.030793534  0.031254993            3 
  636000    1.1628748   -7.2471437     234.9917  0.030790317  0.031248649            2 
  637000    1.1428509   -7.2637451     235.5678  0.030817346  0.031242143            1 
  638000     1.140064   -7.2903693    235.67648  0.030783239  0.031234572            1 
  639000     1.145496   -7.2568744    235.63442  0.030729579  0.031227633            1 
  640000    1.1547082   -7.3037461    235.41727   0.03065329  0.031220689            2 
  641000      1.13141   -7.2548375    236.34721  0.030726366  0.031213459            3 
  642000    1.1378509   -7.2615224    237.37022  0.030811295  0.031207043            3 
  643000    1.1529956   -7.2744848    237.20766  0.030742309  0.031201016            1 
  644000     1.145184   -7.2513141     236.8647  0.030650194  0.031194624            2 
  645000     1.155579   -7.2274566    237.63572  0.030702289  0.031187866            2 
  646000    1.1521873   -7.2478598     237.0243  0.030575891  0.031180724            1 
  647000    1.1165252   -7.2909368    238.08929  0.030665803  0.031173297            2 
  648000    1.1338033   -7.2616827    238.09113  0.030618715  0.031165748            1 
  649000    1.1702396   -7.2893411    238.55672   0.03063132  0.031158432            3 
  650000    1.1499043    -7.281125    239.15857  0.030661356  0.031151741            1 
  651000    1.1563192   -7.2601238    238.92729   0.03058465  0.031144255            3 
  652000    1.1483668   -7.2990553    239.71154  0.030637977  0.031137345            1 
  653000    1.1280975   -7.2786988    240.11392  0.030642409  0.031130264            2 
  654000     1.147788   -7.2823088    240.26388  0.030614663  0.031122894            1 
  655000    1.1245396   -7.2731017    240.57583  0.030607612   0.03111608            2 
  656000    1.1255178    -7.261416    240.97071  0.030611116   0.03110934            1 
  657000    1.1490842    -7.284906    241.21866  0.030595974  0.031102522            1 
  658000    1.1659637   -7.2990658     241.0067  0.030522631  0.031095524            2 
  659000    1.1376061   -7.3056272    240.64621   0.03043073  0.031088566            1 
  660000    1.1485507   -7.2914071     242.7583    0.0306513    0.0310819            1 
  661000    1.1316503   -7.2924346    242.91408  0.030624569  0.031075716            2 
  662000    1.1397967   -7.3115518    243.19037  0.030613087  0.031069401       -1e+20 
  663000    1.1596574    -7.278853     243.7213  0.030633648  0.031063139            3 
  664000    1.1623996   -7.3090931    243.63366  0.030576513     0.031057            1 
  665000    1.1344902   -7.2964256    243.69872  0.030538687   0.03105065            2 
  666000    1.1260263   -7.2992732    244.05426   0.03053732  0.031043912            2 
  667000    1.1495486   -7.2955359    244.10916  0.030498396  0.031036502            1 
  668000    1.1324559   -7.3567203    243.68139  0.030399374  0.031028703            1 
  669000    1.1367856   -7.2791602    245.10596  0.030531386  0.031021565            1 
  670000    1.1388739    -7.284108    244.77605  0.030444782  0.031014449            2 
  671000    1.1408936   -7.2751831    244.60344  0.030377974  0.031007169            2 
  672000    1.1508393   -7.2966541    245.64996  0.030462544  0.031000484            2 
  673000    1.1371479   -7.2763039    246.43907  0.030514991  0.030993179            1 
  674000    1.1581722   -7.2566705    246.29705  0.030452158   0.03098621            1 
  675000    1.1458195   -7.2782717    247.43263  0.030547239  0.030979279            1 
  676000    1.1220501   -7.2727775    247.18434  0.030471442  0.030972141            1 
  677000    1.1299591   -7.2884441    246.40106  0.030330018  0.030965209            3 
  678000    1.1496347   -7.3034367    246.85872  0.030341534  0.030957865            2 
  679000    1.1416396   -7.3351777     245.8198  0.030169342  0.030949607            1 
  680000    1.1340111   -7.2654477    248.28039  0.030426518  0.030941876            2 
  681000    1.1294334   -7.2988034    247.16716  0.030245615  0.030933998            1 
  682000     1.145239   -7.2737211     247.6917  0.030265359  0.030926053            3 
  683000    1.1243997    -7.313265    248.18183  0.030280848  0.030917746            1 
  684000    1.1443004   -7.3068027    248.63005  0.030291185  0.030909262            2 
  685000    1.1229214   -7.2953682    248.25207  0.030200982  0.030900407            5 
  686000    1.1177627   -7.2717782    248.37096  0.030171399  0.030891379            1 
  687000    1.1402537    -7.243815    249.59233  0.030275634  0.030882751            2 
  688000    1.1445581   -7.2862113    248.57555  0.030108472   0.03087396            1 
  689000    1.1218246    -7.284902    249.70132  0.030200934  0.030865031            3 
  690000    1.1309471   -7.2417686    250.22425  0.030220319  0.030856942            1 
  691000    1.1377479   -7.3326795    250.24903  0.030179574  0.030848538            1 
  692000    1.1307367   -7.2795826    251.25174  0.030256712  0.030839797            2 
  693000    1.1222597   -7.3227805    251.37268  0.030227595  0.030831379            1 
  694000    1.1275514   -7.2577633    252.73797  0.030347979  0.030823196            2 
  695000    1.1347659   -7.3199757    252.67452  0.030296705  0.030815214            2 
  696000    1.1598019   -7.3370497    251.72353  0.030139311  0.030806996            1 
  697000    1.1806062   -7.3192986    252.80762  0.030225684  0.030798718            1 
  698000    1.1679736   -7.3063375     252.5306  0.030149307  0.030790784            1 
  699000    1.1768852   -7.2812798    253.93961  0.030274155   0.03078295            1 
  700000    1.1453299   -7.3520448    253.42383  0.030169503  0.030774874            1 
  701000    1.1390214   -7.3227589    253.30214     0.030112   0.03076668            6 
  702000    1.1258643   -7.3202447    253.31825  0.030071017  0.030758294            2 
  703000    1.1438746   -7.3005905    254.63952  0.030184865  0.030749866            4 
  704000    1.1710985   -7.2983501    255.15807   0.03020337  0.030741965            2 
  705000    1.1601516   -7.2765888    255.75593  0.030231197  0.030733778            5 
  706000    1.1417806   -7.2755198     254.9685  0.030095432  0.030725316            2 
  707000    1.1555205   -7.2994271    254.99516  0.030056007  0.030716944            2 
  708000    1.1287402   -7.2594098    255.55132  0.030079016  0.030708746            3 
  709000    1.1648126   -7.2574534    255.55974  0.030037581  0.030700707            2 
  710000    1.1323334   -7.3391476    255.60021  0.030000025  0.030692331            5 
  711000    1.1337476   -7.3221876    257.07295  0.030130444   0.03068372            3 
  712000     1.181501   -7.3055409    256.56372  0.030028525  0.030675166            1 
  713000      1.13743   -7.2980899    256.93078   0.03002931  0.030666927            1 
  714000    1.1311634    -7.274496     257.5019   0.03005391  0.030658495            1 
  715000    1.1367879   -7.3279546    257.79119  0.030045593  0.030650141            1 
  716000    1.1393285   -7.3154342     257.7169  0.029994983  0.030641708            1 
  717000    1.1158349   -7.2820924    258.26072  0.030016355  0.030632971            2 
  718000    1.1285226   -7.3273402     258.4159   0.02999256  0.030624324            1 
  719000    1.1246496   -7.3103303    257.82495  0.029882354  0.030615194            2 
  720000    1.1348145   -7.3510751    258.37855  0.029904924  0.030605866            3 
  721000    1.1356998   -7.3159713    258.54278  0.029882429  0.030596334            2 
  722000    1.1423094   -7.2932034    258.44633  0.029829909  0.030586977            2 
  723000     1.145368   -7.3647101    258.95928  0.029847773   0.03057768            1 
  724000    1.1473784   -7.3327592     258.8765  0.029797019  0.030568112            2 
  725000    1.1255385   -7.3175968     259.7215  0.029853045  0.030558424            1 
  726000    1.1509613   -7.3439874    258.97455  0.029726188  0.030548768            2 
  727000    1.1310279   -7.2934929    259.72828  0.029771697  0.030538986            2 
  728000    1.1348854   -7.2832104    259.70799  0.029728479  0.030529708            3 
  729000    1.1217856   -7.3150669    260.46397  0.029774116  0.030520487            8 
  730000    1.1157478   -7.2820093    261.04089  0.029799188  0.030511189            1 
  731000    1.1379929   -7.3106095    261.58714  0.029820696  0.030502003            2 
  732000    1.1394665   -7.3002787    262.31677  0.029863021  0.030492796            1 
  733000    1.1536439   -7.3032179    262.56465   0.02985046  0.030483572            3 
  734000    1.1308776   -7.3299269    261.60336  0.029700654  0.030474356            1 
  735000    1.1368783   -7.3149489     263.4091  0.029864977  0.030465238            1 
  736000    1.1248774   -7.2976626    263.07046  0.029786057  0.030456106            1 
  737000    1.1400131   -7.2743154    263.56703   0.02980179  0.030446808            2 
  738000    1.1381491   -7.2865687    263.83803  0.029792008  0.030437797            2 
  739000    1.1345402   -7.3243522    263.41292  0.029703757  0.030428548            2 
  740000    1.1153696   -7.2954285    264.07424   0.02973809  0.030419126            1 
  741000    1.1396718   -7.3262413    264.72352  0.029770976  0.030409753            3 
  742000    1.1442257   -7.3246124    265.33564    0.0297996  0.030400675            1 
  743000    1.1309556   -7.3022721    265.61497  0.029790822  0.030392142            1 
  744000    1.1301167   -7.3279538    266.21585  0.029818083  0.030383448            1 
  745000    1.1132871   -7.3169086    266.31475  0.029789122  0.030374748            1 
  746000    1.1403994   -7.3517479    266.36012  0.029754259  0.030365895            2 
  747000    1.1378441   -7.3305808    267.67385  0.029860983  0.030357727            1 
  748000    1.0988971    -7.311705    267.02855   0.02974917  0.030349562            2 
  749000     1.137671   -7.3194571    268.03609   0.02982155  0.030341075            2 
  750000    1.1210511   -7.3264431    267.84274  0.029760304  0.030332901            1 
  751000    1.1319647   -7.3135549    268.72014  0.029818036  0.030324663            2 
  752000    1.1080365   -7.3167025    269.75298   0.02989284  0.030316576            2 
  753000    1.1341327   -7.3388614    268.89998  0.029758741  0.030308397            5 
  754000    1.1163466    -7.314839    269.39621  0.029774117  0.030300075            2 
  755000    1.1128629   -7.3080812    269.99314  0.029800567  0.030292034            2 
  756000    1.1517489   -7.3526589    269.64632  0.029722919  0.030284364            2 
  757000    1.1362703   -7.3146145    270.63329  0.029792304  0.030276632            1 
  758000    1.1457225   -7.2982042    271.09077  0.029803295  0.030268925            2 
  759000    1.1276077   -7.2787559    272.38682  0.029906327  0.030261796            2 
  760000    1.1158329   -7.3256701    271.65019  0.029786206  0.030254319            1 
  761000    1.1103015   -7.2981615    272.34633  0.029823295   0.03024704            2 
  762000    1.1035167   -7.3072934    272.63423  0.029815642  0.030240009            3 
  763000    1.1486064   -7.2823576     273.0907   0.02982642  0.030232628            4 
  764000    1.1384269   -7.3316119    273.27955  0.029807979  0.030225308            2 
  765000    1.1301935   -7.3318018    273.49993  0.029793021  0.030217636            1 
  766000    1.1130965   -7.3111326    273.19431  0.029720877  0.030209988            1 
  767000     1.121206   -7.2948881    273.13927  0.029676149  0.030202587            2 
  768000    1.1289711   -7.3555665    274.53098  0.029788518   0.03019536            1 
  769000    1.1418142   -7.3249774     274.6417   0.02976178  0.030188373            2 
  770000    1.1062789   -7.3457208    275.08636  0.029771251   0.03018125            2 
  771000    1.1112882   -7.3740292    274.94883  0.029717773  0.030173997            1 
  772000    1.1368434   -7.2987055    275.29752  0.029716917  0.030166683            2 
  773000    1.1485301   -7.3166608    276.08178   0.02976302  0.030159508            1 
  774000    1.1062781     -7.33362    276.67331  0.029788255  0.030152363            2 
  775000    1.1168027   -7.3216293    276.81947  0.029765534  0.030144905            2 
  776000    1.1368079   -7.3366244    276.77683  0.029722598  0.030137268            2 
  777000    1.1321653   -7.3341349    275.70046  0.029568904   0.03012944            3 
  778000    1.1171391    -7.326113    276.39144   0.02960491  0.030121296            2 
  779000    1.1335806   -7.3047857    276.91754  0.029623186  0.030113253            3 
  780000    1.1257845   -7.3175728     277.5169  0.029649241  0.030105211            3 
  781000    1.1375038   -7.3477525    277.55247  0.029615073  0.030097314            2 
  782000    1.1433303   -7.3553845    276.96145  0.029514221  0.030089336            3 
  783000    1.1318221   -7.3052594    277.65436  0.029550272  0.030081421            1 
  784000    1.1229614   -7.3025558    278.28936  0.029580076  0.030073693            2 
  785000    1.1169141   -7.3297673    279.15112  0.029633877   0.03006624            1 
  786000    1.1133975   -7.3408672    279.27102  0.029608887  0.030058926            1 
  787000    1.1379872   -7.3301422    279.69236  0.029615879   0.03005156            1 
  788000     1.142688   -7.3640185    279.91146  0.029601466  0.030044033            3 
  789000    1.0981687   -7.3525386      279.635  0.029534749  0.030036335            3 
  790000    1.1113887   -7.3260292    281.52412  0.029696637  0.030028954            2 
  791000    1.1418377   -7.3586878    281.55436  0.029662279  0.030021533            2 
  792000    1.1097384   -7.3370189     281.8561  0.029656576  0.030014275            2 
  793000    1.1136494    -7.318834    282.21023  0.029656392  0.030006993            1 
  794000    1.1229674    -7.327664    281.70366  0.029565876  0.029999799            2 
  795000    1.1388002    -7.319505    283.25092  0.029690872  0.029992622            2 
  796000    1.1057572   -7.3150259    283.21106  0.029649399  0.029985719            1 
  797000    1.0953492   -7.2907903    284.19268  0.029714835   0.02997886            3 
  798000    1.1008347   -7.2761462    284.33336  0.029692289   0.02997198            3 
  799000    1.1384753   -7.3636581    283.74997  0.029594281  0.029965025            2 
  800000    1.1382049   -7.2964595    284.69018  0.029655227  0.029958334            2 
  801000    1.1072108   -7.3031168    284.85108  0.029634944  0.029951478            1 
  802000    1.0976698   -7.3016224    285.53517  0.029669075  0.029944978            2 
  803000    1.1383485   -7.3173112     285.0451  0.029581268  0.029938427            1 
  804000    1.1276123   -7.3197397    286.91674  0.029738468  0.029932018            2 
  805000    1.0889085    -7.309146    286.54547  0.029663092   0.02992565            1 
  806000    1.1157175   -7.3318816    286.17291   0.02958777  0.029919015            1 
  807000    1.1047687   -7.3417115    286.86158   0.02962222  0.029912349            1 
  808000    1.1119561   -7.3194092    287.53979  0.029655506  0.029905743            2 
  809000    1.1164114   -7.3181403    286.89969  0.029552914  0.029899128            1 
  810000    1.1324937   -7.3166172    287.53619  0.029581913  0.029892254            3 
  811000    1.1086229   -7.3323534    287.50237  0.029541962  0.029885273            1 
  812000    1.1087239   -7.3699195    287.00189  0.029454217  0.029878416            1 
  813000    1.1090569   -7.3073098    288.11824  0.029532415  0.029871437            3 
  814000    1.1081267   -7.3733509    288.14897  0.029499281  0.029864752            2 
  815000     1.128844   -7.3342003    288.53889  0.029502954  0.029857927            2 
  816000     1.133291   -7.3802751    289.16244  0.029530478  0.029851139            1 
  817000    1.1228596   -7.3129999    289.15954  0.029494037  0.029844294            2 
  818000    1.1021006   -7.2977739    290.04851  0.029548544  0.029837485            3 
  819000    1.1461024   -7.3393896    289.38057  0.029444503  0.029830884            2 
  820000    1.1194413   -7.3669325    289.67612   0.02943863  0.029824354            1 
  821000    1.1402265   -7.3065365    290.53953  0.029490411  0.029817837            2 
  822000    1.1232042   -7.3597456    291.06066  0.029507366  0.029811592            3 
  823000    1.1117993   -7.3546634    291.94743  0.029561303  0.029805197            1 
  824000     1.125915   -7.3201608    291.33298  0.029463286  0.029798616            1 
  825000    1.1417669   -7.3422103    291.77847  0.029472572   0.02979205            3 
  826000    1.1317053   -7.3312787    292.30591  0.029490104  0.029785378            1 
  827000    1.1034969   -7.3271634    292.46518  0.029470494  0.029778844            2 
  828000    1.0983709   -7.3161164    292.70653  0.029459192  0.029772404            3 
  829000    1.1068573   -7.3493291    292.37845  0.029390677  0.029765564            4 
  830000     1.099507   -7.3422082    292.78754   0.02939634  0.029758704            2 
  831000    1.0974418   -7.3566541    293.03291   0.02938557  0.029752199            1 
  832000    1.1389188   -7.3681016    294.27416  0.029474575  0.029745503            5 
  833000      1.12158   -7.3704617     294.1819  0.029429962  0.029738721            3 
  834000    1.1119754   -7.3692378    294.61884  0.029438334  0.029731924            2 
  835000    1.1319548   -7.3589749    294.81618  0.029422773  0.029725548            1 
  836000    1.1314963   -7.3635315    295.99108  0.029504693  0.029719365            1 
  837000    1.1279029    -7.327348    296.12953  0.029483227  0.029713112            1 
  838000    1.1405727   -7.3358617    297.21354  0.029555841  0.029707109            1 
  839000    1.1265426   -7.3379167    296.87964  0.029487449  0.029700974            2 
  840000     1.145607   -7.3547167    297.77838  0.029541506    0.0296948            3 
  841000    1.1111274   -7.3362796    298.31722  0.029559772  0.029688561            2 
  842000    1.1329182   -7.3606705    297.28901  0.029422903  0.029682074            2 
  843000    1.1084854   -7.3447382    298.06105  0.029464319  0.029675987            1 
  844000    1.1144251   -7.3208389    298.78295  0.029500686  0.029669895            4 
  845000    1.1424178   -7.3387543    298.03087  0.029391604  0.029663655            1 
  846000    1.1180737   -7.3210077    298.84466  0.029437023  0.029657376            3 
  847000    1.1071279   -7.3394189    298.36876  0.029355447  0.029651024            3 
  848000     1.115876   -7.3868397    298.63219  0.029346716  0.029644677            4 
  849000    1.1185379   -7.3500397     300.1011  0.029456331  0.029638682            3 
  850000    1.1353785   -7.3567259    299.76165  0.029388397  0.029632742            2 
  851000    1.1203676   -7.3739256      301.107  0.029485605  0.029626903            2 
  852000    1.1129877   -7.3583539    301.60918  0.029500116  0.029621597            2 
  853000    1.1377867   -7.3560555    301.78875  0.029483075  0.029616214            1 
  854000    1.1283375   -7.3066736    302.87314  0.029554366   0.02961087            1 
  855000    1.1075377   -7.4063738    302.23589  0.029457689  0.029605471            1 
  856000    1.1058553     -7.31436    303.49367  0.029545723  0.029599817            1 
  857000     1.089146   -7.3746537    302.24413  0.029389745  0.029594235            3 
  858000    1.1103468    -7.364354    303.40013  0.029467767  0.029588832            3 
  859000    1.1202024    -7.331811    304.10404   0.02950175  0.029583568            1 
  860000    1.1011209    -7.401063    303.10811  0.029370941  0.029578329            3 
  861000    1.1391679   -7.3469896     304.2746  0.029449729  0.029572777            1 
  862000    1.1198484   -7.3890475    303.73668  0.029363562  0.029567078            1 
  863000    1.1220169    -7.340198    305.10242  0.029461416  0.029561455            1 
  864000    1.1180733   -7.3145194    306.21937  0.029535047  0.029556011            3 
  865000    1.1160951   -7.3443409    305.10689  0.029393727  0.029550616            3 
  866000    1.1060034   -7.3702221    305.86519  0.029432755  0.029545079            2 
  867000    1.0914919   -7.3677786      306.198  0.029430796  0.029539682            3 
  868000    1.1193709   -7.3034498     306.5691  0.029432518  0.029534107            3 
  869000    1.1003319   -7.3692908    305.95432  0.029339693  0.029528274            1 
  870000    1.0913952   -7.3676108    305.42037  0.029254824  0.029522066            1 
  871000    1.1017533   -7.3774786    306.56109  0.029330376  0.029515951            2 
  872000    1.0912199   -7.3695282    305.39565  0.029185364  0.029509498            3 
  873000    1.0908083   -7.3588865    306.62866  0.029269632  0.029503296            2 
  874000    1.1150634   -7.3839009    305.50419  0.029128927  0.029496842            1 
  875000     1.108149   -7.3784274    306.08558  0.029151007  0.029490204            3 
  876000    1.0911317   -7.3730946    306.47289  0.029154575  0.029483547            2 
  877000     1.118172   -7.3646877    307.07807  0.029178836  0.029476875            4 
  878000    1.0936491   -7.3436868    308.18601  0.029250761  0.029470277            2 
  879000    1.1321312   -7.3455965    307.64198  0.029165906  0.029463756            1 
  880000    1.0920077   -7.4109641    307.11883  0.029083222  0.029456663            2 
  881000    1.0986771   -7.3922626    307.57121  0.029093001  0.029449505            1 
  882000    1.1129862   -7.3645653    308.28889  0.029127824   0.02944248            1 
  883000    1.0931018   -7.3618757    308.48558  0.029113399  0.029435189            3 
  884000     1.112354   -7.4005659     308.3115  0.029064055  0.029428341            1 
  885000    1.1474258   -7.3832134    308.83571  0.029080576  0.029421233            4 
  886000    1.1299112   -7.3683918    309.85778  0.029143884  0.029414181            3 
  887000    1.1281057   -7.4035076    309.42223  0.029070108  0.029407358            2 
  888000     1.097132    -7.360038    310.45389  0.029134186  0.029400769            1 
  889000    1.1192016    -7.327355    310.88668  0.029141983  0.029394284            2 
  890000    1.0710414   -7.3966786    311.13708  0.029132685  0.029387815            3 
  891000    1.1358757   -7.3688209    310.98649  0.029085904   0.02938095            1 
  892000    1.1158898   -7.3990407    310.89076  0.029044353  0.029373858            1 
  893000     1.103868   -7.3581661    311.76608  0.029093512  0.029367036            1 
  894000    1.1143139   -7.3627779    311.96395  0.029079414  0.029360311            1 
  895000    1.1287354   -7.4091743    311.93083  0.029043838  0.029353525            1 
  896000    1.1078956   -7.3842102    312.22235  0.029038537  0.029346673            1 
  897000    1.0941017   -7.3924658    312.57557  0.029038979  0.029339936            4 
  898000    1.0969573   -7.3732252    313.49086   0.02909158  0.029333325            2 
  899000    1.0992716   -7.4239354    312.94274  0.029008412  0.029326655            2 
  900000    1.0890364   -7.3870726    313.17472  0.028997659  0.029319813            3 
  901000    1.1132993   -7.3638295    313.80072  0.029023374  0.029313322            1 
  902000     1.104001   -7.3898764    315.15699  0.029116499  0.029306502            1 
  903000    1.1027058   -7.4212535    314.48969  0.029022673  0.029299855            1 
  904000    1.0972567   -7.3958662    314.04558   0.02894963  0.029293024            1 
  905000    1.1316732   -7.3666001    315.46794  0.029048614   0.02928674            1 
  906000    1.1102182   -7.3819016    316.54036  0.029115191  0.029280663            2 
  907000     1.122921    -7.392171    315.73756  0.029009331  0.029274343            2 
  908000    1.1027134   -7.3665261    316.16936  0.029017012  0.029267695            2 
  909000     1.118263   -7.3922777    316.00928  0.028970415    0.0292608            2 
  910000    1.1135462   -7.3952171    316.23405  0.028959162  0.029253846            2 
  911000    1.0776065   -7.4005147    316.79499  0.028978686  0.029247059            1 
  912000    1.1137402   -7.3692957    317.86017  0.029044241  0.029240574            2 
  913000    1.1118088   -7.3716796    317.82142  0.029008892  0.029233811            1 
  914000    1.1037606   -7.3916212    317.80353  0.028975523  0.029227315            4 
  915000    1.0936104   -7.3548122    318.47239  0.029004772  0.029220991            2 
  916000    1.1019567   -7.3523363    318.71442  0.028995126  0.029214698            1 
  917000    1.0849378   -7.4157193     318.2059  0.028917294  0.029208249            3 
  918000    1.0804641   -7.3688931    319.02973  0.028960579   0.02920177            1 
  919000    1.1123118   -7.3558183    320.53997  0.029066011  0.029195495            1 
  920000    1.0767499   -7.3497295     320.5378  0.029034221  0.029189204            2 
  921000    1.1098236    -7.403041    319.55186  0.028913487  0.029182641            4 
  922000    1.1036455   -7.3656611    321.28079  0.029038394  0.029176261            2 
  923000    1.1013801   -7.3685385    319.53235  0.028849074  0.029169902            1 
  924000     1.106649   -7.3853745    320.28559  0.028885785  0.029163278            1 
  925000    1.1118343   -7.3953351    320.50557  0.028874376  0.029156829            1 
  926000    1.1105626   -7.3662332    321.26333  0.028911387  0.029150325            2 
  927000    1.0922101   -7.3988892    321.18081   0.02887278  0.029143785            1 
  928000    1.0983774   -7.3650201    321.38629  0.028860119  0.029137233            1 
  929000    1.0940677   -7.3761303    322.16278  0.028898706   0.02913092            4 
  930000    1.1240195   -7.3761367    322.30316  0.028880211  0.029124853            2 
  931000     1.104289   -7.3735834    322.35218  0.028853578  0.029118606            1 
  932000    1.1096253   -7.3734868    323.37679  0.028914233  0.029112294            2 
  933000    1.0976196   -7.4380072    322.26273  0.028783738  0.029105681            1 
  934000    1.0967829   -7.4517534    323.35425  0.028850307  0.029099124            1 
  935000    1.1049715   -7.3680767    324.16161  0.028891409  0.029092865            1 
  936000    1.1023932   -7.3842706    323.90749  0.028837917  0.029086567            2 
  937000    1.1131189   -7.4285665    322.80042  0.028708682  0.029080124            2 
  938000    1.0838789   -7.4170041    323.99512  0.028784214  0.029073811            2 
  939000    1.1118251   -7.3982255    325.22733  0.028862915  0.029067506            2 
  940000    1.1070247   -7.4285463    324.75218  0.028790087  0.029061286            2 
  941000    1.1039043   -7.4059412     325.2386  0.028802568  0.029054806            1 
  942000      1.11413   -7.3736703    325.76128  0.028818231  0.029048162            1 
  943000     1.124828   -7.4435035    325.42695  0.028758126  0.029041725            2 
  944000    1.1105782   -7.4193627    326.00045  0.028778289  0.029035295            2 
  945000     1.104892   -7.4314347    326.45053  0.028787525  0.029028656            3 
  946000    1.0681022   -7.4338035    327.27884   0.02883006  0.029022266            1 
  947000    1.1096695   -7.3490395    328.04061   0.02886665   0.02901562            1 
  948000    1.1246627   -7.3912187    327.09156  0.028752774  0.029009219            3 
  949000    1.1042855   -7.3888796    327.33303  0.028743681  0.029002812            2 
  950000    1.1116865   -7.3956458    327.13796  0.028696312  0.028996595            3 
  951000    1.0805111   -7.3893601    328.08116  0.028748787   0.02899008            1 
  952000    1.1029923   -7.4254039    328.83441  0.028784525  0.028983643            2 
  953000     1.115073   -7.3879875    328.62152  0.028735705  0.028977184            1 
  954000    1.1163662   -7.3927048    329.50847   0.02878306  0.028970576            2 
  955000    1.0934665   -7.3595827    329.91824  0.028788677  0.028964274            2 
  956000    1.1110893   -7.4005636    330.19347  0.028782554  0.028958133            2 
  957000    1.0993615   -7.3539809    329.99599  0.028735283  0.028951883            2 
  958000    1.0893689   -7.3519959    331.16067    0.0288066  0.028945996            1 
  959000    1.1141785   -7.3948022    330.95236   0.02875846  0.028939996            1 
  960000    1.1101749   -7.4152624    331.00803  0.028733336  0.028933982            2 
  961000    1.1359569   -7.4245907    331.59091  0.028753981  0.028927686            1 
  962000    1.0739845   -7.3524416    331.72922  0.028736072  0.028921379            1 
  963000    1.1191491   -7.3538854     332.7085  0.028790974  0.028915247            2 
  964000    1.1455073   -7.3928655    332.74169  0.028763978     0.028909            3 
  965000    1.1008033    -7.386253    332.45722  0.028709605  0.028902808            3 
  966000    1.0899238    -7.414469     332.3347  0.028669315  0.028896567            1 
  967000    1.1058689   -7.4095121    332.85185  0.028684234   0.02889033            2 
  968000    1.0975758   -7.4173904    332.76945  0.028647508  0.028883799            2 
  969000    1.0858396   -7.3752794     333.0351  0.028640789  0.028877317            5 
  970000    1.1104687   -7.3847455     333.9937  0.028693617  0.028870888            1 
  971000    1.1079856   -7.4092512    332.84809  0.028565748  0.028864427            2 
  972000     1.106811   -7.3806613    334.53245  0.028680766  0.028858038            1 
  973000    1.1084674   -7.4068017    333.88823  0.028596114  0.028851763            2 
  974000    1.1039615   -7.4233186    335.73395  0.028724671  0.028845356            3 
  975000    1.1240237   -7.3972549    335.24922  0.028653779  0.028839018            1 
  976000    1.0986209   -7.4041875    334.29354  0.028542822  0.028832531            2 
  977000    1.1129508   -7.4559349    334.77861  0.028554982  0.028826049            2 
  978000    1.0979434   -7.4141735    334.44768  0.028497587  0.028819682            2 
  979000    1.0895048   -7.3899865    336.25097  0.028621976  0.028813295            1 
  980000    1.0782842   -7.4085712    336.20193  0.028588599  0.028806708            2 
  981000    1.1031319   -7.3915672    337.41249  0.028662291  0.028800211            1 
  982000    1.0998517     -7.40384    336.95883  0.028594606  0.028793704            3 
  983000    1.0949339   -7.3684644    337.04422  0.028572755  0.028787303            2 
  984000    1.1035508   -7.4345782    336.98092  0.028538357  0.028780814            1 
  985000    1.0746804   -7.3962023    336.65739  0.028482013  0.028774431            2 
  986000    1.0805587   -7.4159934     337.6668  0.028538438   0.02876793            1 
  987000    1.0863833   -7.3916565    337.00087  0.028453299  0.028761082            2 
  988000    1.1085591   -7.4163607    336.95429  0.028420571  0.028754119            2 
  989000    1.0826788   -7.3863804    338.07409  0.028486189  0.028747081            1 
  990000     1.074289   -7.4468888    337.17299  0.028381565  0.028740032            3 
  991000    1.0953148   -7.3745074    338.78864  0.028488786  0.028732826            2 
  992000    1.0816523   -7.3968424    338.13491  0.028405151  0.028725828            1 
  993000     1.101352   -7.4315943    337.71757  0.028341521  0.028718306            3 
  994000    1.0920941   -7.4291281    337.34342  0.028281642  0.028711172            1 
  995000    1.1093812   -7.4024322    338.70411  0.028367178  0.028704135            1 
  996000    1.0895373   -7.4338048    338.53066  0.028324185   0.02869713            2 
  997000     1.112501   -7.4087441    339.79137  0.028401151  0.028689948            1 
  998000    1.0956206   -7.3509955    339.44169  0.028343494  0.028683072            1 
  999000    1.1050356   -7.3972527    340.49907  0.028403326  0.028676124            1 
 1000000     1.069036   -7.4114772    340.43301  0.028369418  0.028669189            1 
 1001000    1.0859825   -7.4146663    340.84871  0.028375683  0.028662148            1 
 1002000    1.0926825   -7.4164589    340.37267  0.028307774  0.028655261            1 
 1003000    1.0914564   -7.4223215    341.94781   0.02841042  0.028648353            1 
 1004000    1.0999731   -7.3728953    341.66776  0.028358878  0.028641452            1 
 1005000    1.0659679   -7.3921446     341.9991  0.028358134   0.02863478            2 
 1006000    1.0932437    -7.406581    342.05172  0.028334304  0.028627971            4 
 1007000    1.1098204   -7.4348848    343.10544  0.028393366  0.028621317            1 
 1008000    1.1034214   -7.3960498    344.53884  0.028483701  0.028614604            3 
 1009000    1.0932551   -7.3879167    343.80793  0.028395105  0.028607894            2 
 1010000    1.0858918   -7.4048839    343.08236  0.028307126  0.028601188            1 
 1011000    1.0980266   -7.4211718    343.62474  0.028323832  0.028594502            1 
 1012000    1.0983644   -7.4177952    344.58198  0.028374669  0.028588007            1 
 1013000    1.0671857      -7.3596    346.42413  0.028498201  0.028581422            1 
 1014000    1.0754614   -7.3884406      344.846  0.028340401  0.028575219            1 
 1015000    1.0986889   -7.4054442    344.62676   0.02829448  0.028568693            4 
 1016000    1.1001353    -7.411708    344.86556  0.028286217   0.02856236            2 
 1017000    1.1005149   -7.3994083    346.53976  0.028395588  0.028555665            4 
 1018000    1.0911352   -7.4000676    346.41214  0.028357248  0.028549155            1 
 1019000    1.0949408   -7.4303267    347.00099  0.028377575  0.028542781            2 
 1020000    1.0934397   -7.4329905    346.68239  0.028323725  0.028536338            2 
 1021000    1.0936222   -7.4377639    347.75344  0.028383402  0.028530033            4 
 1022000    1.0772363   -7.4333693    347.38248  0.028325382     0.028524            1 
 1023000    1.0958621   -7.4073665    348.35252  0.028376712  0.028517767            2 
 1024000    1.0652169   -7.4276257     348.0594  0.028325147  0.028511584            2 
 1025000    1.1039219   -7.4291754    348.32299  0.028318942  0.028505346            1 
 1026000     1.087786   -7.4346499    349.72472  0.028405191  0.028499228            1 
 1027000    1.0728662   -7.4197875    350.54185  0.028443837  0.028493455            1 
 1028000    1.0898691   -7.4557887    349.76279  0.028353015  0.028487469            1 
 1029000    1.1043334   -7.4421644    349.19736  0.028279669  0.028481368            2 
 1030000    1.0921496   -7.4315516    350.91134  0.028390885   0.02847535            2 
 1031000    1.0690156   -7.4103941    351.11641  0.028379923   0.02846951            2 
 1032000    1.1090822   -7.4103559    351.30813  0.028367904  0.028463649            3 
 1033000    1.0799914   -7.4164325    351.29435  0.028339332  0.028457832            2 
 1034000    1.0943595   -7.4682658    350.18327  0.028222378  0.028451984            1 
 1035000    1.0876024   -7.4611726    351.20522  0.028277393  0.028445886            2 
 1036000    1.0933977   -7.4539545    351.31739  0.028259121  0.028439748            2 
 1037000    1.0836915   -7.3803541    352.75508  0.028347403  0.028433544            3 
 1038000    1.1159216   -7.4105105    352.83682  0.028326655  0.028427473            2 
 1039000    1.0912179   -7.4331936    352.37106  0.028262036  0.028421353            2 
 1040000    1.0792295    -7.429952    352.07468  0.028211113  0.028415205            2 
 1041000    1.1023787   -7.4135682    352.33412   0.02820478  0.028409149            1 
 1042000    1.1031613   -7.4292292    353.46383   0.02826806  0.028402974            3 
 1043000    1.0773351   -7.4109759    353.57183  0.028249587   0.02839676            2 
 1044000    1.0814715   -7.4166078    353.66348  0.028229844  0.028390651            1 
 1045000    1.0657268   -7.3998887    354.91315  0.028302484  0.028384478            1 
 1046000    1.0713464   -7.4257286      354.711  0.028259321  0.028378198            2 
 1047000     1.051373   -7.4233915    354.74509  0.028235044  0.028371902            4 
 1048000    1.0902123   -7.3812862    353.48024  0.028107525  0.028365811            2 
 1049000     1.088139   -7.4135821      354.787  0.028184541  0.028359603            3 
 1050000    1.0884303   -7.4598165    353.73799  0.028074444  0.028353372            2 
 1051000    1.0737204   -7.4527125     353.7175  0.028046107  0.028346853            2 
 1052000    1.0583529   -7.4110298    355.48551  0.028159499  0.028340505            1 
 1053000    1.1019767   -7.4294671    355.39815  0.028125843   0.02833405            2 
 1054000     1.106999   -7.4609785    354.98833  0.028066756  0.028327725            1 
 1055000    1.0638824   -7.4222169    357.73028  0.028256736  0.028321352            2 
 1056000    1.0790221   -7.4092221     357.8098  0.028236253  0.028315178            3 
 1057000    1.0935048   -7.4203859    357.41012  0.028178029  0.028309095            1 
 1058000    1.0832591   -7.4783029    357.15746  0.028131495  0.028302839            2 
 1059000    1.0817522   -7.4430874     357.6684  0.028145137  0.028296564            1 
 1060000    1.0646344   -7.4563681    356.88711  0.028057162  0.028290219            1 
 1061000    1.0849072   -7.4340071    358.02021  0.028119715  0.028283959            2 
 1062000    1.0907593   -7.4780037     357.4993  0.028052362  0.028277735            3 
 1063000    1.0669793   -7.3996456      358.975  0.028141659  0.028271531            1 
 1064000    1.0637358   -7.4931215    357.91996  0.028032578  0.028265063            3 
 1065000    1.0654579   -7.4289847    359.10149  0.028098708  0.028258583            1 
 1066000    1.0849317    -7.454256    358.91122  0.028057475   0.02825248            1 
 1067000     1.090554   -7.4123078     359.6962  0.028092486  0.028246362            2 
 1068000    1.0984923    -7.430434    359.84142  0.028077514  0.028240285            2 
 1069000    1.0832086   -7.4264072    359.77033  0.028045707  0.028234025            3 
 1070000    1.0570191   -7.3917925    360.92119  0.028109127  0.028227745            2 
 1071000    1.0697247   -7.4480402    359.99893  0.028011121  0.028221456            1 
 1072000    1.0733614   -7.4281116    361.21476  0.028079506  0.028215371            1 
 1073000    1.0966335   -7.4340064    360.77471  0.028019161  0.028209081            1 
 1074000    1.0683451   -7.4253375    361.39665  0.028041329  0.028202674            2 
 1075000    1.0587891   -7.4429281    361.07806  0.027990548  0.028196423            1 
 1076000    1.1039573   -7.4275813    360.95595  0.027955077  0.028190099            1 
 1077000    1.0817337   -7.4704052    361.25422  0.027952199  0.028183671            2 
 1078000    1.0583072   -7.4437405    361.73164  0.027963176  0.028177369            1 
 1079000    1.0669785   -7.4011604    362.90439  0.028027834  0.028170996            3 
 1080000    1.0709708   -7.4318455    363.33488  0.028035099  0.028164508            1 
 1081000    1.0705446   -7.4780718    362.88838  0.027974744  0.028158151            1 
 1082000    1.1082896   -7.4291298    362.77397  0.027940078  0.028151673            3 
 1083000    1.0773712    -7.428228    363.85679  0.027997598   0.02814543            1 
 1084000    1.0940216   -7.4135771    363.93377  0.027977688  0.028139254            2 
 1085000    1.1050657   -7.4532773    363.49984  0.027918574  0.028132774            1 
 1086000    1.0735493   -7.4717215    362.39758  0.027808286  0.028126211            2 
 1087000    1.0579708   -7.4147217    364.13723  0.027916071  0.028119646            2 
 1088000    1.0721108   -7.4300508    364.33842  0.027905823  0.028113099            3 
 1089000    1.0799389   -7.4236183    364.72919    0.0279101  0.028106868            3 
 1090000    1.0625712    -7.463043    365.71819  0.027960106  0.028100597            2 
 1091000    1.0830165   -7.4665526    364.95485  0.027876173  0.028093936            5 
 1092000    1.0719131   -7.4478648    365.64381  0.027903221  0.028087398            5 
 1093000    1.1081742   -7.4188726    366.28213  0.027926359  0.028080896            2 
 1094000    1.0773052   -7.4446006     365.2098   0.02781915  0.028074339            3 
 1095000     1.091238   -7.4393743    366.33591  0.027879445  0.028067674            2 
 1096000    1.0893947   -7.4308688    365.49928  0.027790395  0.028060908            1 
 1097000    1.0734049   -7.4514279    367.11566   0.02788785  0.028054231            2 
 1098000    1.0759344   -7.4075129    366.69683  0.027830664  0.028047463            3 
 1099000    1.0838239   -7.4286596    367.34427  0.027854434  0.028040949            3 
 1100000    1.0700703   -7.4896575    365.85971  0.027716645  0.028034252            2 
 1101000    1.0919537   -7.4141055    367.34715  0.027804053  0.028027439            1 
 1102000    1.0710588    -7.462278    367.66038  0.027802509  0.028020843            1 
 1103000    1.0852472   -7.4469908    367.38764  0.027756697   0.02801423            1 
 1104000    1.0708801   -7.4768126    366.81239  0.027688134  0.028007344            1 
 1105000    1.0668872   -7.4149145    368.32555  0.027777191  0.028000577            2 
 1106000    1.1022919   -7.4637632    367.77881  0.027710881  0.027993739            1 
 1107000    1.0717468   -7.4652289    367.84815  0.027691068  0.027986933            1 
 1108000    1.0507822   -7.4744718    368.45132  0.027711441   0.02798009            1 
 1109000    1.0652282   -7.4588739    368.30692  0.027675602  0.027973428            2 
 1110000    1.0728434   -7.4566823    368.69526  0.027679825  0.027966615            1 
 1111000    1.0856762   -7.4430047    369.67739  0.027728577  0.027959698            2 
 1112000    1.0681761   -7.4929508    368.59349  0.027622414  0.027952837            2 
 1113000     1.044396   -7.4655791    369.33331  0.027652988  0.027945947            2 
 1114000    1.0875745   -7.4583776    369.61034  0.027648888  0.027939025            1 
 1115000    1.0922273   -7.4804818    369.35876  0.027605288  0.027931997            2 
 1116000    1.0834178   -7.4616182    369.41343  0.027584635   0.02792489            5 
 1117000    1.0629166   -7.4163344    369.80438  0.027589106  0.027917963            1 
 1118000      1.05611   -7.4434282    371.32427  0.027677719  0.027911105            5 
 1119000    1.0432529    -7.444653    370.44102  0.027587207  0.027904109            2 
 1120000    1.0722762   -7.5121103     369.1469  0.027466287  0.027896876            2 
 1121000    1.0886725   -7.4785151     371.0147  0.027580635  0.027889753            2 
 1122000     1.049116   -7.4045348    371.67809  0.027605325  0.027882758            2 
 1123000     1.070758   -7.4222393      371.128  0.027539923  0.027875794            2 
 1124000    1.0544222   -7.4864673    371.71044  0.027558603  0.027868805            2 
 1125000    1.1035078   -7.4376059     371.9068  0.027548652  0.027861859            1 
 1126000    1.0805255   -7.4400884    371.89706  0.027523465  0.027854839            2 
 1127000    1.0722281   -7.4389367    372.87237   0.02757116  0.027847824            2 
 1128000    1.0945458   -7.4534558    373.28249  0.027577016   0.02784088            2 
 1129000    1.0862585   -7.4978051    371.92926  0.027452706  0.027833842            3 
 1130000    1.0700856   -7.4488243    373.78627  0.027565359  0.027826722            1 
 1131000     1.063535   -7.4712366    374.20269  0.027571669   0.02781958            1 
 1132000    1.0861924   -7.4625404     374.7726  0.027589267  0.027812429            3 
 1133000    1.1109167   -7.4574012    373.62455  0.027480476  0.027805304            1 
 1134000    1.0454713   -7.4484224     373.1265  0.027419643  0.027797996            1 
 1135000    1.0724857   -7.4579097     374.2279  0.027476351  0.027790778            2 
 1136000    1.0781822   -7.4640092    373.91787  0.027429421  0.027783505            2 
 1137000    1.0668853   -7.4198616     376.2511  0.027576304    0.0277765            3 
 1138000    1.0600224   -7.4843593    375.07113  0.027465665  0.027769403            2 
 1139000    1.0618454   -7.4803628    374.42998  0.027394643  0.027762331            2 
 1140000    1.0529802   -7.4755866    376.47512  0.027520111  0.027755292            3 
 1141000    1.0772091   -7.4568368    376.48766  0.027496908  0.027748375            3 
 1142000    1.0649023   -7.4635832    375.79855  0.027422544  0.027741369            4 
 1143000    1.0855896   -7.4466939    377.52309  0.027524285  0.027734357            3 
 1144000    1.0684523   -7.4481915    377.17394  0.027474792   0.02772759            1 
 1145000    1.0615478   -7.4350734    377.94016  0.027506562  0.027720909            1 
 1146000    1.0472102   -7.4224314    378.50262   0.02752346  0.027714385            1 
 1147000    1.0698596   -7.4769199    378.79515  0.027520717   0.02770771            2 
 1148000    1.0671667   -7.4469472     378.0956  0.027445964  0.027701055            2 
 1149000    1.0918227   -7.4886953    378.99701  0.027487454  0.027694398            1 
 1150000    1.0591847   -7.4967596    377.11214  0.027326967  0.027687572            1 
 1151000    1.0759189   -7.4508732    379.85204  0.027501596  0.027680755            2 
 1152000    1.0571994    -7.415547    379.76577  0.027471482  0.027674247            3 
 1153000    1.0698979   -7.4651802    379.57629  0.027433961  0.027667605            1 
 1154000    1.0563848    -7.465879     379.8758  0.027431817   0.02766111            1 
 1155000    1.0828938    -7.456918    379.87708  0.027408159  0.027654453            2 
 1156000    1.0493084   -7.4354103    381.11828  0.027473924  0.027647763            4 
 1157000    1.0729849   -7.4584347    381.04995  0.027445257   0.02764105            1 
 1158000    1.0505813   -7.4755877    382.14051  0.027500037  0.027634377            2 
 1159000    1.0800866   -7.4583109     382.7732    0.0275218  0.027627773            1 
 1160000     1.088946   -7.4561917    383.05347  0.027518209  0.027621224            1 
 1161000    1.0783263   -7.4320725    381.95269  0.027415496   0.02761468            2 
 1162000     1.048041   -7.4226281    383.73155  0.027519474  0.027608412            2 
 1163000    1.0521405   -7.4798065    382.46994  0.027405412     0.027602            2 
 1164000    1.0823705   -7.4919552    381.89245  0.027340525   0.02759538            3 
 1165000     1.079211   -7.4921787    382.17477  0.027337251  0.027588909            1 
 1166000    1.0680805   -7.4987806    382.55078  0.027340679  0.027582257            4 
 1167000    1.0439105   -7.4724328    382.86011   0.02733934  0.027575548            2 
 1168000    1.0346614   -7.4942903     383.3767  0.027352789  0.027569099            2 
 1169000     1.079916   -7.4817801    384.58217  0.027415324  0.027562469            1 
 1170000    1.0646925   -7.4503093    384.98382    0.0274205  0.027555882            2 
 1171000    1.0377206   -7.4415458    385.07215   0.02740337  0.027549299            1 
 1172000    1.0551911   -7.5014249    383.38059  0.027259712  0.027542603            1 
 1173000    1.0788879     -7.46734    384.44063  0.027311781  0.027535631            2 
 1174000    1.0666533   -7.5145818    383.57122  0.027226804  0.027528601            1 
 1175000    1.0570335   -7.5100518    383.29925  0.027184344  0.027521616            1 
 1176000     1.049296   -7.5078807    384.09153   0.02721737  0.027514621            1 
 1177000    1.0463414   -7.4583217    384.93722  0.027254122  0.027507678            1 
 1178000    1.0678079   -7.4955642    384.44789   0.02719637  0.027500537            3 
 1179000    1.0413792   -7.4915149    384.78697   0.02719727   0.02749339            3 
 1180000    1.0651297   -7.4981539    385.78398  0.027244631  0.027486407            3 
 1181000    1.0743054   -7.4729928    387.33304  0.027330867  0.027479559            1 
 1182000     1.053078   -7.4742678    386.78975  0.027269441  0.027472851            2 
 1183000    1.0303475   -7.4740853    387.34029  0.027285171  0.027466118            1 
 1184000    1.0810102     -7.48621    387.51405  0.027274356  0.027459323            1 
 1185000    1.0855789   -7.5134974    386.02715  0.027146776  0.027452482            2 
 1186000    1.0859932   -7.5190333    386.92038  0.027186649  0.027445639            2 
 1187000    1.0690388   -7.4710555    388.22164  0.027255099  0.027438822            1 
 1188000    1.0411457   -7.4761833    387.81099  0.027203352  0.027432159            2 
 1189000    1.0703439   -7.5034366    388.13837  0.027203418  0.027425544            2 
 1190000     1.072635   -7.4658578    388.29328  0.027191406  0.027418971            3 
 1191000    1.0544448   -7.4751545    388.88489   0.02720997    0.0274124            1 
 1192000    1.0640954   -7.5251409    388.66634  0.027171864  0.027405708            3 
 1193000    1.0743094    -7.452726    389.29267  0.027192838  0.027399116            3 
 1194000    1.0713077   -7.4759296    389.36608  0.027175187  0.027392577            1 
 1195000      1.05672   -7.5191132    388.38262  0.027083865  0.027385836            3 
 1196000    1.0707314   -7.4674883    391.53575  0.027280919  0.027379225            1 
 1197000    1.0559578   -7.5346702     389.3004  0.027102507  0.027372669            2 
 1198000    1.0661459   -7.4838881    390.01837  0.027129825  0.027365846            2 
 1199000    1.0551932   -7.4656951     390.8653  0.027166062  0.027359312            1 
 1200000    1.0818331   -7.4662313    391.96229  0.027219603  0.027352821            1 
 1201000    1.0516485   -7.4619862    391.51351    0.0271658  0.027346428            2 
 1202000      1.04984   -7.4536078    391.66617  0.027153783   0.02733992            2 
 1203000    1.0424546   -7.4425067    391.99464  0.027153965  0.027333436            3 
 1204000    1.0374009   -7.4700206    393.48619  0.027234648  0.027326928            2 
 1205000    1.0630617   -7.4645332    393.14643   0.02718855  0.027320351            1 
 1206000    1.0372972   -7.5071535    392.58173  0.027126985  0.027314004            2 
 1207000    1.0534818   -7.4948707    393.31462  0.027155111  0.027307614            2 
 1208000    1.0681449   -7.4933008    394.33125  0.027202763  0.027301176            2 
 1209000    1.0331219   -7.5071793    393.10748  0.027095911  0.027294778            1 
 1210000    1.0719738    -7.471325    395.21073   0.02721837  0.027288352            2 
 1211000    1.0531549   -7.4986749    394.94251  0.027177437  0.027282162            1 
 1212000    1.0507583   -7.4655597     394.4573  0.027121651  0.027275715            1 
 1213000    1.0679426   -7.4806792    394.87722  0.027128141  0.027269222            2 
 1214000    1.0679154   -7.4935649    393.78988  0.027031156  0.027262753            2 
 1215000    1.0623944    -7.482126    395.84741  0.027150028  0.027256185            1 
 1216000     1.053582   -7.4891997    395.44618  0.027100205   0.02724981            7 
 1217000    1.0369941   -7.5376651    394.63227  0.027022204  0.027243317            2 
 1218000    1.0662501   -7.4865183    397.20439  0.027175998  0.027236961            2 
 1219000    1.0695285   -7.4879334    397.07231  0.027144675  0.027230817            2 
 1220000    1.0504805   -7.5047159    396.48947  0.027082614   0.02722452            1 
 1221000    1.0717678   -7.5003052    397.16629  0.027106626  0.027218241            2 
 1222000    1.0691176   -7.4814824    397.28447  0.027092504  0.027211929            3 
 1223000    1.0787191   -7.5221297    394.76935  0.026898974  0.027205452            5 
 1224000    1.0554999    -7.558614    395.44722  0.026923149    0.0271988            1 
 1225000    1.0562861   -7.4510834    398.03252  0.027077042  0.027192212            2 
 1226000    1.0614001   -7.4732868    397.51675  0.027019899   0.02718592            3 
 1227000     1.059838   -7.5107535    397.01615  0.026963878  0.027179379            1 
 1228000    1.0601502   -7.4644681    397.75935  0.026992356  0.027172893            1 
 1229000    1.0290026   -7.4874752    397.99654  0.026986476  0.027166288            2 
 1230000    1.0641523   -7.4701595    398.68786  0.027011373  0.027159783            3 
 1231000     1.029197   -7.4335797    399.41496  0.027038652  0.027153496            2 
 1232000     1.050495   -7.4775456    399.65678  0.027033062  0.027147092            1 
 1233000    1.0570985   -7.4931623    399.05648  0.026970565  0.027140636            4 
 1234000    1.0335071   -7.4787467    398.89167  0.026937579  0.027134183            2 
 1235000    1.0655018   -7.4938584    399.31613  0.026944408  0.027127604            1 
 1236000    1.0535815   -7.5228703    398.48353  0.026866473  0.027120751            1 
 1237000    1.0564128   -7.4738344     399.5324  0.026915413  0.027114162            1 
 1238000    1.0338935   -7.4570599    401.30332  0.027012878  0.027107704            1 
 1239000     1.055785   -7.4909961    400.51119  0.026937799  0.027101297            4 
 1240000    1.0449034   -7.5033277     400.3463  0.026904993  0.027094698            2 
 1241000    1.0552033   -7.4947272    400.17482  0.026871798  0.027088034            1 
 1242000    1.0681859   -7.5359151    400.74315  0.026888295  0.027081332            2 
 1243000    1.0501632   -7.5081081    400.24255  0.026833102  0.027074741            1 
 1244000    1.0472822   -7.5354127    401.20076  0.026875721  0.027068196            1 
 1245000    1.0443356   -7.4933555    400.76247  0.026824797  0.027061682            1 
 1246000    1.0545997   -7.5270456    401.94632  0.026882445  0.027055106            1 
 1247000    1.0585833   -7.4926478     402.4942    0.0268975  0.027048466            2 
 1248000    1.0539556   -7.5408273    401.22558  0.026791238   0.02704178            1 
 1249000    1.0494836   -7.4842488    401.81112  0.026808855  0.027035076            1 
 1250000    1.0550683   -7.4983606    401.34851  0.026756567  0.027028316            3 
 1251000    1.0739859   -7.5141923     402.6726  0.026823381  0.027021429            1 
 1252000    1.0299904   -7.5027919    402.05778  0.026761035  0.027014483            2 
 1253000    1.0376102   -7.5374237    403.57447  0.026840547  0.027007669            1 
 1254000      1.06628   -7.4807591    403.39231  0.026807038  0.027000861            2 
 1255000     1.070175   -7.5273883    402.32143   0.02671457  0.026993981            1 
 1256000    1.0543029   -7.5283001    403.00654  0.026738756  0.026987021            1 
 1257000     1.071506   -7.5042369    403.61595  0.026757886  0.026980121            2 
 1258000    1.0512923   -7.4984516    403.66149  0.026739632  0.026973292            1 
 1259000    1.0439898   -7.4920413    403.84005  0.026730212  0.026966563            1 
 1260000     1.067372   -7.5408514    403.57283  0.026691325   0.02695968            2 
 1261000    1.0376279   -7.5643627     403.7176  0.026679725  0.026952711            1 
 1262000    1.0565816   -7.5299173    404.35162  0.026700451  0.026945729            2 
 1263000    1.0370867   -7.5409551    404.69107  0.026701707  0.026938933            1 
 1264000    1.0632823   -7.5188019    405.85379  0.026757238  0.026931993            4 
 1265000    1.0792327   -7.5557594    404.36072  0.026637728  0.026925008            1 
 1266000    1.0478721   -7.5324597    404.90269  0.026652362  0.026918187            3 
 1267000    1.0667234   -7.5324779    404.98978  0.026637054  0.026911202            2 
 1268000    1.0768454   -7.4556784    405.84504  0.026672256   0.02690429            1 
 1269000    1.0618596   -7.5262687     405.8882  0.026654072  0.026897451            2 
 1270000     1.039187   -7.5008219    406.56409  0.026677433  0.026890596            2 
 1271000    1.0497213   -7.5313183    405.36129  0.026577582  0.026883593            3 
 1272000     1.061385   -7.5458228    407.13979  0.026673204  0.026876543            1 
 1273000    1.0523955   -7.5217523    406.11659  0.026585271  0.026869644            3 
 1274000    1.0551708   -7.5388107    405.26043  0.026508401  0.026862591            2 
 1275000    1.0586671   -7.5528328    405.75267  0.026519782  0.026855559            2 
 1276000    1.0534615   -7.5498536    407.39128  0.026606014  0.026848556            2 
 1277000    1.0688567   -7.5267022    407.87572  0.026616792  0.026841731            1 
 1278000    1.0498151   -7.5047714    408.70981  0.026650353  0.026834981            2 
 1279000    1.0189952    -7.487723    408.92558  0.026643575  0.026828222            4 
 1280000    1.0244232   -7.5260436    409.07912  0.026632755  0.026821438            1 
 1281000    1.0463804   -7.5210366    408.57612  0.026579243  0.026814574            2 
 1282000    1.0298539   -7.5234892    408.89007  0.026578917   0.02680775            4 
 1283000    1.0481901   -7.5378388    409.00511  0.026565673  0.026800847            1 
 1284000    1.0362169   -7.5141098    408.24257  0.026495494    0.0267939            2 
 1285000    1.0766296   -7.4758168    410.72504  0.026635865  0.026787047            1 
 1286000    1.0399993   -7.4969942    410.50189  0.026600692  0.026780315            1 
 1287000    1.0212355   -7.4906419    410.20754  0.026560965  0.026773387            1 
 1288000    1.0571446   -7.5045584    411.64447  0.026633312  0.026766712            4 
 1289000     1.042108   -7.4621878     411.5589  0.026607118  0.026759901            1 
 1290000    1.0280736   -7.5413736    410.16018  0.026496136   0.02675308            4 
 1291000    1.0221504   -7.5130238    411.48561  0.026561167  0.026746161            2 
 1292000    1.0477229   -7.5150037    411.08682  0.026514888  0.026739303            1 
 1293000    1.0047256    -7.527587      410.226  0.026438902  0.026732389            3 
 1294000    1.0421344   -7.5165373    410.93381  0.026464053  0.026725334            1 
 1295000    1.0426161   -7.5419832    411.31094  0.026467886  0.026718243            1 
 1296000     1.050983   -7.5197052    413.14854  0.026565621  0.026711243            3 
 1297000    1.0504597   -7.5625204    411.03098  0.026409084  0.026704321            3 
 1298000    1.0309537   -7.4858769    412.11259  0.026458178  0.026697384            2 
 1299000    1.0518182   -7.5187226    412.17709  0.026441948  0.026690384            4 
 1300000    1.0385942   -7.5248427    412.46364  0.026439977  0.026683418            2 
 1301000    1.0358367   -7.5368371    413.46682  0.026483911  0.026676578            2 
 1302000    1.0404867   -7.4971559    415.53708  0.026596075  0.026669861            2 
 1303000    1.0375778   -7.5342105    412.29696  0.026368442  0.026663036            2 
 1304000    1.0610053   -7.5450126    413.13008  0.026401462  0.026656112            3 
 1305000     1.030468    -7.526585    414.02124  0.026438138   0.02664915            3 
 1306000    1.0346156   -7.5202637    414.23289  0.026431399  0.026642431            2 
 1307000     1.058154   -7.5149378    415.58521  0.026497399  0.026635695            1 
 1308000    1.0483646   -7.5620403     413.6383  0.026353103  0.026628936            2 
 1309000    1.0297129   -7.5307471    414.93356  0.026415429  0.026622079            2 
 1310000     1.027264   -7.5263165    414.54049   0.02637026  0.026615208            3 
 1311000    1.0384481    -7.539214    414.67154  0.026358476  0.026608362            2 
 1312000    1.0335983   -7.5437423    415.01855  0.026360426  0.026601476            2 
 1313000    1.0571922   -7.5295307    414.99985  0.026339163  0.026594646            2 
 1314000    1.0244043   -7.5509609    414.64458  0.026296587  0.026587728            1 
 1315000    1.0194598   -7.5227122    415.21914     0.026313  0.026580816            1 
 1316000    1.0495708   -7.5231283    415.74665  0.026326409  0.026573918            2 
 1317000    1.0133736   -7.5295421    415.40651  0.026284897  0.026566901            1 
 1318000    1.0381164   -7.5097322    416.23933  0.026317611  0.026559889            3 
 1319000    1.0526625   -7.5159202    418.27732  0.026426417  0.026552982            2 
 1320000      1.03218   -7.5433913    415.33011  0.026220335  0.026545901            3 
 1321000    1.0339531    -7.545151    415.84819  0.026233169  0.026538673            1 
 1322000    1.0662721   -7.5194833    416.40518  0.026248435  0.026531324            4 
 1323000    1.0513526   -7.5557375    415.50642  0.026171984  0.026524135            2 
 1324000    1.0476527   -7.5345421      416.519  0.026215949  0.026516777            2 
 1325000    1.0269052   -7.5435947    416.47717  0.026193533  0.026509471            1 
 1326000    1.0384863   -7.5146841    416.69804   0.02618766  0.026502215            2 
 1327000    1.0424112   -7.5730598      416.319  0.026144122  0.026494899            1 
 1328000    1.0374532   -7.5333226    417.65088  0.026208012  0.026487638            1 
 1329000    1.0371173    -7.564558    416.84557  0.026137796  0.026480439            3 
 1330000    1.0256097   -7.5330946    417.02263  0.026129238  0.026473237            1 
 1331000    1.0380798   -7.5481736    417.58765  0.026144982  0.026466059            2 
 1332000    1.0239834   -7.5032971    417.77019  0.026136774  0.026458945            1 
 1333000    1.0404437   -7.5212657    418.87082  0.026185972  0.026451865            1 
 1334000    1.0267267   -7.5744056    418.36358  0.026134656  0.026444559            2 
 1335000    1.0464277    -7.544923    420.01574  0.026218211  0.026437267            2 
 1336000    1.0585088   -7.5464411    418.90653    0.0261294  0.026430095            9 
 1337000    1.0306569   -7.5925025    419.36912  0.026138689  0.026422979            4 
 1338000    1.0364227   -7.5506613    420.66888  0.026200104  0.026415877            2 
 1339000    1.0405305   -7.5401352    420.36168  0.026161419  0.026408773            2 
 1340000    1.0618612   -7.5361577    419.29117  0.026075322  0.026401631            2 
 1341000    1.0424186   -7.5377984    420.81652  0.026150666  0.026394553            1 
 1342000    1.0104873   -7.5546177    419.84538  0.026070876  0.026387399            3 
 1343000    1.0319655   -7.5241548    421.36878   0.02614599  0.026380191            2 
 1344000    1.0163656    -7.593882    418.72351   0.02596252  0.026372925            7 
 1345000    1.0243028   -7.5620631    420.76638  0.026069788  0.026365627            1 
 1346000    1.0641551   -7.5306071    419.57806  0.025976849  0.026358242            1 
 1347000    1.0166359   -7.5818115    420.85176  0.026036362  0.026350833            1 
 1348000    1.0606088   -7.5431221    420.68772  0.026006907  0.026343622            2 
 1349000    1.0330304   -7.5486781    421.18915  0.026018603  0.026336289            2 
 1350000    1.0152592   -7.5509284    421.54411  0.026021241  0.026329055            3 
 1351000    1.0238955   -7.5789193    420.59475  0.025943421  0.026321707            3 
 1352000    1.0427548    -7.509833    422.55663  0.026045157  0.026314393            2 
 1353000    1.0535699   -7.5388943    422.84287  0.026043537  0.026307146            1 
 1354000    1.0244883   -7.5446481    422.99135  0.026033441  0.026299864            2 
 1355000    1.0322894   -7.5556316    422.67213  0.025994596   0.02629257            3 
 1356000    1.0209438   -7.5824713      421.907  0.025928405  0.026285266            1 
 1357000    1.0318837   -7.5370235    423.04285   0.02597905  0.026277988            1 
 1358000    1.0102855   -7.5670484    423.66947  0.025998372  0.026270672            2 
 1359000    1.0289592   -7.5520823     423.5451  0.025971615  0.026263423            2 
 1360000    1.0405833   -7.5201657    424.43805  0.026007233  0.026256254            1 
 1361000    1.0299541   -7.5622901    423.93061  0.025957055  0.026249082            1 
 1362000     1.054215   -7.5452902    425.42944  0.026029701  0.026241736            2 
 1363000    1.0384276   -7.5073254    424.93469  0.025980355  0.026234693            3 
 1364000    1.0306886    -7.539049     424.4982  0.025934641  0.026227427            1 
 1365000    1.0311697   -7.5455721    423.94611  0.025881936  0.026219966            1 
 1366000    1.0192213    -7.564556    425.10647  0.025933777  0.026212723            1 
 1367000     1.032781   -7.5386757    425.33195  0.025928551  0.026205586            1 
 1368000    1.0327308   -7.5680225    425.31451  0.025908535   0.02619833            2 
 1369000    1.0354105   -7.5591354    425.66247  0.025910791  0.026190956            2 
 1370000    1.0507117   -7.5245356    425.06613  0.025855604  0.026183588            3 
 1371000    1.0277142   -7.5501071    426.62151  0.025931286  0.026176236            1 
 1372000    1.0251815   -7.5733478    425.82348  0.025863914  0.026168916            1 
 1373000    1.0444424   -7.5574674    426.36521  0.025877956  0.026161614            1 
 1374000    1.0282943   -7.5816434    426.26385  0.025852975  0.026154417            1 
 1375000   0.99646972   -7.5625787    426.98788  0.025878053  0.026147135            1 
 1376000    1.0374375   -7.5489755    426.32609  0.025819167  0.026140016            1 
 1377000     1.027275   -7.5689467    427.67971  0.025882336   0.02613297            4 
 1378000    1.0251948   -7.5375283    427.38009  0.025845434  0.026125848            1 
 1379000    1.0407204   -7.5643189    427.43356  0.025829923  0.026118793            1 
 1380000    1.0414854   -7.5835767    426.70149  0.025766998  0.026111665            1 
 1381000    1.0530694   -7.5492522    428.51244  0.025857618  0.026104371            2 
 1382000    1.0245533   -7.5441523    428.75089  0.025853286  0.026097127            1 
 1383000    1.0333889   -7.5538597    428.16557  0.025799323  0.026089949            3 
 1384000    1.0343876   -7.5806096    428.05173  0.025773828  0.026082709            3 
 1385000    1.0277053   -7.5258557    428.93818  0.025808555  0.026075524            1 
 1386000    1.0150213   -7.5523829    429.21711  0.025806704   0.02606826            2 
 1387000    1.0420836   -7.5738748    429.37421  0.025797537  0.026060953            1 
 1388000    1.0171718   -7.5435168    428.79416  0.025744126  0.026053567            1 
 1389000    1.0174151   -7.5684093    428.55869  0.025711465  0.026046308            2 
 1390000    1.0452511   -7.5337387    431.51646  0.025870291  0.026039217            1 
 1391000    1.0380323   -7.5482956    431.40331  0.025844914  0.026032277            1 
 1392000    1.0383231   -7.5438484     430.4165  0.025767271  0.026025305            2 
 1393000    1.0292038   -7.5607531    431.48792  0.025812869  0.026018245            2 
 1394000    1.0078727   -7.5473897    431.26795  0.025781202  0.026011183            3 
 1395000    1.0448863   -7.5792079    432.12929  0.025814175  0.026004218            2 
 1396000    1.0249054   -7.5966194    431.26286  0.025743963  0.025997221            1 
 1397000    1.0530548   -7.5794869    432.59495  0.025804996  0.025990304            1 
 1398000     1.034613   -7.5545216    432.48079  0.025779732    0.0259834            3 
 1399000    1.0006767    -7.565211    432.67776  0.025773038  0.025976473            2 
 1400000    1.0204352   -7.5608661    431.91099  0.025708987  0.025969555            1 
 1401000    1.0209164   -7.6030598    433.21152  0.025767994   0.02596257            2 
 1402000    1.0010506   -7.5589937    434.15897  0.025805931  0.025955669            2 
 1403000    1.0304448   -7.5399515    435.24726  0.025852178  0.025948988            1 
 1404000    1.0256176   -7.5634844     433.7347  0.025743987  0.025942241            2 
 1405000    1.0289789   -7.5580637    434.88822  0.025794082  0.025935474            1 
 1406000     1.042575   -7.5814527    434.57158  0.025756969  0.025928806            3 
 1407000    1.0100339   -7.5328478    435.02401  0.025765459  0.025922182            2 
 1408000    1.0345635   -7.5776747    434.62095  0.025723305    0.0259154            3 
 1409000    1.0120974   -7.6101292    433.42322   0.02563421  0.025908527            1 
 1410000    1.0067019   -7.5542158    436.09337   0.02577384  0.025901652            1 
 1411000    1.0357846   -7.5662057    435.92837  0.025745829   0.02589475            2 
 1412000    1.0173304   -7.5696155    435.09199  0.025678234  0.025887889            4 
 1413000    1.0339132   -7.5635219    436.10626  0.025719878  0.025881075            3 
 1414000    1.0428555   -7.5710004    435.77286   0.02568204  0.025874201            1 
 1415000    1.0238408   -7.5799956    435.80274   0.02566565  0.025867421            1 
 1416000    1.0325329   -7.5783775    436.38959  0.025682061  0.025860686            4 
 1417000    1.0344947   -7.5913603    436.39404  0.025664199   0.02585392            2 
 1418000    1.0296527    -7.597641    436.48333  0.025651348   0.02584715            3 
 1419000    1.0334697    -7.570328    438.20189  0.025734196  0.025840356            2 
 1420000    1.0136601   -7.5439402    438.13408  0.025712094  0.025833668            1 
 1421000     1.039933   -7.5669607    437.59349  0.025662297  0.025826935            1 
 1422000    1.0060268   -7.5758307    438.25486  0.025683008  0.025820069            2 
 1423000    1.0072385   -7.5448637    438.53115   0.02568114  0.025813292            4 
 1424000    1.0416903   -7.5721539    437.73563  0.025616551  0.025806426            2 
 1425000    1.0129247   -7.5891495    437.48744  0.025584061  0.025799545            1 
 1426000    1.0260913   -7.5917176    436.31017  0.025497322   0.02579264            2 
 1427000    1.0228876   -7.5725574    438.48096  0.025606223  0.025785749            2 
 1428000   0.99463513   -7.5992309    437.88045  0.025553248  0.025778825            1 
 1429000    1.0130775   -7.6035433    439.48594  0.025628991  0.025771895            3 
 1430000    1.0140702   -7.5792095    438.12196  0.025531583  0.025764998            3 
 1431000    1.0235545   -7.5499148    438.60633  0.025541948  0.025758037            2 
 1432000    1.0093015    -7.574778    438.37596  0.025510705  0.025751029            2 
 1433000    1.0123707   -7.5386863    439.25498   0.02554402  0.025744083            2 
 1434000    1.0275403   -7.5826293    440.27134  0.025585271  0.025737137            3 
 1435000   0.99273856   -7.5447682    439.09297  0.025499011  0.025730072            1 
 1436000    1.0244082   -7.6167939    438.88877  0.025469404  0.025723069            1 
 1437000     1.027303   -7.5910863    440.35459  0.025536685  0.025716171            2 
 1438000    1.0211791   -7.5762692    439.40522   0.02546391  0.025709194            3 
 1439000    1.0100938    -7.581449    440.42206    0.0255051  0.025702257            4 
 1440000     1.010757   -7.5755072    440.60348  0.025497887  0.025695255            2 
 1441000    1.0018669   -7.5444689    440.41215  0.025469127  0.025688273            1 
 1442000    1.0207704   -7.5943826    440.17369  0.025437684  0.025681249            1 
 1443000    1.0144556   -7.5918064    440.62513  0.025446127  0.025674238            2 
 1444000    1.0298239   -7.5881101    441.26583   0.02546548  0.025667321            1 
 1445000    1.0273421   -7.5865813    440.92097  0.025427968  0.025660312            3 
 1446000     1.003051   -7.5698432    441.78878  0.025460395  0.025653332            2 
 1447000    1.0085307   -7.5723926    443.44952  0.025538443  0.025646417            3 
 1448000    1.0162303   -7.5881248    443.06407  0.025498623   0.02563956            1 
 1449000    1.0081191   -7.6020481    442.58754  0.025453619  0.025632656            4 
 1450000    1.0222211   -7.5702432    442.15749   0.02541135  0.025625859            3 
 1451000    1.0228091   -7.5962028    442.58041  0.025418126  0.025619012            3 
 1452000    1.0202142   -7.5539202    443.05507  0.025427862  0.025612126            2 
 1453000    1.0107454   -7.5577775    442.97983  0.025406047  0.025605425            2 
 1454000    1.0398133   -7.5829344    444.59173  0.025480956  0.025598728            1 
 1455000    1.0063177   -7.5701622    442.54838  0.025346413  0.025591913            2 
 1456000    1.0102622   -7.5478868    443.91081  0.025406983  0.025585014            1 
 1457000    1.0050373    -7.588081    444.25679  0.025409334  0.025578043            3 
 1458000    1.0234789   -7.6208343    444.28966  0.025393785  0.025571129            2 
 1459000    1.0079043    -7.577368    443.94477  0.025356681  0.025564125            2 
 1460000    1.0099744   -7.5659596    445.51931  0.025429184  0.025557073            3 
 1461000    1.0056375   -7.5699643     444.0068  0.025325508   0.02554994            2 
 1462000    1.0369613   -7.5690394    443.38724  0.025272871  0.025542907            1 
 1463000    1.0284833   -7.5746076    444.68967  0.025329783  0.025535868            2 
 1464000    1.0134046   -7.5926894    445.00519  0.025330441  0.025528827            3 
 1465000    1.0096417   -7.5820087     444.1615  0.025265159  0.025521768            2 
 1466000    1.0115756   -7.5848939    445.42761  0.025319896  0.025514584            1 
 1467000    1.0189714   -7.6163478    443.95364  0.025218907  0.025507444            4 
 1468000    1.0275263   -7.5792174    445.10596  0.025267141  0.025500444            2 
 1469000    1.0116823   -7.5813121    445.52359  0.025273632  0.025493484            1 
 1470000    1.0339785   -7.5997636    445.78103  0.025271033  0.025486527            3 
 1471000    1.0084063   -7.5857756    446.40417  0.025289155  0.025479531            2 
 1472000    1.0089796   -7.5903125    445.72475  0.025233512  0.025472459            1 
 1473000     1.011609   -7.5725563     446.5469  0.025262893  0.025465429            2 
 1474000    1.0237643   -7.5808282    447.64934  0.025308081  0.025458542            1 
 1475000    1.0009045   -7.5697162    447.60694  0.025288528  0.025451721            2 
 1476000    1.0178909   -7.5495779    447.85433  0.025285362  0.025444822            1 
 1477000    1.0028047   -7.5921059    447.82833  0.025266775  0.025437896            3 
 1478000    1.0154244   -7.5752648    447.61905   0.02523788    0.0254309            1 
 1479000    1.0163339   -7.5721143    447.28264  0.025201862  0.025423896            1 
 1480000    1.0134707   -7.6154702    447.60003  0.025202704  0.025416838            1 
 1481000     1.022114    -7.567575    446.62743  0.025130961  0.025409779            1 
 1482000    1.0280118   -7.5976657    447.43456  0.025159388  0.025402782            3 
 1483000    1.0132838   -7.5879779    446.94435  0.025114877  0.025395781            3 
 1484000    1.0423316   -7.6203342    447.09313  0.025106308  0.025388686            1 
 1485000    1.0098273   -7.6093586    448.73364  0.025181461  0.025381644            1 
 1486000    1.0055457   -7.5474138    449.23256  0.025192495  0.025374654            2 
 1487000    1.0209432   -7.6237594     447.4937  0.025078105  0.025367542            3 
 1488000    1.0132617   -7.5823168    449.17325  0.025155312  0.025360463            2 
 1489000    1.0087742   -7.6072857    448.22612  0.025085411  0.025353372            2 
 1490000    1.0220373   -7.5945205    449.67513  0.025149616  0.025346365            2 
 1491000    1.0108075   -7.5833194     448.8227  0.025085105  0.025339327            2 
 1492000   0.98969358   -7.6271376    448.55188  0.025053166  0.025332208            2 
 1493000    1.0198003    -7.600335    448.17691  0.025015456   0.02532504            2 
 1494000    1.0186694   -7.5861555     449.9806   0.02509932  0.025318056            1 
 1495000    1.0149866   -7.5809809    450.81314  0.025128937  0.025311097            2 
 1496000    1.0015765   -7.6003969    450.09732  0.025072266  0.025304141            2 
 1497000    1.0220017   -7.6166857    450.43384  0.025074251  0.025297092            4 
 1498000    1.0355316   -7.6389386    450.62539  0.025068168  0.025289892            1 
 1499000    1.0121084   -7.5492376    451.33635  0.025090969  0.025282792            2 
 1500000   0.99433514   -7.5590692    453.39695   0.02518872  0.025275939            4 
 1501000    1.0068873    -7.565214    452.01055  0.025094967  0.025269042            1 
 1502000    1.0332029   -7.6056853    451.43235   0.02504618  0.025261973            2 
 1503000    1.0042458   -7.6142467    451.16037  0.025014436  0.025254753            2 
 1504000    1.0186171   -7.6760354     450.4016  0.024955763  0.025247494            1 
 1505000    1.0019559   -7.6009607    450.10082  0.024922526  0.025240291            3 
 1506000    1.0239868   -7.5768236    452.61335  0.025045006  0.025233118            2 
 1507000    1.0234902   -7.6436931    451.70423  0.024978115   0.02522608            2 
 1508000    1.0070073   -7.5616479    453.93597  0.025084879  0.025219184            2 
 1509000    0.9952996   -7.6039149     451.6326  0.024941054  0.025212289            2 
 1510000    1.0106721   -7.6194178    452.76633  0.024987105  0.025205298            2 
 1511000     1.006202   -7.5807721    453.91236  0.025033772  0.025198365            1 
 1512000   0.99800507   -7.5740572    454.13851   0.02502968  0.025191446            2 
 1513000    1.0233316   -7.6415938    452.79201  0.024938974    0.0251844            2 
 1514000   0.99025599     -7.63502    452.26662  0.024893583  0.025177138            1 
 1515000    1.0185312   -7.6294968    452.02906  0.024864085  0.025169977            2 
 1516000   0.98460151   -7.6101563    452.93789  0.024897641  0.025162856            1 
 1517000   0.99869188   -7.6113446    454.15149  0.024947895  0.025155756            1 
 1518000    1.0030584   -7.6329319    453.79694  0.024911997  0.025148647            2 
 1519000   0.99104074   -7.6161249    453.92776  0.024902774  0.025141558            1 
 1520000   0.99057203   -7.5725302    455.66975  0.024981894  0.025134516            3 
 1521000    1.0310796   -7.5980665    455.36251  0.024948636  0.025127535            4 
 1522000    1.0001691   -7.6065485    454.85291  0.024904342  0.025120411            1 
 1523000    1.0074959   -7.5973105     453.6733  0.024823446  0.025113292            2 
 1524000    1.0042276   -7.5963517      455.947  0.024931485  0.025106259            1 
 1525000    1.0089866   -7.6108566    454.92755  0.024859429  0.025099161            1 
 1526000    1.0335733   -7.5759351     455.9227  0.024897483  0.025092131            1 
 1527000    1.0066336   -7.5888141     455.6548  0.024866558  0.025085044            3 
 1528000     1.007071   -7.5966362    455.73866  0.024854857  0.025077979            2 
 1529000    1.0266963   -7.6070034    456.34268  0.024871522  0.025070878            2 
 1530000    1.0255969   -7.5981791    456.09582   0.02484182  0.025063704            3 
 1531000    1.0034936   -7.6153176    457.29535  0.024890886  0.025056621            2 
 1532000    1.0071765   -7.6126492    456.08854  0.024808993  0.025049405            1 
 1533000   0.98714171   -7.6184855    457.00443  0.024842598  0.025042179            1 
 1534000    1.0108621   -7.6288942    454.99075  0.024717012  0.025034899            2 
 1535000    1.0091037   -7.6099699    455.63691  0.024735988  0.025027618            1 
 1536000    1.0040588   -7.5874711    457.21506  0.024805504  0.025020384            3 
 1537000    1.0205645   -7.5934242    458.05128  0.024834704  0.025013122            1 
 1538000   0.99943103   -7.6359214    454.83215  0.024644134  0.025005789            2 
 1539000    1.0060598   -7.6362639    455.99308  0.024690983  0.024998359            2 
 1540000   0.99518247   -7.6302109    456.12772  0.024682236  0.024990963            2 
 1541000    1.0112754   -7.6243113    458.15844  0.024776035  0.024983683            3 
 1542000    1.0088889   -7.6167725    457.19196  0.024707737  0.024976447            3 
 1543000   0.99256206   -7.6281806    457.77082  0.024722987  0.024969216            2 
 1544000    1.0009246   -7.6103303    458.43198  0.024742659  0.024961985            1 
 1545000    1.0049825    -7.591332    457.88571   0.02469718  0.024954753            3 
 1546000   0.99458991   -7.6364686    458.54617  0.024716805  0.024947484            5 
 1547000    1.0132051   -7.6080818    457.80239  0.024660762  0.024940207            1 
 1548000    1.0067331   -7.6165775    458.27416  0.024670228   0.02493288            1 
 1549000    1.0040443   -7.6772656    457.01134  0.024586364    0.0249256            2 
 1550000    0.9914055   -7.6585113    456.92984  0.024566121  0.024918152            1 
 1551000    1.0037026   -7.6634845    458.84737  0.024653308  0.024910817            1 
 1552000    1.0030999   -7.6535401    457.88939  0.024585985  0.024903536            2 
 1553000    1.0219278   -7.5966305    459.39451  0.024650918  0.024896275            1 
 1554000    1.0132222   -7.5971155    459.40762  0.024635758  0.024889017            3 
 1555000    1.0066287   -7.5929437    460.61306  0.024684516   0.02488174            4 
 1556000   0.99991889   -7.6770156    457.93587  0.024525271  0.024874377            1 
 1557000   0.98871119   -7.6303759    459.00049    0.0245665  0.024866958            1 
 1558000   0.98797201   -7.6226464    459.30134  0.024566824  0.024859565            1 
 1559000   0.98941615   -7.6798602    459.49864  0.024561612   0.02485211            1 
 1560000    1.0162933   -7.6377707    458.58364  0.024496989  0.024844593            1 
 1561000    1.0075343    -7.632966    458.93845  0.024500238  0.024837086            3 
 1562000    1.0080927   -7.6121543    458.60201  0.024466603  0.024829498            1 
 1563000    1.0170566   -7.6777323    458.97073  0.024470608     0.024822            2 
 1564000    0.9923005    -7.610618    459.93816  0.024506509  0.024814592            4 
 1565000   0.97129534   -7.6136836    460.63948  0.024528194  0.024807148            5 
 1566000   0.99750475   -7.6254662    459.65912  0.024460362   0.02479969            2 
 1567000   0.98447742   -7.6287224    459.43565  0.024432868  0.024792203            1 
 1568000   0.98874993   -7.6325984      460.694  0.024484163  0.024784779            2 
 1569000   0.98672956   -7.6039978    461.15269  0.024492919  0.024777409            1 
 1570000    1.0006204   -7.6198796    461.24777  0.024482366  0.024770047            2 
 1571000   0.99656256   -7.5964535    462.19131  0.024516831  0.024762748            1 
 1572000    1.0086603   -7.6102039    461.53402  0.024466392  0.024755464            2 
 1573000    1.0060585   -7.6308682    461.74166  0.024461838  0.024748115            3 
 1574000     0.977546   -7.6432054     461.2325  0.024419341  0.024740825            3 
 1575000    0.9882152   -7.6033786    462.08937  0.024449173  0.024733443            2 
 1576000   0.98700003   -7.6088185    462.02356   0.02443018   0.02472611            2 
 1577000    0.9934397   -7.6380931    460.92534  0.024356655  0.024718768            3 
 1578000   0.99626934   -7.6380193    464.18302  0.024513256  0.024711396            2 
 1579000   0.98689339   -7.6017588    463.49584  0.024461465   0.02470418            1 
 1580000   0.98808406    -7.630478     464.0923  0.024477442  0.024696976            1 
 1581000    1.0033389   -7.6529967    463.33257  0.024421915  0.024689596            2 
 1582000   0.99815025   -7.6683334    462.54242  0.024364856  0.024682149            3 
 1583000   0.98552221   -7.6646127    463.71658  0.024411275  0.024674695            2 
 1584000    1.0021404   -7.6131387    464.71205  0.024448235  0.024667352            1 
 1585000    1.0005442   -7.5927736    465.40112  0.024469039   0.02466006            3 
 1586000   0.98545246   -7.6539337    464.96429  0.024430658  0.024652752            4 
 1587000   0.99748508   -7.6214924    465.44154  0.024440324  0.024645479            1 
 1588000   0.99766207   -7.6296322    465.15642  0.024409971  0.024638302            3 
 1589000    1.0022887   -7.6109202    464.80836  0.024376356   0.02463112            1 
 1590000   0.99968012   -7.6225618    466.24863  0.024436511  0.024624001            2 
 1591000    1.0034906    -7.657039    464.73465  0.024341853  0.024616866            1 
 1592000    1.0019613    -7.663158    466.27008  0.024406935  0.024609624            2 
 1593000    1.0049039   -7.6246881     465.4144  0.024346851  0.024602274            2 
 1594000   0.99439996    -7.631798    466.05645  0.024365143  0.024594947            2 
 1595000   0.97306432   -7.6867756    465.64022   0.02432812  0.024587661            3 
 1596000    0.9884287    -7.620763    465.77903  0.024320125  0.024580379            1 
 1597000    0.9993369   -7.6659619    466.41855  0.024338267  0.024573167            1 
 1598000    1.0050632   -7.6654776    466.03326  0.024302944  0.024565988            2 
 1599000   0.98570803   -7.6489864    467.26795  0.024352093  0.024558761            3 
 1600000    1.0107985   -7.6284991    467.53281  0.024350667  0.024551626            5 
 1601000   0.99155417   -7.6232461    467.46807  0.024332088  0.024544429            1 
 1602000   0.99445383    -7.681475    465.97557  0.024239262  0.024537165            2 
 1603000   0.99788393   -7.6338826    467.34468  0.024295315  0.024529902            3 
 1604000     0.989922   -7.6095122    466.46996  0.024234724  0.024522693            2 
 1605000   0.98665756   -7.6533847    467.73931   0.02428553  0.024515467            2 
 1606000   0.99391891   -7.6470878    467.30778  0.024248017  0.024508179            2 
 1607000    1.0142045   -7.6470532    467.91512  0.024264423  0.024500908            2 
 1608000    0.9921213     -7.65958    467.15226  0.024209798  0.024493528            2 
 1609000   0.99953281    -7.640147    468.13144  0.024245465  0.024486219            2 
 1610000   0.97515173   -7.6303942     468.5279  0.024250927  0.024479068            1 
 1611000   0.97748045   -7.6618153    468.71671   0.02424564  0.024471829            7 
 1612000   0.98774026   -7.6356845    468.12075   0.02419979  0.024464571            2 
 1613000    1.0109722   -7.6441943     469.7513  0.024269028  0.024457408            1 
 1614000   0.99156628   -7.6579444    468.41368  0.024184928  0.024450221            2 
 1615000   0.99671935   -7.6725539    469.58347  0.024230313  0.024442978            1 
 1616000   0.97895969   -7.6314566    469.90661  0.024231983  0.024435757            7 
 1617000   0.99170806   -7.6651196    468.65739  0.024152617  0.024428594            5 
 1618000   0.99313205   -7.6575697    470.17377   0.02421579  0.024421326            1 
 1619000   0.98148348   -7.6536331    470.18307  0.024201311   0.02441416            4 
 1620000   0.98619447   -7.6363076    469.97621  0.024175731  0.024406945            6 
 1621000   0.99431857   -7.6266452    470.72726  0.024199427  0.024399818            1 
 1622000     1.015906   -7.6208485    472.25436  0.024262966  0.024392674            2 
 1623000   0.98716083   -7.6579169    471.47524  0.024208012  0.024385517            1 
 1624000   0.98392949    -7.647715    470.13095  0.024124125  0.024378433            2 
 1625000   0.99399664   -7.6325294    471.81639  0.024195712  0.024371358            1 
 1626000   0.97215715   -7.6186068    470.62245  0.024119642  0.024364265            2 
 1627000   0.97092251   -7.6525247    471.07723  0.024128111  0.024357097            2 
 1628000   0.99464744   -7.6467387    471.83345  0.024151999  0.024349922            1 
 1629000     1.005295   -7.6139957    474.13702  0.024255014  0.024342917            2 
 1630000   0.99976734   -7.6721798    472.31201  0.024146831  0.024335845            2 
 1631000   0.99849432   -7.6748409    471.01044  0.024065524  0.024328757            2 
 1632000    1.0180282   -7.6437536     472.2141   0.02411224  0.024321649            3 
 1633000    1.0008407   -7.6514399     472.1881  0.024096147  0.024314596            4 
 1634000   0.98263623   -7.6795211    472.48492  0.024096538  0.024307465            1 
 1635000   0.98617783   -7.6596005    471.93096  0.024053566  0.024300335            1 
 1636000   0.98201307   -7.6910452    472.33687  0.024059539  0.024293121            2 
 1637000   0.96884592   -7.6949945    472.02309  0.024028868  0.024285937            3 
 1638000   0.97106062   -7.6433355    472.62399   0.02404477  0.024278773            3 
 1639000   0.99468273   -7.6805637    472.08783  0.024002838  0.024271566            1 
 1640000    0.9895241   -7.6343434    474.70683  0.024121282  0.024264408            2 
 1641000   0.96784035   -7.6022737      473.751  0.024058044  0.024257232            1 
 1642000   0.97226322   -7.6305984    474.21792  0.024067089  0.024250159            2 
 1643000    0.9996295   -7.6213399    475.10208  0.024097286  0.024242974            2 
 1644000    1.0071614   -7.6542185    476.37364  0.024147082  0.024235896            1 
 1645000   0.94739581   -7.6948998    473.37597  0.023980545  0.024228845            2 
 1646000   0.95494851   -7.6583142    475.01089  0.024048749  0.024221775            1 
 1647000     0.976659   -7.6758335    473.73129  0.023969403   0.02421481            2 
 1648000   0.98950898   -7.6782777    474.75761  0.024006756    0.0242078            1 
 1649000    1.0285364   -7.6546058    476.06574  0.024058305  0.024200746            2 
 1650000    1.0086994   -7.6421265    477.44329  0.024113297  0.024193784            1 
 1651000   0.96489387   -7.6402884    476.27441  0.024039694  0.024186726            1 
 1652000    0.9610128   -7.6478888    475.62331  0.023992298  0.024179831            2 
 1653000   0.97347076   -7.6513699     476.7057   0.02403235  0.024172913            2 
 1654000   0.99191208   -7.6251031    477.55759  0.024060741  0.024165998            6 
 1655000    1.0053372   -7.6453125    476.75642  0.024005862  0.024159091            1 
 1656000   0.95883346     -7.62867    478.16432  0.024062214  0.024152191            1 
 1657000   0.98230939   -7.6419182    476.10495  0.023944124  0.024145223            1 
 1658000   0.97871178   -7.6706472    477.24611  0.023987038  0.024138225            2 
 1659000   0.98148919   -7.6811395    476.31422  0.023925769  0.024131212            2 
 1660000    1.0097381   -7.6608092    477.56286  0.023974039  0.024124163            2 
 1661000    1.0016421   -7.6536778    477.95385  0.023979222  0.024117134            3 
 1662000   0.98030427   -7.6677311    477.94033  0.023964116  0.024110181            1 
 1663000   0.95408717   -7.6433386    478.59042  0.023982282  0.024103252            1 
 1664000   0.96655433   -7.6399089    478.37689  0.023957176  0.024096309            6 
 1665000   0.97225463    -7.673709     476.7924  0.023863484   0.02408927            1 
 1666000   0.97732015   -7.6825259    477.67433  0.023893274  0.024082218            2 
 1667000   0.99133909   -7.6954559    478.10896  0.023900668  0.024075176            4 
 1668000   0.99961339   -7.6855572    477.58178  0.023860001  0.024068127            2 
 1669000   0.97350887   -7.7006457    478.57628   0.02389536  0.024061088            2 
 1670000   0.97743938   -7.6917215    479.99169  0.023951681  0.024054095            3 
 1671000   0.99703441   -7.6722559     479.1025  0.023893003  0.024047155            2 
 1672000   0.97806156   -7.6701385    478.54436  0.023850895  0.024040182            2 
 1673000   0.98509721     -7.66412      478.577  0.023838265   0.02403317            5 
 1674000    1.0019341   -7.7029303    478.41926  0.023816172  0.024026285            8 
 1675000   0.99672599    -7.631958    479.84932    0.0238731  0.024019347            1 
 1676000   0.98472467   -7.6831115    480.34386  0.023883446  0.024012447            1 
 1677000   0.99325063   -7.6519937    479.89924   0.02384711  0.024005459            4 
 1678000   0.98479601   -7.6249429    480.13168  0.023844442  0.023998583            1 
 1679000   0.97708982   -7.6294697    480.77561    0.0238622  0.023991631            4 
 1680000   0.99879204   -7.6787866    480.23464  0.023821163  0.023984722            2 
 1681000    1.0013432   -7.6434844    481.31057   0.02386033  0.023977809            3 
 1682000   0.97289128   -7.6493524    481.46242  0.023853667  0.023970946            1 
 1683000   0.99865492   -7.6285388    482.55347  0.023893517  0.023964033            1 
 1684000   0.97321352   -7.6604638    481.96105  0.023850012  0.023957175            2 
 1685000   0.99979816   -7.6954199    481.28811  0.023802577  0.023950393            1 
 1686000   0.98695249   -7.6592817    481.28756  0.023788432  0.023943522            3 
 1687000   0.99264429   -7.6782523    481.55822  0.023787701  0.023936653            1 
 1688000    0.9514243   -7.6731103    481.30541  0.023761128   0.02392974            2 
 1689000   0.98602665   -7.6992606    482.43374   0.02380273  0.023922794            2 
 1690000   0.98000549   -7.6996557    482.05921  0.023770178  0.023915824            3 
 1691000   0.98883349    -7.644936    482.96951  0.023800981  0.023908902            1 
 1692000    1.0013563   -7.6777075    484.28197  0.023851555  0.023902043            1 
 1693000   0.96164478     -7.65407    482.90223  0.023769553  0.023895203            1 
 1694000   0.98003193   -7.6632726    483.01773  0.023761203  0.023888353            1 
 1695000   0.98328888   -7.6667693    484.04638  0.023797757  0.023881502            2 
 1696000   0.96744887   -7.6922179    483.10455  0.023737448  0.023874559            1 
 1697000   0.95741843   -7.6706033    483.01768  0.023719195   0.02386768            3 
 1698000   0.97804269   -7.6519771    484.17489  0.023762019   0.02386086            1 
 1699000   0.97732017   -7.6525915    484.90929  0.023784054  0.023853964            1 
 1700000   0.97584939   -7.6584994    484.19463  0.023735031  0.023847212            3 
 1701000   0.97136718   -7.6890767    484.49122  0.023735607  0.023840473            3 
 1702000   0.95984265   -7.7121219    483.95183  0.023695252  0.023833672            2 
 1703000   0.95777404   -7.6755443    484.44152    0.0237053  0.023826795            2 
 1704000   0.97798029   -7.7259694    482.50053  0.023596466  0.023819978            1 
 1705000   0.98649342   -7.6967599    484.16522  0.023663989  0.023813114            2 
 1706000   0.98144325   -7.6922166     486.0464  0.023742009  0.023806335            2 
 1707000   0.99367794   -7.7233678     485.3538  0.023694288  0.023799539            1 
 1708000   0.97572071   -7.6806515     486.0765  0.023715676  0.023792797            4 
 1709000   0.97525639   -7.6790814    485.74198  0.023685488  0.023786037            2 
 1710000   0.96377475    -7.676127     486.5539  0.023711204  0.023779286            1 
 1711000   0.99526773   -7.7083942    486.20327  0.023680268    0.0237725            1 
 1712000   0.96606291   -7.6609617    485.86775  0.023650105  0.023765606            3 
 1713000   0.96410854   -7.6947679    485.63882  0.023625161   0.02375873            1 
 1714000   0.99773066   -7.7141971    485.91069  0.023624596  0.023751845            3 
 1715000   0.97221606    -7.711752    486.45788  0.023637409  0.023745007            4 
 1716000    0.9691794   -7.7122822    486.67965  0.023634404   0.02373829            3 
 1717000   0.96681698    -7.719108    487.35587  0.023653459  0.023731461            1 
 1718000   0.98997164   -7.7168005    488.13834  0.023677646  0.023724735            1 
 1719000   0.98593455    -7.713072    488.08584  0.023661326   0.02371799            1 
 1720000   0.96765357    -7.690023    486.87117  0.023588719  0.023711289            2 
 1721000   0.97207223   -7.6798161    486.96029  0.023579328  0.023704633            1 
 1722000   0.97009506   -7.6873906    488.74888  0.023652191  0.023697837            2 
 1723000   0.97360721   -7.6933621     487.7725  0.023591241  0.023691025            2 
 1724000   0.96183741   -7.7419259    486.76502  0.023528858  0.023684248            5 
 1725000   0.96794706     -7.69545    488.09136  0.023579293  0.023677405            3 
 1726000   0.97805461    -7.693166      488.268   0.02357416  0.023670567            1 
 1727000     0.978892   -7.6774686    488.17105  0.023555832  0.023663797            2 
 1728000     1.002622   -7.6873523    488.05199  0.023536458  0.023657107            2 
 1729000   0.97809626    -7.702311    488.81718  0.023559725  0.023650408            1 
 1730000    0.9815258   -7.6618634    490.89175  0.023646038  0.023643654            2 
 1731000   0.97335467   -7.6898868    490.91611   0.02363355  0.023637002            2 
 1732000   0.96875253   -7.6866225    489.61445  0.023557277   0.02363034            5 
 1733000    0.9742868   -7.6968908    490.14159  0.023569032  0.023623682            3 
 1734000   0.95909756    -7.704165    490.70397  0.023582467  0.023617034            1 
 1735000    0.9492795   -7.7206158    490.37701  0.023553171  0.023610326            2 
 1736000   0.97848062    -7.699256     488.4426  0.023446745  0.023603573            1 
 1737000   0.96414088   -7.6716127    491.20756  0.023565897  0.023596951            3 
 1738000   0.96995432   -7.6975378    490.46881  0.023516916  0.023590416            3 
 1739000   0.97084502   -7.6461048    492.44523  0.023598104  0.023583834            2 
 1740000    0.9383797   -7.6709841    491.95093  0.023560868  0.023577275            3 
 1741000    0.9628425   -7.7478339     490.5136  0.023478537  0.023570626            3 
 1742000   0.95961178   -7.6798873    490.16585  0.023448424  0.023563989            2 
 1743000    1.0016995   -7.7027273    491.47427  0.023497527  0.023557308            4 
 1744000   0.96494934   -7.7012552    492.63206  0.023539376  0.023550549            1 
 1745000   0.95884834   -7.7067269    490.80432  0.023438602  0.023543933            3 
 1746000   0.97007649   -7.6839797    493.54383  0.023555929  0.023537339            1 
 1747000   0.97416458   -7.6894912    491.07236  0.023424555  0.023530612            2 
 1748000   0.98621799   -7.6866549    490.27869  0.023373317  0.023523901            2 
 1749000   0.96804516   -7.6928212    492.60806  0.023470939  0.023517096            3 
 1750000   0.96300635   -7.7072359    493.01851  0.023477072  0.023510336            2 
 1751000   0.97189225   -7.7507525    491.44862   0.02338895  0.023503579            1 
 1752000   0.97146384   -7.7177344    491.28677  0.023367902  0.023496822            2 
 1753000   0.97620869   -7.7020437    492.22169  0.023399016  0.023490088            1 
 1754000   0.96872929   -7.7253962    494.36906  0.023487698  0.023483427            2 
 1755000   0.98666568   -7.7022933    493.16614  0.023417196  0.023476775            2 
 1756000   0.97911446   -7.7112651    493.63422  0.023426073  0.023470166            1 
 1757000   0.96684685   -7.7063159    493.88085  0.023424438  0.023463482            1 
 1758000   0.97716326   -7.6890124     493.1357  0.023375792  0.023456776            3 
 1759000   0.98574421   -7.7207526    493.46282     0.023378  0.023450063            2 
 1760000   0.97083848   -7.7334836    492.97071  0.023341416  0.023443362            1 
 1761000   0.97002096   -7.6998331    494.39911  0.023395756  0.023436702            1 
 1762000   0.95376466   -7.7478298    494.55899  0.023390039  0.023430031            4 
 1763000   0.97176437    -7.717934    494.06883  0.023353603  0.023423349            2 
 1764000   0.98258479   -7.7067515    494.93567  0.023381315  0.023416769            1 
 1765000   0.95494002   -7.7240285    494.39123  0.023342362  0.023410088            3 
 1766000   0.95087509    -7.705829     495.9852   0.02340436  0.023403334            1 
 1767000   0.97019832   -7.7052393    494.54146  0.023323027   0.02339663            2 
 1768000   0.94791032   -7.7078182    495.03549  0.023333121  0.023389977            4 
 1769000   0.96855251   -7.7255962    495.28378  0.023331627   0.02338328            1 
 1770000   0.95762763   -7.7017024    496.14417  0.023358953  0.023376627            4 
 1771000   0.98757797   -7.6969762    496.59205  0.023366839  0.023370043            1 
 1772000   0.96250558     -7.72518    495.88545  0.023320422   0.02336344            2 
 1773000   0.98238849   -7.7121503    495.58584  0.023293187  0.023356818            3 
 1774000   0.97157048   -7.6907117    496.65112  0.023330098  0.023350154            3 
 1775000   0.96409432   -7.7164661    496.21273  0.023296372  0.023343526            2 
 1776000   0.97307832   -7.7082486    495.94038  0.023270476  0.023336781            2 
 1777000   0.97577141   -7.7216703    495.73946  0.023247958  0.023330113            2 
 1778000   0.96535578   -7.7071683    497.66839   0.02332529   0.02332345            2 
 1779000   0.96678283   -7.6936195    497.20879   0.02329065  0.023316813            3 
 1780000    0.9834123   -7.6962024    497.03428  0.023269395  0.023310171            2 
 1781000   0.95365256   -7.6925468    498.39311  0.023319909   0.02330358            1 
 1782000   0.98475878   -7.6786755    498.97447   0.02333401  0.023297074            1 
 1783000   0.96694503   -7.6903837    498.10632  0.023280348   0.02329048            2 
 1784000    0.9793424    -7.708607    497.52567  0.023240175   0.02328388            3 
 1785000   0.95351124   -7.6950784     498.7987  0.023286587  0.023277322            2 
 1786000   0.94943333   -7.7529516    496.75937  0.023178395  0.023270724            1 
 1787000   0.95786428   -7.7498886    497.91892  0.023219498    0.0232641            1 
 1788000   0.96143139    -7.741477    498.37644  0.023227835  0.023257498            2 
 1789000   0.95174416    -7.714177    498.76932  0.023233152  0.023250909            1 
 1790000   0.95125125    -7.698647    498.55112  0.023210015  0.023244323            4 
 1791000    0.9800108   -7.7219082    500.10913  0.023269548  0.023237752            1 
 1792000   0.94452179   -7.7118035    499.74027   0.02323941  0.023231196            2 
 1793000   0.97639156    -7.738608    498.41275  0.023164749  0.023224492            2 
 1794000   0.95585277   -7.7314019    498.08756  0.023136732  0.023217733            4 
 1795000   0.96010121   -7.7270897    499.06301  0.023169128  0.023210965            1 
 1796000   0.97736334   -7.7005448    499.68697  0.023185178  0.023204271            2 
 1797000   0.97312107   -7.7110556    498.78103  0.023130265  0.023197576            3 
 1798000    0.9477546   -7.7503427    497.49933  0.023057997  0.023190819            2 
 1799000   0.97846321    -7.728535    497.91912  0.023064625  0.023184098            1 
 1800000   0.97878463   -7.6994652    500.22681  0.023158649  0.023177436            2 
 1801000   0.96032333   -7.7139853    499.49846  0.023112089  0.023170778            2 
 1802000   0.96129048   -7.7241828    499.06077  0.023079022  0.023164176            1 
 1803000   0.98088047   -7.7626096    500.30889  0.023123909  0.023157574            2 
 1804000   0.96328484   -7.7348883    499.77743   0.02308654  0.023150928            4 
 1805000   0.98058105   -7.7130368    500.33738  0.023099602  0.023144266            1 
 1806000   0.97613437   -7.7243853     501.0688  0.023120561  0.023137571            2 
 1807000   0.96178714   -7.7336736    499.47812  0.023034409   0.02313092            2 
 1808000   0.94137115   -7.7292829    501.60285    0.0231196  0.023124226            2 
 1809000    0.9671648   -7.7696878    500.00081  0.023033021  0.023117615            3 
 1810000   0.95095078   -7.6848619    502.78225  0.023148354  0.023111075            1 
 1811000   0.95454506   -7.6826661    503.86436  0.023185365  0.023104628            1 
 1812000    0.9743342   -7.7376699    502.57949  0.023113479  0.023098145            2 
 1813000   0.97031773   -7.7237152    502.17197  0.023081999  0.023091585            1 
 1814000   0.96581568   -7.7117601    501.66503  0.023045986   0.02308504            1 
 1815000   0.95549922   -7.7295239     502.3048  0.023062663  0.023078518            1 
 1816000    0.9381764   -7.6774242    503.62942  0.023110748  0.023071906            1 
 1817000   0.97213424   -7.7463553    502.19365   0.02303218  0.023065411            5 
 1818000   0.95074747   -7.7506411    501.07901  0.022968418  0.023058851            1 
 1819000   0.94237613   -7.6965002    504.30637  0.023103645  0.023052226            4 
 1820000    0.9668035   -7.7248699    503.59314  0.023058294  0.023045792            1 
 1821000   0.97176559   -7.7393532    502.88197  0.023013087  0.023039239            2 
 1822000   0.95933461   -7.7483913    502.87045  0.022999929   0.02303264            3 
 1823000   0.96842502   -7.7244449     502.0647   0.02295048  0.023026033            2 
 1824000   0.96422204   -7.7265342    502.65816  0.022965011   0.02301935            2 
 1825000   0.96575528   -7.7113401    503.58392    0.0229947   0.02301274            2 
 1826000   0.95919164   -7.7189842    504.04054  0.023002945   0.02300616            1 
 1827000   0.96130687   -7.6910583    503.23456  0.022953592  0.022999605            2 
 1828000    0.9548611   -7.7408643    502.47313  0.022906325  0.022992938            2 
 1829000   0.95675831   -7.7676583    503.06376  0.022920711  0.022986282            2 
 1830000   0.95783401   -7.7494725    503.87935  0.022945325  0.022979667            3 
 1831000   0.94074124   -7.7168919    504.92262  0.022980276  0.022973081            2 
 1832000   0.97472683   -7.7236533    503.65613  0.022910122  0.022966459            1 
 1833000   0.96357532   -7.7389166     504.2681  0.022925446  0.022959825            2 
 1834000   0.97971126   -7.7649663    503.67536  0.022886012  0.022953234            2 
 1835000   0.96396429   -7.7033158     503.7122  0.022875214  0.022946585            1 
 1836000   0.95724735   -7.7318059    505.37716  0.022938324  0.022939999            3 
 1837000    0.9567125   -7.7556639    504.77021  0.022898304  0.022933392            2 
 1838000   0.97510122   -7.7559843     505.2945  0.022909617  0.022926718            3 
 1839000   0.97168789   -7.7368332    504.88356  0.022878537  0.022920067            1 
 1840000   0.95551507   -7.7654806    504.17996  0.022834237  0.022913416            2 
 1841000   0.96713264   -7.7343444    504.09519  0.022817997  0.022906759            2 
 1842000   0.95729259   -7.7510505    504.47967  0.022823003  0.022900143            1 
 1843000   0.94924029   -7.7508918    505.32478  0.022848833  0.022893502            2 
 1844000   0.95534683   -7.7146495    506.53767  0.022891254  0.022886871            4 
 1845000   0.97091696   -7.7364259     505.2153  0.022819119   0.02288029            2 
 1846000   0.94736873   -7.7217009     507.4761  0.022908816  0.022873693            1 
 1847000   0.97778837   -7.7486575    506.11412  0.022834963  0.022867051            1 
 1848000   0.95553907   -7.7388267    507.04534  0.022864599  0.022860456            2 
 1849000   0.95380644   -7.7692881    505.13378   0.02276608  0.022853846            1 
 1850000   0.95342106   -7.7297982     505.4892  0.022769784  0.022847301            1 
 1851000   0.95018448   -7.7509165    505.62154   0.02276344  0.022840666            3 
 1852000   0.98725411   -7.7804232    505.73365  0.022756194  0.022833937            3 
 1853000   0.94286207   -7.7285477    507.08486   0.02280468  0.022827315            3 
 1854000   0.96191764   -7.7581262    505.65417  0.022728073  0.022820723            3 
 1855000   0.96221264   -7.7278604    507.55987  0.022801432  0.022814081            2 
 1856000   0.94452303   -7.7185024    508.48694  0.022830771  0.022807474            2 
 1857000   0.95189387    -7.743151    506.63031   0.02273516  0.022800883            3 
 1858000   0.94904034   -7.7525407    506.83439  0.022732077    0.0227943            1 
 1859000   0.95767556   -7.7629506    505.39852  0.022655483  0.022787779            1 
 1860000   0.94448035   -7.7298665    508.35073   0.02277557  0.022781211            2 
 1861000   0.95302216   -7.7428777    508.17448   0.02275544  0.022774686            2 
 1862000   0.93452319   -7.7159365     509.4888  0.022802041  0.022768185            3 
 1863000   0.95896425   -7.7643144    508.89786  0.022763368  0.022761689            3 
 1864000    0.9537963    -7.733627    510.20114  0.022809422  0.022755253            1 
 1865000   0.97488202   -7.7352134    508.97576  0.022742438  0.022748825            1 
 1866000   0.94421427   -7.7761887     508.3001  0.022700076  0.022742257            2 
 1867000   0.91655144   -7.7913535    508.13899  0.022680726  0.022735609            2 
 1868000   0.95632185   -7.7462035    510.00771   0.02275195  0.022729056            1 
 1869000   0.94624748   -7.7594252    508.00237  0.022650364  0.022722481            1 
 1870000     0.927915   -7.7770164    508.37134  0.022654695  0.022715911            2 
 1871000   0.97406516   -7.7249461    509.40522  0.022688634  0.022709368            1 
 1872000   0.94913591   -7.7661641     510.7422  0.022736031  0.022702914            1 
 1873000   0.97088963   -7.7572216    510.70332  0.022722162  0.022696489            1 
 1874000    0.9625526   -7.6952009    510.91003  0.022719229  0.022690081            2 
 1875000   0.93792724   -7.7334867    510.68988  0.022697328  0.022683599            2 
 1876000   0.95722651   -7.7959117    510.51626  0.022677517  0.022677082            2 
 1877000    0.9680269   -7.7785952    509.29547  0.022611236  0.022670545            2 
 1878000    0.9591769   -7.7707531    510.35423  0.022646176  0.022663991            2 
 1879000   0.97936339   -7.8009748    510.49311  0.022640283  0.022657429            3 
 1880000    0.9479605    -7.769848    509.73599   0.02259468  0.022650861            3 
 1881000   0.94470532   -7.7579309    511.49031   0.02266039  0.022644321            4 
 1882000   0.95621459   -7.7637712    510.84126  0.022619609  0.022637914            1 
 1883000   0.94643809   -7.7768693    511.20338  0.022623623  0.022631457            2 
 1884000   0.94344918   -7.8034022    510.65188   0.02258722  0.022624887            2 
 1885000   0.94298701   -7.7481568    510.99822  0.022590549  0.022618307            1 
 1886000    0.9472303   -7.7306039    511.86643  0.022616933  0.022611888            3 
 1887000   0.94609928   -7.7425046    513.19205  0.022663489   0.02260546            3 
 1888000   0.93817507   -7.7412867    512.26621   0.02261062  0.022598977            1 
 1889000   0.95196852   -7.7434851    513.09886  0.022635383  0.022592491            2 
 1890000    0.9549737   -7.7270152     513.4286  0.022637945  0.022586092            1 
 1891000   0.96490638   -7.7619626    513.26267  0.022618662  0.022579786            2 
 1892000   0.94236629   -7.7407095    514.76462   0.02267286  0.022573426            2 
 1893000   0.95953846   -7.7818589    513.38144  0.022599993  0.022567098            2 
 1894000   0.95921757   -7.7454342    514.50262  0.022637391  0.022560743            2 
 1895000   0.95223215      -7.8029    512.24693   0.02252625  0.022554337            2 
 1896000   0.96663082   -7.7641103    512.37994  0.022520215  0.022547902            2 
 1897000   0.95127332   -7.7812111    514.14834  0.022586028  0.022541462            1 
 1898000   0.95613285   -7.7638496    514.57745  0.022592969  0.022535111            2 
 1899000   0.95958179    -7.786065    513.38383  0.022528692  0.022528699            1 
 1900000   0.94236663   -7.7589525    513.82392  0.022536137  0.022522255            2 
 1901000   0.93011786   -7.7972324    514.19935  0.022540739  0.022515853            3 
 1902000   0.95085073   -7.7423721    515.37892   0.02258057  0.022509479            3 
 1903000   0.96596137   -7.7793815    515.68157  0.022581957  0.022503087            2 
 1904000   0.94716033    -7.759178    514.10884  0.022501262   0.02249671            1 
 1905000   0.95028933   -7.7427047    515.27258  0.022540358  0.022490376            2 
 1906000   0.93068444   -7.7411279    517.56619  0.022628812   0.02248408            2 
 1907000   0.92208732    -7.733686    516.02485  0.022549591  0.022477826            2 
 1908000   0.95414753   -7.7707881    515.23963  0.022503478  0.022471539            1 
 1909000   0.94117126   -7.7628731    515.76533  0.022514638   0.02246524            3 
 1910000   0.93829883   -7.7632534    516.26973  0.022524857  0.022458885            4 
 1911000   0.94127232   -7.7561903    515.05595  0.022460141  0.022452543            1 
 1912000   0.93522025   -7.7673963    516.88519   0.02252812   0.02244615            2 
 1913000   0.96438339   -7.7751701    515.52961  0.022457293  0.022439833            2 
 1914000   0.95753556   -7.7577128    515.40197  0.022440002  0.022433488            1 
 1915000   0.94976791   -7.7684766    517.34561  0.022512864   0.02242713            5 
 1916000    0.9388025   -7.7473926    517.07824  0.022489485  0.022420755            2 
 1917000   0.95268122   -7.7788863    514.85596  0.022381149  0.022414314            2 
 1918000   0.91369634   -7.7593996    515.26912  0.022387432  0.022407886            1 
 1919000   0.93790822   -7.7932142    515.50099  0.022385834  0.022401434            3 
 1920000   0.96799501   -7.8067266    516.32971  0.022410144  0.022394999            2 
 1921000   0.96522014   -7.7702638    517.56766   0.02245218  0.022388612            2 
 1922000    0.9426641   -7.7942926     517.6424  0.022443739  0.022382299            3 
 1923000     0.958206   -7.7919506    516.81763  0.022396326  0.022375909            2 
 1924000   0.94572376   -7.7753455    517.66944   0.02242158   0.02236958            2 
 1925000   0.96115456   -7.7449867    518.01483  0.022424885  0.022363322            2 
 1926000   0.96386241   -7.7775677    519.09555  0.022460001  0.022357059            2 
 1927000   0.94288937   -7.7720652    518.92949  0.022441165  0.022350867            2 
 1928000   0.93276936   -7.7983229    518.52113  0.022411874  0.022344683            2 
 1929000   0.94985975   -7.7856826    518.08399  0.022381372  0.022338467            4 
 1930000   0.96404947   -7.7382525    518.61103  0.022392532  0.022332216            3 
 1931000   0.92837095   -7.7879484    518.37223   0.02237063  0.022325988            1 
 1932000   0.95749282   -7.7795726    520.73429  0.022460934  0.022319821            4 
 1933000   0.91491032   -7.7587025     519.6513  0.022402625  0.022313593            2 
 1934000    0.9289763   -7.7867867    518.85219  0.022356609  0.022307349            3 
 1935000   0.95741149   -7.8124017     516.9467  0.022262993  0.022300982            4 
 1936000    0.9431842   -7.7751792    519.27786  0.022351836   0.02229456            2 
 1937000   0.92698079   -7.8011237    520.06037  0.022373962  0.022288204            5 
 1938000   0.95496275   -7.8306982    518.38062  0.022290188  0.022281867            3 
 1939000   0.93179935   -7.7455238    520.38905   0.02236501  0.022275527            1 
 1940000   0.93487435   -7.7853004    519.53327  0.022316721  0.022269139            2 
 1941000    0.9577147   -7.7600268    520.84102   0.02236137  0.022262734            1 
 1942000   0.93321635   -7.8092517    519.45696  0.022290463  0.022256362            1 
 1943000     0.951103   -7.7667876    519.60474  0.022285329   0.02224997            2 
 1944000   0.93366284   -7.7338277    520.20536  0.022299612  0.022243621            3 
 1945000   0.94255256   -7.7918739    519.42998  0.022254926   0.02223731            2 
 1946000   0.96103176   -7.8008733    519.87006  0.022262336  0.022230961            2 
 1947000   0.92778756   -7.7628487    520.33382  0.022270751  0.022224668            2 
 1948000   0.95012781   -7.7804386    519.29657  0.022214946  0.022218325            2 
 1949000   0.93102862   -7.8062229    520.94785  0.022274151  0.022212001            2 
 1950000   0.94213416   -7.7838756     519.9584  0.022220445   0.02220568            1 
 1951000   0.93714771   -7.7619231    520.37778  0.022226968  0.022199436            3 
 1952000   0.95116741   -7.7700382    520.64608  0.022227035  0.022193103            1 
 1953000   0.93760256   -7.7852098    522.19356  0.022281685  0.022186634            2 
 1954000   0.93977589   -7.8063564    521.13428  0.022225106  0.022180189            2 
 1955000    0.9200314   -7.7806754    521.60993  0.022234012  0.022173835            2 
 1956000   0.96153196   -7.8081613    520.69796  0.022183792  0.022167507            2 
 1957000   0.94313074   -7.8018893    521.64156  0.022212637  0.022161165            3 
 1958000    0.9404033   -7.8069191    521.25554  0.022184863  0.022154807            1 
 1959000   0.93358761   -7.7854399    521.39531  0.022179484  0.022148458            1 
 1960000   0.91667615   -7.8040834    521.13442  0.022157075  0.022142093            1 
 1961000     0.944842    -7.772433    521.18979   0.02214813  0.022135701            2 
 1962000    0.9366575   -7.7635805    522.83093  0.022206546  0.022129286            2 
 1963000   0.94070126   -7.7723733    522.34908  0.022174778  0.022122985            2 
 1964000   0.95531555   -7.7763727    521.64992  0.022133822  0.022116565            2 
 1965000   0.94098096   -7.7868437    523.42985  0.022198043  0.022110185            2 
 1966000   0.93155707   -7.7496435    523.48801  0.022189217   0.02210382            2 
 1967000    0.9458334   -7.7800749    522.77803  0.022147857  0.022097459            2 
 1968000   0.92096846   -7.8244536     521.7725  0.022094025  0.022091081            1 
 1969000   0.95857855   -7.7944748    521.99357   0.02209216  0.022084711            2 
 1970000   0.93856932   -7.8068447    523.06241   0.02212616  0.022078407            2 
 1971000   0.93786052   -7.7625819    523.47997  0.022132588  0.022072126            1 
 1972000   0.93696252   -7.7841245    523.43873  0.022119622  0.022065786            3 
 1973000    0.9543487   -7.8012131    522.09703  0.022051741  0.022059398            1 
 1974000   0.93761846   -7.7601019    524.20194   0.02212943  0.022053044            2 
 1975000   0.95313052   -7.7984161    523.86428  0.022103978  0.022046699            4 
 1976000   0.94052101   -7.7637337    524.20817  0.022107295  0.022040358            6 
 1977000   0.91299146   -7.8063185    523.95635  0.022085498  0.022034036            1 
 1978000   0.93246157   -7.8090151    523.89049  0.022071557  0.022027686            3 
 1979000   0.94334609   -7.8082023    524.37618  0.022080856  0.022021249            3 
 1980000   0.93440937   -7.7666481    525.36887  0.022111484  0.022014959            2 
 1981000    0.9199669   -7.7633369     526.2278  0.022136454  0.022008619            1 
 1982000   0.93595313   -7.7455045    526.79156  0.022148989  0.022002392            2 
 1983000   0.93236382   -7.7802838    525.06235  0.022065152  0.021996151            1 
 1984000   0.93594917   -7.8118659    524.34092  0.022023728  0.021989899            2 
 1985000    0.9272857   -7.8132111    525.04155  0.022042047  0.021983666            1 
 1986000   0.90726661   -7.8033466    525.75849  0.022061031  0.021977365            5 
 1987000    0.9353271   -7.8108395    524.73707  0.022007091  0.021971071            2 
 1988000   0.93253667   -7.8011769    526.59604  0.022073945  0.021964705            1 
 1989000   0.93213138   -7.7743209    525.62943  0.022022349  0.021958393            1 
 1990000   0.93931807   -7.8054341    526.96227  0.022067097   0.02195207            1 
 1991000   0.93418596   -7.8173956    525.80043  0.022007384  0.021945694            7 
 1992000   0.91003969   -7.8181094    525.67419  0.021991055  0.021939374            2 
 1993000   0.92382389   -7.7734029    527.06125  0.022038018  0.021933087            2 
 1994000   0.93522668   -7.7937536    525.06271  0.021943443   0.02192683            2 
 1995000    0.9139843   -7.8005831    527.16448  0.022020237  0.021920562            1 
 1996000   0.90600035   -7.7803307    526.40209  0.021977375  0.021914294            3 
 1997000   0.92731202   -7.8015941    526.38506  0.021965659  0.021907973            2 
 1998000   0.95307637   -7.8407818    525.73785  0.021927671  0.021901648            2 
 1999000   0.93906467   -7.8236446    527.35238  0.021984008  0.021895249            1 
 2000000   0.93943336   -7.7845336    526.57851  0.021940771  0.021888937            2 
 2001000    0.9285653    -7.825087    525.06292  0.021866688  0.021882604            2 
 2002000   0.91704968   -7.8361559    526.83442  0.021929505  0.021876287            3 
 2003000   0.94231121   -7.8053942    526.78582  0.021916534  0.021869895            2 
 2004000    0.9247657   -7.8244054    526.70166  0.021902098  0.021863552            3 
 2005000   0.93444794   -7.8306416    525.85971  0.021856181  0.021857133            2 
 2006000    0.9499493   -7.8365111    526.79933  0.021884319  0.021850746            2 
 2007000   0.91425585   -7.7966603    528.33935  0.021937359   0.02184441            2 
 2008000   0.92896147   -7.7800859    528.17434  0.021919586  0.021838147            6 
 2009000   0.93745296   -7.7937214    529.16884  0.021949927  0.021831882            1 
 2010000   0.92692308   -7.7885755    527.77904  0.021881386  0.021825597            3 
 2011000   0.93958499   -7.7986791    527.45347  0.021857014  0.021819353            2 
 2012000   0.92958194   -7.8012011    528.43272   0.02188671  0.021813089            1 
 2013000    0.9387149   -7.7959929    527.60396  0.021841528  0.021806897            2 
 2014000   0.91500005   -7.8100657     528.5818  0.021871144  0.021800673            3 
 2015000   0.92065588   -7.8326784    526.77913  0.021785737  0.021794422            2 
 2016000   0.92624217   -7.8250882    527.91414  0.021821848  0.021788124            1 
 2017000   0.92137809   -7.8052705    529.19419  0.021863914  0.021781819            5 
 2018000   0.91854385   -7.8399985    527.83183  0.021796822  0.021775496            2 
 2019000   0.92128584   -7.8503927    529.19376  0.021842239  0.021769214            1 
 2020000   0.94697507   -7.8536492    527.45314  0.021759618  0.021762905            3 
 2021000   0.92130863    -7.786806    530.58486  0.021877984  0.021756672            3 
 2022000   0.93219201   -7.8486652    528.45994  0.021779589  0.021750455            4 
 2023000   0.93636956   -7.8115485    528.23034  0.021759365  0.021744262            1 
 2024000   0.92223761   -7.8201967    528.56168  0.021762256  0.021738037            3 
 2025000    0.9053076   -7.8320562    529.99603  0.021810536  0.021731806            4 
 2026000   0.92220822    -7.818292    530.01601  0.021800593  0.021725615            1 
 2027000   0.91554183    -7.793537    531.27099  0.021841432  0.021719406            1 
 2028000   0.90723777    -7.828611    531.11446   0.02182423  0.021713188            3 
 2029000   0.93791094   -7.8395175    530.99791  0.021808687  0.021706938            2 
 2030000   0.91672112   -7.8261346    530.17661  0.021764229  0.021700602            2 
 2031000   0.92382659   -7.8488356    530.58793  0.021770389  0.021694283            3 
 2032000   0.93579741   -7.8164536    530.36512  0.021750538  0.021687989            2 
 2033000    0.9292999    -7.826696    531.37095  0.021781069  0.021681757            1 
 2034000   0.91348412   -7.8604819    530.10255  0.021718394  0.021675488            2 
 2035000   0.91214504   -7.8120701    531.85156  0.021779343  0.021669193            2 
 2036000    0.9198663   -7.8300622    529.52515  0.021673426  0.021662853            2 
 2037000   0.91912715   -7.8528538     529.0445  0.021643123  0.021656524            2 
 2038000   0.93850644   -7.8394238    530.75933  0.021702622  0.021650157            1 
 2039000   0.92824959   -7.7909794    530.73166  0.021690848   0.02164382            4 
 2040000   0.93108705   -7.8055377    531.15083  0.021697338  0.021637484            2 
 2041000   0.93692751   -7.8549914    531.20128  0.021688767  0.021631213            1 
 2042000   0.92602073   -7.8182222    531.67568  0.021697506  0.021624944            1 
 2043000     0.910847   -7.8260868    531.46148  0.021678148  0.021618698            2 
 2044000   0.90655151   -7.8249189    533.56707  0.021753387  0.021612462            4 
 2045000   0.93123827   -7.8127461    533.21321   0.02172833  0.021606281            6 
 2046000   0.90917388   -7.8496537     532.5459   0.02169053  0.021600041            2 
 2047000   0.92661482   -7.8504804    530.59892  0.021600672  0.021593753            2 
 2048000   0.93177112   -7.8385885    532.84242  0.021681413  0.021587498            3 
 2049000    0.9196965    -7.821031    533.14611  0.021683183  0.021581268            2 
 2050000    0.9186711   -7.8102908    532.88199   0.02166187   0.02157508            3 
 2051000   0.92072761   -7.8036496    534.44469  0.021714801  0.021568891            1 
 2052000   0.92034506   -7.8193801    534.81293  0.021719173  0.021562759            1 
 2053000   0.92097206   -7.8449741    531.70528  0.021582452  0.021556605            1 
 2054000   0.91638828   -7.8009596    535.01268  0.021706129  0.021550462            2 
 2055000    0.9186314   -7.8071364    534.00075  0.021654532  0.021544305            2 
 2056000    0.9298434   -7.8343852    532.59248   0.02158692  0.021538132            2 
 2057000   0.93754972   -7.8469944    532.38456  0.021568002  0.021531936            1 
 2058000   0.91671122   -7.8373738    533.84785  0.021616774  0.021525756            2 
 2059000   0.91192546   -7.7815595    536.12887  0.021698594  0.021519603            1 
 2060000   0.90135478   -7.8250385    533.59039  0.021585372  0.021513446            1 
 2061000   0.91687827   -7.8280838    535.59952  0.021656135  0.021507283            2 
 2062000   0.90603434   -7.8267645    536.18141  0.021669149  0.021501189            2 
 2063000   0.90931391   -7.8226325    536.74338  0.021681345   0.02149512            3 
 2064000   0.91467277   -7.8389601     535.0488  0.021602423  0.021489039            3 
 2065000   0.91903466    -7.852849    535.42367  0.021607089  0.021482995            2 
 2066000   0.91717272   -7.8164781    536.50595  0.021640285  0.021477011            1 
 2067000   0.93646571   -7.8519805    535.30405   0.02158136  0.021471031            3 
 2068000   0.91689728   -7.8163387    536.87461  0.021634212  0.021465069            2 
 2069000    0.9132477   -7.8245217    538.18798  0.021676654  0.021459069            1 
 2070000   0.93815648   -7.8113821    539.39178  0.021714645  0.021453119            2 
 2071000   0.92935625   -7.8189919    536.93894  0.021605462   0.02144718            3 
 2072000   0.90434771   -7.8115235    538.17618  0.021644795  0.021441213            2 
 2073000   0.90715216   -7.8184491    537.07646  0.021590145  0.021435274            7 
 2074000   0.93618112   -7.8268536    538.70334  0.021645103  0.021429345            4 
 2075000   0.93768557   -7.8334561    537.10447  0.021570461  0.021423414            2 
 2076000   0.92170908   -7.8169777    538.26804  0.021606778  0.021417417            2 
 2077000   0.93675466   -7.8253508     539.1641  0.021632326  0.021411463            2 
 2078000   0.90920188   -7.7944834    538.92264  0.021612233  0.021405536            1 
 2079000   0.92646807   -7.8337712    536.35315  0.021498844  0.021399554            3 
 2080000   0.90756667   -7.8602682    536.99271  0.021514131  0.021393549            1 
 2081000   0.91990039   -7.8186732    538.71643  0.021572819   0.02138746            4 
 2082000   0.90506529   -7.8482077    538.52046  0.021554613  0.021381418            1 
 2083000   0.92976043   -7.8433256    537.04911  0.021485402  0.021375445            3 
 2084000   0.91358688   -7.8802897    536.68656  0.021460595  0.021369394            3 
 2085000   0.91323363   -7.8440843    538.53272  0.021524089  0.021363296            2 
 2086000   0.92007942   -7.8566163    538.03981   0.02149408  0.021357272            2 
 2087000   0.91686186   -7.8486061    539.58643  0.021545537   0.02135127            2 
 2088000   0.92636739   -7.8623829    539.29848  0.021523726  0.021345219            2 
 2089000    0.9248987   -7.8825965    539.34727  0.021515369   0.02133915            3 
 2090000   0.90340401   -7.8392035    539.28268  0.021502499  0.021333035            2 
 2091000   0.93002797   -7.8722408    538.36253  0.021455545  0.021326995            2 
 2092000   0.90627724   -7.8721399    537.94965  0.021428842  0.021320885            2 
 2093000   0.91543935   -7.8281854     537.8065  0.021412904  0.021314732            2 
 2094000   0.89840414   -7.8356936    539.00417  0.021450341  0.021308695            2 
 2095000   0.91916335   -7.8107648    539.91103  0.021476175  0.021302643            1 
 2096000   0.91438018   -7.8847752    537.96553  0.021388579  0.021296601            1 
 2097000   0.90507547   -7.8727257    539.01304  0.021420006   0.02129048            3 
 2098000   0.90981565   -7.8500126     538.9265  0.021406359   0.02128441            2 
 2099000   0.90627712   -7.8272155    539.66877   0.02142563  0.021278343            2 
 2100000   0.91672653   -7.8387865    539.92458  0.021425578  0.021272305            2 
 2101000   0.90643904   -7.8654444    539.11127  0.021383122  0.021266199            3 
 2102000   0.92042203   -7.8384676    540.03728  0.021409661  0.021260113            3 
 2103000   0.92970448   -7.8250179    540.87444  0.021432653  0.021254082            1 
 2104000   0.91676955   -7.8066206    540.13675  0.021393249  0.021248033            2 
 2105000   0.91195811   -7.8537043    540.01928  0.021378435  0.021241986            1 
 2106000   0.92139546   -7.8376126    541.08926  0.021410623  0.021235953            2 
 2107000   0.90533829   -7.8635154    540.85779  0.021391306  0.021229871            2 
 2108000   0.90294651   -7.8434409    540.24703  0.021357014  0.021223771            4 
 2109000    0.9381531   -7.8323378    541.41368  0.021392986  0.021217708            1 
 2110000    0.9032557   -7.8361347    539.92542  0.021324069  0.021211642            3 
 2111000   0.93271893   -7.8432238    540.59793  0.021340515  0.021205604            2 
 2112000   0.90544861   -7.8555802    540.13746  0.021312242   0.02119958            2 
 2113000    0.8911732   -7.8505686    541.64185  0.021361486  0.021193535            2 
 2114000   0.92503027   -7.8439185    541.28339  0.021337251  0.021187459            1 
 2115000   0.90978972   -7.8479825    541.78109  0.021346773   0.02118142            2 
 2116000   0.90714098   -7.8506236    541.43644  0.021323111   0.02117531            1 
 2117000   0.92800535   -7.8842806    541.69328  0.021323149  0.021169202            3 
 2118000   0.90638838   -7.8507412    543.93648  0.021401341  0.021163117            2 
 2119000   0.90503463   -7.8608091     541.1856  0.021283058  0.021157101            1 
 2120000   0.91261074   -7.8334778    542.37214   0.02131966  0.021151115            4 
 2121000   0.91200779   -7.8657118    542.30977  0.021307157  0.021145086            2 
 2122000   0.88483444    -7.895695    540.64057  0.021231565  0.021139022            1 
 2123000   0.91442346   -7.8700015    542.31365  0.021287237  0.021132923            3 
 2124000   0.90740665   -7.8411038     542.6661  0.021291043  0.021126842            1 
 2125000    0.9109696   -7.8853027    539.83114  0.021169849  0.021120765            2 
 2126000   0.91301618   -7.8754815    541.16206   0.02121206   0.02111462            2 
 2127000   0.93123691   -7.8342235    540.96181  0.021194241  0.021108488            2 
 2128000   0.90733345   -7.8846649    541.40071  0.021201469   0.02110239            5 
 2129000   0.91972713   -7.8442874    542.66467  0.021240984  0.021096305            1 
 2130000   0.92123919   -7.8575844    543.60974  0.021267987  0.021090205            5 
 2131000   0.91362199   -7.8534159    541.82167  0.021188084  0.021084091            2 
 2132000   0.89464355   -7.8519115    543.12727  0.021229177  0.021077939            2 
 2133000     0.913962   -7.8645654    542.99737   0.02121415  0.021071827            5 
 2134000   0.90939014   -7.8466743    543.84927  0.021237475  0.021065681            2 
 2135000    0.9045449   -7.8695055    542.87002  0.021189306  0.021059551            1 
 2136000    0.8939802   -7.8403518    542.00108  0.021145485  0.021053447            7 
 2137000   0.89737735   -7.8630623    542.26917  0.021146045   0.02104738            3 
 2138000   0.88929552   -7.8455394    541.76948  0.021116677  0.021041317            3 
 2139000   0.89115804    -7.849706    543.09334  0.021158382  0.021035222            5 
 2140000   0.89707744   -7.8681968    542.40331  0.021121624  0.021029086            1 
 2141000   0.90333617    -7.851748    543.91978  0.021170784  0.021022947            1 
 2142000   0.90625519   -7.8853369    542.81994  0.021118112   0.02101681            2 
 2143000   0.90568075   -7.9018519    542.36655  0.021090627  0.021010581            2 
 2144000   0.91805931   -7.8635479    543.91948  0.021141149  0.021004395            1 
 2145000   0.89854525    -7.884806    544.18787   0.02114172  0.020998261            2 
 2146000    0.9138713   -7.8685867    543.59376  0.021108798  0.020992199            2 
 2147000   0.91022053   -7.8946906    542.96252  0.021074465  0.020986105            2 
 2148000   0.92103583   -7.8532586    543.87497  0.021100053  0.020980028            3 
 2149000   0.90424828   -7.8451974    544.78663  0.021125587   0.02097402            2 
 2150000   0.89939184   -7.8767488    545.48156  0.021142696  0.020968011            4 
 2151000   0.91742792   -7.8886482    543.32411  0.021049284  0.020961968            1 
 2152000   0.92648258    -7.909005    544.08285  0.021068884  0.020955912            4 
 2153000   0.92118474   -7.8597803    544.93553  0.021092101  0.020949859            1 
 2154000   0.90384547   -7.8761274    545.04416  0.021086512  0.020943868            1 
 2155000   0.89113215   -7.8417394    545.13529  0.021080251  0.020937874            2 
 2156000   0.89048265   -7.8824577    545.20631  0.021073219  0.020931841            2 
 2157000   0.90301802   -7.8927192    544.25088  0.021026537  0.020925817            3 
 2158000   0.89692351   -7.8942654    545.62821   0.02106998  0.020919781            3 
 2159000    0.8918096   -7.9096416    545.71821  0.021063695  0.020913719            2 
 2160000   0.89674083   -7.8824956    545.17545  0.021033003   0.02090768            3 
 2161000   0.91418567   -7.8659687    545.61575  0.021040249  0.020901687            1 
 2162000   0.89759309   -7.8774801     546.9226   0.02108089   0.02089571            3 
 2163000   0.89034627   -7.8571427    545.69966  0.021024028  0.020889739            2 
 2164000   0.91022084    -7.876896    546.25965  0.021035877  0.020883743            1 
 2165000   0.89231452   -7.8580926    547.27344  0.021065182  0.020877798            3 
 2166000   0.91534761   -7.8374958    547.74308  0.021073526  0.020871831            2 
 2167000   0.91264596   -7.8938555    545.89424  0.020992703    0.0208659            1 
 2168000   0.90639069   -7.8658773    546.31342  0.020999132  0.020859874            3 
 2169000   0.89588003   -7.8757205    548.32381   0.02106669  0.020853861            1 
 2170000   0.89343692   -7.8620833    546.25637  0.020977587  0.020847843            1 
 2171000    0.9097644   -7.9036902    547.07449  0.020999328  0.020841812            2 
 2172000   0.88116786   -7.8553358    547.72021  0.021014434  0.020835821            3 
 2173000   0.91126462   -7.8991687    546.91602  0.020973923  0.020829804            3 
 2174000   0.91569683   -7.8688659    546.79266  0.020959547  0.020823833            1 
 2175000   0.89843505   -7.8872569    548.08808  0.020999543  0.020817856            1 
 2176000   0.90659055   -7.8577783    547.39513  0.020963355  0.020811875            3 
 2177000   0.87011682   -7.8661445    549.99603  0.021053286  0.020805943            2 
 2178000   0.91964989   -7.9128838    547.10772  0.020933108  0.020799956            2 
 2179000   0.89974088   -7.9154007    547.28379  0.020930235  0.020793964            1 
 2180000   0.90570471   -7.8530685    548.74005  0.020976302     0.020788            2 
 2181000   0.91040629   -7.8607349    547.91697  0.020935235  0.020782113            4 
 2182000    0.9020262   -7.8891249    549.14646  0.020972596  0.020776202            1 
 2183000   0.90355927   -7.8977307    548.72775  0.020947005  0.020770259            1 
 2184000   0.90088376   -7.8844265    547.11172  0.020875752  0.020764288            2 
 2185000   0.92295553   -7.8747845    549.86486    0.0209712  0.020758328            2 
 2186000   0.90551343   -7.8428536    550.18222  0.020973705  0.020752435            1 
 2187000   0.90511534   -7.8481614    549.55977  0.020940397  0.020746523            1 
 2188000   0.88349208   -7.8775769    548.53322  0.020891728   0.02074063            1 
 2189000   0.90181779   -7.8908911    549.46261  0.020917565  0.020734719            2 
 2190000   0.91159041   -7.8589712    549.83966  0.020922361   0.02072879            1 
 2191000   0.88615931   -7.9240967    548.09563  0.020846479  0.020722821            2 
 2192000   0.89916938    -7.933358    547.70423  0.020822089  0.020716739            1 
 2193000   0.89992145   -7.8618618    550.59049  0.020922271   0.02071075            1 
 2194000   0.90814888   -7.8636653    550.60224  0.020913181  0.020704805            2 
 2195000   0.87822627   -7.8855105    548.76121  0.020833759  0.020698859            4 
 2196000   0.90778681   -7.9135214    549.72596  0.020860882  0.020692834            1 
 2197000   0.89189927   -7.8901534    549.06435  0.020826291  0.020686775            3 
 2198000   0.91467679   -7.9023586    548.94424  0.020812263  0.020680744            2 
 2199000    0.8977854   -7.8913812    550.93118  0.020878095  0.020674758            1 
 2200000   0.90727706   -7.8718369    548.43081  0.020773894  0.020668713            2 
 2201000   0.90564272   -7.8706346    550.96684  0.020860474  0.020662741            1 
 2202000   0.88727537   -7.8836059    549.67433  0.020802086  0.020656837            1 
 2203000   0.89985056   -7.8851213      549.565  0.020788508  0.020650867            3 
 2204000   0.89276944    -7.893471    548.08097  0.020722965  0.020644894            1 
 2205000   0.90845475   -7.8713732    550.76239  0.020814905  0.020638898            3 
 2206000   0.88029226   -7.9023288    549.95181  0.020774849   0.02063295            2 
 2207000   0.89259492   -7.8699459    549.82785  0.020760755  0.020626986            1 
 2208000   0.88801248    -7.946476    549.80221  0.020750385  0.020620988            2 
 2209000   0.89919137   -7.8838546    550.19418  0.020755779  0.020615023            2 
 2210000   0.92054824   -7.8648278    551.50133  0.020795676  0.020609042            2 
 2211000   0.88099216   -7.8895387    550.76704  0.020758595  0.020603043            1 
 2212000   0.89767689   -7.8876969    550.84873  0.020752288  0.020597011            2 
 2213000   0.88374762   -7.8866526    549.90491   0.02070737  0.020590993            2 
 2214000   0.89953437   -7.8876402    550.00523  0.020701793   0.02058496            4 
 2215000   0.91897119    -7.900608    551.00295  0.020729983  0.020578897            3 
 2216000   0.88879193   -7.9099589    550.24501  0.020692126  0.020572891            1 
 2217000   0.90697293   -7.8977608    552.31215  0.020760493  0.020566853            3 
 2218000   0.89479378   -7.8968907    550.82926  0.020695419  0.020560877            6 
 2219000   0.89497177   -7.8642774    552.77898  0.020759313  0.020554896            2 
 2220000   0.90111636   -7.8748328    553.08859  0.020761584   0.02054895            2 
 2221000   0.91080512   -7.8869335    552.17517  0.020717964   0.02054297            1 
 2222000   0.89692562   -7.8894488    551.98454   0.02070149  0.020537005            2 
 2223000   0.88386933   -7.9110702    550.68511  0.020643466  0.020531024            2 
 2224000     0.898132   -7.9027899    552.07692  0.020686335  0.020525018            2 
 2225000   0.90866278   -7.9087827    553.18731  0.020718626  0.020519025            1 
 2226000   0.88807236   -7.9423119    550.51559  0.020609299  0.020512997            1 
 2227000   0.89669309   -7.8787083    552.97703   0.02069215  0.020506976            2 
 2228000   0.91642696   -7.8743237    552.49972   0.02066501  0.020501046            2 
 2229000   0.89281458   -7.8895481    552.88566  0.020670168  0.020495132            1 
 2230000   0.90003668   -7.8905954    552.94172  0.020662994   0.02048924            2 
 2231000   0.90389152    -7.863144    552.72289  0.020645558  0.020483341            1 
 2232000   0.90301166   -7.8627226    552.24276  0.020618383  0.020477392            2 
 2233000   0.92425755   -7.9240002    552.07639   0.02060294  0.020471418            2 
 2234000   0.88454366   -7.8870601    553.61346  0.020651054  0.020465479            2 
 2235000   0.89715436   -7.8776422    552.59474  0.020603831  0.020459497            3 
 2236000   0.90620713   -7.9022841    553.36027  0.020623146  0.020453513            1 
 2237000   0.90554173   -7.9054276     552.7666  0.020591812  0.020447511            2 
 2238000   0.88777079   -7.9158923    553.03795  0.020592715  0.020441509            2 
 2239000   0.88572449   -7.8873508    552.59955  0.020567201  0.020435507            2 
 2240000   0.91801535   -7.9098999    551.31846  0.020510359  0.020429466            1 
 2241000   0.89620798   -7.8916665    553.07278  0.020566443  0.020423488            3 
 2242000   0.90762648   -7.8713353    554.07505  0.020594523  0.020417516            2 
 2243000    0.8942135   -7.8647592    553.96612  0.020581295  0.020411535            3 
 2244000   0.88521045   -7.9103305    553.08888  0.020539546  0.020405504            4 
 2245000   0.90539219   -7.9203712    553.44866  0.020543751  0.020399475            2 
 2246000   0.90495995   -7.8850968    554.14038  0.020560269   0.02039344            3 
 2247000   0.89698358   -7.9110474    552.10033  0.020475461  0.020387387            4 
 2248000   0.87702351   -7.8788264    554.54836  0.020557101  0.020381316            3 
 2249000    0.9056914   -7.9223262      553.523  0.020509967  0.020375266            1 
 2250000   0.89713008   -7.8992438    553.10749  0.020485462  0.020369219            2 
 2251000   0.88565984   -7.8818937    554.53148  0.020529079  0.020363158            2 
 2252000   0.88301749   -7.9076558    554.90044  0.020533616  0.020357158            2 
 2253000   0.88771574   -7.9091933    553.85034  0.020485661  0.020351142            4 
 2254000   0.91907056    -7.879997    554.95214  0.020517308  0.020345139            3 
 2255000   0.89689173   -7.9338806     554.3319  0.020485288   0.02033915            3 
 2256000   0.88867915   -7.8998085    555.05223  0.020502816  0.020333157            2 
 2257000   0.86920383    -7.898716    554.75471  0.020482747  0.020327128            1 
 2258000   0.87890456   -7.9275619    553.43997  0.020425154  0.020321061            1 
 2259000   0.87827989   -7.9432159    553.82747  0.020430407   0.02031497            2 
 2260000   0.90043278   -7.9059529    553.68291  0.020416036  0.020308929            3 
 2261000   0.90320793   -7.9252263    556.08495  0.020495539  0.020302895            2 
 2262000   0.88208042   -7.9268427    555.31993  0.020458294  0.020296914            1 
 2263000   0.89745025   -7.8901597    555.78285    0.0204663  0.020290948            2 
 2264000   0.87167481   -7.9221461    555.54917  0.020448659  0.020284977            4 
 2265000   0.87816769   -7.9279664    554.95761  0.020417866  0.020278982            1 
 2266000    0.8839875    -7.911124    555.43489  0.020426408  0.020272981            3 
 2267000   0.89299278   -7.9421821     553.7503  0.020355473  0.020266915            1 
 2268000   0.87123931   -7.9366126    554.59578  0.020377564  0.020260853            2 
 2269000   0.87912722   -7.9415832    555.34964   0.02039627   0.02025478            5 
 2270000    0.8873453   -7.8771909    556.26212  0.020420783  0.020248721            1 
 2271000   0.87408434   -7.9090471    556.35716  0.020415278   0.02024267            1 
 2272000   0.89748392    -7.891639    556.50939  0.020411876  0.020236577            2 
 2273000    0.9088324    -7.925876    554.26389  0.020320571  0.020230499            2 
 2274000   0.88828706   -7.8882927    554.73752  0.020328992  0.020224412            3 
 2275000   0.88444378   -7.9287581    556.12581  0.020370909  0.020218352            2 
 2276000   0.89515746   -7.9481487    555.57671  0.020341854  0.020212319            3 
 2277000   0.88521426   -7.8817006    555.98078  0.020347708  0.020206284            1 
 2278000   0.88475007   -7.9172584    555.74773  0.020330251  0.020200246            1 
 2279000   0.90021089   -7.9110971    555.74003  0.020321048  0.020194177            1 
 2280000   0.89141295   -7.9620636    555.09127  0.020288424  0.020188124            4 
 2281000   0.88247422   -7.9337816    556.65175  0.020336539  0.020182068            1 
 2282000   0.89288284    -7.882509    557.80008  0.020369562  0.020176099            7 
 2283000   0.87504876   -7.9200976    555.37036   0.02027195  0.020170053            1 
 2284000   0.87838319   -7.9303097    556.24879  0.020295125  0.020164011            2 
 2285000   0.88337684   -7.9009802    556.58331  0.020298443  0.020157965            1 
 2286000   0.87944625   -7.9152022    557.25568  0.020314074  0.020151958            2 
 2287000   0.90496578   -7.9222074    558.10764  0.020336235  0.020145929            1 
 2288000   0.87461412   -7.9332482     555.3484   0.02022685  0.020139912            2 
 2289000   0.87477763   -7.9370541    557.35886  0.020291207   0.02013385            2 
 2290000   0.87092433   -7.9200468    558.14769  0.020311051  0.020127816            1 
 2291000     0.887073   -7.9298893    556.83589   0.02025447  0.020121745            2 
 2292000   0.88752591   -7.9260526    557.38139  0.020265466  0.020115703            2 
 2293000   0.89853951   -7.9098478      557.663  0.020266863  0.020109641            1 
 2294000   0.87830611    -7.924177    557.16273  0.020239855  0.020103609            1 
 2295000   0.88977703   -7.9086596    558.17337  0.020267733  0.020097632            2 
 2296000   0.87649111   -7.9173042    557.50221  0.020234546  0.020091631            5 
 2297000    0.8955951   -7.9531852    558.43443  0.020259557  0.020085637            1 
 2298000   0.87432522   -7.8936436    557.86271  0.020230008  0.020079605            2 
 2299000   0.87224514   -7.9326035    557.94436  0.020224168  0.020073594            2 
 2300000   0.88659907   -7.9276277    557.92252  0.020214584  0.020067592            2 
 2301000   0.89373138   -7.9677797    556.45171  0.020152532  0.020061573            4 
 2302000   0.89407652   -7.9190791    559.09944  0.020239627  0.020055535            3 
 2303000   0.88470844   -7.9584797    557.23562  0.020163396  0.020049484            3 
 2304000   0.88722481   -7.9669296    556.90975  0.020142858  0.020043387            3 
 2305000   0.87510228   -7.8993842    559.46428  0.020226474  0.020037344            1 
 2306000   0.89360573   -7.8893007    561.14846  0.020278565  0.020031385            7 
 2307000   0.87274158   -7.9235409    559.07944  0.020195038  0.020025378            5 
 2308000   0.89018371   -7.9563572    558.81082  0.020176589  0.020019357            2 
 2309000   0.86594713   -7.9266529    558.56241  0.020158886  0.020013338            4 
 2310000   0.88014167   -7.9298444    559.38385  0.020179793  0.020007341            2 
 2311000   0.88579811   -7.9544843    559.16687  0.020163236   0.02000136            4 
 2312000   0.88323834   -7.9727835    558.56555  0.020132841  0.019995372            2 
 2313000   0.87685428   -7.9243954    560.39113   0.02018991  0.019989378            2 
 2314000   0.88078728   -7.9170145     559.1104  0.020135062  0.019983392            1 
 2315000   0.88670908   -7.9540892    558.88595  0.020118285  0.019977427            1 
 2316000   0.88095442   -7.9224968    558.54702  0.020097403  0.019971462            4 
 2317000   0.88671839   -7.9288547    559.82317  0.020134627  0.019965524            3 
 2318000   0.85723305   -7.9490617    560.12062  0.020136634  0.019959548            2 
 2319000   0.86483567   -7.9402645    560.74229  0.020150291  0.019953541            6 
 2320000   0.90349221   -7.9439135    559.95434  0.020113302  0.019947558            2 
 2321000   0.90798714   -7.9129385    560.11123   0.02011027  0.019941632            2 
 2322000   0.88005427   -7.8977164    559.40156   0.02007614   0.01993572            3 
 2323000   0.87810966   -7.9481076    559.62354  0.020075461  0.019929729            2 
 2324000   0.87078947   -7.9753496    558.87686  0.020040048   0.01992373            2 
 2325000   0.86055758   -7.9076246    559.99696  0.020071576  0.019917734            3 
 2326000   0.89123266   -7.9727878    559.57191  0.020047718  0.019911686            3 
 2327000   0.88684115   -7.9346384    560.41119  0.020069159  0.019905686            2 
 2328000   0.89116047   -7.9158454    561.41266  0.020096387   0.01989966            6 
 2329000   0.88457004     -7.91458     559.7189  0.020027154  0.019893688            2 
 2330000   0.89159327   -7.9200799    561.05064  0.020066189  0.019887699            4 
 2331000   0.87759211   -7.9518697    559.36957  0.019997482  0.019881694            3 
 2332000   0.86258256   -7.9446076    559.54304  0.019995106  0.019875679            2 
 2333000    0.8958932    -7.926499    561.65595  0.020062007  0.019869652            2 
 2334000   0.87601458   -7.9366098    560.27285  0.020004029  0.019863664            4 
 2335000   0.89367411    -7.921878    560.61885  0.020007811  0.019857655            3 
 2336000   0.85193657   -7.9410606    560.33937  0.019989276  0.019851622            2 
 2337000   0.88522056   -7.9059589    561.49132  0.020021798  0.019845633            2 
 2338000   0.86484759   -7.9281923    560.66471  0.019983772  0.019839661            2 
 2339000   0.86335316    -7.927444    561.43763  0.020002766  0.019833657            2 
 2340000   0.89589282   -7.9399943    561.17753  0.019984955    0.0198276            2 
 2341000   0.86755016   -7.9207299    560.90986  0.019966889    0.0198215            2 
 2342000   0.86616549   -7.9528558    560.31291  0.019937123  0.019815433            1 
 2343000   0.87755968   -7.9510535    560.45869  0.019933799  0.019809342            3 
 2344000   0.85028056   -7.9398837    560.84382  0.019938987  0.019803228            2 
 2345000   0.87281832    -7.927825    561.36157  0.019948883  0.019797144            2 
 2346000   0.87435143   -7.9405609    561.22141  0.019935401  0.019791083            1 
 2347000   0.86375943   -7.9328135    561.46841  0.019935677   0.01978503            4 
 2348000   0.86169514   -7.9293295    561.74159  0.019936882  0.019779017            2 
 2349000   0.86443765   -7.9267114    561.71163  0.019927332  0.019772978            3 
 2350000   0.86230734   -7.8999642    562.08894  0.019932232  0.019766914            1 
 2351000   0.88615314   -7.9211402    560.34681  0.019862002  0.019760824            2 
 2352000   0.87208004   -7.9322976     561.2162  0.019884361  0.019754763            2 
 2353000   0.90355758   -7.9557753    560.34157  0.019844934  0.019748693            4 
 2354000   0.88346273   -7.9558039    561.12188  0.019864128  0.019742602            6 
 2355000   0.85426249    -7.949851    561.85559  0.019881656  0.019736576            1 
 2356000   0.86571456   -7.9453419    562.23921  0.019886786  0.019730535            2 
 2357000   0.87559189   -7.9829869    561.17762  0.019840815  0.019724442            2 
 2358000   0.86328715   -7.9593166    562.06392  0.019863723  0.019718322            2 
 2359000   0.84687242   -7.9442733     561.5639   0.01983764  0.019712277            2 
 2360000   0.86871338    -7.951996    561.12329  0.019813676  0.019706178            6 
 2361000   0.86781825   -7.9653287    562.68864  0.019860534  0.019700105            2 
 2362000   0.87808225   -7.9437507    562.56319  0.019847699  0.019694057            1 
 2363000   0.87491493   -7.9521621    562.15469  0.019824894  0.019687977            3 
 2364000   0.85420433   -7.9357958    561.42741   0.01979087  0.019681893            2 
 2365000   0.87178828   -7.9646794     562.0322  0.019803813  0.019675823            2 
 2366000   0.87733386   -7.9619236    561.86493  0.019789551   0.01966973            7 
 2367000   0.87112055   -7.9399575    560.85888  0.019745771   0.01966362            1 
 2368000    0.8456444   -7.9959319    560.64399   0.01972987  0.019657454            2 
 2369000   0.89759525   -7.9503364    561.13596  0.019738848  0.019651305            2 
 2370000   0.86287286   -7.9589422    559.60594  0.019676721  0.019645113            4 
 2371000   0.86757394   -7.9665028    560.96992  0.019716361  0.019638907            2 
 2372000   0.86401739   -7.9942464    560.96474  0.019707867  0.019632667            1 
 2373000   0.87752766   -7.9688966     560.0063  0.019665904  0.019626459            5 
 2374000   0.86805428   -7.9762258    561.06597  0.019694818  0.019620209            1 
 2375000    0.8583127   -7.9894448    561.13265  0.019688865  0.019613976            6 
 2376000   0.88648159   -7.9842932    560.77208  0.019667932  0.019607783            1 
 2377000   0.87266285   -8.0049828    560.78961  0.019660272  0.019601619            2 
 2378000   0.85462779   -7.9509343    561.31396   0.01967038  0.019595449            2 
 2379000   0.86416185   -7.9522036    561.83334  0.019680305  0.019589326            2 
 2380000    0.8750406   -7.9798258    562.53753  0.019696692  0.019583219            1 
 2381000    0.8805121   -7.9846623    562.15215  0.019674932  0.019577075            1 
 2382000   0.87107521   -7.9375236    562.80456  0.019689496  0.019570951            3 
 2383000   0.86702517   -7.9509765     562.3739  0.019666173  0.019564848            6 
 2384000   0.85625381   -7.9622153     562.6217  0.019666586  0.019558718            2 
 2385000    0.8688574   -7.9568087    562.02082  0.019637345  0.019552598            3 
 2386000   0.87174855    -7.928689    562.48769  0.019645421  0.019546439            1 
 2387000    0.8642979   -7.9374809    562.07348   0.01962273  0.019540288            2 
 2388000   0.87462955   -7.9633404    562.66377  0.019635112  0.019534115            3 
 2389000   0.85937935   -7.9436763    561.90564  0.019600448  0.019527898            2 
 2390000   0.85854106   -7.9547743    562.23724  0.019603809  0.019521672            7 
 2391000   0.87427733   -8.0106382    562.55337  0.019606628  0.019515363            2 
 2392000   0.85110857   -8.0211365    560.05481  0.019511385  0.019509064            2 
 2393000   0.87415975   -7.9893684    560.85935  0.019531249   0.01950274            1 
 2394000   0.85553663   -7.9675327    561.28864  0.019538034  0.019496477            3 
 2395000   0.88181324   -7.9555085     561.3129   0.01953072  0.019490215            4 
 2396000   0.84894324    -7.956158    560.91823  0.019508842  0.019483962            2 
 2397000   0.88388746   -8.0020743    561.34764  0.019515632  0.019477713            2 
 2398000   0.87345165   -7.9561478    562.27984  0.019539889  0.019471428            3 
 2399000   0.88111084   -7.9356463    562.66363  0.019545075  0.019465182            1 
 2400000   0.85367887   -7.9831923    561.78818  0.019506534  0.019458923            3 
 2401000   0.87312608   -7.9830149    560.91249  0.019468016  0.019452631            2 
 2402000   0.86810251   -8.0104345    561.01999  0.019463641  0.019446354            2 
 2403000   0.85351235   -7.9546231    561.93062  0.019487121  0.019440127            4 
 2404000   0.84253748    -7.973337      561.681  0.019470362   0.01943385            2 
 2405000    0.8634882   -7.9983391    563.00026  0.019507978  0.019427611            2 
 2406000   0.86144487   -8.0067694    562.18928  0.019471782  0.019421369            3 
 2407000   0.86243512    -7.996085    562.56707  0.019476772  0.019415145            2 
 2408000   0.85656074   -7.9355751    563.84223  0.019512813  0.019408949            2 
 2409000    0.8487536   -7.9974873    563.07948  0.019478327  0.019402766            2 
 2410000   0.85398581    -7.981274    563.86992  0.019497577  0.019396546            2 
 2411000   0.87240082   -8.0005737    562.28635  0.019434756  0.019390346            1 
 2412000   0.87104295    -7.959795     563.1911  0.019457957  0.019384125            3 
 2413000   0.88014835   -7.9544904    564.77562  0.019504615  0.019377935            2 
 2414000   0.85740472   -7.9479886    563.08026  0.019438009  0.019371774            3 
 2415000   0.85994707   -7.9556448    563.86795  0.019457141  0.019365601            1 
 2416000   0.86237638   -7.9831484    562.85768  0.019414241  0.019359393            3 
 2417000   0.85084712   -8.0052533    561.93349  0.019374344  0.019353172            2 
 2418000   0.86835382   -8.0097746    564.34085  0.019449299  0.019346901            3 
 2419000   0.88121406   -7.9865961    563.55241  0.019414097  0.019340675            2 
 2420000   0.86838941   -7.9680351    563.23033  0.019394984  0.019334474            2 
 2421000   0.84713862   -7.9960423    563.09965  0.019382475  0.019328247            2 
 2422000   0.86808222     -7.97426    563.92648   0.01940292  0.019322037            2 
 2423000   0.86385108   -8.0022674    563.02594  0.019363941  0.019315818            1 
 2424000   0.85570222   -7.9396192    564.97236  0.019422867  0.019309658            2 
 2425000   0.86058172     -7.95881    565.56207  0.019435123  0.019303546            2 
 2426000   0.84637128   -7.9648161    565.37517  0.019420692  0.019297441            3 
 2427000   0.86734728   -7.9965653     564.3704   0.01937819  0.019291285            1 
 2428000    0.8557202   -8.0028354    565.44249  0.019407005  0.019285139            3 
 2429000   0.85625294   -7.9797386    564.71742  0.019374139  0.019278989            4 
 2430000   0.86581793   -7.9715463    563.99959   0.01934155  0.019272856            3 
 2431000   0.86635183   -7.9924584    565.91097  0.019399115  0.019266751            2 
 2432000   0.87196065   -7.9935393    564.41316  0.019339815  0.019260618            3 
 2433000   0.86785254    -7.999424    564.37129  0.019330432  0.019254439            2 
 2434000   0.86560345   -7.9720455    566.17907  0.019384383  0.019248349            2 
 2435000   0.87011609   -7.9791325    566.77085  0.019396675  0.019242251            3 
 2436000   0.85285167   -7.9686868     564.7719   0.01932033  0.019236192            3 
 2437000   0.85585211   -7.9656521     566.0043  0.019354544  0.019230111            3 
 2438000   0.86902316   -7.9862845    566.33087  0.019357768  0.019224064            2 
 2439000   0.88408675   -7.9558799    566.37484  0.019351334  0.019218047            2 
 2440000   0.86908767   -7.9558338    567.19753    0.0193715  0.019212029            2 
 2441000   0.88554582   -7.9639415    566.20859  0.019329803  0.019206013            1 
 2442000   0.85297655   -7.9611233    566.27039  0.019323997  0.019199947            3 
 2443000   0.87718405   -7.9896125    566.31879  0.019317738  0.019193865            2 
 2444000   0.85069928   -7.9996589    565.83613  0.019293376  0.019187771            5 
 2445000    0.8495567    -7.977632    566.30638  0.019301513  0.019181671            2 
 2446000   0.84615254   -7.9855125    566.63789  0.019304916   0.01917559            4 
 2447000   0.87200188   -7.9751881    566.83598  0.019303773  0.019169537            2 
 2448000   0.84367769   -8.0163911    566.44232  0.019282486  0.019163495            2 
 2449000   0.86275378   -7.9797779    567.51811  0.019311219  0.019157428            1 
 2450000   0.87528593   -8.0065063    566.44096  0.019266699  0.019151371            3 
 2451000    0.8551077    -7.991591    568.10729  0.019315493  0.019145322            2 
 2452000   0.85795415   -7.9937015    568.20076  0.019310792  0.019139257            2 
 2453000   0.85414551   -7.9975716    568.19924  0.019302869  0.019133222            4 
 2454000   0.87507811   -7.9988862     569.0094  0.019322514  0.019127189            3 
 2455000   0.84732821   -7.9775012    566.68584  0.019235772  0.019121117            1 
 2456000   0.86013774   -8.0188108    566.81742  0.019232404  0.019115036            2 
 2457000   0.87055314   -7.9912976    567.33518  0.019242137  0.019108965            5 
 2458000   0.87842303   -7.9999034    567.24798  0.019231353  0.019102888            2 
 2459000   0.85502976   -7.9861173    567.03807  0.019216418  0.019096819            2 
 2460000   0.84920367   -7.9818674    567.44051  0.019222239  0.019090737            2 
 2461000   0.87316726   -8.0028519    566.90828  0.019196407  0.019084647            3 
 2462000   0.82551501   -7.9926164    567.22144  0.019199209  0.019078555            2 
 2463000   0.85310989    -7.976779    568.53366  0.019235812  0.019072491            1 
 2464000   0.85244422   -8.0010409    568.81179  0.019237412  0.019066447            4 
 2465000   0.87765146   -8.0211706     567.5706  0.019187647  0.019060402            2 
 2466000   0.84280995   -7.9981967     569.2275  0.019235858  0.019054323            2 
 2467000   0.88328418    -8.004725    568.13346  0.019191105  0.019048302            3 
 2468000   0.84221538   -7.9833669    568.20535  0.019185756  0.019042281            3 
 2469000   0.85808563    -7.994448    568.81387  0.019198524  0.019036263            2 
 2470000   0.84856042   -8.0037455    568.34677  0.019174992   0.01903023            6 
 2471000   0.85563544   -8.0265436    567.63675  0.019143287  0.019024196            2 
 2472000   0.83943119    -8.007856    567.64049  0.019135669  0.019018127            3 
 2473000   0.86396555   -8.0323004    567.47915  0.019122494  0.019012062            2 
 2474000   0.85208737   -7.9783175    568.60009  0.019152523  0.019006001            2 
 2475000   0.83986582   -7.9931292    567.16208  0.019096366  0.018999941            1 
 2476000   0.87931259   -8.0007196    569.24845  0.019158874  0.018993916            2 
 2477000   0.87304533   -7.9863035    567.52825  0.019093267  0.018987901            2 
 2478000   0.86025216   -7.9941511    569.30433  0.019145289  0.018981887            3 
 2479000   0.86331681   -7.9847517    567.88794  0.019089954  0.018975857            1 
 2480000    0.8602439   -8.0193006    567.36896  0.019064817  0.018969858            2 
 2481000   0.84117479   -8.0252084    567.41813  0.019058784  0.018963783            2 
 2482000   0.86624913   -8.0299758     567.4089  0.019050796  0.018957687            3 
 2483000   0.85466554   -7.9989498    569.71823  0.019120628  0.018951605            2 
 2484000    0.8476883   -8.0094337    568.22047  0.019062683  0.018945507            3 
 2485000   0.85243451    -8.012681    569.41492  0.019095068  0.018939413            1 
 2486000   0.85663065   -8.0372522    569.01552  0.019073998  0.018933281            2 
 2487000   0.86099501   -8.0226768    567.98531  0.019031809  0.018927153            4 
 2488000   0.87653766   -8.0336434    567.65982  0.019013258  0.018921035            2 
 2489000   0.86646589   -8.0508692    568.66323  0.019039214  0.018914932            2 
 2490000   0.85819728   -8.0111789     567.9657  0.019008223  0.018908829            2 
 2491000   0.84389391   -8.0015958    569.31896  0.019045864  0.018902735            2 
 2492000   0.87170038   -8.0306333    567.80562  0.018987614  0.018896603            1 
 2493000   0.86304043   -8.0117674    568.02767   0.01898742  0.018890488            3 
 2494000   0.86119274   -7.9982026    568.49491  0.018995419  0.018884395            1 
 2495000   0.85292562   -8.0088807    569.28198  0.019014094  0.018878347            2 
 2496000   0.84002243   -8.0136015    568.64631  0.018985253  0.018872283            2 
 2497000   0.85578299   -7.9887957    569.88609  0.019019026  0.018866249            3 
 2498000   0.87484419   -7.9753993    570.60294  0.019035326  0.018860221            2 
 2499000   0.85667063   -7.9980857    570.42369  0.019021732  0.018854225            3 
 2500000   0.84432489   -7.9832738    570.72197  0.019024066  0.018848265            5 
 2501000   0.84956214   -7.9895575    570.32981  0.019003392  0.018842322            1 
 2502000   0.84829858   -8.0079947    569.91119  0.018981854  0.018836335            2 
 2503000   0.85154025   -7.9876192    569.83825  0.018971842  0.018830349            4 
 2504000    0.8566883   -8.0070353    568.21463  0.018910231  0.018824325            1 
 2505000    0.8360878   -7.9985009    570.79295  0.018988455  0.018818305            5 
 2506000   0.85078564    -8.009436    569.60485  0.018941369  0.018812326            1 
 2507000   0.85774012   -8.0287868    569.85748  0.018942211  0.018806298            2 
 2508000   0.84366461   -7.9999804    570.43756  0.018953933   0.01880026            4 
 2509000   0.85538388   -7.9917763    570.24185  0.018939878  0.018794214            1 
 2510000   0.82747379   -7.9948454    569.84557  0.018919176   0.01878815            2 
 2511000   0.86433971   -8.0490756    569.64558  0.018905004  0.018782092            2 
 2512000   0.86158783   -8.0215206     571.0053  0.018942586  0.018776027            2 
 2513000    0.8626563   -8.0252609    570.34849  0.018913267   0.01876995            3 
 2514000    0.8425209    -8.053115    568.41919  0.018841792  0.018763846            3 
 2515000   0.85682291   -8.0376563    568.86052  0.018848924  0.018757754            3 
 2516000   0.83707321   -8.0133452    569.57358   0.01886505  0.018751704            1 
 2517000   0.84921761   -8.0030828    571.17049  0.018910425  0.018745682            2 
 2518000    0.8356751   -8.0072176    571.14579  0.018902098  0.018739642            2 
 2519000   0.87432752   -8.0014606    570.52388   0.01887402  0.018733647            2 
 2520000   0.84840987   -8.0219848    570.79005  0.018875332  0.018727651            1 
 2521000   0.85235738   -7.9879332    571.48257  0.018890737   0.01872167            1 
 2522000   0.84953476   -8.0208423    570.77886  0.018859994  0.018715657            1 
 2523000   0.85172261   -8.0048648    571.51147  0.018876717  0.018709642            1 
 2524000   0.85149217   -8.0230664    570.31072  0.018829593  0.018703622            2 
 2525000      0.82885   -8.0318292    570.64493  0.018833166  0.018697573            1 
 2526000   0.86008604   -8.0413046     570.1266  0.018808611   0.01869149            4 
 2527000    0.8612441   -8.0313863     568.8396  0.018758726  0.018685386            2 
 2528000   0.85680104   -8.0560876     569.1093  0.018760196  0.018679268            1 
 2529000   0.82742826   -8.0467651    569.89523  0.018778675  0.018673167            2 
 2530000   0.84130926    -8.061674    569.36313  0.018753726  0.018667054            2 
 2531000   0.84191958   -8.0052813    572.56558  0.018851758  0.018660986            3 
 2532000   0.86428419    -8.022514      571.034  0.018793905  0.018654934            1 
 2533000   0.84670249    -8.025593    571.33017  0.018796229  0.018648882            2 
 2534000   0.85197463   -8.0652831    570.39266   0.01875798  0.018642823            3 
 2535000   0.84088274   -8.0488376    569.11183  0.018708476  0.018636696            2 
 2536000    0.8443746   -8.0497998    570.25134  0.018738543  0.018630618            3 
 2537000   0.84515532   -8.0491038    570.93451  0.018753597  0.018624565            4 
 2538000   0.82329864   -8.0073666    570.20895  0.018722385  0.018618517            9 
 2539000   0.84079371    -8.063465    570.31781  0.018718584  0.018612478            1 
 2540000   0.84398554   -8.0258392    571.99912  0.018766375  0.018606405            1 
 2541000    0.8448746   -8.0442863    569.24372  0.018668625  0.018600384            1 
 2542000    0.8484565   -8.0585379    570.28984  0.018695576  0.018594316            1 
 2543000   0.85476435   -8.0747673     569.8803  0.018674803  0.018588247            5 
 2544000   0.85339375   -8.0474877    570.85534  0.018699402   0.01858217            4 
 2545000   0.87157633   -7.9935253    571.62892  0.018717385   0.01857612            3 
 2546000   0.83450418   -8.0498072    570.70668  0.018679847  0.018570092            2 
 2547000   0.85130125   -8.0726242    571.49702  0.018698371  0.018564042            3 
 2548000   0.86500511   -8.0712847    571.56304  0.018693192  0.018558001            2 
 2549000   0.87842728   -8.0405341    570.90437  0.018664325  0.018551956            3 
 2550000   0.83476319   -8.0613041    572.81723  0.018719517  0.018545935            2 
 2551000   0.83926546   -8.0648233    571.55583  0.018670973  0.018539918            3 
 2552000   0.84990349   -8.0353839    572.28932  0.018687608  0.018533922            1 
 2553000   0.83553907    -8.049935    572.49552  0.018687019  0.018527922            3 
 2554000   0.85215713   -8.0400262    571.89739  0.018660186  0.018521968            3 
 2555000    0.8460698   -8.0197822     571.8383  0.018650956  0.018515971            4 
 2556000   0.83868244    -8.047075    572.60207   0.01866856  0.018509951            5 
 2557000   0.85414294    -8.029994    573.05952  0.018676167  0.018503975            1 
 2558000   0.84690392   -8.0487124    570.71765  0.018592574  0.018498015            2 
 2559000   0.86233206   -8.0249112    573.56881  0.018678156  0.018492029            4 
 2560000   0.83262523   -8.0562153    573.84203  0.018679753  0.018486059            5 
 2561000   0.84254229   -8.0389897    572.11069  0.018616123  0.018480042            1 
 2562000   0.84648312    -8.027681    573.93693  0.018668258  0.018474083            1 
 2563000   0.82837652   -8.0554995    573.46744  0.018645709  0.018468132            1 
 2564000   0.84796937   -8.0299935    573.49013  0.018639175   0.01846216            2 
 2565000   0.84185039   -8.0407661    573.70422  0.018638864    0.0184562            2 
 2566000   0.83048223   -8.0707936    572.55628  0.018594319  0.018450238            2 
 2567000    0.8360931   -8.0519301    572.27015  0.018577787  0.018444276            3 
 2568000   0.84940859   -8.0527199    574.50595  0.018643106  0.018438377            3 
 2569000   0.82664642   -8.0451534    573.70637  0.018609912    0.0184325            2 
 2570000   0.85201825   -8.0607056    574.29671  0.018621813  0.018426605            3 
 2571000   0.84387375   -8.0144285    574.06057  0.018606916  0.018420706            4 
 2572000   0.85346255   -8.0217862    574.33452  0.018608558  0.018414814            2 
 2573000   0.82783928   -8.0503938    573.88227  0.018586678  0.018408916            2 
 2574000   0.83129459   -8.0381425     573.6505  0.018571953  0.018403002            2 
 2575000   0.84278434   -8.0209105    575.29068  0.018617821  0.018397109            1 
 2576000   0.83476577   -8.0500252    575.50234  0.018617441  0.018391223            4 
 2577000   0.81833384    -8.024256    574.24897  0.018569686  0.018385318            3 
 2578000   0.83782461   -8.0128183     575.6117  0.018606533  0.018379406            1 
 2579000   0.83126016   -8.0740476    574.47952  0.018562735  0.018373496            2 
 2580000   0.83762502   -8.0409666    573.60868  0.018527412  0.018367576            2 
 2581000   0.83323031   -8.0463595    575.81536  0.018591481   0.01836165            2 
 2582000   0.84266259   -8.0515508    574.87993   0.01855409  0.018355707            2 
 2583000   0.83576488   -8.0475036    574.72544  0.018541923  0.018349771            8 
 2584000   0.84654227   -8.0262353     574.6051  0.018530866  0.018343853            2 
 2585000   0.83101094   -8.0456396    573.63319  0.018492366  0.018337942            2 
 2586000   0.83903267   -8.0270958    575.32712  0.018539801  0.018332063            6 
 2587000   0.83885342   -8.0459028    573.81368  0.018483884  0.018326149            1 
 2588000   0.84322346   -8.0498602    575.48337  0.018530505   0.01832026            2 
 2589000   0.82865048   -8.0339836    573.33923  0.018454333  0.018314346            1 
 2590000   0.83250239   -8.0404649    575.46999  0.018515765  0.018308408            1 
 2591000   0.83201636   -8.0715106    573.84687  0.018456415   0.01830247            4 
 2592000    0.8380263   -8.0273196    575.29731  0.018495927  0.018296572            1 
 2593000   0.81809838    -8.022255    575.17897  0.018484991  0.018290655            2 
 2594000    0.8598085   -8.0499524    573.92489  0.018437577  0.018284736            2 
 2595000   0.82766697   -8.0316337     574.5397  0.018450215  0.018278838            2 
 2596000   0.81926855   -8.0367356     575.8295  0.018484511  0.018272901            3 
 2597000   0.85524429   -8.0434028     575.1689  0.018456196  0.018266946            1 
 2598000   0.83908146   -8.0488822    575.00504  0.018443836  0.018261002            2 
 2599000   0.84745163   -8.0568695    575.18272  0.018442437  0.018255055            2 
 2600000   0.82912831   -8.0836577    574.15296  0.018402338  0.018249071            2 
 2601000   0.83247144   -8.0668716    573.56943  0.018376568  0.018243105            4 
 2602000   0.82466383    -8.043804    573.60393   0.01837061  0.018237179            2 
 2603000    0.8557409   -8.0399664    574.67563  0.018397862  0.018231257            4 
 2604000   0.84391066   -8.0526395    575.71353  0.018424012  0.018225363            5 
 2605000   0.82031336   -8.0643463    575.51029  0.018410438  0.018219464            2 
 2606000   0.83713443   -8.0680838    576.10774  0.018422478  0.018213549            1 
 2607000   0.82002048   -8.0248639    576.19912  0.018418333  0.018207647            1 
 2608000   0.82447084   -8.0659392    575.56784  0.018391099  0.018201737            3 
 2609000   0.82367526   -8.0411365    575.77626  0.018390707  0.018195816            2 
 2610000   0.82792446    -8.042495    574.84182  0.018353826  0.018189898            1 
 2611000   0.83876337   -8.0343371    575.64466   0.01837242  0.018183988            2 
 2612000   0.83950741   -8.0291794    576.70306  0.018399153  0.018178097            1 
 2613000   0.83862407   -8.0541609    575.27414  0.018346541  0.018172202            3 
 2614000   0.81381293   -8.0714251     576.2269  0.018369896  0.018166301            3 
 2615000   0.84514857   -8.0606376    575.81104  0.018349619  0.018160402            1 
 2616000   0.80838413   -8.0827657    575.95602  0.018347223  0.018154549            2 
 2617000   0.81055141   -8.0481156     577.6779  0.018395042  0.018148665            2 
 2618000   0.84842683   -8.0587485    576.73068  0.018357865  0.018142771            1 
 2619000   0.82968398   -8.0637998    575.59253  0.018314641  0.018136909            1 
 2620000   0.83074175   -8.0809683    575.81966  0.018314875  0.018131031            5 
 2621000   0.83548629   -8.0421798    577.28506  0.018354478   0.01812518            1 
 2622000   0.84361062   -8.0402319    576.55158  0.018324167  0.018119351            1 
 2623000   0.82982908   -8.0340333     577.5772  0.018349765  0.018113526            3 
 2624000   0.85087876   -8.0574708    576.81917  0.018318698  0.018107715            3 
 2625000   0.81802378   -8.0205898     578.1067  0.018352594  0.018101945            1 
 2626000   0.82857871   -8.0626305    576.60151  0.018297839  0.018096151            2 
 2627000   0.81917351   -8.0556448     577.8002  0.018328899  0.018090328            3 
 2628000   0.80871357   -8.0736313    576.86122  0.018292149   0.01808449            2 
 2629000   0.82791712    -8.030924    577.93529  0.018319237  0.018078674            2 
 2630000    0.8407805   -8.0734409    577.91195  0.018311532  0.018072857            3 
 2631000   0.83565137   -8.0606004    577.02785  0.018276569  0.018067015            2 
 2632000   0.81906999   -8.0570573    578.58852  0.018319039  0.018061236            2 
 2633000   0.82067779   -8.0691781    577.60172  0.018280849   0.01805545            2 
 2634000   0.82033888   -8.0627685     577.8921  0.018283096  0.018049647            2 
 2635000   0.83245643    -8.035018    577.26469  0.018256315  0.018043825            4 
 2636000   0.83613248   -8.0872793    577.72419  0.018263916  0.018038006            4 
 2637000   0.83640312   -8.0372235    576.84296  0.018229142    0.0180322            3 
 2638000   0.82243269   -8.0639523    578.64879  0.018279277  0.018026417            1 
 2639000   0.80310267   -8.0574637    578.76897  0.018276145  0.018020669            1 
 2640000   0.82455877   -8.0448148    578.19634  0.018251147  0.018014867            1 
 2641000   0.83849254   -8.1066824     576.8209  0.018200836  0.018009072            3 
 2642000   0.81436233    -8.098782    576.62674  0.018187823  0.018003247            5 
 2643000   0.83661354   -8.0654078    578.86794  0.018251606  0.017997421            2 
 2644000   0.82172725   -8.0787702    578.27591  0.018226044  0.017991601            2 
 2645000   0.84387467   -8.0540984    578.91811  0.018239386  0.017985812            1 
 2646000   0.82419004   -8.0622133    578.67008  0.018224681  0.017980061            2 
 2647000   0.83679939   -8.1062358    578.22465  0.018203773  0.017974315            6 
 2648000   0.81194174   -8.0779082    578.95169  0.018219779  0.017968546            3 
 2649000   0.84153962   -8.0537774    578.71537  0.018205467  0.017962778            2 
 2650000   0.82561513   -8.0994073    577.63851  0.018164733  0.017957016            1 
 2651000   0.83819043   -8.0956201    577.97316    0.0181684  0.017951236            2 
 2652000   0.83307565   -8.0995305    578.79917  0.018187505  0.017945481            2 
 2653000   0.81136134   -8.1138563    579.50789  0.018202911  0.017939708            1 
 2654000    0.8262652    -8.087555    577.51516  0.018133483  0.017933906            2 
 2655000   0.81043508    -8.108289      579.042  0.018174576   0.01792808            1 
 2656000   0.81163683   -8.1257376    578.93365  0.018164334  0.017922267            2 
 2657000   0.84797678   -8.0878004     579.8312  0.018185648  0.017916466            2 
 2658000   0.82270641   -8.0900818    579.59616  0.018171437   0.01791068            2 
 2659000   0.81251373   -8.0933181    579.68117  0.018167267  0.017904911            2 
 2660000   0.80508528   -8.0817165    580.11229  0.018173944  0.017899144            6 
 2661000   0.84385106   -8.0815555    580.29337  0.018172785  0.017893385            6 
 2662000   0.83019949   -8.1210706    578.96465  0.018124363  0.017887632            2 
 2663000   0.82589223   -8.0993261    577.48344  0.018071205  0.017881845            3 
 2664000   0.82533401   -8.0964344    580.20292  0.018149491  0.017876048            1 
 2665000   0.83129517   -8.1106081    576.70858  0.018033414   0.01787025            1 
 2666000   0.82816108   -8.1375505    579.33646  0.018108791  0.017864441            1 
 2667000   0.81244322   -8.0924582    579.94123  0.018120898  0.017858623            1 
 2668000   0.81794376   -8.0944799    579.36557  0.018096126  0.017852784            1 
 2669000   0.81323906   -8.1628129    577.70939  0.018037635  0.017846917            7 
 2670000   0.82856708   -8.1082091    578.83391  0.018065977  0.017841109            2 
 2671000   0.81206249   -8.1104199    579.73117  0.018087207  0.017835319            2 
 2672000   0.82989797   -8.1248505    579.02803  0.018058509  0.017829559            2 
 2673000   0.82237243    -8.118547    577.82775  0.018014333  0.017823777            3 
 2674000   0.79769314   -8.0977042    578.80566  0.018038072  0.017817961            2 
 2675000   0.80411913   -8.1106496    579.30484   0.01804688  0.017812147            2 
 2676000   0.82398438   -8.1057024    579.92543  0.018059462  0.017806331            2 
 2677000   0.81527578    -8.090635     579.7006  0.018045717   0.01780053            2 
 2678000   0.84500274   -8.0783718    577.54388  0.017971866  0.017794725            2 
 2679000   0.83184356    -8.067471    579.78825  0.018034971  0.017788934            2 
 2680000   0.82659655    -8.105827    579.96854  0.018033848  0.017783155            1 
 2681000   0.82255993   -8.0847749    581.42543  0.018072405  0.017777383            2 
 2682000   0.82377986    -8.112215    580.21071  0.018027924  0.017771608            2 
 2683000   0.83545437   -8.1107864    579.86251   0.01801039  0.017765856            1 
 2684000   0.82975168   -8.1232032    578.21872  0.017952643  0.017760098            3 
 2685000   0.83183278   -8.0962618    579.81275   0.01799543  0.017754351            4 
 2686000   0.82003629   -8.0761114    580.98197  0.018025005  0.017748634            2 
 2687000   0.82666198   -8.1032632    580.95764  0.018017543  0.017742947            1 
 2688000   0.81812291   -8.0899369    579.88121  0.017977468  0.017737247            2 
 2689000   0.80431999   -8.0914691    580.61607  0.017993556   0.01773151            3 
 2690000   0.81229582   -8.1108899    580.53214  0.017984267  0.017725796            2 
 2691000   0.80725053   -8.0975622     581.5279   0.01800842  0.017720058            1 
 2692000    0.8190506   -8.0490445    580.49403  0.017969726  0.017714326            2 
 2693000   0.82453181   -8.0767795    580.66342  0.017968295  0.017708626            1 
 2694000   0.80868514   -8.0881881    579.67514  0.017931055  0.017702908            2 
 2695000   0.82383323   -8.0872549    580.67626  0.017955358  0.017697199            2 
 2696000   0.82636004   -8.1008559    579.90658  0.017924907  0.017691465            1 
 2697000   0.83041017   -8.0679046     581.5348   0.01796857  0.017685751            1 
 2698000   0.80578065   -8.0865738    581.11359    0.0179489  0.017680048            1 
 2699000    0.8135484   -8.0916852    582.76013  0.017993088  0.017674362            5 
 2700000   0.81990493   -8.0668241    582.52595  0.017979196  0.017668673            2 
 2701000   0.81645579   -8.1171834    580.86394  0.017921262  0.017662968            2 
 2702000   0.81991345   -8.0898827    581.96087   0.01794846  0.017657289            4 
 2703000   0.82373933   -8.1177092    580.96491  0.017911114   0.01765158            3 
 2704000   0.82174473   -8.0900452    581.50135  0.017921023   0.01764587            2 
 2705000   0.82323817   -8.0991787    582.35026   0.01794055  0.017640163            1 
 2706000   0.81379669   -8.0773167    582.46494  0.017937452  0.017634465            2 
 2707000    0.8464749   -8.1063838    580.50156  0.017870384  0.017628772            2 
 2708000   0.81752875   -8.0774974    581.06538  0.017881135  0.017623108            2 
 2709000   0.80960198   -8.1102242    581.42784  0.017885685  0.017617446            3 
 2710000   0.82141984   -8.0994011     582.6736  0.017917392  0.017611763            2 
 2711000   0.82048611   -8.0925717    581.70208   0.01788092  0.017606077            4 
 2712000   0.81859864   -8.1199917    580.52035  0.017838015  0.017600368            5 
 2713000   0.81656253     -8.08709    583.04308  0.017908929  0.017594654            2 
 2714000   0.82155642   -8.1255296    581.75773  0.017862863  0.017588964            2 
 2715000   0.80482505   -8.1012619    581.69028  0.017854214  0.017583289            5 
 2716000   0.81938503   -8.0950897    582.56272  0.017874409  0.017577591            2 
 2717000    0.8030281   -8.1027439    582.09416  0.017853458  0.017571911            3 
 2718000   0.82562935    -8.099077    582.47362  0.017858524   0.01756621            2 
 2719000   0.80889316   -8.1301592     581.7136  0.017828662  0.017560508            2 
 2720000   0.80464895   -8.0872005      582.594  0.017849081   0.01755481            2 
 2721000   0.81492844   -8.1010638    582.44053  0.017837821  0.017549132            1 
 2722000   0.79220699   -8.1020456    582.99106  0.017848122   0.01754347            2 
 2723000    0.8170832   -8.1057528    582.54531  0.017827926  0.017537793            4 
 2724000   0.80705995   -8.1235315    582.22102   0.01781146  0.017532133            2 
 2725000   0.81237009   -8.0931291    583.93042  0.017857199  0.017526466            3 
 2726000   0.79762187   -8.1093828     582.2069  0.017797961  0.017520778            1 
 2727000   0.81196602   -8.1153971    582.29093  0.017794002  0.017515089            2 
 2728000   0.81721175   -8.0806832    582.77336  0.017802216  0.017509447            2 
 2729000   0.82543558   -8.1017941    581.48841  0.017756456   0.01750379            4 
 2730000   0.80601088   -8.0893584    582.71493  0.017787391  0.017498146            2 
 2731000   0.81136632   -8.1041268     583.5926  0.017807659  0.017492524            2 
 2732000   0.81835054   -8.1316658    582.21217  0.017759034  0.017486878            1 
 2733000   0.80104052   -8.0905629    582.45386  0.017759905  0.017481215            1 
 2734000    0.8405843   -8.1149332    582.04321  0.017740893  0.017475554            4 
 2735000    0.8297263   -8.0850256    581.98568  0.017732653  0.017469898            2 
 2736000   0.81437448   -8.1102807    583.11888  0.017760687  0.017464255            2 
 2737000   0.81636714    -8.136049    582.46007  0.017734139  0.017458604            1 
 2738000   0.82571389   -8.1062906      583.642  0.017763635  0.017452925            1 
 2739000   0.80513607   -8.1225928    582.03528  0.017708266  0.017447219            4 
 2740000    0.8147617   -8.1024555    582.62358  0.017719695  0.017441548            2 
 2741000   0.82618619   -8.1311359     583.2868  0.017733394  0.017435865            3 
 2742000   0.79433454   -8.1473368    582.88862  0.017714826  0.017430166            1 
 2743000   0.81163407   -8.1448765    582.86765   0.01770773   0.01742448            5 
 2744000   0.81536921   -8.1166281    581.77576  0.017668117  0.017418807            1 
 2745000    0.8265516   -8.1484112    583.81572   0.01772361  0.017413125            1 
 2746000   0.80676884   -8.1418603    582.19086  0.017667846  0.017407385            3 
 2747000   0.80129148   -8.1419182    582.89309  0.017682717  0.017401662            3 
 2748000   0.80920412   -8.1453839    583.60373  0.017697833   0.01739596            4 
 2749000   0.81725255   -8.1156382      581.783  0.017636201  0.017390273            1 
 2750000   0.83135549   -8.1455902    583.58333  0.017684343  0.017384578            2 
 2751000   0.79563236   -8.1132236     583.2712   0.01766846  0.017378897            2 
 2752000   0.81299927   -8.1591953    582.42312  0.017636359  0.017373196            3 
 2753000   0.82369707   -8.1396099     582.2218  0.017623859  0.017367513            2 
 2754000    0.8231148   -8.1492254    581.82724   0.01760552  0.017361813            1 
 2755000   0.80616606   -8.1358394    582.59472  0.017622345  0.017356095            1 
 2756000   0.82345743   -8.1620621    582.37673  0.017609359  0.017350379            4 
 2757000   0.81355283   -8.1445659    581.89727   0.01758848  0.017344668            2 
 2758000   0.80817897   -8.1750789     582.4409  0.017598528  0.017338957            2 
 2759000   0.83005508   -8.1370534    582.92536  0.017606783  0.017333261            2 
 2760000   0.80601672    -8.125005    582.39964   0.01758453  0.017327574            1 
 2761000   0.82401227    -8.137848    583.11232  0.017599672  0.017321894            2 
 2762000   0.80877793   -8.1155724    582.90296  0.017586983  0.017316198            1 
 2763000    0.8149093   -8.1516583     582.9975  0.017583469  0.017310478            4 
 2764000   0.80738409   -8.1184365    584.66726   0.01762745  0.017304773            2 
 2765000   0.80595907   -8.1644009    582.79169  0.017564548  0.017299082            2 
 2766000   0.80359466   -8.1576062    583.54591   0.01758092  0.017293343            6 
 2767000   0.79047454   -8.1277709    583.09552  0.017561002  0.017287637            4 
 2768000   0.81161228   -8.1356528    582.92381  0.017549489  0.017281908            2 
 2769000   0.80582624    -8.133422    584.67289   0.01759579  0.017276222            5 
 2770000   0.80452065    -8.160533     583.3791  0.017550514  0.017270545            2 
 2771000   0.82664595   -8.1241144    582.30968   0.01751202   0.01726485            2 
 2772000   0.82103163   -8.1486501      583.875   0.01755276  0.017259184            2 
 2773000   0.82531442   -8.1541612    583.39645  0.017532049  0.017253508            2 
 2774000    0.8018717   -8.1155965    583.42497  0.017526585  0.017247852            2 
 2775000   0.82370111   -8.1186799    583.79856  0.017531488   0.01724217            4 
 2776000   0.81483533   -8.1540696    583.09453  0.017504039  0.017236509            2 
 2777000   0.81024321   -8.1305135    583.13035   0.01749881  0.017230866            4 
 2778000   0.80379189   -8.1636946    584.34314  0.017528892  0.017225223            4 
 2779000   0.79723756   -8.1293886    583.85132  0.017507836  0.017219571            2 
 2780000   0.81191262   -8.1446009    585.39036  0.017547673  0.017213935            3 
 2781000   0.81095016   -8.1068744    585.43443  0.017542683  0.017208336            4 
 2782000   0.77507064   -8.1373263    584.44553  0.017506756  0.017202724            2 
 2783000   0.81512547   -8.1438069    583.23012  0.017464071  0.017197117            4 
 2784000   0.81433382   -8.1524464    583.75908  0.017473632  0.017191507            2 
 2785000   0.79146012   -8.1786344    584.75714  0.017497222  0.017185904            2 
 2786000   0.81386124   -8.1325659    584.36981  0.017479355  0.017180259            2 
 2787000   0.79088129   -8.1667836    584.28384  0.017470513  0.017174602            1 
 2788000   0.81253312   -8.1730282    584.15237  0.017460317  0.017168927            1 
 2789000   0.81430862   -8.1719078    583.60873  0.017437813  0.017163256            2 
 2790000   0.81370772   -8.1491936    583.76453  0.017436217  0.017157591            2 
 2791000   0.78480929   -8.1733109    584.08935  0.017439668  0.017151902            2 
 2792000    0.8200994    -8.164358    583.07246   0.01740307   0.01714622            1 
 2793000   0.77805146   -8.1699021    583.70145  0.017415606  0.017140531            2 
 2794000   0.80324555   -8.1536705    584.26937  0.017426312  0.017134855            1 
 2795000   0.79521016   -8.1652333    584.73297  0.017433899  0.017129221            1 
 2796000   0.80494604   -8.1736751    585.86688  0.017461459  0.017123567            2 
 2797000   0.81509369   -8.1557808    584.55215  0.017416046  0.017117902            2 
 2798000   0.80164448   -8.1207148    584.71805  0.017414762  0.017112271            2 
 2799000   0.79649921    -8.135641    585.31917  0.017426437  0.017106656            2 
 2800000   0.82759061   -8.1869677    585.26853  0.017418706  0.017101031            3 
 2801000   0.80603175   -8.1358993    583.98389  0.017374268  0.017095392            2 
 2802000   0.80960501   -8.1605089    584.06517  0.017370484  0.017089731            1 
 2803000   0.80376351   -8.1538108    584.98372  0.017391596  0.017084058            3 
 2804000   0.79883124   -8.1585411    584.29354  0.017364882  0.017078358            3 
 2805000   0.78883603   -8.1403809    584.16492   0.01735487  0.017072709            2 
 2806000   0.79531672   -8.1458806    582.96645  0.017313092   0.01706705            2 
 2807000   0.79487633   -8.1746475    584.38209  0.017348952  0.017061372            3 
 2808000    0.7967747   -8.1733453    583.14634    0.0173061  0.017055707            1 
 2809000   0.81390958   -8.1498382    584.83442  0.017350018  0.017050004            5 
 2810000   0.79122887   -8.1400936    583.22053  0.017295982  0.017044317            3 
 2811000   0.79539843   -8.1403152    584.12572  0.017316664  0.017038629            2 
 2812000   0.80345916   -8.1870613    583.98247  0.017306261  0.017032932            3 
 2813000   0.80853951   -8.1816383    583.77709  0.017294024  0.017027238            2 
 2814000   0.78627641   -8.1599697    584.03272  0.017295449  0.017021553            2 
 2815000   0.82258802   -8.1695292    582.85591  0.017254467  0.017015863            3 
 2816000   0.79380265   -8.1726525    583.92569  0.017279998  0.017010181            3 
 2817000   0.80691592   -8.1490957    583.83776  0.017271263  0.017004488            2 
 2818000   0.79071117   -8.1623078    584.51512  0.017285164  0.016998819            1 
 2819000   0.80190107   -8.1392091    584.17912    0.0172691  0.016993179            2 
 2820000   0.79656467   -8.1228367    584.79625  0.017281213  0.016987523            1 
 2821000   0.79857143   -8.1976442    582.16357  0.017197317   0.01698182            2 
 2822000   0.81024422   -8.1747821    583.60019  0.017233646  0.016976123            2 
 2823000   0.80201726   -8.1305675     585.0881  0.017271464  0.016970429            2 
 2824000   0.79242399   -8.1930292    582.72752  0.017195689  0.016964705            5 
 2825000   0.78006856    -8.150503    583.36486  0.017208403  0.016958996            1 
 2826000   0.80264256   -8.1709621    584.12364  0.017224689  0.016953312            4 
 2827000   0.79576097   -8.1506927    584.92054  0.017242086  0.016947632            1 
 2828000   0.79551169   -8.1249941     584.8903  0.017235098  0.016941938            1 
 2829000   0.79740785    -8.146649    584.89901  0.017229263  0.016936258            1 
 2830000   0.81494035   -8.1735186    583.82122  0.017191438  0.016930555            2 
 2831000   0.81914559    -8.138463    584.01602  0.017191099  0.016924833            2 
 2832000    0.8098831   -8.1690412    583.67644  0.017175037  0.016919114            1 
 2833000   0.79833171   -8.1751154    582.79423  0.017143024  0.016913379            2 
 2834000   0.81119152    -8.169295    584.82896  0.017196806  0.016907653            1 
 2835000   0.79519111   -8.1770189    585.36384  0.017206462  0.016901937            5 
 2836000   0.82445506   -8.1746989    583.98486  0.017159875  0.016896256            2 
 2837000   0.81014726   -8.1429377    584.56448  0.017170852  0.016890571            9 
 2838000   0.78927692   -8.1316454    585.38265  0.017188826   0.01688488            4 
 2839000   0.81357415   -8.1596615    584.39043  0.017153646  0.016879227            3 
 2840000   0.81774707   -8.1491151    585.58938  0.017182787  0.016873576            1 
 2841000    0.7819575   -8.1279812     585.9843  0.017188323  0.016867937            2 
 2842000   0.80257794   -8.1512146     584.5928  0.017141473  0.016862287            4 
 2843000   0.82218706   -8.1560108    584.02074  0.017118676  0.016856647            3 
 2844000   0.82038002   -8.1564285    585.36812  0.017152137  0.016850994            2 
 2845000   0.80640816   -8.1653359    583.74528  0.017098573   0.01684532            2 
 2846000   0.80009334   -8.1718096    584.89544  0.017126243  0.016839647            1 
 2847000   0.79591114   -8.1624189    584.28351  0.017102315  0.016833982            3 
 2848000   0.80252156   -8.1710516    584.75468  0.017110097  0.016828302            4 
 2849000   0.79345156   -8.1513281    584.97048  0.017110404  0.016822604            4 
 2850000   0.82634847   -8.1537616    585.30699  0.017114239  0.016816914            1 
 2851000   0.79678165   -8.1433404    585.78858  0.017122313   0.01681124            4 
 2852000   0.81236304   -8.1545014    584.21583  0.017070355  0.016805585            2 
 2853000   0.80170317   -8.1503561    583.84164  0.017053442  0.016799905            1 
 2854000   0.80667707   -8.1733468    585.10991  0.017084499  0.016794227            2 
 2855000   0.81355126   -8.1768588    584.11688  0.017049529  0.016788558            1 
 2856000   0.77778523   -8.1735392    585.74924  0.017091189  0.016782887            2 
 2857000   0.79277667   -8.1993027     583.8952  0.017031128   0.01677719            1 
 2858000   0.81381215   -8.1775588    584.51658  0.017043287  0.016771493            1 
 2859000   0.77726189   -8.1969116    583.71798  0.017014048  0.016765786            7 
 2860000   0.78620413   -8.1778631    582.93492  0.016985283  0.016760112            4 
 2861000   0.79218983   -8.1663187    585.05644  0.017041141   0.01675445            2 
 2862000   0.79862539   -8.1816165     585.0305  0.017034431  0.016748798            2 
 2863000   0.78854271   -8.1686357     585.6136  0.017045454  0.016743124            3 
 2864000   0.81890105   -8.1959609    584.32952  0.017002139  0.016737439            2 
 2865000   0.77946647   -8.1494997      585.133  0.017019575  0.016731787            2 
 2866000   0.80389227   -8.1647882    585.23125  0.017016494  0.016726134            1 
 2867000   0.79567483   -8.1940905    583.40838  0.016957574  0.016720456            5 
 2868000   0.79003948   -8.1546799    584.71439  0.016989609  0.016714762            1 
 2869000   0.78336813   -8.2117559    584.63627  0.016981418  0.016709081            2 
 2870000   0.80736417   -8.2007108    583.93469   0.01695513  0.016703381            2 
 2871000   0.77670893   -8.1799995    586.30423  0.017018003  0.016697714            2 
 2872000    0.7878331   -8.1855785    585.89779  0.017000284  0.016692039            2 
 2873000    0.7713781   -8.1827789     584.5528  0.016955354   0.01668638            2 
 2874000   0.79305293   -8.1945769    585.50119  0.016976954  0.016680704            1 
 2875000   0.79498279   -8.1791755    585.68487  0.016976373  0.016675047            2 
 2876000   0.77705807   -8.1838834     584.6698  0.016941058  0.016669391            2 
 2877000   0.78746688   -8.1908889    584.93279  0.016942787   0.01666374            2 
 2878000   0.81500437   -8.1726042    586.22437  0.016974298  0.016658098            5 
 2879000   0.78552329   -8.1806634     585.7834  0.016955638  0.016652501            2 
 2880000   0.77924865   -8.2017658    584.56925  0.016914619  0.016646859            3 
 2881000   0.78790026    -8.185133     585.1278  0.016924905  0.016641221            1 
 2882000   0.80136285   -8.1671778     585.4741  0.016929045  0.016635591            3 
 2883000   0.78452459   -8.1825666    585.18072  0.016914693  0.016629964            2 
 2884000   0.78549064   -8.1830404    585.55047  0.016919512  0.016624318            3 
 2885000    0.7865208   -8.1738525    586.07526  0.016928806  0.016618687            1 
 2886000   0.79510815   -8.1573719    585.53096  0.016907223  0.016613056            2 
 2887000   0.80220996   -8.1918735    585.95585  0.016913632  0.016607439            2 
 2888000   0.77676432   -8.1660109    586.40149  0.016920634  0.016601837            2 
 2889000   0.79032332    -8.160282    585.03497   0.01687536   0.01659625            2 
 2890000   0.77524851   -8.1562973    586.25323  0.016904649  0.016590675            2 
 2891000   0.78068488   -8.1718428     587.1731  0.016925317  0.016585092            4 
 2892000   0.78291414   -8.1799122    586.65425  0.016904514  0.016579505            4 
 2893000   0.78999784   -8.2462229    584.46783   0.01683569  0.016573883            2 
 2894000   0.80287244   -8.1757143    585.90577  0.016871279   0.01656825            1 
 2895000   0.79022032   -8.1893305    585.50392  0.016853884  0.016562616            2 
 2896000   0.78417798   -8.2186713    584.20903  0.016810803  0.016556969            1 
 2897000     0.796241    -8.204786    585.88304  0.016853154  0.016551354            3 
 2898000   0.78117701   -8.2256537    585.44434  0.016834723  0.016545712            2 
 2899000   0.79062525   -8.1805006    586.29897  0.016853483  0.016540083            1 
 2900000   0.78107943   -8.2162832    585.18249  0.016815589  0.016534453            2 
 2901000   0.79649322    -8.187666    585.40837  0.016816281  0.016528825            3 
 2902000   0.79536117   -8.2070619    586.49815   0.01684178  0.016523204            1 
 2903000   0.78895575   -8.2286417    586.15281  0.016826065  0.016517597            1 
 2904000   0.76899353   -8.2103691     585.8373  0.016811217  0.016511959            2 
 2905000   0.79536046   -8.1925918    586.31511  0.016819137  0.016506355            6 
 2906000   0.80358426   -8.1857672    586.88836  0.016829788  0.016500728            2 
 2907000   0.79082911   -8.1944038    585.52614  0.016784949  0.016495101            4 
 2908000   0.79446557   -8.2234536    585.46742  0.016777494  0.016489486            3 
 2909000   0.79368106   -8.2136023    584.59903   0.01674685   0.01648387            2 
 2910000    0.8005814   -8.1848198    586.64338  0.016799639  0.016478271            4 
 2911000    0.7868154   -8.1822437    586.18926  0.016780867  0.016472687            2 
 2912000   0.79185684   -8.1974953     584.5923  0.016729404  0.016467104            1 
 2913000   0.77014321   -8.1955326    585.26816  0.016742996  0.016461539            6 
 2914000   0.78743913   -8.1937203    588.54689  0.016831014   0.01645596            2 
 2915000   0.78475295   -8.2239631    587.45936   0.01679415  0.016450388            2 
 2916000   0.78001578   -8.2193429    586.39313   0.01675792  0.016444832            1 
 2917000    0.7805049   -8.1892549    586.88221  0.016766147  0.016439282            2 
 2918000   0.77699438   -8.2168672    586.87612  0.016760227  0.016433733            4 
 2919000   0.77219176   -8.2018281    587.87422   0.01678298  0.016428181           10 
 2920000   0.79862522   -8.2167905    586.97459  0.016751558  0.016422609            1 
 2921000   0.77042755   -8.2334662    586.85687  0.016742465  0.016417017            3 
 2922000   0.80166572   -8.2291733    586.35012  0.016722283   0.01641145            3 
 2923000   0.80147132   -8.2125166    587.09326  0.016737748  0.016405873            4 
 2924000   0.79524157    -8.190317    586.95233  0.016728008   0.01640029            3 
 2925000   0.76607549   -8.2090905    587.38861  0.016734718   0.01639473            8 
 2926000   0.77969248   -8.1886633    587.77171   0.01673991  0.016389174            1 
 2927000   0.79111147   -8.2197258    586.31169  0.016692623  0.016383596            2 
 2928000   0.78239874   -8.2197518    586.57005  0.016694275  0.016378021            8 
 2929000   0.78951043   -8.2210867    585.74284   0.01666504  0.016372461            2 
 2930000   0.76774038    -8.232947    586.64373  0.016684975  0.016366901            4 
 2931000   0.78420108   -8.2156377    588.10655  0.016720873  0.016361354            2 
 2932000   0.77051285   -8.2121205    586.84903  0.016679429  0.016355799            2 
 2933000   0.78826885   -8.1833019    587.68213  0.016697413  0.016350263            1 
 2934000   0.80695103   -8.1678638     588.3542   0.01671081  0.016344758            1 
 2935000   0.78416466   -8.2127608    587.46692  0.016679924  0.016339263            4 
 2936000   0.78483562   -8.2346563    587.85978  0.016685393  0.016333743            2 
 2937000   0.80049622   -8.1969724    588.46195  0.016696798  0.016328223            3 
 2938000   0.79684423   -8.2136952    586.76389  0.016642951  0.016322713            2 
 2939000   0.79119273   -8.1997099     587.8228  0.016667313  0.016317202            2 
 2940000   0.78836554   -8.1882966    590.01962  0.016723912  0.016311727            3 
 2941000   0.75659934   -8.2065819    587.88525  0.016657748  0.016306229            2 
 2942000   0.78991952   -8.1931068    589.23848  0.016690417   0.01630072            2 
 2943000   0.78707121   -8.2089602    588.31198  0.016658511  0.016295226            2 
 2944000   0.77987229   -8.2478339    587.16972   0.01662052  0.016289719            2 
 2945000   0.76154636   -8.1957256    588.01374  0.016638759  0.016284221            3 
 2946000   0.76208515   -8.2041037    587.80842  0.016627303  0.016278727            3 
 2947000   0.77402687   -8.2053843    588.00908  0.016627335  0.016273257            1 
 2948000   0.78159137   -8.1906372    588.77185  0.016643257  0.016267783            2 
 2949000   0.78171214   -8.2063444    588.58825  0.016632425  0.016262324            2 
 2950000   0.78332442   -8.1876122    589.55075  0.016653976  0.016256868            2 
 2951000   0.76613623   -8.1955915    588.24208  0.016611377  0.016251398            4 
 2952000   0.79557387   -8.1909967     589.0952  0.016629833  0.016245905            1 
 2953000   0.76339619   -8.1758421    588.15789   0.01659775  0.016240428            2 
 2954000   0.76518196   -8.1758157    588.10273  0.016590576  0.016234975            1 
 2955000   0.76194943   -8.1903978    589.58141  0.016626661  0.016229502            2 
 2956000   0.77610219   -8.1900011    588.81558  0.016599447  0.016224026            3 
 2957000   0.78924608   -8.1869785    588.40458  0.016582251  0.016218565            5 
 2958000   0.77513099      -8.2048    589.37142  0.016603883  0.016213082            3 
 2959000   0.76856092   -8.1965473    588.80284  0.016582259  0.016207633            2 
 2960000   0.78249928   -8.2061703    588.55509  0.016569681  0.016202175            1 
 2961000   0.78709851   -8.2114455    588.30656  0.016557091  0.016196701            2 
 2962000   0.79908443   -8.2381131     587.4577  0.016527619  0.016191212            4 
 2963000   0.79738166   -8.2263755    586.15693  0.016485458  0.016185735            2 
 2964000   0.77167466   -8.1981888    589.01879  0.016560357   0.01618026            6 
 2965000   0.77985164   -8.2338122    588.08513  0.016528531   0.01617479            1 
 2966000   0.78016358   -8.2380822    588.22931  0.016527009  0.016169313            2 
 2967000   0.76822132   -8.2096919    588.43571  0.016527236  0.016163834            2 
 2968000   0.77094737   -8.1890677    588.66811  0.016528193  0.016158377            2 
 2969000   0.77565213   -8.2409348    587.54745  0.016491171  0.016152883            2 
 2970000   0.78215124   -8.2521586    587.13122   0.01647394  0.016147408            6 
 2971000   0.77008401   -8.2326516    589.03876    0.0165219  0.016141926            1 
 2972000   0.77053008    -8.243798    588.75389  0.016508353  0.016136451            3 
 2973000   0.76747629    -8.222549    587.56411   0.01646945   0.01613098            4 
 2974000   0.80028607   -8.2257645    588.14858   0.01648029  0.016125526            2 
 2975000   0.77711373   -8.2498472    588.10275  0.016473466  0.016120031            2 
 2976000   0.76641555   -8.2343733    588.75277  0.016486133  0.016114537            2 
 2977000   0.77074657     -8.24109    588.48743  0.016473167  0.016109006            3 
 2978000   0.79232226   -8.2232488    588.39515  0.016465054   0.01610352            3 
 2979000   0.77237103   -8.2438663    587.63426  0.016438242  0.016098016            1 
 2980000   0.76817844   -8.2428643    587.79847  0.016437317  0.016092519            3 
 2981000   0.77688962   -8.2287771    586.86547  0.016405721   0.01608701            3 
 2982000   0.76931898   -8.2180258    588.63713   0.01644973  0.016081507            2 
 2983000   0.77152793   -8.2437353    588.06715  0.016428292     0.016076            2 
 2984000   0.77338779   -8.2436538    587.17898  0.016397983    0.0160705            1 
 2985000   0.77691135   -8.2020074    588.48261  0.016428884  0.016065015            3 
 2986000   0.79775795   -8.2189081    588.71762   0.01642994  0.016059513            2 
 2987000   0.78133769   -8.2252066    587.08454  0.016378879  0.016054014            2 
 2988000   0.79669908   -8.2098224    588.69173  0.016418221  0.016048519            6 
 2989000   0.78415175   -8.2266639    588.55093  0.016408802  0.016043013            2 
 2990000   0.76011073   -8.2011067    588.45988  0.016400777  0.016037515            3 
 2991000   0.77482565   -8.2318578    588.26506  0.016389866  0.016032007            2 
 2992000   0.78551975   -8.2253067    588.95581  0.016403626  0.016026519            4 
 2993000    0.7709523   -8.2409231    587.24281  0.016350451  0.016021028            2 
 2994000   0.75973755   -8.2430181    587.44854  0.016350716  0.016015548            2 
 2995000   0.77377867   -8.2274365    589.34002  0.016397886  0.016010068            1 
 2996000   0.79088796   -8.2423021    586.97105   0.01632652  0.016004587            3 
 2997000   0.77927386   -8.1921846    587.97229  0.016348913  0.015999141            1 
 2998000   0.76473741    -8.248546    588.79083  0.016366212   0.01599369            2 
 2999000   0.77640696    -8.240433    588.35825  0.016348734  0.015988222            6 
 3000000   0.78003092   -8.2574524    587.29421  0.016313728   0.01598277            4 
 3001000   0.76539888   -8.2253189    589.55815  0.016371158  0.015977311            1 
 3002000   0.76934564   -8.2240024    588.71208  0.016342219  0.015971858            4 
 3003000   0.77376189   -8.2423097    588.88136  0.016341474  0.015966375            3 
 3004000   0.79730973   -8.2374514    589.68153  0.016358231  0.015960914            2 
 3005000    0.7740243   -8.2400457    588.06476  0.016307952  0.015955457            3 
 3006000    0.7824023   -8.2351177     586.8833  0.016269774  0.015949994            4 
 3007000   0.74865214   -8.2399052     588.1875  0.016300507  0.015944522            2 
 3008000   0.77348624   -8.2347226    589.27432  0.016325197  0.015939048            1 
 3009000   0.75591865   -8.2328656    588.84634  0.016307919  0.015933597            1 
 3010000   0.77780628   -8.2506999    587.75922  0.016272404  0.015928158            2 
 3011000   0.77563027   -8.2693165    586.16968  0.016223007  0.015922681            5 
 3012000   0.76736837   -8.2412943    588.40429  0.016279446   0.01591721            2 
 3013000   0.76615016    -8.206509    589.33476  0.016299778  0.015911773            4 
 3014000   0.78030776    -8.232892    589.07612  0.016287219  0.015906334            1 
 3015000   0.75710261   -8.2616073    587.09424  0.016227038  0.015900873            1 
 3016000   0.76486186   -8.2458214    588.58567  0.016262867  0.015895421            2 
 3017000   0.77256992   -8.2669001    588.91151  0.016266476  0.015889957            2 
 3018000   0.74961474   -8.2353751    589.02088  0.016264106   0.01588449            2 
 3019000   0.76680335    -8.228766     588.7748  0.016251927  0.015879025            5 
 3020000   0.77617361   -8.2612195    588.16827  0.016229809  0.015873574            3 
 3021000   0.76738948   -8.2645514    587.75602  0.016213065  0.015868118            1 
 3022000   0.76617859   -8.2552252     589.6384  0.016259607  0.015862676            1 
 3023000   0.75252014   -8.2531527    588.08194  0.016211323  0.015857239            1 
 3024000   0.78142101   -8.2499791    588.72562    0.0162237  0.015851796            1 
 3025000   0.77207918   -8.2558037    588.76605   0.01621945   0.01584635            2 
 3026000     0.778259    -8.260169    588.59556  0.016209395  0.015840887            1 
 3027000    0.7535217   -8.2744419    589.29325  0.016223248  0.015835425            4 
 3028000    0.7666719   -8.2726521    586.74196  0.016147676  0.015829987            1 
 3029000   0.76404677   -8.2623674    589.01189  0.016204795  0.015824549            2 
 3030000   0.77120606   -8.2434544      589.445  0.016211359  0.015819105            2 
 3031000   0.76490965    -8.269334    589.51269  0.016207871  0.015813711            2 
 3032000   0.77017531   -8.2484915    589.15836  0.016192787  0.015808308            3 
 3033000   0.76619663   -8.2416868    590.08815  0.016212994  0.015802924            2 
 3034000   0.75774303   -8.2306713    590.59465  0.016221562  0.015797546            4 
 3035000    0.7612428   -8.2402175    590.65665   0.01621792  0.015792174            4 
 3036000   0.77836624   -8.2392212    590.46268  0.016207254  0.015786783            2 
 3037000   0.75954641   -8.2608052    588.97202  0.016161015  0.015781403            4 
 3038000    0.7772759   -8.2658409    588.00001  0.016129033   0.01577599            2 
 3039000   0.76834314   -8.2419798     590.0232  0.016179204  0.015770584            3 
 3040000   0.75915713   -8.2719415    588.93726  0.016144114  0.015765189            4 
 3041000   0.77014727   -8.2589218    588.12348  0.016116504  0.015759763            3 
 3042000   0.75646953   -8.2497407    589.43454  0.016147122  0.015754352            1 
 3043000    0.7476412   -8.2499541    589.59759  0.016146281   0.01574893            2 
 3044000   0.75038469   -8.2595514     590.0404  0.016153099  0.015743522            2 
 3045000   0.77318048   -8.2725564    589.72923  0.016139278  0.015738115            3 
 3046000   0.75771834   -8.2697361    590.15978  0.016145759  0.015732721            1 
 3047000   0.77708075   -8.2866731     589.3908  0.016119429   0.01572731            2 
 3048000   0.76946044   -8.2587307    589.15056  0.016107572  0.015721914            6 
 3049000   0.76747827   -8.2687528    589.80426  0.016120156  0.015716521            2 
 3050000   0.77733112   -8.2549435    590.81914    0.0161426  0.015711135            2 
 3051000   0.76067474   -8.2537845     588.6601  0.016078338  0.015705765            2 
 3052000    0.7356284   -8.2634242    589.55622  0.016097538  0.015700383            3 
 3053000   0.77481958   -8.2525981    590.32473  0.016113242  0.015695035            1 
 3054000   0.76969697    -8.236586    589.75179  0.016092332  0.015689675            3 
 3055000   0.77178014   -8.2274257    591.33701  0.016130306  0.015684334            5 
 3056000   0.77487101    -8.254671    588.87621  0.016057924  0.015678959            2 
 3057000   0.77013109   -8.2713978    590.51038  0.016097219  0.015673571            3 
 3058000   0.75619645   -8.2812732    589.10737  0.016053722  0.015668201            4 
 3059000   0.77259833   -8.2694509    589.70401  0.016064727  0.015662845            1 
 3060000   0.75943633   -8.2835779    588.01766  0.016013553  0.015657439            4 
 3061000   0.77811638   -8.2833781    588.60872  0.016024413  0.015652029            2 
 3062000    0.7548336     -8.27403    590.30771  0.016065418  0.015646609            3 
 3063000   0.76847634   -8.2482212    588.82326  0.016019786  0.015641195            3 
 3064000   0.74150516   -8.2577994    590.02917  0.016047355  0.015635809            3 
 3065000    0.7733558   -8.2796596    589.16173  0.016018535  0.015630433            3 
 3066000   0.77614514   -8.2761298    589.19092  0.016014104  0.015625029            2 
 3067000   0.75638327    -8.268387    590.48029  0.016043916  0.015619634            2 
 3068000   0.78103152   -8.2809903    588.26106  0.015978408  0.015614248            3 
 3069000   0.75501629   -8.2495579    589.36167  0.016003086  0.015608866            2 
 3070000   0.76533689   -8.2760956    590.45326  0.016027504  0.015603479            2 
 3071000   0.76058576   -8.2754885    588.75851  0.015976297  0.015598085            2 
 3072000   0.77560545   -8.2555249    589.43544   0.01598946  0.015592698            4 
 3073000   0.75348296   -8.2567462     589.2521  0.015979285  0.015587334            2 
 3074000   0.75437391   -8.2567254    589.33265   0.01597627  0.015581964            2 
 3075000   0.75787727   -8.2673481    591.06085  0.016017909  0.015576609            3 
 3076000    0.7559592   -8.2630891    590.37635  0.015994158  0.015571219            2 
 3077000   0.77215298   -8.2838942     589.3044  0.015959929  0.015565833            2 
 3078000   0.74582851   -8.2636512    590.07478    0.0159756  0.015560463            3 
 3079000   0.75894014    -8.274952     588.6044  0.015930616  0.015555099            2 
 3080000   0.76978415   -8.2625436    591.72324  0.016009828  0.015549735            3 
 3081000   0.75449039   -8.2890304    589.59172  0.015946979  0.015544378            5 
 3082000   0.74745193   -8.2824151    589.50231  0.015939388  0.015539025            2 
 3083000    0.7345032   -8.2911817    589.56035  0.015935786  0.015533654            5 
 3084000   0.77240479   -8.2549497      589.883  0.015939338  0.015528257            1 
 3085000    0.7791643   -8.2695474    588.72405  0.015902865  0.015522882            2 
 3086000   0.76027198   -8.2672512    589.90916  0.015929714  0.015517546            2 
 3087000   0.75430101    -8.269669    589.74891  0.015920228  0.015512191            1 
 3088000   0.74533166   -8.2328076    589.28556  0.015902568  0.015506857            1 
 3089000   0.74448255   -8.2547275     591.5313  0.015958004   0.01550153            2 
 3090000   0.74602736   -8.2471534    589.70628  0.015903621  0.015496197            1 
 3091000   0.75537449   -8.2599023     590.4479   0.01591847  0.015490854            6 
 3092000   0.76932577    -8.235057    590.23376  0.015907551  0.015485497            3 
 3093000   0.76186262   -8.2532566     589.8736  0.015892704  0.015480158            2 
 3094000   0.75490169   -8.2601033    589.65798   0.01588176  0.015474825            1 
 3095000   0.75832968   -8.2300418    591.29671  0.015920751  0.015469518            2 
 3096000   0.76491544   -8.2612501    590.18453  0.015885673  0.015464198            1 
 3097000    0.7582055   -8.2851143    588.10488  0.015824585  0.015458872            1 
 3098000   0.75828886   -8.3098173    589.32332  0.015852252  0.015453509            1 
 3099000   0.75393925   -8.2615303    591.10318  0.015894998  0.015448158            1 
 3100000   0.74985785   -8.2754675    590.15688  0.015864432  0.015442805            2 
 3101000   0.74535104   -8.2811412    588.45707  0.015813637  0.015437451            1 
 3102000   0.76105469   -8.2729466    589.32188  0.015831772  0.015432083            2 
 3103000   0.76142976   -8.2773293    589.44492  0.015829974  0.015426728            2 
 3104000   0.77575842   -8.2753003    588.98722  0.015812586  0.015421377            2 
 3105000   0.76048302   -8.2708161    589.10439  0.015810639  0.015416013            1 
 3106000   0.76203905   -8.3012798    588.49322   0.01578915  0.015410625            1 
 3107000   0.74282865   -8.3016366    588.47852  0.015783674  0.015405234            3 
 3108000   0.75785929   -8.2848787    590.85454  0.015842303   0.01539988            1 
 3109000   0.75765893   -8.3029123    590.10054  0.015816997  0.015394514            2 
 3110000    0.7509004   -8.2803835     588.0517  0.015757012  0.015389148            2 
 3111000   0.75024775   -8.2586482    588.92701  0.015775394   0.01538379            1 
 3112000   0.75531708    -8.290213     589.6011  0.015788376  0.015378424            2 
 3113000   0.74907889   -8.2962463    589.02017  0.015767753  0.015373055            1 
 3114000   0.75359833    -8.246355    591.01568  0.015816091  0.015367709            2 
 3115000   0.75364475   -8.2758208    588.96402  0.015756127  0.015362352            3 
 3116000   0.77256647   -8.3013292    589.47444  0.015764721  0.015356968            2 
 3117000   0.74497606   -8.2824473    588.62351  0.015736914  0.015351592            2 
 3118000   0.74279543   -8.3284595    588.18761  0.015720216  0.015346203            2 
 3119000   0.74660987   -8.2851629    589.39792  0.015747513  0.015340828            1 
 3120000   0.75864582   -8.2875469    589.12117  0.015735074  0.015335464            3 
 3121000   0.73672325   -8.2883613    589.29266  0.015734611  0.015330105            2 
 3122000   0.74480828   -8.3058306    588.98888  0.015721463  0.015324745            1 
 3123000   0.75958987    -8.290943    589.58399  0.015732308  0.015319394            1 
 3124000   0.75232195   -8.2732093    589.91195  0.015736021  0.015314036            1 
 3125000   0.75369393    -8.296833    589.35314  0.015716084  0.015308671            3 
 3126000   0.75250374   -8.2875094    588.17805  0.015679731  0.015303324            2 
 3127000   0.73864673   -8.2909809    589.22482  0.015702612  0.015297961            5 
 3128000   0.75451435   -8.2784983    589.38667  0.015701904  0.015292616            3 
 3129000   0.77151753   -8.2770718    589.49743  0.015699836  0.015287287            3 
 3130000   0.75283616   -8.3291813    588.63726  0.015671918  0.015281935            4 
 3131000   0.73861004   -8.2873252    589.65897  0.015694107  0.015276581            2 
 3132000   0.74549698   -8.3274539    589.10818  0.015674441  0.015271238            4 
 3133000   0.75844367   -8.3163329    589.51438  0.015680242  0.015265898            1 
 3134000   0.76915489   -8.2687118    589.16637  0.015665985   0.01526058            2 
 3135000   0.73715987   -8.2828431    589.19287  0.015661693  0.015255252            2 
 3136000   0.75295952   -8.2803143    589.18708  0.015656544  0.015249939            5 
 3137000   0.75629076   -8.3071838    589.70214  0.015665236  0.015244613            5 
 3138000   0.75239093   -8.3033091     590.2289  0.015674232  0.015239305            2 
 3139000   0.76922389   -8.2951476    589.77408  0.015657165   0.01523398            2 
 3140000   0.74509969   -8.2885979    590.07508  0.015660167  0.015228657            2 
 3141000   0.73755063   -8.2951112    591.85563   0.01570242  0.015223354            7 
 3142000   0.76672926   -8.3118286    590.05813  0.015649749   0.01521805            2 
 3143000   0.74910282   -8.2981548    590.05896  0.015644792  0.015212747            3 
 3144000   0.76270292   -8.3012282    589.80353  0.015633045  0.015207439            4 
 3145000    0.7449852   -8.3041597    590.01996  0.015633809  0.015202127            5 
 3146000   0.73685919   -8.3043839    591.01854  0.015655291  0.015196813            2 
 3147000   0.74783885   -8.3074145    589.55223  0.015611488  0.015191501            2 
 3148000   0.75464927   -8.2972794    591.63796  0.015661742  0.015186187            1 
 3149000   0.75222683   -8.2782551    589.95352  0.015612192  0.015180885            5 
 3150000   0.75170668   -8.2948505    589.28553  0.015589564  0.015175595            2 
 3151000   0.74922806    -8.282284    589.64012  0.015593995  0.015170298            3 
 3152000   0.75275724   -8.3408877    589.87006  0.015595126  0.015164998            1 
 3153000   0.74211816    -8.288477    590.36456   0.01560325  0.015159699            2 
 3154000   0.73955749   -8.3304256    590.11582  0.015591731  0.015154391            2 
 3155000   0.75465663   -8.3165608    590.02293  0.015584335  0.015149084            3 
 3156000    0.7424476   -8.3122505    590.17879  0.015583513  0.015143793            3 
 3157000    0.7482851   -8.3209587     590.2305  0.015579941  0.015138483            2 
 3158000   0.75913816   -8.2777151    590.04746  0.015570178  0.015133213            4 
 3159000   0.74740811   -8.3309547    590.78415  0.015584683  0.015127963            1 
 3160000   0.75680235   -8.2972952    590.92061  0.015583349  0.015122691            2 
 3161000   0.74332971   -8.2744196    591.13364  0.015584036  0.015117432            2 
 3162000   0.73373271   -8.3235551    589.65932  0.015540252  0.015112153            5 
 3163000   0.74888356   -8.3249282    590.14805  0.015548215  0.015106886            2 
 3164000     0.761807   -8.3214414    590.69776  0.015557779  0.015101608            3 
 3165000   0.74729723   -8.3271584     589.8906  0.015531611  0.015096325            3 
 3166000   0.72826362   -8.3193623    590.94513  0.015554462  0.015091061            2 
 3167000    0.7255815   -8.3071103    591.28704  0.015558547  0.015085791            2 
 3168000   0.73223703   -8.3185234    591.95978  0.015571333  0.015080539            1 
 3169000   0.75012282   -8.3042033    590.82155  0.015536488  0.015075295            2 
 3170000   0.74586982   -8.3129804    591.29794   0.01554411  0.015070048            1 
 3171000   0.73214528   -8.3014093    589.51122  0.015492253  0.015064796            1 
 3172000   0.73724284   -8.3384938    590.37971  0.015510186  0.015059535            2 
 3173000   0.73219795   -8.3213296    590.42097  0.015506381  0.015054268            2 
 3174000   0.75098527   -8.3285908    589.36372  0.015473738  0.015049007            2 
 3175000   0.74655569   -8.3427019    588.35512  0.015442392  0.015043745            1 
 3176000   0.73462814   -8.3202716    590.64936  0.015497727  0.015038477            4 
 3177000   0.74358345   -8.3121643    589.72606   0.01546863  0.015033231            4 
 3178000   0.72867408   -8.2975821    590.14978  0.015474874  0.015027969            1 
 3179000   0.74306678   -8.3012449    590.53703  0.015480157  0.015022721            3 
 3180000    0.7387159   -8.3333928    589.57106  0.015449975  0.015017482            3 
 3181000   0.74252915   -8.3233162    590.48288  0.015469005  0.015012238            3 
 3182000   0.73527194   -8.3192119    591.42116  0.015488717  0.015007009            2 
 3183000   0.73315604     -8.31804    590.94324  0.015471338  0.015001779            2 
 3184000   0.74581247     -8.31876    591.46044  0.015480016  0.014996539            2 
 3185000   0.76104772    -8.321752    590.56142  0.015451633  0.014991299            1 
 3186000    0.7250746   -8.3256997    590.16861  0.015436509  0.014986073            2 
 3187000    0.7690818   -8.3412327    590.36502  0.015436801  0.014980845            3 
 3188000   0.75510794   -8.3226174    589.58634  0.015411604  0.014975608            5 
 3189000   0.73208605    -8.324674    590.32552  0.015426088  0.014970383            2 
 3190000   0.72758761   -8.3264243    590.87953  0.015435724   0.01496516            2 
 3191000   0.73269281   -8.3305216    590.66689  0.015425334  0.014959935            3 
 3192000   0.71453961   -8.3016078    590.84445  0.015425137  0.014954725            1 
 3193000   0.73771197   -8.3388833     589.9418  0.015396748  0.014949503            4 
 3194000   0.74704989   -8.3338238    590.65674  0.015410581  0.014944284            2 
 3195000   0.74698908   -8.3248597    590.65054  0.015405596  0.014939055            3 
 3196000   0.74826026   -8.3299213    590.46563  0.015395954  0.014933826            2 
 3197000   0.71600116   -8.3376003    590.96075  0.015404044  0.014928598            1 
 3198000   0.74600214    -8.349207    590.23296  0.015380263  0.014923363            2 
 3199000    0.7384414   -8.3523215    590.18339  0.015374164  0.014918122            2 
 3200000   0.73778641   -8.3486336     592.1298  0.015420047  0.014912897            1 
 3201000   0.76616155   -8.3182337    590.33932  0.015368617  0.014907689            1 
 3202000   0.73665063   -8.3472482    588.83677  0.015324713  0.014902487            1 
 3203000   0.75163154   -8.3427639     590.9125  0.015373933  0.014897275            1 
 3204000   0.75197788   -8.3412504     590.4295  0.015356573  0.014892068            2 
 3205000   0.73409404   -8.3186448    591.51182  0.015379923  0.014886857            1 
 3206000   0.72898196   -8.3361609    590.89113  0.015358992  0.014881646            2 
 3207000   0.73149341   -8.3432499    590.21837  0.015336721  0.014876431            2 
 3208000   0.73709268   -8.3577601     589.7052   0.01531861  0.014871216            2 
 3209000   0.74470015   -8.3292129    590.00295  0.015321568  0.014866008            3 
 3210000   0.71638635   -8.3390703     590.3622  0.015326121  0.014860802            3 
 3211000   0.74254291   -8.3360594    590.41239  0.015322651  0.014855612            2 
 3212000    0.7382005   -8.3292088    591.79875  0.015353849   0.01485042            1 
 3213000   0.75185347   -8.3295539    590.59284  0.015317793  0.014845232            3 
 3214000   0.74079575   -8.3582451    590.34422  0.015306581  0.014840023            2 
 3215000   0.73101053   -8.3454743    591.46287  0.015330816  0.014834822            3 
 3216000   0.73261088   -8.3451934    590.38681  0.015298166   0.01482961            4 
 3217000   0.74104865   -8.3462097    590.36591  0.015292869  0.014824406            3 
 3218000   0.74031515   -8.3487065    591.66059  0.015321644  0.014819217            2 
 3219000   0.73614926   -8.3426999    591.45204  0.015311485  0.014814016            4 
 3220000   0.71715754   -8.3510396    591.00526  0.015295167  0.014808812            2 
 3221000   0.72783511   -8.3909202    589.64734  0.015255287  0.014803605            2 
 3222000   0.72868052   -8.3744744    589.90054  0.015257101  0.014798408            3 
 3223000   0.74823261   -8.3260339    590.84451  0.015276774  0.014793213            1 
 3224000   0.73324885   -8.3351143    590.82143  0.015271439  0.014788024            1 
 3225000   0.74195134   -8.3799934    590.66572   0.01526268  0.014782838            3 
 3226000   0.72023765   -8.3132476    591.53172  0.015280319  0.014777669            8 
 3227000   0.73713801   -8.3476251    592.14973  0.015291543   0.01477249            4 
 3228000   0.73253953    -8.358158    590.22557  0.015237133  0.014767336            1 
 3229000    0.7533963   -8.3549171    590.32272  0.015234921  0.014762166            2 
 3230000    0.7240947    -8.330427    590.89884  0.015245068  0.014757005            2 
 3231000   0.75048851   -8.3488239    590.31261   0.01522523  0.014751852            1 
 3232000   0.74187245   -8.3458179      590.965   0.01523734  0.014746681            1 
 3233000   0.72869936   -8.3607611    591.08632  0.015235754  0.014741531            1 
 3234000   0.74027953   -8.3464649    591.19492  0.015233841  0.014736385            1 
 3235000   0.75656398   -8.3317569    591.84059  0.015245765  0.014731238            1 
 3236000    0.7275629    -8.330045    592.16332  0.015249364  0.014726114            2 
 3237000   0.73643852    -8.330984    591.14952  0.015218554  0.014720996            2 
 3238000   0.74170303   -8.3434632    591.96966  0.015234961  0.014715895            1 
 3239000   0.72191709   -8.3119177    593.28069  0.015263988  0.014710791            5 
 3240000   0.73406495   -8.3247702    593.02844  0.015252789   0.01470569            2 
 3241000   0.74739297   -8.3498017    593.48833  0.015259908  0.014700584            7 
 3242000   0.73493776   -8.3118616    593.26691  0.015249509  0.014695491            2 
 3243000   0.72888135   -8.3425789     594.0765   0.01526561  0.014690415            2 
 3244000   0.73734701   -8.3080983    592.83227  0.015228942  0.014685337            4 
 3245000    0.7319351   -8.3159364    593.62378  0.015244576  0.014680272            2 
 3246000   0.73045576   -8.3062948    592.51541  0.015211424  0.014675181            3 
 3247000   0.73641936   -8.3091513    592.24059  0.015199687  0.014670081            2 
 3248000   0.72179546   -8.3546344    591.49751  0.015175942  0.014664978            1 
 3249000    0.7321341   -8.3298515    591.36762  0.015167939  0.014659859            3 
 3250000   0.72117163   -8.3543398    591.93795  0.015177896  0.014654725            3 
 3251000   0.72887068   -8.3496119    590.69444  0.015141352  0.014649626            2 
 3252000   0.72964296   -8.3398199    591.77627  0.015164419  0.014644531            1 
 3253000   0.73426937   -8.3542911    591.12353  0.015143035  0.014639443            2 
 3254000   0.71366065   -8.3560965    589.99449  0.015109467  0.014634346            3 
 3255000   0.73346687   -8.3378147    591.49012  0.015143116  0.014629229            4 
 3256000   0.71412668   -8.3579879    591.77342  0.015145716  0.014624123            5 
 3257000    0.7315388   -8.3310188    591.38552  0.015131141  0.014619014            2 
 3258000   0.72715511   -8.3471667    592.31039  0.015150153   0.01461391            1 
 3259000   0.72449153   -8.3269444    591.81758  0.015132903  0.014608804            5 
 3260000   0.74318587   -8.3291363    592.56759  0.015147433  0.014603713            4 
 3261000   0.73677202   -8.3290474    591.76451  0.015122266  0.014598597            3 
 3262000   0.72550052   -8.3195796    591.59698   0.01511335  0.014593509            2 
 3263000   0.72693979   -8.3458335     591.2484  0.015099816   0.01458841            5 
 3264000   0.71643776   -8.3537017    590.43674  0.015074467  0.014583307            1 
 3265000   0.74413805   -8.3454146    591.51824  0.015097454  0.014578202            4 
 3266000   0.74581077   -8.3401009    591.28261  0.015086819   0.01457308            2 
 3267000   0.72479435   -8.3225311     590.8683  0.015071633  0.014567967            2 
 3268000   0.73142976   -8.3636445    591.81368  0.015091128  0.014562843            3 
 3269000   0.74299436   -8.3452963    593.03583  0.015117667  0.014557718            1 
 3270000   0.72176304    -8.360577    591.45338  0.015072716   0.01455261            3 
 3271000   0.73117628   -8.3362278    591.04496  0.015057703  0.014547506            6 
 3272000   0.72166688   -8.3451468    591.02983  0.015052716  0.014542392            3 
 3273000    0.7272136   -8.3593882    591.99624  0.015072722    0.0145373            2 
 3274000   0.72882821   -8.3788872    591.00824  0.015042971    0.0145322            2 
 3275000   0.72683279   -8.3579163    592.53683  0.015077273  0.014527114            2 
 3276000    0.7189364   -8.3694724    591.82688  0.015054611  0.014522004            1 
 3277000   0.72237843   -8.3448672    590.56412  0.015017906  0.014516901            2 
 3278000   0.71581013   -8.3790903    590.28412  0.015006206  0.014511806            5 
 3279000   0.71264587   -8.3524177    592.00715  0.015045419  0.014506732            1 
 3280000   0.72567629   -8.3363857    591.19401  0.015020173  0.014501661            2 
 3281000    0.7287541   -8.3390414     592.3714  0.015045499  0.014496593            2 
 3282000   0.74673081   -8.3336973    591.75033  0.015025146  0.014491527            3 
 3283000   0.72546015   -8.3750637     591.9147  0.015024741  0.014486445            1 
 3284000   0.73865419    -8.326463    591.45567  0.015008518  0.014481363            3 
 3285000   0.72162605    -8.342923    592.91921  0.015041076  0.014476291            3 
 3286000   0.73811606   -8.3565195    592.44497  0.015024472  0.014471223            2 
 3287000   0.71724243    -8.348502    591.95228   0.01500741  0.014466145            5 
 3288000   0.73677269   -8.3600416     591.0759  0.014980634  0.014461086            2 
 3289000    0.7195136   -8.3372588    592.34851  0.015008324  0.014456023            2 
 3290000   0.72564913   -8.3551351    591.57766  0.014984237  0.014450958            3 
 3291000   0.71283731     -8.37187    591.86844  0.014987046   0.01444591            1 
 3292000   0.73129952   -8.3415435    591.22981  0.014966328  0.014440852            3 
 3293000   0.72395438   -8.3356367    592.65206  0.014997775  0.014435796            2 
 3294000   0.72128867   -8.3442834    591.95849  0.014975675  0.014430751            2 
 3295000   0.72329178   -8.3474054    591.53248  0.014960356  0.014425698           11 
 3296000   0.73623775   -8.3454848    592.24557  0.014973846  0.014420654            4 
 3297000   0.72076508   -8.3544329    591.56399  0.014952077  0.014415593            4 
 3298000   0.74117496   -8.3571679    590.82454   0.01492886  0.014410523            5 
 3299000   0.72067586   -8.3518108     590.8595  0.014925217  0.014405441            8 
 3300000   0.72060238   -8.3573684    591.86003   0.01494596  0.014400371            3 
 3301000   0.71634333   -8.3580491      591.583  0.014934439  0.014395299            4 
 3302000   0.71572141   -8.3664618    591.38981  0.014925041  0.014390243            2 
 3303000   0.70522069   -8.3516679    591.51572  0.014923699   0.01438517            2 
 3304000   0.73416064   -8.3773454    590.27018  0.014887767  0.014380099            2 
 3305000   0.71601652   -8.3293915    591.39093  0.014911521   0.01437504            3 
 3306000   0.72649376   -8.3926777    591.50004  0.014909761  0.014369979            2 
 3307000   0.72287689   -8.3533115    593.37625  0.014952531  0.014364909            4 
 3308000   0.71576165    -8.367339    591.48382  0.014900338  0.014359841            1 
 3309000   0.71086465    -8.394728    590.56571  0.014872713  0.014354784            2 
 3310000    0.7322226    -8.369386    590.77258  0.014873428  0.014349728            1 
 3311000   0.72918156    -8.339795    591.87811  0.014896761  0.014344685            2 
 3312000   0.71519306   -8.3577605    592.47338  0.014907241  0.014339637            1 
 3313000    0.7258525   -8.3669007    592.42382  0.014901495  0.014334595            3 
 3314000   0.71383946   -8.3685915    591.01625  0.014861603  0.014329557            3 
 3315000   0.71059741   -8.3751955    591.98087  0.014881369  0.014324515            2 
 3316000   0.72315272   -8.3670846    590.97083  0.014851499  0.014319482            2 
 3317000    0.7231703   -8.3498726    591.69927  0.014865322  0.014314449            4 
 3318000   0.73343459   -8.3636908    591.62841  0.014859062  0.014309413            3 
 3319000   0.71825038   -8.3930688     590.7641  0.014832884   0.01430438            2 
 3320000   0.71671761   -8.3642827    592.07685  0.014861367  0.014299334            3 
 3321000   0.73102022   -8.3498392    591.47666  0.014841831   0.01429431            3 
 3322000   0.72395783   -8.3735594    591.84146  0.014846515  0.014289292            3 
 3323000   0.72571095   -8.4039111    590.79905  0.014815906  0.014284271            2 
 3324000   0.73305629    -8.375549    592.16571  0.014845711  0.014279236            2 
 3325000   0.72488425   -8.4040027    591.48115  0.014824089  0.014274206            1 
 3326000   0.71251294   -8.4021653    592.71793   0.01485062  0.014269178            1 
 3327000   0.70814871   -8.3982008    591.63431  0.014819014  0.014264151            5 
 3328000   0.72357439   -8.4074818    591.26879  0.014805408   0.01425914            1 
 3329000   0.72507424    -8.410565    591.34154  0.014802782  0.014254112            4 
 3330000   0.70957149   -8.3830848    591.48209  0.014801854  0.014249092            2 
 3331000   0.71858113   -8.3884795    591.17729  0.014789785  0.014244084            3 
 3332000   0.70078623   -8.3796356    591.45421  0.014792272   0.01423907            2 
 3333000    0.7290474   -8.3631225    593.21143  0.014831769  0.014234058            3 
 3334000   0.70719708   -8.3878551    591.90236    0.0147946   0.01422905            1 
 3335000   0.71215036   -8.4040823    590.39962  0.014752614  0.014224029            2 
 3336000   0.72864481   -8.4056725    590.66313  0.014754774  0.014219013            1 
 3337000    0.7047067   -8.3859553    591.37881  0.014768225  0.014214017            5 
 3338000   0.71825291   -8.3720909    592.42988  0.014790041  0.014209006            3 
 3339000   0.72666555   -8.4058343    591.26127  0.014756446  0.014203998            1 
 3340000   0.70922773   -8.3917015    590.62134  0.014736061  0.014198989            2 
 3341000   0.70395975   -8.4029434     591.8285   0.01476176  0.014193992            3 
 3342000   0.72620067    -8.381954    591.71159  0.014754428   0.01418897            3 
 3343000    0.7167184    -8.418715    590.28688    0.0147145  0.014183958            2 
 3344000    0.7167227   -8.4079476    591.10585  0.014730509  0.014178943            1 
 3345000   0.72868839   -8.4094219    590.82376  0.014719077  0.014173937            3 
 3346000   0.72470991   -8.4097842    591.58538  0.014733647  0.014168927            2 
 3347000   0.70640097    -8.422386    590.93778  0.014713121  0.014163902            3 
 3348000   0.71400317    -8.408077    590.28085  0.014692375  0.014158875            1 
 3349000   0.72847868   -8.4248574    590.86184  0.014702444  0.014153848            3 
 3350000   0.71587793   -8.4013202    590.24966  0.014682827  0.014148832            5 
 3351000   0.72124137    -8.400364    592.06781   0.01472366   0.01414382            4 
 3352000   0.70476017   -8.4016692    591.14836  0.014696409  0.014138816            2 
 3353000   0.70856888   -8.3904084    591.95453  0.014712062  0.014133814            1 
 3354000   0.71588912   -8.4112376    591.95205  0.014707614  0.014128818            2 
 3355000   0.72694574   -8.3995583    591.92061  0.014702449  0.014123827            4 
 3356000   0.69629627   -8.4160838    590.51033  0.014663049  0.014118824            7 
 3357000   0.71182718   -8.4142696    592.77409  0.014714877  0.014113828            5 
 3358000   0.72155057   -8.4395913    590.54187  0.014655099  0.014108835            2 
 3359000   0.72966314   -8.4188199    590.47273  0.014649021  0.014103815            5 
 3360000   0.72567238   -8.4099789    590.46799  0.014644543  0.014098795            1 
 3361000   0.71121558   -8.4200394    590.75219  0.014647233  0.014093798            2 
 3362000   0.72822149   -8.3958851    591.08399    0.0146511  0.014088817            7 
 3363000    0.7239331   -8.4065962    591.54099  0.014658068  0.014083831            2 
 3364000   0.71660167   -8.4111322    591.69359  0.014657491  0.014078848            2 
 3365000   0.71029574   -8.4154573    591.08409  0.014638041  0.014073863            3 
 3366000   0.70575379    -8.407682    591.10342  0.014634171  0.014068872            2 
 3367000   0.71713427   -8.3890075    591.64446  0.014643215  0.014063899            2 
 3368000   0.71846293   -8.4036481    590.56547   0.01461217  0.014058924            7 
 3369000   0.70778485   -8.4063295    591.81469  0.014638733  0.014053959            1 
 3370000   0.72337652   -8.4090483    591.95847  0.014637944  0.014048991            5 
 3371000   0.71359864   -8.4179545      591.057  0.014611317  0.014044014            3 
 3372000   0.70809113   -8.4391347    591.12959  0.014608778   0.01403903            1 
 3373000   0.71213518   -8.4281251     591.8568  0.014622413  0.014034065            2 
 3374000   0.70177952   -8.4291754    591.46269  0.014608345  0.014029097            2 
 3375000   0.69992676   -8.4396626    591.83926  0.014613315  0.014024128            1 
 3376000   0.70468287   -8.4243557    591.33542   0.01459655  0.014019163            1 
 3377000   0.70626973   -8.4307543    591.43028  0.014594568  0.014014203            1 
 3378000     0.719766   -8.4160014    591.14158  0.014583126  0.014009246            3 
 3379000   0.71448219   -8.4123709    591.14645   0.01457893  0.014004275            2 
 3380000   0.70680986   -8.4165095    591.06156  0.014572524  0.013999311            1 
 3381000   0.71620381   -8.4305575    590.66929  0.014558545  0.013994353            2 
 3382000   0.72226969   -8.4375139    590.70424  0.014555102  0.013989389            3 
 3383000   0.69786101   -8.4298728    592.07102  0.014584467  0.013984434            7 
 3384000   0.70798272   -8.4276349    592.54668   0.01459187  0.013979477            2 
 3385000   0.70108957    -8.414136    592.17869    0.0145785  0.013974544            5 
 3386000   0.72691182   -8.4223141    590.98929  0.014544923  0.013969592            2 
 3387000   0.70647635   -8.4179621    590.86992  0.014537691   0.01396464            2 
 3388000   0.69216167    -8.427394    590.77626  0.014531096  0.013959695            3 
 3389000   0.70128032   -8.4365572    591.37049  0.014541421  0.013954769            2 
 3390000   0.70878724   -8.4107462    592.28101  0.014559514  0.013949837            3 
 3391000   0.69984276   -8.4025307    592.02741  0.014548988  0.013944901            2 
 3392000    0.7078849   -8.4136368    591.91862  0.014542026  0.013939972            2 
 3393000   0.70377264   -8.4012506    592.32257  0.014547661  0.013935043            5 
 3394000   0.72365379   -8.4306696    592.42454  0.014545879  0.013930118            2 
 3395000   0.70541457   -8.4038921    592.05787  0.014532594  0.013925193            6 
 3396000   0.72235348   -8.4101521    591.37507  0.014511559  0.013920268            1 
 3397000   0.73364684   -8.4159885    592.41389  0.014532771  0.013915351            3 
 3398000   0.71550461   -8.4033937    591.82187  0.014513976  0.013910425            7 
 3399000   0.69599832   -8.4345157    590.68045  0.014481721  0.013905491            2 
 3400000   0.70646558   -8.4074359    591.48941  0.014497289  0.013900569            2 
 3401000    0.7126853    -8.408927    591.72616  0.014498828   0.01389565            2 
 3402000    0.7027931   -8.4094989    592.10832  0.014503927  0.013890729            1 
 3403000   0.70389775   -8.4112971    591.09818  0.014474928  0.013885794            4 
 3404000   0.70102409   -8.4353051    592.42182   0.01450308  0.013880867            2 
 3405000   0.70253204   -8.4399387    590.68833  0.014456396   0.01387593            3 
 3406000   0.72625542   -8.4239899    590.71263  0.014452746   0.01387101            4 
 3407000   0.70691295   -8.4392665    590.63639  0.014446639  0.013866092            3 
 3408000   0.69844839   -8.4220572    591.50195  0.014463565   0.01386118            3 
 3409000   0.70582572   -8.4298582    590.94363  0.014445674  0.013856268            3 
 3410000    0.6975444   -8.4345913    592.73627  0.014485246  0.013851343            1 
 3411000   0.70252972   -8.4149114    591.58029  0.014452758  0.013846419            2 
 3412000   0.69775291   -8.4103507     592.7452  0.014476973  0.013841497            1 
 3413000   0.70567784   -8.4486502    590.35875  0.014414463  0.013836584            4 
 3414000   0.70134595   -8.4279255    590.90762  0.014423638  0.013831658            1 
 3415000   0.70964597   -8.4187005    592.08013  0.014448027  0.013826741            2 
 3416000   0.69768399   -8.4228774    591.54656  0.014430781  0.013821822            3 
 3417000   0.70362749   -8.4112171    591.19156    0.0144179  0.013816908            2 
 3418000   0.69848784    -8.428025    590.12941  0.014387786   0.01381199            1 
 3419000    0.7025083   -8.4401878    591.83989  0.014425268  0.013807082            2 
 3420000   0.69892573   -8.4109456    591.30881  0.014408109  0.013802166            2 
 3421000   0.70052493   -8.4265622    592.34389  0.014429112  0.013797264            1 
 3422000   0.70523916   -8.4306813    592.74115  0.014434569  0.013792356            2 
 3423000   0.70031836   -8.4312755     590.5695  0.014377483  0.013787466            2 
 3424000   0.69776483   -8.4119497    591.89739  0.014405602   0.01378257            2 
 3425000   0.70825582   -8.4226342    591.50407  0.014391827  0.013777663            2 
 3426000    0.7022506   -8.4141607    592.07385  0.014401485  0.013772767            2 
 3427000    0.7107177    -8.432354    592.44881    0.0144064  0.013767877            1 
 3428000   0.68717876    -8.430984    591.75629  0.014385363  0.013762971            1 
 3429000   0.70522544   -8.4496503    591.51597  0.014375327  0.013758079            2 
 3430000   0.69027199   -8.4323786    590.65724  0.014350273  0.013753186            2 
 3431000   0.68887225   -8.4599123    592.88828  0.014400279  0.013748289            1 
 3432000   0.70521441   -8.4474375    591.64766  0.014365959  0.013743394            1 
 3433000     0.691785   -8.4425445    590.78494  0.014340833  0.013738496            1 
 3434000    0.7189766   -8.4355369     591.2462   0.01434785  0.013733598            3 
 3435000   0.70070349   -8.4351795    590.54139  0.014326574  0.013728696            1 
 3436000   0.70037671   -8.4400256    591.21894  0.014338837  0.013723789            6 
 3437000   0.70540837   -8.4761982    591.20531  0.014334335  0.013718872            2 
 3438000   0.70185803   -8.4463723    590.74843  0.014319091  0.013713969            2 
 3439000   0.70853539   -8.4224982    590.98325  0.014320618   0.01370906            2 
 3440000   0.72204136   -8.4572152    590.67341  0.014308949  0.013704159            2 
 3441000   0.70968556   -8.4363694    590.87963  0.014309785  0.013699261            6 
 3442000    0.7109548   -8.4457621    591.19898  0.014313359   0.01369436            2 
 3443000   0.71062123   -8.4746479    589.82419  0.014275927  0.013689464            5 
 3444000   0.71779212   -8.4374801      591.509  0.014312548  0.013684577            1 
 3445000    0.7033619   -8.4329309    590.91044  0.014293915  0.013679688            2 
 3446000   0.71840478   -8.4693725    590.37461  0.014276809  0.013674792            1 
 3447000   0.71072348   -8.4721737    590.69293  0.014280363    0.0136699            2 
 3448000   0.68346756   -8.4658472    591.33782  0.014291807  0.013665005            4 
 3449000   0.70031094    -8.463832    591.47462  0.014290969  0.013660128            3 
 3450000    0.6950284   -8.4883697    589.67191  0.014243283  0.013655237            3 
 3451000   0.70583564   -8.4687192    591.51529  0.014283669  0.013650348            3 
 3452000   0.69806171   -8.4556909    590.27528  0.014249596  0.013645471            3 
 3453000   0.69506504   -8.4598932    589.58786   0.01422888  0.013640596            4 
 3454000    0.7051862    -8.452667    589.98307  0.014234295  0.013635718            4 
 3455000   0.69192827   -8.4597683    591.01901  0.014255162  0.013630843            5 
 3456000   0.70802505   -8.4641558     590.0787  0.014228364  0.013625972            2 
 3457000   0.69507352   -8.4812145    590.17447  0.014226556  0.013621098            7 
 3458000   0.70325143   -8.4410464    590.80664  0.014237677   0.01361622            6 
 3459000   0.69145396   -8.4455323    589.69524  0.014206785  0.013611352            3 
 3460000   0.69174806   -8.4426772    590.56237  0.014223564  0.013606483            4 
 3461000   0.70667569   -8.4350707    591.17128  0.014234115  0.013601621            2 
 3462000    0.6960049   -8.4369794    590.44592  0.014212544  0.013596758            2 
 3463000   0.68962467   -8.4447261    590.97663  0.014221211  0.013591893            4 
 3464000   0.69783403   -8.4774284    590.35054  0.014202043  0.013587028            1 
 3465000   0.69535803   -8.4517857    591.53001  0.014226311  0.013582168            1 
 3466000   0.69067152   -8.4390437    591.03928  0.014210408  0.013577304            3 
 3467000   0.69459589    -8.452248    589.89065    0.0141787  0.013572435            3 
 3468000   0.70443665   -8.4397303    591.76749  0.014219711  0.013567571            2 
 3469000   0.71498045   -8.4814312     589.9948  0.014173028  0.013562703            2 
 3470000   0.70261007    -8.475396    590.74245  0.014186898  0.013557829            3 
 3471000     0.687493   -8.4732344    590.70836  0.014181993  0.013552971            3 
 3472000   0.70293674    -8.473876    589.59335  0.014151146   0.01354811            2 
 3473000   0.68863144   -8.4479866    590.29389  0.014163881  0.013543246            2 
 3474000   0.68247555   -8.4484831    591.04002  0.014177702  0.013538392            4 
 3475000   0.70367571   -8.4554468    589.99761  0.014148624  0.013533541            3 
 3476000   0.71051438   -8.4379758    590.68589  0.014161054  0.013528692            2 
 3477000   0.68768407   -8.4809971    590.96158  0.014163589  0.013523848            3 
 3478000   0.70802224   -8.4512828    591.45575  0.014171357  0.013518998            2 
 3479000   0.70489262   -8.4693855    589.93656  0.014130894   0.01351415            3 
 3480000    0.6968701   -8.4749744    588.88342  0.014101614  0.013509304            2 
 3481000   0.69972658   -8.4512449    589.98986  0.014124051  0.013504469            1 
 3482000   0.68208631   -8.4680448    591.04619  0.014145275  0.013499634            6 
 3483000   0.68772915   -8.4797546     590.4424  0.014126768    0.0134948            1 
 3484000   0.70042195   -8.4673244    590.49552  0.014123984  0.013489972            1 
 3485000   0.70841447    -8.450222    591.32076  0.014139664  0.013485146            2 
 3486000   0.69664006   -8.4766412    589.73479  0.014097695  0.013480317            3 
 3487000   0.69308433   -8.4611378    590.96345  0.014123015  0.013475477            2 
 3488000    0.6735747   -8.4566934    591.50305  0.014131858  0.013470655            1 
 3489000   0.69180293   -8.4508847    591.12229  0.014118713  0.013465828            2 
 3490000   0.71183326    -8.477399    591.06425  0.014113282  0.013460999            1 
 3491000   0.69923018   -8.4663088    590.28654  0.014090675  0.013456168            2 
 3492000   0.68585135   -8.4619405    591.89435  0.014125008  0.013451348            2 
 3493000   0.69064169   -8.4608293     590.6158  0.014090462  0.013446536            3 
 3494000   0.69130891   -8.4515176     590.3349   0.01407973  0.013441726            2 
 3495000   0.70763798   -8.4568377    590.39809  0.014077208  0.013436913            2 
 3496000   0.69605011   -8.4517011    591.37731  0.014096522  0.013432106            3 
 3497000   0.68069755   -8.4606337    590.98875  0.014083232  0.013427306            1 
 3498000   0.67998679   -8.4708269    590.39152  0.014064978  0.013422509            6 
 3499000    0.7099593   -8.4399318    590.67117  0.014067619  0.013417717            2 
 3500000   0.68986652   -8.4468655    590.52837  0.014060199  0.013412914            3 
 3501000   0.69970772   -8.4596694     590.0553  0.014044923  0.013408117            3 
 3502000   0.70618005   -8.4435287    590.87079  0.014060318  0.013403322            2 
 3503000   0.68252472   -8.4640818    591.19092  0.014063919  0.013398536            3 
 3504000   0.69553167   -8.4418451    591.08075  0.014057286  0.013393748            1 
 3505000   0.69815309   -8.4851249    590.39067  0.014036868  0.013388971            2 
 3506000   0.69283354   -8.4641567    591.24497   0.01405317  0.013384176            3 
 3507000   0.67628105   -8.4563454    590.22006  0.014024809  0.013379379            2 
 3508000   0.70239984   -8.4759248     591.0704  0.014041011  0.013374581            3 
 3509000   0.69849113   -8.4710141    590.86943  0.014032237  0.013369797            3 
 3510000   0.68971198   -8.4567518    590.69085  0.014023999  0.013365005            3 
 3511000   0.69965929   -8.4566965    589.88545  0.014000889  0.013360223            2 
 3512000   0.68862406   -8.4572881    590.47086  0.014010793  0.013355438            2 
 3513000   0.68778744   -8.4795786    589.18924  0.013976403  0.013350642            2 
 3514000   0.68322157   -8.4625728     589.8669  0.013988496  0.013345853            4 
 3515000   0.67610525   -8.4661265    590.72997  0.014004978   0.01334106            2 
 3516000    0.6859633   -8.4948591    589.20209  0.013964782  0.013336264            2 
 3517000   0.67964235   -8.4954641    590.61577  0.013994308  0.013331462            2 
 3518000   0.67327426   -8.4779606    590.76542  0.013993875  0.013326675            3 
 3519000   0.70037654   -8.4883239    590.76761   0.01398995  0.013321895            2 
 3520000   0.68266001   -8.4554996    592.50646  0.014027142  0.013317115            5 
 3521000   0.67429814   -8.4614355    589.60378  0.013954459  0.013312341            2 
 3522000    0.7024921   -8.4825508    590.21684  0.013965002  0.013307571            2 
 3523000   0.68138191   -8.4511592     590.4051  0.013965491  0.013302799            1 
 3524000   0.70506847   -8.4660342    591.42587  0.013985667  0.013298035            2 
 3525000   0.69966048   -8.4683569    591.25975  0.013977772   0.01329328            2 
 3526000    0.6790987   -8.4478209    590.55992  0.013957268  0.013288523            3 
 3527000   0.67530096   -8.4779223    590.78006  0.013958512  0.013283758            1 
 3528000   0.69102965   -8.5054805     589.8579  0.013932774  0.013278994            2 
 3529000    0.6960253   -8.5088904    590.56017  0.013945409  0.013274232            2 
 3530000   0.69350283   -8.4766747    591.09911  0.013954181   0.01326948            3 
 3531000   0.68489723   -8.4632668    590.99193    0.0139477  0.013264735            2 
 3532000   0.67453595   -8.4836022    591.10426  0.013946401  0.013259981            3 
 3533000   0.70697706   -8.4872976    590.79491  0.013935157  0.013255215            2 
 3534000   0.70021975   -8.5033342    589.91653  0.013910501   0.01325045            1 
 3535000   0.67924855   -8.4530408    590.00382  0.013908624   0.01324569            1 
 3536000   0.68048249   -8.4923734    589.82711  0.013900526  0.013240936            1 
 3537000   0.69083681   -8.4957286    590.01509  0.013901025  0.013236178            1 
 3538000   0.67919735   -8.4986334    589.79178  0.013891836  0.013231415            2 
 3539000   0.67885264     -8.51055    589.88832  0.013890184  0.013226653            2 
 3540000   0.67111123   -8.4850137    589.50663  0.013877275  0.013221899            2 
 3541000    0.6901802   -8.4766054    590.55627  0.013898058  0.013217147            1 
 3542000   0.66565607   -8.4922499    590.29141  0.013887903  0.013212399            2 
 3543000   0.69638129   -8.5168263    591.44498  0.013911115  0.013207642            3 
 3544000   0.67669232   -8.5153329    590.23689  0.013878783  0.013202893            2 
 3545000   0.69188466   -8.4856543    591.21409  0.013897839  0.013198155            2 
 3546000   0.67735918   -8.4739145    591.09598  0.013891145  0.013193419            2 
 3547000   0.66533731   -8.4773856     591.0894  0.013887074  0.013188682            1 
 3548000   0.68004554   -8.4873711    590.15543  0.013861223  0.013183953            3 
 3549000   0.68038905   -8.4731806    590.87455  0.013874203  0.013179219            1 
 3550000   0.69629753   -8.4790503    589.80353  0.013845153  0.013174481            2 
 3551000   0.69276791   -8.4929595    590.11524  0.013848569  0.013169747            2 
 3552000   0.68555407   -8.4826808    590.05356  0.013843223  0.013165013            1 
 3553000   0.68938331   -8.5163535    590.05593  0.013839383   0.01316027            2 
 3554000   0.68979552    -8.499865    590.53993  0.013846838  0.013155545            2 
 3555000   0.68143092   -8.4647795    590.45777  0.013841017  0.013150816            2 
 3556000   0.68262873   -8.4851546    590.56474  0.013839631  0.013146083            2 
 3557000   0.69001022   -8.4816816    590.45272  0.013833116  0.013141357            2 
 3558000   0.68278728   -8.4971943    590.08963  0.013820724  0.013136628            4 
 3559000    0.6703188   -8.5152025    590.38718  0.013823808  0.013131901            2 
 3560000   0.69088794   -8.4982302     589.8395  0.013807104  0.013127175            2 
 3561000   0.67425082   -8.5035545    589.66218  0.013799077  0.013122454            1 
 3562000   0.69664493   -8.4991127    590.49805  0.013814759  0.013117728            2 
 3563000   0.67961931   -8.4818829    589.55854  0.013788908  0.013113012            2 
 3564000   0.66475594   -8.4972516    590.30825  0.013802568  0.013108294            1 
 3565000   0.68503959   -8.5064754    590.36011  0.013799909  0.013103579            1 
 3566000   0.69066215   -8.4951836    591.03734  0.013811865  0.013098866            3 
 3567000   0.69051151   -8.5126479    590.15561  0.013787394  0.013094162            3 
 3568000   0.67460074   -8.5082281    591.08876  0.013805324  0.013089438            2 
 3569000   0.67699535    -8.513043    589.42291   0.01376256  0.013084713            1 
 3570000   0.68706673   -8.4993389    590.01801  0.013772596  0.013079985            1 
 3571000   0.67786501   -8.5227305      588.112   0.01372426  0.013075268            2 
 3572000   0.68094427   -8.5037876    589.41817  0.013750891  0.013070555            4 
 3573000   0.67653495   -8.5199528     590.1077  0.013763124  0.013065847            2 
 3574000   0.68668017   -8.5142738    589.32664  0.013741061  0.013061129            4 
 3575000   0.69639055   -8.5135105    589.49641  0.013741175  0.013056423            2 
 3576000   0.68511743   -8.5052473    588.73547    0.0137196  0.013051709            4 
 3577000   0.67846672   -8.4909776    589.88549  0.013742556  0.013047003            4 
 3578000   0.67372616   -8.4967356    588.71721  0.013711506  0.013042297            6 
 3579000    0.6765973   -8.4984905    589.94597  0.013736285  0.013037594            3 
 3580000   0.67575181   -8.5006256    590.00538  0.013733831  0.013032882            2 
 3581000   0.67690698   -8.5132406    589.51343  0.013718548  0.013028173            2 
 3582000   0.68116804   -8.5165041    589.76212  0.013720503  0.013023475            2 
 3583000   0.66906403   -8.5206413    590.38937  0.013731263   0.01301877            2 
 3584000   0.65976206   -8.5235514    589.90093  0.013716074  0.013014071            3 
 3585000   0.68029461   -8.4906956    591.29233  0.013744591  0.013009375            2 
 3586000   0.69337877   -8.5157107    589.99409   0.01371059  0.013004686            2 
 3587000   0.67283604   -8.4808769    590.24467  0.013712589        0.013            3 
 3588000   0.67409267   -8.5013266    590.12895  0.013706079   0.01299532            2 
 3589000   0.67371716   -8.5200485    589.82629  0.013695233  0.012990643            5 
 3590000   0.68266261   -8.4898915    589.06214   0.01367368  0.012985954            1 
 3591000   0.67670656   -8.5136798    591.04815   0.01371596  0.012981278            2 
 3592000   0.67018386   -8.5045209    590.89618  0.013708616  0.012976603            2 
 3593000   0.67054208    -8.520325    589.52875  0.013673085  0.012971922            2 
 3594000   0.67942763   -8.4966155     589.9076  0.013678065  0.012967246            6 
 3595000    0.6527287   -8.5189863    589.61848  0.013667559  0.012962569            5 
 3596000   0.67580753   -8.5096782    589.66873  0.013664922  0.012957891            2 
 3597000   0.67976135   -8.5027487    590.38033  0.013677609  0.012953216            1 
 3598000   0.66413142   -8.5241854    589.77322  0.013659747  0.012948544            1 
 3599000   0.66343873    -8.510816    588.83094  0.013634133  0.012943865            1 
 3600000   0.68128052   -8.5163921    589.46746   0.01364508   0.01293919            2 
 3601000   0.67678013   -8.5081728    590.74911   0.01367095  0.012934535            1 
 3602000   0.67250876   -8.5227154     588.9565  0.013625683  0.012929882            2 
 3603000   0.67580049   -8.5173732    588.77591  0.013617724  0.012925228            1 
 3604000   0.67404889   -8.5106674     588.7604  0.013613587  0.012920575            2 
 3605000   0.67238441   -8.5075022    590.05702  0.013639783  0.012915922            3 
 3606000   0.69001855   -8.5323306    589.05256  0.013612788  0.012911268            2 
 3607000   0.67838985    -8.507941      590.182  0.013635108  0.012906625            2 
 3608000   0.66337224   -8.5375253    589.47785  0.013615065  0.012901978            2 
 3609000   0.66852135    -8.531542    589.76555  0.013617935  0.012897336            4 
 3610000   0.67299142    -8.530822    590.86915  0.013639639  0.012892692            2 
 3611000   0.66891452   -8.5039612    589.76149  0.013610299  0.012888045            2 
 3612000   0.67271974   -8.5226863    590.43931  0.013622169    0.0128834            2 
 3613000    0.6623964   -8.5396283    589.71128  0.013601607  0.012878752            1 
 3614000   0.66804331   -8.5111978    590.40223  0.013613776  0.012874116            7 
 3615000   0.68658297   -8.5276983    590.75528  0.013618148  0.012869489            4 
 3616000   0.68528242   -8.5184868    590.56083  0.013609901   0.01286486            1 
 3617000   0.67067988   -8.5234865     589.0045  0.013570282  0.012860242            3 
 3618000   0.68448445   -8.5048048    590.81911  0.013608327  0.012855603            3 
 3619000   0.69098464   -8.5414666    589.59074  0.013576281  0.012850971            1 
 3620000   0.66259985   -8.5095607     588.8348  0.013555129   0.01284633            2 
 3621000   0.68616194   -8.5455524     589.9108  0.013576148  0.012841701            3 
 3622000    0.6751299   -8.5373878    590.58594  0.013587933  0.012837072            3 
 3623000   0.67979103   -8.5004732    590.07246  0.013572372  0.012832448            4 
 3624000   0.67780112   -8.5443851    588.77415  0.013538773  0.012827824            2 
 3625000   0.67221132   -8.5287797    590.62822   0.01357766  0.012823207            1 
 3626000    0.6812987   -8.5363257    590.79161  0.013577671  0.012818593            1 
 3627000   0.67205552   -8.5102613    589.82733  0.013551772  0.012813976            2 
 3628000   0.66969229   -8.5400513    587.85609  0.013502758  0.012809361            2 
 3629000    0.6892999    -8.530368    589.48752    0.0135365   0.01280474            3 
 3630000   0.67049206   -8.5403398    589.42404  0.013531314  0.012800123            2 
 3631000   0.66840461   -8.5198727    590.18797   0.01354512  0.012795514            2 
 3632000   0.66889123   -8.5347883    589.42274  0.013523833   0.01279091            4 
 3633000   0.68080144   -8.5490923    589.01799  0.013510826  0.012786302            1 
 3634000   0.67515226   -8.5287683    590.08553  0.013531589  0.012781696            2 
 3635000   0.66343184   -8.5497207    589.75218  0.013520224  0.012777091            3 
 3636000   0.65817947   -8.5093318    590.76641  0.013539751  0.012772489            2 
 3637000   0.65169866   -8.5212645    588.80754  0.013491145  0.012767889            4 
 3638000   0.66699536    -8.552193    589.07976  0.013493672  0.012763286            4 
 3639000   0.67475771   -8.5174601    589.48913  0.013499339  0.012758688            2 
 3640000   0.67040965    -8.539039    589.88088  0.013504599  0.012754102            2 
 3641000   0.68128807     -8.54306    589.74565  0.013497795  0.012749514            3 
 3642000   0.67952831   -8.5323915    590.34773  0.013507865  0.012744925            1 
 3643000   0.67472733   -8.5426176    590.06376  0.013497661  0.012740334            3 
 3644000   0.67271954   -8.5418444    590.32727  0.013499983  0.012735741            2 
 3645000   0.67374543   -8.5342173    589.16513   0.01346971  0.012731158            3 
 3646000   0.65230808   -8.5462742    588.58284  0.013452707  0.012726569            2 
 3647000   0.66900312   -8.5409936    590.01286  0.013481694  0.012721981            4 
 3648000   0.66596222   -8.5336748    589.10916  0.013457355  0.012717395            3 
 3649000    0.6658065   -8.5522478    589.75417  0.013468397  0.012712797            3 
 3650000   0.67772805    -8.502576    589.58846  0.013460924   0.01270822            1 
 3651000   0.66794493   -8.5578591    588.71775  0.013437363  0.012703629            2 
 3652000   0.66998728   -8.5320253    590.45781  0.013473389  0.012699047            2 
 3653000   0.66884043   -8.5363458    590.13743  0.013462392  0.012694476            2 
 3654000    0.6589881   -8.5532449    590.03597  0.013456394  0.012689902            2 
 3655000   0.66271704    -8.543394    590.10307  0.013454242  0.012685324            4 
 3656000   0.67026779   -8.5579337       589.31  0.013432485  0.012680751            2 
 3657000   0.66692006   -8.5548713    590.34817   0.01345247  0.012676176            2 
 3658000   0.67338291   -8.5464195    589.08886  0.013420103    0.0126716            2 
 3659000   0.66303938   -8.5490616    589.34445  0.013422257  0.012667038            4 
 3660000   0.67827972   -8.5480266    589.63611   0.01342523  0.012662462            2 
 3661000   0.67375279   -8.5566831    590.13126  0.013432834  0.012657898            3 
 3662000   0.65450922   -8.5425109     589.9298  0.013424581   0.01265333            3 
 3663000   0.67592269   -8.5487645    589.00921  0.013399973  0.012648764            2 
 3664000   0.66707904   -8.5637149    589.72166   0.01341252  0.012644193            1 
 3665000   0.67375816   -8.5653563    588.93928  0.013391071  0.012639632            3 
 3666000   0.68429922   -8.5595244    589.58686  0.013402138  0.012635062            1 
 3667000   0.66811174   -8.5472077    589.26797  0.013391236  0.012630497            2 
 3668000   0.66558158   -8.5716715    589.07519  0.013383206  0.012625938            1 
 3669000   0.66619624   -8.5435889    589.49925   0.01338919   0.01262138            2 
 3670000   0.67112113    -8.538579    589.94099  0.013395572  0.012616822            1 
 3671000   0.65731011   -8.5698276    589.10609   0.01337297  0.012612264            3 
 3672000   0.67913942   -8.5401664    590.84492   0.01340879   0.01260771            2 
 3673000   0.65429924   -8.5396932    589.42758  0.013372983   0.01260316            1 
 3674000   0.64374901   -8.5689998     588.1597  0.013340585  0.012598612            1 
 3675000   0.67227122   -8.5656382    589.03501  0.013356803   0.01259406            3 
 3676000   0.67023652   -8.5641924    588.56928  0.013342612  0.012589508            1 
 3677000     0.663166   -8.5459801    589.70901  0.013364813  0.012584958            2 
 3678000   0.65574869   -8.5549133    588.30874  0.013329453  0.012580417            3 
 3679000    0.6573594   -8.5515113    589.50363  0.013352895  0.012575863            2 
 3680000   0.67296464   -8.5168774    590.34164  0.013368244  0.012571323            2 
 3681000   0.67673628   -8.5545336    589.34116  0.013341962  0.012566777            2 
 3682000   0.65634214   -8.5384349     589.7773   0.01334821  0.012562229            3 
 3683000    0.6608474   -8.5497684    589.93056  0.013348053  0.012557683            2 
 3684000   0.65948139   -8.5477547    589.10551  0.013325767  0.012553146            2 
 3685000   0.66390997   -8.5282385    588.65442   0.01331195  0.012548613            1 
 3686000   0.66256287   -8.5321029    588.20871  0.013298262  0.012544084            2 
 3687000   0.66589581   -8.5327189    590.10401  0.013337492  0.012539566            4 
 3688000    0.6683875   -8.5354643    589.78815  0.013326739  0.012535044            2 
 3689000   0.65691619   -8.5528669    589.42931   0.01331502  0.012530532            1 
 3690000   0.65470408   -8.5356743    590.77846   0.01334188  0.012526022            3 
 3691000   0.66929519   -8.5548446    588.82212  0.013294096  0.012521513            2 
 3692000   0.66275152   -8.5301647    589.65691  0.013309338  0.012517003            2 
 3693000   0.65690831   -8.5475817    589.66962  0.013306021  0.012512497            1 
 3694000    0.6609938    -8.543084    589.36646   0.01329558  0.012507989            2 
 3695000   0.65233115   -8.5602136    589.58497  0.013296909  0.012503487            3 
 3696000   0.66772525   -8.5445701    590.18388  0.013306815  0.012498979            2 
 3697000   0.64406426   -8.5536809    589.87937  0.013296352  0.012494463            2 
 3698000   0.65578998   -8.5420391    590.98472  0.013317665  0.012489951            3 
 3699000   0.66121794    -8.563773    589.32195  0.013276605  0.012485441            3 
 3700000   0.66652475   -8.5458549    589.85654  0.013285057  0.012480927            2 
 3701000   0.66218724   -8.5570163    588.19365  0.013244025  0.012476423            1 
 3702000   0.66546512   -8.5481493    589.58604  0.013271791   0.01247192            2 
 3703000   0.66411066   -8.5720689    588.86315  0.013251939  0.012467425            4 
 3704000   0.67753916   -8.5390257    589.02945  0.013252102  0.012462927            3 
 3705000   0.67382673    -8.561945     588.2621  0.013231266  0.012458432            4 
 3706000   0.64565774   -8.5608791    589.95538  0.013265771  0.012453935            2 
 3707000   0.66577211   -8.5455512    589.23409  0.013245978  0.012449444            1 
 3708000   0.65874517    -8.532898    589.20045   0.01324165  0.012444956            3 
 3709000   0.67569456   -8.5842799    589.32773  0.013240939  0.012440469            2 
 3710000   0.66261969     -8.56871     588.4847  0.013218434  0.012435978            2 
 3711000   0.66256319   -8.5616922    588.03773  0.013204835   0.01243148            2 
 3712000   0.65874836   -8.5661156    589.60012  0.013236353  0.012426983            2 
 3713000   0.67141936   -8.5865313    589.35793  0.013227353  0.012422491            2 
 3714000   0.64735493   -8.5509746    590.31533  0.013245273  0.012418001            1 
 3715000   0.64704626   -8.5681528    588.53074  0.013201676   0.01241351            4 
 3716000   0.65439103   -8.5718104    589.27903  0.013214905  0.012409028            1 
 3717000   0.63575444   -8.5690786    589.18156  0.013209164  0.012404545            4 
 3718000   0.65381254   -8.5676384    589.69418  0.013217101  0.012400061            3 
 3719000   0.64113368   -8.5682853    589.20369  0.013202557  0.012395579            4 
 3720000   0.64816307   -8.5508219    589.03247  0.013195172  0.012391094            2 
 3721000   0.64582065   -8.5702923    588.26008  0.013174328  0.012386609            5 
 3722000   0.65272647   -8.5449222    589.03057  0.013188039  0.012382136            2 
 3723000    0.6687973    -8.567684    588.50933  0.013172829  0.012377651            1 
 3724000   0.66202428   -8.5808025    589.23719   0.01318558  0.012373175            5 
 3725000   0.65547422   -8.5690488    587.90877  0.013152321  0.012368699            2 
 3726000   0.66412585   -8.5563245    588.59061  0.013164041  0.012364229            2 
 3727000    0.6649996   -8.5656962    590.17431   0.01319592  0.012359757            3 
 3728000   0.65466556   -8.5643995    589.36832  0.013174363  0.012355291            6 
 3729000   0.65311111   -8.5686209    589.10034  0.013164842  0.012350827            4 
 3730000   0.66554338   -8.5690917    588.75073  0.013153502  0.012346362            3 
 3731000   0.65037718    -8.548595    588.35755  0.013141194  0.012341899            2 
 3732000   0.65497742   -8.5879207    587.76366  0.013124412  0.012337428            1 
 3733000   0.65698414    -8.567741    588.95635  0.013147521  0.012332961            4 
 3734000   0.67370563    -8.580862    589.78199  0.013162426  0.012328498            2 
 3735000   0.65079402   -8.5689276    589.17021  0.013145252  0.012324035            4 
 3736000   0.67297847   -8.5598329    590.32394  0.013167468  0.012319578            5 
 3737000   0.65599131   -8.5567054    589.61355  0.013148103  0.012315124            5 
 3738000   0.63270031   -8.5623225    588.14449  0.013111835  0.012310675            5 
 3739000   0.65691017   -8.5517437    588.63153  0.013119184   0.01230622            4 
 3740000   0.65965829   -8.5536593    588.12622  0.013104417  0.012301762            3 
 3741000    0.6656749   -8.5695354    588.21417  0.013102873    0.0122973            3 
 3742000   0.66453495   -8.5610988    588.84465  0.013113412  0.012292847            3 
 3743000   0.64768482   -8.5807841    588.29486  0.013097668  0.012288396            3 
 3744000   0.64751542   -8.5887319    588.52328  0.013099254  0.012283946            2 
 3745000   0.65883526   -8.5657582    589.23228  0.013111533  0.012279503            5 
 3746000   0.65558962   -8.5831589     588.6245  0.013094512  0.012275057            3 
 3747000   0.65231702    -8.547426    589.06645  0.013100846  0.012270618            2 
 3748000   0.65869686   -8.5832679    587.93918  0.013072287  0.012266172            3 
 3749000   0.65589665   -8.5713387    588.32854  0.013077455  0.012261734            2 
 3750000   0.65034832   -8.5918647    588.45865  0.013076859  0.012257293            8 
 3751000   0.65237128   -8.6050068    588.17463  0.013067063   0.01225285            3 
 3752000   0.65282886   -8.5711468    588.19348  0.013063999  0.012248411            6 
 3753000   0.65679157   -8.5725354     587.9328  0.013054729  0.012243981            2 
 3754000   0.65667457   -8.5574001    588.44183  0.013062552  0.012239547            4 
 3755000    0.6480219   -8.5760693    588.33488    0.0130567  0.012235117            4 
 3756000   0.66558322   -8.5858539    589.24607   0.01307344  0.012230679            1 
 3757000   0.64336108   -8.5986784    588.39463  0.013051074  0.012226246            2 
 3758000   0.66253158   -8.5838808    587.79485  0.013034301  0.012221821            2 
 3759000   0.66055081   -8.5785397    589.12565  0.013060336  0.012217389            4 
 3760000   0.66886049   -8.5721124    589.21863  0.013058923  0.012212969            3 
 3761000   0.65476914   -8.5834036    587.72078  0.013022263  0.012208551            3 
 3762000   0.66866383   -8.5722173    589.19288  0.013051411  0.012204139            2 
 3763000   0.64623019   -8.5882363     588.0948  0.013023625  0.012199732            2 
 3764000   0.66663043   -8.5811174    588.80339  0.013035853   0.01219532            3 
 3765000    0.6439976   -8.5814003    588.08942  0.013016587  0.012190906            2 
 3766000   0.64803884   -8.5816578    588.41342  0.013020301  0.012186494            5 
 3767000   0.65209202   -8.5736285    588.04027  0.013008589  0.012182084            2 
 3768000   0.63906996   -8.5754542    587.91564   0.01300238  0.012177683            1 
 3769000    0.6569748   -8.5887196    588.74575  0.013017285  0.012173272            3 
 3770000   0.64838343   -8.5904614    587.63568  0.012989294   0.01216886            3 
 3771000   0.63973155   -8.5743359    587.95409  0.012992886  0.012164447            4 
 3772000   0.64355646   -8.5565022    588.55935  0.013002814  0.012160041            3 
 3773000   0.64418255   -8.5805218    587.54605  0.012976987  0.012155639            2 
 3774000   0.66103498   -8.5686097    587.83786  0.012979992  0.012151236            3 
 3775000   0.63914356   -8.6032847    587.85357    0.0129769  0.012146828            2 
 3776000   0.65890421   -8.5990228    588.59705  0.012989871  0.012142425            4 
 3777000   0.65167598   -8.5805566    587.62379  0.012964959  0.012138022            2 
 3778000   0.63065381   -8.5925571     588.6085  0.012983247  0.012133622            8 
 3779000   0.64617081   -8.5896402    588.63249  0.012980341  0.012129224            3 
 3780000   0.64333901   -8.5961114    589.43465  0.012994591  0.012124832            3 
 3781000   0.63748726   -8.5862838    589.32024  0.012988633  0.012120443            2 
 3782000   0.65668298   -8.5892639    587.77926  0.012951244  0.012116054            2 
 3783000   0.65422605   -8.5905369    588.03536  0.012953462  0.012111656            1 
 3784000   0.64468033   -8.6014784    588.49865  0.012960242  0.012107268            1 
 3785000   0.63449376   -8.5868068    588.81997  0.012963892  0.012102885            3 
 3786000   0.65405745   -8.5818807     589.0393  0.012965295  0.012098497            2 
 3787000   0.63795729   -8.5930071    587.74202  0.012933325  0.012094108            3 
 3788000   0.63831032   -8.6118085    588.32757  0.012942792  0.012089719            1 
 3789000   0.63834564   -8.6066671    588.20534  0.012936688  0.012085334            4 
 3790000   0.63637182   -8.5863542    588.22378   0.01293368  0.012080961            3 
 3791000   0.65145279   -8.6039067    588.19305  0.012929593  0.012076589            2 
 3792000   0.65022919   -8.5954173    587.25713  0.012905615  0.012072217            1 
 3793000   0.65272909   -8.5855625    587.83272  0.012914859  0.012067832            1 
 3794000    0.6470284   -8.5721627    588.08603  0.012917019  0.012063449            3 
 3795000   0.64420777   -8.5701626    588.09915  0.012913903  0.012059069            2 
 3796000   0.64560599   -8.5879312    589.22399  0.012935195  0.012054696            1 
 3797000   0.64595467   -8.6037634    588.75425  0.012921479  0.012050326            1 
 3798000   0.63988547   -8.5690823    587.62388  0.012893274  0.012045955            1 
 3799000   0.65111663    -8.600545     586.5485  0.012866292  0.012041592            1 
 3800000   0.65198166   -8.5915447    588.15842  0.012898211  0.012037226            1 
 3801000   0.64605003   -8.5780853    589.41812  0.012922435  0.012032868            1 
 3802000   0.64043732   -8.5941396    588.91029  0.012907906  0.012028509            2 
 3803000   0.65627227   -8.5747197    587.70475  0.012878095  0.012024152            2 
 3804000   0.63714268   -8.5957962    587.81279  0.012877077  0.012019796            1 
 3805000   0.65692844   -8.5893283    587.73243  0.012871932  0.012015438            3 
 3806000   0.65271333   -8.5837171    588.69898  0.012889713  0.012011094            2 
 3807000    0.6440481   -8.5814432    589.01539  0.012893253  0.012006744            2 
 3808000   0.63626451   -8.5847127    587.57948  0.012858445  0.012002391            1 
 3809000   0.66716779   -8.5885774    587.80296  0.012859958  0.011998044            3 
 3810000   0.63411487   -8.5881198    587.96113  0.012860042    0.0119937            2 
 3811000   0.63709346   -8.5983363    587.61452  0.012849089  0.011989355            2 
 3812000   0.63907967    -8.580793    589.27889  0.012882102  0.011985013            3 
 3813000   0.63795293   -8.5724654     588.8384  0.012869097  0.011980679            2 
 3814000   0.63836268   -8.5979741    587.55884  0.012837765  0.011976329            2 
 3815000   0.63838207   -8.5997163    588.15225  0.012847362  0.011971984            2 
 3816000   0.63884896   -8.5884193    587.41073  0.012827802  0.011967636            2 
 3817000   0.64733939   -8.5830936    587.99924   0.01283729  0.011963297            1 
 3818000   0.63462952   -8.5920442    587.96044  0.012833081  0.011958954            1 
 3819000   0.63021402   -8.5945943    588.43399  0.012840054  0.011954618            4 
 3820000   0.63297287   -8.5868062     588.9166  0.012847221  0.011950289            1 
 3821000   0.64202522   -8.5759389    588.60922  0.012837155   0.01194596            1 
 3822000   0.62809372   -8.5825893    588.81523  0.012838288   0.01194164            1 
 3823000   0.65862718     -8.58089    587.94404  0.012815939  0.011937316            3 
 3824000   0.64040153   -8.5783037    588.06018  0.012815119  0.011932987            1 
 3825000   0.63868831   -8.6085558     588.1692  0.012814144  0.011928668            2 
 3826000   0.63548159   -8.5717337    586.60619  0.012776751   0.01192435            3 
 3827000   0.63753395   -8.5855993    588.25471  0.012809309  0.011920033            2 
 3828000   0.63886324   -8.5981391    588.15876  0.012803874  0.011915714            2 
 3829000   0.64179831   -8.5819549    587.64488  0.012789346  0.011911397            1 
 3830000   0.63224409   -8.5853412    588.33657  0.012801057  0.011907088            1 
 3831000   0.64751666   -8.5857218    588.03899  0.012791242  0.011902778            1 
 3832000   0.64341888    -8.610781     587.7664  0.012781976  0.011898477            1 
 3833000   0.63337106   -8.5923998    587.71694  0.012777566  0.011894167            2 
 3834000   0.64552095   -8.5721161    589.14817  0.012805342   0.01188986            2 
 3835000   0.62750084   -8.6167551    588.78142  0.012794033  0.011885559            2 
 3836000   0.62911035   -8.5733854    588.90509  0.012793385  0.011881253            1 
 3837000   0.63592341   -8.5968186    587.83455    0.0127668  0.011876947       -1e+20 
 3838000   0.63979037   -8.5766647    587.03058  0.012746017  0.011872645            1 
 3839000   0.63850354   -8.5900251    588.35615  0.012771472   0.01186834            3 
 3840000   0.63085746   -8.5970643    588.21953  0.012765181  0.011864035            1 
 3841000   0.63743741   -8.5951906    587.13782  0.012738389  0.011859733            2 
 3842000   0.63467378    -8.606301     587.3656  0.012740014  0.011855435            2 
 3843000   0.63324613   -8.6200441     587.4055  0.012737564  0.011851138            1 
 3844000   0.64652571   -8.6073337    587.90813  0.012745147  0.011846849            2 
 3845000   0.63506652    -8.599922    588.48177  0.012754265  0.011842553            2 
 3846000    0.6436268   -8.6184502    587.56262  0.012731033  0.011838257            1 
 3847000   0.62854854    -8.602141    588.21123  0.012741773  0.011833967            2 
 3848000   0.62113434     -8.58701      587.408  0.012721067  0.011829678            3 
 3849000   0.63025318   -8.6174451    587.44697  0.012718606  0.011825389            1 
 3850000    0.6284299   -8.6342979    587.84417    0.0127239  0.011821102            2 
 3851000    0.6383689   -8.5940242    587.77387  0.012719074  0.011816816            1 
 3852000   0.63948481   -8.6183748    587.20796   0.01270353  0.011812531            1 
 3853000   0.62854176   -8.6133337    587.30975  0.012702434  0.011808253            1 
 3854000   0.63051946   -8.6048401     587.7746   0.01270919  0.011803971            1 
 3855000   0.63124233   -8.6379235    587.75442  0.012705457  0.011799696            3 
 3856000   0.62608552   -8.6123326    587.67728  0.012700494  0.011795415            1 
 3857000   0.63129659   -8.6078848    587.33418  0.012689789  0.011791144            2 
 3858000   0.64637456   -8.6183411    586.54874  0.012669534  0.011786867            3 
 3859000   0.64150319   -8.6202021    586.87124  0.012673215  0.011782588            5 
 3860000    0.6443392    -8.628178     587.6197   0.01268609  0.011778314            5 
 3861000   0.63180813   -8.6058604    587.40133  0.012678091  0.011774041            3 
 3862000   0.64008241    -8.597295    587.01505  0.012666474  0.011769773            4 
 3863000   0.62925526   -8.6053871    588.19296  0.012688605  0.011765509            2 
 3864000   0.62824278   -8.6129435    588.99219  0.012702558  0.011761243            3 
 3865000    0.6242978   -8.5995094    587.77192  0.012672961  0.011756989            2 
 3866000    0.6398296   -8.6199171    588.56145  0.012686701  0.011752737            2 
 3867000   0.64431307    -8.620963    588.17547  0.012675103  0.011748477            2 
 3868000   0.62533538   -8.6269765    588.28939   0.01267428  0.011744219            2 
 3869000   0.62886935   -8.6355338    587.38522   0.01265153  0.011739956            2 
 3870000   0.63557107    -8.627933    586.95227  0.012638938  0.011735703            3 
 3871000    0.6430304   -8.6104694    586.83251  0.012633095  0.011731449            2 
 3872000   0.62826607   -8.6149254    587.64677  0.012647357  0.011727197            2 
 3873000   0.62785344   -8.6199817    588.06258  0.012653038  0.011722952            1 
 3874000   0.63322641   -8.6274215    587.74209  0.012642877  0.011718704            2 
 3875000   0.63391783   -8.6333195    587.76908  0.012640195  0.011714459            1 
 3876000    0.6156693   -8.6294784    587.13547  0.012623312  0.011710218            1 
 3877000   0.62652523   -8.6140908     589.5197  0.012671303  0.011705984            2 
 3878000   0.63292083   -8.6310095    587.40288  0.012622548  0.011701751            1 
 3879000   0.62554608   -8.6214785    587.40071  0.012619247   0.01169752            1 
 3880000   0.63969541   -8.6251813    587.43607  0.012616754  0.011693281            1 
 3881000   0.64770275   -8.6136318    587.33063  0.012611239  0.011689048            3 
 3882000   0.62202431   -8.6223941    586.65949  0.012593583   0.01168481            1 
 3883000    0.6259571   -8.6287664    586.97989  0.012597216  0.011680578            2 
 3884000   0.63125977    -8.617783    587.72813  0.012610027  0.011676338            2 
 3885000   0.62408756   -8.6254513    586.41966  0.012578714  0.011672103            1 
 3886000   0.62570113   -8.6422369    587.53887  0.012599478  0.011667865            1 
 3887000   0.62529656    -8.619066    587.61388  0.012597845  0.011663636            2 
 3888000   0.62385165   -8.6333895    586.59576  0.012572783  0.011659407            1 
 3889000   0.63033333   -8.6276428    586.43607  0.012566128  0.011655176            2 
 3890000   0.63610993   -8.6324708     587.1417  0.012578014  0.011650946            1 
 3891000   0.63873501   -8.6354408    587.06111  0.012573056  0.011646723            2 
 3892000   0.62098324   -8.6226992    586.40641  0.012555807  0.011642498            1 
 3893000   0.63497181   -8.6202615    586.59839  0.012556691  0.011638273            4 
 3894000   0.64975276    -8.627891     588.4815  0.012593766  0.011634062            1 
 3895000   0.62539333   -8.6126963    586.58054  0.012549862  0.011629842            1 
 3896000   0.63516781   -8.6031635    587.90717  0.012575017  0.011625627            1 
 3897000    0.6226965   -8.6290037     587.2858  0.012558502  0.011621422            1 
 3898000   0.61524789   -8.6262795    587.48155  0.012559465  0.011617215            1 
 3899000    0.6280257   -8.6311389    586.12515  0.012527254  0.011612999            1 
 3900000   0.62927799   -8.6384821    586.40981  0.012530124  0.011608791            2 
 3901000    0.6297864   -8.6181859    587.03648  0.012540299  0.011604582            2 
 3902000   0.62946059   -8.6276922    586.97117   0.01253569  0.011600381            2 
 3903000   0.63165689   -8.6304409    587.94523  0.012553276  0.011596176            2 
 3904000   0.62148194       -8.608    588.06459  0.012552608  0.011591976            3 
 3905000   0.62033172   -8.6268523    587.77382  0.012543189  0.011587772            2 
 3906000   0.63049751   -8.6426816    587.25244  0.012528854  0.011583569            2 
 3907000       0.6347   -8.6298286    586.51955  0.012510015  0.011579376            1 
 3908000   0.62352585   -8.6240119    587.58726  0.012529582   0.01157518            2 
 3909000   0.63270077   -8.6021107    588.05519  0.012536352  0.011570988            2 
 3910000   0.61452356   -8.6338195    587.44855  0.012520216   0.01156679            2 
 3911000   0.62597468    -8.628168    587.76485  0.012523755  0.011562604            2 
 3912000   0.63017268   -8.6408202    588.17192  0.012529225  0.011558417            2 
 3913000   0.61887547   -8.6183694    587.12297  0.012503684  0.011554234            5 
 3914000   0.62690767   -8.6406412     586.7197  0.012491903  0.011550043            2 
 3915000   0.63111967   -8.6455156    587.06609  0.012496085  0.011545851            2 
 3916000   0.62700833   -8.6463609    586.01947  0.012470622  0.011541667            3 
 3917000   0.62765356   -8.6351422    586.74564  0.012482887  0.011537485            2 
 3918000   0.62125755    -8.655122    587.16166   0.01248855  0.011533305            4 
 3919000   0.60885703   -8.6553256    587.79294  0.012498787  0.011529122            2 
 3920000   0.61991017   -8.6320715    586.15127  0.012460699  0.011524936            2 
 3921000   0.62570049   -8.6321365    587.47231  0.012485597  0.011520759            1 
 3922000   0.62288122   -8.6406332    587.75323  0.012488382  0.011516588            4 
 3923000   0.61870373   -8.6393918    586.59713  0.012460641  0.011512412            2 
 3924000   0.62429488   -8.6568419    585.75697  0.012439623  0.011508237            5 
 3925000   0.61973071   -8.6367498    586.31083  0.012448213  0.011504063            1 
 3926000   0.64754675   -8.6355692    587.15562  0.012462974  0.011499892            4 
 3927000   0.64377828   -8.6674072     587.2896  0.012462643  0.011495717            2 
 3928000    0.6224312   -8.6373275    586.14231   0.01243513  0.011491546            1 
 3929000   0.61771181   -8.6357323    586.27912  0.012434867  0.011487382            2 
 3930000   0.61572909   -8.6370125    587.01859  0.012447383  0.011483216            2 
 3931000   0.61435841   -8.6523935    585.65687   0.01241535  0.011479052            2 
 3932000   0.62847451    -8.643118    587.02528  0.012441194   0.01147489            1 
 3933000   0.64243476   -8.6435372    587.56104  0.012449382  0.011470735            2 
 3934000   0.61612098   -8.6517835    586.15786  0.012416494  0.011466584            1 
 3935000   0.62579897   -8.6573572    587.26259  0.012436734  0.011462428            2 
 3936000   0.59587712    -8.649354    586.99938  0.012428002  0.011458271            1 
 3937000   0.62791519   -8.6472316    586.61248  0.012416656  0.011454121            2 
 3938000   0.62806715   -8.6658265     586.9668  0.012421001  0.011449967            6 
 3939000   0.62162744   -8.6317995    586.93816  0.012417241   0.01144582            5 
 3940000   0.62545441   -8.6579468    587.35609  0.012422929  0.011441675            1 
 3941000   0.62356605   -8.6463745    587.54224  0.012423713  0.011437531            3 
 3942000   0.62924965    -8.634251     586.7427  0.012403659  0.011433389            2 
 3943000   0.61460931   -8.6292294    586.60808  0.012397668  0.011429243            2 
 3944000   0.61395705   -8.6353363    586.63786  0.012395154  0.011425097            2 
 3945000   0.61604706   -8.6534621    585.41424  0.012366165  0.011420954            2 
 3946000   0.60342965   -8.6431271    586.58783  0.012387815  0.011416814            2 
 3947000   0.61561749   -8.6606595      586.175  0.012375961  0.011412681            2 
 3948000   0.61741459   -8.6488841    585.52594  0.012359126  0.011408547            3 
 3949000   0.61467201   -8.6481588    585.86471  0.012363145  0.011404414            3 
 3950000   0.60972477   -8.6628106     586.5834  0.012375177  0.011400276            5 
 3951000   0.63831716    -8.620149    587.25761  0.012386265  0.011396154            1 
 3952000   0.61806568   -8.6389124    586.64021  0.012370112  0.011392032            2 
 3953000   0.62686278   -8.6693428    585.78086  0.012348867    0.0113879            3 
 3954000   0.61877554   -8.6483922    586.49019  0.012360694  0.011383767            3 
 3955000   0.62159396    -8.650764    586.45069  0.012356736  0.011379638            2 
 3956000   0.61751832   -8.6546522    586.76857  0.012360309  0.011375516            1 
 3957000   0.61701156   -8.6553589    586.32026  0.012347744  0.011371389            1 
 3958000   0.60402944   -8.6490032    586.03821  0.012338686  0.011367271            2 
 3959000   0.62048123   -8.6594462    586.95844  0.012354939  0.011363158            7 
 3960000   0.60490434   -8.6546673    585.80514  0.012327549  0.011359046            2 
 3961000   0.62775063   -8.6455628    585.39499  0.012315808  0.011354929            5 
 3962000   0.62827215    -8.658788    585.96742   0.01232474  0.011350813            3 
 3963000   0.62490558   -8.6748632    585.87229  0.012319629  0.011346691            5 
 3964000   0.62084666   -8.6535607    586.41681  0.012327969  0.011342577            2 
 3965000   0.59590955   -8.6562927    586.74177  0.012331689   0.01133847            6 
 3966000   0.61829389   -8.6594886    586.71014  0.012327915  0.011334365            4 
 3967000   0.61115493   -8.6470082    586.19439  0.012313973  0.011330253            2 
 3968000   0.62204619   -8.6706302     586.4269  0.012315753  0.011326144            2 
 3969000   0.62200992   -8.6604675    586.67224  0.012317801  0.011322036            3 
 3970000    0.6175447   -8.6767852     585.5317  0.012290758  0.011317931            3 
 3971000   0.62209513   -8.6580054    585.37777  0.012284432  0.011313828            2 
 3972000   0.61256004   -8.6561335    585.95208  0.012293389  0.011309724            4 
 3973000   0.62366243   -8.6706759    585.92262  0.012289676  0.011305624            4 
 3974000   0.60927521   -8.6684079    586.32588   0.01229504  0.011301526            3 
 3975000   0.62216935   -8.6617628    586.11187  0.012287461  0.011297427            1 
 3976000   0.62979091   -8.6607741    585.48714  0.012271276  0.011293333            2 
 3977000   0.61877681   -8.6850443    587.07489   0.01230146   0.01128924            3 
 3978000   0.62220125   -8.6493461    587.28471  0.012302763   0.01128515            4 
 3979000   0.60825929   -8.6408924    587.52109  0.012304622  0.011281066            2 
 3980000    0.6170158   -8.6593409    586.91784    0.0122889  0.011276981            2 
 3981000   0.61004671   -8.6649684    587.28347  0.012293466  0.011272899            2 
 3982000   0.61631654   -8.6679974    586.30572  0.012269917  0.011268809            3 
 3983000   0.60164953   -8.6503917    587.14569  0.012284411  0.011264718            4 
 3984000   0.60781454   -8.6595895    586.43463  0.012266454  0.011260634            3 
 3985000    0.6324388    -8.656864    586.54211  0.012265623  0.011256551            2 
 3986000   0.60230018   -8.6718135    586.31479  0.012257794  0.011252467            4 
 3987000   0.61431707   -8.6734182    586.07762  0.012249762  0.011248387            3 
 3988000   0.61667494   -8.7030135    585.89633  0.012242902  0.011244308            4 
 3989000   0.60350123   -8.6881848    586.86905  0.012260154   0.01124023            4 
 3990000   0.61635155   -8.6578506    586.19866   0.01224308  0.011236154            2 
 3991000   0.61009365   -8.6779787    585.50804  0.012225592  0.011232082            4 
 3992000   0.61218271   -8.6853791    586.03516  0.012233533  0.011228014            3 
 3993000   0.62223953   -8.6535115    585.54618  0.012220264  0.011223949            4 
 3994000   0.61296467   -8.6513183    586.59527  0.012239093  0.011219885            4 
 3995000   0.61253224   -8.6625936    585.69156  0.012217179  0.011215825            6 
 3996000   0.60636095   -8.6628376    586.01562   0.01222088  0.011211759            4 
 3997000    0.6107116   -8.6904075     585.7698  0.012212697    0.0112077            2 
 3998000   0.61188034   -8.6632199    586.49151  0.012224685  0.011203643            5 
 3999000   0.60691328   -8.6717073    586.39021  0.012219518   0.01119959            5 
 4000000   0.62090964   -8.6765288    584.42915  0.012175607  0.011195533            3 
 4001000   0.62236451    -8.691549    585.13994  0.012187369   0.01119148            3 
 4002000   0.60868839   -8.6856347    587.00303  0.012223118  0.011187422            2 
 4003000   0.60984187   -8.6803289    586.32602  0.012205971  0.011183374            2 
 4004000   0.62122057   -8.6705973    586.14475   0.01219915  0.011179325            2 
 4005000    0.6139497   -8.6797147     586.4142   0.01220171  0.011175281            5 
 4006000   0.61489729    -8.674589    586.59607  0.012202448  0.011171238            3 
 4007000   0.61869834    -8.666226    584.81999  0.012162466  0.011167197            4 
 4008000   0.60699607   -8.6590911    586.64398  0.012197355  0.011163155            3 
 4009000   0.61847783   -8.6667513    586.56912  0.012192756  0.011159118            3 
 4010000   0.61091954    -8.680746    585.42638  0.012165968  0.011155087            4 
 4011000   0.59757466   -8.6778371    586.46739  0.012184563  0.011151051            2 
 4012000   0.61625494   -8.6827415    585.56571  0.012162797  0.011147017            2 
 4013000   0.59067297   -8.6758972    586.32896  0.012175616  0.011142987            2 
 4014000   0.62669196    -8.680216    585.74585  0.012160477   0.01113896            3 
 4015000   0.61220021   -8.6733498    586.00075  0.012162739  0.011134922            5 
 4016000   0.60737584   -8.6625883     586.7834   0.01217595  0.011130897            1 
 4017000   0.61891548   -8.6482856    586.19694  0.012160753   0.01112687            4 
 4018000   0.61211511   -8.6796192    585.63714  0.012146116  0.011122841            2 
 4019000    0.6145268   -8.6663272    586.46933  0.012160349  0.011118817            2 
 4020000   0.61356274   -8.7010674    586.08797  0.012149419  0.011114801            3 
 4021000   0.60451486   -8.6855985    586.06326  0.012145885   0.01111078            3 
 4022000   0.62309511   -8.6807979     585.6116  0.012133507  0.011106758            5 
 4023000   0.59334971   -8.6838535    586.23513  0.012143407  0.011102738            4 
 4024000    0.6119835   -8.6774927     585.9936  0.012135388  0.011098717            4 
 4025000   0.62265136   -8.6819441    586.46132  0.012142056  0.011094698            4 
 4026000   0.62355308   -8.6637795    585.89122   0.01212724  0.011090683            3 
 4027000   0.61306577    -8.685459    586.19345  0.012130483   0.01108667            2 
 4028000   0.59987156   -8.6976727    585.12213  0.012105307  0.011082653            3 
 4029000   0.60182421   -8.6999339    587.32129  0.012147789  0.011078642            5 
 4030000   0.60556472   -8.6803425    585.90407  0.012115469  0.011074629            3 
 4031000   0.60453334    -8.693998    585.65851  0.012107387  0.011070626            3 
 4032000   0.61297214   -8.6943222    586.69133   0.01212573  0.011066615            5 
 4033000    0.5993696    -8.685431     585.5192  0.012098504  0.011062609            4 
 4034000   0.60181901   -8.6887644    584.07475  0.012065666  0.011058611            2 
 4035000   0.61138723   -8.7099714    585.56924  0.012093541   0.01105461            5 
 4036000   0.61295806   -8.6707028    585.20519  0.012083028  0.011050613            4 
 4037000   0.60204707     -8.68222    585.65034  0.012089223  0.011046619            2 
 4038000   0.60625745   -8.6864284     585.3013  0.012079026  0.011042624            3 
 4039000   0.60390514   -8.6742565     585.7197  0.012084668  0.011038635            2 
 4040000   0.60904623   -8.6732598    586.10045  0.012089531   0.01103465            3 
 4041000   0.61320226   -8.6964203    586.30568  0.012090771  0.011030665            4 
 4042000   0.61011384    -8.710357     585.4355   0.01206984  0.011026681            3 
 4043000   0.61327684   -8.6965473    584.34124    0.0120443  0.011022697            2 
 4044000   0.59601943   -8.6876417    586.10084  0.012077581  0.011018719            4 
 4045000   0.60559077   -8.6912583    586.97843  0.012092675  0.011014739            2 
 4046000   0.60810969   -8.6836314    585.43679  0.012057934  0.011010759            3 
 4047000   0.60655405   -8.6737475    585.35864  0.012053345  0.011006791            4 
 4048000   0.59183224   -8.6818772    586.51845  0.012074243  0.011002811            4 
 4049000    0.6137299    -8.683357    586.72971  0.012075609  0.010998835            3 
 4050000   0.60899545   -8.6792386    586.56688  0.012069277  0.010994863            2 
 4051000   0.61176614   -8.6756509     586.2304  0.012059376  0.010990896            5 
 4052000   0.60122905   -8.6737452    586.69696  0.012065995  0.010986932            3 
 4053000   0.60721037   -8.6745636    586.78275  0.012064782  0.010982968            2 
 4054000   0.61065952   -8.6765876    585.38191  0.012033011  0.010979007            8 
 4055000   0.59575236   -8.6838563    586.11923  0.012045196  0.010975043            1 
 4056000   0.61633274    -8.682905     585.2842   0.01202507  0.010971079            3 
 4057000   0.60549393   -8.7045688    586.52801  0.012047654  0.010967122            5 
 4058000   0.60070666   -8.6856865    585.59675  0.012025562  0.010963163            3 
 4059000   0.59804834    -8.635556    585.55309  0.012021703  0.010959208            1 
 4060000   0.58797014   -8.6698319    585.56153  0.012018915  0.010955252            3 
 4061000   0.60436651   -8.6717564    586.11283  0.012027268  0.010951311            4 
 4062000    0.6024675   -8.6922272    585.64684  0.012014747  0.010947359            2 
 4063000   0.60428825    -8.679569    586.67174  0.012032811  0.010943409            3 
 4064000   0.59793177    -8.675833    586.58914  0.012028157  0.010939463            2 
 4065000   0.58637424   -8.6659104    586.37814  0.012020872  0.010935517            2 
 4066000   0.59724699   -8.6727295    585.59207  0.012001805  0.010931572            2 
 4067000   0.60296895   -8.7019626    585.11794  0.011989139   0.01092762            2 
 4068000   0.59957277   -8.6632489    585.95604   0.01200336  0.010923677            4 
 4069000   0.59958709   -8.6910676    585.05797  0.011982018  0.010919733            2 
 4070000   0.60367599   -8.7000444    585.03512  0.011978606  0.010915793            2 
 4071000   0.59670184   -8.6668197     586.1391  0.011998262  0.010911852            3 
 4072000   0.58737409   -8.7082372    585.56284  0.011983522  0.010907913            7 
 4073000   0.59656797   -8.7010183    585.53145  0.011979938  0.010903976            4 
 4074000   0.59557552   -8.7029082    583.84614  0.011942525  0.010900031            2 
 4075000   0.62483753   -8.6994505    585.43096  0.011972003  0.010896096            3 
 4076000   0.59760619   -8.7106308    584.46534  0.011949324  0.010892162            2 
 4077000   0.59882812   -8.6937143    584.49545  0.011947009  0.010888233            2 
 4078000   0.59160712   -8.7089482    585.77977  0.011970324  0.010884301            4 
 4079000   0.60217324   -8.6965445    586.47399  0.011981572  0.010880378            2 
 4080000   0.61130479   -8.7029274    585.64134  0.011961629   0.01087645            2 
 4081000   0.60479355   -8.7206216    585.83371  0.011962626   0.01087252            2 
 4082000   0.60680071   -8.6787577     585.0307  0.011943302  0.010868599            2 
 4083000   0.60042619   -8.6793878    585.28428  0.011945552  0.010864677            2 
 4084000   0.59378209   -8.6840114    585.54688  0.011947986  0.010860759            2 
 4085000   0.59375573   -8.7077238    585.78754   0.01194997  0.010856841            2 
 4086000   0.58893675   -8.6855217    585.80101   0.01194732   0.01085292            4 
 4087000   0.59708591   -8.7036781     585.0188  0.011928448  0.010849001            2 
 4088000   0.59835009   -8.7157381    584.67117  0.011918444  0.010845087            3 
 4089000   0.60096629   -8.6912717    583.77331  0.011897231  0.010841174            3 
 4090000   0.59437321   -8.7138272    584.25231  0.011904081  0.010837264            5 
 4091000   0.60265805   -8.7023615    585.06812   0.01191779   0.01083335           13 
 4092000   0.58769341   -8.7048959    585.21764  0.011917922  0.010829445            2 
 4093000   0.59720778   -8.6989056    584.87344  0.011908002  0.010825541            3 
 4094000   0.59360968   -8.7187438    584.95213  0.011906695  0.010821635            2 
 4095000   0.58875704   -8.6838291    585.06051  0.011905993  0.010817728            2 
 4096000   0.60686363   -8.7159083    585.11654  0.011904227  0.010813821            2 
 4097000    0.5987489   -8.6950726    584.63394  0.011891505  0.010809925            5 
 4098000   0.59649909   -8.6759688     585.4183  0.011904553  0.010806025            2 
 4099000   0.59973092   -8.7112832    585.17188  0.011896639  0.010802126            4 
 4100000   0.60123666   -8.7014466    585.33365  0.011897025  0.010798227            2 
 4101000   0.59638011   -8.7126848    584.88082  0.011884923  0.010794333            2 
 4102000   0.60169372   -8.6793935    585.28108  0.011890157  0.010790442            5 
 4103000    0.5889155   -8.6836947    585.54542  0.011892628   0.01078655            3 
 4104000   0.59351775   -8.7048835    585.98279  0.011898611  0.010782661            2 
 4105000   0.58356165   -8.7089092    584.56739  0.011866979  0.010778774            3 
 4106000   0.58552008   -8.7070204    584.90945  0.011871031  0.010774889            3 
 4107000   0.58466979   -8.7012414    585.09138  0.011871832  0.010771005            2 
 4108000   0.59489554   -8.7071179    585.94303  0.011886219   0.01076712            2 
 4109000   0.59217682   -8.6825402    585.94186  0.011883302  0.010763239            2 
 4110000   0.60364622   -8.7060315    585.26022   0.01186659  0.010759355            2 
 4111000   0.60212839   -8.6999128    585.08535  0.011860159  0.010755473            2 
 4112000   0.59649494   -8.7062198    584.08953  0.011837093   0.01075159            5 
 4113000    0.5933459   -8.7110108    584.59387  0.011844434  0.010747708            2 
 4114000   0.60102257   -8.7273246    584.85893  0.011846924  0.010743823            5 
 4115000   0.59918442   -8.6999008    584.98362   0.01184657  0.010739946            3 
 4116000   0.59482501   -8.7159586    584.21158  0.011828061  0.010736067            2 
 4117000   0.60222408   -8.7076015    585.55838  0.011852449  0.010732189            2 
 4118000   0.59458866   -8.6958925     584.4709  0.011827564  0.010728311            2 
 4119000     0.577463   -8.7115127    584.90651  0.011833505  0.010724433            4 
 4120000   0.58982524   -8.6953575    585.43864  0.011841396  0.010720561            1 
 4121000   0.58859306   -8.7078044    585.19997  0.011833697   0.01071669            1 
 4122000   0.61017494   -8.7134511    584.81776  0.011823099  0.010712817            1 
 4123000   0.58493626   -8.7050964     584.4552  0.011812903  0.010708949            2 
 4124000   0.59388135   -8.6857271    584.30072  0.011806917  0.010705083            3 
 4125000   0.59161453   -8.7042658    584.41819  0.011806428  0.010701217            1 
 4126000   0.57861302   -8.7235119    584.48598  0.011804936  0.010697356            5 
 4127000   0.59248946   -8.7181667    584.85898  0.011809607  0.010693494            3 
 4128000   0.57711915   -8.7276189    584.42941  0.011798074  0.010689636            4 
 4129000    0.5878055   -8.7111707    584.82679  0.011803237  0.010685783            3 
 4130000   0.60209852   -8.7166746    584.81008  0.011800042  0.010681926            3 
 4131000   0.58984422   -8.7005393    585.14091  0.011803859  0.010678073            2 
 4132000   0.59534431   -8.6917013    584.90858  0.011796317  0.010674224            3 
 4133000   0.58851932   -8.7174536    584.53952  0.011786022  0.010670372            3 
 4134000   0.59209336   -8.7137411     585.5244  0.011803024  0.010666525            1 
 4135000   0.59296941   -8.7059094    584.46888  0.011778897  0.010662681            3 
 4136000   0.58767138   -8.7120809    584.63453  0.011779387  0.010658834            2 
 4137000   0.59215988   -8.7246779    584.73117  0.011778486  0.010654993            3 
 4138000   0.59440515   -8.7185572    584.19316  0.011764805  0.010651156            2 
 4139000   0.59607394   -8.7276603    583.67504  0.011751531  0.010647316            2 
 4140000   0.57958265   -8.7085805    585.14346   0.01177825   0.01064348            3 
 4141000   0.58827079     -8.71561    585.38717   0.01178031  0.010639643            3 
 4142000   0.57882393   -8.6979143     584.8373  0.011766403  0.010635806            5 
 4143000   0.59901322   -8.7104854    583.74993  0.011741691  0.010631968            3 
 4144000   0.60503078   -8.7072458    585.24573  0.011768938  0.010628133            5 
 4145000   0.58589277   -8.7312454    584.49667  0.011751039  0.010624305            2 
 4146000   0.59013052   -8.7040708      584.407  0.011746402   0.01062048            2 
 4147000   0.58982081   -8.7343149    584.57338  0.011746913  0.010616651            1 
 4148000   0.57954895   -8.7340136    585.61317   0.01176497  0.010612824            2 
 4149000    0.5832483   -8.7176445    585.39376  0.011757728     0.010609            4 
 4150000   0.59439242   -8.7287177    584.81519  0.011743277  0.010605184            2 
 4151000      0.58729   -8.7078336     584.6015  0.011736158  0.010601362            3 
 4152000   0.59195775   -8.7139241    585.20302  0.011745404  0.010597548            4 
 4153000   0.59372793   -8.7271948    584.32719  0.011725002  0.010593728            3 
 4154000   0.58368024   -8.7466618    585.65408  0.011748798  0.010589911            2 
 4155000   0.59265066   -8.7205014    584.99299  0.011732711    0.0105861            1 
 4156000   0.59805052   -8.7058242    584.25112  0.011715013  0.010582289            5 
 4157000   0.57694173   -8.7296208    585.39333  0.011735092  0.010578485            2 
 4158000    0.5952069   -8.7143687     584.8443  0.011721266  0.010574682            2 
 4159000   0.58293828   -8.7269778    584.71687  0.011715895  0.010570878            2 
 4160000   0.58639238   -8.7226133    585.02933  0.011719338  0.010567076            3 
 4161000   0.59083786   -8.7281753    584.41602  0.011704238  0.010563273            1 
 4162000    0.5965285   -8.7163161    585.07395  0.011714599  0.010559471            2 
 4163000    0.5997906   -8.7154341    585.00202  0.011710346  0.010555669            1 
 4164000   0.58614719   -8.7198422    584.50834  0.011697653   0.01055187            2 
 4165000   0.59095074   -8.7491148    584.05458  0.011685766  0.010548072            1 
 4166000   0.58393858    -8.705908    585.29056  0.011707684  0.010544276            2 
 4167000   0.58924489   -8.7191805    585.73214  0.011713706  0.010540482            2 
 4168000   0.59176181   -8.7026923     584.0151  0.011676566   0.01053669            2 
 4169000   0.58719546   -8.7194467    583.90655  0.011671595  0.010532896            4 
 4170000   0.58255214   -8.7076258    582.91316  0.011648944  0.010529102            3 
 4171000   0.58442636    -8.712267    584.41235  0.011676104   0.01052531            2 
 4172000   0.58392036   -8.7441172    584.73219  0.011679694  0.010521522            2 
 4173000   0.59381872   -8.7244265    584.45546  0.011671369  0.010517737            1 
 4174000   0.58670747   -8.7384295    583.91758  0.011657834  0.010513953            2 
 4175000   0.59252952   -8.7457276    584.61699  0.011669002  0.010510174            2 
 4176000   0.57572024   -8.7457325    585.18002  0.011677443  0.010506392            4 
 4177000   0.57553269   -8.7192609    585.20296  0.011675105  0.010502617            5 
 4178000   0.58226313   -8.7398098    584.10955  0.011650502  0.010498843            2 
 4179000   0.59500715   -8.7226271     584.4228   0.01165396  0.010495066            2 
 4180000   0.58504758   -8.7284315    585.30631  0.011668786  0.010491293            3 
 4181000   0.58430816   -8.7340892    584.82135  0.011656329   0.01048753            2 
 4182000   0.57653711   -8.7195485     584.3165  0.011643482  0.010483767            4 
 4183000   0.58586767   -8.7299465    584.61923  0.011646729  0.010480004            2 
 4184000   0.58431216   -8.7202558    584.93113  0.011650158  0.010476242            3 
 4185000   0.58083957   -8.7178734    584.58262  0.011640435  0.010472479            5 
 4186000   0.59221025   -8.7222421    584.32486  0.011632522  0.010468723            5 
 4187000   0.58011128   -8.7342231    585.49694  0.011653072  0.010464964            2 
 4188000   0.56863964   -8.7243135    584.12167  0.011622924  0.010461209            4 
 4189000   0.57707518   -8.7322285    584.82991  0.011634239  0.010457453            2 
 4190000   0.58937749   -8.7383757    583.79146  0.011610809  0.010453696            5 
 4191000   0.58111669   -8.7300916    583.30397  0.011598345   0.01044994            2 
 4192000   0.58003149   -8.7080347     583.8237   0.01160591  0.010446186            4 
 4193000   0.58457875   -8.7481977    584.63807  0.011619327  0.010442434            3 
 4194000   0.57585825   -8.7346407     584.6158  0.011616114  0.010438683            5 
 4195000   0.56657572   -8.7284173    584.77252  0.011616458  0.010434935            4 
 4196000   0.58325968   -8.7356708    584.56581  0.011609585  0.010431188            5 
 4197000   0.58466435   -8.7379334     584.1733  0.011599025  0.010427443            2 
 4198000   0.57529342   -8.7184784    585.16198  0.011615888  0.010423702            8 
 4199000   0.58116398   -8.7580942    583.62387  0.011582597  0.010419959            3 
 4200000   0.57343921   -8.7442292    584.02615   0.01158782  0.010416219            5 
 4201000   0.58834074   -8.7273579    584.14503   0.01158742  0.010412484            3 
 4202000   0.58562686   -8.7422581    584.51408  0.011591982  0.010408748            6 
 4203000   0.58268765   -8.7477227    584.49196  0.011588785  0.010405014            3 
 4204000   0.58951241   -8.7465404    584.26958   0.01158162   0.01040128            4 
 4205000    0.5883315   -8.7337725    584.57379  0.011584895  0.010397544            4 
 4206000   0.57065617    -8.744834    584.00649    0.0115709  0.010393808            2 
 4207000   0.58375389   -8.7404823    584.23514  0.011572679  0.010390081            1 
 4208000   0.57608998   -8.7277562    584.94004  0.011583889  0.010386353            3 
 4209000    0.5870092   -8.7481112    584.26585  0.011567788  0.010382622            3 
 4210000   0.57865509   -8.7249963    583.59122  0.011551687  0.010378897            4 
 4211000   0.58453722   -8.7358156    584.00772  0.011557186  0.010375172            2 
 4212000   0.57608612   -8.7485721    584.56519  0.011565471  0.010371449            3 
 4213000   0.56528606   -8.7472401     584.2796  0.011557077  0.010367731            3 
 4214000     0.583876   -8.7379207    585.54855  0.011579429  0.010364014            4 
 4215000   0.58245467   -8.7276011    583.92614  0.011544605  0.010360299            3 
 4216000   0.58138439   -8.7343036    584.14546  0.011546202  0.010356583            3 
 4217000    0.5794477   -8.7490664    583.66129  0.011533896  0.010352865            6 
 4218000    0.5852629   -8.7243315    583.69417  0.011531811  0.010349156            3 
 4219000   0.56080586   -8.7304785    584.27817  0.011540613  0.010345444            3 
 4220000   0.56964422   -8.7208733    584.09484  0.011534258  0.010341734            4 
 4221000   0.58215878   -8.7285939    583.62616  0.011522273  0.010338025            4 
 4222000   0.57834841   -8.7326044     584.0417  0.011527745  0.010334324            3 
 4223000    0.5695545      -8.7381    583.63403  0.011516971   0.01033062            5 
 4224000   0.58323412   -8.7319122    583.95527  0.011520582   0.01032692            2 
 4225000   0.57499871   -8.7172619    584.53033  0.011529198  0.010323219            2 
 4226000   0.58112709    -8.758727    582.77297  0.011491816  0.010319522            5 
 4227000   0.57436925   -8.7363288    583.72905  0.011507946  0.010315829            5 
 4228000   0.56958218   -8.7388646     584.5893   0.01152218  0.010312136            2 
 4229000   0.57186822   -8.7338152    585.59036  0.011539181  0.010308443            2 
 4230000   0.57295373   -8.7470528    583.55242  0.011496305  0.010304751            5 
 4231000    0.5806244   -8.7518264    583.85944  0.011499635   0.01030106            2 
 4232000   0.56377851   -8.7230663      583.752  0.011494801  0.010297368            2 
 4233000   0.57976462   -8.7509201    583.25158  0.011482234  0.010293684            3 
 4234000   0.57283668   -8.7541261    583.69773  0.011488304  0.010289999            6 
 4235000   0.57845992   -8.7476921    583.34986  0.011478746  0.010286316            3 
 4236000   0.56233226   -8.7505124    584.13776  0.011491536  0.010282634            2 
 4237000    0.5658936   -8.7592475     584.1585  0.011489232  0.010278952            2 
 4238000   0.56400076   -8.7439992    583.85882  0.011480628  0.010275269            4 
 4239000   0.56490571   -8.7330684    584.09809  0.011482623  0.010271587            5 
 4240000     0.580736    -8.739724    584.34802  0.011484827   0.01026791            2 
 4241000    0.5970487   -8.7412851    584.49704  0.011485048  0.010264236            5 
 4242000   0.58273383   -8.7471991    584.32595  0.011478979  0.010260563            2 
 4243000   0.58139214   -8.7377262    584.19518  0.011473705  0.010256891            1 
 4244000   0.56602799   -8.7342901    584.17594  0.011470624   0.01025322            2 
 4245000   0.57863013   -8.7433705    584.61311  0.011476504  0.010249549            3 
 4246000   0.56837366    -8.739208    584.60223  0.011473587  0.010245882            3 
 4247000   0.57663512   -8.7339605    584.48575    0.0114686  0.010242216            2 
 4248000   0.57338705   -8.7527587    584.17958  0.011459895  0.010238553            3 
 4249000   0.55834198   -8.7318979    584.96804  0.011472661  0.010234888            2 
 4250000    0.5714259   -8.7584811    583.67973  0.011444701  0.010231229            3 
 4251000   0.58032578   -8.7313068    583.48152  0.011438123  0.010227571            2 
 4252000   0.57520056   -8.7137208    583.82747  0.011442213  0.010223916            3 
 4253000   0.56899824    -8.739724    584.13118  0.011445473  0.010220262            3 
 4254000   0.58370794   -8.7407039    583.99572  0.011440129   0.01021661            2 
 4255000   0.57700507   -8.7450611    583.82172  0.011434033   0.01021296            2 
 4256000   0.58004232   -8.7398194    583.81959  0.011431305  0.010209312            2 
 4257000   0.56558366   -8.7551431    583.60914    0.0114245  0.010205664            5 
 4258000   0.56456515   -8.7448028    583.80782  0.011425705  0.010202016            5 
 4259000   0.56385654   -8.7500665    584.45307  0.011435647  0.010198368            5 
 4260000   0.56693399   -8.7558296    584.12889  0.011426621  0.010194721            4 
 4261000   0.56005906   -8.7554474    583.80152  0.011417537  0.010191075            3 
 4262000   0.56886099   -8.7459882    583.59755   0.01141087  0.010187436            2 
 4263000     0.559928   -8.7402065     584.2966  0.011421859  0.010183793            2 
 4264000   0.58390641    -8.740942    583.91041  0.011411632  0.010180151            3 
 4265000   0.56151201   -8.7432093    582.93001  0.011389801  0.010176511            5 
 4266000   0.56360162   -8.7562141    583.31587  0.011394668  0.010172869            4 
 4267000   0.57779479   -8.7812386    583.43549  0.011394334  0.010169234            3 
 4268000   0.56283237   -8.7351264    583.92884  0.011401297  0.010165598            3 
 4269000   0.57651352   -8.7313946    584.19275  0.011403778  0.010161968            6 
 4270000   0.56970334   -8.7660239     584.0391  0.011398109  0.010158339            3 
 4271000   0.55934647   -8.7579295    583.66929  0.011388225  0.010154706            4 
 4272000   0.57565234   -8.7520069    583.42066  0.011380709  0.010151077            3 
 4273000   0.55260187    -8.759157    583.64473  0.011382415   0.01014745            3 
 4274000   0.56713875   -8.7424241    584.37023  0.011393898  0.010143821            3 
 4275000   0.56592712   -8.7535167     583.5709  0.011375651  0.010140198            3 
 4276000   0.56584725   -8.7536541    582.74125  0.011356822  0.010136574            3 
 4277000   0.56552224   -8.7612303    583.45206  0.011368016  0.010132951            2 
 4278000    0.5803484   -8.7496064    583.29406  0.011362281  0.010129329            2 
 4279000   0.55882412     -8.74391    583.37576  0.011361217  0.010125711            3 
 4280000   0.55884831   -8.7439594    583.55605  0.011362073  0.010122094            2 
 4281000   0.56847313   -8.7654116    584.06933   0.01136941   0.01011848            2 
 4282000   0.54932243   -8.7504552    583.16862  0.011349226  0.010114867            3 
 4283000   0.56710626   -8.7492269    582.40383  0.011331696  0.010111253            3 
 4284000   0.56474638   -8.7535326    584.38122  0.011367515  0.010107641            3 
 4285000   0.55791186   -8.7413369    582.82632  0.011334623   0.01010403            5 
 4286000   0.55997846   -8.7603194    583.09388  0.011337181  0.010100424            4 
 4287000   0.57979805   -8.7641377    583.53469  0.011343105  0.010096819            3 
 4288000   0.57016827    -8.755828    584.43485  0.011357953  0.010093217            3 
 4289000   0.56295818   -8.7434625    583.89378  0.011344793  0.010089617            5 
 4290000   0.56666925   -8.7638549    582.84324  0.011321741  0.010086018            3 
 4291000   0.57614333   -8.7544851    583.18463  0.011325733  0.010082418            2 
 4292000   0.56214218   -8.7564216     584.8443  0.011355318  0.010078827            3 
 4293000   0.56135746   -8.7514937    583.07756  0.011318378  0.010075235            3 
 4294000   0.56695451   -8.7593038      583.995  0.011333547  0.010071643            4 
 4295000    0.5500577   -8.7712334    583.83344  0.011327773  0.010068054            5 
 4296000   0.56793196   -8.7445007     584.1874  0.011332003  0.010064463            2 
 4297000   0.55870462    -8.760966    584.53692  0.011336144  0.010060873            3 
 4298000   0.55969046   -8.7586926    583.32896  0.011310085  0.010057289            1 
 4299000   0.57166135   -8.7664671    584.60116  0.011332115   0.01005371            4 
 4300000    0.5649446   -8.7624986    584.08087  0.011319397  0.010050125            2 
 4301000   0.57280591   -8.7574076    584.57816    0.0113264  0.010046544            1 
 4302000   0.56303764   -8.7604686    583.68083  0.011306385  0.010042963            5 
 4303000   0.57070162   -8.7614733    583.65537  0.011303265  0.010039385            2 
 4304000   0.56024454   -8.7643795    583.16714  0.011291185  0.010035799            2 
 4305000   0.56137631    -8.783639    582.42414   0.01127418  0.010032216            3 
 4306000   0.56054816   -8.7755303    582.40723  0.011271235  0.010028637            3 
 4307000    0.5535254   -8.7580832     583.2624  0.011285164   0.01002506            4 
 4308000    0.5547958   -8.7621569    582.79264  0.011273457  0.010021484            2 
 4309000   0.55465914   -8.7620741    582.62263  0.011267553  0.010017906            3 
 4310000   0.56054284   -8.7515568    583.17825  0.011275681   0.01001433            3 
 4311000   0.55308124   -8.7633014    583.28592  0.011275147  0.010010762            3 
 4312000   0.55840961   -8.7658805    583.37623  0.011274278  0.010007196            5 
 4313000   0.55029581   -8.7597411    583.22327  0.011268708   0.01000363            4 
 4314000   0.56790203   -8.7702553    583.93181  0.011279783  0.010000061            4 
 4315000   0.57499115   -8.7768468    582.93773  0.011257971 0.0099964992            5 
 4316000   0.56068615   -8.7697983    584.10353  0.011277872 0.0099929374            4 
 4317000   0.56029205   -8.7620672    582.76653   0.01124945 0.0099893757            2 
 4318000   0.55995233   -8.7763835    583.66239  0.011264134 0.0099858155            2 
 4319000   0.55990964   -8.7638532    582.61537  0.011241325 0.0099822546            1 
 4320000   0.55103632   -8.7784141    582.94172  0.011245018 0.0099786975            1 
 4321000   0.55116215   -8.7669214    583.64389  0.011255957 0.0099751411            5 
 4322000   0.54624745   -8.7527873    582.76581  0.011236422 0.0099715893            3 
 4323000   0.54724538   -8.7779252    582.90928  0.011236589 0.0099680362            2 
 4324000   0.56189166   -8.7530183    583.34143  0.011242319 0.0099644893            2 
 4325000   0.55397277   -8.7507295    582.77328  0.011228772 0.0099609386            1 
 4326000   0.55241798   -8.7533405    583.80361  0.011246024 0.0099573886            3 
 4327000   0.56509381   -8.7624498    582.78315  0.011223772 0.0099538375            1 
 4328000   0.55716329   -8.7763861    582.53483  0.011216398   0.00995029            3 
 4329000    0.5598306   -8.7972413    584.00411   0.01124209 0.0099467442            2 
 4330000   0.55721334   -8.7785619    584.35399  0.011246228  0.009943201            3 
 4331000   0.55729993   -8.7867421    583.92751  0.011235425 0.0099396616            3 
 4332000   0.55536925   -8.7540004    582.67892  0.011208813 0.0099361199            5 
 4333000   0.56728861   -8.7809117    583.76664  0.011227145 0.0099325809            4 
 4334000   0.56036427   -8.7597273    582.36105  0.011197528 0.0099290458            2 
 4335000   0.55748945   -8.7791064    583.42252   0.01121535 0.0099255084            2 
 4336000    0.5528602   -8.7685838    583.02684  0.011205159 0.0099219737            3 
 4337000    0.5517205   -8.7700869    583.79469  0.011217329 0.0099184362            2 
 4338000   0.55622086   -8.7828518    582.77599  0.011195174 0.0099149047            3 
 4339000   0.55377193    -8.778685    583.03585  0.011197585 0.0099113742            2 
 4340000   0.55030895   -8.7678406    583.01102  0.011194528 0.0099078435            2 
 4341000   0.55665359   -8.7807988    583.07524  0.011193182 0.0099043174            4 
 4342000   0.56115704   -8.7789121    583.28662  0.011194661 0.0099007906            3 
 4343000   0.55344853   -8.7768813    583.73485  0.011200684 0.0098972644            3 
 4344000   0.55865072   -8.7873894    583.17045  0.011187278  0.009893739            1 
 4345000   0.54645368   -8.7774098    582.92065  0.011179913 0.0098902167            3 
 4346000   0.55538402   -8.7665968    583.02277  0.011179298 0.0098866979            3 
 4347000   0.55361222   -8.7811861    583.41112  0.011184171 0.0098831792            4 
 4348000   0.55061999   -8.7746684    582.40898  0.011162392  0.009879664            2 
 4349000   0.55138253   -8.7738618    583.06966  0.011172485 0.0098761493            5 
 4350000   0.55228584   -8.7753149    583.08414  0.011170194 0.0098726351            2 
 4351000   0.54066991   -8.7857114    583.46351  0.011174893  0.009869122            2 
 4352000   0.54104057   -8.7827952    582.55519  0.011154932 0.0098656124            3 
 4353000   0.56790745   -8.7890702    582.30045  0.011147493 0.0098621022            2 
 4354000   0.55121564   -8.7802123    582.89599  0.011156331 0.0098585969            2 
 4355000   0.56151447   -8.7768449    582.62429   0.01114857 0.0098550911            2 
 4356000   0.54961602   -8.7824857    582.45805  0.011142831 0.0098515859            1 
 4357000   0.55715624   -8.7692689    583.27871  0.011155969 0.0098480834            1 
 4358000   0.55728151   -8.7917889    582.57536   0.01113996 0.0098445828            1 
 4359000   0.54077201   -8.7883429    583.46693  0.011154449 0.0098410826            2 
 4360000   0.55528707   -8.7588501     583.2542  0.011147825 0.0098375849            2 
 4361000   0.56302956   -8.7780569    583.10744  0.011142464  0.009834087            2 
 4362000   0.55334331   -8.7762754    582.84237  0.011134846 0.0098305933            2 
 4363000   0.54822436   -8.7877362    581.90223  0.011114337 0.0098270995            2 
 4364000   0.57378543    -8.766832    583.19135  0.011136407  0.009823606            3 
 4365000    0.5510137   -8.7760714    583.61354  0.011141916 0.0098201166            4 
 4366000   0.55570093   -8.7979325    582.85327  0.011124852 0.0098166276            2 
 4367000    0.5591391   -8.7918527    582.84391  0.011122126 0.0098131371            2 
 4368000   0.56523194   -8.7892365    582.43158  0.011111714 0.0098096518            4 
 4369000   0.54067553   -8.7748259    582.51867  0.011110831  0.009806165            2 
 4370000   0.54877771   -8.7927415    582.67516  0.011111273 0.0098026796            4 
 4371000   0.55005991   -8.7697864    581.98004  0.011095478    0.0097992            4 
 4372000   0.55380342   -8.7701129    581.85421  0.011090542 0.0097957193            2 
 4373000   0.55289694   -8.7926316    583.00958  0.011110023 0.0097922373            4 
 4374000   0.55091378   -8.7791156    583.51987  0.011117205  0.009788762            4 
 4375000   0.55219048   -8.7950027    582.51519  0.011095527  0.009785283            2 
 4376000   0.54940673   -8.7798993    581.98738  0.011082941 0.0097818051            1 
 4377000   0.54970455    -8.790911    583.33268  0.011106022 0.0097783314            1 
 4378000   0.55593491   -8.7891656    582.45969  0.011086868 0.0097748572            2 
 4379000   0.54618851   -8.8002613    582.99967  0.011094612 0.0097713828            3 
 4380000   0.56147029   -8.7794916     582.8007  0.011088293 0.0097679148            4 
 4381000   0.55773403   -8.7912396    581.83827  0.011067455 0.0097644416            2 
 4382000   0.54389592   -8.7970462    583.37348  0.011094125 0.0097609672            3 
 4383000   0.54689179   -8.8046996    583.12126  0.011086799 0.0097574992            2 
 4384000   0.55035596   -8.7900554    582.09827  0.011064824 0.0097540343            2 
 4385000   0.55290457   -8.7861326    582.90251  0.011077585 0.0097505709            2 
 4386000   0.55332012   -8.7669104    581.92328  0.011056454 0.0097471075            4 
 4387000   0.53993082   -8.7879008    582.88826  0.011072264 0.0097436489            2 
 4388000   0.55957433   -8.7964906    581.52782  0.011043904 0.0097401834            2 
 4389000   0.55159623   -8.7964445      582.435  0.011058612 0.0097367235            2 
 4390000   0.53845852   -8.8159024    582.34234  0.011054334 0.0097332631            3 
 4391000   0.54051061   -8.7828718    582.13731  0.011047926 0.0097298081            4 
 4392000   0.56107636   -8.7883485    583.19959  0.011065566 0.0097263586            2 
 4393000    0.5622802   -8.7789889     583.3507  0.011065914 0.0097229081            2 
 4394000   0.55201312   -8.8084079    581.70464  0.011032177 0.0097194555            3 
 4395000   0.54920592    -8.807042    582.01432  0.011035539 0.0097160043            2 
 4396000   0.54735868    -8.786447     582.6846  0.011045735 0.0097125547            2 
 4397000   0.54686563   -8.7985402    582.92312  0.011047743 0.0097091087            2 
 4398000    0.5324341   -8.8065867    583.17802  0.011050061 0.0097056651            2 
 4399000    0.5370924   -8.8042434    583.05741  0.011045264  0.009702219            2 
 4400000   0.54118052   -8.7958782    583.21844  0.011045804 0.0096987803            3 
 4401000   0.54968628   -8.7855296    582.29706  0.011025848 0.0096953445            1 
 4402000   0.54346868   -8.7928805    583.04223  0.011037449 0.0096919066            2 
 4403000   0.54172618   -8.7956806    581.95992  0.011014458 0.0096884708            1 
 4404000   0.56036437   -8.7952266    582.31556  0.011018687 0.0096850374            3 
 4405000   0.53790085   -8.7862307    582.65888   0.01102268 0.0096816066            7 
 4406000   0.54795237   -8.7799512    582.52603  0.011017666 0.0096781732            2 
 4407000    0.5561374   -8.7817381    583.02308  0.011024565 0.0096747413            5 
 4408000   0.54091604   -8.7903779    582.67903  0.011015559 0.0096713155            4 
 4409000   0.54186915   -8.7682981    582.71633  0.011013766 0.0096678854            3 
 4410000    0.5582707   -8.8006101    582.29751  0.011003354 0.0096644576            3 
 4411000   0.53574474   -8.8006376    582.50499   0.01100478 0.0096610291            1 
 4412000    0.5419013   -8.7908577    582.14263  0.010995441 0.0096576063            4 
 4413000   0.54845198   -8.7945328    581.58877  0.010982491 0.0096541817            2 
 4414000   0.54670517    -8.796347    582.86958  0.011004183 0.0096507634            3 
 4415000   0.53580128   -8.8099604    582.10095  0.010987183 0.0096473448            4 
 4416000   0.55630049   -8.8122677    582.53224  0.010992834 0.0096439247            2 
 4417000    0.5531933   -8.8034757    582.32011  0.010986343 0.0096405078            2 
 4418000   0.53968523   -8.8001784    582.25086   0.01098255 0.0096370919            3 
 4419000   0.54077165   -8.8089676    582.15073  0.010978176  0.009633678            5 
 4420000   0.54710934   -8.7963611    583.13225  0.010994198  0.009630264            3 
 4421000   0.52974455    -8.797948    582.50846  0.010979953 0.0096268495            3 
 4422000   0.53747691   -8.8041129    582.06993  0.010969206 0.0096234403            2 
 4423000   0.54831108   -8.8084978    583.15486  0.010987167 0.0096200297            3 
 4424000   0.54684276   -8.8035299    582.16766  0.010966088 0.0096166223            2 
 4425000   0.55073292   -8.8265342    582.09929  0.010962322 0.0096132176            5 
 4426000   0.54664371   -8.8138724    581.95161  0.010957064 0.0096098122            5 
 4427000   0.54504657   -8.7855725    582.63097  0.010967378 0.0096064155            4 
 4428000   0.53555049   -8.7971306    582.19746  0.010956742 0.0096030174            3 
 4429000   0.54938483   -8.8099637    582.46824  0.010959363 0.0095996183            3 
 4430000   0.55712623   -8.8110513    582.59687  0.010959309 0.0095962218            1 
 4431000   0.54421336   -8.8094937    584.16795  0.010986383 0.0095928295            5 
 4432000   0.53506884   -8.7892673     581.9784  0.010942735 0.0095894353            2 
 4433000   0.53810689   -8.7970283    581.63847  0.010933876 0.0095860431            5 
 4434000   0.55065979   -8.8094908      582.308  0.010943993 0.0095826553            3 
 4435000   0.56094926   -8.8026604    581.71539  0.010930391 0.0095792666            5 
 4436000   0.52842609   -8.8055074    582.47368  0.010942172 0.0095758786            4 
 4437000   0.54788662   -8.8094081    582.58331  0.010941764 0.0095724929            3 
 4438000    0.5356882   -8.7926848    581.75842   0.01092381 0.0095691117            5 
 4439000   0.55279475   -8.7940868    582.90526  0.010942879 0.0095657313            4 
 4440000   0.53598043   -8.8075084    582.25031  0.010928121 0.0095623517            3 
 4441000   0.54132662   -8.8123304    582.06514  0.010922186 0.0095589716            5 
 4442000   0.53867342    -8.794863    581.80013  0.010914756 0.0095555958            2 
 4443000    0.5428325   -8.7971724    583.08599  0.010936417  0.009552221            2 
 4444000   0.54148302   -8.8092477     582.6863  0.010926461 0.0095488445            6 
 4445000   0.53233186   -8.7858044    582.12927   0.01091356 0.0095454738            2 
 4446000   0.53212289   -8.8023379    582.63281  0.010920543 0.0095421035            1 
 4447000   0.54443022   -8.8092873    582.84358  0.010922037 0.0095387344            5 
 4448000   0.54698146   -8.7919075    582.95725  0.010921711 0.0095353695            2 
 4449000   0.54349783   -8.8054219     582.4232  0.010909253  0.009532004            1 
 4450000   0.54498798   -8.8087969    581.87043   0.01089645 0.0095286388            1 
 4451000   0.53306795   -8.7955212    582.39666  0.010903854 0.0095252719            2 
 4452000   0.53173184   -8.8146005    582.19702  0.010897668 0.0095219113            2 
 4453000   0.54041563   -8.7958851    582.16324  0.010894589 0.0095185506            2 
 4454000   0.52497284   -8.8108638    582.53343  0.010899069 0.0095151908            2 
 4455000    0.5317694   -8.8109083    583.10068  0.010907233 0.0095118339            2 
 4456000   0.54036939   -8.8100551    581.63077  0.010877296 0.0095084779            2 
 4457000   0.53441898   -8.8028454    582.06223  0.010882923 0.0095051245            3 
 4458000   0.53982223   -8.8028656    582.36431  0.010886128 0.0095017713            4 
 4459000   0.53932654   -8.8081683    582.32712  0.010882992 0.0094984194            6 
 4460000   0.53374521    -8.807815    581.31507  0.010861642  0.009495071            1 
 4461000   0.54018678   -8.7878617    582.90058  0.010888825 0.0094917243            3 
 4462000   0.52205855   -8.8076384    582.62314  0.010881203 0.0094883785            2 
 4463000    0.5356999    -8.789644    582.34626  0.010873595 0.0094850334            2 
 4464000   0.54519049   -8.8053822    583.20428  0.010887177 0.0094816944            2 
 4465000   0.51792696   -8.8028368    582.70319  0.010875386 0.0094783548            1 
 4466000   0.52769096   -8.7873219    582.05046  0.010860771 0.0094750184            2 
 4467000   0.53479826   -8.8118565    582.35803  0.010864078 0.0094716835            2 
 4468000   0.53769025   -8.8097606    582.22311   0.01085913  0.009468349            2 
 4469000   0.53455215   -8.8238314    582.93479  0.010869971 0.0094650149            3 
 4470000   0.53275393   -8.8099637    582.93853  0.010867609 0.0094616788            2 
 4471000   0.52065604   -8.7976311    582.99265  0.010866187 0.0094583472            5 
 4472000   0.54557192   -8.8036825    581.83483  0.010842181 0.0094550201            3 
 4473000   0.53735014   -8.7982359    583.31898  0.010867408 0.0094516944            3 
 4474000   0.54010418   -8.8092768    581.83883  0.010837409 0.0094483664            9 
 4475000   0.52862251   -8.7993831    582.22583  0.010842194 0.0094450409            1 
 4476000   0.54710711   -8.8048368    582.39135  0.010842854 0.0094417165            3 
 4477000    0.5354944   -8.8074108    582.05176  0.010834111 0.0094383967            2 
 4478000   0.53804497   -8.8035571    581.61321   0.01082353 0.0094350754            2 
 4479000   0.53221251   -8.8129639    583.30631  0.010852614 0.0094317562            1 
 4480000   0.55584461   -8.7986058    582.71882  0.010839264 0.0094284401            2 
 4481000   0.55258307    -8.790824    581.60494   0.01081613 0.0094251254            3 
 4482000   0.54094926   -8.8099729    581.57053  0.010813077 0.0094218129            2 
 4483000    0.5312113     -8.80294    582.57553  0.010829347 0.0094185015            2 
 4484000   0.53546269   -8.8058225     582.2382  0.010820662 0.0094151928            1 
 4485000   0.51805657   -8.8092789    583.18763   0.01083589 0.0094118819            8 
 4486000    0.5350187   -8.8016864    582.64776  0.010823446 0.0094085744            2 
 4487000   0.54792339   -8.8180196    581.97468  0.010808534 0.0094052659            3 
 4488000   0.53073546   -8.8342086    582.09543  0.010808367 0.0094019597            3 
 4489000   0.53232541   -8.7814892    583.08095  0.010824255 0.0093986553            2 
 4490000   0.54782304   -8.8010275    582.94261  0.010819276 0.0093953506            3 
 4491000   0.54480927   -8.8067985    581.77233  0.010795152 0.0093920494            2 
 4492000   0.54121214   -8.8100587    581.60683  0.010789678 0.0093887501            2 
 4493000   0.54370863   -8.8187595    582.70012  0.010807555 0.0093854494            4 
 4494000   0.52795541   -8.8208388    581.14923  0.010776391 0.0093821514            4 
 4495000   0.52782144   -8.8247996    582.25083  0.010794417 0.0093788548            3 
 4496000   0.51986899   -8.8209472    582.24907  0.010791983 0.0093755591            3 
 4497000   0.54345203   -8.8261729     581.7934  0.010781139 0.0093722646            3 
 4498000   0.52612665   -8.8060262    581.38147  0.010771111 0.0093689697            5 
 4499000   0.53296667   -8.8246295    582.17822  0.010783475 0.0093656769            4 
 4500000   0.52651576   -8.8190529    580.66665  0.010753086 0.0093623866            2 
 4501000   0.53623545   -8.8157321    582.26008  0.010780198 0.0093590989            3 
 4502000    0.5329737   -8.8191549    581.60565   0.01076569 0.0093558093            4 
 4503000   0.53015142   -8.8165409    581.57368  0.010762708 0.0093525237            5 
 4504000   0.53616602   -8.8322154    581.63182  0.010761394  0.009349238            3 
 4505000   0.53607371   -8.8162716    581.67768  0.010759854 0.0093459546            3 
 4506000   0.52746893   -8.8102556    581.11266  0.010747016 0.0093426736            3 
 4507000   0.53031557   -8.8227735    581.70649  0.010755611 0.0093393954            2 
 4508000   0.52747097   -8.8127223     581.9786  0.010758256 0.0093361135            4 
 4509000   0.52714326   -8.8048945    581.80689  0.010752696 0.0093328363            5 
 4510000   0.53004884   -8.8161887     582.3114  0.010759634 0.0093295584            1 
 4511000   0.51991613   -8.8177311    581.76761  0.010747203 0.0093262759            1 
 4512000   0.53714171   -8.8131142    581.75238   0.01074454 0.0093229983            4 
 4513000   0.52889337   -8.8194204    581.65922  0.010740439 0.0093197208            3 
 4514000   0.51560382   -8.8011652    581.07915  0.010727351 0.0093164472            1 
 4515000     0.524494   -8.8148369    582.61537  0.010753329 0.0093131737            3 
 4516000   0.54833743   -8.8281527    582.00408  0.010739668 0.0093099014            4 
 4517000   0.52936988   -8.8220589    581.63877  0.010730551 0.0093066309            3 
 4518000   0.52790226   -8.8269953    582.04438  0.010735657 0.0093033623            1 
 4519000   0.53347077   -8.8189858    580.76638  0.010709714  0.009300096            2 
 4520000   0.52095015   -8.8381851    581.62935  0.010723255 0.0092968297            3 
 4521000    0.5150609   -8.8334858    581.25385  0.010713962  0.009293564            3 
 4522000   0.53302485    -8.828149    581.64282  0.010718761 0.0092903027            2 
 4523000   0.52212866   -8.8288224     581.3054  0.010710174 0.0092870404            3 
 4524000    0.5277313   -8.8089284    581.78034  0.010716555 0.0092837834            4 
 4525000   0.53637059   -8.8213173    581.92493   0.01071685  0.009280528            3 
 4526000   0.52424515   -8.7988842    582.41329  0.010723473 0.0092772778            2 
 4527000   0.52536546   -8.8295653    580.91614  0.010693545 0.0092740249            4 
 4528000   0.51840646   -8.8290215    581.90424  0.010709368 0.0092707735            4 
 4529000   0.52316323   -8.8373386    581.38065   0.01069737 0.0092675219            5 
 4530000   0.52400674   -8.8231213    582.29751  0.010711875 0.0092642705            3 
 4531000   0.52552203   -8.8136676    582.28237  0.010709232 0.0092610228            2 
 4532000    0.5127255   -8.8262213    581.02109  0.010683677 0.0092577772            1 
 4533000   0.52052237   -8.7972828    581.81875  0.010695984 0.0092545324            6 
 4534000   0.51612962   -8.8248706    581.91998  0.010695486 0.0092512895            3 
 4535000   0.52863438   -8.8235123    581.51319  0.010685652 0.0092480491            3 
 4536000   0.52314665   -8.8187661     581.4131  0.010681458 0.0092448066            1 
 4537000   0.53629853   -8.8337066    581.80893  0.010686374 0.0092415675            3 
 4538000   0.53456195   -8.8487428    582.14181  0.010690132 0.0092383312            1 
 4539000   0.52999745   -8.8366933    581.89649  0.010683273 0.0092350949            4 
 4540000   0.52837544   -8.8450022    581.06516   0.01066566 0.0092318613            3 
 4541000    0.5326428   -8.8494147    581.66861  0.010674385 0.0092286279            3 
 4542000   0.53082019   -8.8265202    582.36349  0.010684784 0.0092253983            2 
 4543000   0.53457922   -8.8092526    580.94737  0.010656456 0.0092221661            5 
 4544000   0.52327647   -8.8294969    582.10117  0.010675271 0.0092189382            2 
 4545000   0.52282471   -8.8193052    582.02882  0.010671596 0.0092157107            2 
 4546000   0.51329663   -8.8219373    581.09157  0.010652067 0.0092124871            3 
 4547000   0.53275557    -8.813748    582.14866  0.010669098  0.009209263            2 
 4548000   0.52443012   -8.8087883    581.85568  0.010661384 0.0092060383            4 
 4549000   0.52603384   -8.8307376     581.0477  0.010644239 0.0092028187            3 
 4550000   0.52520726   -8.8258891    581.37455  0.010647886 0.0091995935            2 
 4551000   0.52126004    -8.818691    582.42044  0.010664697 0.0091963744            3 
 4552000   0.52172529   -8.8100496    581.20649  0.010640131 0.0091931567            3 
 4553000   0.51032693   -8.8376335    581.90989  0.010650668 0.0091899443            4 
 4554000   0.51747591   -8.8314964    581.97771   0.01064957   0.00918673            2 
 4555000   0.52481525   -8.8168874    581.38492  0.010636387 0.0091835195            2 
 4556000   0.51649154   -8.8323471    581.51388  0.010636411 0.0091803095            2 
 4557000   0.51726895    -8.834371    582.80502  0.010657688 0.0091771012            2 
 4558000   0.53280828   -8.8308074    581.99034  0.010640455 0.0091738922            4 
 4559000   0.52411129   -8.8144389    581.72327   0.01063324 0.0091706851            2 
 4560000   0.52779659   -8.8379036     581.4643  0.010626175 0.0091674804            2 
 4561000   0.51656676   -8.8231086    582.35949  0.010640201 0.0091642751            2 
 4562000   0.52611227   -8.8410502    581.92617  0.010629953 0.0091610719            3 
 4563000   0.52338376   -8.8407461    581.33802  0.010616883 0.0091578692            2 
 4564000   0.52317941   -8.8313615    582.28307  0.010631812 0.0091546683            4 
 4565000   0.51505066   -8.8265401    581.71718  0.010619153 0.0091514688            2 
 4566000   0.52685491   -8.8233515    580.99489  0.010603645 0.0091482685            3 
 4567000   0.52617438   -8.8287708    581.76842  0.010615437 0.0091450714            4 
 4568000   0.52080679   -8.8404793    580.52209  0.010590377 0.0091418725            2 
 4569000   0.52682002   -8.8393551    581.74677  0.010610396 0.0091386778            3 
 4570000   0.53808158   -8.8471969    581.29526  0.010599841 0.0091354813            3 
 4571000   0.52431008   -8.8252807    581.67423  0.010604431 0.0091322871            4 
 4572000   0.51261585   -8.8474544    581.81686  0.010604711 0.0091290962            2 
 4573000   0.53325389   -8.8335018    581.59483  0.010598346 0.0091259117            2 
 4574000   0.51425094   -8.8374735    580.92913    0.0105839 0.0091227265            1 
 4575000   0.51737807   -8.8389512    582.00388  0.010601163 0.0091195425            3 
 4576000   0.52224316    -8.845823    581.86487  0.010596315 0.0091163579            4 
 4577000   0.52173371   -8.8370364    581.25328  0.010582865 0.0091131744            3 
 4578000   0.51745752   -8.8271354    581.64659  0.010587713 0.0091099954            3 
 4579000   0.52554386   -8.8206112     580.8613  0.010571109 0.0091068137            3 
 4580000   0.51643847   -8.8276237    581.52111  0.010580806 0.0091036335            3 
 4581000   0.52450818   -8.8174147     581.2173   0.01057297 0.0091004553            3 
 4582000   0.50038528    -8.834056    581.40994  0.010574166   0.00909728            2 
 4583000   0.51567296   -8.8335581     581.2866  0.010569616 0.0090941049            1 
 4584000   0.51848414   -8.8287932    581.51598   0.01057148 0.0090909318            1 
 4585000   0.52332548   -8.8287933    581.92352  0.010576582 0.0090877583            3 
 4586000   0.52223865   -8.8337405    581.48618  0.010566328 0.0090845887            4 
 4587000   0.52460424   -8.8294104    581.40754  0.010562596 0.0090814205            3 
 4588000    0.5267878   -8.8308761    581.68057  0.010565253 0.0090782504            2 
 4589000   0.51345849   -8.8404056    581.24263  0.010554998 0.0090750839            3 
 4590000   0.52285614   -8.8579022    581.74538  0.010561826 0.0090719173            2 
 4591000   0.51849843    -8.850693    581.72732  0.010559198 0.0090687561            4 
 4592000   0.51257348   -8.8430022       581.62  0.010554951 0.0090655968            3 
 4593000   0.50627253   -8.8291817    579.87744  0.010521036 0.0090624347            5 
 4594000   0.50758164    -8.840565    580.94164   0.01053805 0.0090592729            6 
 4595000   0.50479561   -8.8397764    581.17759  0.010540036 0.0090561135            4 
 4596000   0.51968124    -8.836299    581.64709  0.010546256 0.0090529548            3 
 4597000   0.51731914   -8.8419073    582.15368  0.010553145  0.009049801            4 
 4598000   0.52221388   -8.8474289    580.35554   0.01051826 0.0090466481            1 
 4599000   0.52248858   -8.8456172    580.83269  0.010524619 0.0090434946            2 
 4600000   0.53424053    -8.835743    581.14165  0.010527928 0.0090403432            1 
 4601000   0.50668033   -8.8326484    581.24273  0.010527471  0.009037196            2 
 4602000   0.50536549   -8.8587352    582.60195  0.010549796 0.0090340478            1 
 4603000   0.51731051   -8.8397825    581.20596  0.010522231 0.0090309008            2 
 4604000   0.51788718     -8.83149    582.98944  0.010552227 0.0090277565            3 
 4605000   0.52346473   -8.8428056    581.43736  0.010521849 0.0090246123            2 
 4606000   0.52033489    -8.834177     581.1746   0.01051481 0.0090214707            3 
 4607000   0.51317753   -8.8618381    581.74895  0.010522917 0.0090183287            3 
 4608000   0.51201448   -8.8506355    580.68892  0.010501463 0.0090151903            2 
 4609000   0.51957016   -8.8349477    580.97433  0.010504345 0.0090120537            4 
 4610000    0.5220931   -8.8398574     581.2176  0.010506464 0.0090089152            2 
 4611000   0.51114137   -8.8296989    580.71598   0.01049512 0.0090057804            2 
 4612000   0.51796406   -8.8399988    580.00693  0.010480033  0.009002648            2 
 4613000   0.51776488   -8.8445194    581.63675  0.010507203 0.0089995145            1 
 4614000   0.51503671    -8.853034    581.36848  0.010500081 0.0089963833            4 
 4615000   0.51893572   -8.8442918     581.6395    0.0105027 0.0089932538            2 
 4616000   0.52572721   -8.8574991    580.58728  0.010481428 0.0089901237            3 
 4617000   0.50457218   -8.8291574    581.41022  0.010494012 0.0089869981            4 
 4618000    0.5154448   -8.8543591    582.00839  0.010502533 0.0089838712            4 
 4619000   0.50615514   -8.8547889    580.52107  0.010473426 0.0089807463            2 
 4620000    0.5022659   -8.8458877    581.88044  0.010495679 0.0089776214            3 
 4621000   0.51571677   -8.8445409    581.16039  0.010480423 0.0089745016            4 
 4622000    0.5157583   -8.8250755    580.82978  0.010472194 0.0089713827            2 
 4623000   0.49943101   -8.8359115    580.58563  0.010465528  0.008968263            2 
 4624000    0.5009831   -8.8346716    580.67906  0.010464948 0.0089651469            3 
 4625000   0.50586526   -8.8314512    581.50652  0.010477595  0.008962029            6 
 4626000   0.50448265   -8.8299354    580.36161  0.010454705 0.0089589152            4 
 4627000   0.51870538   -8.8313829    580.92442  0.010462582 0.0089558022            5 
 4628000   0.51412941   -8.8466868    580.59008  0.010454301 0.0089526899            1 
 4629000   0.50810754   -8.8598923    580.98837  0.010459213 0.0089495773            3 
 4630000   0.51438159   -8.8556251    581.53188  0.010466736  0.008946473            4 
 4631000   0.51649824   -8.8504016    580.80831  0.010451456 0.0089433638            2 
 4632000   0.50293208   -8.8506886    581.03593  0.010453295 0.0089402591            1 
 4633000   0.49653548   -8.8426598     581.5571  0.010460413 0.0089371522            1 
 4634000   0.50502495   -8.8395975    581.17155  0.010451222 0.0089340466            3 
 4635000   0.50642509   -8.8509361    581.70971  0.010458643 0.0089309428            4 
 4636000   0.51037068   -8.8340217     580.1601  0.010428532 0.0089278405            3 
 4637000   0.51512019   -8.8628368    581.54621  0.010451193  0.008924741            4 
 4638000   0.50835051   -8.8441351    581.26494  0.010443886 0.0089216449            3 
 4639000   0.51475856   -8.8388941    580.69862  0.010431462 0.0089185481            4 
 4640000   0.50066369   -8.8494497    581.16674  0.010437621 0.0089154547            2 
 4641000   0.51026068   -8.8417309    580.28041  0.010419457 0.0089123599            3 
 4642000   0.50664051   -8.8538563    580.70972   0.01042492 0.0089092678            4 
 4643000   0.50709443   -8.8591249    581.45921  0.010436126 0.0089061776            5 
 4644000   0.51396153   -8.8678381     581.2491  0.010430109 0.0089030832            4 
 4645000   0.50923336    -8.847362    581.76861  0.010437184 0.0088999967            4 
 4646000   0.51207398   -8.8461883    581.73499  0.010434334  0.008896908            2 
 4647000   0.50358819   -8.8365007    581.55798  0.010428914 0.0088938225            3 
 4648000   0.50872332   -8.8666548    581.30695   0.01042217 0.0088907392            4 
 4649000   0.50690547   -8.8482536    580.48796  0.010405248 0.0088876548            3 
 4650000   0.50246682   -8.8326065    582.41912  0.010437619 0.0088845743            4 
 4651000   0.49906145   -8.8282296    580.56466  0.010402148 0.0088814958            2 
 4652000   0.51321361   -8.8469276    581.38629   0.01041463 0.0088784142            1 
 4653000   0.50985925   -8.8747936    580.40054  0.010394737 0.0088753366            3 
 4654000   0.50742421   -8.8483029    580.66179  0.010397182 0.0088722589            3 
 4655000   0.52421231   -8.8507387    580.54251  0.010392813 0.0088691871            2 
 4656000   0.50977843   -8.8399541     580.3336  0.010386841 0.0088661151            4 
 4657000   0.49819434   -8.8420451    580.98893  0.010396338  0.008863043            3 
 4658000   0.51161499   -8.8697977    580.36367   0.01038292 0.0088599709            4 
 4659000   0.51317667   -8.8536081     581.0695  0.010393316 0.0088568984            3 
 4660000    0.5132714   -8.8387698     580.8902  0.010387879 0.0088538292            5 
 4661000   0.50220268   -8.8708204    581.59275  0.010398211 0.0088507629            5 
 4662000   0.51181003   -8.8718403    580.28603  0.010372623  0.008847699            5 
 4663000   0.50312007   -8.8610823    581.58143  0.010393549 0.0088446375            4 
 4664000   0.50671167    -8.843475    580.51556  0.010372276 0.0088415777            2 
 4665000   0.50104292   -8.8550787    580.29673  0.010366144 0.0088385157            3 
 4666000   0.50392755   -8.8442257    580.18154  0.010361865 0.0088354567            2 
 4667000   0.50351183    -8.840375    580.72251  0.010369304 0.0088323959            3 
 4668000   0.50989505   -8.8600906    581.45185  0.010380103 0.0088293372            2 
 4669000   0.50743626   -8.8797718    580.93868  0.010368721 0.0088262793            3 
 4670000   0.49916004   -8.8379588    580.25649  0.010354327 0.0088232226            7 
 4671000   0.50197845   -8.8432827    581.75048  0.010378764 0.0088201669            4 
 4672000   0.51072995   -8.8525295    581.19186  0.010366578 0.0088171131            4 
 4673000   0.49463459   -8.8702798      580.456  0.010351238 0.0088140609            3 
 4674000   0.50874537    -8.858834    580.52013  0.010350166 0.0088110114            1 
 4675000    0.4995297   -8.8545045    580.76706  0.010352354 0.0088079635            3 
 4676000   0.50708467   -8.8489398    580.50944  0.010345549 0.0088049165            2 
 4677000   0.50733366   -8.8469183    580.09337  0.010335923 0.0088018702            1 
 4678000    0.5056298    -8.847671    581.37254  0.010356501 0.0087988299            6 
 4679000   0.50223614   -8.8578958    580.38021  0.010336614 0.0087957885            4 
 4680000   0.49725795   -8.8554763    580.94509  0.010344464 0.0087927505            2 
 4681000   0.49823565   -8.8698663    581.03156  0.010343793 0.0087897109            3 
 4682000   0.50615414   -8.8600025    579.79758  0.010319621 0.0087866713            2 
 4683000   0.49525799   -8.8620631    580.96106  0.010338121  0.008783638            2 
 4684000   0.49186793   -8.8485861    580.61003  0.010329669 0.0087806049            2 
 4685000   0.49855992   -8.8556943    579.92745  0.010315323 0.0087775708            2 
 4686000   0.51522932   -8.8404371    581.40337  0.010339369 0.0087745412            2 
 4687000   0.51306067   -8.8598272    581.35688  0.010336336 0.0087715116            4 
 4688000   0.50650597   -8.8595928    581.01779  0.010328104 0.0087684798            3 
 4689000   0.49420143   -8.8657441    580.75148  0.010321168 0.0087654496            6 
 4690000   0.49098605   -8.8576944    580.36973  0.010312184 0.0087624235            3 
 4691000   0.49570095   -8.8660848    580.68359  0.010315561 0.0087593961            5 
 4692000   0.48989434   -8.8583863    580.99173  0.010318836 0.0087563687            4 
 4693000   0.50601374   -8.8493393    580.43586  0.010306766  0.008753343            2 
 4694000   0.49616281    -8.860035    581.22673  0.010318611 0.0087503185            4 
 4695000   0.50142816   -8.8588573    580.20468  0.010298273 0.0087472961            2 
 4696000   0.49658958   -8.8467462    580.81341  0.010306882 0.0087442731            2 
 4697000   0.49744521   -8.8416987    579.68126  0.010284601 0.0087412525            3 
 4698000   0.51092463   -8.8533771    580.87561  0.010303597 0.0087382314            4 
 4699000   0.48141534   -8.8654337    580.46575  0.010294136 0.0087352127            1 
 4700000   0.49846994   -8.8605118    580.79574  0.010297797 0.0087321939            2 
 4701000   0.50570712   -8.8531172    580.52661  0.010290835 0.0087291775            3 
 4702000   0.49908018   -8.8764198    580.23953  0.010283559 0.0087261625            2 
 4703000   0.49462417   -8.8676943    580.52011  0.010286344 0.0087231501            6 
 4704000   0.49795025   -8.8543115    581.12199   0.01029482 0.0087201384            1 
 4705000   0.49881309   -8.8392821    580.47506  0.010281174 0.0087171279            5 
 4706000   0.48484128   -8.8771069    579.85466  0.010268003 0.0087141191            2 
 4707000   0.49797242   -8.8854044    580.23696   0.01027259 0.0087111102            1 
 4708000   0.49547969   -8.8693421    580.12319  0.010268394 0.0087081038            5 
 4709000   0.50428761    -8.861519    581.45787  0.010289833 0.0087051016            4 
 4710000   0.50134246   -8.8722106    581.40076  0.010286638 0.0087021002            2 
 4711000   0.49973186   -8.8649868    579.20492  0.010245612 0.0086990987            9 
 4712000   0.49819524   -8.8793049    580.57741   0.01026771 0.0086960996            3 
 4713000   0.49143756   -8.8598771    581.43842  0.010280756  0.008693101            4 
 4714000   0.49793718   -8.8654549    580.34943  0.010259324 0.0086901031            3 
 4715000   0.49835292   -8.8709708    580.76099  0.010264422 0.0086871094            3 
 4716000   0.49855078   -8.8626088    579.57972  0.010241372 0.0086841122            6 
 4717000   0.50916476   -8.8637879    580.64848  0.010258082 0.0086811215            3 
 4718000   0.49012798    -8.856177    580.99613  0.010262048 0.0086781298            2 
 4719000   0.49338295   -8.8613681    580.56589  0.010252276 0.0086751402            1 
 4720000    0.4888151   -8.8637154    580.62333  0.010251118 0.0086721506            2 
 4721000   0.49951214   -8.8610228    580.28981   0.01024306 0.0086691622            2 
 4722000   0.51327212    -8.868927    580.13939  0.010238236 0.0086661748            3 
 4723000    0.4866872   -8.8577906    580.15531  0.010236349 0.0086631878            2 
 4724000   0.49830711   -8.8829646     580.4335  0.010239089 0.0086602011            5 
 4725000   0.49703548   -8.8624544     579.9668  0.010228691 0.0086572184            1 
 4726000   0.49576711   -8.8764299    580.43306  0.010234749 0.0086542349            4 
 4727000   0.50102556   -8.8599621    580.81994  0.010239404  0.008651255            4 
 4728000    0.4955251   -8.8649262    579.80187  0.010219294 0.0086482777            2 
 4729000   0.49205013   -8.8562245    579.04148  0.010203734 0.0086453038            3 
 4730000   0.49841058   -8.8882041    580.31591  0.010224029 0.0086423307            3 
 4731000   0.49863701   -8.8768812    580.40163  0.010223378 0.0086393581            1 
 4732000   0.50279057   -8.8746718    579.71268  0.010209085 0.0086363854            4 
 4733000   0.48480318   -8.8712336    579.93248  0.010210798 0.0086334144            3 
 4734000    0.5057294   -8.8913794    579.83465  0.010206919 0.0086304447            2 
 4735000   0.50518197   -8.8656487    580.33321  0.010213538 0.0086274758            2 
 4736000   0.49832939   -8.8719189    580.12268  0.010207677  0.008624506            3 
 4737000    0.4950354   -8.8689832     581.0909  0.010222555 0.0086215367            3 
 4738000   0.50246251   -8.8878876    580.05965  0.010202259 0.0086185684            5 
 4739000   0.49323774    -8.872031    580.50921  0.010208012 0.0086156054            1 
 4740000   0.48632146   -8.8811153    579.03615   0.01017996 0.0086126419            4 
 4741000   0.49174775   -8.8732541    580.09747  0.010196468 0.0086096795            3 
 4742000   0.50633726    -8.874853    580.89409  0.010208317 0.0086067186            3 
 4743000   0.50191346    -8.888494     580.3895    0.0101973 0.0086037578            2 
 4744000   0.48596506   -8.8708534    580.16429  0.010191194 0.0086007973            2 
 4745000   0.50383632   -8.8689552    580.06135  0.010187238 0.0085978408            3 
 4746000   0.49697014   -8.8718009     579.5142  0.010175485 0.0085948849            4 
 4747000   0.50359586    -8.874045    579.43151  0.010171889 0.0085919306            4 
 4748000   0.48946824   -8.8884321    580.08099  0.010181146 0.0085889771            2 
 4749000   0.49827954   -8.8822074    580.34908  0.010183707 0.0085860253            4 
 4750000   0.49614824   -8.8717399      579.715  0.010170439 0.0085830742            2 
 4751000   0.48727629   -8.8700392    580.55425  0.010183019 0.0085801235            1 
 4752000   0.49795047   -8.8858412    580.23996  0.010175364 0.0085771783            2 
 4753000    0.5026735   -8.8814011    580.67899  0.010180921 0.0085742318            1 
 4754000   0.49070795    -8.885672    580.26854  0.010171584 0.0085712876            1 
 4755000   0.49108055   -8.8778936    579.93676   0.01016363 0.0085683439            1 
 4756000   0.49435532   -8.8825853    580.88416  0.010178094 0.0085654001            5 
 4757000   0.48546494   -8.8649834    580.53129  0.010169772 0.0085624602            1 
 4758000   0.49098199   -8.8783189    579.86227  0.010155918 0.0085595211            5 
 4759000   0.49219474   -8.8771561    579.82509  0.010153133  0.008556579            3 
 4760000   0.48122766    -8.872065    579.83387  0.010151153 0.0085536422            2 
 4761000   0.48743052   -8.8843793    580.34794  0.010158019 0.0085507044            3 
 4762000   0.48666099   -8.8714987     580.0158  0.010150073  0.008547764            1 
 4763000   0.49001168   -8.8837142    579.34405   0.01013619 0.0085448313            1 
 4764000   0.48833071    -8.875842    579.86803  0.010143227 0.0085418975            4 
 4765000   0.49501529   -8.8867249    580.64013  0.010154602 0.0085389679            4 
 4766000   0.48168499   -8.8843958    580.44151  0.010148998 0.0085360386            7 
 4767000   0.48673585   -8.8827125     580.8264  0.010153598 0.0085331091            3 
 4768000    0.4893431   -8.8905393    580.00744  0.010137155 0.0085301794            3 
 4769000   0.49116352   -8.8923785    580.61531  0.010145651 0.0085272519            3 
 4770000   0.48326215   -8.8935819     580.0627   0.01013387 0.0085243275            2 
 4771000   0.48303067   -8.8835019    579.17682  0.010116272 0.0085214019            3 
 4772000   0.49059209   -8.8694803    580.74244  0.010141493 0.0085184809            2 
 4773000   0.48436029   -8.8653909    579.86132  0.010123984 0.0085155599            3 
 4774000   0.49536078   -8.8858793    580.29215  0.010129384 0.0085126401            8 
 4775000   0.48307845   -8.8781121    580.16469  0.010125038 0.0085097235            2 
 4776000   0.48370371   -8.9046917     579.2976  0.010107789 0.0085068046            3 
 4777000   0.50208452   -8.8841905    579.56799   0.01011039 0.0085038858            3 
 4778000   0.48097476   -8.8793299    579.58033  0.010108489 0.0085009735            2 
 4779000   0.48693858   -8.8936123    579.35912  0.010102517 0.0084980593            5 
 4780000   0.48397357   -8.8865343    579.88269  0.010109531 0.0084951477            3 
 4781000   0.48474878    -8.881337    580.56175  0.010119252 0.0084922352            2 
 4782000   0.48452288   -8.8755855    580.10022  0.010109093 0.0084893248            2 
 4783000   0.49232297   -8.8996752    579.38009  0.010094433 0.0084864165            3 
 4784000   0.49364983   -8.8857841    580.16007   0.01010591 0.0084835098            2 
 4785000    0.4772316   -8.8844003    579.86165  0.010098601 0.0084806038            2 
 4786000   0.47818006   -8.8732498    580.34433  0.010104895 0.0084776976            4 
 4787000   0.47877838   -8.8822038     579.3146  0.010084858 0.0084747919            2 
 4788000   0.48933151   -8.8812752    580.23184  0.010098716 0.0084718867            4 
 4789000   0.49271757   -8.8768575    579.73826  0.010088019 0.0084689863            3 
 4790000    0.4733685   -8.8969853    579.64489  0.010084288 0.0084660878            5 
 4791000   0.49329125    -8.886652     580.5592  0.010098087 0.0084631883            2 
 4792000   0.48217249   -8.8874473    579.25443  0.010073289 0.0084602893            2 
 4793000   0.47868646   -8.8892736    580.79128  0.010097908 0.0084573946            4 
 4794000   0.47907292   -8.8967456    578.93931  0.010063609  0.008454499            3 
 4795000   0.46507461   -8.8746027    579.45989  0.010070558 0.0084516069            2 
 4796000    0.4867201   -8.8868176    580.27228  0.010082574 0.0084487126            1 
 4797000   0.47901622   -8.8742732    579.77601  0.010071851 0.0084458212            1 
 4798000    0.4838488   -8.8882723    579.51468  0.010065213   0.00844293            1 
 4799000   0.48392457   -8.8811747    579.45088  0.010062007 0.0084400391            2 
 4800000   0.48653659   -8.8906561    579.99005  0.010069272 0.0084371516            2 
 4801000   0.48179788   -8.8833687    579.91501  0.010065872  0.008434264            3 
 4802000   0.48403419   -8.8771092    579.82554  0.010062223 0.0084313776            2 
 4803000   0.47599516   -8.8894419    580.11053  0.010065073 0.0084284933            3 
 4804000    0.4930892   -8.8797004    579.86746  0.010058761 0.0084256109            2 
 4805000    0.4738063   -8.8818175    580.82813  0.010073329 0.0084227303            4 
 4806000   0.48114729   -8.8789099    579.99178  0.010056731 0.0084198513            2 
 4807000   0.48791039   -8.8883669    580.29968  0.010059976 0.0084169726            2 
 4808000   0.47176649   -8.8878142    579.85756  0.010050221 0.0084140926            3 
 4809000   0.48222497    -8.891266    579.94626  0.010049668 0.0084112159            2 
 4810000   0.48342667    -8.893472    579.59555  0.010041503 0.0084083373            2 
 4811000   0.47751307   -8.9104706    579.52164  0.010038135 0.0084054614            6 
 4812000   0.48276707   -8.8950278    579.70541  0.010039232 0.0084025876            3 
 4813000   0.47506033   -8.8830523    579.52953  0.010034101 0.0083997173            2 
 4814000   0.48405211   -8.8657973    579.39328  0.010029658 0.0083968463            2 
 4815000   0.47051701   -8.8864953    579.85546  0.010035574 0.0083939764            3 
 4816000   0.48485782   -8.8857583    578.93531  0.010017568 0.0083911083            4 
 4817000   0.47976274   -8.8809956    579.85502    0.0100314 0.0083882421            1 
 4818000   0.48157701    -8.890538    579.73516  0.010027244   0.00838538            2 
 4819000   0.48905007   -8.9034545    580.52588  0.010038837 0.0083825181            3 
 4820000   0.48028587   -8.8834912    580.28096   0.01003252 0.0083796558            2 
 4821000   0.47519506   -8.8943553    579.36657  0.010014633 0.0083767946            4 
 4822000    0.4857879   -8.8966601    579.81183  0.010020251 0.0083739337            3 
 4823000   0.48396191   -8.8900027     579.9894  0.010021242  0.008371076            2 
 4824000   0.47803341   -8.8904021    579.21268  0.010005747 0.0083682191            5 
 4825000   0.49348082   -8.8933455    580.42771  0.010024658 0.0083653665            2 
 4826000   0.47073625   -8.8885717    579.22859  0.010001875 0.0083625121            3 
 4827000   0.47922445   -8.8873063    580.75974  0.010026237 0.0083596585            2 
 4828000   0.49162761   -8.8973747    579.46334  0.010001784 0.0083568062            2 
 4829000   0.47906194   -8.8910261     579.3905 0.0099984556 0.0083539519            1 
 4830000   0.48017937   -8.8909647    579.49002 0.0099981025 0.0083511025            2 
 4831000   0.47410319   -8.8995217    578.63121 0.0099812187 0.0083482527            4 
 4832000   0.46846405   -8.8932972    579.24236  0.009989693 0.0083454055            1 
 4833000   0.48228699   -8.8957695     578.8236 0.0099804055 0.0083425599            2 
 4834000   0.48419048   -8.8941969    579.47152 0.0099895104 0.0083397157            5 
 4835000   0.49520538   -8.8952187    579.31556 0.0099847563 0.0083368728            2 
 4836000   0.48277962   -8.8952247    580.18423 0.0099976604 0.0083340315            3 
 4837000   0.47726154   -8.8803067    579.21407 0.0099788793 0.0083311915            2 
 4838000    0.4751395   -8.8893543    579.81893 0.0099872352 0.0083283512            2 
 4839000   0.47750606   -8.8991072     579.3818 0.0099776435 0.0083255129            3 
 4840000   0.47174986   -8.9096363    579.45387 0.0099768229 0.0083226739            2 
 4841000   0.47223196   -8.8946674    579.91456 0.0099826923 0.0083198401            3 
 4842000   0.46932728   -8.8855119     579.3465  0.009970854 0.0083170049            2 
 4843000   0.46956981   -8.9088953    579.78622 0.0099763614 0.0083141709            6 
 4844000   0.47519656    -8.903267    579.95578 0.0099772189 0.0083113358            1 
 4845000   0.48758554   -8.9027183    579.89971 0.0099741952 0.0083085026            2 
 4846000   0.47602016   -8.8978574    579.40216  0.009963581 0.0083056715            3 
 4847000   0.48266405   -8.9075943    579.33167 0.0099603134 0.0083028413            1 
 4848000   0.47880375    -8.905633    579.18025 0.0099556561 0.0083000142            2 
 4849000   0.47627485   -8.9029996     579.0861 0.0099519849 0.0082971876            3 
 4850000   0.47032555   -8.8977874    579.43194 0.0099558753 0.0082943624            2 
 4851000   0.47976759   -8.9073952    579.29344 0.0099514437 0.0082915384            2 
 4852000   0.47811487   -8.9030209    578.86271 0.0099419949 0.0082887153            2 
 4853000   0.47615898   -8.9178459    579.20859 0.0099458855 0.0082858912            2 
 4854000   0.48008597   -8.9040007     579.9344 0.0099562972 0.0082830705            1 
 4855000    0.4803788   -8.8798182     579.4236 0.0099454788 0.0082802525            2 
 4856000   0.47728777   -8.9086953    579.95328 0.0099525207 0.0082774336            3 
 4857000   0.47461845   -8.8965664    580.09122 0.0099528382 0.0082746183            4 
 4858000   0.46518759   -8.9052214    578.87953 0.0099300044 0.0082718033            6 
 4859000   0.46867164   -8.9022783    580.60834 0.0099576103 0.0082689907            2 
 4860000   0.48071176   -8.9017977    579.98868 0.0099449362 0.0082661794            2 
 4861000   0.47956213   -8.8980525    580.00777 0.0099432177 0.0082633684            4 
 4862000   0.46687077   -8.9056132    579.13148 0.0099261532 0.0082605565            3 
 4863000   0.48293585   -8.9085263    579.48924 0.0099302426  0.008257748            4 
 4864000   0.48471451   -8.9097239    579.63336 0.0099306702   0.00825494            2 
 4865000   0.47305272   -8.9000946    580.08372 0.0099363433  0.008252132            2 
 4866000   0.47768769   -8.8988345    579.19713 0.0099191178 0.0082493248            2 
 4867000   0.47796989   -8.9067297     579.6619 0.0099250377 0.0082465202            5 
 4868000   0.47793376   -8.8928555    579.65489 0.0099228788 0.0082437165            1 
 4869000    0.4695409   -8.8872563    580.25591 0.0099311274 0.0082409164            3 
 4870000   0.47555655    -8.899462    579.09352 0.0099091978  0.008238115            2 
 4871000   0.46414482   -8.9045041      579.779 0.0099188908 0.0082353168            3 
 4872000   0.47765832   -8.8756567    580.17778 0.0099236757 0.0082325195            3 
 4873000   0.47553094   -8.9118176    578.92219 0.0099001673 0.0082297231            3 
 4874000   0.47299226   -8.9012481    579.42301  0.009906699 0.0082269282            2 
 4875000   0.46939622   -8.9013146    578.72448 0.0098927261 0.0082241328            2 
 4876000   0.47032565   -8.9056364    579.47077 0.0099034517 0.0082213402            1 
 4877000   0.46333387   -8.9067075    579.59054 0.0099034676 0.0082185482            3 
 4878000   0.46734168   -8.9015645    579.52913 0.0099003883 0.0082157576            2 
 4879000   0.47313942    -8.907697    579.18472 0.0098924766 0.0082129653            2 
 4880000   0.46902641   -8.8895321    578.85581 0.0098848329 0.0082101766            3 
 4881000    0.4694393   -8.9120929     578.8598 0.0098828758 0.0082073867            3 
 4882000   0.47097587    -8.911812    578.36247 0.0098723622 0.0082046005            1 
 4883000   0.47927809   -8.8888096     579.7616 0.0098942181 0.0082018162            2 
 4884000   0.47076193   -8.9120626    578.56391 0.0098717567  0.008199032            2 
 4885000    0.4713105   -8.8991536     579.7013 0.0098891386 0.0081962486            3 
 4886000   0.47763798   -8.9224916    578.41322 0.0098651457 0.0081934664            4 
 4887000   0.46648682   -8.8985464    579.12945 0.0098753402 0.0081906854            2 
 4888000    0.4709469   -8.9015651    579.53652 0.0098802597 0.0081879075            4 
 4889000    0.4749487    -8.907951    578.95039 0.0098682483 0.0081851299            3 
 4890000   0.47276642   -8.9018201    579.26246 0.0098715484 0.0081823517            2 
 4891000   0.46570517   -8.9238113    578.49485 0.0098564515 0.0081795751            3 
 4892000   0.48155751   -8.9439754    578.67132 0.0098574428 0.0081768001            3 
 4893000   0.46671184   -8.8972185     579.2215 0.0098647983 0.0081740255            3 
 4894000   0.46455305   -8.9052416    578.36387 0.0098481793 0.0081712535            2 
 4895000   0.46896375   -8.9077427    578.15448 0.0098426027  0.008168482            4 
 4896000   0.47634152    -8.917671    579.30198 0.0098601236 0.0081657124            3 
 4897000   0.47226543   -8.9225482    579.52247 0.0098618621 0.0081629437            3 
 4898000   0.47060042   -8.9101907    578.19332 0.0098372349  0.008160173            5 
 4899000   0.47121497   -8.9128853    579.16594 0.0098517715  0.008157403            2 
 4900000   0.46856587    -8.904811    578.50311 0.0098384883 0.0081546375            2 
 4901000   0.47272971    -8.936767    579.47083 0.0098529353 0.0081518718            2 
 4902000   0.46547891   -8.9234727     579.2888 0.0098478307 0.0081491087            3 
 4903000   0.47574863   -8.9209432    578.62607 0.0098345583 0.0081463461            3 
 4904000   0.45461264   -8.9100355     578.9423 0.0098379266 0.0081435859            2 
 4905000   0.46881776   -8.9105226     578.6981 0.0098317719 0.0081408243            3 
 4906000   0.45883535   -8.9111553    578.59763 0.0098280614 0.0081380656            3 
 4907000    0.4625188   -8.9185145    579.23606 0.0098369007 0.0081353099            2 
 4908000    0.4843921   -8.9235367    579.06558 0.0098320018  0.008132553            3 
 4909000   0.45765123   -8.9188909    578.60956 0.0098222578 0.0081297985            4 
 4910000   0.46098705   -8.9130738    579.11229 0.0098287897 0.0081270442            4 
 4911000   0.46951511   -8.9026213    578.78187 0.0098211815 0.0081242934            3 
 4912000   0.46263554   -8.9268217    579.41704 0.0098299579 0.0081215428            4 
 4913000   0.46337047   -8.9148098    579.39267 0.0098275437 0.0081187927            4 
 4914000   0.46017053   -8.9114937    579.24471 0.0098230347 0.0081160423            5 
 4915000   0.46125936   -8.9110413    579.24135 0.0098209792 0.0081132952            2 
 4916000   0.46765292   -8.9063189    579.09715  0.009816537 0.0081105467            2 
 4917000   0.46175627   -8.9134136    577.97873 0.0097955856  0.008107804            4 
 4918000   0.47022738    -8.914987    579.31819 0.0098162904 0.0081050598            6 
 4919000   0.46000527   -8.9228692     579.3064 0.0098140951 0.0081023154            4 
 4920000   0.46342698   -8.9194766    579.24421 0.0098110469 0.0080995745            5 
 4921000   0.46278237   -8.9084295    580.00619 0.0098219568 0.0080968364            3 
 4922000    0.4599399   -8.9131594    578.55891 0.0097954577 0.0080940964            1 
 4923000   0.47561339   -8.9103329    578.92469 0.0097996596 0.0080913572            1 
 4924000   0.46923878   -8.9229529    579.87412 0.0098137374 0.0080886197            2 
 4925000   0.45293428   -8.9194601    578.67934 0.0097915286 0.0080858828            2 
 4926000   0.46467635   -8.9387952    579.47674 0.0098030305 0.0080831464            6 
 4927000   0.45990605   -8.9242646    579.68467 0.0098045577 0.0080804126            2 
 4928000   0.46732297    -8.935084    578.30649 0.0097792629 0.0080776791            6 
 4929000   0.46284056   -8.9124782    579.74241 0.0098015556 0.0080749475            3 
 4930000   0.46104103    -8.920257      578.891 0.0097851758 0.0080722173            3 
 4931000   0.47007682   -8.9177348    578.91114 0.0097835318 0.0080694862            2 
 4932000   0.46493668   -8.9234465    578.62296 0.0097766788 0.0080667573            3 
 4933000   0.46718358   -8.9180287    579.24974 0.0097852852 0.0080640322            6 
 4934000   0.46751851   -8.9173248    579.00362  0.009779145 0.0080613053            5 
 4935000   0.46011627   -8.9285473    578.21775 0.0097638931 0.0080585803            4 
 4936000   0.46484888   -8.9109576    578.88137 0.0097731187 0.0080558587            3 
 4937000   0.46182863   -8.9199245    578.91615 0.0097717263 0.0080531353            5 
 4938000   0.46513961   -8.9296402    579.71984 0.0097833104 0.0080504147            2 
 4939000   0.46072144   -8.9194388    579.07534 0.0097704551 0.0080476926            4 
 4940000   0.46261565   -8.9198576    578.26154 0.0097547494 0.0080449755            4 
 4941000   0.46831252    -8.928547    578.80809  0.009761993 0.0080422589            2 
 4942000   0.46028469   -8.9155139    578.42598 0.0097535744 0.0080395438            4 
 4943000   0.47256149   -8.9208002    578.80528 0.0097579958 0.0080368291            4 
 4944000    0.4547737    -8.916523    578.96911 0.0097587835 0.0080341157            3 
 4945000   0.46452362   -8.9030724    579.37372 0.0097636286 0.0080314028            2 
 4946000   0.45678125   -8.9379855    579.22011 0.0097590665 0.0080286928            3 
 4947000   0.46321316    -8.925625    578.99099 0.0097532342 0.0080259836            4 
 4948000   0.44921295   -8.9148094     578.5552 0.0097439236  0.008023275            2 
 4949000   0.45279288   -8.9400062    579.34424 0.0097552407 0.0080205672            3 
 4950000   0.46294091    -8.931908    577.99538  0.009730562 0.0080178613            4 
 4951000    0.4612978   -8.9296881    579.63152 0.0097561355 0.0080151577            1 
 4952000    0.4601245   -8.9218887     578.7281 0.0097389623 0.0080124558            2 
 4953000   0.46601315     -8.92726    578.46193 0.0097325179 0.0080097572            3 
 4954000   0.45994639   -8.9354105    578.37079 0.0097290202 0.0080070574            4 
 4955000   0.47041773   -8.9282979    578.34596 0.0097266391 0.0080043571            3 
 4956000   0.45795483   -8.9281005    578.03915 0.0097195176  0.008001658            3 
 4957000   0.45791018   -8.9315429    578.50554 0.0097253975 0.0079989604            4 
 4958000   0.46098988   -8.9424622    578.17342 0.0097178536 0.0079962641            7 
 4959000   0.46074289   -8.9144934     578.1019 0.0097146922 0.0079935689            6 
 4960000   0.45447459   -8.9216296    577.99613 0.0097109565 0.0079908756            2 
 4961000   0.45293115   -8.9273903    579.35189 0.0097317727  0.007988183            3 
 4962000   0.45926638   -8.9321681    578.56407 0.0097165805  0.007985492            2 
 4963000   0.46259646   -8.9164216    579.13759 0.0097242527 0.0079828019            3 
 4964000   0.46593389   -8.9214105    579.23218 0.0097238816 0.0079801112            2 
 4965000   0.46302104   -8.9256609    578.45895 0.0097089451 0.0079774257            3 
 4966000   0.46183941   -8.9350731    578.75269 0.0097119191 0.0079747396            6 
 4967000   0.45652058   -8.9301384    577.68075 0.0096919795 0.0079720543            3 
 4968000   0.46195392   -8.9365895     579.0185 0.0097124682 0.0079693701            3 
 4969000   0.45877841   -8.9220551    578.89705 0.0097084767 0.0079666881            4 
 4970000   0.45532945   -8.9405147     578.1493 0.0096939856 0.0079640067            3 
 4971000   0.45875946   -8.9363217     578.6996 0.0097012607 0.0079613247            2 
 4972000   0.45826814   -8.9298476    578.90336 0.0097027247 0.0079586453            3 
 4973000   0.45321655     -8.92496     579.4325 0.0097096403 0.0079559664            3 
 4974000    0.4684964    -8.937706    578.45972 0.0096913905 0.0079532904            3 
 4975000   0.45107862   -8.9290042    578.10828 0.0096835558 0.0079506136            2 
 4976000   0.44477867     -8.92251    578.98476 0.0096962882 0.0079479368            3 
 4977000   0.46382146   -8.9371303    578.04262  0.009678565 0.0079452627            5 
 4978000   0.46812355   -8.9470864    578.64336 0.0096866774 0.0079425899            2 
 4979000   0.45972629   -8.9332702    579.19244 0.0096939218 0.0079399192            6 
 4980000   0.46667283   -8.9337546     578.8048 0.0096854886 0.0079372486            3 
 4981000   0.44770675    -8.924906    578.34861  0.009675912 0.0079345777            2 
 4982000   0.44775503   -8.9376177    578.59789 0.0096781395 0.0079319066            2 
 4983000   0.44964142   -8.9486088     578.3894 0.0096727106  0.007929239            2 
 4984000   0.45723114   -8.9284877    578.75944 0.0096769569 0.0079265714            4 
 4985000   0.46372063   -8.9278928    578.27061 0.0096668439 0.0079239069            4 
 4986000   0.44834909   -8.9418949    578.10648  0.009662162 0.0079212433            4 
 4987000   0.46042862   -8.9430244    578.56486 0.0096678841 0.0079185815            1 
 4988000   0.44790471   -8.9420116     578.5432  0.009665584 0.0079159206            3 
 4989000   0.45768514   -8.9236856     578.4419 0.0096619546 0.0079132602            6 
 4990000    0.4496912   -8.9257205    577.85348 0.0096501917  0.007910601            2 
 4991000   0.45508269   -8.9403001    578.45269  0.009658263 0.0079079446            3 
 4992000   0.45671868   -8.9393239    578.72475 0.0096608698 0.0079052877            5 
 4993000    0.4632044    -8.944585     578.1596 0.0096495026  0.007902633            2 
 4994000   0.45220586   -8.9316849    579.51956 0.0096702637 0.0078999791            4 
 4995000   0.45442543   -8.9406685    578.17537  0.009645902 0.0078973254            2 
 4996000   0.44623602   -8.9272523    578.64967 0.0096518826 0.0078946748            4 
 4997000   0.44510712   -8.9491659    578.54755 0.0096482481 0.0078920247            4 
 4998000   0.44818061   -8.9365787    578.22018 0.0096408593 0.0078893761            4 
 4999000   0.44973473   -8.9236988    578.17754 0.0096382199  0.007886729            3 
 5000000    0.4485667   -8.9304224    578.70834 0.0096451391 0.0078840832            2 
 5001000   0.44622519   -8.9410893    578.80399 0.0096448041 0.0078814378            5 
 5002000   0.45079064   -8.9345789    578.42318 0.0096365317 0.0078787963            2 
 5003000   0.44379566   -8.9306144    578.46987 0.0096353833 0.0078761538            3 
 5004000   0.45211847   -8.9399223    578.25332 0.0096298514 0.0078735121            3 
 5005000   0.44429301   -8.9264496    578.01775 0.0096240052 0.0078708715            2 
 5006000   0.44908513    -8.941505    578.44293 0.0096291605 0.0078682325            1 
 5007000   0.44650649   -8.9173345    578.34553 0.0096256164 0.0078655927            2 
 5008000   0.44933049   -8.9157543    578.47661 0.0096258754 0.0078629546            4 
 5009000   0.44716876   -8.9308683    577.98598 0.0096157913 0.0078603181            2 
 5010000   0.45331332   -8.9398574    578.01347 0.0096143292 0.0078576816            2 
 5011000   0.44680184   -8.9354388    578.02056 0.0096125285 0.0078550467            2 
 5012000   0.44641692   -8.9358933    578.26034 0.0096145972 0.0078524128            2 
Loop time of 12217.5 on 48 procs for 5000000 steps with 4000 atoms

Performance: 70718.201 tau/day, 409.249 timesteps/s
99.4% CPU use with 48 MPI tasks x no OpenMP threads

MPI task timing breakdown:
Section |  min time  |  avg time  |  max time  |%varavg| %total
---------------------------------------------------------------
Pair    | 825.37     | 883.79     | 949.01     | 111.9 |  7.23
Neigh   | 80.645     | 83.96      | 86.566     |  19.5 |  0.69
Comm    | 777.07     | 838.02     | 906.07     | 116.8 |  6.86
Output  | 13.865     | 13.871     | 13.954     |   0.3 |  0.11
Modify  | 10268      | 10290      | 10312      |  11.0 | 84.23
Other   |            | 107.6      |            |       |  0.88

Nlocal:        83.3333 ave          92 max          78 min
Histogram: 5 2 12 10 3 8 4 3 0 1
Nghost:        2145.88 ave        2163 max        2127 min
Histogram: 1 1 4 9 7 8 5 9 3 1
Neighs:        14235.0 ave       15800 max       12722 min
Histogram: 1 4 7 9 3 7 6 7 2 2
FullNghs:      28470.5 ave       31551 max       26435 min
Histogram: 5 5 5 13 4 6 6 3 0 1

Total # of neighbors = 1366585
Ave neighs/atom = 341.64625
Neighbor list builds = 267250
Dangerous builds = 1

#clear
#
#next RN
#
#jump SELF
Total wall time: 3:23:40
