
units lj                  # Use reduced LJ style units
atom_style atomic         # Uncharged point particles
atom_modify map hash      # Needed for indexing of clusters etc
                          # Used to be able to find where atoms are in relation to each other.

lattice fcc 1.0 spacing 1 1 1
Lattice spacing in x,y,z = 1.5874011 1.5874011 1.5874011
region box block 0 10 0 10 0 10 units lattice
create_box 2 box
Created orthogonal box = (0.0000000 0.0000000 0.0000000) to (15.874011 15.874011 15.874011)
  3 by 4 by 4 MPI processor grid
create_atoms 1 box
Created 4000 atoms
  using lattice units in orthogonal box = (0.0000000 0.0000000 0.0000000) to (15.874011 15.874011 15.874011)
  create_atoms CPU = 0.003 seconds
set type 1 type/fraction 2 0.76 78393
Setting atom values ...
  3028 settings made for type/fraction
mass 1 1.0
mass 2 1.0
pair_style lj/cut  3.5
pair_modify tail  yes
pair_coeff 1  1  1.0  1.0   # Intearaction between 1 and 1 set with epsilon = 1 and sigma = 1
pair_coeff 1  2  1.5  0.8
pair_coeff 2  2  0.5  0.88

write_data data.0
System init for write_data ...
Neighbor list info ...
  update every 1 steps, delay 10 steps, check yes
  max neighbors/atom: 2000, page size: 100000
  master list distance cutoff = 3.8
  ghost atom cutoff = 3.8
  binsize = 1.9, bins = 9 9 9
  1 neighbor lists, perpetual/occasional/extra = 1 0 0
  (1) pair lj/cut, perpetual
      attributes: half, newton on
      pair build: half/bin/atomonly/newton
      stencil: half/bin/3d
      bin: standard
WARNING: Not all mixed pair coeffs generated from mixing. Use write_data with 'pair ij' option to store all pair coeffs. (../write_data.cpp:312)


#############################
#   M E L T   S Y S T E M   #
#############################

velocity all create 2.4 9622624 mom yes dist gaussian # Assign velocities
                                                    # Temperature 2.4, random number seed, zero linear momentum
                                                                                # Gaussian distribution

timestep 0.002   # simulation timestep
thermo 1000       # output thermodynamic data every 1000 steps bf 100

# Define a fix  in this case with index 1 applied to all
# particles in the simulation. This fix is for simulations
# in the anisotropic NPT ensemble. Note that we use the MTK
# correction.
fix 1 all npt temp 2.4 2.4 0.1 iso 5.68 5.68 0.5 mtk yes tchain 5 pchain 5 # Use NPT ensemble
                                                                         # Set temperature and pressure and damping
                                                                         # Numbers of thermostats in chain and in barostat
run 10000          # run for 10000 steps
Per MPI rank memory allocation (min/avg/max) = 3.642 | 3.644 | 3.648 Mbytes
Step Temp E_pair E_mol TotEng Press Volume 
       0          2.4   -3.9031684            0  -0.30406845   -3.4881309         4000 
    1000    2.3990267   -3.3549897            0   0.24265067    5.7957335    3730.9595 
    2000    2.4106901   -3.3746491            0   0.24048202    5.9089053    3710.7704 
    3000    2.4194139    -3.411737            0   0.21647654    5.4904841    3735.3463 
    4000    2.4113383   -3.3621413            0   0.25396187    5.9997242    3714.6522 
    5000    2.4557883    -3.448664            0   0.23409756    5.5885175    3708.7263 
    6000    2.4207527   -3.4078711            0   0.22235021    5.6383525    3726.9421 
    7000    2.3760628   -3.3594027            0   0.20380055    5.4446635     3758.531 
    8000    2.4122004   -3.3804249            0    0.2369712    5.6066526    3742.0161 
    9000    2.4025608   -3.3508837            0    0.2520565    5.8763151    3736.1465 
   10000    2.4014089   -3.4141516            0   0.18706123    5.5845245     3714.224 
Loop time of 2.65631 on 48 procs for 10000 steps with 4000 atoms

Performance: 650525.969 tau/day, 3764.618 timesteps/s
99.6% CPU use with 48 MPI tasks x no OpenMP threads

MPI task timing breakdown:
Section |  min time  |  avg time  |  max time  |%varavg| %total
---------------------------------------------------------------
Pair    | 1.1662     | 1.2456     | 1.3885     |   4.2 | 46.89
Neigh   | 0.21249    | 0.22255    | 0.24942    |   1.6 |  8.38
Comm    | 0.75633    | 0.9109     | 1.0009     |   5.7 | 34.29
Output  | 0.00024555 | 0.00025857 | 0.00032671 |   0.0 |  0.01
Modify  | 0.22555    | 0.26137    | 0.2957     |   3.1 |  9.84
Other   |            | 0.01563    |            |       |  0.59

Nlocal:        83.3333 ave          92 max          73 min
Histogram: 1 1 3 8 8 11 2 7 6 1
Nghost:        1727.12 ave        1746 max        1708 min
Histogram: 4 1 8 8 4 7 4 1 7 4
Neighs:        10289.2 ave       11831 max        8773 min
Histogram: 1 3 4 7 11 6 7 7 1 1

Total # of neighbors = 493881
Ave neighs/atom = 123.47025
Neighbor list builds = 906
Dangerous builds = 202

# Equilibrate just above the melting temperature to avoid step fn in T

fix 1 all npt temp 1.25 1.25 0.1 iso 5.68 5.68 0.5 mtk yes tchain 5 pchain 5
run 2000
Per MPI rank memory allocation (min/avg/max) = 3.644 | 3.646 | 3.649 Mbytes
Step Temp E_pair E_mol TotEng Press Volume 
   10000    2.4014089   -3.4141516            0   0.18706123    5.5845245     3714.224 
   11000    1.2399732   -4.9734242            0   -3.1139294    5.7032927    2858.4483 
   12000    1.2624225   -5.0076727            0   -3.1145124    6.1235735     2825.712 
Loop time of 0.638868 on 48 procs for 2000 steps with 4000 atoms

Performance: 540956.614 tau/day, 3130.536 timesteps/s
99.6% CPU use with 48 MPI tasks x no OpenMP threads

MPI task timing breakdown:
Section |  min time  |  avg time  |  max time  |%varavg| %total
---------------------------------------------------------------
Pair    | 0.2926     | 0.31536    | 0.3348     |   1.9 | 49.36
Neigh   | 0.040895   | 0.043304   | 0.045759   |   0.5 |  6.78
Comm    | 0.20968    | 0.23053    | 0.25435    |   2.4 | 36.08
Output  | 5.2655e-05 | 5.3677e-05 | 7.027e-05  |   0.0 |  0.01
Modify  | 0.039858   | 0.044758   | 0.049196   |   1.3 |  7.01
Other   |            | 0.004861   |            |       |  0.76

Nlocal:        83.3333 ave          87 max          75 min
Histogram: 2 1 0 5 4 2 5 4 13 12
Nghost:        2075.67 ave        2098 max        2046 min
Histogram: 2 2 1 4 8 9 6 8 3 5
Neighs:        13519.4 ave       14368 max       12085 min
Histogram: 2 1 4 2 3 5 9 10 7 5

Total # of neighbors = 648930
Ave neighs/atom = 162.23250
Neighbor list builds = 144
Dangerous builds = 16

#############################
# L I N E A R  Q U E N C H  #
#############################

# Define solid atoms. This closely follows ten Wolde  Ruiz-Montero and Frenkel  Faraday Discuss  1996  104  93-110
# Compute components of the per-atom q6 vector
compute q6 all orientorder/atom degrees 1 6 components 6 nnn NULL cutoff 1.3 # compute the Q6 parameter.
                                                                             # Use all neighbours within 1.3 unit cell.

# get number of connections
compute coord_number all coord/atom orientorder q6 0.5

# An atom is solid if it has 8 or more connections (of a possible 14)
variable is_solid atom c_coord_number>=8
group solid dynamic all var is_solid    # Must be dynamic to update
dynamic group solid defined

# do clustering
compute cluster solid cluster/atom 1.3 # Create a cluster where all atoms within are solid and max 1.3 units from another member

# define chunks one chunk per cluster
compute clus_chunks solid chunk/atom c_cluster nchunk every compress yes  # Says which atoms are in which chunk

# count the size of each chunk
compute size_chunks solid property/chunk clus_chunks count


# Find the maximum entry in the vector of chunk sizes
variable max_n equal max(c_size_chunks)


# Thermo style which includes this variable
# thermo_style custom step temp pe vol v_max_n

thermo ${N}  # Print the thermo information every 100 steps
thermo 1000  

# Reset the npt fix at a lower temperature (below freezing)
fix 1  all npt temp  ${temp} ${temp}  0.1  iso  5.68  5.68  0.5  mtk yes tchain  5  pchain  5
fix 1  all npt temp  0.45 ${temp}  0.1  iso  5.68  5.68  0.5  mtk yes tchain  5  pchain  5
fix 1  all npt temp  0.45 0.45  0.1  iso  5.68  5.68  0.5  mtk yes tchain  5  pchain  5

dump dmp2 all dcd ${N} traj.dcd
dump dmp2 all dcd 1000 traj.dcd


compute msd all msd com yes
variable twopoint equal c_msd[4]/6/(step*dt+1.0e-6)
fix 9 all vector 10 c_msd[4]
variable fit equal slope(f_9)/6/(10*dt)
thermo_style custom step temp pe c_msd[4] v_twopoint v_fit v_max_n

fix 1 all npt temp 1.25 ${temp} 0.1 iso 5.68 5.68 0.5 mtk yes tchain 5 pchain 5
fix 1 all npt temp 1.25 0.45 0.1 iso 5.68 5.68 0.5 mtk yes tchain 5 pchain 5
run 500000 # 5000000  # Run for this many steps
Neighbor list info ...
  update every 1 steps, delay 10 steps, check yes
  max neighbors/atom: 2000, page size: 100000
  master list distance cutoff = 3.8
  ghost atom cutoff = 3.8
  binsize = 1.9, bins = 8 8 8
  4 neighbor lists, perpetual/occasional/extra = 1 3 0
  (1) pair lj/cut, perpetual
      attributes: half, newton on
      pair build: half/bin/atomonly/newton
      stencil: half/bin/3d
      bin: standard
  (2) compute orientorder/atom, occasional
      attributes: full, newton on
      pair build: full/bin/atomonly
      stencil: full/bin/3d
      bin: standard
  (3) compute coord/atom, occasional
      attributes: full, newton on
      pair build: full/bin/atomonly
      stencil: full/bin/3d
      bin: standard
  (4) compute cluster/atom, occasional
      attributes: full, newton on
      pair build: full/bin/atomonly
      stencil: full/bin/3d
      bin: standard
Per MPI rank memory allocation (min/avg/max) = 9.837 | 9.847 | 9.853 Mbytes
Step Temp PotEng c_msd[4] v_twopoint v_fit v_max_n 
   12000    1.2624225   -5.0076727 8.3619256e-31 5.8068925e-33 8.3333333e+20            2 
   13000    1.2415507    -4.992413   0.71336442 0.0045728487  0.060325914            3 
   14000    1.2262229   -5.0441911    1.4428171 0.0085881967  0.060752238            3 
   15000    1.2802152   -5.0385877    2.2214523  0.012341401  0.061219831            4 
   16000    1.2507248       -5.021    2.9119589  0.015166452  0.061455186            2 
   17000    1.2384831   -5.0024972    3.6183586  0.017737051  0.060687135            3 
   18000    1.2518987   -5.0519882    4.4175801  0.020451759  0.060893657            1 
   19000    1.2406552   -5.0512063    5.0549183  0.022170694  0.061009462            2 
   20000    1.2297915   -5.0711346    5.8073325  0.024197218  0.060772391            3 
   21000    1.2289416    -5.052262    6.5820554  0.026119267  0.060933165            3 
   22000    1.2236467   -5.0317435    7.1956432  0.027256224  0.060768676            4 
   23000    1.2303284   -5.0453907    7.9974604  0.028976305  0.060597958            5 
   24000    1.2463226   -5.0506002    8.6725242   0.03011293  0.060529062            4 
   25000    1.2249004     -5.07041    9.4474919  0.031491639  0.060510412            1 
   26000    1.2230088   -5.0073696    10.239739  0.032819676  0.060629688            2 
   27000    1.2261928   -5.0632898    10.867185  0.033540695  0.060617277            2 
   28000    1.2260433   -5.0338823    11.478471  0.034162116  0.060448583            1 
   29000    1.2128034   -5.0870148     12.07704  0.034704138  0.060037185            1 
   30000    1.1987357   -5.0808226    12.780158  0.035500438  0.059703787            4 
   31000    1.2107106   -5.0905041    13.537033  0.036389872  0.059511016            2 
   32000    1.2230787   -5.0810316    14.225262  0.037044952  0.059334027            4 
   33000    1.2282182   -5.0538305    14.907339  0.037644794  0.059177615            3 
   34000    1.2198974   -5.0563555    15.717244  0.038522656  0.059129597            2 
   35000    1.2101912   -5.0987562    16.419374  0.039093748  0.059132117            3 
   36000    1.2292008   -5.1031162     17.13758  0.039670323  0.059077822            2 
   37000       1.2006   -5.0828141    17.920274  0.040360976  0.059134384            1 
   38000    1.2076895   -5.1133896    18.538073  0.040653668   0.05919149            1 
   39000    1.2100675   -5.0768245    19.158033  0.040935968  0.059152578            2 
   40000     1.199782   -5.1198313    19.702212  0.041046274  0.059061058            1 
   41000     1.208102   -5.1623056    20.055498  0.040763207  0.058832097            2 
   42000    1.2216167   -5.0974975    20.657542  0.040987186  0.058503283            2 
   43000    1.2060881   -5.1390873    21.224113  0.041132001  0.058191305            4 
   44000    1.2001398   -5.1174783      21.7261  0.041147916  0.057857882            6 
   45000    1.1865542   -5.0907885    22.401071  0.041483464  0.057517776            3 
   46000     1.229516   -5.0967319    22.972751  0.041617302  0.057191373            1 
   47000    1.2078257   -5.0584981    23.695667  0.042013594  0.056897254            3 
   48000    1.1874326   -5.1538597    24.305005  0.042196189  0.056637694            4 
   49000    1.2036184   -5.1216979    24.729016  0.042056149  0.056387683            2 
   50000    1.1699992   -5.1261741    25.323121  0.042205202  0.056099845            2 
   51000    1.1861172   -5.1255813    25.940579  0.042386567  0.055843047            3 
   52000    1.2174557   -5.1377405    26.663774  0.042730407  0.055593864            2 
   53000    1.1945068   -5.1590284    27.221792   0.04280156  0.055394426            1 
   54000    1.1787357   -5.1131959    27.780727  0.042871492   0.05520443            1 
   55000    1.1990452   -5.1621629    28.189922  0.042712002  0.054991008            3 
   56000    1.1804654   -5.1755329    28.601989  0.042562483  0.054744318            1 
   57000    1.1684595   -5.1461162     29.35784  0.042920818  0.054522914            4 
   58000    1.1659974   -5.1507227    30.008039  0.043114998  0.054339496            2 
   59000    1.1698199    -5.189799    30.839466  0.043558568  0.054183567            2 
   60000    1.1722001   -5.1930801     31.49827  0.043747597  0.054083094            2 
   61000    1.1568003   -5.1875321    32.126433   0.04388857  0.053968398            1 
   62000    1.1824206   -5.1426309    32.836152  0.044134613  0.053881705            2 
   63000    1.1887975   -5.1931425     33.22482  0.043948174  0.053793649            2 
   64000    1.1453304   -5.1875859    33.925525   0.04417386  0.053703478            5 
   65000     1.191505   -5.1709869    34.687626  0.044471315  0.053628261            2 
   66000    1.1646798   -5.1661511    35.461561  0.044774698  0.053579067            3 
   67000    1.1481502    -5.178515    36.112711  0.044916306  0.053536866            2 
   68000    1.1438509   -5.1969255    36.664292  0.044931731  0.053501927            2 
   69000    1.1316876   -5.2040277    37.227275  0.044960477  0.053446207            2 
   70000    1.1897643   -5.2006106    38.017149  0.045258511  0.053407989            4 
   71000     1.172672    -5.219319    38.656008  0.045370902  0.053383818            3 
   72000    1.1337694   -5.2295166    39.131259  0.045290809  0.053355424            3 
   73000    1.1570774   -5.2121503     39.73312  0.045357443  0.053313341            3 
   74000    1.1554454   -5.1932312     40.40752  0.045503964  0.053272007            4 
   75000    1.1575188    -5.256587    40.780856  0.045312062  0.053217434            3 
   76000    1.1511315   -5.2182657    41.315473  0.045302054  0.053159793            1 
   77000    1.1592053   -5.2001915    42.016133  0.045472005  0.053093825            2 
   78000    1.1637412   -5.2452122    42.273028  0.045163491  0.053023289            4 
   79000    1.1120635   -5.2444615     42.84402  0.045194114  0.052927597            1 
   80000     1.165438   -5.2160323    43.433042  0.045242751   0.05282341            2 
   81000     1.156724   -5.1976107    44.001477  0.045269009  0.052723638            2 
   82000    1.1317714   -5.2318511    44.551976  0.045276398  0.052642866            2 
   83000    1.1151561   -5.2545378    45.019749   0.04520055  0.052548945            4 
   84000    1.1148089   -5.2162891    45.299488  0.044939968  0.052449134            5 
   85000    1.1147257   -5.2525548    46.122719  0.045218352  0.052349362            5 
   86000     1.130585   -5.2109921    46.630008  0.045184116  0.052254149            2 
   87000    1.1481568    -5.278737    46.997736  0.045016988  0.052149306            5 
   88000     1.136591   -5.2727099    47.516174  0.044996377  0.052050226            3 
   89000    1.1438717    -5.277342    47.850312  0.044803662  0.051930599            6 
   90000    1.1599372   -5.2897285    48.208427  0.044637432  0.051790559            3 
   91000    1.1584833   -5.2633971     48.60763  0.044512481  0.051654288            2 
   92000    1.1145388   -5.2896447    48.984342  0.044369875  0.051510201            2 
   93000    1.1223714   -5.2789583    49.559574  0.044408221  0.051359688            3 
   94000     1.122696   -5.2755576    49.873447  0.044214049  0.051204483            2 
   95000    1.1038489   -5.2753559     50.33241  0.044151237  0.051047477            1 
   96000     1.105939   -5.2784644    50.970941  0.044245608  0.050896979            3 
   97000    1.1202917   -5.2814137    51.437409  0.044190213  0.050755808            3 
   98000     1.102809   -5.3038268    52.015936  0.044231237   0.05061892            3 
   99000    1.1059727   -5.3173427    52.937567  0.044560241  0.050488048            3 
  100000    1.0648549   -5.2898012    53.150674  0.044292228  0.050362782            3 
  101000     1.090174   -5.3127389    53.479548  0.044125039  0.050235004            6 
  102000    1.1040378   -5.3051331    53.940865  0.044069334  0.050103893            1 
  103000     1.085297   -5.2951798    54.606836  0.044180288  0.049980938            4 
  104000     1.111951    -5.287093     54.91065  0.043998918  0.049850728            2 
  105000    1.1161508   -5.2829977    55.385195  0.043956504  0.049725907            4 
  106000    1.1021397   -5.3328961    55.846313  0.043904334  0.049595776            5 
  107000     1.092452   -5.3049783    56.453688  0.043967046  0.049468807            3 
  108000    1.0815285   -5.3121534    56.794233   0.04382271  0.049346944            8 
  109000    1.0772867    -5.334222    57.324814   0.04382631  0.049225516            3 
  110000    1.1263033    -5.347782    57.528353  0.043582086  0.049099578            6 
  111000    1.0806455   -5.3273054    58.116737  0.043631184  0.048970504            5 
  112000    1.0893636   -5.3415849    58.600748  0.043601746  0.048848103            5 
  113000    1.0989968   -5.3421431    59.023454  0.043527621  0.048725325            4 
  114000     1.092693   -5.3066269    59.515765  0.043505676  0.048593481            2 
  115000    1.0749708   -5.3066965    59.714261  0.043271204    0.0484616            2 
  116000    1.0911447   -5.3441834    59.895508  0.043028382  0.048326145            2 
  117000    1.0894321   -5.3247922    60.609017  0.043168815  0.048185265            3 
  118000    1.0496706    -5.399382    60.938935  0.043035971  0.048050847            3 
  119000    1.0701253   -5.3452172    61.428913  0.043017446  0.047922759            4 
  120000     1.070229   -5.3481463    61.995992  0.043052772  0.047798825            3 
  121000    1.0828295    -5.374027     62.32579  0.042924098  0.047674307            6 
  122000    1.0784759   -5.3911561    62.839783  0.042923349  0.047550699            2 
  123000    1.0516764   -5.3784181    63.461417   0.04299554  0.047431424            2 
  124000     1.061005   -5.4029586    63.686237  0.042799891  0.047314097            3 
  125000     1.086596   -5.4099994    64.158833  0.042772555  0.047200447            3 
  126000    1.0680939   -5.3516469    64.619614   0.04273784  0.047087004            2 
  127000    1.0907616   -5.3834548    64.907495   0.04259022  0.046969436            5 
  128000    1.0673009   -5.3994586    65.635997  0.042731768  0.046854317            4 
  129000    1.0831994   -5.3636574    65.976419  0.042620426   0.04674512            3 
  130000    1.0696121   -5.4141404    66.250158   0.04246805  0.046632953            4 
  131000    1.0558036    -5.429768    67.020682  0.042634021  0.046522672            3 
  132000    1.0367963   -5.4114299    67.475319  0.042598054  0.046417692            5 
  133000    1.0683659   -5.4308064    67.787197  0.042473181  0.046312198            4 
  134000    1.0494695   -5.4316176    68.067639  0.042330621  0.046207384            7 
  135000    1.0376815   -5.4074011    68.588041  0.042338297  0.046103948            2 
  136000    1.0525747   -5.4076217    69.205186  0.042405139  0.045998477            3 
  137000    1.0171308   -5.4209018    69.442343  0.042239868  0.045894482            2 
  138000    1.0635319   -5.4036135    69.991694  0.042265515  0.045793611            3 
  139000    1.0534825   -5.4469055      70.2703  0.042128477  0.045694748            3 
  140000    1.0512632   -5.3967601    70.589257  0.042017415  0.045596325            2 
  141000    1.0597667   -5.4066693    71.184808  0.042071399  0.045497224            3 
  142000    1.0605659   -5.4277043    71.549591  0.041989196  0.045396207            2 
  143000    1.0530361   -5.4363545    71.955406  0.041932055  0.045299779            1 
  144000    1.0501129   -5.4309637    72.197289  0.041780839  0.045198861            3 
  145000    1.0500699   -5.4378128    72.836113  0.041859835  0.045101602            2 
  146000    1.0287979   -5.4658032    72.944982  0.041635264  0.045003873            3 
  147000    1.0558187   -5.3822018    73.812754  0.041843965  0.044907726            3 
  148000    1.0489805   -5.4589832    74.026781  0.041681746  0.044816197            5 
  149000    1.0198118   -5.4762446    74.381061  0.041600146  0.044723407            2 
  150000    1.0233932    -5.462282    74.792825  0.041551569  0.044630065            3 
  151000    1.0455469   -5.4517506    75.145192  0.041470857  0.044534109            3 
  152000    1.0302544   -5.4624663    75.388824  0.041331592   0.04443858            3 
  153000    1.0422611   -5.4632012    75.669694   0.04121443  0.044342645            4 
  154000    1.0382758   -5.4662877     76.45827  0.041373522  0.044252428            4 
  155000    1.0037096     -5.50251    76.699825  0.041236465  0.044159388            4 
  156000    1.0271972   -5.4719497    76.880015  0.041068384  0.044064277            2 
  157000    1.0370966   -5.5075671    77.256276  0.041006516  0.043973175            6 
  158000    1.0189639    -5.476077    77.966167  0.041121396  0.043883758            2 
  159000     1.044275   -5.4868809    78.346488  0.041062101  0.043793903            2 
  160000   0.99527163   -5.5292702    78.327989  0.040795828  0.043701583            6 
  161000    1.0009911   -5.5154423    78.813513  0.040793744  0.043610037            4 
  162000    1.0284769   -5.4609658    79.618017   0.04095577  0.043522438            3 
  163000    1.0096593   -5.5378726    79.845056  0.040820581  0.043433687            3 
  164000      1.03151    -5.500731    80.040979  0.040671229  0.043344819            6 
  165000    1.0107053   -5.5514252    80.314151  0.040562703  0.043253902            4 
  166000    1.0104622   -5.5050343    81.013985  0.040669671  0.043164239            2 
  167000    1.0048635   -5.5167413    81.053572  0.040445894  0.043072955            2 
  168000    1.0070734   -5.4953734    80.916116  0.040136962  0.042976471            2 
  169000   0.99426496   -5.5363826    81.417984  0.040146935  0.042875053            6 
  170000   0.99029727   -5.5083946    82.169644  0.040279237  0.042779768            5 
  171000    1.0042367   -5.5403855    82.116423   0.04001775  0.042686575            3 
  172000   0.99391764    -5.514354    83.019502  0.040222627  0.042594997            5 
  173000    1.0052106    -5.553711    83.277652  0.040114476  0.042508027            3 
  174000   0.98348632   -5.5521365    83.388563  0.039937051   0.04241969            2 
  175000   0.98189737   -5.5766612    83.903875  0.039954226   0.04233087            5 
  176000    1.0037587   -5.5484749    84.347866  0.039937436  0.042241014            2 
  177000   0.99235479    -5.544773    84.993835   0.04001593  0.042152957            4 
  178000    0.9911521   -5.5516351    85.184932  0.039880586   0.04206845            2 
  179000   0.97866134    -5.574647    85.410481  0.039762794   0.04198248            3 
  180000   0.98696832   -5.5839784    85.743613  0.039696117  0.041896297            4 
  181000   0.97836863   -5.5486583    86.118099  0.039649217  0.041810458            7 
  182000   0.95825097    -5.552003    86.237861    0.0394862  0.041720905            5 
  183000   0.96924326   -5.5635453    86.735335  0.039496965  0.041630523            4 
  184000   0.95960768   -5.5768157    86.738703  0.039283833  0.041540856            3 
  185000    0.9740302   -5.5890017    86.769773  0.039085483  0.041448764            8 
  186000   0.98562966   -5.6009124    87.344244  0.039132726  0.041356841            4 
  187000    0.9542207   -5.5804964    87.780239  0.039117753  0.041268914            4 
  188000   0.97894919   -5.5825764    88.316217  0.039147259  0.041183322            3 
  189000   0.97296679   -5.6106319    88.877955  0.039187811  0.041098713            4 
  190000   0.96698949   -5.6040931    88.673273  0.038891786  0.041012128            4 
  191000   0.95049616   -5.6391281    88.973467  0.038819139  0.040923988            3 
  192000   0.96057587   -5.6179919    89.523066  0.038855497  0.040835522           10 
  193000   0.96476384   -5.6128283    89.637567  0.038703612  0.040745904            6 
  194000   0.96655173   -5.6059758    89.806401  0.038576633  0.040655817            3 
  195000   0.96455943   -5.6057048    90.196155  0.038545365  0.040564158            6 
  196000   0.93383768   -5.6168617    90.476733  0.038467999  0.040474828            9 
  197000   0.93529831   -5.6386722    90.777179  0.038399822  0.040385918            6 
  198000   0.93272816   -5.6013102    91.099243  0.038341432  0.040295438            3 
  199000   0.96483445    -5.618264    91.314606  0.038238947  0.040203771            4 
  200000   0.94428249   -5.6297592    91.539697   0.03814154  0.040110542            4 
  201000   0.94799014   -5.6215587    92.113369  0.038189622  0.040018767            6 
  202000   0.94976845   -5.6897347    91.771996  0.037859734  0.039926238            5 
  203000   0.95899476   -5.6646463    92.136147   0.03782272   0.03983289            8 
  204000   0.93204689   -5.6593303    92.264345  0.037689683  0.039741273            3 
  205000   0.91411019   -5.6822466    92.843336  0.037741193  0.039648629            4 
  206000   0.94479546   -5.6611029    93.072567  0.037650715  0.039555513            7 
  207000   0.93451139   -5.6902389     93.40053  0.037600857  0.039463294            5 
  208000   0.95503541   -5.6844168    93.598273  0.037499308  0.039370542            1 
  209000   0.94973708   -5.6761229    93.670714  0.037348769   0.03927792            6 
  210000   0.94936593   -5.6661443    94.010462  0.037305739  0.039185378            3 
  211000   0.93492314   -5.6897446    94.305276  0.037245369  0.039093183            2 
  212000   0.91078829   -5.6815363     94.28987  0.037063628  0.038998766            6 
  213000   0.93159655   -5.6973269    94.264248  0.036879596  0.038902285            5 
  214000   0.91440725    -5.706573    94.711991  0.036881616  0.038805309           11 
  215000   0.89949665   -5.6873182    94.906007  0.036785274  0.038707375            4 
  216000    0.9280766   -5.6583541    95.201136  0.036728833  0.038610637            2 
  217000     0.927986   -5.7068401    95.051837  0.036502242  0.038512772            4 
  218000   0.92760914   -5.6896883    95.068917  0.036341329  0.038413911            4 
  219000   0.91718958   -5.7512243    95.361937  0.036286886  0.038315837            5 
  220000   0.92020678   -5.7137911    95.788613  0.036283566   0.03821854            4 
  221000   0.90593677    -5.752421    95.803883  0.036125144  0.038120893            5 
  222000   0.91218642   -5.7324692     96.53328  0.036236216   0.03802175            4 
  223000   0.91112788     -5.73318    96.228484  0.035959822  0.037923676            5 
  224000   0.92030516   -5.7504923    96.551621  0.035919502   0.03782358            7 
  225000   0.91024245   -5.7136471    96.750712  0.035833597  0.037723928            7 
  226000   0.90981176   -5.7025586    96.773966  0.035683616   0.03762577            4 
  227000   0.91599303   -5.7328716    97.315989    0.0357254  0.037527338            5 
  228000   0.92792537   -5.7199725    97.323072  0.035571298  0.037429144            6 
  229000   0.91960905    -5.770915    97.513225  0.035485162  0.037329646            4 
  230000   0.89861163   -5.7383626    97.607643  0.035365088  0.037228073            4 
  231000   0.89859288   -5.7399147    98.034731  0.035366064   0.03712787            5 
  232000    0.9055299   -5.7481379    98.139927  0.035251411   0.03702923            6 
  233000   0.88178649   -5.7525874    98.609308  0.035267993  0.036930185            4 
  234000   0.90173761   -5.7619595    98.411981  0.035047002  0.036831274            4 
  235000   0.87683985   -5.7743564    98.559663  0.034950235  0.036731167            3 
  236000   0.90573877   -5.7745239     99.09639  0.034991663    0.0366311            3 
  237000   0.89353046   -5.7469502    99.118501  0.034851794  0.036532859            8 
  238000   0.87542313   -5.7955512      98.9952  0.034662185  0.036434315            3 
  239000   0.88615565   -5.7873859    99.433148  0.034669856  0.036335192            6 
  240000   0.87487182   -5.8353525     99.44808  0.034530583  0.036237203            6 
  241000   0.88588743   -5.8244318    99.181383  0.034295084  0.036136839            7 
  242000   0.86403266   -5.8067666    99.531243  0.034273844  0.036035652            3 
  243000    0.8881818   -5.7957522    99.866406  0.034247738  0.035935237            6 
  244000   0.88409821    -5.789208    100.00346  0.034154185  0.035833456            5 
  245000   0.88428054   -5.8121897     99.88198  0.033973463  0.035733091            4 
  246000    0.8751311    -5.838402    100.16471  0.033931135   0.03563169            9 
  247000   0.86321159   -5.8187891    100.59667  0.033939498  0.035532983            3 
  248000   0.87239574   -5.8469583    100.73138  0.033847909  0.035434525            7 
  249000   0.89214657   -5.8203497    101.05181  0.033819213  0.035336184            7 
  250000   0.85508329   -5.8277854    101.17253  0.033724175   0.03523801            3 
  251000   0.89445315   -5.8112073    101.39075  0.033662268  0.035140319            9 
  252000   0.88244498   -5.8281672    101.35158  0.033515733  0.035041021            5 
  253000   0.87551319   -5.8094885    101.65622  0.033483603  0.034943335            5 
  254000   0.87539506   -5.8560073    101.62775  0.033342437  0.034846177            4 
  255000   0.85570358   -5.8142216    102.01895  0.033339525  0.034749521            6 
  256000   0.85008377    -5.862011    101.76657  0.033127139  0.034652048            7 
  257000   0.84582055   -5.8211822     102.3041  0.033172537  0.034553603            3 
  258000   0.85418489   -5.8407678    102.16441  0.032998842  0.034455983            4 
  259000   0.86102746    -5.836525    102.48446  0.032974408  0.034359052            5 
  260000   0.85379553   -5.8610299    102.48663   0.03284828  0.034263745           11 
  261000   0.82639884   -5.8370901    102.94178  0.032867747  0.034169249            7 
  262000   0.85032899   -5.8619201    103.11734  0.032798136  0.034074118            4 
  263000    0.8607104   -5.8830448    102.88616  0.032600178  0.033978446            4 
  264000   0.84645313    -5.857811    103.35597  0.032624992  0.033884617            3 
  265000   0.84732455   -5.8399022    103.89599  0.032671694  0.033792019            7 
  266000   0.84808494   -5.8743195    104.00634  0.032583441   0.03369915            4 
  267000   0.83239839   -5.8879592    104.22713  0.032530314  0.033607149            4 
  268000   0.84138815   -5.8692986    104.31238   0.03243544   0.03351654            3 
  269000   0.82961891   -5.9053162    104.45433  0.032358839  0.033425858            5 
  270000   0.82911018     -5.90171    104.62904  0.032292913  0.033336257            5 
  271000   0.84712383    -5.902634    104.71153  0.032199117  0.033245879            8 
  272000   0.83305067   -5.9101948    104.86516  0.032127807  0.033155211            6 
  273000   0.84134671   -5.9091058    105.13975  0.032093942  0.033065609            5 
  274000   0.82952607   -5.8885548    105.36504  0.032045328  0.032977094            7 
  275000   0.82488676   -5.9183416    105.51226  0.031973412  0.032889569            6 
  276000   0.82660332   -5.8933028    106.03298  0.032014788  0.032802855            6 
  277000   0.84939974   -5.8916875    105.88957  0.031856069  0.032717284            3 
  278000    0.8187191   -5.9150415    106.58289  0.031949308  0.032632418            6 
  279000   0.80701244   -5.9089971    106.50446  0.031811368  0.032548484            8 
  280000    0.8130068   -5.9359663    106.51396  0.031700582  0.032463979           14 
  281000     0.812954   -5.9144731    106.86065  0.031690584  0.032379913           12 
  282000   0.82625698   -5.9001642    106.93767  0.031600965  0.032296147            4 
  283000   0.82329822    -5.934534    107.09408   0.03153536  0.032212241            4 
  284000   0.81514697   -5.9653051    107.31731  0.031489822  0.032128391            6 
  285000   0.80442105   -5.9486745    107.11022  0.031318778  0.032044061            5 
  286000   0.81706958   -5.9276291    107.75063  0.031395872  0.031960238            7 
  287000   0.81444305   -5.9333671    107.47455  0.031206315  0.031874963            6 
  288000   0.81269307   -5.9843775    107.36072  0.031065024  0.031790543            9 
  289000   0.82068243    -5.950361     107.5443  0.031010467   0.03170536            7 
  290000   0.80288809   -5.9837829    107.82004  0.030982771  0.031620597            5 
  291000   0.79982509   -5.9833723    108.17628  0.030978316  0.031536187            9 
  292000   0.78429513   -5.9646866     108.1844  0.030874544  0.031452255            6 
  293000   0.80422809   -5.9723223     108.5082  0.030861263  0.031368795            5 
  294000   0.79728592    -5.986175    108.18304  0.030664128  0.031285419            6 
  295000    0.8044829   -5.9780715    108.46894  0.030640942  0.031203392            7 
  296000   0.79654055   -5.9890633    108.56914  0.030565636  0.031121721           12 
  297000   0.80838886   -6.0280877    108.62498  0.030478388   0.03103942            7 
  298000   0.80017432   -6.0159015    108.71023  0.030399952  0.030956593            7 
  299000   0.77669715   -6.0170262    108.92072  0.030356946  0.030874745           19 
  300000   0.79445803   -6.0194181    108.90112   0.03025031  0.030792769           11 
  301000   0.78373991   -5.9895274    109.25691  0.030248313   0.03071205           12 
  302000   0.77844975    -6.000496     109.5362  0.030225221  0.030631106           12 
  303000   0.78535202   -6.0040306     109.6597  0.030159433  0.030550497            3 
  304000   0.76217503   -5.9935258    109.69516  0.030069945  0.030470022            8 
  305000    0.7829252   -6.0197195    109.71797  0.029977586  0.030388225            8 
  306000    0.7887448   -6.0149996    109.71373  0.029878467  0.030306988           17 
  307000   0.78647343   -6.0700699    109.48079  0.029717913  0.030225119           11 
  308000   0.77516112   -6.0551445    109.84485  0.029719927  0.030143395           15 
  309000   0.79608617   -6.0316126    109.74035  0.029595565   0.03006174            7 
  310000   0.76083944   -6.0601163    109.66082  0.029478714  0.029979689           10 
  311000   0.77983217   -6.0730785    110.19391  0.029526771  0.029897583           16 
  312000   0.77991776   -6.0643826    109.98342  0.029375915  0.029815753            6 
  313000   0.77114888   -6.0609665    110.36484  0.029383609  0.029733951           27 
  314000   0.76982126   -6.0715222     110.2133  0.029249815  0.029652664           14 
  315000   0.76704711   -6.0750679    110.21276  0.029156815  0.029571568           18 
  316000   0.76137387   -6.0373386    110.66371  0.029183469  0.029490892            7 
  317000   0.75673158    -6.080618    110.52481  0.029054891  0.029410544            9 
  318000   0.76566688   -6.0997787    110.45191   0.02894442  0.029330177            8 
  319000   0.75593086   -6.0821948    110.82347   0.02895075   0.02924968            8 
  320000   0.74921784   -6.0789337     110.9026  0.028880886  0.029169287            6 
  321000   0.74584186   -6.0877737    110.92272  0.028796136  0.029089196            9 
  322000   0.74499103   -6.0753615    111.13045  0.028760469  0.029009567            5 
  323000   0.77007818   -6.1144626    111.27982  0.028709964    0.0289302            5 
  324000   0.73810013   -6.0870254    111.31135  0.028629464  0.028850572            6 
  325000   0.75532927   -6.1175495    111.00835  0.028463678  0.028770689            9 
  326000   0.75292124   -6.1117885    111.11432  0.028403456   0.02869014            8 
  327000   0.72401057   -6.1172942    111.01411  0.028291057  0.028610592            7 
  328000   0.74178782   -6.0924099    111.34657  0.028289272  0.028531036            9 
  329000   0.75871047    -6.140835    111.42874  0.028224097  0.028451922           23 
  330000   0.73677212   -6.1307403     111.4349  0.028140127  0.028372866            7 
  331000   0.73658489   -6.1422875    111.55486  0.028085313  0.028294438            7 
  332000   0.71206347   -6.1548064    111.72279  0.028042869   0.02821598           11 
  333000   0.73159688   -6.1242702     111.6675  0.027944821  0.028137513            5 
  334000   0.72467226   -6.1615507    111.60867  0.027846474  0.028059097           15 
  335000    0.7469262   -6.1406543    111.83165  0.027818818  0.027980969            6 
  336000    0.7259094   -6.1233423    112.04544  0.027789049  0.027903038            4 
  337000   0.72230295   -6.1459288    112.04978  0.027707661  0.027824733            7 
  338000   0.73751247   -6.1751588    111.89561  0.027587676   0.02774711           10 
  339000   0.72493572   -6.1691337    111.93099  0.027514993  0.027669679           10 
  340000   0.71527761    -6.148292     111.9889   0.02744826  0.027592247            4 
  341000    0.7204882   -6.1698366    111.84431  0.027332431  0.027514972            8 
  342000   0.73371375   -6.1602054    112.07085  0.027307711  0.027437417           17 
  343000   0.70772423   -6.1723324    111.84851   0.02717408  0.027359648            9 
  344000   0.71894183   -6.1868522    112.01779  0.027136092  0.027281563            4 
  345000   0.70823868   -6.2112428    111.95353  0.027041915  0.027203812            5 
  346000    0.7222929   -6.1902349    112.33349  0.027055272  0.027126683           14 
  347000   0.71076904   -6.1729441    112.23977  0.026954796  0.027049464            8 
  348000   0.71289915   -6.2019884    112.79825  0.027011076  0.026972639           26 
  349000   0.70634606   -6.1784297    112.64468   0.02689701  0.026896234           10 
  350000   0.70286994     -6.17504    112.46377  0.026777088  0.026820765            9 
  351000    0.7291676   -6.1987022    112.93657   0.02681305  0.026745663           14 
  352000   0.68143824   -6.2050457     113.1421  0.026785534  0.026670429           10 
  353000    0.6939868   -6.2157696    113.02917  0.026682995  0.026595387           41 
  354000   0.71326768   -6.2376333    112.80763  0.026555468  0.026520888            8 
  355000   0.69649621   -6.2494251    113.06622  0.026541367  0.026446529            7 
  356000   0.70597363   -6.2411227    113.22733  0.026504524  0.026372514            5 
  357000   0.69639008   -6.2615012    113.42082  0.026475449  0.026298922            6 
  358000   0.70277646     -6.22164    113.35734  0.026386719   0.02622564            7 
  359000   0.68895552   -6.2488234    113.18426   0.02627304  0.026152566           12 
  360000   0.69333673   -6.2391322    113.21182   0.02620644  0.026078991           11 
  361000   0.70262883   -6.2539958    112.98642  0.026081815  0.026005576           16 
  362000   0.67811751   -6.2424651    113.36827  0.026097668  0.025931966            7 
  363000   0.70797016   -6.2512372    113.18411  0.025983495  0.025858609            9 
  364000   0.69172427   -6.2594171     113.4777  0.025979327   0.02578461            7 
  365000   0.67786455   -6.2684085       113.41  0.025892695   0.02571141            9 
  366000   0.67053204   -6.2648747     113.1166  0.025755145  0.025638381           11 
  367000   0.67234685   -6.2661269    113.62892  0.025801298  0.025565557            9 
  368000   0.65576138   -6.2940555    113.47965  0.025697384  0.025493106           10 
  369000   0.67778208   -6.2825277      113.667  0.025670054  0.025420882            8 
  370000   0.68597895   -6.2831282    113.63781  0.025594101  0.025348495            9 
  371000   0.67862388   -6.2817172    113.45409  0.025483848  0.025276032           13 
  372000   0.67188739   -6.3088471    113.36292  0.025394919   0.02520409           10 
  373000   0.67476158   -6.3103169     113.6367  0.025388003  0.025131965            8 
  374000   0.67990743   -6.3151324    113.51907  0.025293911  0.025059985           13 
  375000   0.66999904   -6.2853203    113.88381  0.025307512  0.024987847           16 
  376000   0.67787191   -6.3109517     113.4972  0.025154521  0.024915946           16 
  377000   0.67569015   -6.3203136    113.60686  0.025112038   0.02484413           19 
  378000   0.66395167   -6.3299877    113.41569   0.02500346  0.024772652           10 
  379000   0.65806045   -6.2968684    113.92651  0.025049804  0.024701327           14 
  380000   0.66759629   -6.3075635    113.94085  0.024987028  0.024629948            9 
  381000   0.65474774   -6.3405259    113.60578  0.024848159   0.02455864           15 
  382000   0.67830544   -6.3392672    113.42657  0.024744015  0.024487414           14 
  383000   0.66603264   -6.3459061    114.05141  0.024815362  0.024416512           15 
  384000   0.65666214   -6.3364236     113.8135  0.024699109  0.024346156           25 
  385000    0.6485278   -6.3686016    114.06467  0.024689323  0.024276023           15 
  386000   0.64613289   -6.3716404    114.14648  0.024643022  0.024206001            8 
  387000   0.63400771   -6.3503172    114.14736  0.024579534  0.024136165           16 
  388000   0.66072192   -6.3627328    114.04139  0.024493425  0.024066723           12 
  389000   0.64436273    -6.356636    114.27309  0.024480097  0.023997054           13 
  390000   0.64612446   -6.3723262    114.14547  0.024390057  0.023927537           17 
  391000   0.65693459   -6.3698603    114.06481  0.024310487  0.023857985           21 
  392000   0.63434821   -6.3815769     113.9525  0.024224597  0.023788581           36 
  393000   0.64274105   -6.4084988    114.19441  0.024214252  0.023719265           16 
  394000   0.63183388   -6.4035332    113.95903  0.024103009  0.023650283           20 
  395000   0.64991668   -6.4017812    113.73662  0.023995068  0.023581003           23 
  396000   0.64512558   -6.4075872    114.01018  0.023992041  0.023511812           32 
  397000   0.65164462   -6.4093755    113.99108  0.023927598  0.023443038           39 
  398000   0.62984387   -6.4312046    113.94127  0.023857051  0.023374357           32 
  399000   0.62970238    -6.420753    114.30892  0.023874044  0.023306155           28 
  400000   0.62602611   -6.4021021    114.18064  0.023787634  0.023238144           22 
  401000   0.63070042   -6.3925053    114.32041  0.023757358  0.023170398           14 
  402000    0.6261983   -6.4279074    114.39236  0.023713175  0.023103061           11 
  403000   0.62023489   -6.3877861    114.23735  0.023622281  0.023036044           18 
  404000   0.62536466   -6.4093199    114.31829  0.023580504  0.022968961           14 
  405000   0.63786426   -6.4141861    114.23154  0.023504432  0.022902148           19 
  406000   0.61734831   -6.3918541    114.51481  0.023504681  0.022835719           33 
  407000   0.61142486    -6.422712    114.45357  0.023434392  0.022769243           45 
  408000   0.62670097    -6.448699    114.52337   0.02339121  0.022702995           22 
  409000   0.61403108   -6.4184148    114.36385  0.023301518  0.022636611           15 
  410000   0.60775892   -6.4368413    114.52147  0.023276722  0.022570311           11 
  411000   0.60362314   -6.4597149    114.18529  0.023151924   0.02250417           36 
  412000   0.61000198   -6.4717142    114.14429  0.023087438  0.022437941           45 
  413000   0.61067093   -6.4778961    114.11066  0.023024751  0.022371857           31 
  414000   0.61742486   -6.4545815    114.32808  0.023012898  0.022306005           28 
  415000   0.59735211   -6.4561244    114.50605  0.022993183  0.022240554           16 
  416000   0.61690254   -6.4782434     114.5236  0.022941427  0.022175645           11 
  417000     0.608593   -6.4798525    114.47836   0.02287737  0.022110967           15 
  418000   0.61169139   -6.4920195    114.40466  0.022807947   0.02204629           45 
  419000   0.60460079   -6.4810757    114.22053  0.022716891  0.021981495           22 
  420000   0.61288843   -6.4596174    114.24796  0.022668246  0.021917117           10 
  421000   0.60436311   -6.4693165    114.53115  0.022670457  0.021853232            7 
  422000   0.59705785   -6.4849604    114.52916  0.022616342  0.021789361           21 
  423000   0.58790416   -6.5006552    114.51322  0.022559736  0.021725621           32 
  424000   0.58957987   -6.4730118    114.46824  0.022497688   0.02166194           30 
  425000   0.57625619   -6.4998985    114.34773  0.022421124  0.021598408           30 
  426000   0.58828493   -6.5027531    114.26379  0.022352072  0.021535029           23 
  427000   0.58449291   -6.4972261    114.37646  0.022321713  0.021471808           30 
  428000   0.58711855   -6.4976059    114.48698  0.022291078  0.021408939           31 
  429000   0.57947464   -6.5006144    114.47018  0.022235855  0.021345971           44 
  430000   0.57980015   -6.4892649    114.59904  0.022209117  0.021283424           35 
  431000   0.56093871   -6.5007907    114.41598  0.022122192  0.021221286           30 
  432000   0.57891402   -6.5047428    114.69231  0.022124288  0.021159299           33 
  433000   0.58526821   -6.5202012    114.69195  0.022073123   0.02109744           28 
  434000   0.56734392   -6.5287843    114.66334   0.02201677  0.021035894           43 
  435000   0.56729676   -6.5466219    114.50293  0.021935428  0.020974141           25 
  436000   0.55504921   -6.5064614    114.69111  0.021921084  0.020912578           29 
  437000   0.56762348   -6.5286558    114.50325  0.021835098  0.020851375           18 
  438000   0.57282428   -6.5597755    114.63992  0.021811248  0.020790222           32 
  439000    0.5608689   -6.5750238    114.06482  0.021652395    0.0207291           42 
  440000   0.57122127   -6.5639493    114.34224  0.021655728  0.020667903           31 
  441000   0.56633373   -6.5699017    114.38449  0.021614606  0.020606989           34 
  442000   0.57162474   -6.5892499     114.0535    0.0215033  0.020545987           27 
  443000   0.56297738   -6.5905664    114.14088  0.021471197  0.020484963           25 
  444000   0.55993584   -6.5950764    114.31554  0.021455618  0.020424092          102 
  445000   0.55614475   -6.5797178    114.18129  0.021382264  0.020363396           42 
  446000   0.55691528   -6.5805287     114.2331  0.021344003  0.020302885           31 
  447000   0.56913958    -6.601562    114.32088  0.021312618    0.0202425           82 
  448000   0.54918637   -6.5980106    114.20409   0.02124332  0.020182234           46 
  449000   0.53668199   -6.6067683    114.24669  0.021203914  0.020122171           38 
  450000   0.54778509   -6.5984226    114.23202  0.021154077  0.020062298           43 
  451000    0.5433958   -6.5954521    114.23205  0.021107179  0.020002478           54 
  452000    0.5445305   -6.6096609    114.18487  0.021051783  0.019942976           54 
  453000   0.56334243   -6.6067387    114.10199  0.020990064  0.019883711           38 
  454000   0.53041387   -6.6188696    113.84471  0.020896606  0.019824456           27 
  455000   0.52907972   -6.6260587    113.98214   0.02087585  0.019765367           47 
  456000   0.53869687   -6.6242957    114.20928   0.02087158  0.019706471           41 
  457000   0.54802486   -6.6383516    114.04652  0.020796229  0.019647807           60 
  458000   0.53117384   -6.6366527    114.25063   0.02078796  0.019589294           47 
  459000   0.54223328   -6.6364692    113.96191  0.020690252  0.019530871           49 
  460000   0.54605403   -6.6407627    114.19042   0.02068667  0.019472759           47 
  461000    0.5331423   -6.6305835     114.0482  0.020616089  0.019414599           55 
  462000   0.53045313   -6.6452209    113.89471  0.020543779  0.019356634           83 
  463000    0.5341789   -6.6627855    114.00403  0.020519084  0.019299012           25 
  464000   0.52045833   -6.6437376    113.95167  0.020465458  0.019241565           40 
  465000   0.52453061   -6.6600242    113.94004  0.020419362  0.019184342           51 
  466000   0.51418631   -6.6619464    113.95491  0.020378202  0.019127413           67 
  467000   0.51729818   -6.6628988     113.8335  0.020312901  0.019070565           51 
  468000   0.52779619   -6.6753034     113.9893   0.02029724  0.019013691           40 
  469000   0.51207487   -6.6702296    114.27834   0.02030532  0.018957159           52 
  470000   0.50967192   -6.6768063     114.1795  0.020244592  0.018900959           66 
  471000   0.51666356   -6.6786601    113.99866  0.020169614  0.018844766           63 
  472000    0.5234803   -6.6844029    113.85552   0.02010161  0.018788559           59 
  473000    0.5061739   -6.6801217    114.16154  0.020113026  0.018732633           32 
  474000   0.50935723   -6.6959501     113.7928  0.020005766  0.018676882           36 
  475000    0.5198576    -6.698084     113.8869  0.019980158  0.018621331           79 
  476000   0.49968296   -6.6984613     113.8559  0.019932756  0.018565802           89 
  477000   0.50520428   -6.6961559    113.70735  0.019865016  0.018510592          117 
  478000   0.50147126   -6.6976865    113.75924  0.019832503   0.01845547          145 
  479000   0.49744414    -6.707504    113.73644  0.019787133  0.018400451          187 
  480000   0.49665809   -6.7224519     113.5568  0.019714723  0.018345543          105 
  481000   0.49853774   -6.7059498    113.65951   0.01969153  0.018290888           40 
  482000   0.49623147   -6.7194583    113.73627  0.019663947  0.018236303           65 
  483000   0.50242303   -6.7135898    113.39941  0.019565115  0.018181753           45 
  484000   0.49274105   -6.7256012    113.75819  0.019586466  0.018127334           91 
  485000   0.48633271   -6.7097298    113.73349  0.019541837  0.018073105           72 
  486000   0.49743057   -6.7432914    113.60046  0.019478817  0.018018949           89 
  487000   0.49599809   -6.7161478    113.80528  0.019473867  0.017965007           73 
  488000   0.49523863   -6.7351915    113.44188  0.019371905  0.017911243           89 
  489000   0.49139444   -6.7293255    113.24832  0.019299305  0.017857612          117 
  490000   0.47854201   -6.7396801    113.70922  0.019338302  0.017804293          164 
  491000   0.50142516   -6.7443612     113.6344  0.019286218  0.017751077          231 
  492000   0.47807336   -6.7443285    113.51263  0.019226394  0.017698073           83 
  493000   0.48190118   -6.7476341     113.5243  0.019189367  0.017645277          122 
  494000   0.47685285   -6.7475755    113.45519  0.019138865  0.017592636          116 
  495000    0.4667227   -6.7502263    113.35857  0.019083934  0.017540154           60 
  496000   0.46743695   -6.7672495    113.42759  0.019057055  0.017487819           64 
  497000   0.47632439   -6.7672424    113.44428  0.019021509  0.017435633          136 
  498000   0.46657314   -6.7572744    113.37344  0.018971459  0.017383537           94 
  499000   0.47481239   -6.7579015    113.60875  0.018972737   0.01733175           61 
  500000   0.46959726   -6.7720941    113.37779  0.018896299  0.017280137           80 
  501000   0.45748299    -6.782809    113.27294  0.018841142  0.017228558          118 
  502000   0.45568084   -6.7923523    113.25414  0.018800489  0.017177096          248 
  503000   0.46272861   -6.7789591    113.15978  0.018747478  0.017125798          150 
  504000   0.46103871      -6.7701    113.29543  0.018732709  0.017074676          134 
  505000   0.46552858   -6.7799296    113.39148  0.018711465  0.017023833           54 
  506000    0.4608683   -6.7795111    113.16463  0.018637126  0.016973055          144 
  507000   0.46926166   -6.7719629    113.28967  0.018620918  0.016922412           74 
  508000   0.46535251   -6.7929067    113.28971   0.01858427  0.016871924           75 
  509000   0.45008268   -6.7923691    113.18257  0.018530217  0.016821557          115 
  510000   0.44367622   -6.7975902    113.18768  0.018494718   0.01677131          115 
  511000   0.44212875   -6.7841273    113.19195  0.018459222   0.01672124          152 
  512000   0.44485658    -6.809573     113.0417  0.018398714  0.016671363          119 
Loop time of 1280.27 on 48 procs for 500000 steps with 4000 atoms

Performance: 67485.569 tau/day, 390.541 timesteps/s
99.4% CPU use with 48 MPI tasks x no OpenMP threads

MPI task timing breakdown:
Section |  min time  |  avg time  |  max time  |%varavg| %total
---------------------------------------------------------------
Pair    | 91.533     | 97.943     | 106.03     |  38.5 |  7.65
Neigh   | 8.8235     | 9.1653     | 9.4607     |   5.7 |  0.72
Comm    | 82.156     | 89.538     | 97.102     |  37.1 |  6.99
Output  | 0.96241    | 0.96336    | 0.99643    |   0.5 |  0.08
Modify  | 1065.7     | 1070.6     | 1073.4     |   6.4 | 83.63
Other   |            | 12.03      |            |       |  0.94

Nlocal:        83.3333 ave          91 max          78 min
Histogram: 2 4 4 14 11 7 3 1 1 1
Nghost:        2387.60 ave        2404 max        2371 min
Histogram: 3 7 7 1 4 5 6 8 4 3
Neighs:        16464.7 ave       18681 max       14301 min
Histogram: 5 6 4 3 5 4 8 8 2 3
FullNghs:      32928.8 ave       36265 max       30832 min
Histogram: 3 4 9 8 13 6 2 1 1 1

Total # of neighbors = 1580582
Ave neighs/atom = 395.14550
Neighbor list builds = 26782
Dangerous builds = 0

#clear
#
#next RN
#
#jump SELF
Total wall time: 0:21:23
