
units lj                  # Use reduced LJ style units
atom_style atomic         # Uncharged point particles
atom_modify map hash      # Needed for indexing of clusters etc
                          # Used to be able to find where atoms are in relation to each other.

lattice fcc 1.0 spacing 1 1 1
Lattice spacing in x,y,z = 1.5874011 1.5874011 1.5874011
region box block 0 10 0 10 0 10 units lattice
create_box 2 box
Created orthogonal box = (0.0000000 0.0000000 0.0000000) to (15.874011 15.874011 15.874011)
  3 by 4 by 4 MPI processor grid
create_atoms 1 box
Created 4000 atoms
  using lattice units in orthogonal box = (0.0000000 0.0000000 0.0000000) to (15.874011 15.874011 15.874011)
  create_atoms CPU = 0.029 seconds
set type 1 type/fraction 2 0.98 78393
Setting atom values ...
  3920 settings made for type/fraction
mass 1 1.0
mass 2 1.0
pair_style lj/cut  3.5
pair_modify tail  yes
pair_coeff 1  1  1.0  1.0   # Intearaction between 1 and 1 set with epsilon = 1 and sigma = 1
pair_coeff 1  2  1.5  0.8
pair_coeff 2  2  0.5  0.88

write_data data.0
System init for write_data ...
Neighbor list info ...
  update every 1 steps, delay 10 steps, check yes
  max neighbors/atom: 2000, page size: 100000
  master list distance cutoff = 3.8
  ghost atom cutoff = 3.8
  binsize = 1.9, bins = 9 9 9
  1 neighbor lists, perpetual/occasional/extra = 1 0 0
  (1) pair lj/cut, perpetual
      attributes: half, newton on
      pair build: half/bin/atomonly/newton
      stencil: half/bin/3d
      bin: standard
WARNING: Not all mixed pair coeffs generated from mixing. Use write_data with 'pair ij' option to store all pair coeffs. (../write_data.cpp:312)


#############################
#   M E L T   S Y S T E M   #
#############################

velocity all create 2.4 9580093 mom yes dist gaussian # Assign velocities
                                                    # Temperature 2.4, random number seed, zero linear momentum
                                                                                # Gaussian distribution

timestep 0.002   # simulation timestep
thermo 1000       # output thermodynamic data every 1000 steps bf 100

# Define a fix  in this case with index 1 applied to all
# particles in the simulation. This fix is for simulations
# in the anisotropic NPT ensemble. Note that we use the MTK
# correction.
fix 1 all npt temp 2.4 2.4 0.1 iso 5.68 5.68 0.5 mtk yes tchain 5 pchain 5 # Use NPT ensemble
                                                                         # Set temperature and pressure and damping
                                                                         # Numbers of thermostats in chain and in barostat
run 10000          # run for 10000 steps
Per MPI rank memory allocation (min/avg/max) = 3.642 | 3.644 | 3.648 Mbytes
Step Temp E_pair E_mol TotEng Press Volume 
       0          2.4   -2.7962588            0   0.80284124   -1.8826162         4000 
    1000    2.4302564   -1.5445034            0    2.0999699    5.8653266    4222.9552 
    2000    2.4311406    -1.592312            0    2.0534873     5.614243    4226.0994 
    3000    2.4591844   -1.6058703            0     2.081984    5.9006389    4155.7157 
    4000    2.4405292   -1.5747868            0    2.0850917    5.8598384    4192.2977 
    5000    2.4266907    -1.601905            0     2.037221    5.4854845    4230.7329 
    6000    2.3883642   -1.5711972            0    2.0104534    5.8031824    4186.6474 
    7000    2.4315975   -1.6105208            0    2.0359635    5.6482852    4204.8188 
    8000    2.3878294   -1.5871162            0    1.9937325    5.5967121    4226.0552 
    9000    2.4179629     -1.57755            0    2.0484875    5.6745339    4216.2782 
   10000    2.4258034   -1.5865333            0    2.0512622    5.7828258    4195.4877 
Loop time of 2.41503 on 48 procs for 10000 steps with 4000 atoms

Performance: 715518.868 tau/day, 4140.734 timesteps/s
99.6% CPU use with 48 MPI tasks x no OpenMP threads

MPI task timing breakdown:
Section |  min time  |  avg time  |  max time  |%varavg| %total
---------------------------------------------------------------
Pair    | 1.0529     | 1.1047     | 1.1997     |   2.8 | 45.74
Neigh   | 0.20168    | 0.21197    | 0.22858    |   1.0 |  8.78
Comm    | 0.76302    | 0.83606    | 0.92389    |   4.3 | 34.62
Output  | 0.00023957 | 0.00024533 | 0.0003148  |   0.0 |  0.01
Modify  | 0.20101    | 0.2474     | 0.28951    |   5.4 | 10.24
Other   |            | 0.01469    |            |       |  0.61

Nlocal:        83.3333 ave          90 max          72 min
Histogram: 2 1 1 6 4 5 7 8 8 6
Nghost:        1600.88 ave        1633 max        1571 min
Histogram: 2 2 6 10 7 7 3 7 2 2
Neighs:        9092.31 ave       10227 max        7746 min
Histogram: 2 3 3 4 11 5 6 6 6 2

Total # of neighbors = 436431
Ave neighs/atom = 109.10775
Neighbor list builds = 913
Dangerous builds = 232

# Equilibrate just above the melting temperature to avoid step fn in T

fix 1 all npt temp 1.25 1.25 0.1 iso 5.68 5.68 0.5 mtk yes tchain 5 pchain 5
run 2000
Per MPI rank memory allocation (min/avg/max) = 3.643 | 3.645 | 3.649 Mbytes
Step Temp E_pair E_mol TotEng Press Volume 
   10000    2.4258034   -1.5865333            0    2.0512622    5.7828258    4195.4877 
   11000    1.2419778   -2.4353661            0  -0.57286514    5.7330119     3286.854 
   12000    1.2400586   -2.4130356            0  -0.55341266    6.0590266    3262.7307 
Loop time of 0.569606 on 48 procs for 2000 steps with 4000 atoms

Performance: 606735.100 tau/day, 3511.198 timesteps/s
99.6% CPU use with 48 MPI tasks x no OpenMP threads

MPI task timing breakdown:
Section |  min time  |  avg time  |  max time  |%varavg| %total
---------------------------------------------------------------
Pair    | 0.25986    | 0.27586    | 0.29306    |   1.5 | 48.43
Neigh   | 0.0378     | 0.039661   | 0.041432   |   0.4 |  6.96
Comm    | 0.1882     | 0.20501    | 0.22156    |   1.9 | 35.99
Output  | 5.1953e-05 | 5.3385e-05 | 6.9037e-05 |   0.0 |  0.01
Modify  | 0.039932   | 0.044355   | 0.049033   |   1.2 |  7.79
Other   |            | 0.004667   |            |       |  0.82

Nlocal:        83.3333 ave          91 max          78 min
Histogram: 7 3 7 9 4 5 6 2 2 3
Nghost:        1880.50 ave        1905 max        1864 min
Histogram: 7 6 5 7 7 6 3 2 3 2
Neighs:        11693.4 ave       13118 max       10374 min
Histogram: 4 3 2 9 7 7 10 1 1 4

Total # of neighbors = 561283
Ave neighs/atom = 140.32075
Neighbor list builds = 142
Dangerous builds = 9

#############################
# L I N E A R  Q U E N C H  #
#############################

# Define solid atoms. This closely follows ten Wolde  Ruiz-Montero and Frenkel  Faraday Discuss  1996  104  93-110
# Compute components of the per-atom q6 vector
compute q6 all orientorder/atom degrees 1 6 components 6 nnn NULL cutoff 1.3 # compute the Q6 parameter.
                                                                             # Use all neighbours within 1.3 unit cell.

# get number of connections
compute coord_number all coord/atom orientorder q6 0.5

# An atom is solid if it has 8 or more connections (of a possible 14)
variable is_solid atom c_coord_number>=8
group solid dynamic all var is_solid    # Must be dynamic to update
dynamic group solid defined

# do clustering
compute cluster solid cluster/atom 1.3 # Create a cluster where all atoms within are solid and max 1.3 units from another member

# define chunks one chunk per cluster
compute clus_chunks solid chunk/atom c_cluster nchunk every compress yes  # Says which atoms are in which chunk

# count the size of each chunk
compute size_chunks solid property/chunk clus_chunks count


# Find the maximum entry in the vector of chunk sizes
variable max_n equal max(c_size_chunks)


# Thermo style which includes this variable
# thermo_style custom step temp pe vol v_max_n

thermo ${N}  # Print the thermo information every 100 steps
thermo 1000  

# Reset the npt fix at a lower temperature (below freezing)
fix 1  all npt temp  ${temp} ${temp}  0.1  iso  5.68  5.68  0.5  mtk yes tchain  5  pchain  5
fix 1  all npt temp  0.45 ${temp}  0.1  iso  5.68  5.68  0.5  mtk yes tchain  5  pchain  5
fix 1  all npt temp  0.45 0.45  0.1  iso  5.68  5.68  0.5  mtk yes tchain  5  pchain  5

dump dmp2 all dcd ${N} traj.dcd
dump dmp2 all dcd 1000 traj.dcd


compute msd all msd com yes
variable twopoint equal c_msd[4]/6/(step*dt+1.0e-6)
fix 9 all vector 10 c_msd[4]
variable fit equal slope(f_9)/6/(10*dt)
thermo_style custom step temp pe c_msd[4] v_twopoint v_fit v_max_n

fix 1 all npt temp 1.25 ${temp} 0.1 iso 5.68 5.68 0.5 mtk yes tchain 5 pchain 5
fix 1 all npt temp 1.25 0.45 0.1 iso 5.68 5.68 0.5 mtk yes tchain 5 pchain 5
run 500000 # 5000000  # Run for this many steps
Neighbor list info ...
  update every 1 steps, delay 10 steps, check yes
  max neighbors/atom: 2000, page size: 100000
  master list distance cutoff = 3.8
  ghost atom cutoff = 3.8
  binsize = 1.9, bins = 8 8 8
  4 neighbor lists, perpetual/occasional/extra = 1 3 0
  (1) pair lj/cut, perpetual
      attributes: half, newton on
      pair build: half/bin/atomonly/newton
      stencil: half/bin/3d
      bin: standard
  (2) compute orientorder/atom, occasional
      attributes: full, newton on
      pair build: full/bin/atomonly
      stencil: full/bin/3d
      bin: standard
  (3) compute coord/atom, occasional
      attributes: full, newton on
      pair build: full/bin/atomonly
      stencil: full/bin/3d
      bin: standard
  (4) compute cluster/atom, occasional
      attributes: full, newton on
      pair build: full/bin/atomonly
      stencil: full/bin/3d
      bin: standard
Per MPI rank memory allocation (min/avg/max) = 9.815 | 9.818 | 9.822 Mbytes
Step Temp PotEng c_msd[4] v_twopoint v_fit v_max_n 
   12000    1.2400586   -2.4130356 1.8893219e-30 1.312029e-32 8.3333333e+20            2 
   13000    1.2433362   -2.4072747     1.162023 0.0074488654   0.10009074            1 
   14000    1.2809201   -2.4246282    2.4219113  0.014416138   0.10216885            2 
   15000    1.2647868    -2.422013    3.7518998  0.020843887   0.10538076            2 
   16000    1.2658527   -2.4496486    4.9406964  0.025732793   0.10570529            1 
   17000    1.2222603     -2.42162    6.2314723  0.030546432   0.10512688       -1e+20 
   18000    1.2490414    -2.465146    7.3388317  0.033976072   0.10413941            2 
   19000    1.2480713   -2.4359506    8.6493259  0.037935639   0.10362142            1 
   20000    1.2402775   -2.4492253    10.024438  0.041768491   0.10418724            1 
   21000    1.2441694   -2.4498992    11.303175  0.044853868    0.1047561            2 
   22000    1.2241434    -2.462656    12.604485   0.04774426   0.10533314            1 
   23000    1.2325142   -2.4299911    14.214338  0.051501224   0.10605054            2 
   24000    1.2418379   -2.4597294    15.432949  0.053586627   0.10708777            2 
   25000    1.2503143   -2.4660685    16.705641  0.055685467   0.10758246            2 
   26000    1.2196716   -2.4911551    17.794305  0.057033029   0.10767236            1 
   27000    1.2386528   -2.4506325    19.066075  0.058845908   0.10764042            2 
   28000    1.2186375   -2.4673967    20.280983  0.060360067   0.10745298            1 
   29000    1.2147523   -2.4952576    21.584912  0.062025607   0.10711656            1 
   30000    1.2558599   -2.4817482    22.827403  0.063409452   0.10690313            2 
   31000    1.2069048   -2.4467521    24.136759   0.06488376   0.10676231            1 
   32000    1.2049499   -2.4754891    25.407659  0.066165777   0.10675563            1 
   33000    1.2351476   -2.4691596    26.703096  0.067432061   0.10670198            2 
   34000    1.2190412   -2.4642057    27.921969  0.068436196    0.1066126            1 
   35000    1.2425565   -2.5073366    29.264378  0.069677089   0.10652033            2 
   36000    1.2105325   -2.4705718    30.521707  0.070652099   0.10650484            1 
   37000    1.2112627    -2.470093    31.555927  0.071071908   0.10640356            1 
   38000    1.1951951   -2.5205442    33.005932  0.072381428   0.10628675            2 
   39000    1.2332584   -2.4905832    34.509659  0.073738586   0.10634987            1 
   40000    1.2300585   -2.4696951    35.477847  0.073912181   0.10636703            1 
   41000    1.2116398   -2.4891401    36.917413  0.075035392   0.10637407            2 
   42000    1.2145636   -2.4841672    38.131963  0.075658655   0.10631233            1 
   43000    1.1872435   -2.4918808    39.447065    0.0764478   0.10631958            2 
   44000    1.1809103   -2.4858254    40.896673  0.077455819   0.10636041            1 
   45000    1.1876854   -2.4986469    41.673585  0.077173305   0.10627148            2 
   46000    1.2015588   -2.4796554    43.018021  0.077931196   0.10616243            1 
   47000    1.2105405   -2.4717048    44.167501   0.07831117   0.10610043            3 
   48000    1.2046873     -2.48423    45.571854  0.079117802   0.10602199            1 
   49000    1.1923338   -2.4805333    46.963378   0.07986969   0.10593752            2 
   50000    1.1928321   -2.4970591     47.65008  0.079416799   0.10579965            1 
   51000    1.1779493   -2.5006216    49.117526  0.080257394   0.10564635            3 
   52000    1.1729206   -2.4959524    50.197807  0.080445203   0.10550785            2 
   53000    1.1799406   -2.5009154    51.151966  0.080427619   0.10534108            3 
   54000    1.1849187   -2.5170517     52.43439  0.080917268    0.1051475            1 
   55000    1.1746681   -2.5076095     53.95303  0.081747014   0.10499086            1 
   56000    1.1715858   -2.5048784    55.198708  0.082140934   0.10488217            1 
   57000    1.1544878   -2.5120209    55.967123  0.081823278   0.10472064            1 
   58000    1.1664395   -2.5190759    57.281207  0.082300584   0.10459046            3 
   59000    1.1990612   -2.5084396     58.62515  0.082803883   0.10447302       -1e+20 
   60000    1.1698076   -2.4947983     60.26041  0.083695013   0.10439813            2 
   61000    1.1600342   -2.5282919     61.05722  0.083411502    0.1043077            1 
   62000    1.1954522   -2.5088312    62.623332  0.084171144   0.10424048            1 
   63000    1.1718497    -2.525888    63.698833  0.084257715   0.10415865            1 
   64000    1.1439181    -2.520742     64.50728  0.083993854   0.10406301            1 
   65000    1.1372112    -2.506213    65.408935  0.083857608   0.10391446            1 
   66000    1.1582461   -2.5136712    66.516754    0.0839858   0.10370377            1 
   67000    1.1465635   -2.5240373    68.030083  0.084614531   0.10355599            1 
   68000    1.1786367    -2.526742    69.039528  0.084607264   0.10340378            2 
   69000    1.1421633   -2.5732957    70.594393  0.085258929   0.10328087            1 
   70000     1.172072   -2.5638117    71.526862  0.085151026   0.10316848            3 
   71000    1.1690199   -2.5311804    73.019121  0.085703193    0.1030429            1 
   72000    1.1283807   -2.5481671    73.929808  0.085566907     0.102936            2 
   73000    1.1368644   -2.5112466    74.984814  0.085599102   0.10286107            1 
   74000    1.1314874   -2.5317595    76.450538  0.086092948   0.10277577            2 
   75000    1.1510646    -2.534534    77.634662  0.086260735   0.10270229            2 
   76000    1.1424225   -2.5505325    78.634337   0.08622186   0.10262242            2 
   77000    1.1248758   -2.5477688    79.959152  0.086535878   0.10256914            2 
   78000    1.1452226   -2.5344474    80.992871  0.086530845   0.10249092            2 
   79000    1.1334327   -2.5460029    81.972565  0.086468949   0.10239741            3 
   80000    1.1457357   -2.5416866    83.350383  0.086823315   0.10231008            1 
   81000    1.1411479    -2.550732    83.892458  0.086309112    0.1022005            2 
   82000    1.1329893   -2.5604512    85.513759  0.086904226   0.10208914            4 
   83000    1.1402326     -2.55898    86.691825  0.087039984   0.10196711            3 
   84000    1.1349103   -2.5689286    87.209452  0.086517313   0.10185298            1 
   85000    1.1176213   -2.5929173    88.662617  0.086924133   0.10172244            1 
   86000    1.1303571   -2.5641983    90.161922  0.087366203    0.1016065            1 
   87000    1.1229982   -2.5487179    91.075722  0.087237281   0.10150238            1 
   88000     1.136573   -2.5356726    91.984206  0.087106255   0.10136374            2 
   89000    1.1142164   -2.5626129    92.865542  0.086952754   0.10124728            1 
   90000    1.1018819   -2.5725997    94.388244  0.087396522   0.10111068            2 
   91000    1.1006248   -2.5309056    95.478336  0.087434373   0.10099324            1 
   92000    1.1376138   -2.5607654    96.443904  0.087358608   0.10087245            2 
   93000    1.1235763   -2.6043078    97.821924  0.087654053   0.10077695            1 
   94000     1.106979   -2.5746885    99.053692  0.087813557   0.10068317            4 
   95000      1.12047   -2.5749713     99.69036  0.087447684   0.10059618            2 
   96000    1.1110934   -2.5659854    101.41749  0.088036016   0.10050124            2 
   97000    1.1171741    -2.557664     101.5379  0.087231871    0.1003905            1 
   98000    1.1137186   -2.6050679    102.87179  0.087476013   0.10026619            2 
   99000    1.1083649   -2.5566204     104.8675  0.088272306   0.10015283            2 
  100000    1.1109702   -2.5914622    104.87291  0.087394093   0.10002429            1 
  101000    1.1207671   -2.5919569    105.78444  0.087280887  0.099891162            2 
  102000     1.104379    -2.600688    106.88421  0.087323697  0.099752939            4 
  103000    1.1056842   -2.5961566    108.01357  0.087389623  0.099613484            2 
  104000    1.1059522   -2.5971071    109.06174  0.087389213  0.099484397            3 
  105000    1.0835924    -2.580129    109.79691  0.087140405  0.099350679            1 
  106000    1.0877874   -2.5891518    111.12883  0.087365429   0.09920413            3 
  107000    1.0830779   -2.5934871    111.40766  0.086766092  0.099035428            1 
  108000    1.1136159   -2.6026733    112.02902  0.086442142   0.09886227            2 
  109000    1.1053694   -2.6096848    113.41451  0.086708342  0.098660653            1 
  110000    1.1280639   -2.5939755    114.00063  0.086364114  0.098473888            3 
  111000    1.0751029   -2.6055195    114.38113  0.085871721  0.098264801            2 
  112000    1.0982085   -2.5945292    116.01143  0.086318029  0.098062524            2 
  113000    1.0680255   -2.5947952    116.99843  0.086282029  0.097881535            4 
  114000    1.0939442   -2.6148785    118.30122  0.086477501  0.097681407            3 
  115000    1.0761707   -2.5973827    118.55854  0.085911983  0.097485559            2 
  116000    1.0854205   -2.6122041    120.23916  0.086378706  0.097298004            1 
  117000    1.0774984   -2.6021232    120.85227  0.086077115  0.097107908            2 
  118000    1.0860511   -2.6177652    121.63108  0.085897655  0.096924101            2 
  119000    1.0751335   -2.5984231    122.59539  0.085851113  0.096743252            2 
  120000    1.0784026   -2.6252975    123.38277  0.085682481  0.096554754            1 
  121000    1.0898467   -2.6233702    124.29979  0.085605913  0.096357668            2 
  122000    1.0659866   -2.6321809    125.20096  0.085519782  0.096173207            1 
  123000    1.0896056   -2.6325003    125.76512  0.085206721  0.095991501            1 
  124000     1.070217   -2.6000532    126.42141  0.084960622  0.095801082            2 
  125000    1.0823799   -2.6170513     127.6501  0.085100065  0.095602576            2 
  126000    1.0658839   -2.6112107    129.31372  0.085524946  0.095406532            2 
  127000    1.0529464   -2.6121123    129.30097  0.084843159  0.095207513            1 
  128000    1.0669123   -2.6373483    131.06646  0.085329725  0.095005777            4 
  129000    1.0694488   -2.6619276    130.81501  0.084505817  0.094808999            1 
  130000     1.057895   -2.6556684    132.23831  0.084768147  0.094608942            1 
  131000    1.0584706   -2.6496222    132.00738  0.083974158  0.094404406            3 
  132000    1.0433908   -2.6523834    133.94456  0.084560957  0.094208183            2 
  133000    1.0543786   -2.6312918    134.71921  0.084410535  0.094017317            3 
  134000    1.0557826   -2.6524237    135.59835  0.084327334  0.093821845            2 
  135000     1.060314   -2.6601823    136.01406  0.083959298  0.093623991            2 
  136000     1.078317   -2.6410602    137.05371  0.083978986  0.093430088            1 
  137000    1.0387611   -2.6485123    137.64815  0.083727585  0.093224336            1 
  138000     1.044825   -2.6496727    138.87371  0.083860933  0.093020058            2 
  139000    1.0389491   -2.6182853    139.44932  0.083602712  0.092812232            6 
  140000    1.0352643   -2.6833283    140.54565  0.083658123  0.092605352            2 
  141000    1.0538252   -2.6868138    140.12024  0.082813381  0.092397739            1 
  142000    1.0199178   -2.6595273    141.17602  0.082849774  0.092194894            4 
  143000    1.0417232   -2.6445757    143.13037  0.083409307  0.091994593            1 
  144000    1.0273372    -2.691355     143.9384  0.083297688  0.091801799            5 
  145000    1.0414296   -2.6615958    143.89565  0.082698649  0.091617045            2 
  146000    1.0492886   -2.6871813    146.03591  0.083353831  0.091428837            3 
  147000    1.0217913    -2.650239    146.10221  0.082824382  0.091242462            2 
  148000    1.0266791   -2.6805097     147.0038   0.08277241  0.091064556            1 
  149000    1.0391992   -2.6644464    147.92633  0.082732849  0.090880368            2 
  150000    1.0211208   -2.6789122    148.90754  0.082726413  0.090692389            2 
  151000     1.018028   -2.6887385    149.55115  0.082533748  0.090506922            2 
  152000    1.0335591   -2.6796877    150.70943  0.082625785  0.090325159            3 
  153000    1.0130001   -2.7062006    151.05005   0.08227127  0.090147924            3 
  154000    1.0145244   -2.7012171    151.82512  0.082156452  0.089964372            1 
  155000    1.0350306   -2.7017035     153.1193  0.082322205  0.089788804            3 
  156000    1.0090833   -2.6794815    154.82747  0.082706981   0.08961651            1 
  157000    1.0042844   -2.7102845    155.63134  0.082606868  0.089453074            5 
  158000     1.025685   -2.6748593     155.6777  0.082108493  0.089284406            2 
  159000    1.0243149    -2.699997    156.60152   0.08207627  0.089118617            2 
  160000    1.0130993   -2.6984845    157.81826  0.082197011  0.088953113            2 
  161000    1.0108096    -2.696909     158.5529  0.082066718  0.088789323            3 
  162000     1.011662   -2.7159328    159.64311  0.082120942  0.088633244            2 
  163000    1.0138899   -2.7178763    159.82546  0.081710356  0.088476462            1 
  164000    1.0077617   -2.7124234    161.11915  0.081869487  0.088322109            2 
  165000    1.0189242   -2.7081241    161.76975  0.081701896  0.088174204            2 
  166000   0.99272768   -2.7219546    163.11139  0.081883228  0.088026632            2 
  167000    1.0089802    -2.712574    163.85391  0.081763427  0.087877445            2 
  168000   0.99485951   -2.7153118    163.92266  0.081310845  0.087721821            2 
  169000    1.0004025    -2.691773    164.25826  0.080995198   0.08755765            3 
  170000   0.97950322   -2.6873625    164.66227  0.080716797  0.087394887            3 
  171000   0.98433634   -2.7271522    165.81519  0.080806622  0.087227818            2 
  172000   0.99124966    -2.696224    166.05415  0.080452594  0.087060154            2 
  173000   0.99606586   -2.7047206    166.26884  0.080090965  0.086885774            3 
  174000   0.98449583   -2.7291207     167.2321  0.080091999  0.086714199            2 
  175000   0.97759104   -2.7019142    168.30501  0.080145244  0.086538537            2 
  176000   0.98898553   -2.7143322    169.52566   0.08026783  0.086363922            2 
  177000   0.98660643   -2.7024936    170.07484  0.080072901  0.086189312            2 
  178000   0.97595022   -2.7033134    170.75405  0.079941036   0.08602028            1 
  179000   0.97027027   -2.6970794    171.46617  0.079825965  0.085854132            2 
  180000    0.9903921   -2.7119744     171.6457  0.079465601  0.085686144            3 
  181000    0.9808594   -2.7298095    172.86083  0.079586016  0.085515061            5 
  182000   0.98308747   -2.7017277    173.41289  0.079401505  0.085348715            2 
  183000   0.98500525   -2.7184454    173.99859  0.079234332  0.085183151            3 
  184000   0.99630714   -2.7713742    174.60714  0.079079321  0.085016234            2 
  185000   0.97946593   -2.7385853    175.09336  0.078870884  0.084850575            3 
  186000   0.96614447   -2.7390791     176.4237  0.079042876  0.084683871            2 
  187000   0.98772633   -2.7168661    177.39298  0.079052129  0.084523678            3 
  188000   0.96285439   -2.7570368    176.93897  0.078430394  0.084366162            2 
  189000   0.97265624   -2.7505453    178.60148  0.078748447   0.08420873            2 
  190000   0.94386043   -2.7683382    178.89463  0.078462555  0.084048207            2 
  191000   0.97357121   -2.7551347    179.29106  0.078224719  0.083888722            3 
  192000   0.92483128   -2.7761565    180.49387  0.078339352  0.083725921            2 
  193000   0.97804363   -2.7711645    180.79398   0.07806303  0.083563531           10 
  194000   0.95275059   -2.7634572    181.84216  0.078110893  0.083403175            3 
  195000   0.93327059   -2.7577967    182.82998  0.078132472  0.083240272            2 
  196000   0.95124784   -2.7898662    183.11743  0.077856052  0.083080442            3 
  197000   0.97040282   -2.7684381    184.63023  0.078100772  0.082931104            3 
  198000   0.92334512   -2.7897256    184.49304  0.077648584  0.082776535            1 
  199000   0.94441367    -2.794737    185.12278    0.0775221  0.082620818            4 
  200000   0.97432279   -2.7991437    186.05554  0.077523143  0.082466627            2 
  201000   0.95735396   -2.7953422    185.49196  0.076903797  0.082307682            4 
  202000   0.95533985   -2.7705289    187.43302  0.077323853  0.082148543            3 
  203000   0.92960043   -2.7971835    187.80513  0.077095703  0.081993451            3 
  204000   0.95359607   -2.7815535    188.08245  0.076831064   0.08183776            2 
  205000   0.91494471   -2.7931619    189.36867  0.076979134  0.081684189            8 
  206000   0.93050715   -2.7759704    190.08777  0.076896348  0.081530378            5 
  207000   0.92983766    -2.773275    190.83655  0.076826308  0.081381024            3 
  208000    0.9249724   -2.7590893    191.89673  0.076881703  0.081231058            4 
  209000   0.92662077   -2.7945551    192.13942  0.076610614  0.081084739            5 
  210000   0.92463124   -2.7708716    193.51528  0.076791777  0.080940173            1 
  211000   0.92249051   -2.7849034      193.225  0.076313191  0.080797282            2 
  212000   0.94426527   -2.8009207    194.81661  0.076578855  0.080656377            4 
  213000   0.92104807   -2.7968131    194.86704   0.07623906  0.080515885            4 
  214000    0.9302442   -2.7842488    195.38644  0.076085061  0.080374384            3 
  215000   0.92752504   -2.7825566    196.20513  0.076048499  0.080229622            2 
  216000   0.92542424   -2.7967994    197.27479  0.076109101  0.080090656            6 
  217000   0.91607532   -2.8249689    197.82209  0.075968544  0.079949763            6 
  218000   0.91673535   -2.8018116    198.49718  0.075878126  0.079809307            2 
  219000    0.9586541    -2.817274    199.60159  0.075951899  0.079671207            4 
  220000   0.90884488   -2.8027806    200.62735  0.075995209  0.079536371            2 
  221000   0.94093349   -2.8036187    200.34633  0.075545372  0.079398406            2 
  222000   0.91584322   -2.8480025    200.51879  0.075269817  0.079257355            2 
  223000   0.92905764   -2.7814902    201.86524  0.075435442  0.079117717            2 
  224000   0.91416083    -2.821973    203.20163  0.075595844  0.078981748            2 
  225000   0.91156876   -2.8129105    203.51381  0.075375486  0.078843804            3 
  226000   0.92096676   -2.8236683    203.41028  0.075003791  0.078706419            2 
  227000   0.90716096   -2.8420179    204.14694  0.074943809  0.078570765            3 
  228000   0.89340748   -2.8356656    205.17954  0.074992522  0.078430202            3 
  229000   0.89352491   -2.8099152    204.79297  0.074524371  0.078290966            2 
  230000   0.92726369    -2.848481    205.32368  0.074392638  0.078153764            4 
  231000   0.89531724   -2.8402136    206.40969  0.074462369  0.078015591            2 
  232000    0.9189758   -2.8384415    207.18821  0.074421052  0.077875903            2 
  233000   0.88002862   -2.8336971    207.96726  0.074380277  0.077738838            6 
  234000   0.88115173   -2.8801322    208.66085   0.07430942  0.077605843            1 
  235000   0.90724568    -2.820477    210.13928  0.074517476  0.077474942            1 
  236000   0.86956329   -2.8397899    210.76764  0.074423601  0.077345056            3 
  237000   0.90535952   -2.8364405    211.09716  0.074225442  0.077214821            4 
  238000   0.89549053   -2.8443072    211.07335  0.073905233  0.077086328            5 
  239000    0.8882694   -2.8280818    211.94759  0.073900835  0.076956049            1 
  240000   0.86745779   -2.8779201    211.97661  0.073602991  0.076826645            2 
  241000   0.88229247   -2.8596959    213.39158  0.073786852  0.076692601            2 
  242000   0.88478521   -2.8562981    212.82581  0.073287126  0.076558912            3 
  243000   0.88982506   -2.8744008    213.58963  0.073247472  0.076422492            4 
  244000   0.88764359   -2.8545357     214.2374   0.07316851  0.076285588            5 
  245000   0.86664197   -2.8226979    214.07181  0.072813541  0.076147037            2 
  246000   0.88755447   -2.8549421    214.25926   0.07258105  0.076005758            3 
  247000   0.87918426   -2.8783689    214.12477  0.072241825  0.075865906            3 
  248000   0.87026583   -2.8809691     215.0321  0.072255411   0.07572202            7 
  249000   0.87520516   -2.8594587    215.62269   0.07216288  0.075575854            2 
  250000   0.86262213   -2.8726355    216.05675  0.072018918  0.075429865            2 
  251000    0.8715438   -2.8805769    215.60607  0.071582361  0.075279063           15 
  252000   0.87487543   -2.8921874    216.96316  0.071747078  0.075129877            1 
  253000   0.84717061   -2.8595136    216.67584  0.071368853    0.0749828            4 
  254000   0.86608727   -2.8945769    217.69967  0.071423777   0.07483396            2 
  255000   0.85711525    -2.863033    217.88991  0.071205853  0.074685435            3 
  256000   0.85888165   -2.9169166    217.79821  0.070897854  0.074535494            3 
  257000   0.87925698   -2.8721731    219.42487  0.071149438  0.074386377            5 
  258000   0.87794163   -2.8938396    219.99863   0.07105899  0.074240512            4 
  259000   0.86938146   -2.8862097    219.62678  0.070664987  0.074092782            5 
  260000   0.86350853   -2.9140526    219.69781  0.070415965  0.073942682            5 
  261000   0.84831459   -2.8989494    220.66811  0.070455974  0.073791943            3 
  262000   0.86127528   -2.9068288     220.7379  0.070209254  0.073643168            4 
  263000   0.82688376   -2.8956238    221.72631  0.070255483  0.073494376            6 
  264000   0.86233521   -2.8906346    221.77746   0.07000551   0.07334391            2 
  265000   0.85454353   -2.9154112    222.54281  0.069982016  0.073196929            6 
  266000   0.83449987   -2.9212616    222.69759  0.069767416  0.073049827            6 
  267000   0.82381525   -2.9340026    223.48958  0.069753303  0.072904306            5 
  268000   0.85095642   -2.9240524    224.60472  0.069839775  0.072760071            4 
  269000   0.84697515   -2.9144626    224.81134  0.069644158  0.072618332            5 
  270000   0.82695856   -2.9256269    225.08566  0.069470882  0.072475397            2 
  271000    0.8439578    -2.917803    226.02657  0.069503866  0.072334842            7 
  272000   0.80415549    -2.927216    225.81718  0.069184184  0.072192684            2 
  273000   0.81311239   -2.9069928    226.33981  0.069090296  0.072051159            4 
  274000    0.8221538   -2.9170301    227.36376  0.069149563  0.071907306            2 
  275000   0.82775251   -2.9312799    227.54026  0.068951594  0.071767312            5 
  276000   0.83608862   -2.9381734    228.52022  0.068997652  0.071628337            3 
  277000    0.8158577   -2.9501072    229.66849   0.06909401  0.071489009            6 
  278000   0.81917598   -2.9103561    229.53459  0.068805331   0.07135587            4 
  279000   0.81262429   -2.9437723    230.88078  0.068960806  0.071223163            2 
  280000   0.82045626   -2.9511174    230.16441  0.068501311  0.071092335            4 
  281000   0.81916058   -2.9644761    231.17594  0.068557516  0.070961296            2 
  282000    0.8147378   -2.9400938    231.63023  0.068448648  0.070827729           13 
  283000   0.81703036   -2.9288103    232.91838  0.068586096  0.070696717            3 
  284000   0.83213108   -2.9588431    232.15242   0.06811984   0.07056576            3 
  285000   0.82580882   -2.9579333     232.7182  0.068046257   0.07043223            4 
  286000   0.80363446   -2.9644686    232.84408  0.067845011  0.070297199            8 
  287000   0.81269682   -2.9546238    233.23807  0.067723016  0.070163554            5 
  288000   0.81182739   -2.9624008    234.88217  0.067963592  0.070032548            3 
  289000   0.82622486   -2.9460537    234.83429  0.067714617  0.069903165            5 
  290000   0.80422922   -2.9786139    235.02035  0.067534583  0.069771195            4 
  291000   0.81355107   -2.9674424    235.35487  0.067398302  0.069639327            7 
  292000   0.81719885   -2.9728908    234.44804  0.066908686  0.069505123            4 
  293000   0.79350522   -2.9568987    236.95172  0.067392411  0.069370667            4 
  294000   0.80744167   -2.9702567    235.77089  0.066828483  0.069236937            4 
  295000   0.79585557   -2.9855163    237.15873  0.066993993  0.069101987            3 
  296000   0.79492694   -2.9630568    238.84344  0.067241959  0.068969541            5 
  297000   0.80155072   -2.9798061     238.7598  0.066992086  0.068842543            4 
  298000   0.79327401   -2.9878425     239.0781  0.066856292  0.068715828            2 
  299000   0.78650685   -2.9910862    239.16237   0.06665618  0.068588262            5 
  300000   0.78986572   -2.9774166    238.43679  0.066232441  0.068459613            3 
  301000   0.80742384   -2.9914813     239.5532  0.066321484  0.068330982            2 
  302000   0.77650732   -3.0018599    239.60638  0.066116551  0.068202176            5 
  303000   0.78308244   -2.9808115    240.07201  0.066026406  0.068070344            5 
  304000   0.79274119   -2.9915681    239.76144  0.065724078  0.067939386            5 
  305000   0.77327334   -2.9855035    240.66214  0.065754683  0.067808204            4 
  306000   0.79250705   -3.0034276    240.96564   0.06562245  0.067674013            5 
  307000   0.77098426   -2.9856436    242.68113  0.065874358   0.06754254            2 
  308000   0.76781338   -2.9808595    242.57462  0.065631661  0.067411846            2 
  309000   0.77678406   -3.0004847    242.67915  0.065447453  0.067283475            3 
  310000   0.77901733   -2.9953762    242.48817  0.065184992  0.067153161            5 
  311000   0.77207491   -2.9973931    243.55178   0.06526039  0.067021524            5 
  312000   0.75374595   -3.0160893    244.01175  0.065174079  0.066893322            4 
  313000   0.75219884   -3.0009189    244.04477  0.064974647   0.06676241            3 
  314000   0.76437227     -3.01002    245.85955  0.065249351  0.066634847            4 
  315000   0.74847034   -3.0158027     245.6663  0.064991084  0.066507757            2 
  316000   0.76336569   -3.0342187    245.25579   0.06467716  0.066381067            4 
  317000   0.76254118   -3.0106045    245.75882  0.064605368   0.06625287            3 
  318000   0.75495127   -3.0153275      246.167  0.064509173   0.06612474            5 
  319000   0.75453196   -3.0317707    245.99663  0.064262441  0.065997392            7 
  320000   0.74799194   -3.0215881    246.33729  0.064150336  0.065869864            5 
  321000   0.75322912   -3.0185627    247.84316  0.064341424  0.065742799            4 
  322000   0.75139476   -3.0374211    247.17276  0.063968105  0.065616123           10 
  323000   0.75320904   -3.0512569    248.30074  0.064061077  0.065488382            4 
  324000   0.76069379   -3.0589362    247.79476   0.06373322  0.065360808            6 
  325000   0.74356409   -3.0240676    248.98073  0.063841213  0.065235579            4 
  326000   0.75388529   -3.0228569    248.78383  0.063595048  0.065111712            6 
  327000   0.73691847   -3.0357946    249.82312  0.063665423  0.064986033            5 
  328000   0.76027144   -3.0246463    251.31295  0.063849835   0.06486315            5 
  329000   0.74169924   -3.0639722    249.67312  0.063240406  0.064741355           16 
  330000   0.73907769   -3.0566487    250.88758  0.063355449  0.064617843            5 
  331000   0.72886886   -3.0184201     250.7924   0.06314008  0.064495355            6 
  332000    0.7329808   -3.0306668    251.33144  0.063085201  0.064373311            3 
  333000   0.74204814   -3.0555273     251.8012  0.063013314  0.064252758            2 
  334000   0.72881509   -3.0551797    252.42268  0.062979712  0.064133148            4 
  335000   0.71824524   -3.0667006    252.55259  0.062824026  0.064012894            5 
  336000   0.72071521   -3.0638299    253.41703  0.062851445  0.063895019            5 
  337000   0.72552856   -3.0582757    253.35967  0.062650758  0.063776496            4 
  338000   0.71428692   -3.0641861    253.71973  0.062554173  0.063657432            4 
  339000   0.72538819   -3.0800455    254.30198  0.062512778  0.063539738            4 
  340000   0.73272002   -3.1049392    255.06448  0.062515805  0.063422069            5 
  341000   0.70317085   -3.0900599    254.35944  0.062160176  0.063302954            9 
  342000   0.71668914   -3.0824713    254.92589  0.062116444  0.063184123            5 
  343000   0.71114871   -3.1091859    255.21238  0.062004952  0.063066606            4 
  344000   0.71539386   -3.0911818    254.79163  0.061722779  0.062948057            4 
  345000   0.72725591   -3.1097603    255.23301  0.061650484  0.062829134            4 
  346000   0.70094799   -3.0858033    255.92688  0.061639421  0.062709875            3 
  347000   0.70060746   -3.0849608    256.76806  0.061663799  0.062590497            4 
  348000   0.71572703   -3.1009182     257.1891  0.061587427  0.062471562            8 
  349000   0.70765818   -3.0835024    257.41335  0.061464505  0.062352271            5 
  350000   0.71326463   -3.1073815    256.54935   0.06108318  0.062233217            6 
  351000   0.71335504   -3.0986988    256.83818  0.060977726  0.062112978            3 
  352000   0.71131999   -3.1092796    257.65303  0.060997403  0.061993545            7 
  353000   0.69836073   -3.1108969    258.00668  0.060908094  0.061874087            3 
  354000   0.71627855   -3.0968255    257.14169  0.060532413  0.061753627            7 
  355000   0.67924216   -3.1138386    258.20107   0.06061058  0.061631962            7 
  356000   0.70458829   -3.1210919    257.82302   0.06035183  0.061508805            4 
  357000    0.6872894   -3.1009099    258.00486  0.060225225  0.061384497            5 
  358000   0.69593607   -3.1232221    257.15461   0.05985908  0.061260059           15 
  359000   0.70019205   -3.1299826    257.22071  0.059707685  0.061135029            3 
  360000   0.67512694   -3.1145967    257.73753  0.059661465  0.061009332            6 
  361000   0.70252468   -3.1186164    259.05958   0.05980138  0.060885315            5 
  362000   0.71139119    -3.132404    259.15342  0.059657786  0.060760508           10 
  363000   0.69565144     -3.15613    258.78512   0.05940889  0.060636528            5 
  364000   0.68983368   -3.1112295    259.56886  0.059425106  0.060513983            4 
  365000   0.69163178   -3.1418324    259.60737  0.059271089  0.060392461            3 
  366000   0.68672172   -3.1543758    259.98532  0.059195199  0.060270277           11 
  367000   0.67926306   -3.1378388    260.98953  0.059261927  0.060149837            6 
  368000   0.67451254   -3.1461662    261.60088   0.05923933  0.060029362            5 
  369000   0.68493808     -3.15538    261.71171  0.059103819  0.059910211            6 
  370000   0.67522477   -3.1549405    261.74161  0.058950812  0.059791428            6 
  371000   0.68246057   -3.1489742    261.88502  0.058824129  0.059672832            6 
  372000    0.6821473   -3.1336392    262.37519  0.058775803  0.059554012            6 
  373000   0.67292782   -3.1487877    262.14773   0.05856741  0.059434265           11 
  374000   0.65570331   -3.1708689    262.01439  0.058381102  0.059314925           13 
  375000   0.67109982   -3.1660441    262.78442  0.058396537  0.059196067            9 
  376000   0.66426643    -3.169258    263.34072  0.058364521  0.059076031            5 
  377000   0.66977884   -3.1677877    262.84584  0.058100319  0.058956737            5 
  378000   0.67222295   -3.1770573     263.3842    0.0580653  0.058836219            7 
  379000   0.67177272   -3.1797855    263.22601  0.057877311  0.058716694            5 
  380000   0.65489939   -3.1754041    263.24519  0.057729208  0.058597498            5 
  381000   0.66039236   -3.1759677    263.64212  0.057664506  0.058477769            5 
  382000   0.66605486   -3.1755101    263.95589     0.057582  0.058358733            9 
  383000   0.66111056   -3.1798536    264.26159   0.05749817  0.058239606           10 
  384000   0.65322813   -3.1788392    264.67255  0.057437618   0.05811989            3 
  385000   0.65960765   -3.1662475    264.67743  0.057289487  0.057999636           15 
  386000   0.65370135   -3.1794145    265.20924  0.057255881  0.057881453           10 
  387000   0.65311721   -3.1775368    265.25664   0.05711814  0.057763996            6 
  388000   0.64550899   -3.1810888      266.498  0.057237543  0.057646619            9 
  389000   0.65007032   -3.1663544    265.86718  0.056955267  0.057530097            8 
  390000   0.64027662   -3.1724415    266.86395  0.057022212    0.0574132            4 
  391000    0.6409078   -3.1984435    266.40952  0.056779522  0.057297021            6 
  392000   0.64079271    -3.198492    267.11887  0.056785474  0.057182507            5 
  393000   0.64023623   -3.2252788    266.79423  0.056572145  0.057067159            5 
  394000   0.64296267   -3.2297509    266.65028  0.056398112  0.056951191            4 
  395000   0.64016923   -3.2243869    267.39251  0.056411923  0.056835365            6 
  396000    0.6294652   -3.1843048    268.46979  0.056496168  0.056720554            7 
  397000   0.62995415   -3.2151945    267.59943  0.056171165  0.056604865            9 
  398000   0.64820762   -3.2234503    267.39171  0.055986538  0.056489503            7 
  399000   0.62562331   -3.2241787    268.16437  0.056007595  0.056373671            5 
  400000   0.62516299   -3.2254585    267.73307  0.055777722  0.056258701            8 
  401000    0.6220869   -3.2212282    268.48542  0.055794975   0.05614431            5 
  402000   0.62574238   -3.2152914     268.3382  0.055625664  0.056029418           26 
  403000   0.64212166   -3.2412356    267.74296   0.05536455  0.055913529            3 
  404000   0.62732301   -3.2273686    268.05651  0.055292185  0.055796884            7 
  405000   0.62656048   -3.2335755    268.92829   0.05533504  0.055680824            6 
  406000   0.60698363   -3.2263784    267.90147  0.054987987  0.055564776            9 
  407000   0.60412927   -3.2358007    269.09326    0.0550969  0.055448646            5 
  408000   0.61454513    -3.234847    267.83178  0.054704202  0.055333351            3 
  409000   0.62325875   -3.2539065    268.94945  0.054798177  0.055218541            5 
  410000    0.6149766   -3.2727095    270.03347  0.054884852  0.055103928            8 
  411000   0.61582445   -3.2497652    269.80861   0.05470572  0.054990478            7 
  412000     0.600015   -3.2404519     269.8867  0.054588733   0.05487789            5 
  413000    0.5912648    -3.274368    269.54835  0.054388288  0.054764799           15 
  414000   0.59741361   -3.2551108    269.97041  0.054341869  0.054650644            8 
  415000   0.61181771   -3.2395379     270.3117  0.054279458  0.054537588           20 
  416000   0.61205999   -3.2576464    270.66475  0.054219702  0.054425028           17 
  417000   0.60235024   -3.2569567    271.46006  0.054248612  0.054312153            7 
  418000   0.60147601   -3.2686091    271.67552  0.054161787  0.054199623           10 
  419000   0.59919482      -3.2633    270.99836  0.053897844   0.05408697           11 
  420000   0.59616031   -3.2555091    270.51327  0.053673268  0.053973452            6 
  421000   0.59266387   -3.2629774    271.13954  0.053669743   0.05386055            8 
  422000   0.58904504   -3.2689265    270.73334  0.053462349  0.053747326           10 
  423000   0.58238289   -3.2698817    271.40893  0.053469057  0.053634915           12 
  424000    0.5870004   -3.2975265    271.17837  0.053297635  0.053523063            7 
  425000   0.59204879   -3.2833739    272.31281  0.053394668  0.053411998            7 
  426000   0.58711095   -3.2972225    272.21392  0.053249985  0.053300334           11 
  427000   0.59059587   -3.2965482    272.90702  0.053260543  0.053188645           10 
  428000   0.58064189   -3.2950914    271.55253  0.052872378  0.053077831            6 
  429000   0.57753751   -3.2966706    271.48844  0.052736683  0.052965764            4 
  430000    0.5873631    -3.300486    272.07567  0.052727843  0.052853211           10 
  431000   0.57910782   -3.3106006    272.52903  0.052693161  0.052741152            5 
  432000    0.5822772    -3.301492    272.44196  0.052554391  0.052628779           15 
  433000   0.58117631   -3.3096832    272.82536  0.052506805  0.052517025            7 
  434000   0.58045448   -3.3355149     271.8983  0.052207815  0.052405225           13 
  435000   0.58203553   -3.3175725    272.52877  0.052208577  0.052292194           10 
  436000   0.58753416   -3.3103559    272.93321  0.052166133  0.052179036            6 
  437000   0.57433445   -3.3186841    272.66992  0.051996553  0.052066337            5 
  438000   0.57645173   -3.3182444    273.89031  0.052110029   0.05195433           12 
  439000   0.56900132   -3.3353146    272.64768  0.051755444    0.0518418           10 
  440000   0.56757743   -3.3127811    272.66823   0.05164171  0.051728449            9 
  441000   0.56238839   -3.3287664    271.76062  0.051353103    0.0516149           13 
  442000   0.55379702   -3.3204066    272.27791  0.051334448  0.051501301           11 
  443000    0.5634952   -3.3419298    273.05913  0.051365524  0.051388338            7 
  444000   0.55794705   -3.3363579    272.55705  0.051155602  0.051275728            8 
  445000   0.55075097   -3.3680497    273.45917  0.051209582   0.05116379           18 
  446000   0.54306144   -3.3339717    273.55162  0.051112036  0.051051811            6 
  447000   0.57553819   -3.3461989    272.98997  0.050892985  0.050940039            7 
  448000    0.5542142   -3.3484374    273.10196  0.050800216   0.05082789           17 
  449000   0.54823886   -3.3520566    272.75624   0.05062291  0.050715706            3 
  450000   0.55840462   -3.3488359    273.21463  0.050595302  0.050603701            8 
  451000     0.555693   -3.3645586     272.9439  0.050433094  0.050492858           15 
  452000    0.5499134   -3.3590096    273.55586  0.050434341  0.050381766            8 
  453000   0.53876014   -3.3468823    273.89959  0.050386238     0.050271            6 
  454000    0.5481695   -3.3510996    274.05131  0.050303104  0.050159925           11 
  455000    0.5330923   -3.3875497    273.82102  0.050150369  0.050049435            8 
  456000   0.53646364   -3.3732897    274.16678  0.050103578  0.049938953            4 
  457000   0.52399787   -3.3663921    273.84089  0.049934517  0.049828157           12 
  458000    0.5335752   -3.3799987    274.03169  0.049860205  0.049717217           13 
  459000   0.53139739   -3.3756958    273.84162  0.049717069  0.049606219            8 
  460000   0.53639969   -3.4017622    273.76781  0.049595618  0.049495384            6 
  461000   0.53306449   -3.3998464    274.50012  0.049620413  0.049386002            8 
  462000   0.52103689   -3.3918757    274.10389  0.049441538  0.049276754           12 
  463000   0.53485669   -3.3605827     274.1691  0.049346491  0.049167825            7 
  464000    0.5214586   -3.3783002    274.16508  0.049239418  0.049059157           15 
  465000   0.53398036    -3.391777    273.82909  0.049073314  0.048949878            9 
  466000    0.5245367   -3.4100788    274.12896  0.049021632  0.048840993           19 
  467000   0.51462955   -3.3898087    274.10916  0.048913126  0.048732229           11 
  468000   0.51657263   -3.4028824     274.1586  0.048817415  0.048623694           18 
  469000   0.51358932   -3.4014516    274.10695  0.048704149  0.048514617           12 
  470000   0.53047928   -3.4023156    274.36487  0.048646254  0.048405522            7 
  471000   0.52035549   -3.4080305    274.60621   0.04858567  0.048296654            9 
  472000   0.50434949    -3.405494    274.40189  0.048446661   0.04818776           11 
  473000    0.5081736   -3.4105651    274.05519  0.048283155  0.048079408            9 
  474000   0.51493412   -3.4205147    274.55712  0.048269536  0.047971122           25 
  475000   0.51813518   -3.4059289    274.44048  0.048147453  0.047863332            5 
  476000   0.51234539   -3.4032246    274.71136  0.048093726  0.047756303            8 
  477000   0.49475786   -3.4172382    274.80202  0.048008738  0.047649167            5 
  478000   0.49878087   -3.4365895    275.06274  0.047953756  0.047541857            6 
  479000   0.49858151   -3.4250179    275.21528  0.047880181  0.047435138            6 
  480000   0.48586359   -3.4316522    275.96221  0.047910105  0.047328783            7 
  481000   0.49690485   -3.4482081    275.37536  0.047708829   0.04722281           12 
  482000   0.48377789   -3.4526862    276.20645  0.047753536  0.047116805            7 
  483000   0.49991071   -3.4218681    275.56888  0.047544665  0.047011147            7 
  484000   0.49213422   -3.4497486    275.41989  0.047420779  0.046904998           12 
  485000    0.4980698   -3.4500669    275.73236  0.047376694  0.046799502           14 
  486000   0.49779758   -3.4657056    274.80548  0.047120282  0.046693485           11 
  487000   0.49610046   -3.4592602    275.05615  0.047066419   0.04658709            9 
  488000   0.48994474   -3.4704307    274.82878  0.046931144  0.046480862           27 
  489000   0.48557537   -3.4605913    275.27418  0.046911074  0.046375039           21 
  490000    0.4823157   -3.4578543    275.36132  0.046830156  0.046269755           23 
  491000   0.47901763   -3.4831584    275.17219   0.04670268  0.046164651           10 
  492000   0.48883621    -3.471694    275.53165   0.04666864  0.046059643           22 
  493000   0.48105982    -3.478881    276.42423  0.046724852  0.045954958           18 
  494000   0.47597647   -3.4475764    276.44125   0.04663314  0.045850937           20 
  495000   0.46946317   -3.4888546    275.54228  0.046387589  0.045746781           35 
  496000   0.46873634   -3.4810098    275.13655  0.046225898  0.045641793           14 
  497000   0.48357068   -3.4725112    275.05077  0.046118506  0.045536883           18 
  498000   0.47890126    -3.469734    274.63467   0.04595627   0.04543229           14 
  499000   0.47169716   -3.4869415    274.80078  0.045891914  0.045327637           24 
  500000   0.47103582   -3.4884393    275.06338  0.045843897  0.045223167           13 
  501000   0.46590457   -3.4781242    274.44893  0.045650188  0.045118565           15 
  502000    0.4641442   -3.5034309    275.12665  0.045671755  0.045014759           34 
  503000   0.46699832   -3.4928989    275.04386   0.04556724  0.044910789           20 
  504000   0.46334489   -3.4958753    275.37495  0.045531573  0.044806966           23 
  505000    0.4583438   -3.5043959    274.84542   0.04535403  0.044703078           45 
  506000   0.46383143   -3.5079029    274.91309  0.045275542  0.044598842           23 
  507000   0.45660484    -3.530011    274.32549   0.04508966  0.044494629           28 
  508000   0.44970942   -3.5174561    275.15127  0.045136363   0.04439066           26 
  509000   0.45806489   -3.5293646    274.20666  0.044893035  0.044286418           36 
  510000   0.44541227   -3.5424115    274.05995  0.044781037  0.044181935           59 
  511000   0.44665499   -3.5214205    274.35236  0.044741089  0.044077652           18 
  512000    0.4484743   -3.5214854    274.61922  0.044697139  0.043974143           17 
Loop time of 1209.69 on 48 procs for 500000 steps with 4000 atoms

Performance: 71423.254 tau/day, 413.329 timesteps/s
99.4% CPU use with 48 MPI tasks x no OpenMP threads

MPI task timing breakdown:
Section |  min time  |  avg time  |  max time  |%varavg| %total
---------------------------------------------------------------
Pair    | 77.692     | 83.17      | 88.152     |  28.6 |  6.88
Neigh   | 8.1218     | 8.4435     | 8.751      |   5.9 |  0.70
Comm    | 78.221     | 84.151     | 89.924     |  30.7 |  6.96
Output  | 0.86678    | 0.86733    | 0.87675    |   0.1 |  0.07
Modify  | 1018       | 1021.4     | 1024.6     |   4.3 | 84.43
Other   |            | 11.7       |            |       |  0.97

Nlocal:        83.3333 ave          94 max          76 min
Histogram: 1 3 9 13 8 8 4 0 1 1
Nghost:        2178.81 ave        2200 max        2146 min
Histogram: 1 2 3 5 4 8 5 9 6 5
Neighs:        14388.4 ave       16484 max       13045 min
Histogram: 6 6 7 8 4 7 6 3 0 1
FullNghs:      28776.9 ave       32581 max       26238 min
Histogram: 2 4 7 12 11 8 2 0 1 1

Total # of neighbors = 1381291
Ave neighs/atom = 345.32275
Neighbor list builds = 27166
Dangerous builds = 0

#clear
#
#next RN
#
#jump SELF
Total wall time: 0:20:12
