
units lj                  # Use reduced LJ style units
atom_style atomic         # Uncharged point particles
atom_modify map hash      # Needed for indexing of clusters etc
                          # Used to be able to find where atoms are in relation to each other.

lattice fcc 1.0 spacing 1 1 1
Lattice spacing in x,y,z = 1.5874011 1.5874011 1.5874011
region box block 0 10 0 10 0 10 units lattice
create_box 2 box
Created orthogonal box = (0.0000000 0.0000000 0.0000000) to (15.874011 15.874011 15.874011)
  3 by 4 by 4 MPI processor grid
create_atoms 1 box
Created 4000 atoms
  using lattice units in orthogonal box = (0.0000000 0.0000000 0.0000000) to (15.874011 15.874011 15.874011)
  create_atoms CPU = 0.002 seconds
set type 1 type/fraction 2 0.12 78393
Setting atom values ...
  508 settings made for type/fraction
mass 1 1.0
mass 2 1.0
pair_style lj/cut  3.5
pair_modify tail  yes
pair_coeff 1  1  1.0  1.0   # Intearaction between 1 and 1 set with epsilon = 1 and sigma = 1
pair_coeff 1  2  1.5  0.8
pair_coeff 2  2  0.5  0.88

write_data data.0
System init for write_data ...
Neighbor list info ...
  update every 1 steps, delay 10 steps, check yes
  max neighbors/atom: 2000, page size: 100000
  master list distance cutoff = 3.8
  ghost atom cutoff = 3.8
  binsize = 1.9, bins = 9 9 9
  1 neighbor lists, perpetual/occasional/extra = 1 0 0
  (1) pair lj/cut, perpetual
      attributes: half, newton on
      pair build: half/bin/atomonly/newton
      stencil: half/bin/3d
      bin: standard
WARNING: Not all mixed pair coeffs generated from mixing. Use write_data with 'pair ij' option to store all pair coeffs. (../write_data.cpp:312)


#############################
#   M E L T   S Y S T E M   #
#############################

velocity all create 2.4 6583654 mom yes dist gaussian # Assign velocities
                                                    # Temperature 2.4, random number seed, zero linear momentum
                                                                                # Gaussian distribution

timestep 0.002   # simulation timestep
thermo 1000       # output thermodynamic data every 1000 steps bf 100

# Define a fix  in this case with index 1 applied to all
# particles in the simulation. This fix is for simulations
# in the anisotropic NPT ensemble. Note that we use the MTK
# correction.
fix 1 all npt temp 2.4 2.4 0.1 iso 5.68 5.68 0.5 mtk yes tchain 5 pchain 5 # Use NPT ensemble
                                                                         # Set temperature and pressure and damping
                                                                         # Numbers of thermostats in chain and in barostat
run 10000          # run for 10000 steps
Per MPI rank memory allocation (min/avg/max) = 3.642 | 3.644 | 3.648 Mbytes
Step Temp E_pair E_mol TotEng Press Volume 
       0          2.4   -7.5560252            0   -3.9569252   -3.1663949         4000 
    1000    2.3930307   -4.7329319            0   -1.1442832    5.5909068    4729.1993 
    2000    2.3690151   -4.6046372            0    -1.052003    5.7740732    4781.8268 
    3000    2.4294428   -4.6918788            0   -1.0486256    5.8088604    4729.5544 
    4000    2.4569535   -4.7327692            0   -1.0482604    5.7564311    4713.5822 
    5000    2.3776858    -4.684917            0   -1.1192799    5.6277625    4757.5673 
    6000     2.457751   -4.6970251            0   -1.0113202    5.7081854    4741.6652 
    7000    2.3950926   -4.6501634            0   -1.0584227      5.82807    4745.9537 
    8000    2.3778987   -4.6847215            0   -1.1187651    5.7725043    4735.9445 
    9000    2.4028675   -4.7236852            0   -1.1202851    5.6318896    4722.8564 
   10000    2.3978408   -4.6805977            0   -1.0847356    5.4124705    4788.5467 
Loop time of 2.19019 on 48 procs for 10000 steps with 4000 atoms

Performance: 788973.157 tau/day, 4565.817 timesteps/s
99.6% CPU use with 48 MPI tasks x no OpenMP threads

MPI task timing breakdown:
Section |  min time  |  avg time  |  max time  |%varavg| %total
---------------------------------------------------------------
Pair    | 0.93035    | 0.98394    | 1.0859     |   2.8 | 44.92
Neigh   | 0.19463    | 0.20181    | 0.21868    |   0.9 |  9.21
Comm    | 0.64958    | 0.75728    | 0.82847    |   4.2 | 34.58
Output  | 0.00025229 | 0.00025663 | 0.00033147 |   0.0 |  0.01
Modify  | 0.19868    | 0.23246    | 0.2694     |   4.3 | 10.61
Other   |            | 0.01445    |            |       |  0.66

Nlocal:        83.3333 ave          92 max          74 min
Histogram: 1 1 2 11 5 12 8 4 3 1
Nghost:        1459.10 ave        1481 max        1439 min
Histogram: 3 4 6 9 4 7 5 2 3 5
Neighs:        7950.35 ave        8949 max        6804 min
Histogram: 1 1 3 6 10 11 9 2 3 2

Total # of neighbors = 381617
Ave neighs/atom = 95.404250
Neighbor list builds = 911
Dangerous builds = 257

# Equilibrate just above the melting temperature to avoid step fn in T

fix 1 all npt temp 1.25 1.25 0.1 iso 5.68 5.68 0.5 mtk yes tchain 5 pchain 5
run 2000
Per MPI rank memory allocation (min/avg/max) = 3.642 | 3.644 | 3.648 Mbytes
Step Temp E_pair E_mol TotEng Press Volume 
   10000    2.3978408   -4.6805977            0   -1.0847356    5.4124705    4788.5467 
   11000    1.2318269   -6.2581722            0   -4.4108938    5.6445351    3918.3269 
   12000    1.2415433   -6.2846814            0   -4.4228321    5.9433259    3894.2383 
Loop time of 0.493541 on 48 procs for 2000 steps with 4000 atoms

Performance: 700246.230 tau/day, 4052.351 timesteps/s
99.6% CPU use with 48 MPI tasks x no OpenMP threads

MPI task timing breakdown:
Section |  min time  |  avg time  |  max time  |%varavg| %total
---------------------------------------------------------------
Pair    | 0.21418    | 0.23298    | 0.26084    |   1.9 | 47.21
Neigh   | 0.031868   | 0.033656   | 0.037051   |   0.5 |  6.82
Comm    | 0.14986    | 0.17002    | 0.19594    |   2.8 | 34.45
Output  | 5.1613e-05 | 5.2673e-05 | 6.6255e-05 |   0.0 |  0.01
Modify  | 0.041087   | 0.052227   | 0.061104   |   2.3 | 10.58
Other   |            | 0.004601   |            |       |  0.93

Nlocal:        83.3333 ave          91 max          76 min
Histogram: 1 4 3 9 8 9 6 2 3 3
Nghost:        1671.06 ave        1692 max        1646 min
Histogram: 1 3 2 6 8 6 8 10 3 1
Neighs:        9799.85 ave       10984 max        8949 min
Histogram: 4 4 8 7 11 4 4 2 1 3

Total # of neighbors = 470393
Ave neighs/atom = 117.59825
Neighbor list builds = 141
Dangerous builds = 7

#############################
# L I N E A R  Q U E N C H  #
#############################

# Define solid atoms. This closely follows ten Wolde  Ruiz-Montero and Frenkel  Faraday Discuss  1996  104  93-110
# Compute components of the per-atom q6 vector
compute q6 all orientorder/atom degrees 1 6 components 6 nnn NULL cutoff 1.3 # compute the Q6 parameter.
                                                                             # Use all neighbours within 1.3 unit cell.

# get number of connections
compute coord_number all coord/atom orientorder q6 0.5

# An atom is solid if it has 8 or more connections (of a possible 14)
variable is_solid atom c_coord_number>=8
group solid dynamic all var is_solid    # Must be dynamic to update
dynamic group solid defined

# do clustering
compute cluster solid cluster/atom 1.3 # Create a cluster where all atoms within are solid and max 1.3 units from another member

# define chunks one chunk per cluster
compute clus_chunks solid chunk/atom c_cluster nchunk every compress yes  # Says which atoms are in which chunk

# count the size of each chunk
compute size_chunks solid property/chunk clus_chunks count


# Find the maximum entry in the vector of chunk sizes
variable max_n equal max(c_size_chunks)


# Thermo style which includes this variable
# thermo_style custom step temp pe vol v_max_n

thermo ${N}  # Print the thermo information every 100 steps
thermo 1000  

# Reset the npt fix at a lower temperature (below freezing)
fix 1  all npt temp  ${temp} ${temp}  0.1  iso  5.68  5.68  0.5  mtk yes tchain  5  pchain  5
fix 1  all npt temp  0.45 ${temp}  0.1  iso  5.68  5.68  0.5  mtk yes tchain  5  pchain  5
fix 1  all npt temp  0.45 0.45  0.1  iso  5.68  5.68  0.5  mtk yes tchain  5  pchain  5

dump dmp2 all dcd ${N} traj.dcd
dump dmp2 all dcd 1000 traj.dcd


compute msd all msd com yes
variable twopoint equal c_msd[4]/6/(step*dt+1.0e-6)
fix 9 all vector 10 c_msd[4]
variable fit equal slope(f_9)/6/(10*dt)
thermo_style custom step temp pe c_msd[4] v_twopoint v_fit v_max_n

fix 1 all npt temp 1.25 ${temp} 0.1 iso 5.68 5.68 0.5 mtk yes tchain 5 pchain 5
fix 1 all npt temp 1.25 0.45 0.1 iso 5.68 5.68 0.5 mtk yes tchain 5 pchain 5
run 500000 # 5000000  # Run for this many steps
Neighbor list info ...
  update every 1 steps, delay 10 steps, check yes
  max neighbors/atom: 2000, page size: 100000
  master list distance cutoff = 3.8
  ghost atom cutoff = 3.8
  binsize = 1.9, bins = 9 9 9
  4 neighbor lists, perpetual/occasional/extra = 1 3 0
  (1) pair lj/cut, perpetual
      attributes: half, newton on
      pair build: half/bin/atomonly/newton
      stencil: half/bin/3d
      bin: standard
  (2) compute orientorder/atom, occasional
      attributes: full, newton on
      pair build: full/bin/atomonly
      stencil: full/bin/3d
      bin: standard
  (3) compute coord/atom, occasional
      attributes: full, newton on
      pair build: full/bin/atomonly
      stencil: full/bin/3d
      bin: standard
  (4) compute cluster/atom, occasional
      attributes: full, newton on
      pair build: full/bin/atomonly
      stencil: full/bin/3d
      bin: standard
Per MPI rank memory allocation (min/avg/max) = 9.756 | 9.762 | 9.769 Mbytes
Step Temp PotEng c_msd[4] v_twopoint v_fit v_max_n 
   12000    1.2415433   -6.2846814 1.9121988e-30 1.3279158e-32 8.3333333e+20            2 
   13000    1.2275613    -6.254663   0.56300486 0.0036090054  0.046204193            1 
   14000    1.2706353   -6.3149269    1.1031934 0.0065666274    0.0458604            4 
   15000    1.2477978   -6.2662636    1.7260518 0.0095891763  0.046936206            4 
   16000    1.2325542    -6.294425    2.2917359  0.011936124  0.047889965            3 
   17000    1.2300805   -6.2792396    2.8194843  0.013821001  0.047766557            5 
   18000    1.2275023   -6.2910199    3.3563943  0.015538862  0.047078136            2 
   19000    1.2137874   -6.2573968    3.9561863  0.017351694  0.046935838            3 
   20000    1.2384472   -6.3111185    4.5466545  0.018944393  0.047007902            1 
   21000    1.2486164   -6.3494965    5.0281065  0.019952803  0.046988191            8 
   22000    1.2388136   -6.3016836    5.5365116  0.020971634  0.046573317            2 
   23000    1.2403022   -6.2789178     6.107449  0.022128438   0.04629544            2 
   24000    1.2415596   -6.2921903     6.599713   0.02291567  0.046090296            2 
   25000     1.241723   -6.3522046    7.0504958  0.023501652  0.045787144            3 
   26000    1.2532628   -6.3064402    7.4986438  0.024034114  0.045308691            3 
   27000    1.2178531   -6.3114713    8.0012154  0.024695109  0.044817496            2 
   28000     1.227629   -6.3676929     8.437441  0.025111431  0.044362261            3 
   29000    1.2161697   -6.3518533    8.9771211  0.025796324  0.044066345            4 
   30000    1.2028541   -6.3685617    9.5202413  0.026445114  0.043809962            5 
   31000    1.1950036   -6.3453978    10.101428  0.027154377  0.043733368            2 
   32000     1.212095   -6.3133431    10.555068  0.027487155  0.043632531            3 
   33000    1.2574069   -6.3278858     10.98031  0.027728055  0.043476335            2 
   34000    1.1995821   -6.3348846    11.416103  0.027980644  0.043232254            3 
   35000    1.1988208    -6.324016    11.925337   0.02839366  0.043008441            2 
   36000    1.1788649   -6.4095976    12.413042  0.028733893  0.042823412            4 
   37000    1.2387127   -6.3271415    12.994191  0.029266196  0.042686183            2 
   38000    1.1927427   -6.3602616    13.424236  0.029439114  0.042590964            6 
   39000     1.193451   -6.3648937    13.989088  0.029891212  0.042527247            2 
   40000    1.1967281   -6.3662241    14.493269   0.03019431  0.042477181            2 
   41000    1.2063288   -6.3692906    14.950473  0.030387141  0.042400776            1 
   42000    1.1879838   -6.3455377    15.412157  0.030579675  0.042333994            2 
   43000    1.1976099   -6.3649453    16.069874  0.031143165  0.042294862            5 
   44000    1.2084642   -6.3851342    16.387991  0.031037862  0.042268286            2 
   45000    1.2038235   -6.3750688    16.836627  0.031178938  0.042179623            4 
   46000    1.1736659   -6.3816415    17.447041  0.031606958  0.042112809            2 
   47000     1.214148   -6.4232194    17.914785  0.031763803  0.042065571            4 
   48000    1.1747481   -6.3542122    18.326382  0.031816635  0.041996077            2 
   49000    1.1735218   -6.4068634    18.690412  0.031786415  0.041895179            1 
   50000    1.1959926   -6.3960242    19.181943  0.031969905  0.041807882            2 
   51000    1.2051984   -6.3825958     19.56147  0.031963186  0.041725423            1 
   52000    1.1692453   -6.4264316    20.091232  0.032197487  0.041620483            5 
   53000    1.1927921   -6.3865651    20.517783  0.032260664  0.041520588            6 
   54000    1.1819055    -6.392001    21.005857  0.032416446  0.041413926            2 
   55000    1.1978417   -6.3704038    21.379343  0.032392943   0.04130463            4 
   56000     1.159667   -6.3699736    21.873873  0.032550406  0.041205677            3 
   57000    1.2149817   -6.4045348    22.403746  0.032754015  0.041114881            2 
   58000     1.185345   -6.4078173    22.977845  0.033014145  0.041066242            3 
   59000    1.1563306   -6.3697168    23.616677  0.033356888  0.041039178            3 
   60000    1.1812539   -6.4222391     24.20488  0.033617889  0.041034416            3 
   61000    1.1716026   -6.4464808    24.555558  0.033545844  0.041039409            3 
   62000    1.1739343   -6.4450301    24.974406  0.033567749  0.041020226            2 
   63000    1.1699425   -6.4130736    25.347865  0.033528921  0.040992765            4 
   64000    1.1560446   -6.4720797    25.736725  0.033511361    0.0409291            3 
   65000    1.1608153   -6.4287945    26.139129  0.033511704  0.040869258            2 
   66000    1.1618868   -6.4709241    26.488952  0.033445646   0.04079721            2 
   67000    1.1452839   -6.4168853    27.031181  0.033620871   0.04072086            2 
   68000    1.1386831   -6.4430595    27.371268  0.033543221  0.040643485            2 
   69000    1.1690952   -6.4491053    27.962123   0.03377068  0.040568243            2 
   70000    1.1781564   -6.4333797    28.436322  0.033852764  0.040502473            4 
   71000    1.1822046   -6.4668492    28.889729  0.033908132  0.040437189            5 
   72000    1.1424853   -6.4917689     29.35043  0.033970405  0.040386516            2 
   73000    1.1596878   -6.4860045    29.649651  0.033846633   0.04031585            1 
   74000    1.1396218   -6.4964111    29.909695  0.033682089  0.040231111            3 
   75000    1.1520575   -6.4695779    30.291463  0.033657181  0.040123544            5 
   76000    1.1632525   -6.4587417    30.608739  0.033562213  0.040029275            7 
   77000    1.1442808   -6.4554322    30.977794  0.033525751    0.0399252            4 
   78000    1.1702489   -6.4872334    31.565117  0.033723415  0.039827846            2 
   79000    1.1596477   -6.4764474    31.985654  0.033740141  0.039738273            3 
   80000    1.1496314   -6.4626435    32.297786  0.033643527  0.039641565            3 
   81000    1.1253254   -6.4667431    32.795322  0.033740043  0.039546536            6 
   82000    1.1013215   -6.4456134    33.154254  0.033693347  0.039464555            2 
   83000    1.1370388   -6.5000453    33.566826  0.033701633  0.039376821            3 
   84000    1.1316518   -6.4725608    34.161478  0.033890355  0.039293127            4 
   85000    1.1092034   -6.4986082    34.616841  0.033938079  0.039220141            3 
   86000     1.153645    -6.482736    35.000677  0.033915385  0.039148946            5 
   87000    1.1262919   -6.4869401    35.335336  0.033846107  0.039076526            2 
   88000    1.1305729   -6.4972068    35.733698  0.033838729  0.039005955            3 
   89000    1.1211198   -6.5057598    36.273798   0.03396423  0.038936294            2 
   90000    1.1269454   -6.5285511    36.686254  0.033968754  0.038878824            2 
   91000    1.1397905   -6.5291247    37.029071  0.033909405  0.038810607            5 
   92000    1.1174288   -6.5192026     37.18394  0.033681105  0.038730331            1 
   93000    1.1477572   -6.5341191    37.565168  0.033660545  0.038646652            6 
   94000    1.1368256   -6.5231137    38.012796  0.033699287  0.038559223            2 
   95000    1.1084139   -6.5096229    38.371837  0.033659506  0.038476205            2 
   96000    1.1061649   -6.5070962    38.881465  0.033751272  0.038401914            9 
   97000    1.1124087   -6.5536021    39.290499  0.033754724  0.038328294            1 
   98000    1.1008561   -6.5560653    39.591654  0.033666372  0.038251797            3 
   99000    1.1107928   -6.5133052     40.02129  0.033687955  0.038183107            3 
  100000    1.1095616   -6.5098625    40.652922  0.033877435  0.038117272            2 
  101000    1.1079746   -6.5468178     41.09803  0.033909266  0.038058624            2 
  102000    1.0917059   -6.5496073    41.540397  0.033938232  0.037996088            2 
  103000    1.1247143   -6.5250424    41.741913  0.033771774  0.037931306            2 
  104000    1.0881677   -6.5649566    42.033859  0.033680977  0.037864736            3 
  105000    1.0828416   -6.5718923    42.261009  0.033540483  0.037791107            3 
  106000     1.090429   -6.5449974    42.580139  0.033474952  0.037707013            2 
  107000    1.1000144   -6.5628665     42.86564  0.033384455  0.037621844            4 
  108000    1.1186189   -6.5542871    43.510341  0.033572794   0.03753929            4 
  109000    1.0987499     -6.54072    43.657967  0.033377651  0.037462497            2 
  110000    1.0916836   -6.5460467    44.005737   0.03333768  0.037381865            2 
  111000    1.0912741   -6.5012277    44.383628  0.033321042  0.037300274            4 
  112000    1.0800709   -6.5723137    44.635019   0.03321058  0.037218146            4 
  113000    1.0953635   -6.5670942    45.110165  0.033267083  0.037138673            4 
  114000    1.0824623   -6.5859644    45.514266  0.033270662  0.037064543            1 
  115000    1.0960743   -6.6302866    45.550663  0.033007727  0.036983848            4 
  116000    1.0662775   -6.5892131    46.042518  0.033076521  0.036900432            3 
  117000    1.0890856   -6.6036452    46.426822  0.033067537  0.036820359            9 
  118000    1.0735168    -6.577373    47.004918  0.033195564   0.03674451            3 
  119000    1.0488876   -6.6174368    47.116081  0.032994454  0.036666125            8 
  120000    1.0820585   -6.6039017      47.2628  0.032821389  0.036579174            2 
  121000    1.0840354   -6.6331727    47.709157  0.032857546  0.036494246            3 
  122000    1.0767822   -6.6168052    47.880228  0.032705073  0.036405209            4 
  123000    1.0732418   -6.6473576    48.261436   0.03269745  0.036318437            3 
  124000    1.0561537   -6.6498963    48.615682  0.032671829  0.036225259            3 
  125000    1.0728621   -6.6009141    48.908416  0.032605611  0.036134087           11 
  126000     1.054192   -6.6278076    49.134112  0.032496106  0.036043253            1 
  127000    1.0691823   -6.6130166    49.328521  0.032367796  0.035949447            2 
  128000    1.0518184   -6.6052572    49.476416  0.032211208  0.035852818            2 
  129000    1.0565648   -6.6552818     49.86875  0.032214955  0.035757703            7 
  130000    1.0693458   -6.6350043    50.334238  0.032265537   0.03566312            7 
  131000    1.0775443   -6.6949456    50.713564  0.032260537  0.035576119            3 
  132000    1.0567711   -6.6262672    50.988798  0.032189898  0.035489631            3 
  133000    1.0646015   -6.6234189    51.461598  0.032244109  0.035407381            2 
  134000    1.0373137   -6.6386886    51.824447  0.032229134  0.035327005            6 
  135000    1.0589137   -6.6565093    52.315484  0.032293508   0.03525225            3 
  136000    1.0593002   -6.6335209     52.58572  0.032221642  0.035178817            2 
  137000    1.0652508   -6.6309394    53.084843   0.03229005  0.035107519            3 
  138000    1.0539818   -6.6556178    53.553709  0.032339196  0.035038981            3 
  139000    1.0299626   -6.6923361    53.673371   0.03217828   0.03497004            2 
  140000    1.0425278   -6.6344946    54.101045  0.032203003   0.03490299            3 
  141000     1.050989   -6.6631237    54.246675  0.032060682  0.034831806            6 
  142000    1.0330857   -6.6387279    54.495377  0.031980855  0.034760936            4 
  143000    1.0260315   -6.6495542    54.787612  0.031927513  0.034689702            2 
  144000    1.0347847   -6.6696332    55.209491  0.031949937  0.034617677            5 
  145000    1.0303984   -6.6593891    55.320779  0.031793551  0.034543978            4 
  146000     1.039298   -6.6838819     55.40141  0.031621809  0.034464047            4 
  147000    1.0284808   -6.7051345    55.841428  0.031656138  0.034381995            5 
  148000    1.0247918    -6.682338     56.10175  0.031588823  0.034302352            4 
  149000    1.0147396    -6.692906    56.430745  0.031560819   0.03422162            2 
  150000    1.0346747   -6.6967722    56.611801     0.031451  0.034139732            2 
  151000    1.0074695   -6.7416921    56.726929  0.031306252  0.034057236            4 
  152000    1.0290347   -6.6999827    57.181155  0.031349318  0.033978554            3 
  153000     1.047548   -6.6765486    57.493057  0.031314301  0.033902374            9 
  154000    1.0159907   -6.7136376    57.794073  0.031273849  0.033827051            5 
  155000    1.0336197   -6.7162079    58.156026  0.031266681  0.033749561           11 
  156000      1.01386   -6.7356874    58.410683  0.031202288  0.033673819            3 
  157000    1.0042138   -6.7189685    58.674772  0.031143722  0.033595107            9 
  158000    1.0269518   -6.7159114    58.552258  0.030881992  0.033514395            4 
  159000    1.0032761   -6.7429212    58.666508  0.030747646  0.033430115            4 
  160000    1.0168515   -6.7313512    59.076774  0.030769153  0.033343316            4 
  161000    1.0027463   -6.7311139    59.205567  0.030644703  0.033255833            5 
  162000    1.0439485   -6.7835783    59.530621  0.030622747  0.033169298            6 
  163000    1.0150282    -6.706959    59.587073  0.030463739  0.033082488            3 
  164000   0.99114205   -6.7614545    59.816808  0.030394719  0.032993476            4 
  165000    1.0240984   -6.7363419    60.242318  0.030425413  0.032907682            3 
  166000    1.0054177    -6.746788    60.370381  0.030306416  0.032819298            4 
  167000    0.9814484   -6.7783801    60.428667  0.030154025  0.032730382            3 
  168000    1.0026774   -6.7723581    60.953242  0.030234743  0.032641886            2 
  169000    1.0018773   -6.7136423    60.956257  0.030057326  0.032554894            6 
  170000    0.9776308   -6.7614953    61.291574  0.030044889  0.032468965            4 
  171000   0.99183326   -6.7438841     61.75324  0.030094172  0.032385816            9 
  172000   0.98673944   -6.7378962    62.231531  0.030150935  0.032306427            4 
  173000   0.98681691   -6.7386935    62.496027  0.030104059   0.03222691            2 
  174000   0.97992892   -6.7682372    62.557743  0.029960605  0.032146099            5 
  175000   0.99857177   -6.7373705    62.886048  0.029945737  0.032066212            4 
  176000   0.97112425    -6.793869    62.872492  0.029769172  0.031984052            4 
  177000    1.0028515   -6.7843302    63.135726  0.029724918  0.031901395            6 
  178000   0.98552909   -6.7822241    63.232109  0.029603047   0.03181738            6 
  179000   0.96375997   -6.7903801    63.393099  0.029512616  0.031732584            3 
  180000   0.96542791   -6.7988192    63.529961  0.029412019   0.03164695            2 
  181000   0.97723091   -6.7908805    63.681567  0.029319322  0.031559908            4 
  182000   0.98362008   -6.7675006    64.142175  0.029369128  0.031472577            2 
  183000   0.95554086   -6.7859499    64.049162  0.029166285  0.031387016            3 
  184000    0.9801396   -6.7938219    64.385356  0.029160034  0.031301384            3 
  185000   0.97343414   -6.7885762    64.652987  0.029122967  0.031215849            2 
  186000   0.97475002   -6.7918735    64.662219  0.028970528  0.031128574            3 
  187000   0.96450994   -6.8031707    65.004235  0.028968019  0.031040803            4 
  188000   0.96290384   -6.7789723    65.154004  0.028880321  0.030954143            4 
  189000   0.95214823   -6.7755742    65.475664   0.02886934  0.030868529            4 
  190000   0.96785608   -6.8465437    65.645039  0.028791684  0.030785061            5 
  191000   0.94179708   -6.7917284    65.929438  0.028765025  0.030702423            4 
  192000   0.97817678   -6.7889879    66.323383  0.028786191  0.030619943            3 
  193000   0.97102949   -6.8455223    66.549245  0.028734561  0.030539236            3 
  194000   0.97069519   -6.8546905    66.827386  0.028705922  0.030460481            3 
  195000   0.96835437   -6.8256104    67.084855  0.028668741  0.030382131            3 
  196000   0.96443281   -6.8677459    66.993071  0.028483448  0.030304367            6 
  197000   0.95724085   -6.8161883    67.133488  0.028398261  0.030225265            3 
  198000   0.95728919    -6.817529    67.401964   0.02836783  0.030145753            4 
  199000   0.94465263   -6.8453215    67.505805  0.028268763   0.03006589            6 
  200000   0.94237347   -6.8721609    67.592137   0.02816339  0.029986523            3 
  201000    0.9279229   -6.8578667    67.980061  0.028184105  0.029906117            2 
  202000   0.95020327   -6.8627555    68.192502   0.02813222  0.029826368            4 
  203000   0.95613773   -6.8489776    68.256078  0.028019736  0.029745909            3 
  204000   0.94916337   -6.8904043    68.575727   0.02801296  0.029664485            9 
  205000   0.95185375   -6.8721041    68.816949  0.027974369  0.029583764            3 
  206000   0.95111696   -6.8680377    68.966134  0.027898922  0.029505461            4 
  207000   0.93529936   -6.8709935    69.181617  0.027850893  0.029426913            3 
  208000   0.94328101   -6.8808816    69.145797  0.027702643  0.029348417           12 
  209000   0.92570319    -6.874999    69.493026  0.027708543    0.0292697            7 
  210000   0.93299645   -6.8943775    69.319166  0.027507605  0.029188617            4 
  211000   0.94472483   -6.8911452    69.596329  0.027486702  0.029106705            6 
  212000   0.93652253   -6.9026905    69.711924  0.027402486  0.029025652            4 
  213000    0.9287628   -6.8740597    69.883306  0.027340886   0.02894448            7 
  214000   0.91626514   -6.9094745    69.760525  0.027165313  0.028862454           10 
  215000   0.91440176   -6.9189073    70.321447  0.027256375  0.028780657            3 
  216000   0.92610951   -6.9061204    70.357308  0.027144023  0.028700894            3 
  217000   0.91735692   -6.8679462    70.658781  0.027134708  0.028621798            2 
  218000   0.91806692    -6.913496    71.131621  0.027190987  0.028544023            5 
  219000   0.91623462   -6.8885998    71.547646  0.027225132  0.028468947            4 
  220000   0.91027282   -6.9052145    71.358257  0.027029643  0.028393991            8 
  221000   0.91462467   -6.9361646    71.603294  0.026999734  0.028317867            9 
  222000   0.90954273   -6.8982911    71.750973  0.026933548  0.028242228            5 
  223000   0.90010773   -6.9297994     71.94285  0.026884473   0.02816744            4 
  224000   0.91317433   -6.8872384    72.379217  0.026926792  0.028093042            5 
  225000    0.9151114   -6.9257546    72.348477  0.026795732    0.0280206            6 
  226000   0.91224579   -6.9424239    72.435057  0.026709092  0.027945974            3 
  227000   0.91399034   -6.9370386    72.755699   0.02670914  0.027872522            7 
  228000   0.90130544   -6.9337306     73.21289  0.026759097  0.027801199            7 
  229000   0.90083651   -6.9494781    73.016844  0.026570904  0.027729533            7 
  230000   0.89643036    -6.931567    73.241235  0.026536679   0.02765806            3 
  231000     0.928919   -6.9432677    73.394814  0.026477206  0.027587677           11 
  232000   0.90950499   -6.9863319    73.410276  0.026368634  0.027516151            4 
  233000   0.88349741   -6.9756708    73.464979  0.026275028  0.027443546            5 
  234000   0.90323794   -6.9905525    73.695596   0.02624487  0.027370797            9 
  235000   0.89628724   -6.9454361    73.749608  0.026152343  0.027298628            9 
  236000   0.87456338   -6.9308754    74.312182  0.026240177  0.027227523            3 
  237000   0.89777992   -7.0029619    74.386606  0.026155628  0.027157109            6 
  238000   0.87609636   -6.9792778      74.5954  0.026118837  0.027087213            3 
  239000   0.89383443   -6.9534984    74.967908  0.026139438  0.027019358            3 
  240000   0.88590316   -6.9910498    74.969613  0.026031116  0.026951325            5 
  241000   0.88686625   -6.9682319    75.124052  0.025976505  0.026883654            7 
  242000   0.89384003   -7.0005401    75.407545  0.025966786  0.026816379            6 
  243000   0.87671601   -6.9729999    75.362598  0.025844512  0.026749078            5 
  244000   0.87070819   -6.9944442    75.272244  0.025707734  0.026680279            8 
  245000    0.8654284   -6.9909036    75.626898  0.025723435  0.026611339            8 
  246000   0.89415148    -6.991251     75.70918  0.025646741  0.026543253            4 
  247000    0.8747064   -6.9833958    76.282164  0.025736223  0.026475963            7 
  248000   0.87666559   -6.9977353    76.212166  0.025608927  0.026409648           10 
  249000   0.86429743   -7.0217504    76.367877  0.025558192  0.026342527            9 
  250000   0.87191727   -7.0222749    76.251079  0.025417026  0.026275355            3 
  251000   0.87936769   -7.0298666    76.823755  0.025505895  0.026208503            6 
  252000   0.86145622   -6.9934106    77.159455  0.025515693  0.026143258            5 
  253000   0.85367256   -7.0250374     77.19663  0.025427085  0.026079321            8 
  254000   0.88256207   -7.0154688      77.1714  0.025318701  0.026014685           12 
  255000   0.85285883   -7.0525903    77.569704  0.025349576  0.025950528            6 
  256000    0.8569507   -7.0219165    77.703184  0.025294005  0.025886642            2 
  257000   0.85453833   -7.0174669    77.608145  0.025164768  0.025822622            3 
  258000   0.86012744   -7.0497834    77.742544  0.025110641  0.025757752            4 
  259000   0.84415253   -7.0616283    77.907988   0.02506692  0.025691842            4 
  260000   0.84626951   -7.0331862    77.619449  0.024878028  0.025625414            6 
  261000   0.84495396   -7.0513844    77.678432  0.024801543  0.025559656            7 
  262000   0.85286244   -7.0465595     77.99711  0.024808241  0.025494143           13 
  263000   0.84905432    -7.042658    78.166917  0.024767718  0.025429333            9 
  264000   0.85519518   -7.0294971    78.498433  0.024778546  0.025364992            4 
  265000   0.84778682   -7.0494778    78.736122  0.024759787  0.025301022            5 
  266000   0.85078947    -7.089787    78.770016  0.024677323  0.025237221            6 
  267000   0.84566899   -7.0655666    78.666018   0.02455244  0.025173131            7 
  268000   0.84660059   -7.0575615    78.820535  0.024508873  0.025108233           10 
  269000   0.85078253   -7.0786998    78.915435  0.024447161   0.02504386            3 
  270000    0.8409406    -7.081289     79.05579  0.024399935  0.024980397            7 
  271000   0.81500684   -7.0645469      79.2764  0.024377737  0.024916661            6 
  272000   0.84187775   -7.0956634    79.525739  0.024364503  0.024854522            3 
  273000   0.84147792   -7.0582435    79.589264  0.024294647  0.024791996           12 
  274000   0.82578351    -7.087432    79.488931  0.024175466  0.024729317            7 
  275000   0.83489328   -7.1010954    79.845376  0.024195569  0.024666778            8 
  276000   0.82830693   -7.0933148    80.117784  0.024190152  0.024605241            8 
  277000   0.81690307   -7.1268989    79.920276  0.024043404   0.02454363            8 
  278000   0.83175861   -7.0925547    80.194724  0.024039186  0.024481943            8 
  279000   0.82917724   -7.1002882    80.156614  0.023941641  0.024420042           10 
  280000   0.81077739   -7.0924072    80.347011  0.023912801  0.024358033            6 
  281000   0.82783855   -7.0997552    80.697251  0.023931569  0.024296431            5 
  282000   0.81043372   -7.1242995    80.708997  0.023850176  0.024235315            5 
  283000   0.84626409   -7.1232065    80.815249  0.023797188  0.024173705            5 
  284000   0.82015499    -7.127475    80.770201  0.023700176  0.024112442            5 
  285000   0.80973688   -7.1102867    80.790189  0.023622862  0.024050784            3 
  286000   0.79860468   -7.1702247    80.865817  0.023562301  0.023988722            6 
  287000   0.81232165   -7.1448215    81.010342  0.023522166  0.023927024            5 
  288000   0.80719476   -7.1504983    80.973725  0.023429897   0.02386509            7 
  289000   0.81710991   -7.1340904    81.239651  0.023425505  0.023802855            8 
  290000   0.80003155   -7.1642881    81.261618   0.02335104  0.023741531            6 
  291000   0.81163114   -7.1285702    81.637035  0.023378303  0.023680645            4 
  292000   0.79527526   -7.1611448    81.543094  0.023271431  0.023620061           18 
  293000     0.806812   -7.1590808    81.343617  0.023135272  0.023558383            7 
  294000   0.77733926   -7.1905354    81.662688   0.02314702  0.023496657            8 
  295000   0.78100783   -7.1762568    81.564827  0.023040911    0.0234352            7 
  296000   0.80589607   -7.1616762     81.83626  0.023039487  0.023373975           12 
  297000    0.7936478   -7.1772539    81.773883  0.022944411  0.023313017            4 
  298000   0.77605498   -7.1665329    82.005524  0.022932193  0.023252136            7 
  299000   0.80871506   -7.1824599    82.091546  0.022879472  0.023191171            9 
  300000   0.77625806   -7.1707616    82.263512  0.022850975  0.023130242            9 
  301000   0.78940787   -7.2136202    82.137424  0.022740151  0.023069213            6 
  302000   0.77129652   -7.1900694    82.204215  0.022683282  0.023008164            8 
  303000   0.78210073   -7.1934468    82.380554  0.022656918  0.022947676            8 
  304000   0.79512693   -7.2019168    82.287468  0.022556872  0.022886767            7 
  305000   0.77062027   -7.1962298    82.342685  0.022498001  0.022825023           12 
  306000   0.76598074   -7.2378393    82.322113  0.022418876  0.022763494           18 
  307000   0.78894848   -7.2060035    82.437513  0.022377175  0.022702083           10 
  308000   0.75689865   -7.2003223    82.434065  0.022303589  0.022640495           13 
  309000   0.78041554   -7.2097415    82.545911  0.022261572  0.022579245           14 
  310000   0.77067677   -7.2326901     82.40636  0.022152247  0.022517919           10 
  311000   0.76731244   -7.2429515    82.579429  0.022127393  0.022456586            5 
  312000   0.76790919   -7.2570458    82.654638  0.022076559  0.022394928            5 
  313000   0.76927264   -7.1998615    82.633252  0.022000333  0.022333243            8 
  314000    0.7708697   -7.2396463    82.779557  0.021969097  0.022271719            5 
  315000   0.78142691   -7.2144896    83.089384  0.021981318  0.022210774            8 
  316000    0.7820941   -7.2223728    83.244232  0.021952593   0.02215017           11 
  317000    0.7662167   -7.2142859    83.087345  0.021842099  0.022089417            6 
  318000   0.78035792   -7.2376383    83.138053  0.021786701  0.022028396            7 
  319000   0.74907907   -7.2439636    83.256312  0.021749298  0.021967445            6 
  320000   0.77757211    -7.276946    83.165145   0.02165759  0.021907143           14 
  321000   0.73351837   -7.2316699    83.439149  0.021661254  0.021846775           12 
  322000   0.75856418   -7.2672241    83.422109  0.021589573  0.021786471            9 
  323000   0.75175793   -7.2458874     83.39132  0.021514788  0.021726119            7 
  324000   0.75849301   -7.2770429    83.376651  0.021444612  0.021665696            7 
  325000   0.75936995   -7.2782358     83.81237  0.021490351   0.02160556            8 
  326000   0.76033928   -7.2812537    83.667039   0.02138728  0.021545808           10 
  327000   0.73239899   -7.2755345    83.554398   0.02129317  0.021485947            9 
  328000   0.74212911   -7.2841587     83.61531  0.021243727  0.021425686            9 
  329000   0.73793377   -7.2700589    83.543804  0.021161045  0.021365266           27 
  330000   0.74195504   -7.2815551     83.68742  0.021133187  0.021304691           17 
  331000   0.74052674    -7.307989    83.515706  0.021026109  0.021243766           13 
  332000   0.73414674    -7.282842      83.6697  0.021001431  0.021183638            8 
  333000   0.74787538   -7.2913107    83.739347  0.020955792  0.021124025            9 
  334000   0.74726286   -7.2994586    83.965079  0.020949371  0.021064955            9 
  335000   0.71894334   -7.2955006    83.865751  0.020862127  0.021005375            9 
  336000   0.74299566   -7.2962679    83.998745  0.020833022   0.02094675           10 
  337000   0.72866243   -7.3270227    83.846858  0.020733644  0.020887344            8 
  338000   0.72225459   -7.3081644    84.103048  0.020735465  0.020827963            9 
  339000   0.72877915   -7.3175601    84.192421  0.020696269  0.020768597           10 
  340000   0.75301893   -7.3207757    84.211812   0.02064015   0.02070984            4 
  341000   0.72519424   -7.3099545     84.40998   0.02062805  0.020651429           15 
  342000   0.72484766   -7.3183141    83.990189  0.020465446  0.020592919           13 
  343000   0.72177887   -7.3041523    84.148992  0.020444361  0.020534004            9 
  344000   0.70938117   -7.3330327    84.159249  0.020387415  0.020475483           12 
  345000   0.71835868   -7.3190023    84.243448  0.020348659   0.02041722           16 
  346000   0.69866908   -7.3643956    84.407385  0.020329332  0.020359088            7 
  347000   0.71163422   -7.3679491    84.173483  0.020214573  0.020300503           13 
  348000   0.72064313    -7.384862    84.371231  0.020203839  0.020242114           10 
  349000   0.72013434   -7.3723586    84.360871  0.020143474  0.020184047           11 
  350000   0.70415331    -7.369737    84.386351  0.020091988  0.020125988           11 
  351000    0.7124934   -7.3607316    84.316567  0.020018178  0.020067883            8 
  352000   0.70484995   -7.3692665    84.567514  0.020020718  0.020010194           10 
  353000   0.70406333   -7.3939964    84.349609  0.019912561  0.019952267           13 
  354000   0.71574695   -7.3950912    84.418656  0.019872565  0.019894225           16 
  355000   0.71363309    -7.366464    84.357897  0.019802323  0.019836369            5 
  356000   0.69295116   -7.3844825    84.663308   0.01981819  0.019779072            7 
  357000   0.69955567   -7.3754512    84.631513  0.019755255  0.019722061           17 
  358000   0.70033779   -7.3972406    84.547039  0.019680409  0.019664667            4 
  359000   0.69745687   -7.3756947    84.598841  0.019637614  0.019607165           11 
  360000   0.68721289   -7.3661014    84.728422  0.019613061  0.019550216           12 
  361000   0.68635767   -7.3803558    84.606081   0.01953049  0.019493506           16 
  362000   0.69680151   -7.3754672    84.755479   0.01951093  0.019436785           10 
  363000   0.69665439   -7.4214157    84.655726   0.01943428  0.019380101            9 
  364000    0.6806436   -7.3889624    84.686499  0.019387935   0.01932319           13 
  365000   0.67928246   -7.4012713    84.794664  0.019359512  0.019267025            7 
  366000   0.68916977   -7.4051546    84.986239  0.019350237    0.0192107            7 
  367000   0.68169459   -7.4196688    84.816602  0.019258992  0.019154827           10 
  368000   0.66694806   -7.4056026    85.171563  0.019287039  0.019099158            8 
  369000   0.68358334   -7.4121085    84.962144  0.019187476   0.01904383           10 
  370000   0.67546174   -7.4155159    84.916049  0.019125236  0.018988295           21 
  371000   0.67375169   -7.4531609    85.082931   0.01911117   0.01893292            9 
  372000   0.68854135     -7.41742    85.167368  0.019078711  0.018877841           13 
  373000   0.66865443   -7.4131958    85.084942  0.019009147  0.018822915           13 
  374000   0.65916516   -7.4225657    85.125534  0.018967365  0.018768152           16 
  375000   0.67384252   -7.4549013    85.091174   0.01890915  0.018713467           15 
  376000   0.66791705   -7.4367974    85.244042   0.01889274  0.018658873            9 
  377000   0.66632604   -7.4465802    84.936539  0.018774655  0.018604061           11 
  378000   0.66495434   -7.4318943    85.134601  0.018768651  0.018549401           12 
  379000   0.65776416   -7.4591418    85.290945  0.018753506  0.018494952           16 
  380000   0.65093617   -7.4625075    85.142772  0.018671661  0.018440445           11 
  381000   0.66553604   -7.4381475    85.237725  0.018643422  0.018386345           17 
  382000   0.66401227   -7.4649087    85.049032  0.018553454  0.018332372           35 
  383000   0.63792143   -7.4399907    85.156035  0.018528293  0.018278572           23 
  384000   0.65557487    -7.475077    85.213568  0.018492528  0.018224723           11 
  385000   0.64339737   -7.4764417    85.195011  0.018440479  0.018171026           10 
  386000   0.64748913   -7.4877389    85.289235  0.018413047  0.018117451            7 
  387000   0.65125546   -7.4745826    85.322802  0.018372696  0.018063988           10 
  388000   0.65886655     -7.49782    85.457328  0.018354237  0.018010871           16 
  389000   0.62748749   -7.4705008    85.128031   0.01823651  0.017957453           13 
  390000   0.65585155   -7.5011289    85.179687  0.018200788  0.017904199           16 
  391000   0.63867092   -7.5021255    85.211061  0.018160925  0.017850993           10 
  392000   0.65276504   -7.4762614    85.290801  0.018131548  0.017797751           41 
  393000   0.63254491   -7.4940325    85.195161  0.018065132  0.017744864           24 
  394000   0.65280664   -7.4994298    85.360497  0.018054251  0.017692104           20 
  395000   0.64209919    -7.486923    85.237161  0.017982523  0.017639743            8 
  396000   0.63619756   -7.4900351    85.267326  0.017943461  0.017587478           19 
  397000   0.64117426   -7.5209084    85.262582  0.017897267  0.017535412           20 
  398000   0.64256484   -7.5222812    85.496852  0.017901351  0.017483529           20 
  399000    0.6328018   -7.5187006    85.279431  0.017811076   0.01743172           19 
  400000    0.6250272   -7.5200382    85.389979  0.017789579  0.017379955           36 
  401000   0.63219852   -7.5113134    85.407945   0.01774895  0.017328403           18 
  402000   0.62477362   -7.5259733    85.274862   0.01767721  0.017276895           10 
  403000   0.63099429   -7.5171903    85.590124  0.017698537  0.017225691           33 
  404000   0.63637234   -7.5228325    85.443447  0.017624473  0.017174712           34 
  405000   0.62905642   -7.5478722    85.448332  0.017581961  0.017123805           36 
  406000   0.61620262   -7.5444651    85.393552  0.017527412  0.017072901           31 
  407000   0.61360618   -7.5577124    85.534382  0.017513182  0.017022361           25 
  408000   0.61362095   -7.5370045    85.570069  0.017477547  0.016972034           42 
  409000   0.60658519   -7.5610038    85.371696  0.017394396  0.016921565           22 
  410000   0.61490386   -7.5646568    85.551593  0.017388535  0.016871279           43 
  411000   0.59866294   -7.5727748    85.478759   0.01733146  0.016821059           31 
  412000   0.60987878   -7.5974285     85.45789  0.017285172  0.016771121           34 
  413000   0.61247424   -7.5584269    85.421608  0.017235998  0.016721062           41 
  414000   0.60821084   -7.5902571    85.266722  0.017163189  0.016671054           25 
  415000   0.60062425     -7.57556    85.361982   0.01714096  0.016621112           38 
  416000   0.61425115   -7.5847484    85.437983  0.017114981  0.016571289           22 
  417000   0.61657736   -7.5716864    85.480191  0.017082372   0.01652144           31 
  418000   0.59081468   -7.5873646    85.304824  0.017006544   0.01647186           43 
  419000   0.60681902   -7.5762731    85.260707  0.016957181  0.016422285           47 
  420000   0.60683714   -7.5904279    85.292306  0.016923077  0.016372657           16 
  421000    0.5819104   -7.6057369    85.431413  0.016910414  0.016323209           18 
  422000   0.59931242   -7.6084352    85.299088  0.016844212  0.016273855           22 
  423000   0.59838468   -7.6037875    85.334315  0.016811331  0.016224682           30 
  424000   0.59200961   -7.6152057    85.121966  0.016729946  0.016175537           11 
  425000   0.58705001   -7.6047643    85.288069  0.016723151  0.016126621           13 
  426000   0.59408941   -7.5900351    85.228542   0.01667225  0.016077959           17 
  427000   0.59642542   -7.5998027    85.335784  0.016654134  0.016029341           27 
  428000   0.58984867   -7.6004932    85.375714  0.016622997    0.0159808           13 
  429000   0.57817501   -7.6192178     85.26305  0.016562364  0.015932421           22 
  430000   0.57798944   -7.6206085    85.176327   0.01650704   0.01588409           25 
  431000   0.57462278   -7.6280004    85.363105  0.016504854  0.015835978           16 
  432000   0.58240497   -7.6292158    85.294791   0.01645347  0.015787946           15 
  433000   0.58149674   -7.6314794    85.072833  0.016372755   0.01574005           16 
  434000   0.57449249   -7.6363026    85.370671  0.016392218  0.015692247           13 
  435000    0.5602721   -7.6357687    85.204923  0.016322782  0.015644549           37 
  436000   0.56747419   -7.6255207    85.132053  0.016271417  0.015596941           39 
  437000    0.5678485   -7.6445397    85.171494  0.016241704  0.015549551           21 
  438000   0.57245836   -7.6744683    85.032507  0.016178179  0.015502196           26 
  439000   0.57688004   -7.6443651    85.101556  0.016154434  0.015455043           21 
  440000   0.57186832   -7.6481945    85.315559   0.01615825  0.015408161           20 
  441000   0.56299171   -7.6494543    85.178425  0.016095696  0.015361447           13 
  442000   0.57371683   -7.6598728    85.277171  0.016077898  0.015314707           29 
  443000   0.56139964   -7.6457594    85.167157   0.01602091  0.015268195           20 
  444000   0.55440217   -7.6528061    85.171705   0.01598568  0.015221784           24 
  445000   0.56608885   -7.6692069    85.049385  0.015926851  0.015175565           19 
  446000   0.54986899   -7.6632964    85.284164  0.015935008  0.015129467           15 
  447000    0.5738842    -7.666374     85.20467   0.01588454  0.015083571           20 
  448000   0.55650453   -7.6793561    85.175873  0.015843726  0.015037958           19 
  449000   0.56636778   -7.6817858    85.111663  0.015796522  0.014992297           26 
  450000       0.5514   -7.6839754    85.160124  0.015770393   0.01494694           17 
  451000   0.55731707   -7.6873139    85.147165  0.015733031  0.014901708           18 
  452000   0.54588321   -7.6790752    85.182843  0.015704801  0.014856617           14 
  453000   0.55478541    -7.698687    85.147676  0.015663664  0.014811607           13 
  454000   0.54862007   -7.6847631    85.186709  0.015636327  0.014766758           23 
  455000   0.53704378   -7.6872016     85.30616  0.015623839  0.014722163           20 
  456000   0.54115657   -7.7085224    85.296094  0.015587736  0.014677701           30 
  457000   0.54336766   -7.7053014    85.010427  0.015501537  0.014633257           15 
  458000   0.54276124   -7.6954444    85.331505  0.015526111  0.014588968           22 
  459000   0.52571959    -7.711999    85.177528   0.01546433   0.01454475           15 
  460000   0.53312247   -7.7104337    84.960963  0.015391479  0.014500628           15 
  461000   0.52200638   -7.7105721     85.13527    0.0153896  0.014456605           21 
  462000   0.53397624    -7.727008    85.056198  0.015342027  0.014412882           21 
  463000   0.52096787    -7.721222    85.082228  0.015313576  0.014369191           11 
  464000   0.52307268    -7.724072    85.015398   0.01526857  0.014325649           15 
  465000   0.53261899   -7.7396694    85.057652  0.015243307  0.014282206           20 
  466000   0.52713666   -7.7351052     85.07656  0.015213977  0.014238878           57 
  467000   0.52575288   -7.7439002    84.986711  0.015165366  0.014195782           29 
  468000   0.52478955   -7.7389904     85.09662  0.015152532  0.014152738           26 
  469000   0.52247731   -7.7476893    84.852688  0.015076881  0.014109874           15 
  470000   0.51786697   -7.7373117     84.93713  0.015059775  0.014067136           16 
  471000   0.52285942   -7.7475575    85.015383  0.015041646  0.014024548           20 
  472000   0.52531252    -7.762029    85.002027   0.01500742  0.013982159           17 
  473000   0.51179549   -7.7471325    85.013442  0.014977703  0.013939958           22 
  474000   0.50931374    -7.760148     85.03823  0.014950462  0.013897646           44 
  475000   0.51899459   -7.7490316    85.184417  0.014944635  0.013855608           32 
  476000   0.50430933   -7.7552992    85.071135  0.014893406  0.013813808           27 
  477000   0.50562977   -7.7434697    84.998744  0.014849536  0.013772236           27 
  478000   0.49758267   -7.7477374    84.925942  0.014805778  0.013730826           16 
  479000   0.50731454   -7.7539025    84.895005  0.014769486  0.013689465           40 
  480000   0.49869656   -7.7479105    84.958291  0.014749703  0.013648196           19 
  481000   0.49698201   -7.7610709    84.933782  0.014714792  0.013607063           20 
  482000   0.48957771   -7.7704278    84.990238  0.014694025   0.01356606           20 
  483000   0.49312529   -7.7705504    84.796944  0.014630253  0.013525268           19 
  484000   0.49606387    -7.787495    84.963007  0.014628617  0.013484493           11 
  485000    0.4901957     -7.78266    84.976893  0.014600841   0.01344384           15 
  486000   0.48630786    -7.775532    84.840358  0.014547386  0.013403314           15 
  487000   0.48878492   -7.7977497     84.82809  0.014515416  0.013362937           16 
  488000   0.49724682   -7.7729702     84.83922  0.014487572  0.013322681           19 
  489000   0.48806498   -7.7877957    84.809609  0.014452899  0.013282523           24 
  490000   0.46949202   -7.7704965    84.850042  0.014430279  0.013242425           33 
  491000    0.4866541   -7.8046731    84.911772  0.014411367  0.013202567           23 
  492000   0.48956431   -7.7911915     84.85207  0.014371963  0.013162941           37 
  493000   0.47754187   -7.8209814     84.79971  0.014333961  0.013123391           46 
  494000   0.48257303   -7.8046768    84.727088  0.014292694  0.013083879           21 
  495000   0.46835668   -7.8028604    84.831622  0.014281418  0.013044502           31 
  496000   0.48244538   -7.8069459    84.969196  0.014275739   0.01300526           24 
  497000   0.48531804   -7.8024587    84.674496  0.014197602  0.012966174           35 
  498000   0.47353476   -7.7979635    84.642306  0.014163706  0.012927227           26 
  499000   0.47484295   -7.8107051    84.734945  0.014150792  0.012888451           19 
  500000   0.47391924   -7.8257662    84.735375  0.014122562  0.012849839           24 
  501000   0.47126998   -7.8309662    84.791621  0.014103729  0.012811311           28 
  502000   0.46411837   -7.8336416    84.816678  0.014079794  0.012772927           24 
  503000   0.46014324    -7.808416    84.711812  0.014034429  0.012734686           34 
  504000   0.45763395   -7.8307382    84.828756  0.014025919  0.012696538           20 
  505000   0.46638161   -7.8398372     84.67605  0.013972945  0.012658447           18 
  506000   0.45506224   -7.8241181     84.74712  0.013957036  0.012620556           25 
  507000   0.46485144   -7.8186465    84.679043  0.013918317  0.012582868           31 
  508000   0.45405429   -7.8277948    84.793603  0.013909712  0.012545291           29 
  509000   0.44253124   -7.8358599    84.691459  0.013865661  0.012507874           26 
  510000   0.46118152   -7.8236431    84.718736  0.013842931  0.012470617           30 
  511000   0.46054392   -7.8341752    84.610016  0.013798111   0.01243345           29 
  512000   0.44911079   -7.8507551    84.691252  0.013784383  0.012396365           26 
Loop time of 1107.01 on 48 procs for 500000 steps with 4000 atoms

Performance: 78048.168 tau/day, 451.668 timesteps/s
99.4% CPU use with 48 MPI tasks x no OpenMP threads

MPI task timing breakdown:
Section |  min time  |  avg time  |  max time  |%varavg| %total
---------------------------------------------------------------
Pair    | 67.484     | 71.591     | 76.614     |  21.0 |  6.47
Neigh   | 6.7876     | 7.0746     | 7.4591     |   4.1 |  0.64
Comm    | 59.734     | 66.244     | 72.071     |  27.6 |  5.98
Output  | 0.78664    | 0.78714    | 0.7968     |   0.2 |  0.07
Modify  | 946.07     | 949.52     | 952.59     |   5.5 | 85.77
Other   |            | 11.79      |            |       |  1.06

Nlocal:        83.3333 ave          92 max          75 min
Histogram: 3 5 2 4 10 11 1 8 3 1
Nghost:        1832.92 ave        1858 max        1808 min
Histogram: 2 1 3 10 6 11 7 4 2 2
Neighs:        11347.1 ave       12916 max        9956 min
Histogram: 2 6 6 7 3 7 8 6 2 1
FullNghs:      22693.9 ave       25337 max       20108 min
Histogram: 2 4 3 5 9 9 6 5 3 2

Total # of neighbors = 1089306
Ave neighs/atom = 272.32650
Neighbor list builds = 26920
Dangerous builds = 0

#clear
#
#next RN
#
#jump SELF
Total wall time: 0:18:30
