
units lj                  # Use reduced LJ style units
atom_style atomic         # Uncharged point particles
atom_modify map hash      # Needed for indexing of clusters etc
                          # Used to be able to find where atoms are in relation to each other.

lattice fcc 1.0 spacing 1 1 1
Lattice spacing in x,y,z = 1.5874011 1.5874011 1.5874011
region box block 0 10 0 10 0 10 units lattice
create_box 2 box
Created orthogonal box = (0.0000000 0.0000000 0.0000000) to (15.874011 15.874011 15.874011)
  3 by 4 by 4 MPI processor grid
create_atoms 1 box
Created 4000 atoms
  using lattice units in orthogonal box = (0.0000000 0.0000000 0.0000000) to (15.874011 15.874011 15.874011)
  create_atoms CPU = 0.008 seconds
set type 1 type/fraction 2 0.27 78393
Setting atom values ...
  1113 settings made for type/fraction
mass 1 1.0
mass 2 1.0
pair_style lj/cut  3.5
pair_modify tail  yes
pair_coeff 1  1  1.0  1.0   # Intearaction between 1 and 1 set with epsilon = 1 and sigma = 1
pair_coeff 1  2  1.5  0.8
pair_coeff 2  2  0.5  0.88

write_data data.0
System init for write_data ...
Neighbor list info ...
  update every 1 steps, delay 10 steps, check yes
  max neighbors/atom: 2000, page size: 100000
  master list distance cutoff = 3.8
  ghost atom cutoff = 3.8
  binsize = 1.9, bins = 9 9 9
  1 neighbor lists, perpetual/occasional/extra = 1 0 0
  (1) pair lj/cut, perpetual
      attributes: half, newton on
      pair build: half/bin/atomonly/newton
      stencil: half/bin/3d
      bin: standard
WARNING: Not all mixed pair coeffs generated from mixing. Use write_data with 'pair ij' option to store all pair coeffs. (../write_data.cpp:312)


#############################
#   M E L T   S Y S T E M   #
#############################

velocity all create 2.4 9622624 mom yes dist gaussian # Assign velocities
                                                    # Temperature 2.4, random number seed, zero linear momentum
                                                                                # Gaussian distribution

timestep 0.002   # simulation timestep
thermo 1000       # output thermodynamic data every 1000 steps bf 100

# Define a fix  in this case with index 1 applied to all
# particles in the simulation. This fix is for simulations
# in the anisotropic NPT ensemble. Note that we use the MTK
# correction.
fix 1 all npt temp 2.4 2.4 0.1 iso 5.68 5.68 0.5 mtk yes tchain 5 pchain 5 # Use NPT ensemble
                                                                         # Set temperature and pressure and damping
                                                                         # Numbers of thermostats in chain and in barostat
run 10000          # run for 10000 steps
Per MPI rank memory allocation (min/avg/max) = 3.642 | 3.644 | 3.648 Mbytes
Step Temp E_pair E_mol TotEng Press Volume 
       0          2.4   -6.6079615            0   -3.0088615   -3.8965289         4000 
    1000    2.4051084   -4.9192981            0   -1.3125374    5.9270225    4230.8425 
    2000    2.3634111   -5.0334794            0   -1.4892491    5.4767753     4218.973 
    3000    2.4066675    -4.902631            0   -1.2935322     5.780467    4257.3593 
    4000    2.3526523   -4.9497716            0   -1.4216755    5.7072858    4231.5574 
    5000    2.4120752   -4.8907203            0   -1.2735121    5.6007219    4276.9941 
    6000    2.4213505   -4.9853219            0   -1.3542041    5.8953727    4211.0414 
    7000    2.3330443    -4.945614            0   -1.4469224    5.9749609    4208.4937 
    8000    2.4084584   -4.8918576            0   -1.2800732    6.0070795    4237.8036 
    9000    2.4058594   -5.0022611            0   -1.3943742    5.9554679    4185.8337 
   10000    2.3879686   -4.9562733            0   -1.3752159    5.6112006    4245.9667 
Loop time of 2.36136 on 48 procs for 10000 steps with 4000 atoms

Performance: 731783.040 tau/day, 4234.856 timesteps/s
99.6% CPU use with 48 MPI tasks x no OpenMP threads

MPI task timing breakdown:
Section |  min time  |  avg time  |  max time  |%varavg| %total
---------------------------------------------------------------
Pair    | 1.0331     | 1.0882     | 1.1576     |   2.9 | 46.08
Neigh   | 0.20125    | 0.20862    | 0.22091    |   0.9 |  8.83
Comm    | 0.73632    | 0.80943    | 0.88586    |   4.1 | 34.28
Output  | 0.00024641 | 0.00024984 | 0.00031889 |   0.0 |  0.01
Modify  | 0.20264    | 0.23999    | 0.28047    |   4.1 | 10.16
Other   |            | 0.01491    |            |       |  0.63

Nlocal:        83.3333 ave          93 max          71 min
Histogram: 2 1 3 3 2 15 14 4 2 2
Nghost:        1578.00 ave        1606 max        1552 min
Histogram: 4 1 6 4 12 9 4 1 5 2
Neighs:        8986.02 ave       10289 max        7222 min
Histogram: 1 2 2 4 6 6 17 6 2 2

Total # of neighbors = 431329
Ave neighs/atom = 107.83225
Neighbor list builds = 904
Dangerous builds = 196

# Equilibrate just above the melting temperature to avoid step fn in T

fix 1 all npt temp 1.25 1.25 0.1 iso 5.68 5.68 0.5 mtk yes tchain 5 pchain 5
run 2000
Per MPI rank memory allocation (min/avg/max) = 3.643 | 3.645 | 3.649 Mbytes
Step Temp E_pair E_mol TotEng Press Volume 
   10000    2.3879686   -4.9562733            0   -1.3752159    5.6112006    4245.9667 
   11000    1.2621259    -6.743225            0   -4.8505095    5.7358306    3432.4078 
   12000    1.2601289   -6.7861819            0    -4.896461    5.4242806    3438.9011 
Loop time of 0.547793 on 48 procs for 2000 steps with 4000 atoms

Performance: 630895.711 tau/day, 3651.017 timesteps/s
99.7% CPU use with 48 MPI tasks x no OpenMP threads

MPI task timing breakdown:
Section |  min time  |  avg time  |  max time  |%varavg| %total
---------------------------------------------------------------
Pair    | 0.23664    | 0.26297    | 0.30107    |   2.3 | 48.01
Neigh   | 0.034959   | 0.038127   | 0.043511   |   0.7 |  6.96
Comm    | 0.15474    | 0.19838    | 0.22856    |   3.0 | 36.21
Output  | 5.0222e-05 | 5.2044e-05 | 6.6378e-05 |   0.0 |  0.01
Modify  | 0.040049   | 0.043154   | 0.046267   |   0.8 |  7.88
Other   |            | 0.005106   |            |       |  0.93

Nlocal:        83.3333 ave          91 max          77 min
Histogram: 3 3 10 1 5 14 5 5 0 2
Nghost:        1817.98 ave        1843 max        1794 min
Histogram: 2 4 4 4 11 9 5 6 2 1
Neighs:        11103.4 ave       12217 max        9670 min
Histogram: 1 2 5 6 4 8 8 6 4 4

Total # of neighbors = 532963
Ave neighs/atom = 133.24075
Neighbor list builds = 141
Dangerous builds = 7

#############################
# L I N E A R  Q U E N C H  #
#############################

# Define solid atoms. This closely follows ten Wolde  Ruiz-Montero and Frenkel  Faraday Discuss  1996  104  93-110
# Compute components of the per-atom q6 vector
compute q6 all orientorder/atom degrees 1 6 components 6 nnn NULL cutoff 1.3 # compute the Q6 parameter.
                                                                             # Use all neighbours within 1.3 unit cell.

# get number of connections
compute coord_number all coord/atom orientorder q6 0.5

# An atom is solid if it has 8 or more connections (of a possible 14)
variable is_solid atom c_coord_number>=8
group solid dynamic all var is_solid    # Must be dynamic to update
dynamic group solid defined

# do clustering
compute cluster solid cluster/atom 1.3 # Create a cluster where all atoms within are solid and max 1.3 units from another member

# define chunks one chunk per cluster
compute clus_chunks solid chunk/atom c_cluster nchunk every compress yes  # Says which atoms are in which chunk

# count the size of each chunk
compute size_chunks solid property/chunk clus_chunks count


# Find the maximum entry in the vector of chunk sizes
variable max_n equal max(c_size_chunks)


# Thermo style which includes this variable
# thermo_style custom step temp pe vol v_max_n

thermo ${N}  # Print the thermo information every 100 steps
thermo 1000  

# Reset the npt fix at a lower temperature (below freezing)
fix 1  all npt temp  ${temp} ${temp}  0.1  iso  5.68  5.68  0.5  mtk yes tchain  5  pchain  5
fix 1  all npt temp  0.45 ${temp}  0.1  iso  5.68  5.68  0.5  mtk yes tchain  5  pchain  5
fix 1  all npt temp  0.45 0.45  0.1  iso  5.68  5.68  0.5  mtk yes tchain  5  pchain  5

dump dmp2 all dcd ${N} traj.dcd
dump dmp2 all dcd 1000 traj.dcd


compute msd all msd com yes
variable twopoint equal c_msd[4]/6/(step*dt+1.0e-6)
fix 9 all vector 10 c_msd[4]
variable fit equal slope(f_9)/6/(10*dt)
thermo_style custom step temp pe c_msd[4] v_twopoint v_fit v_max_n

fix 1 all npt temp 1.25 ${temp} 0.1 iso 5.68 5.68 0.5 mtk yes tchain 5 pchain 5
fix 1 all npt temp 1.25 0.45 0.1 iso 5.68 5.68 0.5 mtk yes tchain 5 pchain 5
run 5000000 # 5000000  # Run for this many steps
Neighbor list info ...
  update every 1 steps, delay 10 steps, check yes
  max neighbors/atom: 2000, page size: 100000
  master list distance cutoff = 3.8
  ghost atom cutoff = 3.8
  binsize = 1.9, bins = 8 8 8
  4 neighbor lists, perpetual/occasional/extra = 1 3 0
  (1) pair lj/cut, perpetual
      attributes: half, newton on
      pair build: half/bin/atomonly/newton
      stencil: half/bin/3d
      bin: standard
  (2) compute orientorder/atom, occasional
      attributes: full, newton on
      pair build: full/bin/atomonly
      stencil: full/bin/3d
      bin: standard
  (3) compute coord/atom, occasional
      attributes: full, newton on
      pair build: full/bin/atomonly
      stencil: full/bin/3d
      bin: standard
  (4) compute cluster/atom, occasional
      attributes: full, newton on
      pair build: full/bin/atomonly
      stencil: full/bin/3d
      bin: standard
Per MPI rank memory allocation (min/avg/max) = 9.802 | 9.810 | 9.816 Mbytes
Step Temp PotEng c_msd[4] v_twopoint v_fit v_max_n 
   12000    1.2601289   -6.7861819 3.2189469e-30 2.2353797e-32 8.3333333e+20            1 
   13000    1.2348041   -6.8221032   0.52566615 0.0033696547  0.043782534            1 
   14000    1.2636879   -6.8342114   0.97023371 0.0057752005  0.039694625            2 
   15000    1.2287458   -6.8156473    1.3811662 0.0076731455  0.038031433            1 
   16000    1.2729651   -6.8070301    1.8605411 0.0096903178  0.037476698            1 
   17000    1.2544738   -6.8000373    2.3692022  0.011613736  0.037888014            1 
   18000    1.2513132   -6.8015586    2.8574627  0.013228994  0.038747113            1 
   19000    1.2446067   -6.7957559    3.3412622  0.014654658  0.039141584            2 
   20000    1.2529918    -6.798023    3.8711437  0.016129765  0.039532809            1 
   21000    1.2408635   -6.7833333    4.2756543  0.016966882   0.03966947            1 
   22000    1.2309771   -6.7496222    4.7081633  0.017833952  0.039533476            1 
   23000    1.2409833   -6.7741482    5.1486499  0.018654528  0.039312825            2 
   24000    1.2517458   -6.7966682    5.5868831  0.019398899  0.038996006            1 
   25000    1.2656625    -6.754259    6.0878518  0.020292839  0.038888961            2 
   26000    1.2468817   -6.8030537    6.5007208  0.020835643  0.038778918            1 
   27000    1.2582692   -6.7969001     7.030697  0.021699682  0.038729628            1 
   28000    1.2388582   -6.8287999    7.5044708  0.022334734  0.038761495            2 
   29000    1.2404209   -6.8139274    8.0364743  0.023093317  0.038841075            1 
   30000    1.2697447   -6.7853789    8.5258827  0.023683007  0.038956976            2 
   31000    1.2752933   -6.8414613    8.9247572  0.023991282  0.039061741            3 
   32000    1.2390116   -6.8211783    9.3420238  0.024328187  0.039035704            1 
   33000    1.2615622   -6.7401813    9.8303713   0.02482417  0.039006725            3 
   34000    1.2521837   -6.7967203    10.350843  0.025369712  0.038985964            1 
   35000    1.2663448   -6.7500135    10.872373  0.025886602  0.039016586            1 
   36000    1.2624948   -6.7753796    11.317861  0.026198753  0.039074347            1 
   37000    1.2604077   -6.8367404    11.831823  0.026648251  0.039128776            2 
   38000    1.2280396   -6.7707372    12.318172  0.027013535  0.039171498            1 
   39000    1.2446068   -6.8186621    12.844819  0.027446193  0.039239162            1 
   40000    1.2476907   -6.7976204    13.235902  0.027574796  0.039304463            1 
   41000    1.2520442   -6.8133599    13.672432  0.027789496  0.039298373            1 
   42000    1.2480131   -6.7578104    14.262711   0.02829903  0.039292791            1 
   43000     1.240433    -6.790574    14.893566  0.028863499  0.039390187            2 
   44000    1.2222047   -6.8173135    15.417234  0.029199306  0.039514461            1 
   45000     1.235609   -6.8400796    15.760376  0.029185881  0.039622902            1 
   46000    1.2436355   -6.8097698    16.209239  0.029364563  0.039679869            3 
   47000    1.2406666   -6.7631691    16.708925  0.029625754  0.039695349            1 
   48000    1.2332892   -6.7920216    17.002731   0.02951863   0.03968869            1 
   49000    1.2472243   -6.8381416    17.474375  0.029718325  0.039662643            3 
   50000    1.2453794    -6.799602    18.100667  0.030167778  0.039662825            1 
   51000    1.2475046   -6.7883634    18.552635  0.030314762  0.039662114            1 
   52000    1.2732503   -6.7853235    18.939572  0.030351879  0.039661696            3 
   53000    1.2373211   -6.8065417    19.356469  0.030434699  0.039643334            1 
   54000    1.2696575   -6.7991796     19.81802  0.030583364  0.039619367            2 
   55000    1.2344916   -6.7585834    20.403899  0.030914998  0.039604947            2 
   56000    1.2387392   -6.7870466    21.042876  0.031313803  0.039611466            2 
   57000    1.2286044   -6.8348042    21.428045  0.031327551  0.039641227            1 
   58000    1.2404795   -6.7654171    21.888036  0.031448328  0.039655913            3 
   59000    1.2224572   -6.8514396    22.303387  0.031501958  0.039654419            2 
   60000     1.254633   -6.8091522    22.849905  0.031735979  0.039661337            1 
   61000    1.2421822    -6.770023    23.357979  0.031909807  0.039677416            2 
   62000     1.232031   -6.7943025    23.932469  0.032167296    0.0396904            1 
   63000    1.2478555   -6.8341618     24.40472  0.032281375  0.039723354            2 
   64000    1.2277553   -6.8020924    24.937811  0.032471108  0.039751939            4 
   65000    1.2571787    -6.834284    25.302804  0.032439492  0.039774858            1 
   66000    1.2310038   -6.7854885    25.999804  0.032828035  0.039805693            1 
   67000    1.2221782    -6.801751    26.193945  0.032579533  0.039820755            1 
   68000    1.2483399   -6.7730942    26.619516  0.032621956  0.039817638            1 
   69000    1.2324032   -6.8027731    26.862636  0.032442797  0.039782204            2 
   70000    1.2353713   -6.7997567     27.24386  0.032433166  0.039740558            3 
   71000    1.2207795   -6.8234366    27.793064  0.032620966  0.039701334            1 
   72000    1.2096631   -6.8244377    28.211727  0.032652462  0.039665137            2 
   73000    1.2515111   -6.8306358    28.445544  0.032472082  0.039624783            2 
   74000    1.2171043   -6.7804818    29.115727   0.03278798  0.039577258            2 
   75000    1.2654438   -6.8395717    29.492474  0.032769415  0.039536088            2 
   76000    1.2332273   -6.8103348    30.145581  0.033054365  0.039502604            1 
   77000    1.2339445   -6.8465099    30.525296  0.033036034  0.039476141            2 
   78000    1.2445067   -6.8019348    31.160487  0.033291119  0.039458558            2 
   79000    1.2469332   -6.8233826     31.65084  0.033386962  0.039452162            2 
   80000    1.2405189   -6.7880711    32.126233  0.033464826  0.039444585            1 
   81000    1.2235093   -6.7754377      32.4915  0.033427469  0.039426711            2 
   82000    1.2286484   -6.7870888    33.012051  0.033548832  0.039412035            2 
   83000    1.2226066   -6.8088844    33.455271   0.03358963  0.039398903            2 
   84000    1.2321081   -6.8259118    33.986703  0.033716968  0.039388772            2 
   85000    1.2176673   -6.8752198    34.319989  0.033647048  0.039376547            1 
   86000    1.2580171   -6.8182842    34.777527  0.033699154  0.039353262       -1e+20 
   87000    1.2392456   -6.8401695    35.205851  0.033722079  0.039326087            1 
   88000    1.2672678   -6.8597456    35.608338  0.033720017  0.039304866            3 
   89000    1.2406425   -6.7921419    36.447483  0.034126856  0.039291794            1 
   90000    1.2499284   -6.8009785    37.151241  0.034399297  0.039303536            2 
   91000    1.2219707   -6.8095009    37.686005  0.034510994  0.039329988            2 
   92000    1.2420722   -6.8271409    38.012808  0.034431891  0.039348678            2 
   93000    1.2750269   -6.7864717    38.494321  0.034493119  0.039362536            1 
   94000    1.2341014   -6.8084693    39.283741  0.034826011  0.039384686            2 
   95000    1.2516924   -6.7668154    39.872011  0.034975448  0.039422904            3 
   96000    1.2596474   -6.8397589    40.303169   0.03498539  0.039458307            1 
   97000    1.2320619   -6.8327162    40.685729  0.034953375  0.039486516            1 
   98000    1.2310631   -6.8140681    41.172714  0.035010811  0.039506231            1 
   99000    1.2378524   -6.7894442    41.663538  0.035070318  0.039526538            1 
  100000    1.2338023   -6.8954136    41.808849  0.034840707   0.03954077            1 
  101000    1.2495211   -6.7832249    42.524978  0.035086615  0.039555183            3 
  102000    1.2342513   -6.8352731    42.670822  0.034861783  0.039565639            1 
  103000    1.2317301   -6.8072412    43.700638  0.035356503  0.039577187            1 
  104000    1.2236891   -6.7823289    43.923655  0.035195236  0.039594176            2 
  105000    1.2637734   -6.7980733    44.218201   0.03509381  0.039603701            1 
  106000    1.2612681   -6.8324543    44.763402  0.035191353  0.039612243            2 
  107000    1.2368828   -6.8211994    45.570711  0.035491208  0.039625628            3 
  108000     1.222018     -6.80719    45.988656  0.035485074  0.039639095            1 
  109000    1.2092711   -6.7824446    46.489012  0.035542058  0.039656292            1 
  110000    1.2326501   -6.8720724    46.932541  0.035554955  0.039675244            2 
  111000    1.2472398   -6.8309109    47.841321  0.035916908  0.039697924            2 
  112000    1.2182889   -6.8033005    48.219868  0.035877877  0.039731602            1 
  113000    1.2161711   -6.8397117    48.676422  0.035897067  0.039762797            2 
  114000    1.1986825   -6.8371613    49.267425    0.0360142  0.039793583            1 
  115000    1.2253514   -6.8127804    49.762951  0.036060109  0.039825157            1 
  116000    1.2240258   -6.8564878    50.006479  0.035924195  0.039848042            2 
  117000     1.233667   -6.8145768    50.838581  0.036209815  0.039872005            3 
  118000    1.2409002   -6.8066215    51.219163  0.036171725  0.039900318            2 
  119000    1.2193296   -6.8551391    51.346478  0.035956917  0.039920787            1 
  120000    1.2100841   -6.8686168    52.095599  0.036177499  0.039936565            1 
  121000    1.2227018   -6.7974001    52.482037  0.036144654  0.039955891            1 
  122000    1.2275572   -6.8035656    52.914612   0.03614386   0.03997317            1 
  123000    1.2276967   -6.8012184    53.297952  0.036109723  0.039984923            2 
  124000    1.2363013   -6.8405346     53.96423  0.036266284   0.03999796            1 
  125000    1.2382783   -6.8505698    54.210195   0.03614013  0.040012183            2 
  126000    1.2404482   -6.8216872    54.989017  0.036368397  0.040028527            2 
  127000    1.2566259   -6.8455912     55.42644  0.036369055  0.040048695            4 
  128000    1.2381659   -6.7922451    56.031822  0.036479051  0.040063683            5 
  129000    1.2566999   -6.8184874    56.113872  0.036249271  0.040070993            1 
  130000    1.2120055   -6.8077479    56.935528  0.036497133  0.040078524            1 
  131000    1.2023166   -6.8274716    57.258863  0.036424213  0.040085886            1 
  132000    1.2500339    -6.850786    57.735467  0.036449158  0.040093319            2 
  133000    1.2390406   -6.8386378    58.373293  0.036574745  0.040102656            1 
  134000    1.2397872   -6.8650613    58.726923  0.036521718   0.04011346            2 
  135000    1.2041076   -6.8091072    59.401225  0.036667423  0.040125167            2 
  136000    1.2570297   -6.8395454    59.815817  0.036651848  0.040134577            2 
  137000    1.2205107   -6.8006128    60.256627  0.036652449   0.04014419            2 
  138000    1.2185282   -6.8457244    60.771145  0.036697551  0.040156981            1 
  139000    1.2279888   -6.8497733    61.251727  0.036721659  0.040166399            3 
  140000     1.219716   -6.8274412    61.463231  0.036585256  0.040168761            1 
  141000    1.2208251    -6.838354    61.904601  0.036586643  0.040173024            1 
  142000    1.2391649   -6.7929453    62.478685  0.036665895  0.040171536            2 
  143000    1.2615147   -6.8283766    62.818473  0.036607502  0.040171783            3 
  144000    1.2316003   -6.8167586    63.348332  0.036659914  0.040175322            1 
  145000    1.2444636   -6.8500779    63.524108  0.036508108   0.04017724            1 
  146000    1.2326145   -6.8306583    64.173162  0.036628517  0.040171398            2 
  147000    1.2131884   -6.8395901     64.76207  0.036713192   0.04016772            1 
  148000    1.2134799   -6.8620607    64.995347  0.036596479  0.040163993            1 
  149000    1.2351445   -6.8190439    65.567767  0.036671011  0.040159256            2 
  150000    1.2441304   -6.8440817    65.823644  0.036568691  0.040152115            2 
  151000    1.2041263   -6.8181307    66.406686  0.036648281  0.040142841            2 
  152000    1.2510969   -6.8192975    66.963924  0.036712677  0.040133061            2 
  153000    1.2323649   -6.8518213     67.43998  0.036732015  0.040123492            3 
  154000    1.2171023    -6.842415    67.751749  0.036662202  0.040114821            1 
  155000     1.198223   -6.8787685    68.163466  0.036647025  0.040106856            1 
  156000    1.2389764   -6.8500228    68.655536  0.036674966  0.040095053            4 
  157000    1.2434703   -6.8761139    69.130079  0.036693248  0.040085162            1 
  158000    1.2512531   -6.8416396    69.643736  0.036731928  0.040078769            3 
  159000    1.2345394   -6.8809852    70.142098  0.036762106  0.040074077            3 
  160000    1.2007305   -6.8162984    70.630355  0.036786643  0.040066572            1 
  161000    1.2220181   -6.8577815    71.007178  0.036753198  0.040057698            2 
  162000    1.2208943   -6.8524689    71.342585   0.03669886  0.040050266            1 
  163000    1.2381848   -6.8637249    72.074523  0.036847916  0.040041378            3 
  164000    1.2453969   -6.8461085     72.52688  0.036853089  0.040035715            2 
  165000    1.2457258   -6.7765124    72.970055  0.036853563  0.040027611            1 
  166000    1.2199595   -6.8531778    73.075038  0.036684256  0.040019379            1 
  167000    1.1991745   -6.8269595    73.476997  0.036665168    0.0400077            1 
  168000    1.2522325   -6.8255105     73.82994  0.036621994  0.039992868            1 
  169000    1.2448326   -6.8531886    74.109732   0.03654326  0.039976032            1 
  170000    1.2229496    -6.874608    74.761101  0.036647599   0.03995879            1 
  171000    1.2207203   -6.8351776     75.47911  0.036783192  0.039942482            4 
  172000    1.2417714     -6.79799    76.170114  0.036904125   0.03992959            2 
  173000    1.2158688   -6.8413071    76.376523  0.036790233  0.039918454            1 
  174000    1.1742241   -6.8571611     76.63561  0.036702878  0.039903559            2 
  175000    1.2119819   -6.8208376    77.414369  0.036863985  0.039889721            1 
  176000    1.2244987   -6.8319981    78.065576  0.036962867  0.039879543            1 
  177000    1.2182982   -6.8456804     78.21918  0.036826356  0.039868772            2 
  178000    1.2324479   -6.8882577    78.290153  0.036652693  0.039854586            2 
  179000    1.2373349   -6.8882739    79.005168  0.036780804  0.039840907            2 
  180000    1.2195761   -6.8348886    79.359267  0.036740401  0.039826836            2 
  181000    1.2221039   -6.7953839    80.035159    0.0368486  0.039815207            1 
  182000    1.2116043   -6.8906756    80.269971  0.036753649  0.039800999            1 
  183000     1.227821   -6.8402058    80.399117   0.03661162  0.039782301            3 
  184000    1.2288135   -6.7802196    81.143476  0.036749762  0.039762806            2 
  185000    1.2469864   -6.8900755    81.061094  0.036514006  0.039745448            2 
  186000    1.2154009   -6.9119462    81.513237  0.036520268  0.039725613            2 
  187000    1.2439026   -6.8697081    82.291827  0.036671937  0.039706923            1 
  188000    1.2318497   -6.8270499    82.685357  0.036651311  0.039689531            1 
  189000    1.2032174   -6.8458283    83.038879  0.036613262  0.039671041            1 
  190000    1.2231905   -6.8631916    83.232761  0.036505597  0.039648491            3 
  191000    1.2291801   -6.8308479    83.781598  0.036553926  0.039627553            1 
  192000    1.2357912   -6.9161311    84.024492  0.036468963  0.039607411            1 
  193000    1.2151643   -6.8597125    84.857409  0.036639641  0.039589152            3 
  194000    1.2372043   -6.8659168    85.651684   0.03679196  0.039572548            4 
  195000    1.2103899   -6.8329772    85.921811  0.036718722  0.039558098            2 
  196000    1.2062561   -6.8793376    86.399138  0.036734327  0.039544459            2 
  197000    1.2240066   -6.7995247    87.252246  0.036908733  0.039531877            1 
  198000    1.2246737   -6.8728979    87.139996  0.036675082   0.03951726            2 
  199000    1.2305566   -6.8678817    87.803714  0.036768724  0.039501411            1 
  200000    1.1986873   -6.8779234    88.229404  0.036762252  0.039485877            1 
  201000    1.2208747   -6.8312615    88.638773  0.036749077   0.03947109            1 
  202000    1.2215516   -6.8355254    89.493768  0.036919871  0.039458448            2 
  203000    1.2092171   -6.8419958    89.752429  0.036844183  0.039448455            2 
  204000    1.2051566   -6.8233088    90.746857  0.037069794  0.039438416            1 
  205000     1.207174   -6.8403007    90.888259  0.036946447  0.039429044            1 
  206000    1.2264737   -6.8212566     91.34384  0.036951391  0.039420233            2 
  207000    1.2211164   -6.8634354    91.433516  0.036808984  0.039412087            1 
  208000    1.2216137   -6.8783327    92.382768  0.037012327    0.0394042            2 
  209000    1.2442221   -6.8381625    92.850736  0.037021824  0.039396394            1 
  210000    1.1942821   -6.9111884    92.981766  0.036897526   0.03938911            1 
  211000    1.2232586   -6.8504977    93.493829  0.036924893  0.039379208            2 
  212000    1.2347098   -6.8462658    93.505663  0.036755371    0.0393697            1 
  213000    1.2501775    -6.819488    94.225047  0.036864259  0.039357137            1 
  214000    1.2227389   -6.8388338    94.663993  0.036862926  0.039342731            2 
  215000    1.2161606   -6.8703105     94.77965  0.036736298  0.039327088            2 
  216000    1.1997139   -6.8641497    95.088461  0.036685363  0.039310491            1 
  217000    1.2165761   -6.8345904    95.892279  0.036824992  0.039297148            1 
  218000    1.2102132   -6.8200881    96.454847  0.036871119  0.039283919            1 
  219000    1.2023145   -6.8148652    97.101108  0.036948671  0.039272331            2 
  220000    1.2347317    -6.813828    97.599071  0.036969345  0.039259938            1 
  221000    1.2115338   -6.8965235    97.563857  0.036788785  0.039249683            1 
  222000    1.2402171    -6.866137    98.380959  0.036929789  0.039236792            4 
  223000    1.2193287    -6.852785    98.372504  0.036761025  0.039225012            3 
  224000    1.2300089   -6.8257761    99.099322  0.036867307  0.039213839            1 
  225000    1.2229539   -6.8831419    99.419368  0.036821988  0.039200567            1 
  226000    1.2295111   -6.8110413    99.659422  0.036747575  0.039187811            1 
  227000    1.2276873   -6.8452809    99.789214  0.036633338  0.039173908            3 
  228000    1.2171382   -6.8845268    100.35024   0.03667772  0.039157463            1 
  229000      1.22518   -6.8273568    101.30867  0.036866329  0.039141328            1 
  230000    1.1959221   -6.8919803    101.23136   0.03667803  0.039128188            1 
  231000    1.2420335   -6.9037382    101.80072  0.036724646  0.039115038            5 
  232000    1.2137313   -6.8489229    102.28054  0.036738701  0.039103253            1 
  233000    1.2295174   -6.8547287    102.72964  0.036741646  0.039090859            1 
  234000    1.2362817   -6.8892935    103.41528  0.036828805  0.039077936            1 
  235000    1.2325262   -6.8632868    103.89374  0.036841753  0.039066376            1 
  236000    1.2175459   -6.8468161    104.99159  0.037073302  0.039056823            1 
  237000    1.2606993   -6.9137342    105.45386  0.037079416  0.039050646            2 
  238000    1.2429561   -6.8752701    105.78046  0.037037976  0.039046146            1 
  239000    1.2197822   -6.8462021    106.52337  0.037142041  0.039040522            1 
  240000    1.1835967   -6.8395325    106.79856  0.037082834  0.039033882            2 
  241000    1.2111642    -6.865253    107.05308  0.037016972  0.039025702            1 
  242000    1.2220031   -6.8489285    107.15851  0.036900314  0.039016497            1 
  243000    1.2300234    -6.910437    107.62235  0.036907526  0.039007059            1 
  244000    1.2299454   -6.7918027    109.01058   0.03723039  0.038999649            1 
  245000    1.2342821   -6.8515769    108.98177  0.037068629  0.038993617            1 
  246000    1.1822231   -6.8845386    109.56469  0.037115408  0.038986887            2 
  247000     1.204917   -6.8353637    109.65962  0.036997174  0.038979854            2 
  248000    1.2417457   -6.8564453    109.82285   0.03690284  0.038970983            2 
  249000    1.2201685   -6.8762051    110.15094  0.036864436  0.038961391            2 
  250000    1.2101376   -6.9063088    110.62688  0.036875627  0.038950503            2 
  251000    1.2142097   -6.8706642    111.00679  0.036854844  0.038940795            2 
  252000    1.2231064   -6.8758285    111.45151  0.036855659  0.038929745            1 
  253000    1.2027381   -6.8663465    111.98891  0.036886993  0.038917341            1 
  254000    1.2038165   -6.8501251    112.20718  0.036813378  0.038906299            2 
  255000    1.2313015   -6.8612399     112.5511  0.036781407  0.038895315            3 
  256000    1.2046417   -6.8459473    114.08046  0.037135567  0.038887692            1 
  257000    1.1861686   -6.8229657    114.62573  0.037167874  0.038880604            2 
  258000    1.2054074   -6.9004392    114.47774  0.036976014  0.038873132            2 
  259000    1.2264271   -6.8867587     115.1511  0.037049904   0.03886669            1 
  260000    1.2062069   -6.8832004     115.7645  0.037104006  0.038860621            1 
  261000    1.1915219   -6.8860777    115.59202  0.036906775  0.038853725            1 
  262000    1.2115247   -6.8886394    116.29674  0.036990057  0.038845844            1 
  263000    1.2256764   -6.8365894    117.01813  0.037077989  0.038841074            3 
  264000    1.2037107   -6.8467066    118.20502  0.037312189  0.038836722            1 
  265000    1.2023831   -6.8469996     118.3628  0.037221007  0.038833722            1 
  266000     1.208581   -6.9102537    118.59247  0.037153029  0.038831313            1 
  267000    1.2375686   -6.8854224    119.06629  0.037161763  0.038827198            1 
  268000    1.2188813   -6.8784575    119.51318  0.037162058  0.038822932            2 
  269000    1.2126683   -6.8611848     119.5152  0.037024537   0.03881825            1 
  270000    1.1885684   -6.8864813    119.99607  0.037035824  0.038812424            2 
  271000    1.2089774   -6.8727642    120.78404  0.037141465  0.038809091            1 
  272000    1.2080792   -6.8726837    120.85765  0.037027467  0.038805173            1 
  273000    1.1958861   -6.8536931     121.5525  0.037103938  0.038800182            2 
  274000    1.1916341   -6.8817146    121.95883  0.037092103  0.038795993            2 
  275000    1.2218699   -6.8777268    122.84361  0.037225338   0.03879197            1 
  276000    1.2196191   -6.8658415    123.46722  0.037278748  0.038788965            1 
  277000    1.1873596   -6.8653811     123.4309  0.037133243  0.038785718            2 
  278000    1.2194359   -6.8761895    123.95726  0.037157453  0.038783389            3 
  279000    1.2052408   -6.8389016    124.35807  0.037143989   0.03877983            2 
  280000    1.1890599   -6.8491114    124.48303  0.037048521  0.038773708            2 
  281000    1.1949135   -6.9070369    124.74341  0.036993893  0.038768371            3 
  282000    1.2148708   -6.9041288    125.49524  0.037084882   0.03876227            2 
  283000    1.2177648   -6.8775221     125.6608  0.037002591  0.038754088            3 
  284000    1.2202074   -6.8941229    126.35048  0.037074672   0.03874679            1 
  285000    1.1942417   -6.8144804    126.75231  0.037062079  0.038741509            1 
  286000    1.1995306   -6.8795328    127.53191  0.037159649  0.038736104            3 
  287000    1.2185006   -6.8698663    127.55882  0.037037986  0.038729806            3 
  288000    1.2317606   -6.8648057     127.3051  0.036835965  0.038720947            3 
  289000    1.1953586   -6.8940526    128.15663  0.036954045  0.038710165            2 
  290000    1.2143232   -6.9116588    128.26812  0.036858654  0.038698864            5 
  291000    1.1896683   -6.9285349    128.60381  0.036828123  0.038687653            1 
  292000    1.2222313   -6.8648979    129.38182  0.036924035  0.038678066            2 
  293000    1.2162579   -6.8897407    130.12958  0.037010689  0.038669101            2 
  294000    1.1766868   -6.8667812    130.22849  0.036912836  0.038661623            1 
  295000    1.2060578     -6.90754    130.42152  0.036842238  0.038652242            2 
  296000    1.1987824   -6.9053474    131.44225  0.037005139  0.038644111            1 
  297000     1.196701   -6.8743387    131.44484  0.036881268  0.038635844            2 
  298000    1.1856669    -6.862029    132.39594  0.037023473  0.038627316            1 
  299000    1.1814643   -6.9262161    132.37379  0.036893476  0.038618907            2 
  300000    1.1707253   -6.8811048    133.87563  0.037187676  0.038612925            1 
  301000    1.2020652   -6.9151273    133.83816  0.037053755  0.038607993            2 
  302000    1.2230091    -6.857258    134.72534  0.037175866  0.038603907            1 
  303000    1.1748399   -6.8561797    135.44309  0.037250574  0.038599575            1 
  304000    1.2005766   -6.8461081     135.6058  0.037172644  0.038594586            1 
  305000    1.2134038   -6.8882541      135.855  0.037118851  0.038588592            2 
  306000    1.1881787   -6.8431076    136.00686  0.037038906  0.038582379            4 
  307000    1.1900545   -6.8870232    136.54282  0.037063741   0.03857568            2 
  308000    1.2042149   -6.8764078    136.74011  0.036996783  0.038567976            2 
  309000    1.2202706   -6.8956568    137.05458   0.03696186  0.038561094            2 
  310000    1.2323628   -6.8762354    138.05832   0.03711245  0.038555648            2 
  311000    1.1806772   -6.8807454    138.61682   0.03714277  0.038551009            2 
  312000    1.2178907   -6.8736404    139.42109   0.03723854    0.0385478            1 
  313000    1.1776203   -6.9028399    139.74672  0.037206263   0.03854438            1 
  314000    1.2080452   -6.9528721    139.68718   0.03707197   0.03854074            2 
  315000    1.2202278   -6.9073842    140.27668  0.037110234  0.038536235            3 
  316000    1.2003021   -6.9203269    140.44597  0.037037439   0.03853198            1 
  317000    1.1961006   -6.8723278    141.56092  0.037213702  0.038527706            2 
  318000    1.1780145   -6.8439629    141.58702  0.037103516  0.038523894            1 
  319000    1.1804356   -6.8661311    142.13728  0.037130952  0.038519925            2 
  320000    1.2018619   -6.9043824    142.31833  0.037062065  0.038514802            2 
  321000    1.2157316   -6.8896928    142.80142   0.03707202  0.038509847            4 
  322000    1.1954153   -6.9070402    143.07986  0.037028948  0.038504507            2 
  323000     1.216581   -6.8514811     143.9187  0.037130728  0.038499459            1 
  324000    1.1953108   -6.9260493    143.64681  0.036946196  0.038493466            3 
  325000    1.2061515   -6.8950975     144.5495  0.037063975  0.038487755            1 
  326000    1.2090281   -6.8842033    145.36532  0.037158824  0.038482741            2 
  327000    1.2058515   -6.8884506    145.84697  0.037167932  0.038477635            2 
  328000     1.199775   -6.9016278    145.32391  0.036921724  0.038471723            1 
  329000    1.2031777   -6.9099429    145.97547  0.036974536  0.038463964            1 
  330000    1.2002777   -6.9311197    145.98362  0.036864551   0.03845644            1 
  331000    1.2097352   -6.8610162    146.55527  0.036897096  0.038447692            1 
  332000     1.191682   -6.8890836    147.36634  0.036989544   0.03843994            1 
  333000    1.1672863   -6.9072825    147.64432  0.036948027  0.038433712            1 
  334000    1.1897966   -6.8868222    148.48024  0.037045969  0.038428326            2 
  335000    1.1978351   -6.8737233    148.77739    0.0370093  0.038422977            1 
  336000    1.2151497   -6.9215572    149.53864  0.037087956  0.038417753            3 
  337000    1.1870425   -6.8932137    149.27935  0.036913785  0.038412655            2 
  338000    1.2170075   -6.8918371    150.25135  0.037044219  0.038407346            2 
  339000    1.1825597   -6.9349474    151.07461  0.037137317  0.038402073            3 
  340000    1.1758971   -6.8755125    151.65654  0.037170721  0.038397913            1 
  341000    1.2099578   -6.8754931    151.99972   0.03714558  0.038393949            1 
  342000    1.1920887   -6.9161568    152.85498  0.037245365  0.038390259            2 
  343000     1.173247   -6.9237418    152.34473  0.037012811  0.038386664            1 
  344000    1.1883144   -6.9122594    152.72464  0.036997249  0.038381488            2 
  345000    1.1868349   -6.9374909    153.07521  0.036974688  0.038376653            2 
  346000    1.2053701   -6.9509054    153.94266  0.037076749  0.038370941            2 
  347000    1.1684036   -6.8817121     154.6216   0.03713295  0.038366156            2 
  348000    1.2172113   -6.9140384    155.20779  0.037166615  0.038361754            1 
  349000    1.1965716   -6.8971341     155.5151  0.037133501   0.03835714            1 
  350000    1.2139965    -6.891831    156.18992  0.037188076  0.038353443            1 
  351000    1.1993549   -6.8974645    156.55991  0.037169968  0.038350686            3 
  352000    1.2097612   -6.9169734    156.92825  0.037151575  0.038347743            3 
  353000    1.2140831    -6.882665    157.80339  0.037252924  0.038344234            2 
  354000    1.2046976   -6.8827559     158.0773  0.037212171  0.038341732            1 
  355000    1.1977217   -6.8836982    158.51183  0.037209349  0.038339204            1 
  356000    1.1915719   -6.8779076    159.31611  0.037293096  0.038337039            1 
  357000    1.2127487   -6.9146419    159.64517  0.037265447   0.03833456            3 
  358000    1.1852196    -6.873172    160.30514  0.037314977  0.038331675            1 
  359000     1.178082   -6.9338955    160.31413  0.037213123  0.038329355            2 
  360000    1.1822809   -6.8934382    161.20892   0.03731688  0.038328242            1 
  361000    1.1935837   -6.8816314    161.49524  0.037279604  0.038327398            2 
  362000    1.1721782   -6.9539965    161.67302  0.037217545  0.038325349            1 
  363000    1.1803809   -6.8667958    162.84452  0.037383958   0.03832394            1 
  364000     1.185061   -6.9257908    162.66292   0.03723968  0.038322541            2 
  365000    1.1972884   -6.8744975    163.13823   0.03724617  0.038319497            2 
  366000    1.2016234   -6.9010289    163.51036  0.037229134   0.03831732            2 
  367000    1.1903273   -6.9112619    163.65226  0.037159913  0.038314733            2 
  368000    1.1797785   -6.8456906    164.30534  0.037206826  0.038311075            2 
  369000    1.2026841   -6.9148363    164.22151  0.037087062  0.038307883            1 
  370000    1.2035612   -6.9270671    164.88041  0.037135227  0.038302778       -1e+20 
  371000    1.1977746   -6.9586778    165.11326  0.037087435  0.038298662            3 
  372000    1.1857529   -6.9222799    165.89722  0.037163357  0.038294907            2 
  373000    1.1866663   -6.9115697     166.4364  0.037184181  0.038291714            2 
  374000    1.2125765    -6.919907    166.30188  0.037054786  0.038287964            1 
  375000    1.2031906   -6.8817417    167.69358   0.03726524  0.038283809            1 
  376000     1.194995   -6.8735673    167.45573  0.037113415  0.038279292            3 
  377000    1.1959093   -6.9357905    167.35042  0.036991693  0.038274193            1 
  378000    1.1955235   -6.9051614    167.56411  0.036940942  0.038268357            4 
  379000    1.2034203   -6.9285115    168.07125  0.036954979  0.038262007            2 
  380000    1.1917585   -6.8821258     168.5416  0.036960877  0.038255643            2 
  381000    1.2092753   -6.8983099     168.6331  0.036883879  0.038249584            1 
  382000     1.182309   -6.9010062     170.3263  0.037156698  0.038244942            2 
  383000    1.1807178   -6.9250023    170.29038  0.037051866  0.038239102            2 
  384000    1.1985408   -6.9152849    171.09528  0.037130052  0.038234739            1 
  385000    1.1838388   -6.9214993    170.99611  0.037012146  0.038231868            2 
  386000    1.1795827   -6.9483302    172.15079  0.037165541  0.038227899            2 
  387000    1.2013475   -6.8605222    172.64657  0.037176264  0.038224075            1 
  388000    1.1647711   -6.8923818    173.01431  0.037159432  0.038219747            1 
  389000    1.2235446   -6.8893777     173.1406   0.03709096  0.038215709            2 
  390000    1.1784409   -6.9270063    172.91978   0.03694867  0.038211099            1 
  391000    1.2169928   -6.9148109      173.647  0.037009165  0.038205318            1 
  392000    1.1961003   -6.9392553    173.77134  0.036941186   0.03819867            2 
  393000     1.179319   -6.9589775    173.86068  0.036866132  0.038191402            2 
  394000    1.1807792   -6.8872251    174.85551  0.036982977  0.038183784            3 
  395000    1.1720144    -6.921882    175.27151  0.036977112  0.038177258            2 
  396000      1.19615   -6.9262203    175.04958  0.036837032  0.038170399            1 
  397000    1.1933901   -6.9402393    174.83451  0.036699099  0.038162631            2 
  398000    1.1712853   -6.8901755    175.97434  0.036845548  0.038154011            1 
  399000    1.2015917   -6.8970183    176.57535  0.036878727  0.038144942            2 
  400000    1.1704492   -6.8926086    176.84034  0.036841738  0.038136973            1 
  401000    1.1958075   -6.9197973    177.47922   0.03688263  0.038129473            2 
  402000    1.1917271   -6.8936624    177.77021  0.036851205  0.038121778            1 
  403000    1.1877467   -6.9202454    177.57307  0.036718997  0.038113646            1 
  404000    1.1639063   -6.9215867    179.08718  0.036940424  0.038106283            1 
  405000    1.1794553   -6.9157926    178.87541  0.036805639  0.038098539            1 
  406000    1.1705329   -6.9240875    179.16139  0.036773684  0.038090339            1 
  407000    1.1728432    -6.907739    179.70766  0.036795179  0.038082414            1 
  408000    1.1818114   -6.8877614    179.64911  0.036693038  0.038073602            2 
  409000    1.1855698   -6.9643851     179.8961  0.036653648  0.038064714            2 
  410000    1.1772108   -6.9358387    180.68515  0.036724623  0.038056358            1 
  411000    1.1916286   -6.9264051    181.31055  0.036762073  0.038048519       -1e+20 
  412000    1.1690682   -6.9179776    181.56608  0.036724531  0.038041094            1 
  413000    1.1809184    -6.972437    181.99643  0.036722444   0.03803269            1 
  414000    1.1736938   -6.9361805    182.40456  0.036715894  0.038024212            2 
  415000    1.1868329   -6.9256352    183.46703   0.03684077   0.03801615            1 
  416000    1.1931372   -6.9198281    183.93063  0.036845077  0.038007721            2 
  417000    1.1883303   -6.8965628     183.9524  0.036761072   0.03799961            1 
  418000     1.172919   -6.9067075    184.70378  0.036822922  0.037991342            2 
  419000    1.1802983   -6.9204341    184.68964  0.036732227  0.037983066            1 
  420000     1.173263   -6.8978137    185.36734  0.036779234  0.037974135            2 
  421000    1.2057011   -6.9343211    186.04217   0.03682545  0.037966949            1 
  422000    1.1782416    -6.887643    186.49551  0.036827708  0.037959302            1 
  423000    1.1936148   -6.9230911     186.6014  0.036761506  0.037951389            2 
  424000    1.1862782   -6.8802264    187.32604  0.036817224  0.037943396            2 
  425000    1.1931976   -6.9066893    187.46549  0.036757939  0.037935549            2 
  426000    1.1876379   -6.9314228    187.47593  0.036673695  0.037928582            1 
  427000    1.1790115   -6.9505969    188.43616  0.036775207  0.037921034            1 
  428000    1.2114481    -6.912131    188.74992  0.036750373  0.037913947            1 
  429000    1.1898332   -6.9753969    189.02945  0.036719008  0.037906078            3 
  430000    1.1567193   -6.8917594      189.078  0.036643023  0.037897081            1 
  431000    1.1883604   -6.9335897    189.11574  0.036565302  0.037888129            3 
  432000    1.1774624   -6.8984477    190.11476  0.036673372  0.037879428            1 
  433000    1.1935961   -6.9179115    190.30652  0.036625581  0.037870265            1 
  434000    1.1793624   -6.9305437    190.52844  0.036583803  0.037861402            1 
  435000    1.1798779   -6.9304911    191.17705  0.036623956  0.037852449            1 
  436000    1.1738272   -6.9271932    192.25826  0.036746609  0.037843661            2 
  437000    1.1826154   -6.9213735    191.86109  0.036586784  0.037834525            2 
  438000    1.1698883   -6.9347605    191.98248  0.036526347  0.037824709            3 
  439000    1.1855604   -6.9198135     192.3358  0.036510212  0.037815435            1 
  440000    1.1661777   -6.9012742    193.51874  0.036651276  0.037806207            1 
  441000    1.1864721    -6.916929    192.49761   0.03637521  0.037797001            3 
  442000    1.2044238   -6.9262487    193.08863  0.036404341  0.037786968            1 
  443000     1.175119   -6.9409184    194.60841  0.036608054  0.037778156            1 
  444000    1.1859023   -6.9659913    194.64643  0.036532737  0.037768858            3 
  445000    1.1493461    -6.943498    194.37027  0.036398927  0.037759113            1 
  446000    1.1850896    -6.881832     196.0615  0.036633315  0.037750455            1 
  447000    1.1574945   -6.9158101    196.41304  0.036616898  0.037742133            3 
  448000    1.1798876   -6.9585473    196.71648  0.036591608  0.037733326            2 
  449000    1.1724409   -6.9352911    197.30933  0.036620144  0.037724306            3 
  450000    1.1925249   -6.9671851    197.15524  0.036510229  0.037715161            2 
  451000    1.1896031   -6.9153661    198.02582  0.036590137  0.037706406            2 
  452000    1.1671629   -6.9162275    198.06576  0.036516549    0.0376981            1 
  453000    1.1698472   -6.8814643    198.36723  0.036491396  0.037689258            1 
  454000    1.1571148   -6.9140087     198.8076  0.036491851  0.037680023            2 
  455000    1.1760576   -6.9518749    198.97523  0.036442349  0.037671101            1 
  456000    1.1966223   -6.9366227    199.74533  0.036503168  0.037662438            1 
  457000     1.208972   -6.9453661    200.09371  0.036486818  0.037654125            2 
  458000    1.1726297   -6.9630426    200.18409  0.036423598   0.03764567            2 
  459000    1.1887838   -6.8939239    200.98772  0.036490145  0.037637102            2 
  460000    1.1761729   -6.9401287    201.63125    0.0365274  0.037629164            3 
  461000    1.1910611   -6.9301723     201.7312  0.036466233  0.037622095            1 
  462000    1.1648894   -6.9467458    203.13729  0.036640926  0.037614242            2 
  463000    1.1869659   -6.9457706    203.12542   0.03655965  0.037607065            1 
  464000     1.156288   -6.9618545    203.49855  0.036547871  0.037600555            1 
  465000    1.1834567   -6.9213872    203.60229  0.036487866  0.037593584            2 
  466000    1.2056184   -6.8954011    205.36881  0.036725466  0.037587206            1 
  467000    1.1976151   -6.9704274    204.95639  0.036573231  0.037580286            1 
  468000    1.1918758   -6.9062527    205.63026  0.036615074  0.037573761            1 
  469000    1.1791099   -6.9084918    206.45676  0.036683859  0.037567677            3 
  470000    1.1504316    -6.941149    206.86228   0.03667771  0.037561837            2 
  471000    1.1821529   -6.9559521    206.28794   0.03649822  0.037555301            1 
  472000    1.1636782   -6.9637782    206.79058  0.036509635  0.037548364            3 
  473000    1.1994713   -6.9385425    206.96582  0.036463323  0.037540821            1 
  474000    1.1831107   -6.9158608    207.59607    0.0364972  0.037532542            2 
  475000    1.1586128   -6.9271945    207.12205  0.036337201  0.037523823            1 
  476000    1.1685432   -6.9793847     207.7831  0.036376592  0.037515315            3 
  477000    1.1589779   -6.9543984    207.15578  0.036190737  0.037506022            3 
  478000    1.1747668   -6.9928906    207.15277  0.036114499   0.03749618            1 
  479000    1.1931011    -6.967526    209.51746  0.036450497  0.037487297            1 
  480000    1.1794434   -6.9202756    209.25516  0.036329021  0.037478308            1 
  481000     1.166493   -6.9437229     209.9184  0.036368399  0.037469996            5 
  482000    1.1950384    -6.941386    210.69377     0.036427   0.03746167            2 
  483000    1.1568818   -6.9666205    210.46747  0.036312537   0.03745403            2 
  484000    1.1581628   -6.9488097    211.83536  0.036473031  0.037446236            1 
  485000    1.1792906   -6.9595217    211.84769  0.036399947  0.037438826            1 
  486000    1.1719508   -6.9503924    212.66698  0.036465532  0.037431163            2 
  487000    1.1924614   -6.9254015    212.97763   0.03644381  0.037424558            2 
  488000    1.1730862   -6.9174467    214.02594  0.036548146  0.037418281            1 
  489000    1.1842614   -6.9808392    213.91283  0.036454128  0.037411784            1 
  490000    1.1967875   -6.9864491    213.85593  0.036370056  0.037405001            2 
  491000    1.1870956   -6.9174065    215.02548  0.036494481  0.037398262            3 
  492000    1.1791649    -6.973931    215.37167  0.036478942  0.037391109            1 
  493000    1.1750218   -6.9711342     215.7257  0.036464791  0.037385095            1 
  494000    1.1635042   -6.9736584    215.62151    0.0363734  0.037378276            4 
  495000    1.1747726   -6.9629995    216.19483  0.036396436  0.037371886            3 
  496000    1.1710235   -6.9669664    217.14502  0.036482699  0.037365231            1 
  497000    1.1886796   -6.9560315    217.16916  0.036413341  0.037358631            2 
  498000    1.1804042   -6.9362421    217.62828  0.036417049  0.037351538            1 
  499000    1.1405759    -6.978485    216.96369  0.036233082  0.037344459            3 
  500000    1.1617057   -6.8997896    218.21336  0.036368894  0.037336791            3 
  501000    1.1641594   -6.9735442    218.03374  0.036266425  0.037328718            2 
  502000    1.1708318   -6.9375837    218.18226  0.036218834  0.037320251            1 
  503000     1.179292    -6.963675    218.10877  0.036134654  0.037311453            2 
  504000    1.1683163    -6.985653    218.59675  0.036143643  0.037301951            2 
  505000    1.1889804   -6.9416069    219.29075  0.036186593  0.037292094            2 
  506000    1.1655573    -6.948867    219.64444  0.036173327  0.037282536            3 
  507000    1.1794481    -6.983571    219.30933  0.036046899  0.037272904            2 
  508000    1.1954872   -6.9522866    219.86569  0.036067206  0.037262198            2 
  509000    1.1935332    -6.967442    220.26708  0.036062063  0.037251954            2 
  510000     1.155734   -6.9483984    220.14675   0.03597169  0.037241437            1 
  511000    1.1649598   -6.9669334    221.84158  0.036177688  0.037231336            2 
  512000     1.156994   -6.9533002    221.33607  0.036024751  0.037221751            2 
  513000    1.1664457   -6.9161222    222.20646  0.036095916  0.037211933            1 
  514000    1.1656744   -6.9403324    222.02369  0.035996059  0.037201623            3 
  515000    1.1710867   -6.9812518    222.31108  0.035972667  0.037191276            1 
  516000    1.1840357   -6.9065306    223.72534  0.036131353  0.037181177            2 
  517000    1.1657381   -7.0011145    222.64614  0.035887514  0.037170639            2 
  518000    1.1907557   -6.9894985     223.5186  0.035958591  0.037160018            1 
  519000    1.1498287   -6.9785186    224.17451  0.035994622  0.037149718            2 
  520000    1.1484764   -6.9604866    225.20188  0.036090044  0.037139891            2 
  521000    1.1685007   -6.9682781    225.00677  0.035989567  0.037130508            2 
  522000    1.1817611   -6.9721059    225.69578  0.036030616  0.037121607            1 
  523000     1.170349   -6.9892269    225.54196  0.035937215  0.037112704            2 
  524000    1.1548886   -6.9769061    227.08227  0.036113593  0.037103662            3 
  525000    1.1621446   -6.9694471    227.22471  0.036067414  0.037095336            2 
  526000    1.1553064   -6.9369848    227.59565  0.036057613  0.037087131            1 
  527000    1.1526038   -6.9130682    228.48752  0.036130221  0.037078618            1 
  528000    1.1763586   -6.9912247    228.15518   0.03600934  0.037070295            3 
  529000    1.1621222    -6.953934     227.9455  0.035908239  0.037061741            2 
  530000    1.1623744   -6.9991799    228.66458   0.03595355  0.037052714            4 
  531000    1.1565131   -6.9502463    229.33344   0.03599081  0.037043343            2 
  532000    1.1611251   -6.9866744    229.53591  0.035954873  0.037034033            2 
  533000    1.1711147   -6.9711249    229.52056  0.035885015  0.037024077            1 
  534000    1.1505899    -6.968876    230.43259  0.035960143  0.037014584            2 
  535000    1.1871199   -6.9187663    231.47496   0.03605529  0.037006934            2 
  536000    1.1696129   -7.0053344    232.02795  0.036073997  0.036999351            1 
  537000    1.1599114   -6.9944947    232.01594  0.036004956  0.036991817            1 
  538000    1.1533055   -6.9646882     232.3257  0.035986013  0.036983722            1 
  539000    1.1792202   -6.9534257    233.19206  0.036053194   0.03697582            2 
  540000    1.1661754   -6.9761687    234.04096  0.036117433   0.03696839            6 
  541000    1.1545478   -6.9875444    234.29973  0.036090531  0.036960928            2 
  542000    1.1809377   -6.9839831     234.1927  0.036007488  0.036952649            1 
  543000    1.1835672   -6.9473521    234.48116  0.035985444  0.036944932            4 
  544000    1.1762814   -6.9647976    234.64458  0.035944329   0.03693645            2 
  545000      1.14962   -6.9876302    234.46266   0.03585056  0.036927701            1 
  546000    1.1727272   -6.9350073    236.30895   0.03606669  0.036918831            1 
  547000    1.1290942   -6.9466099    236.35892  0.036008367  0.036909916            2 
  548000    1.1514754   -6.9467783    236.20432  0.035919149    0.0369006            2 
  549000    1.1649402    -6.954119    235.65921  0.035770979  0.036891179            3 
  550000     1.181904   -6.9521871       236.78  0.035875757   0.03688242            3 
  551000    1.1726765   -6.9685579     237.6477  0.035941879  0.036873999            4 
  552000    1.2016289   -6.9550052    239.42696  0.036145374  0.036866147            4 
  553000    1.1646773   -7.0161831    238.86877  0.035995896  0.036859045            3 
  554000     1.168213   -6.9463629    240.26924  0.036141583  0.036852038            5 
  555000    1.1746698   -6.9528899    240.44948  0.036103526   0.03684581            2 
  556000     1.146526   -6.9727423    241.16064   0.03614518  0.036839828            1 
  557000    1.1542274   -6.9523087    241.40424  0.036116732  0.036833734            1 
  558000    1.1788985   -6.9919867    240.36135  0.035896259  0.036827508            2 
  559000    1.1581587   -7.0196625    241.34791  0.035979115   0.03682106            1 
  560000    1.1872847    -6.963711    242.35357  0.036064519  0.036814712            2 
  561000    1.1579878     -6.95617    242.69826  0.036051435  0.036808732            2 
  562000    1.1382202   -6.9502627    243.57464  0.036117236  0.036802725            2 
  563000    1.1668483   -6.9828711    243.60931  0.036058217  0.036796712            2 
  564000    1.1565263   -6.9909643    242.88801  0.035887708   0.03679002            1 
  565000    1.1510192   -6.9606266    244.11869  0.036005707  0.036783215            1 
  566000    1.1531159   -6.9902724    244.64259  0.036019227   0.03677594            1 
  567000    1.1627854   -7.0179301    244.92574  0.035997316  0.036768955            1 
  568000    1.1604084   -6.9584767    245.36286  0.035998072  0.036762157            2 
  569000     1.182267   -6.9305693    245.90637  0.036014407  0.036755548            1 
  570000    1.1784632    -6.980341    246.44198   0.03602953   0.03674921            1 
  571000    1.1593385   -6.9516933    246.15677  0.035924806  0.036742769            1 
  572000    1.1664016   -6.9614592    246.27866  0.035879758  0.036736169            1 
  573000     1.173052    -6.951321    247.21252  0.035952955  0.036729431            2 
  574000    1.1924377   -7.0085559    247.81183  0.035977327  0.036722428            3 
  575000    1.1609896   -6.9755804    247.68786  0.035896791  0.036715607            4 
  576000    1.1375096   -6.9909744    249.42045  0.036085135  0.036708292            4 
  577000    1.1433578   -6.9776284    248.82248  0.035936234  0.036701404            3 
  578000    1.1475758    -6.949766    249.05794  0.035908007  0.036694376            2 
  579000     1.147566   -6.9333009    249.82087  0.035955796  0.036687276            2 
  580000    1.1513134   -6.9937124    249.61131  0.035863694  0.036680285            2 
  581000     1.166924   -6.9813328    250.12365  0.035875452  0.036673151            1 
  582000     1.181078    -7.011746    250.83938  0.035916291  0.036666863            1 
  583000    1.1645332   -6.9727304    250.77804  0.035845918  0.036660158            2 
  584000    1.1687366   -6.9791864    250.85931  0.035796134  0.036653303            1 
  585000    1.1395488   -6.9644298    251.67394  0.035850989  0.036646174            1 
  586000    1.1629644   -6.9708809    251.60268  0.035779675  0.036638803            2 
  587000    1.1606479   -6.9590593    252.99258  0.035916039  0.036631021            2 
  588000    1.1423587   -6.9463385    252.74652  0.035820085  0.036623722            1 
  589000     1.142299    -6.983851    252.99051  0.035793791  0.036616804            3 
  590000    1.1220111   -6.9849755    253.10218  0.035748896   0.03660918            3 
  591000    1.1408677   -6.9664597    253.35212  0.035723649  0.036601332            2 
  592000    1.1395222   -6.9399872    255.15694  0.035917362  0.036594139            2 
  593000     1.149634   -6.9726919     254.8798  0.035817847  0.036586953            2 
  594000     1.165923   -7.0068753    255.17712  0.035799259  0.036579887            1 
  595000    1.1605185   -6.9838472     255.5048  0.035784986  0.036572904            1 
  596000    1.1308809   -6.9516413    256.71041  0.035893513   0.03656595            2 
  597000    1.1419229   -7.0019761    257.11733  0.035890191   0.03655954            1 
  598000    1.1796324   -6.9912932    257.50296  0.035883913  0.036553578            2 
  599000    1.1385316   -6.9967738    257.45581  0.035817447  0.036547558            1 
  600000    1.1772517   -6.9884958    258.09637  0.035846718  0.036541374            2 
  601000     1.181716   -6.9745268    260.11087  0.036066399  0.036535617            1 
  602000    1.1492782   -6.9251028    260.51014  0.036061758  0.036530362            2 
  603000    1.1520101   -6.9972226    260.43264  0.035991244  0.036525428            3 
  604000    1.1516253   -6.9644052    260.31247  0.035915076  0.036519978            1 
  605000    1.1575343   -6.9777741    261.28652  0.035989879  0.036514619            1 
  606000    1.1421762   -6.9901703    260.74241  0.035855667  0.036509348            2 
  607000    1.1845636   -6.9957936    262.07966  0.035980184  0.036504371            2 
  608000    1.1426027   -6.9797157    261.56461  0.035850413   0.03649868            3 
  609000    1.1612146   -6.9642549     262.3966  0.035905391  0.036492431            2 
  610000    1.1522466   -7.0190171     261.8973   0.03577832  0.036486163            1 
  611000    1.1511678   -6.9765953    262.63788  0.035820769  0.036479728            2 
  612000    1.1530938   -7.0111029    263.59042  0.035891942  0.036473063            2 
  613000     1.144919   -7.0203511    262.85154  0.035732945  0.036466452            2 
  614000    1.1640333   -7.0020949    263.73724  0.035794956  0.036460507            4 
  615000    1.1602883   -6.9827672    265.18164  0.035932472  0.036454754            3 
  616000    1.1390877   -6.9878264    264.78913  0.035821041  0.036449345            1 
  617000    1.1604335    -6.984454    265.46879   0.03585478  0.036444117            2 
  618000    1.1556968   -6.9918877    266.20365  0.035895853  0.036439173            2 
  619000    1.1748255    -7.018427    266.13959   0.03582924  0.036434517            5 
  620000    1.1191082   -6.9913642    266.63753  0.035838377  0.036429296            1 
  621000    1.1599402   -6.9665118    268.19914  0.035990223  0.036424192            2 
  622000    1.1463931   -6.9979811    267.59812  0.035851838  0.036419149            1 
  623000    1.1596355   -6.9845957    267.10475  0.035728298  0.036414124            2 
  624000     1.166854   -6.9931829    268.36721  0.035839638  0.036409118            1 
  625000    1.1345134   -6.9856521    269.13846  0.035885128  0.036403511            1 
  626000    1.1547792   -6.9612739     269.9995  0.035942426  0.036398104            1 
  627000      1.15699   -7.0087537    269.23088  0.035782945  0.036393204            3 
  628000    1.1574866    -7.010874    271.02105  0.035963516  0.036387898            1 
  629000    1.1676486   -6.9990066    270.21322  0.035799313  0.036383025            1 
  630000    1.1565586   -6.9729669    271.58559   0.03592402  0.036377841            2 
  631000    1.1241337   -6.9895573    271.55162  0.035862602  0.036373235            2 
  632000    1.1570077   -6.9857399    273.00314   0.03599725  0.036368038            1 
  633000    1.1317968   -7.0078448    271.06605  0.035685368   0.03636255            2 
  634000    1.1538023   -6.9620738    272.98277  0.035881016  0.036357224            1 
  635000    1.1607446    -6.957255    272.72674   0.03579091  0.036352111            1 
  636000    1.1501535   -7.0108126    272.99704  0.035770053  0.036346739            3 
  637000    1.1481577   -6.9768948    274.27095  0.035880554  0.036341544            1 
  638000    1.1331302   -7.0111511    274.15061  0.035808596  0.036336381            2 
  639000    1.1311153   -6.9521279    275.20999  0.035890713  0.036331441            2 
  640000     1.156478   -7.0179626    275.18718  0.035831665  0.036326471            2 
  641000    1.1207998   -7.0284337    274.85773  0.035732934  0.036321348            4 
  642000    1.1564461   -6.9776236    275.94181  0.035817992  0.036315755            2 
  643000    1.1681337    -7.007742    275.63555  0.035722595  0.036309715            2 
  644000    1.1327483   -7.0269449     275.1848  0.035608799  0.036303591            3 
  645000    1.1585185   -7.0343911     275.5488   0.03560062  0.036296946            2 
  646000    1.1389185   -7.0021313    276.25031  0.035636005  0.036289731            2 
  647000    1.1538938   -7.0181412    276.01583  0.035550725  0.036282867            2 
  648000    1.1585861   -6.9891267    275.60737  0.035443334  0.036275906            3 
  649000    1.1292215   -6.9663639    276.79271  0.035540924  0.036268383            1 
  650000    1.1537321   -7.0211726    276.94043  0.035505184  0.036260591            1 
  651000    1.1525387    -6.970368    277.33457  0.035501098  0.036252775            2 
  652000    1.1444617   -6.9808214    277.20172  0.035429667  0.036245165            2 
  653000     1.131138   -7.0105643    277.85667  0.035458993  0.036237473            1 
  654000    1.1649847   -6.9733109    279.13704  0.035567921  0.036229602            1 
  655000    1.1453069   -7.0316961    277.93906  0.035361204  0.036222395            1 
  656000    1.1564956   -6.9728901    280.61417  0.035647126   0.03621577            1 
  657000    1.1551005    -7.011483    280.63753  0.035595831  0.036209579            1 
  658000    1.1423947   -7.0028685    280.03505  0.035465432   0.03620271            2 
  659000    1.1275119   -7.0128688    280.94584  0.035526788   0.03619554            4 
  660000    1.1222725   -6.9975583    280.51374  0.035418401  0.036188567            3 
  661000    1.1689896   -6.9645931    282.04161  0.035557439  0.036181527            2 
  662000    1.1575301   -6.9938157    281.70308  0.035461113  0.036174473            2 
  663000    1.1494681   -7.0438277    281.25279   0.03535103  0.036167805            1 
  664000    1.1696182   -7.0142224    282.59298  0.035465986  0.036161225            2 
  665000    1.1540054   -7.0094999    283.30445  0.035501811  0.036154857            2 
  666000    1.1407107   -7.0137684    283.75537  0.035504926  0.036148584            1 
  667000    1.1217379   -7.0135884    285.03285    0.0356113  0.036142505            1 
  668000    1.1589433   -7.0182483    284.31928  0.035468972  0.036135656            5 
  669000     1.118343   -7.0002253    284.74281  0.035468711  0.036129003            1 
  670000    1.1437356   -7.0553537    284.57078  0.035394376  0.036122222            1 
  671000    1.1414163   -7.0094597    284.53536  0.035337227  0.036114845            3 
  672000    1.1471323   -7.0280241     285.6157  0.035418613  0.036107915            2 
  673000    1.1530745   -7.0408772    285.80753  0.035389738  0.036100718            3 
  674000    1.1472903   -6.9669399    286.11182  0.035374854  0.036093492            1 
  675000    1.1467798   -6.9793382    286.51311  0.035371989  0.036086008            3 
  676000    1.1203162   -7.0312949    286.74714  0.035348513  0.036078504            2 
  677000    1.1232765   -7.0181844    286.83729  0.035307397  0.036071009            3 
  678000    1.1390686    -7.026819    287.41043  0.035325766  0.036062875            2 
  679000     1.120354   -7.0622456    286.80391  0.035199302  0.036054635            1 
  680000    1.1374522   -6.9648194    288.77222  0.035388753  0.036047035            2 
  681000     1.153796   -7.0239903    288.28901  0.035277656  0.036039763            2 
  682000    1.1780348   -6.9998681    288.45194  0.035245838  0.036032333            2 
  683000    1.1133368   -7.0303147    288.85979  0.035243995  0.036024793            3 
  684000    1.1266804   -7.0105487    290.28215  0.035365759  0.036016821            2 
  685000    1.1277616   -7.0017177    289.93399  0.035271775  0.036008813            2 
  686000    1.1381129   -7.0234721    290.62271  0.035304022  0.036001351            1 
  687000    1.1546715   -7.0164829    290.43162  0.035229454  0.035993568            2 
  688000     1.132621   -6.9391891    291.75258  0.035338248  0.035986457            6 
  689000     1.149739   -7.0697539     290.9861  0.035194255  0.035978809            3 
  690000    1.1603133   -7.0637124    290.57033  0.035093035  0.035971038            2 
  691000    1.1365151    -7.043691    291.62953  0.035169987  0.035963351            5 
  692000    1.1544447   -6.9813821     291.7825  0.035137584  0.035955346            1 
  693000    1.1387632   -7.0374467    293.00956  0.035234435  0.035947257            1 
  694000    1.1406267    -6.994554    293.61051  0.035255825  0.035939717            3 
  695000    1.1588652   -7.0367232    293.87305  0.035236577  0.035932132            2 
  696000    1.1302535   -7.0048006    294.51612  0.035262946  0.035924444            2 
  697000    1.1309274   -7.0376739    295.22912  0.035297599  0.035916961            2 
  698000    1.1591473   -7.0262948     294.6215  0.035174486  0.035909424            1 
  699000    1.1590488   -7.0282161    294.94902  0.035163211  0.035901587            1 
  700000    1.1645087   -7.0244906    295.63979  0.035195213   0.03589365            1 
  701000    1.1118007   -7.0136728    295.50939  0.035129504  0.035885974            2 
  702000    1.1346174   -7.0406025     296.0997  0.035149537  0.035878456            1 
  703000    1.1330118    -7.054093      296.595   0.03515825  0.035870888            2 
  704000    1.1227754   -7.0865665    295.97767  0.035035236  0.035863202            2 
  705000    1.1417843   -7.0273829    298.16144  0.035243668  0.035855919            2 
  706000    1.1457798    -7.013994    298.76987  0.035265566  0.035848696            3 
  707000     1.152618    -7.031585    297.91043  0.035114384  0.035841123            2 
  708000    1.1617654   -7.0270071    298.71382  0.035159348  0.035833572            3 
  709000     1.126886   -7.0444087     299.4217  0.035192959   0.03582616            1 
  710000    1.1213171   -7.0696983    297.80726  0.034953904  0.035818862            2 
  711000    1.1482624   -6.9953918    299.07793  0.035053672  0.035811404            2 
  712000     1.126668   -6.9911719    299.68797  0.035075839  0.035803648            2 
  713000    1.1307873   -7.0456727    300.56748  0.035129439   0.03579613            1 
  714000    1.1616559   -6.9802525     302.8096  0.035341924  0.035789404            2 
  715000    1.1729547   -6.9972846    301.58766  0.035150077  0.035782906            1 
  716000    1.1371397   -7.0280543    302.25466  0.035178615  0.035776134            1 
  717000    1.1337722   -7.0564313    302.07779  0.035108995  0.035769498            2 
  718000    1.1449158   -6.9890826    303.46972  0.035221648  0.035762508            3 
  719000    1.1249282   -7.0198451     302.9987  0.035118069  0.035755538            1 
  720000    1.1250599   -7.0525519    303.53131  0.035130939  0.035748385            1 
  721000    1.1493475   -7.0020198     303.7135  0.035103271  0.035741087            2 
  722000    1.1213742   -7.0010935    305.15883  0.035221472  0.035734226            2 
  723000    1.1322084    -7.014302    305.36671  0.035196716   0.03572733            2 
  724000    1.1454054    -6.985518    306.21076  0.035245254  0.035721009            1 
  725000    1.1202529   -7.0096778      305.999  0.035172298  0.035714623            1 
  726000    1.1386168    -7.039007    305.39573  0.035054607  0.035707933            2 
  727000    1.1568585   -7.0306988     306.8485  0.035172914  0.035701151            3 
  728000    1.1371361   -7.0355682    305.90019  0.035016047  0.035694261            2 
  729000    1.1272121   -7.0001351    307.06493  0.035101158  0.035687322            2 
  730000    1.1366028   -7.0321468    307.04013  0.035050243   0.03568005            3 
  731000    1.1326652   -7.0449194    306.51787  0.034942757  0.035672422            1 
  732000    1.1338851   -7.0347856    307.09805  0.034961071  0.035665289            2 
  733000    1.1260213   -7.0368974    307.31278  0.034937788  0.035657278            1 
  734000    1.1223612   -7.0435424    307.26359  0.034884604  0.035649605            2 
  735000    1.1259805   -7.0497899    308.11432  0.034933597  0.035642112            4 
  736000    1.1410112   -7.0106409    308.47184  0.034926613  0.035634698            1 
  737000    1.1301935   -7.0403472    308.48646  0.034880875  0.035626917            2 
  738000    1.1630375    -7.026275    309.15265  0.034908836  0.035618662            2 
  739000    1.1468277   -7.0146926    309.85558  0.034940864  0.035610856            1 
  740000    1.1465797   -6.9826869    311.32103  0.035058675  0.035603384            1 
  741000    1.1385194   -7.0255686    310.85695  0.034959171  0.035595897            1 
  742000    1.1504458   -7.0135577    311.20887   0.03495158  0.035588399            1 
  743000    1.1322014    -7.045371    311.28028  0.034912548  0.035580706            2 
  744000    1.1363025   -7.0132549    311.52797  0.034893366  0.035573086            5 
  745000    1.1556355   -7.0244465    311.74207  0.034870478  0.035565723            2 
  746000    1.1197383   -7.0449877    311.68396  0.034817243  0.035558568            4 
  747000    1.1443187   -7.0663852    311.18181  0.034714615  0.035550914            1 
  748000    1.1334576   -7.0019318    312.68122  0.034835252  0.035543074            2 
  749000    1.1175926   -7.0267435    313.26096  0.034853244  0.035535291            2 
  750000    1.1427959   -7.0011931    313.84226  0.034871362  0.035527685            1 
  751000    1.1451958   -7.0309168    313.55229  0.034792752  0.035519554            4 
  752000    1.1325813   -7.0130794    313.82319  0.034776506  0.035511695            1 
  753000    1.1042956   -7.0525962    315.29187  0.034892858  0.035503907            3 
  754000    1.1321021    -7.011572    316.00104   0.03492496  0.035496337            1 
  755000    1.1498454   -7.0425725    316.14318   0.03489439  0.035488795            1 
  756000    1.1167468   -7.0242303    316.60609  0.034899261   0.03548133            1 
  757000    1.1337692   -6.9958911     317.9321  0.034999131  0.035474277            2 
  758000     1.134007   -7.0472679    316.85824  0.034834899   0.03546712            1 
  759000    1.1531773   -7.0851398    316.41864  0.034740738  0.035459684            2 
  760000    1.1191331    -7.055398     317.7422  0.034840153  0.035452356            2 
  761000    1.1454849   -7.0546828    318.24895  0.034849863  0.035445166            2 
  762000    1.1507033   -7.0348276    318.27574  0.034807058  0.035438019            2 
  763000    1.1273534   -7.0791362    319.43263  0.034887793   0.03543143            1 
  764000    1.1544244   -7.0677486    319.67185  0.034868221  0.035424695            1 
  765000    1.1161105   -7.0528754    321.21577  0.034990824  0.035418057            2 
  766000    1.1187905   -7.0041874     320.9951  0.034921138  0.035410897            2 
  767000    1.1410639   -7.0280939    320.40575  0.034811576  0.035403635            1 
  768000    1.1222023   -7.0514439    320.40634  0.034766313   0.03539618            2 
  769000    1.1266199    -7.022931    321.29751  0.034817675  0.035389072            2 
  770000    1.1310012   -7.0428882    322.18867  0.034868903  0.035382438            1 
  771000     1.130142   -7.0491457    321.48903  0.034748058  0.035374995            1 
  772000    1.1239842   -7.0175884    322.19344  0.034779085  0.035367446            1 
  773000    1.1304193   -7.0291284    321.50329  0.034659691  0.035359486            2 
  774000    1.1545407   -7.0289498     322.8696  0.034762016  0.035352011            2 
  775000    1.1440632   -7.0518238    321.93857   0.03461705  0.035344478            4 
  776000    1.1332094    -7.032212    322.74036  0.034658543  0.035336443            1 
  777000    1.1434358   -7.0434856    323.49973  0.034695381  0.035328387            1 
  778000    1.1370767   -7.0368234    322.95946  0.034592915  0.035320497            2 
  779000    1.1301649   -7.0430506    323.49066  0.034605334  0.035312744            1 
  780000    1.1129002   -7.0302389    323.90457  0.034605189  0.035304674            2 
  781000    1.1327585   -7.0501116    323.71744  0.034540914  0.035296468            2 
  782000    1.1215579   -7.0718125    325.26074  0.034661204  0.035288357            1 
  783000    1.1150029   -7.0455387    326.01977  0.034697719  0.035280497            2 
  784000     1.097112   -7.0503578     325.4899  0.034597141  0.035272902            2 
  785000    1.1325597   -7.0418619    326.05807  0.034613383  0.035265196            2 
  786000    1.1410615   -7.0985634    326.61621  0.034628521  0.035257766            2 
  787000    1.1220865   -7.0470922     327.9744  0.034728335  0.035250627            2 
  788000    1.1390303   -7.0294987    327.97423  0.034684245  0.035243711            2 
  789000    1.1188653    -7.021111    328.17024  0.034660989  0.035236794            1 
  790000    1.1340407   -7.0478858    328.34396  0.034635438  0.035229553            2 
  791000    1.1160839   -7.0150622    328.92951  0.034653341  0.035222415            1 
  792000    1.1266183   -7.0145623    329.06814  0.034624173  0.035215105            2 
  793000    1.1275476   -7.0577796     329.6788  0.034644682   0.03520828            3 
  794000    1.1341552   -7.0898964    329.58924  0.034591649  0.035201297            1 
  795000    1.1296716   -7.0517993    331.17756  0.034714629  0.035194568            1 
  796000    1.1428452   -7.0384649    331.37356  0.034691537  0.035187797            2 
  797000    1.1179566   -7.0570708    330.64217  0.034571536  0.035180719            2 
  798000    1.1280266   -7.0238405    331.40349  0.034607716  0.035173434            1 
  799000    1.1447026   -6.9901244     333.8531   0.03481989  0.035166392            1 
  800000    1.1498071    -7.066002    331.95512  0.034578659   0.03515958            1 
  801000    1.1420935   -7.1333337    331.28596  0.034465872  0.035152035            4 
  802000    1.1061204    -7.056692    333.10946  0.034612371   0.03514442            1 
  803000    1.1239002   -7.0444028    334.03102  0.034664904  0.035137473            3 
  804000    1.1258268   -7.0219178     335.2232  0.034745357  0.035130874            1 
  805000    1.1240863   -7.0701596    334.06883  0.034582694  0.035124256            2 
  806000    1.1253279    -7.065181    334.51417  0.034585832  0.035117142            2 
  807000    1.1418738   -7.0991223      333.384   0.03442627  0.035109952            2 
  808000    1.1019636   -7.0718023    335.24245  0.034575335  0.035102821            2 
  809000      1.10283   -7.0487349    335.73878  0.034583723  0.035095856            5 
  810000    1.1350367   -6.9976957     337.0746  0.034678457  0.035089319            2 
  811000    1.1189911   -7.0846563     336.6811  0.034595263  0.035082867            3 
  812000    1.1385242   -7.1009582    335.31799  0.034412766  0.035075918            1 
  813000    1.1213566     -7.02736    337.16913  0.034560181  0.035068868            1 
  814000    1.1332634    -7.043544    338.70162  0.034674613  0.035062238            1 
  815000    1.1246338   -7.0359692    339.34984  0.034698347  0.035055656            1 
  816000     1.108002   -7.0327206    338.08765  0.034526925  0.035049065            1 
  817000    1.1225256   -7.0550791    338.76474  0.034553727  0.035042284            2 
  818000    1.1315587   -7.0200322    340.12392  0.034649951  0.035035682            3 
  819000    1.1159834   -7.0409462    339.55878  0.034550141  0.035029079            1 
  820000    1.1192198   -7.1052602    339.66127  0.034518422  0.035022302            1 
  821000    1.1283511   -7.0785394    340.74045  0.034585916  0.035015671            1 
  822000    1.1476622   -7.0525085     339.6242  0.034430677  0.035009049            2 
  823000     1.104418   -7.0367316    340.84168  0.034512118  0.035002467            1 
  824000    1.0987816   -7.0571847    342.22195  0.034609825  0.034996025            5 
  825000    1.1287293   -7.0382894    342.56945  0.034602975  0.034989451            2 
  826000    1.1166539   -7.0452226    342.72714  0.034576992  0.034983137            3 
  827000    1.1008529   -7.0767253     343.3082  0.034593732  0.034977054            3 
  828000    1.1300285   -7.0589364    344.23269  0.034644997  0.034970867            3 
  829000    1.0977769   -7.0372871    344.14808  0.034594701  0.034964784            1 
  830000    1.1339721   -7.0918286    343.56386  0.034494364  0.034958645            2 
  831000    1.1012145   -7.0595999    343.43745  0.034440178  0.034952188            1 
  832000    1.1061871   -7.0564302    345.64642  0.034620034  0.034945693            3 
  833000    1.1140282   -7.0655072    344.05013   0.03441878  0.034939356            2 
  834000    1.1441552   -7.1144226    344.10392  0.034382886  0.034933112            1 
  835000    1.1083323    -7.033517    346.37727   0.03456859  0.034926807            1 
  836000    1.0945961   -7.0625209    346.16272  0.034505854  0.034920327            2 
  837000    1.1156838    -7.070092    346.64553  0.034512697  0.034914119            3 
  838000    1.1310853   -7.0438467    347.51524  0.034557999  0.034907749            3 
  839000    1.0914804   -7.0654787     346.4118  0.034407211  0.034901379            2 
  840000    1.1197276   -7.0634884    346.45302  0.034370339  0.034894815            3 
  841000    1.1332984     -7.07838    348.17572  0.034500171  0.034888508            1 
  842000    1.1369127   -7.0731967    347.28212  0.034370757  0.034882174            2 
  843000    1.1024403    -7.089724    348.32775  0.034433348  0.034875852            2 
  844000    1.1025372   -7.0757528    348.55895  0.034415379   0.03486959            2 
  845000    1.0981767   -7.1088521     348.1931   0.03433857  0.034863146            2 
  846000    1.1004844   -7.0887479    349.88456  0.034464594  0.034856878            3 
  847000     1.132346   -7.0500258    351.10925  0.034544397  0.034851028            1 
  848000    1.1092773   -7.0291624    350.10609  0.034405079   0.03484505            2 
  849000    1.1367979   -7.0940147    350.62723  0.034415708  0.034839264            1 
  850000    1.1427784   -7.0682214    352.12345  0.034521907  0.034833301            1 
  851000    1.1105461   -7.0492208    352.48534  0.034516778  0.034827758            2 
  852000    1.1010622    -7.065238    353.12994  0.034539313  0.034822446            2 
  853000    1.1238967   -7.0214617    354.43329  0.034626152  0.034817354            4 
  854000    1.1307333   -7.0379108    353.75546  0.034519463  0.034812096            1 
  855000    1.1249456   -7.0938379    353.43794  0.034448142  0.034806389            4 
  856000    1.1288469   -7.0472373    354.13362  0.034475625   0.03480096            1 
  857000    1.1010873   -7.0876611    354.95036  0.034514816  0.034795449            3 
  858000    1.1227163   -7.0656326    354.40312  0.034421437  0.034789785            2 
  859000    1.1263588    -7.062265     354.8301  0.034422788  0.034784446            1 
  860000    1.1015929   -7.0472181    355.01148  0.034400337  0.034778835            2 
  861000    1.1154016   -7.0573263    356.85141  0.034538464   0.03477299            2 
  862000     1.132636   -7.1200229    355.20903   0.03433962  0.034767156            1 
  863000    1.1296759   -7.0869919    354.73426  0.034253984  0.034761228            2 
  864000    1.0878062   -7.0569483    356.30329  0.034365672  0.034755442            2 
  865000    1.1103072   -7.0861392    357.46266  0.034437636  0.034749395            2 
  866000    1.1119941   -7.0593762    358.48543  0.034496288  0.034743713            2 
  867000    1.1345669    -7.061153    357.56655   0.03436818  0.034737985            1 
  868000    1.1269358   -7.0654113    358.53268   0.03442134  0.034732364            2 
  869000     1.093068   -7.0753645    359.95132  0.034517771  0.034726784            2 
  870000    1.1282516   -7.1056564    357.89574  0.034281201  0.034721142            4 
  871000    1.0874542   -7.0872097    358.89777  0.034337712  0.034715466            2 
  872000    1.1163657   -7.0613844    359.96642   0.03440046  0.034709524            1 
  873000    1.1201508   -7.0853474    359.83471  0.034348483  0.034703456            2 
  874000    1.1100762   -7.0448811    360.04427  0.034329164  0.034697408            1 
  875000    1.1226316   -7.0866801    361.10077  0.034390549  0.034691844            2 
  876000     1.092684   -7.0982455     360.0548  0.034251788  0.034685814            1 
  877000    1.1157355   -7.0271238    361.98867  0.034396491  0.034679935            3 
  878000    1.0971564    -7.096499    360.99548  0.034263049  0.034674076            2 
  879000    1.1121314   -7.0644946    363.13181  0.034426603  0.034668421            1 
  880000    1.1278837   -7.0717125    362.36468  0.034314837  0.034663165            2 
  881000     1.097231   -7.1282764    362.57432  0.034295717  0.034657187            1 
  882000    1.1231613   -7.0750774    364.35062  0.034424662  0.034651445            1 
  883000     1.104943   -7.0659648    364.27219  0.034378274  0.034645789            1 
  884000    1.1233942   -7.1361888    362.88073  0.034208214  0.034639973            1 
  885000    1.0947737   -7.0841102    364.55668  0.034327371  0.034633887            1 
  886000    1.0878337   -7.1053409    364.09531  0.034245232  0.034627683            1 
  887000    1.1046416   -7.1021737     364.5577  0.034250066  0.034621577            2 
  888000    1.1192671   -7.1016833    365.72339  0.034320888  0.034615711            2 
  889000    1.0992409   -7.0947342    365.48905  0.034260315  0.034609736            1 
  890000    1.0943404   -7.0690183    365.96843  0.034266707  0.034604053            1 
  891000    1.1266501   -7.0977471    366.75123  0.034301462  0.034598522            1 
  892000    1.1097401   -7.0980811     367.2736  0.034311808  0.034593029            1 
  893000    1.1148649   -7.0663513    366.72774  0.034222447  0.034587405            1 
  894000    1.1206617   -7.1050161    367.78435  0.034282658  0.034581704            1 
  895000    1.1166801   -7.0658305    366.74775  0.034147835  0.034575647            2 
  896000    1.1166703   -7.0605463    367.78046  0.034205772  0.034569881            3 
  897000     1.114879    -7.060047    367.84382  0.034173525   0.03456398            2 
  898000    1.1199153   -7.0669105    368.40691  0.034187724  0.034557813            2 
  899000    1.0977571   -7.0726406    369.00439  0.034205078  0.034551861            2 
  900000    1.0990991   -7.0617512    369.87464  0.034247652  0.034545849            3 
  901000    1.1226887   -7.0839868    369.18066  0.034145455  0.034539955            2 
  902000    1.0986326    -7.073764    371.61335  0.034332349  0.034534014            2 
  903000    1.0981505   -7.0911775    371.22698  0.034258672   0.03452806            4 
  904000    1.0799745   -7.0522765    371.08642  0.034207819  0.034522282            1 
  905000     1.134735   -7.0908947    370.84071  0.034147395  0.034516455            2 
  906000    1.1135213   -7.0873648    371.99766  0.034216121  0.034510593            1 
  907000    1.0965502    -7.100028    372.21634  0.034198487  0.034504479            1 
  908000     1.081283   -7.0937837    372.78657  0.034213158  0.034498488            1 
  909000    1.0974103   -7.1081471      371.556  0.034062706  0.034492253            2 
  910000    1.1213341   -7.1254795    371.59199   0.03402857  0.034486099            2 
  911000    1.0968788   -7.1182054      372.589  0.034082418  0.034479794            2 
  912000    1.1170014   -7.0769552    374.41213  0.034211635  0.034474023            2 
  913000    1.0949682   -7.1342018    372.73053  0.034020677  0.034467901            1 
  914000    1.1274485   -7.0995224    373.43045  0.034047269  0.034461693            1 
  915000    1.1066356   -7.1017094    374.31359  0.034090491  0.034455621            2 
  916000    1.1049529   -7.0844949    375.72989  0.034182123  0.034449633            2 
  917000    1.1086305   -7.1196574    374.56695  0.034039163  0.034443743            4 
  918000    1.1294436   -7.0646385    375.27618  0.034066465  0.034437917            2 
  919000    1.1058644    -7.098858    375.32574   0.03403389   0.03443203            2 
  920000    1.0884139   -7.0647175    377.25088  0.034171275  0.034426186            3 
  921000     1.096662   -7.0918637    377.25226  0.034134298  0.034420219            2 
  922000    1.1122685   -7.0957257      377.206  0.034093095  0.034414276            2 
  923000    1.0992372    -7.094436    376.97699  0.034035481   0.03440819            3 
  924000     1.104331   -7.1152947    377.20165  0.034018907  0.034402212            2 
  925000    1.0963964    -7.093841    378.26979  0.034078359  0.034396301            3 
  926000    1.1214244   -7.1128346     378.5326  0.034065209  0.034390572            3 
  927000    1.0953268   -7.0726924    379.87434  0.034149078  0.034384734            1 
  928000    1.1050323   -7.0756657    379.15399  0.034047592  0.034378612            3 
  929000    1.1106799   -7.0900086    378.61782  0.033962847  0.034372524            2 
  930000    1.0909318   -7.1262919    378.56835  0.033921895  0.034366181            1 
  931000     1.097212   -7.0517163    380.54795  0.034062652  0.034360035            3 
  932000    1.0991053   -7.1039075    380.24524  0.033999038  0.034353845            2 
  933000    1.1048499   -7.1054259     380.4178   0.03397801  0.034347668            1 
  934000     1.102893   -7.0950846    380.83344  0.033978715  0.034341312            2 
  935000    1.0952513   -7.0895959    381.54484  0.034005779  0.034334868            2 
  936000     1.108759   -7.0753629    381.56171   0.03397095  0.034328798            1 
  937000    1.0985484   -7.0556468    380.98733  0.033883612  0.034322307            2 
  938000     1.091928   -7.1196661    380.81846  0.033832486  0.034315779            2 
  939000    1.0995466   -7.0602226     382.9373  0.033984495  0.034309343            3 
  940000    1.1130493   -7.0874456    382.29525  0.033891423  0.034302992            2 
  941000    1.1239098   -7.0932098    382.83969  0.033903621   0.03429681            1 
  942000    1.0937145   -7.1036501    382.95348  0.033877696  0.034290563            1 
  943000    1.1007886   -7.0420591     384.2044  0.033952315  0.034284257            2 
  944000    1.0706629   -7.1382475    384.30578  0.033925298  0.034277978            5 
  945000    1.0880857   -7.0798046    384.50311    0.0339068  0.034271689            1 
  946000    1.1286569   -7.0970994    384.62473  0.033881671  0.034265688            3 
  947000    1.0726139   -7.0879691    385.83263  0.033952185   0.03425957            1 
  948000    1.1035646   -7.1148931    386.20181  0.033948823   0.03425325            2 
  949000    1.1022139   -7.0859045    385.19269  0.033824437  0.034247159            3 
  950000    1.1162511   -7.0469367    386.54474  0.033907434  0.034241077            3 
  951000    1.0925457   -7.0811125    386.89207  0.033902214  0.034234884            2 
  952000    1.0842924   -7.0629661    387.51863  0.033921449  0.034228651            1 
  953000    1.0873638   -7.0952497    386.11028  0.033762704  0.034222508            2 
  954000    1.0908676   -7.0930089    387.63424  0.033860434  0.034216045            2 
  955000    1.0739519   -7.0806579    388.35661  0.033888012   0.03420978            2 
  956000    1.1082683    -7.108052    388.27887  0.033845787  0.034203343            2 
  957000    1.0919967   -7.0879844    388.33438  0.033815254  0.034196899            2 
  958000    1.1001794   -7.0628154     388.4479  0.033789832  0.034190322            4 
  959000    1.1008432   -7.0994366    388.25771   0.03373807  0.034183652            2 
  960000    1.1022974   -7.1345379    388.42234  0.033717217  0.034176989            2 
  961000    1.0748324   -7.1527679    388.17675  0.033660835  0.034169843            1 
  962000    1.1039945   -7.1158077    387.45811  0.033563593  0.034162332            1 
  963000    1.1240072   -7.1221782    387.60836  0.033541741  0.034154711            2 
  964000    1.1073136    -7.110798    387.90994  0.033533017  0.034147284            1 
  965000    1.1066065   -7.0972749    387.97513  0.033503897  0.034139937            2 
  966000    1.1101649   -7.0906599    389.64207  0.033613015  0.034132642            2 
  967000    1.0982308   -7.1182897    390.10461  0.033618115  0.034125231            3 
  968000    1.1291942   -7.1176138    388.91177  0.033480697  0.034117598            2 
  969000    1.0845575    -7.113914    390.40844  0.033574857  0.034110386            2 
  970000    1.1150498   -7.1125755    391.17679  0.033606253  0.034103168            1 
  971000    1.1294431   -7.1147824    390.58139  0.033520545  0.034095659            2 
  972000    1.0802519   -7.0971157    390.65017  0.033491956  0.034088239            1 
  973000    1.0854971    -7.133146    390.58637   0.03345207  0.034080735            2 
  974000    1.0975296   -7.0913784    392.50447  0.033581834  0.034073423            2 
  975000     1.099187   -7.0968699    392.76746  0.033569869  0.034066023            2 
  976000    1.1074992   -7.1242993    392.57283  0.033518855  0.034058575            4 
  977000    1.0952156   -7.1337154    392.57139  0.033484424   0.03405145            1 
  978000    1.1039349   -7.1096876    394.43437  0.033608927  0.034044817            2 
  979000    1.1041445   -7.1096522    394.05245  0.033542088  0.034037902            2 
  980000    1.0798635   -7.1850262    394.09113  0.033511151  0.034030859            1 
  981000    1.0978323    -7.130108    394.77511  0.033535092  0.034023763            1 
  982000    1.0842571   -7.1356003    394.99971  0.033520002  0.034016578            3 
  983000    1.0886283   -7.1400951    394.30774  0.033427242  0.034009384            1 
  984000    1.0803632   -7.1197263    394.85257  0.033439411   0.03400212            2 
  985000    1.0826011   -7.1264781    395.45441   0.03345638  0.033994829            1 
  986000    1.0785021   -7.1064109    396.24671  0.033489411  0.033987494            2 
  987000    1.1021359    -7.123726    396.21645  0.033452925   0.03398029            1 
  988000    1.1102305   -7.0974417     398.0539  0.033574047  0.033973089            2 
  989000    1.0960197   -7.0974459    397.18229  0.033466657  0.033965962            1 
  990000    1.1024807     -7.15068    396.64736  0.033387825  0.033958619            1 
  991000    1.1078967   -7.1550932    397.11546  0.033393496   0.03395123            3 
  992000    1.0851478   -7.1347531    397.40664  0.033384294  0.033943759            3 
  993000    1.0833338   -7.1407305    397.42469  0.033352189  0.033936609            3 
  994000    1.1101863   -7.1111554    399.21267  0.033468533  0.033929372            3 
  995000    1.0891774   -7.1281366      399.212  0.033434841   0.03392251            1 
  996000    1.1031713    -7.163206    398.63463  0.033352964  0.033915442            2 
  997000    1.1031579   -7.1335444    399.14775    0.0333624  0.033908124            1 
  998000    1.0891448   -7.1498655    400.24116   0.03342027  0.033901088            2 
  999000    1.0755758    -7.105365    400.82417   0.03343545  0.033893944            1 
 1000000    1.0854332   -7.1631367     399.1166  0.033259717  0.033886712            1 
 1001000    1.0732952   -7.1308047    400.84131  0.033370072  0.033879344            3 
 1002000    1.0714365   -7.1287865    402.51644  0.033476085  0.033872149            1 
 1003000    1.0952332   -7.1362975     401.4867  0.033357154  0.033865012            2 
 1004000    1.0661498   -7.1206698    402.22046  0.033384832   0.03385797            2 
 1005000    1.0801968   -7.1345717     402.4522  0.033370829  0.033851031            2 
 1006000    1.0770616   -7.1263805    402.93357  0.033377533  0.033843966            2 
 1007000    1.0790415   -7.1036198    402.87055  0.033339171  0.033836824            2 
 1008000    1.1056727   -7.0977651    402.98325  0.033315414  0.033829645            4 
 1009000    1.0938757   -7.1266771    404.23558  0.033385826  0.033822357            2 
 1010000    1.0922788   -7.1190236    403.55977   0.03329701  0.033814948            2 
 1011000    1.0620224   -7.1019092    403.99756  0.033300162  0.033807456            1 
 1012000    1.0964475   -7.1058899    405.65573  0.033403799  0.033800114            4 
 1013000    1.0937586    -7.140902    404.40111  0.033267614  0.033792536            1 
 1014000    1.0932128   -7.0726175    405.81471  0.033350979  0.033785118            3 
 1015000    1.0819925   -7.1157726    404.90833  0.033243706  0.033777716            2 
 1016000    1.0959184   -7.0825842    405.32727  0.033245347  0.033770165            1 
 1017000    1.0796035   -7.1600586    404.06183  0.033108967  0.033762373            2 
 1018000    1.0786327   -7.1064318    405.72827  0.033212857  0.033754602            2 
 1019000    1.0687959   -7.1790886    405.84858  0.033190103  0.033746866            2 
 1020000    1.0869852   -7.1021003    407.41166  0.033285266  0.033739283            2 
 1021000    1.0642528   -7.1190816    404.99684   0.03305557  0.033731811            2 
 1022000    1.0758484   -7.1084174    407.63533  0.033238366  0.033724681            2 
 1023000    1.0900446   -7.1409818     408.1017  0.033243866  0.033717415            1 
 1024000    1.0796815   -7.1036784    408.39185  0.033235014  0.033710284            3 
 1025000    1.0802776   -7.1413669    407.55757  0.033134762  0.033702765            3 
 1026000    1.0805476   -7.1446521    409.96758  0.033298211  0.033695223            1 
 1027000    1.0794797   -7.1363165    408.41748  0.033140009  0.033687742            4 
 1028000    1.0707147   -7.1223885     409.2189  0.033172738  0.033680275            3 
 1029000    1.0917688   -7.1329926      409.008  0.033123421  0.033672831            2 
 1030000    1.0965088   -7.0733917    410.16765  0.033185085  0.033665491            2 
 1031000    1.0665041   -7.1348354    410.76715  0.033201354  0.033658266            4 
 1032000    1.0772791   -7.1373803    410.16759  0.033120768  0.033650975            2 
 1033000    1.0866935   -7.1191221     410.2952     0.033099  0.033643652            2 
 1034000    1.0780783   -7.1346347     411.2897  0.033147139  0.033636321            1 
 1035000    1.0758002   -7.1380603    412.86894  0.033242265  0.033629008            2 
 1036000    1.0797481   -7.1169279     412.7582  0.033201271  0.033621768            2 
 1037000    1.0777361   -7.1517401    411.41471  0.033061292  0.033614644            3 
 1038000    1.0877317   -7.1349465    413.22124  0.033174474   0.03360726            2 
 1039000    1.0819016   -7.1640054    412.05915  0.033049339  0.033599678            3 
 1040000    1.0816535   -7.1394798    411.79086  0.032996062  0.033592113            1 
 1041000    1.0868509   -7.1793895    412.48003  0.033019535   0.03358434            2 
 1042000    1.0614515   -7.1512355    412.74578    0.0330091  0.033576373            1 
 1043000    1.0801201   -7.1081956    414.70368  0.033133883  0.033568726            1 
 1044000    1.0739364   -7.1676399    413.41161  0.032999011   0.03356082            1 
 1045000    1.0887083   -7.1903367    413.46414  0.032971622  0.033553059            1 
 1046000    1.0720876   -7.1185504    414.16234  0.032995725  0.033545236            2 
 1047000    1.0901134   -7.1664335    413.36682  0.032900893  0.033537322            2 
 1048000    1.1076652    -7.169513    414.91807  0.032992849  0.033529595            1 
 1049000    1.0781022   -7.1455757    415.35555  0.032996151  0.033522059            1 
 1050000    1.0764615   -7.1155569    415.57173  0.032981883  0.033514918            1 
 1051000    1.0813117   -7.1540683    415.74589  0.032964311  0.033507531            2 
 1052000    1.0635397   -7.1245749    416.76436  0.033013654  0.033500106            1 
 1053000    1.0964045   -7.1414271    416.71652  0.032978516  0.033492704            3 
 1054000    1.0770904    -7.161112    418.29877  0.033072326  0.033485387            1 
 1055000    1.0786826   -7.0929674    418.17579  0.033031263  0.033478274            3 
 1056000    1.0770615   -7.1427351    417.31206  0.032931823  0.033471062            1 
 1057000    1.0737284   -7.1428781     419.0294  0.033036061  0.033463707            1 
 1058000    1.0736092   -7.1285981    418.40253  0.032955461  0.033456255            3 
 1059000    1.0849625   -7.1142724    419.22527  0.032989083  0.033448856            1 
 1060000    1.0862994   -7.1409274    420.27633  0.033040592  0.033441731            3 
 1061000    1.0736008   -7.1621198    420.61911  0.033036374   0.03343428            1 
 1062000    1.0971694   -7.1336054    420.05245  0.032960801  0.033427104            2 
 1063000    1.0900576   -7.1556516    421.19907  0.033019683  0.033420028            1 
 1064000    1.0782951   -7.1008961    420.59479  0.032941321  0.033412619            3 
 1065000    1.0991433   -7.1118697     421.7392  0.032999937  0.033405232            2 
 1066000     1.073961   -7.1739185    420.47552  0.032870194  0.033398033            2 
 1067000    1.1037778   -7.1348627    422.02803   0.03296064  0.033390739            2 
 1068000     1.075249   -7.1826228    420.96041  0.032846474  0.033383438            1 
 1069000    1.0760481   -7.1441005    422.49615  0.032935466  0.033375871            3 
 1070000    1.0655054   -7.1393224    421.76443  0.032847697  0.033368769            2 
 1071000    1.0902813   -7.1119491    421.69605  0.032811706  0.033361459            3 
 1072000    1.1017199   -7.1610001    422.97247  0.032880322  0.033354139            3 
 1073000    1.0923012   -7.1672306    421.50131  0.032735423  0.033346513            1 
 1074000    1.0631225    -7.188465    421.93442  0.032738549  0.033339088            2 
 1075000    1.0823935   -7.1671657    423.22187  0.032807897  0.033331454            1 
 1076000     1.047537    -7.154094    422.81572  0.032745951  0.033323828            2 
 1077000    1.0891315    -7.134052    425.15339  0.032896424  0.033316211            2 
 1078000    1.0648283   -7.1511557    424.94296  0.032849642  0.033308823            2 
 1079000    1.0770132   -7.1662034    424.07028  0.032751798  0.033301287            2 
 1080000    1.0756922   -7.1348651    425.83769  0.032857846  0.033293945            2 
 1081000    1.0628933   -7.1659194    426.55425   0.03288269  0.033286571            2 
 1082000    1.0817709   -7.1431571    426.49267  0.032847556  0.033279205            2 
 1083000     1.070868   -7.1331024    426.82041  0.032842445  0.033271903            2 
 1084000    1.0875853    -7.127207    427.39297  0.032856163  0.033264615            1 
 1085000    1.0757841   -7.1671491    427.86292  0.032861975  0.033257302            1 
 1086000    1.0528019   -7.1856518    427.35197  0.032792508  0.033249953            2 
 1087000    1.0663465   -7.1538216    427.12458  0.032744908  0.033242639            1 
 1088000    1.0793816   -7.1438202    428.71955  0.032836975  0.033235578            2 
 1089000    1.0786316   -7.1493239    428.08879  0.032758555  0.033228378            2 
 1090000     1.088752   -7.1493213    427.65622   0.03269543  0.033221242            1 
 1091000    1.0792435   -7.1688767    428.12053  0.032700926  0.033213928            1 
 1092000    1.0646567   -7.1472268    429.72677  0.032793557  0.033206517            1 
 1093000    1.0576076   -7.1330807    429.87223  0.032774644  0.033199375            4 
 1094000    1.0692912   -7.1472693    431.67818   0.03288225  0.033192375            8 
 1095000    1.0788987   -7.1451761    430.60584  0.032770612  0.033185431            2 
 1096000    1.1052372   -7.1712044    430.66295  0.032745054  0.033178459            2 
 1097000    1.0822291   -7.1074541    432.22658  0.032833985  0.033171544            3 
 1098000    1.0803787   -7.1546228    431.21983  0.032727674  0.033164483            1 
 1099000     1.078893   -7.1712046    432.59138  0.032801894  0.033157236            1 
 1100000    1.0811156   -7.1578154    432.10285  0.032735064  0.033149995            1 
 1101000    1.0793849   -7.1835905    432.05407   0.03270164   0.03314283            1 
 1102000     1.089248   -7.1405618    432.06381  0.032672702  0.033135712            2 
 1103000     1.102864   -7.1257733    432.75917  0.032695616  0.033128556            2 
 1104000    1.0770813   -7.1588672    432.55925  0.032650909  0.033121637            1 
 1105000    1.0737498   -7.1578504    433.89945  0.032722432  0.033114448            4 
 1106000    1.0659665   -7.1674342      433.724  0.032679627  0.033107361            5 
 1107000     1.078087   -7.1515896    433.53282  0.032635713  0.033100112            3 
 1108000    1.0692184   -7.1887472    433.20601  0.032581679   0.03309275            2 
 1109000    1.0732785   -7.1644398    434.69248  0.032663997    0.0330857            3 
 1110000    1.0597683   -7.1338108    434.60839  0.032628258  0.033078586            1 
 1111000    1.0712285   -7.1453497    435.97188  0.032701161   0.03307139            2 
 1112000     1.086248   -7.1611959    436.01544  0.032675018  0.033064154            2 
 1113000    1.0753718    -7.203212     434.2955  0.032516884  0.033056868            1 
 1114000    1.0864594   -7.1947219     434.8724   0.03253085  0.033049591            1 
 1115000    1.1025501    -7.173361    436.01977  0.032587426  0.033042195            1 
 1116000    1.0742337   -7.1535549    436.05719  0.032561021  0.033035096            2 
 1117000    1.0798546   -7.1602175    436.80386  0.032587575  0.033027895            5 
 1118000    1.0686389   -7.1911279    437.92832  0.032642242  0.033020666            3 
 1119000    1.0879287   -7.1578231    438.34046  0.032643764  0.033013397            2 
 1120000    1.0669539   -7.1698422    437.94946  0.032585525  0.033006349            3 
 1121000     1.069056   -7.1499235    439.38286  0.032663014  0.032999233            2 
 1122000     1.065186   -7.1663202    437.18118  0.032470379  0.032992202            7 
 1123000    1.0891222   -7.1473473     437.7934  0.032486895  0.032984847            3 
 1124000    1.0771613   -7.1823498    438.27819  0.032493935  0.032977668            2 
 1125000    1.0708979   -7.1829754    438.04414  0.032447714  0.032970214            1 
 1126000    1.0843767    -7.203642     438.7763  0.032473083  0.032962876            1 
 1127000    1.0670151   -7.1499651    440.39458  0.032563929  0.032955438            2 
 1128000    1.0664312   -7.1763424    439.28652  0.032453201  0.032947921            1 
 1129000    1.0727037   -7.1367122     441.1431  0.032561493  0.032940418            2 
 1130000    1.0558773   -7.1762713    440.07635  0.032454008  0.032932889            1 
 1131000    1.0654761   -7.1454688    441.16545  0.032505559  0.032925302            4 
 1132000    1.0765455   -7.1860029    440.01228  0.032391953  0.032917713            1 
 1133000    1.0435683   -7.1604551    440.87227  0.032426616  0.032910142            2 
 1134000    1.0535462      -7.1331     439.6432  0.032307702  0.032902427            2 
 1135000    1.0579358   -7.1897552    440.14058  0.032315755  0.032894701            1 
 1136000    1.0717543   -7.1493242    442.45201  0.032456867  0.032886917            2 
 1137000    1.0953109   -7.1687732    442.48886  0.032431022  0.032879112            2 
 1138000    1.0801249   -7.1520497    441.93304  0.032361822  0.032871192            2 
 1139000    1.0723368   -7.1344753    441.56892  0.032306769  0.032863305            2 
 1140000    1.0721069   -7.1691298    442.76687  0.032365999  0.032855348            2 
 1141000    1.0562718   -7.1995183    440.55046  0.032175757  0.032847263            1 
 1142000    1.0859578   -7.1965897    440.69648  0.032158237  0.032838811            1 
 1143000    1.0504492   -7.1810233    442.06066  0.032229561  0.032830509            4 
 1144000    1.0531318   -7.1749742    442.66869  0.032245679  0.032822483            2 
 1145000     1.064108   -7.1677933    443.87094  0.032305017   0.03281446            2 
 1146000    1.0790616   -7.1518473    444.40552  0.032315701  0.032806517            3 
 1147000     1.079106   -7.1853957    443.32385   0.03220894  0.032798498            2 
 1148000    1.0752237   -7.1749232    444.14245  0.032240306  0.032790418            1 
 1149000    1.0708083    -7.189027    443.76799  0.032185088  0.032782661            1 
 1150000    1.0764287   -7.1325123     443.8011    0.0321595  0.032774883            2 
 1151000     1.062214   -7.1675722    445.83313   0.03227868  0.032767219            1 
 1152000    1.0495006   -7.1406684    445.85585  0.032252304  0.032759446            1 
 1153000    1.0599843   -7.2069364    442.65463  0.031992963   0.03275121            2 
 1154000    1.0704764   -7.1307741    444.76556  0.032117675  0.032742967            3 
 1155000    1.0660321    -7.137114    447.49271  0.032286631  0.032734951            3 
 1156000    1.0454958   -7.1545253    447.05273  0.032226985  0.032727065            2 
 1157000     1.055674   -7.1782687    446.96336  0.032192693  0.032719057            1 
 1158000    1.0855065   -7.1607269    448.09716  0.032246485  0.032711115            2 
 1159000    1.0737042   -7.1877948    446.47485  0.032102017  0.032703117            2 
 1160000    1.0476028   -7.1709141    447.50141   0.03214809   0.03269531            2 
 1161000    1.0508032   -7.1881245    447.22033  0.032100225  0.032687315            1 
 1162000    1.0543836      -7.1711    447.54964  0.032096216  0.032679079            3 
 1163000    1.0697639   -7.1862559     449.4355  0.032203748  0.032671111            2 
 1164000    1.0521854   -7.1701693    448.15257  0.032084233  0.032663103            1 
 1165000    1.0629495   -7.1371498    448.71782  0.032097126  0.032655081       -1e+20 
 1166000    1.0654742   -7.2016641    447.61035  0.031990448  0.032646883            2 
 1167000    1.0726258    -7.174047    448.93993  0.032057978  0.032638672            2 
 1168000    1.0424303   -7.1959901    449.36958  0.032061186  0.032630696            3 
 1169000     1.077988    -7.177997    450.81101  0.032136514  0.032622559            2 
 1170000    1.0643364   -7.1800272    450.40215  0.032079925  0.032614557            2 
 1171000    1.0499793   -7.1826116    451.34893  0.032119907  0.032606644            3 
 1172000    1.0695394   -7.1765905    450.98894  0.032066904  0.032598726            2 
 1173000    1.0450424   -7.1650338    451.96971  0.032109244    0.0325908            2 
 1174000    1.0665684   -7.1668686    451.13938  0.032022954  0.032582863            1 
 1175000    1.0724089   -7.1968017    452.00713  0.032057243  0.032574794            1 
 1176000    1.0585275   -7.1746989    451.90568  0.032022795  0.032566605            2 
 1177000    1.0647995   -7.1952659    450.97394  0.031929619  0.032558411            3 
 1178000    1.0764497   -7.1663371    452.78052  0.032030314  0.032550146            1 
 1179000    1.0690639   -7.1637189    454.22888  0.032105519  0.032542011            1 
 1180000    1.0695672   -7.1769728    453.38707  0.032018861  0.032534183            2 
 1181000    1.0976883   -7.1824481    453.90146  0.032028046  0.032526176            4 
 1182000    1.0434333   -7.1961497    454.12553  0.032016746  0.032518234            2 
 1183000     1.028203    -7.190884    453.63422  0.031955073  0.032510279            1 
 1184000    1.0703226   -7.1930015    454.05677  0.031957825  0.032502214            2 
 1185000     1.062983   -7.1778445    455.40989  0.032026012  0.032494217            1 
 1186000    1.0352593     -7.18621    453.08839   0.03183589  0.032486122            2 
 1187000    1.0683433   -7.2052882     453.7372  0.031854619   0.03247782            3 
 1188000    1.0687606   -7.1924478    455.10917  0.031924044  0.032469481            3 
 1189000    1.0568764    -7.169766    454.38161  0.031846202  0.032461411            1 
 1190000    1.0509082   -7.2094562    454.73109  0.031843914  0.032453227            1 
 1191000     1.082887   -7.1543359    455.59614  0.031877704  0.032445085            2 
 1192000    1.0481257   -7.1410361    456.48173  0.031912873  0.032436825            1 
 1193000    1.0311039   -7.1642276    456.15107  0.031863025  0.032428828            2 
 1194000    1.0646034   -7.2086981    455.99422  0.031825392  0.032420854            2 
 1195000    1.0527133   -7.1747734     457.5719   0.03190878  0.032412828            2 
 1196000    1.0391975   -7.2167457    457.26374  0.031860629  0.032405049            1 
 1197000    1.0659058   -7.1951582    458.89068  0.031947277   0.03239694            3 
 1198000    1.0741198   -7.1889839    457.74873  0.031841175  0.032388993            1 
 1199000    1.0617591   -7.1784105    458.28801    0.0318521  0.032380946            3 
 1200000    1.0523461   -7.1921871    458.20814   0.03182001  0.032372864            4 
 1201000    1.0461122   -7.1534636    458.97785  0.031846923  0.032364814            1 
 1202000    1.0549416   -7.2248528    458.36288  0.031777792  0.032356796            2 
 1203000    1.0457179   -7.2076527    459.14015  0.031805219  0.032348682            2 
 1204000    1.0421875   -7.2325686    459.13901  0.031778725  0.032340639            2 
 1205000    1.0966118   -7.2257933    458.92847  0.031737792  0.032332556            1 
 1206000    1.0579008   -7.2064678    460.16595  0.031796984  0.032324444            2 
 1207000     1.042776   -7.2129969    461.79494  0.031883109  0.032316388            1 
 1208000    1.0560228   -7.2143183    460.02631  0.031734707  0.032308457            1 
 1209000    1.0589132   -7.1956293    460.83501    0.0317642  0.032300524            1 
 1210000    1.0503834   -7.1587967    461.97248  0.031816287  0.032292494            1 
 1211000    1.0507781     -7.18697    464.43298   0.03195933  0.032284572            3 
 1212000    1.0415019   -7.2039349    462.35821  0.031790306  0.032276716            3 
 1213000    1.0598498   -7.1974475     463.4458  0.031838816  0.032268795            3 
 1214000    1.0610026   -7.1786676    462.85316  0.031771908  0.032260834            2 
 1215000    1.0650859   -7.1933547    463.11792  0.031763918  0.032252948            1 
 1216000    1.0579253   -7.1995384    464.24825  0.031815258  0.032244978            2 
 1217000    1.0453943   -7.2067279    465.31637  0.031862255  0.032237113            4 
 1218000    1.0488742   -7.1861057    462.30939  0.031630364  0.032229148            1 
 1219000    1.0623732    -7.210505    463.69645  0.031699238   0.03222105            2 
 1220000    1.0613075   -7.1513032    463.91172  0.031687959  0.032212948            1 
 1221000    1.0861666   -7.1530134    464.66194  0.031713209  0.032205036            3 
 1222000    1.0454388   -7.2183095    464.11937  0.031650257  0.032197125            1 
 1223000    1.0622682   -7.1645007    465.92025  0.031747087  0.032189307            1 
 1224000    1.0664809   -7.1333891     465.6186  0.031700612  0.032181411            3 
 1225000    1.0792506   -7.1792475    465.81586  0.031688154  0.032173527            2 
 1226000    1.0411399   -7.1900926     466.2159  0.031689498  0.032165425            2 
 1227000    1.0847087    -7.186359    466.45796  0.031680111  0.032157363            1 
 1228000    1.0686457   -7.1961503    465.52752  0.031591173  0.032149211            3 
 1229000    1.0591631   -7.1937703    466.15085  0.031607733  0.032141075            2 
 1230000    1.0636387    -7.242799    467.35313  0.031663491  0.032133192            2 
 1231000    1.0568927   -7.2105858    466.44786  0.031576487  0.032125013            1 
 1232000    1.0363664   -7.1995359    466.95697  0.031585293  0.032117114            2 
 1233000    1.0447523   -7.2004496    467.88445  0.031622361  0.032109148            3 
 1234000    1.0617313   -7.2181807    467.25326   0.03155411  0.032100935            2 
 1235000    1.0543518   -7.2051871    467.49556  0.031544909  0.032092916            3 
 1236000    1.0292503   -7.1648364    469.68571  0.031667051  0.032084886            2 
 1237000    1.0680955   -7.1612708    468.60547  0.031568679  0.032076811            2 
 1238000    1.0352055   -7.2023785    468.99159   0.03156917  0.032068818            2 
 1239000     1.050568   -7.1840929    468.80757  0.031531314  0.032060637            2 
 1240000    1.0405294   -7.1549961    471.27228  0.031671524  0.032052802            2 
 1241000     1.069674   -7.1971385    469.67646  0.031538843  0.032044831            2 
 1242000    1.0804805   -7.2324803    470.26085  0.031552661  0.032036832            1 
 1243000    1.0430829   -7.2210253    469.76145  0.031493795  0.032028736            3 
 1244000    1.0580062   -7.1738554    470.99839  0.031551339  0.032020643            2 
 1245000    1.0442915   -7.2100797     470.1626  0.031470054  0.032012575            3 
 1246000    1.0536811   -7.1807789    470.66479  0.031478384  0.032004511            1 
 1247000    1.0257154   -7.1776657    470.09696  0.031415194  0.031996405            2 
 1248000    1.0626992   -7.1890851     471.9635  0.031514657  0.031988392            1 
 1249000    1.0490607   -7.1649982    473.26886  0.031576519  0.031980456            1 
 1250000    1.0659747   -7.2088288    472.57496  0.031504997  0.031972594            2 
 1251000    1.0430306   -7.1436807    473.44763  0.031537945  0.031964729            2 
 1252000    1.0610587   -7.2163658    472.56286  0.031453865  0.031956735            2 
 1253000    1.0476432   -7.2155953    473.13207  0.031466618  0.031948771            2 
 1254000    1.0580592   -7.2138893    472.56395  0.031403771  0.031940562            2 
 1255000    1.0527295   -7.2182942     473.8288  0.031462736  0.031932515            2 
 1256000     1.062611   -7.1775425    474.03884  0.031451622  0.031924645            1 
 1257000    1.0585598   -7.2147859    474.68173  0.031469221  0.031916733            2 
 1258000      1.05599   -7.2351383     474.4161   0.03142661  0.031908706            5 
 1259000    1.0208008   -7.2155182    474.45388  0.031404148  0.031900673            2 
 1260000    1.0357651   -7.2097638    475.12777  0.031423794  0.031892663            2 
 1261000    1.0573161   -7.2059085     475.4055  0.031417228  0.031884867            1 
 1262000    1.0751725    -7.241226    474.98995  0.031364894  0.031877067            1 
 1263000    1.0465897   -7.2059733    475.74526  0.031389896  0.031869296            3 
 1264000    1.0709001   -7.2129116    475.88526  0.031374292    0.0318614            2 
 1265000     1.038603   -7.2303599    475.68072  0.031336016  0.031853555            1 
 1266000    1.0632168   -7.2097714    476.53974  0.031367808  0.031845625            3 
 1267000     1.033963   -7.2449519    477.02088  0.031374696  0.031837748            3 
 1268000     1.070505   -7.2205868    477.24782  0.031364867   0.03182978            2 
 1269000    1.0542457    -7.220888    478.18443  0.031401657  0.031821934            1 
 1270000    1.0468226   -7.2291929    477.17595  0.031310758  0.031813947            2 
 1271000    1.0335382   -7.1988507    477.84902  0.031330253  0.031805956            1 
 1272000    1.0190043   -7.2468681    477.95794  0.031312758  0.031797787            4 
 1273000    1.0497507   -7.1786432    477.96524  0.031288638  0.031789517            1 
 1274000    1.0554473   -7.2336602    476.42982  0.031163646  0.031781313            1 
 1275000    1.0323441   -7.2378795    478.38165  0.031266775  0.031773272            2 
 1276000      1.05058   -7.2236367     478.5517  0.031253376  0.031765275            1 
 1277000    1.0572867   -7.2196406    480.10079  0.031329991  0.031757389            3 
 1278000     1.043855   -7.2254998    480.26238  0.031316013  0.031749416            4 
 1279000    1.0434013   -7.2293347    478.77999  0.031194943   0.03174133            1 
 1280000     1.071174   -7.2247773    480.38084  0.031274794  0.031733307            1 
 1281000    1.0356552   -7.2231146    479.13787   0.03116952  0.031725205            3 
 1282000    1.0371747   -7.2366988    478.63241  0.031112351  0.031716837            1 
 1283000    1.0579687   -7.2527399    478.78849  0.031098239  0.031708467            2 
 1284000    1.0493353   -7.2260912    480.49425  0.031184726  0.031700177            3 
 1285000    1.0391293   -7.2157073    480.77408  0.031178605  0.031691743            2 
 1286000    1.0545649   -7.2257993    480.28122  0.031122422  0.031683336            1 
 1287000    1.0486033   -7.2119657    482.43439  0.031237658  0.031675212            1 
 1288000    1.0452345   -7.1776745    480.96176  0.031118126  0.031666976            1 
 1289000    1.0551183    -7.170862    482.98658  0.031224889  0.031658953            2 
 1290000     1.055803   -7.1938572    482.55151  0.031172578  0.031651048            1 
 1291000    1.0599759   -7.2225004    483.02763  0.031179166  0.031643166            1 
 1292000    1.0567425    -7.201385    482.86896  0.031144799  0.031635289            1 
 1293000    1.0360369   -7.1970761    483.98493  0.031192635  0.031627284            1 
 1294000    1.0596095   -7.2129416    483.13417  0.031113741  0.031619268            2 
 1295000    1.0076832   -7.2359378    483.34734  0.031103433  0.031611254            6 
 1296000     1.043181   -7.2182162    483.83485   0.03111078  0.031603078            3 
 1297000    1.0565012   -7.2201084    482.79977  0.031020289  0.031594867            2 
 1298000    1.0420815   -7.1985669    483.12964  0.031017568  0.031586692            3 
 1299000    1.0384374   -7.2066424    484.53217  0.031083665  0.031578533            1 
 1300000    1.0406912   -7.2348699    483.78192  0.031011661  0.031570409            2 
 1301000    1.0340161   -7.2115404    482.84857   0.03092804  0.031562238            2 
 1302000    1.0440455   -7.1994886    485.14747  0.031051425   0.03155396            3 
 1303000    1.0388388   -7.2540016    485.45736  0.031047414  0.031545798            2 
 1304000    1.0575048    -7.244983     484.8666  0.030985851  0.031537668            3 
 1305000    1.0510529    -7.181536    486.45235  0.031063369  0.031529504            2 
 1306000    1.0555935   -7.2023316    486.32656  0.031031557  0.031521447            3 
 1307000    1.0506436   -7.2126803    487.09564   0.03105685  0.031513522            1 
 1308000    1.0503133   -7.1959307    488.77011  0.031139788  0.031505563            2 
 1309000    1.0660603   -7.2401764    485.84473  0.030929764  0.031497559            1 
 1310000    1.0434331   -7.2047917    486.02681  0.030917736   0.03148949            2 
 1311000    1.0348122    -7.226107    486.40732   0.03091834  0.031481273            1 
 1312000    1.0464611   -7.2169293    485.99496  0.030868583  0.031473065            4 
 1313000    1.0339367   -7.2296101    487.44149  0.030936881  0.031464825            3 
 1314000    1.0579864   -7.1930138    488.72029  0.030994438  0.031456661            3 
 1315000    1.0597436   -7.2107055    487.89336  0.030918464  0.031448448            1 
 1316000    1.0322159   -7.2723364     488.8811  0.030957517  0.031440255            1 
 1317000    1.0413797   -7.2024294    488.78913  0.030928191  0.031432038            1 
 1318000    1.0237481   -7.2091256    490.26696  0.030998164  0.031423939            2 
 1319000    1.0260678   -7.2085124    489.53405  0.030928358  0.031415911            1 
 1320000    1.0494996   -7.2256082    490.13217  0.030942687  0.031407884            3 
 1321000    1.0507994   -7.2210905    490.79666  0.030961182  0.031399888            3 
 1322000     1.059349   -7.2167718    488.93001  0.030820097  0.031391685            3 
 1323000    1.0476471   -7.2791312     490.5002  0.030895704  0.031383399            1 
 1324000     1.044981    -7.240473    489.71235  0.030822781  0.031375047            2 
 1325000    1.0328552   -7.2570993    489.85061  0.030808214  0.031366676            2 
 1326000    1.0463399   -7.2603413    491.78102  0.030906298  0.031358346            1 
 1327000    1.0266713   -7.2486577    489.60929  0.030746627  0.031350245            2 
 1328000    1.0053244   -7.1954793    493.34939  0.030958169  0.031342183            2 
 1329000    1.0456547   -7.2222646    492.13262  0.030858579  0.031334126            1 
 1330000    1.0673785   -7.2290533    492.43627  0.030854403  0.031326024            2 
 1331000    1.0414342   -7.2522898    492.29506  0.030822381   0.03131793            1 
 1332000     1.034805   -7.2742625    494.75908  0.030953396  0.031309945            1 
 1333000    1.0496535    -7.197432    494.55931  0.030917686  0.031301989            1 
 1334000    1.0612216   -7.1906211    493.58145  0.030833424  0.031294041            2 
 1335000    1.0399684    -7.199598    495.45991  0.030927585  0.031286053            1 
 1336000    1.0357953   -7.2131088    494.12233  0.030821004  0.031277978            2 
 1337000    1.0587248   -7.2392447    495.21788  0.030866235  0.031269802            2 
 1338000     1.054811   -7.2439302    494.00975  0.030767921  0.031261685            4 
 1339000    1.0385922    -7.226021    494.84206  0.030796742  0.031253627            2 
 1340000    1.0422144   -7.2369455    495.07358  0.030788158   0.03124555            4 
 1341000     1.044943   -7.1903216    494.93777  0.030756759   0.03123769            3 
 1342000    1.0319603   -7.2612906    495.36713  0.030760502  0.031229826            1 
 1343000    1.0202471     -7.25389     495.8019  0.030764576  0.031222091            1 
 1344000      1.05049   -7.2489203    497.28432  0.030833601  0.031214359            3 
 1345000    1.0318845   -7.2520212    496.23579  0.030745712  0.031206459            3 
 1346000    1.0143959   -7.2241788    497.99233   0.03083162  0.031198653            1 
 1347000    1.0288416   -7.2265928     497.2844  0.030764934  0.031190774            1 
 1348000    1.0195489    -7.232568    497.95194  0.030783379  0.031182847            2 
 1349000    1.0278358   -7.2528766    497.49827  0.030732535   0.03117479            7 
 1350000    1.0310741   -7.2888207    496.11629  0.030624462  0.031166683            1 
 1351000     1.031285   -7.2521474    498.42249  0.030744047  0.031158681            1 
 1352000    1.0400298   -7.2638089    497.18016  0.030644734  0.031150693            4 
 1353000    1.0232581   -7.2439291    497.69595  0.030653853  0.031142924            2 
 1354000    1.0369227   -7.2262807     498.4686  0.030678767  0.031134922            2 
 1355000      1.05118   -7.2176428    501.10768   0.03081843  0.031127008            1 
 1356000    1.0270291   -7.2536876     497.6803  0.030585073  0.031119132            3 
 1357000    1.0117717   -7.2625952    499.43134  0.030670065  0.031111123            1 
 1358000    1.0246821   -7.2727539    499.73223  0.030665945  0.031103109            3 
 1359000    1.0227723   -7.2360813     501.2753     0.030738  0.031095223            2 
 1360000    1.0400083   -7.2121109    499.77083  0.030623213   0.03108736            3 
 1361000    1.0407952    -7.233594    502.05804  0.030740757  0.031079623            1 
 1362000    1.0226328   -7.2155776    499.79297  0.030579599  0.031071713            1 
 1363000    1.0235592   -7.2297293    501.19409  0.030642827  0.031063745            2 
 1364000    1.0381895   -7.1969528    502.43789  0.030696352  0.031055935            2 
 1365000    1.0388495   -7.2212246    503.63883  0.030747181  0.031048219            1 
 1366000    1.0382555   -7.2499102    501.50299  0.030594374  0.031040331            2 
 1367000    1.0383929   -7.2581522    500.91301  0.030536028   0.03103236            2 
 1368000    1.0288251   -7.2350641     501.0343  0.030521095  0.031024518            3 
 1369000    1.0400414   -7.2605473    501.50564  0.030527492  0.031016526            2 
 1370000     1.053761   -7.2215153    503.07385  0.030600599  0.031008603            2 
 1371000    1.0231506   -7.2279997    503.79559  0.030622149  0.031000735            2 
 1372000    1.0225913   -7.2162154    504.65242  0.030651872  0.030992912            2 
 1373000    1.0518882   -7.2922304     502.1235  0.030476056  0.030984837            1 
 1374000    1.0328696   -7.2649786    504.48986  0.030597396  0.030976958            5 
 1375000    1.0218869   -7.2191084    503.37242  0.030507419  0.030969109            3 
 1376000    1.0395543   -7.2524138    503.39663  0.030486714  0.030961269            2 
 1377000    1.0103153   -7.2633249    504.98869  0.030560923  0.030953233            1 
 1378000    1.0270984   -7.2515711    504.67332  0.030519673  0.030945225            1 
 1379000    1.0290106   -7.2283467     506.3714  0.030600157  0.030937379            2 
 1380000    1.0378437   -7.2449734    505.16569  0.030505174  0.030929492            1 
 1381000    1.0204862   -7.2187261    505.87572  0.030525931  0.030921624            2 
 1382000    1.0494536   -7.2592226    504.42747  0.030416514  0.030913733            4 
 1383000      1.02592   -7.2553848     505.9722  0.030487599  0.030905709            2 
 1384000    1.0479608   -7.2282289    506.72113  0.030510665  0.030897743            5 
 1385000    1.0519892   -7.2618125    505.42045  0.030410376  0.030889822            2 
 1386000     1.046924    -7.267705    506.98437  0.030482465  0.030881894            1 
 1387000     1.028619   -7.2870699    505.62175   0.03037862  0.030873952            4 
 1388000    1.0164251   -7.2269812    508.31136  0.030518213  0.030866061            2 
 1389000    1.0361822   -7.2443623    508.02303  0.030478943   0.03085811            1 
 1390000    1.0566089   -7.2945564    505.69706   0.03031757  0.030850133            2 
 1391000    1.0123138   -7.2857428    507.05011  0.030376834   0.03084211            4 
 1392000    1.0406655   -7.1999143    507.45034  0.030378971  0.030834246            2 
 1393000     1.036327   -7.2812602    508.25032   0.03040502  0.030826296            3 
 1394000    1.0207193    -7.248506    509.25023  0.030442984  0.030818291            3 
 1395000    1.0270163   -7.2930556    506.71819  0.030269904   0.03081035            2 
 1396000    1.0242253   -7.2603272    509.60607   0.03042061  0.030802296            1 
 1397000    1.0476329   -7.2673559    509.62054  0.030399698  0.030794272            2 
 1398000    1.0163163   -7.2527072    508.11871   0.03028843  0.030786435            1 
 1399000    1.0183305   -7.2383974    512.09136  0.030503416  0.030778784            2 
 1400000    1.0582446   -7.2321029    510.75221  0.030401917  0.030771163            2 
 1401000    1.0160964   -7.2710508    510.85285  0.030386203  0.030763451            1 
 1402000    1.0270955    -7.279459    509.86471  0.030305796  0.030755707            1 
 1403000    1.0197254   -7.2660988    510.49269  0.030321495  0.030747847            2 
 1404000    1.0449751   -7.2615541     512.5778  0.030423659  0.030740208            2 
 1405000    1.0228011   -7.2345892    512.08327  0.030372673  0.030732643            3 
 1406000    1.0186666   -7.2810781    511.83232  0.030336197   0.03072509            4 
 1407000     1.021721   -7.2460548     512.6087  0.030360619  0.030717395            1 
 1408000    1.0267517   -7.2736907    512.13693  0.030311135  0.030709837            2 
 1409000    1.0159092   -7.2740065    511.92086  0.030276843  0.030702153            6 
 1410000    1.0264927   -7.2854237    513.30838  0.030337375  0.030694346            1 
 1411000    1.0226346   -7.2644611    514.48873  0.030385585  0.030686761            1 
 1412000     1.046622   -7.2731467    513.31996  0.030295087  0.030679176            2 
 1413000    1.0074921   -7.2445336    514.52872  0.030344935  0.030671612            1 
 1414000    1.0399891   -7.2354394    515.62692  0.030388196  0.030664287            2 
 1415000    1.0319955   -7.2759936     515.1977  0.030341443  0.030656917            2 
 1416000    1.0156704   -7.2144761    515.53687  0.030339976  0.030649326            1 
 1417000    1.0413529    -7.272372    515.24071  0.030301147  0.030641626            2 
 1418000    1.0189121   -7.2809774    513.84711  0.030197879  0.030633945            3 
 1419000    1.0362214   -7.2799626    514.94774  0.030241234  0.030626192            3 
 1420000    1.0301417   -7.2559503    516.00336  0.030281887  0.030618463            2 
 1421000    1.0522239   -7.2880002    514.83346  0.030191969  0.030610787            1 
 1422000    1.0305372   -7.2975881    516.95566  0.030295104   0.03060304            3 
 1423000    1.0331509   -7.2604868    516.31258  0.030236155  0.030595333            2 
 1424000    1.0396884   -7.2635154    514.98935  0.030137486  0.030587552            2 
 1425000   0.99478632   -7.2996937    515.35188  0.030137537  0.030579718            1 
 1426000    1.0215559   -7.2333147    517.06664   0.03021661  0.030571808            2 
 1427000    1.0057037   -7.2481525    517.25848  0.030206639  0.030563969            2 
 1428000    1.0292282   -7.2502111    517.75924  0.030214708  0.030556176            2 
 1429000    1.0186556   -7.2410606    516.40033  0.030114318  0.030548333            3 
 1430000    1.0185109   -7.2581865     517.9434  0.030183182   0.03054051            2 
 1431000    1.0121549   -7.2712625     517.4411  0.030132838  0.030532557            2 
 1432000    1.0315335   -7.3147991    516.42374  0.030052592  0.030524546            2 
 1433000    1.0180626   -7.2584185    518.69902  0.030163934  0.030516603            3 
 1434000    1.0055052   -7.2947099    518.01494  0.030103146  0.030508673            3 
 1435000    1.0073534   -7.2597713    519.94877   0.03019447  0.030500799            3 
 1436000    1.0127965   -7.2368284    520.46113  0.030203176  0.030493169            2 
 1437000    1.0288626   -7.2903651    519.04064  0.030099782  0.030485398            2 
 1438000    1.0240905   -7.2967825    519.39982  0.030099665  0.030477662            1 
 1439000    1.0090721   -7.2901955    518.73462  0.030040226   0.03046998            2 
 1440000    1.0140327   -7.2735557    520.99115  0.030149951  0.030462299            2 
 1441000    1.0444856   -7.2497771    519.66673  0.030052436  0.030454438            3 
 1442000    1.0267736   -7.2694122    521.26025  0.030123685  0.030446727            2 
 1443000    1.0320116   -7.2631068    520.18724  0.030040843  0.030439101            2 
 1444000    1.0099191   -7.2667676    521.64165  0.030103973   0.03043143            1 
 1445000   0.99274093   -7.2948311     519.9633   0.02998635  0.030423691            1 
 1446000    1.0228197   -7.2721721    521.64017  0.030062251  0.030415994            2 
 1447000    1.0226605    -7.238656    520.76885  0.029991295  0.030408263            1 
 1448000    1.0318677   -7.2469115    522.34638  0.030061371  0.030400545            3 
 1449000    1.0233764   -7.2513371    523.01985  0.030079357  0.030392857            3 
 1450000    1.0035164   -7.2726221    522.78243  0.030044967    0.0303852            3 
 1451000    1.0425873   -7.3262731    521.83837  0.029970042  0.030377458            3 
 1452000    1.0157332   -7.2985664    521.57173  0.029934098  0.030369806            3 
 1453000     1.006803   -7.2616791    521.84856  0.029929373  0.030362094            1 
 1454000    0.9928399   -7.3107773    521.51064  0.029889422  0.030354252            2 
 1455000    1.0208654   -7.2686629    523.36782  0.029975247  0.030346455            2 
 1456000    1.0085225   -7.2815384    523.41243  0.029957213   0.03033859            1 
 1457000     1.023741   -7.2523363    524.38392  0.029992217  0.030330729            1 
 1458000    0.9961076   -7.3098064    524.49183  0.029977814  0.030322979            2 
 1459000    1.0127777   -7.2633199    525.15906  0.029995377  0.030315121            2 
 1460000   0.99800843   -7.2761168    523.32155  0.029869951  0.030307224            1 
 1461000    1.0004644   -7.3055156    525.29106  0.029961845  0.030299376            2 
 1462000    1.0019173   -7.2699444    525.33659  0.029943946   0.03029167            2 
 1463000    1.0149479   -7.2839227    525.45683  0.029930327  0.030283769            1 
 1464000    1.0110319   -7.2882498    525.89336  0.029934732   0.03027612            2 
 1465000    1.0252655   -7.2946668    526.52829  0.029950415  0.030268276            5 
 1466000    1.0033249   -7.3235127    524.66258   0.02982393  0.030260464            2 
 1467000    1.0257349   -7.3253944    526.20872  0.029891429  0.030252497            4 
 1468000    1.0200507   -7.2697688    526.32918  0.029877905  0.030244696            4 
 1469000   0.99781698   -7.2874945    527.81859  0.029942058  0.030236999            2 
 1470000    1.0166192   -7.2690606    528.40226  0.029954777  0.030229451            3 
 1471000    1.0183797   -7.2736191    528.33913  0.029930836  0.030221756            1 
 1472000    1.0257379   -7.2656873    528.00849  0.029891785   0.03021413            5 
 1473000    0.9877556   -7.2826379    527.67305  0.029852515  0.030206439            3 
 1474000    1.0098601   -7.2655041    528.34396  0.029870192  0.030198805            2 
 1475000     1.029725   -7.2629389    529.65061  0.029923763  0.030191173            2 
 1476000    1.0233667   -7.3006326    528.75615   0.02985299  0.030183628            2 
 1477000    1.0076131   -7.2912585    529.73899   0.02988823  0.030175923            3 
 1478000    1.0237226   -7.2885249    527.61996  0.029748532  0.030168323            3 
 1479000    1.0224889   -7.3123558     529.4667  0.029832471  0.030160668            1 
 1480000   0.99132653   -7.2741329    529.56838  0.029818039  0.030152863            2 
 1481000   0.99345127   -7.2959598    529.59074  0.029799164     0.030145            2 
 1482000   0.99484165   -7.2873555     529.6432  0.029782007  0.030137146            2 
 1483000    1.0149287   -7.2852633    529.91385  0.029777133  0.030129416            2 
 1484000    1.0223727   -7.3212533    530.72613   0.02980268  0.030121708            3 
 1485000     1.021014   -7.2862124    531.58104  0.029830586  0.030114046            1 
 1486000   0.99540143   -7.2782016    531.06968  0.029781835  0.030106378            3 
 1487000   0.99303522   -7.3049175    531.17321  0.029767609  0.030098661            2 
 1488000    1.0240334   -7.2618146    531.56297  0.029769432   0.03009095            2 
 1489000    1.0167002   -7.2512287    529.66791   0.02964338  0.030083213            1 
 1490000    1.0082561   -7.2884954    532.03217  0.029755714  0.030075588            1 
 1491000    1.0031528   -7.2981261    531.43276  0.029702256  0.030067839            1 
 1492000    1.0326052   -7.2859514    533.11527  0.029776322  0.030060129            1 
 1493000    1.0194652   -7.3012941    532.59266  0.029727208  0.030052381            1 
 1494000   0.98338175   -7.3069836    530.44473  0.029587501  0.030044525            2 
 1495000   0.98747047   -7.2807075    531.73552  0.029639661  0.030036708            1 
 1496000    1.0081674   -7.2743673    530.76321  0.029565687  0.030028911            1 
 1497000    1.0189152   -7.2918578    534.45157  0.029751256   0.03002112            3 
 1498000   0.99792997   -7.3025163    531.57756  0.029571516  0.030013302            3 
 1499000    1.0239241   -7.3100035    532.11757  0.029581808  0.030005312            1 
 1500000   0.99225184   -7.3086595    533.11588  0.029617549  0.029997348            2 
 1501000    1.0050264   -7.2836373    535.10174  0.029708069  0.029989408            1 
 1502000     1.020594   -7.3162491    532.36155   0.02953626  0.029981385            3 
 1503000    1.0241074   -7.3048413    533.65922  0.029588557  0.029973321            2 
 1504000    1.0119009   -7.3060163    533.63341  0.029567454  0.029965199            2 
 1505000    1.0210641   -7.3584034     531.9301  0.029453494  0.029957101            2 
 1506000   0.98752466   -7.3329759     532.2257  0.029450293  0.029949014            2 
 1507000   0.99559324   -7.3284967    533.64414  0.029509187  0.029940913            1 
 1508000     1.004182    -7.287109    533.06181  0.029457439  0.029932868            2 
 1509000     1.000523   -7.2842279    534.27168  0.029504732  0.029924772            2 
 1510000   0.98775442   -7.2896972    534.56668  0.029501473  0.029916685            1 
 1511000     1.016653   -7.3232426    532.72669  0.029380471  0.029908581            1 
 1512000   0.99674628   -7.3370682    533.45266  0.029401051  0.029900399            2 
 1513000   0.99646337   -7.3005776    535.27312  0.029481886  0.029892164            2 
 1514000    1.0182659   -7.3205919    535.35696  0.029467028  0.029884071            1 
 1515000    1.0046319   -7.2474115    535.88219  0.029476468   0.02987602            2 
 1516000   0.99780915   -7.2826221    536.83207  0.029509238  0.029868138            2 
 1517000     1.021365   -7.2686125    536.88885  0.029492905  0.029860251            2 
 1518000   0.98431926   -7.2857165    536.73604  0.029465088  0.029852296            3 
 1519000    1.0067177   -7.3225702    536.60781  0.029438655  0.029844313            2 
 1520000    1.0237086   -7.3093837    536.16636  0.029395085  0.029836226            2 
 1521000   0.99389755   -7.2725665    536.27813  0.029381883  0.029828243            3 
 1522000    1.0116332   -7.3190129    536.86925  0.029394944   0.02982009            2 
 1523000   0.99679208   -7.2866297    537.28077   0.02939816  0.029811873            2 
 1524000    1.0141052   -7.2739438    538.18145   0.02942812  0.029803811            2 
 1525000   0.99728831   -7.3236996    536.84369  0.029335721  0.029795854            2 
 1526000    1.0037148   -7.3229169    537.28285  0.029340479  0.029787729            1 
 1527000    1.0195505    -7.317993      538.728  0.029400131  0.029779624            2 
 1528000    1.0051553    -7.330268    538.32121  0.029358705  0.029771602            1 
 1529000      1.01292   -7.2882409    537.91469  0.029317347  0.029763455            1 
 1530000   0.99570049   -7.3308729    538.49577  0.029329835  0.029755364            2 
 1531000      1.01869   -7.3363304    538.21996  0.029295665    0.0297473            2 
 1532000   0.99402446   -7.3094135    539.67303  0.029355582  0.029739263            2 
 1533000    1.0013815   -7.3111101    539.92636  0.029350204  0.029731197            1 
 1534000    1.0213127   -7.2806821    538.77826  0.029268701  0.029723158            3 
 1535000    1.0053115   -7.2916756    541.36178   0.02938989  0.029715041            2 
 1536000    1.0048023   -7.3210779    540.87052  0.029344104  0.029707024            3 
 1537000    1.0294356   -7.3095481     540.5246  0.029306257  0.029698989            2 
 1538000   0.99187754   -7.3352359     540.0206  0.029259894  0.029690808            2 
 1539000    1.0192175     -7.29297    540.57091   0.02927068  0.029682696            1 
 1540000    1.0047685   -7.3162034    539.70347  0.029204733  0.029674499            2 
 1541000    1.0064881   -7.3022756    540.67472  0.029238304    0.0296663            2 
 1542000   0.98888155   -7.3148816    540.07173  0.029186756  0.029658204            2 
 1543000    1.0199676   -7.2926234     541.0571  0.029221058  0.029650086            2 
 1544000    1.0092888   -7.3485092    539.97753  0.029143865   0.02964191            5 
 1545000      1.01025   -7.3191282    541.29379  0.029195997  0.029633645            3 
 1546000   0.99698207   -7.3241552    541.56176  0.029191557  0.029625389            2 
 1547000    1.0072924   -7.2548701    543.61326  0.029283197  0.029617194            1 
 1548000    1.0049145   -7.2882493    540.83049  0.029114475  0.029609051            2 
 1549000   0.97293924   -7.2711242    542.80641   0.02920198    0.0296009            3 
 1550000    1.0142824   -7.3096434    541.74143  0.029125884  0.029592661            2 
 1551000   0.99474874   -7.3065909    543.16666  0.029183681  0.029584384            4 
 1552000    1.0092536   -7.3108228    543.02054  0.029157031  0.029576143            5 
 1553000    1.0024548   -7.3213655    544.04962  0.029193476  0.029567869            2 
 1554000   0.98681117   -7.3134527    541.58931  0.029042756  0.029559585            2 
 1555000    1.0154007   -7.3178123    543.00127  0.029099747  0.029551326            1 
 1556000    1.0198853   -7.3082615    544.38493  0.029155148  0.029543142            1 
 1557000    1.0153437    -7.289872    544.57427  0.029146557   0.02953498            4 
 1558000    1.0151923   -7.2983248    544.37947   0.02911743  0.029526847            2 
 1559000   0.97236648   -7.3545167    543.06782  0.029028641  0.029518588            3 
 1560000   0.98628524   -7.3469612    542.77516  0.028994399  0.029510238            1 
 1561000   0.99039697   -7.3137116    544.97187  0.029093096  0.029501963            1 
 1562000   0.99581951   -7.3183175    543.68565   0.02900585  0.029493725            3 
 1563000    1.0051423   -7.2721098    544.56556  0.029034206  0.029485549            5 
 1564000    1.0187475   -7.3008689    544.12898  0.028992379  0.029477354            1 
 1565000    0.9857533   -7.3071269    545.47425  0.029045487  0.029469095            2 
 1566000   0.99411476   -7.3322827    545.09958  0.029007002  0.029460773            1 
 1567000   0.99126337   -7.2930396    545.96791  0.029034669  0.029452536            2 
 1568000   0.98662606   -7.3133869    545.76495  0.029005365  0.029444333            2 
 1569000    1.0019446   -7.3401725    545.39324  0.028967136  0.029436043            2 
 1570000   0.99565022   -7.3252242    545.79309  0.028969909  0.029427694            2 
 1571000    1.0090322   -7.3260532    546.33731  0.028980337   0.02941939            1 
 1572000    1.0107404   -7.3272227      545.646  0.028925254  0.029411018            2 
 1573000    1.0319425   -7.3331833    546.00792   0.02892604  0.029402758            2 
 1574000   0.98660693   -7.3416063     545.6726  0.028889909  0.029394565            2 
 1575000   0.99997272   -7.3544608    547.73463  0.028980668  0.029386282            3 
 1576000    1.0087193   -7.3342366    546.41003  0.028892239  0.029377912            2 
 1577000    1.0046871   -7.3303494    548.05416  0.028960799  0.029369604            3 
 1578000   0.98231692   -7.2965719    547.39488   0.02890763  0.029361346            1 
 1579000   0.99419296   -7.3203892    547.51474  0.028895648  0.029353133            2 
 1580000   0.99929548   -7.3208456    547.77615  0.028891147  0.029344974            1 
 1581000    1.0090563   -7.3221698    550.18473  0.028999828  0.029336762            1 
 1582000    1.0093757   -7.3028332     548.8141  0.028909297  0.029328677            2 
 1583000     1.006921   -7.3192005    550.03965  0.028955551  0.029320603            2 
 1584000    1.0119073   -7.3039435    549.18794  0.028892463  0.029312607            3 
 1585000     1.011423   -7.3450086    549.13274  0.028871332  0.029304627            1 
 1586000    1.0172224   -7.3138383    549.66661  0.028881179  0.029296544            3 
 1587000    1.0113648   -7.3319198    550.21513  0.028891784  0.029288421            2 
 1588000    1.0188361   -7.3420693    551.08911  0.028919454  0.029280331            1 
 1589000   0.99986041   -7.3093251    550.98172  0.028895622  0.029272204            2 
 1590000    1.0124781   -7.3129977    551.22422  0.028890158  0.029264152            2 
 1591000    1.0191718   -7.3132321    550.90773  0.028855422  0.029256153            4 
 1592000    1.0096064    -7.308787    552.88066   0.02894057  0.029248159            3 
 1593000    1.0080989   -7.3398639    550.46667  0.028796122  0.029240072            2 
 1594000    1.0034396   -7.3420954    552.43176  0.028880791  0.029231952            2 
 1595000    1.0015257   -7.3199085    551.60707  0.028819596  0.029224048            2 
 1596000   0.99790652   -7.3392266    552.19838  0.028832413  0.029216136            1 
 1597000   0.99019433   -7.3779017    550.19017  0.028709568  0.029208005            1 
 1598000    0.9843895   -7.3266156    551.49156  0.028759468  0.029199847            2 
 1599000    1.0008785    -7.338636    551.92302  0.028763968  0.029191721            1 
 1600000    1.0074721   -7.2968222     553.6698  0.028836969  0.029183732            2 
 1601000   0.99216425   -7.3514176    552.09763  0.028737124  0.029175689            1 
 1602000   0.99476159   -7.3204622     552.7449  0.028752856  0.029167504            2 
 1603000   0.99958809   -7.3191632    553.22395  0.028759823  0.029159414            2 
 1604000    1.0006192   -7.3238063    552.26698  0.028692175  0.029151182            2 
 1605000   0.99385068   -7.3224957    552.39065  0.028680719  0.029142957            3 
 1606000   0.97660139   -7.3727787    552.87936  0.028688219  0.029134579            2 
 1607000   0.98947576   -7.3359228    554.83321  0.028771687  0.029126313            2 
 1608000   0.99152196     -7.32465    552.21245  0.028617975  0.029117945            3 
 1609000   0.98461888    -7.357199    554.92664  0.028740762   0.02910977            3 
 1610000    1.0020246   -7.3520835    552.41583  0.028592952  0.029101669            2 
 1611000   0.99401484   -7.3299164    555.82739  0.028751675  0.029093489            2 
 1612000   0.99805827   -7.3184128    554.34223  0.028657063  0.029085426            3 
 1613000   0.99730847    -7.324979    554.73086  0.028659375  0.029077352            2 
 1614000   0.97629429    -7.298549    554.88007  0.028649322  0.029069227            3 
 1615000    1.0058156   -7.3575466    554.24279  0.028598699    0.0290611            2 
 1616000    1.0001339   -7.3528669    554.78855  0.028609146  0.029052871            3 
 1617000   0.94763511   -7.3327999    555.23606  0.028614516  0.029044571            2 
 1618000    1.0005991   -7.3620237    556.08965  0.028640794  0.029036314            2 
 1619000   0.98433916   -7.3370206    556.03878  0.028620485  0.029028159            1 
 1620000    0.9898341   -7.3399191    556.56717  0.028629998  0.029020158            1 
 1621000    1.0049745   -7.3611248     555.4365   0.02855421  0.029012008            1 
 1622000    1.0124468   -7.3369762    557.16968  0.028625652  0.029003743            1 
 1623000   0.99180832   -7.3017096    557.56648  0.028628388  0.028995512            2 
 1624000   0.96576277   -7.3504855    557.22752  0.028593366  0.028987368            8 
 1625000   0.98931102   -7.3447138    555.49697  0.028487024  0.028979237            2 
 1626000   0.98420564   -7.3430013    556.17701  0.028504357   0.02897103            3 
 1627000   0.99294893   -7.3437086    558.71782  0.028616975  0.028962896            2 
 1628000   0.98572167   -7.3432925    557.85671  0.028555319  0.028954585            2 
 1629000   0.97866545   -7.2886298     556.9587  0.028491851  0.028946301            1 
 1630000   0.99876644   -7.3348054     557.3586  0.028494816   0.02893807            3 
 1631000   0.99650108   -7.3223066    556.61836  0.028439524  0.028929762            4 
 1632000    0.9930473   -7.3284861     558.3278  0.028509385  0.028921481            2 
 1633000    1.0002718   -7.3542908    557.05718  0.028427086  0.028913229            3 
 1634000   0.97779018   -7.3634884    557.30413  0.028422283  0.028904942            2 
 1635000   0.98594616   -7.3345918    558.60622  0.028471265  0.028896557            3 
 1636000   0.99265484   -7.3918194    557.30878  0.028387774  0.028888116            6 
 1637000    0.9962316   -7.3391498    558.49365   0.02843075  0.028879782            2 
 1638000   0.97757468   -7.3508159    560.05422  0.028492787  0.028871553            4 
 1639000   0.99230609   -7.3674342    558.43081  0.028392862  0.028863381            1 
 1640000   0.99477344   -7.3424878    559.50212  0.028429986  0.028855177            1 
 1641000   0.99745133   -7.3600678    558.72651  0.028373274  0.028846918            2 
 1642000   0.98155348   -7.3631784    560.43612  0.028442759  0.028838718            2 
 1643000   0.98893619   -7.3646155    557.56901  0.028280027  0.028830408            4 
 1644000    1.0004139   -7.3534492    562.04122  0.028489518  0.028822107            1 
 1645000   0.98870758    -7.357314     560.2735   0.02838265  0.028813735            2 
 1646000   0.99815582   -7.3289158    559.03844  0.028302878   0.02880531            1 
 1647000   0.97301691   -7.3280536     561.0638  0.028388171  0.028797038            4 
 1648000   0.97784302   -7.3305318    561.72746  0.028404504  0.028788756            1 
 1649000   0.98497587   -7.3628537    560.30646  0.028315467  0.028780407            1 
 1650000   0.98868425   -7.3283009    562.49593  0.028408885  0.028772017            3 
 1651000   0.97933242   -7.3689596    561.16525  0.028324513  0.028763701            1 
 1652000   0.98198802   -7.3778005    560.14305  0.028255804  0.028755326            3 
 1653000   0.97879067   -7.3515269    560.58317  0.028260898  0.028746892            4 
 1654000    1.0157419   -7.3554181     562.1811   0.02832432  0.028738581            2 
 1655000   0.98609855   -7.3450229    561.01329  0.028248403   0.02873026            4 
 1656000   0.98706105   -7.3418163    562.47239   0.02830477  0.028721903            2 
 1657000     0.996552   -7.3667396    562.35971  0.028282021   0.02871343            5 
 1658000    1.0035911    -7.365078    560.29848  0.028161363  0.028705024            3 
 1659000    0.9652791   -7.3677186    562.55703  0.028257838  0.028696693            1 
 1660000    0.9860154   -7.3702206    560.75576   0.02815039  0.028688382            1 
 1661000   0.99924022   -7.3423444    562.31254  0.028211546  0.028680016            1 
 1662000   0.97861954   -7.3566025    562.76597  0.028217307  0.028671561            1 
 1663000   0.98156773   -7.4002119    562.97954  0.028211041  0.028663214            2 
 1664000   0.96235289   -7.3288398    563.80786   0.02823557  0.028654856            2 
 1665000   0.97182015   -7.2890646     565.6421  0.028310415  0.028646582            2 
 1666000   0.98332916    -7.358928     562.6454  0.028143527  0.028638239            1 
 1667000   0.97516056   -7.3730747    563.48869  0.028168801   0.02862975            1 
 1668000   0.98773114   -7.3551491    563.43228  0.028149095   0.02862127            3 
 1669000   0.97118622   -7.3198901    565.07948  0.028214474  0.028612962            1 
 1670000   0.98375653   -7.3587063    562.05949  0.028046881   0.02860462            2 
 1671000    1.0061725   -7.3728193    563.45803  0.028099842  0.028596074            3 
 1672000   0.98292462    -7.371393    564.45624  0.028132787  0.028587573            2 
 1673000   0.98513511   -7.3628689    564.68463  0.028127348  0.028579105            2 
 1674000   0.97941762    -7.387908    563.82541  0.028067772  0.028570673            4 
 1675000   0.99139877   -7.3703529     564.2316  0.028071224  0.028562138            2 
 1676000   0.98737957   -7.3691125    564.90467  0.028087941  0.028553628            3 
 1677000   0.96615934   -7.3426731    565.42336  0.028096967  0.028545253            2 
 1678000   0.99050335   -7.3362133    565.52239  0.028085141  0.028536837            3 
 1679000   0.99625454   -7.3123169    567.34586  0.028158917  0.028528418            2 
 1680000   0.97011468   -7.3672709    564.85964  0.028018832  0.028519875            4 
 1681000   0.99572405   -7.3712579    565.12378  0.028015258  0.028511317            2 
 1682000    1.0054101   -7.3879647    565.11859  0.027998345  0.028502738            4 
 1683000   0.98761588   -7.3633021    565.36146  0.027993734  0.028494165            5 
 1684000   0.96521303   -7.3596346    563.80116  0.027899899  0.028485526            3 
 1685000    1.0019966   -7.2993709    565.57299  0.027970969  0.028476881            2 
 1686000   0.96589324   -7.3526501    565.72862  0.027962071  0.028468278            3 
 1687000   0.98821844    -7.362479    565.91634  0.027954769   0.02845962            1 
 1688000   0.98098676   -7.3598393    565.61459  0.027923311  0.028450943            3 
 1689000   0.99396426   -7.3562255    565.51002  0.027901619  0.028442368            2 
 1690000    0.9959609   -7.3528521    566.68171  0.027942885  0.028433828            2 
 1691000   0.97125345   -7.3092127    568.84471  0.028032954  0.028425289            2 
 1692000   0.96388125    -7.381602     567.7871  0.027964298  0.028416766            2 
 1693000   0.98956555   -7.3979378     567.4122  0.027929327  0.028408172            2 
 1694000    0.9777966   -7.3928898    566.29117  0.027857693   0.02839962            2 
 1695000   0.98122142   -7.3200522    568.73626  0.027961468  0.028391056            2 
 1696000   0.95949378   -7.3657044     567.3257  0.027875673  0.028382476            2 
 1697000   0.99716436   -7.3759572    568.52694  0.027918235  0.028373957            2 
 1698000    0.9747261   -7.3807615     569.4468  0.027946938   0.02836553            2 
 1699000   0.97584274   -7.3771384    567.88238  0.027853756  0.028356972            2 
 1700000   0.98530707   -7.3572334    568.21546  0.027853699  0.028348495            3 
 1701000    0.9699362    -7.350837    569.22325  0.027886697  0.028340028            1 
 1702000   0.98550452   -7.3397566    567.81764  0.027801491  0.028331521            2 
 1703000   0.98626295   -7.3312924    569.41036  0.027863102  0.028323064            3 
 1704000   0.97714356   -7.3739128    568.55946  0.027805138  0.028314547            2 
 1705000   0.98865187   -7.3588887    568.57433  0.027789557  0.028305935            2 
 1706000   0.99872302    -7.362317    569.48582  0.027817791  0.028297348            2 
 1707000    0.9796293   -7.3846112    570.46238  0.027849169  0.028288827            3 
 1708000   0.97668008   -7.3897991    569.99135  0.027809883  0.028280312            2 
 1709000   0.96399768   -7.3829645    567.61899   0.02767793  0.028271717            1 
 1710000   0.99988472   -7.3610257     569.8895  0.027772393  0.028263166            1 
 1711000   0.97761212   -7.3724339    570.09218  0.027766033  0.028254635            2 
 1712000   0.99198911   -7.3907273     570.0764  0.027749046  0.028246045            1 
 1713000   0.99130331   -7.3681196    571.08029  0.027781684   0.02823743            2 
 1714000   0.97081121   -7.3735162    571.43561  0.027782751  0.028228966            2 
 1715000    0.9737498   -7.3637867    571.97207  0.027792618  0.028220504            1 
 1716000    0.9881153   -7.3744187     570.9962  0.027729031  0.028212098            2 
 1717000   0.98239837   -7.3816884    573.79122  0.027848535  0.028203723            2 
 1718000   0.95091109   -7.3733756    570.01122  0.027648973  0.028195336            2 
 1719000   0.96868855   -7.3511569    573.22064  0.027788474  0.028186959            1 
 1720000   0.96748809   -7.3361316    572.32789  0.027729065   0.02817871            1 
 1721000    0.9931557   -7.3463735     572.8899  0.027740166  0.028170399            3 
 1722000   0.98147433   -7.3753481    571.92034  0.027677136   0.02816196            1 
 1723000    0.9871004   -7.3625752    572.15786   0.02767256  0.028153491            1 
 1724000    0.9832166   -7.3969375    571.46124  0.027622837  0.028144976            2 
 1725000    0.9772482   -7.3575247    573.26908  0.027694158  0.028136523            6 
 1726000   0.97081913   -7.4044419    574.24455   0.02772521  0.028127992            3 
 1727000   0.98978417    -7.386941    571.92557  0.027597258  0.028119518            1 
 1728000   0.97001735   -7.3776076    573.27625  0.027646424  0.028111048            1 
 1729000   0.97484725   -7.3626874    575.57201  0.027741084   0.02810255            1 
 1730000    1.0051402   -7.3582513    573.11047  0.027606477  0.028094072            2 
 1731000   0.94825674   -7.3739946     573.6438  0.027616204   0.02808559            3 
 1732000   0.98147605   -7.3710602    574.76441  0.027654177  0.028077103            2 
 1733000   0.94185231    -7.357182    576.49902   0.02772163  0.028068655            2 
 1734000   0.98497404   -7.3469469    575.62579  0.027663677   0.02806024            2 
 1735000   0.98150376   -7.3831031    574.97553    0.0276165  0.028051848            2 
 1736000   0.97035282    -7.389426    576.06692  0.027652982   0.02804345            4 
 1737000   0.98242229   -7.3900928    575.58697  0.027614036  0.028035033            1 
 1738000   0.98781497    -7.356814    576.21918  0.027628461  0.028026707            1 
 1739000   0.98389328   -7.3782766    576.10863  0.027607276  0.028018449            2 
 1740000   0.97747457   -7.3482118      577.605  0.027663075  0.028010189            3 
 1741000   0.98047296   -7.3655784    579.61989  0.027743629  0.028001878            3 
 1742000   0.97740433   -7.3785191    575.58564  0.027534713  0.027993707            1 
 1743000   0.96987672   -7.3832275    577.22599  0.027597341  0.027985531            1 
 1744000   0.95245715   -7.3940881          578  0.027618502  0.027977378            2 
 1745000   0.98199528   -7.3425172    577.77126  0.027591751  0.027969158            4 
 1746000   0.95987528   -7.3395857    578.36241  0.027604162  0.027960993            1 
 1747000   0.96600412   -7.4125922    577.02132  0.027524391  0.027952728            1 
 1748000   0.97406882   -7.3764356    576.58689  0.027487933  0.027944408            2 
 1749000   0.99543537    -7.381954    578.10255  0.027544433  0.027936153            2 
 1750000   0.94415408   -7.4137126    577.62255  0.027505836  0.027927788            2 
 1751000     1.000742   -7.3544417    578.08095  0.027511943  0.027919469            2 
 1752000   0.95398678   -7.3886831    579.23776  0.027551263  0.027911169            2 
 1753000   0.98259118   -7.3736441    578.87857  0.027518472  0.027902888            5 
 1754000   0.95682612   -7.3869421    578.53855  0.027486628  0.027894612            4 
 1755000   0.97115543   -7.4129254    578.16252  0.027453111  0.027886278            4 
 1756000   0.98126072   -7.3738814    579.64511  0.027507836  0.027877982            2 
 1757000   0.96782629   -7.3857338    579.97016  0.027507596  0.027869657            2 
 1758000   0.96332184   -7.3972624    579.89567  0.027488418  0.027861268            2 
 1759000   0.97245104   -7.3810418    578.97431  0.027429141  0.027852948            4 
 1760000   0.98023623   -7.4019584    580.93031   0.02750617  0.027844708            3 
 1761000   0.97633034   -7.4078277    579.07341  0.027402679  0.027836401            3 
 1762000   0.95170948   -7.3817324    579.91283  0.027426827  0.027828095            2 
 1763000   0.97177866   -7.3825358    579.08559  0.027372168  0.027819822            2 
 1764000   0.96612877   -7.4161251    579.87283  0.027393841  0.027811461            1 
 1765000    0.9776022   -7.3593702    581.43216  0.027451944  0.027803198            2 
 1766000   0.96040695   -7.3672387    581.57498  0.027443138  0.027794977            3 
 1767000   0.95458023   -7.4138148    580.09868  0.027357984  0.027786818            4 
 1768000   0.96959963   -7.3875203    580.93712  0.027382028   0.02777855            4 
 1769000   0.95262959   -7.3731101    582.74395  0.027451665  0.027770422            2 
 1770000   0.97474646    -7.386984    580.90979  0.027349802  0.027762361            2 
 1771000   0.96188721   -7.3985172     581.3115  0.027353261   0.02775412            1 
 1772000    0.9798975   -7.3669357    581.45911  0.027344766  0.027745889            4 
 1773000   0.99494461   -7.3779787    583.09962  0.027406449  0.027737692            2 
 1774000   0.96284577   -7.4169544    580.62526  0.027274768  0.027729478            2 
 1775000   0.96650332   -7.4325238    580.84637  0.027269783  0.027721187            3 
 1776000   0.95866143   -7.4069066    583.33296  0.027371104  0.027712949            2 
 1777000    0.9800383   -7.3866841    582.32254  0.027308316  0.027704701            1 
 1778000   0.95848897   -7.4118749    583.56908  0.027351382  0.027696544            1 
 1779000   0.97259344   -7.4015392    584.11364  0.027361516    0.0276885            6 
 1780000    0.9646259   -7.4004762     583.3165  0.027308825  0.027680377            3 
 1781000   0.98089332   -7.3902871    583.60751  0.027307108  0.027672165            1 
 1782000   0.94902436   -7.4370963    583.60551   0.02729169  0.027664058            4 
 1783000   0.97689228   -7.3876641    585.30893  0.027355998  0.027656001            1 
 1784000   0.97128269   -7.3888437    587.09479  0.027424084   0.02764803            1 
 1785000   0.95933115    -7.418496    584.67079  0.027295555  0.027639984            2 
 1786000   0.97911619   -7.4060228    585.58587  0.027322969   0.02763199            1 
 1787000   0.96411205   -7.3953854    586.27514  0.027339822   0.02762387            2 
 1788000    0.9712173    -7.387885    586.67705  0.027343263  0.027615865            4 
 1789000   0.97869625   -7.3640094     586.8629  0.027336636  0.027607902            2 
 1790000   0.96726305   -7.3903835    586.02567  0.027282387  0.027599936            1 
 1791000   0.94331764   -7.4130869    585.71506  0.027252702  0.027591959            2 
 1792000   0.97260007   -7.3781295    587.53391  0.027322076  0.027583971            1 
 1793000   0.96314447   -7.3908657    587.48389  0.027304512  0.027575991            4 
 1794000    1.0050709   -7.3971802      587.822  0.027304998  0.027568135            3 
 1795000   0.96105831   -7.3796928    588.35605   0.02731458  0.027560234            2 
 1796000   0.96354431   -7.4024629     588.0533  0.027285324  0.027552463            2 
 1797000   0.96204271   -7.4198414    589.22902  0.027324662  0.027544649            1 
 1798000   0.95775838   -7.3671413    590.58745  0.027372425  0.027536813            5 
 1799000   0.97669895   -7.4002142    587.94802  0.027234946  0.027528973            2 
 1800000    0.9871856   -7.4448538    587.99279  0.027221889  0.027521147            1 
 1801000   0.94138833   -7.4211613    588.82061  0.027245077  0.027513293            6 
 1802000   0.95896779   -7.4093707    588.12776  0.027197917  0.027505455            2 
 1803000   0.94975092    -7.405765    590.17709  0.027277551  0.027497638            1 
 1804000   0.95418295   -7.4018412    589.17784  0.027216271  0.027489923            2 
 1805000   0.94499435   -7.4223777    590.03618  0.027240821  0.027482206            2 
 1806000   0.97372426   -7.4000774    589.89933  0.027219423  0.027474526            3 
 1807000   0.96610149   -7.4200393    590.98141  0.027254262   0.02746678            2 
 1808000   0.94982292   -7.3850942    591.86493   0.02727991  0.027459073            3 
 1809000   0.94789536   -7.4052883    592.41045   0.02728996  0.027451318            2 
 1810000   0.95619007   -7.3917294    590.52632  0.027188136  0.027443587            3 
 1811000   0.96330264   -7.4373486    590.42819  0.027168608  0.027435874            2 
 1812000   0.97806618   -7.3957863    590.58982  0.027161048  0.027428015            2 
 1813000   0.94896251   -7.3602556    592.41267  0.027229852  0.027420254            3 
 1814000   0.96576431    -7.408419    589.47605  0.027079936  0.027412417            1 
 1815000    0.9567715   -7.4038488    591.29601  0.027148577  0.027404575            1 
 1816000   0.95548893   -7.3941782    590.66392  0.027104622  0.027396675            1 
 1817000   0.97148098   -7.3857033    592.04454  0.027153024   0.02738897            3 
 1818000   0.95064352   -7.4306892    592.09668  0.027140478  0.027381176            1 
 1819000   0.98728101   -7.4110378    592.62942  0.027149964  0.027373421            2 
 1820000   0.94121409   -7.4020429    591.90835  0.027102031  0.027365647            2 
 1821000   0.95845135   -7.4202291    592.52954  0.027115575  0.027357804            3 
 1822000   0.95734853   -7.4342842    592.50982   0.02709979  0.027350085            2 
 1823000    0.9607245   -7.4054451     593.4078  0.027125973  0.027342289            4 
 1824000   0.97294298   -7.4584458    592.52704  0.027070862  0.027334482            2 
 1825000   0.92984049   -7.4244792    592.36321  0.027048548  0.027326621            1 
 1826000   0.94651335   -7.3984123    593.22433  0.027073035  0.027318799            2 
 1827000   0.95328874   -7.4160626    592.24116  0.027013371  0.027311025            2 
 1828000   0.94951816   -7.4248596    594.40212  0.027097106  0.027303308            3 
 1829000   0.96092346   -7.4071681     595.4654  0.027130736  0.027295435            2 
 1830000    0.9365538   -7.4125488    593.50987  0.027026861  0.027287568            1 
 1831000   0.97068962   -7.4152806    593.09404  0.026993175  0.027279765            2 
 1832000   0.98294648   -7.4069763    593.56722  0.026999964  0.027271954            3 
 1833000   0.98300516   -7.4409743    593.23577  0.026970166   0.02726407            5 
 1834000   0.96211573   -7.4076945    594.98999  0.027035169  0.027256255            1 
 1835000   0.96025487   -7.4090311     595.3179  0.027035327  0.027248446            2 
 1836000   0.96953995   -7.4147744    593.94684  0.026958371  0.027240554            2 
 1837000   0.96686489   -7.4259263    594.58424  0.026972611  0.027232666            1 
 1838000   0.96430136    -7.418981    596.14313  0.027028615  0.027224817            2 
 1839000   0.96280275   -7.4120407    594.74261  0.026950454  0.027217017            3 
 1840000   0.95530606   -7.3932377    595.90299   0.02698836  0.027209207            1 
 1841000   0.94573438   -7.4376717    594.88732  0.026927726  0.027201311            3 
 1842000   0.96453445    -7.392427    595.37354  0.026935104  0.027193409            1 
 1843000    0.9547869   -7.4064653    595.38882   0.02692118  0.027185583            2 
 1844000   0.96579239   -7.3977018     594.4991  0.026866373  0.027177743            2 
 1845000   0.96077798   -7.4018351    598.28286  0.027022713  0.027169884            3 
 1846000   0.95590769   -7.4189727    596.84796  0.026943299   0.02716209            3 
 1847000   0.95103675   -7.4134835    596.26586  0.026902448  0.027154254            3 
 1848000   0.93670978   -7.4097661    595.30953  0.026844766   0.02714637            2 
 1849000   0.95422253   -7.4300071    596.50392  0.026884078  0.027138513            3 
 1850000   0.93279209   -7.3799918    596.13264  0.026852822  0.027130666            2 
 1851000   0.94885445   -7.4166835    596.31004  0.026846301  0.027122839            2 
 1852000    0.9772661   -7.4252992    595.29161   0.02678598  0.027114912            4 
 1853000   0.93756547   -7.4081213    597.32343  0.026862899  0.027107058            3 
 1854000   0.97219167   -7.4101395    597.22162  0.026843834  0.027099229            2 
 1855000   0.94787752   -7.3713238    597.92002  0.026860737  0.027091341            1 
 1856000   0.93730281   -7.4127513    597.98374  0.026849126  0.027083488            2 
 1857000   0.95226969   -7.3746669    598.14561  0.026841932  0.027075681            1 
 1858000   0.95329223   -7.4278939     598.0342  0.026822488   0.02706784            3 
 1859000   0.94753666   -7.4151012     599.2234  0.026861368   0.02705994            1 
 1860000   0.95542531   -7.4062101     598.5467  0.026816608  0.027052025            3 
 1861000   0.94215062   -7.4245271    597.62024  0.026760713  0.027044084            2 
 1862000   0.95017765   -7.4038509    598.77953  0.026798225  0.027036213            3 
 1863000   0.92597457   -7.4273758    598.23477  0.026759473  0.027028319            4 
 1864000   0.97300686   -7.4266317    599.49313  0.026801374  0.027020418            2 
 1865000    0.9617261   -7.4217429    598.53414  0.026744153  0.027012534            2 
 1866000   0.94512248   -7.4712611    598.61562  0.026733459  0.027004647            1 
 1867000   0.96324902   -7.4175887    599.63781  0.026764766  0.026996752            2 
 1868000   0.95930269   -7.4248732    598.81266  0.026713627  0.026988915            5 
 1869000   0.94391896   -7.4219299    599.22877  0.026717887  0.026981157            3 
 1870000   0.97781853   -7.4142669    599.14715  0.026699962  0.026973334            1 
 1871000   0.94665332   -7.4209101    599.72657  0.026711499  0.026965517            2 
 1872000   0.96385119   -7.4227733    599.80912  0.026700905  0.026957632            4 
 1873000   0.95586127   -7.4328803    602.20356  0.026793182  0.026949878            2 
 1874000   0.93705772   -7.4165352    599.96175  0.026679196  0.026942116            3 
 1875000    0.9377787   -7.4197554    601.65744  0.026740331   0.02693435            2 
 1876000   0.94842621   -7.4178876     602.4017  0.026759137  0.026926617            4 
 1877000   0.96475486   -7.4530714    600.90036  0.026678226  0.026918826            1 
 1878000   0.91967072     -7.45569    601.48166  0.026689815   0.02691097            3 
 1879000   0.95968611   -7.4270543    599.68021  0.026595716  0.026903136            2 
 1880000   0.93611987   -7.4151866    603.24693  0.026739669  0.026895397            1 
 1881000   0.95893286   -7.4425561    601.97301  0.026669015  0.026887712            4 
 1882000   0.96005411   -7.4204125    602.40471   0.02667396  0.026879928            2 
 1883000   0.95035642   -7.4186225    603.90791  0.026726319  0.026872188            3 
 1884000   0.96938481   -7.4231361    602.70893    0.0266591  0.026864472            1 
 1885000   0.96574223   -7.4461645    601.50929  0.026591922  0.026856692            2 
 1886000   0.96218274   -7.4481606    602.96296  0.026642054  0.026848873            4 
 1887000   0.92722009   -7.4622805    601.92531  0.026582111  0.026841119            3 
 1888000   0.95701495   -7.4297072    601.26926  0.026539074  0.026833366            3 
 1889000   0.95604521   -7.4477644     603.6914  0.026631877  0.026825574            1 
 1890000   0.95305603   -7.4128444    604.48502  0.026652779  0.026817838            1 
 1891000   0.93866289   -7.4810719    602.87766  0.026567851  0.026810052            5 
 1892000    0.9720864   -7.4083834    602.81571   0.02655108  0.026802314            1 
 1893000   0.91565757   -7.4016779    604.85127  0.026626663   0.02679468            1 
 1894000   0.95969953   -7.4281748    604.17355  0.026582785  0.026787022            7 
 1895000   0.95624875   -7.4677939    605.74273  0.026637763  0.026779346            1 
 1896000   0.94601344    -7.420643    604.42236   0.02656568  0.026771746            3 
 1897000   0.95894577   -7.4669756    605.31271  0.026590789  0.026764138            3 
 1898000   0.95423384   -7.4002796    606.23744   0.02661738  0.026756579            5 
 1899000   0.95347181   -7.4479047    606.33162  0.026607496  0.026749042            1 
 1900000   0.94764532   -7.4743523    604.92499  0.026531798  0.026741459            4 
 1901000   0.92722459   -7.4030278    607.18928    0.0266171  0.026733833            3 
 1902000   0.95881513   -7.4578844    607.66701  0.026624036  0.026726285            1 
 1903000   0.95177126   -7.4614806    607.55575  0.026605174  0.026718733            2 
 1904000   0.94736929   -7.4436559    606.98923  0.026566405  0.026711197            2 
 1905000   0.96150119   -7.4789989    606.98925  0.026552461  0.026703591            4 
 1906000   0.94914966   -7.4209704    608.53073  0.026605926  0.026695976            2 
 1907000   0.92113513   -7.4400062    606.54711  0.026505292  0.026688415            2 
 1908000   0.93693118   -7.4746948    606.47679  0.026488329  0.026680826            1 
 1909000   0.95597541   -7.4021804    608.67811  0.026570548  0.026673395            1 
 1910000    0.9485114   -7.4398465     608.2156  0.026536457  0.026665912            4 
 1911000   0.96130333   -7.4851685    608.06966  0.026516207  0.026658382            3 
 1912000   0.96187877   -7.4296848    606.42179  0.026430517  0.026650911            3 
 1913000   0.92529742   -7.3864602    610.68916  0.026602594  0.026643407            2 
 1914000   0.92556203   -7.4212383    610.53691  0.026582067  0.026635933            2 
 1915000   0.94800448   -7.4410866    607.79509  0.026448872  0.026628438            2 
 1916000   0.93733801   -7.4406238    608.15039  0.026450522   0.02662088            3 
 1917000   0.94144722   -7.4688979    609.64174  0.026501554  0.026613407            2 
 1918000   0.93705752   -7.4094315    608.18751  0.026424553  0.026606003            4 
 1919000   0.94191413   -7.4390246    609.62558  0.026473232  0.026598524            3 
 1920000   0.97255103   -7.4652962    609.11966  0.026437485  0.026590996            2 
 1921000   0.95010158   -7.4541097    611.67389  0.026534526  0.026583498            1 
 1922000   0.96190069   -7.4747043    609.56537    0.0264293   0.02657597            2 
 1923000   0.94242223    -7.457572    610.51043   0.02645651  0.026568427            3 
 1924000   0.95415763   -7.4516388    610.10309  0.026425116  0.026560947            3 
 1925000   0.93824195   -7.4611824    612.22399  0.026503203   0.02655349            2 
 1926000   0.93732252   -7.4151543    611.56054  0.026460736  0.026546075            2 
 1927000   0.94431611   -7.4484259    611.71018  0.026453476   0.02653871            2 
 1928000   0.94303952   -7.4402891    611.62818  0.026436211  0.026531294            5 
 1929000   0.94178024   -7.4558691    610.95685  0.026393505  0.026523891            2 
 1930000   0.94235483   -7.4560914    611.37131  0.026397725  0.026516562            3 
 1931000   0.94034006   -7.4406773    612.26192  0.026422489  0.026509207            1 
 1932000   0.96212782    -7.479794    613.98408  0.026483095  0.026501878            4 
 1933000   0.94432437   -7.4491404    613.57913  0.026451937  0.026494534            2 
 1934000   0.95860204   -7.4441064    613.54087  0.026436611  0.026487185            2 
 1935000   0.93236124   -7.4816605     611.1188  0.026318639  0.026479865            2 
 1936000   0.93826804    -7.422723    613.60676  0.026412137  0.026472571            2 
 1937000    0.9549669   -7.4367807    613.58221  0.026397445   0.02646527            1 
 1938000    0.9511966   -7.4477981    613.90445   0.02639768   0.02645784            1 
 1939000   0.93932597   -7.4885489    611.47204  0.026279527  0.026450408            1 
 1940000   0.96601872   -7.4561895    611.80772    0.0262804  0.026442946            2 
 1941000   0.94899549   -7.4672402    612.59839  0.026300807   0.02643549            3 
 1942000   0.93056504   -7.4261533    613.24273  0.026314913  0.026428031            1 
 1943000   0.95608684   -7.4507063    613.35933   0.02630637  0.026420525            1 
 1944000    0.9572213   -7.4193706    614.06986  0.026323297   0.02641299            1 
 1945000   0.92397513   -7.4928695    612.10431  0.026225549  0.026405456            2 
 1946000   0.95590739   -7.4955717    612.87344  0.026245009  0.026397902            1 
 1947000   0.96064535    -7.449227    613.13564  0.026242751  0.026390465            2 
 1948000   0.94382716   -7.4513628    613.54148  0.026246641  0.026382996            1 
 1949000   0.92322893   -7.4163132     614.3781  0.026268946  0.026375483            1 
 1950000   0.94134236   -7.4425331    612.78922  0.026187573  0.026367954            1 
 1951000     0.950257   -7.4434968     615.7741  0.026301644  0.026360432            1 
 1952000   0.92167826   -7.4658176    614.48129  0.026232978  0.026352947            5 
 1953000   0.92290031   -7.4501959    615.98153  0.026283561  0.026345453            1 
 1954000   0.96335785   -7.4686213    614.22743  0.026195302  0.026337985            3 
 1955000   0.93985305   -7.4424567    616.36029  0.026272817  0.026330514            3 
 1956000   0.89993921    -7.429697    616.67676  0.026272868  0.026323063            2 
 1957000    0.9364488   -7.4842455    614.77629  0.026178517  0.026315576            5 
 1958000   0.92759251   -7.4607667     615.9684  0.026215884   0.02630802            3 
 1959000   0.93325993   -7.4531113    615.66192  0.026189464  0.026300616            2 
 1960000   0.90644057   -7.4659328    616.33498  0.026204719  0.026293196            2 
 1961000   0.94268321   -7.4433533    615.09107  0.026138495  0.026285814            2 
 1962000   0.93401666   -7.4642191    616.37242  0.026179597  0.026278326            2 
 1963000   0.93095063    -7.476597    615.16667  0.026115074  0.026270809            1 
 1964000   0.92880832   -7.4695549    616.13669  0.026142935  0.026263278            2 
 1965000   0.92869334   -7.4482096    616.41846   0.02614158  0.026255809            2 
 1966000   0.92143479   -7.4582906    617.55671  0.026176531  0.026248402            1 
 1967000   0.93744103   -7.4534671    616.41249  0.026114747  0.026240944            1 
 1968000   0.92165341    -7.463515    616.42139  0.026101854  0.026233458            3 
 1969000   0.94785258   -7.4269398    616.79938  0.026104595   0.02622604            2 
 1970000   0.94182841   -7.4622938    617.16074   0.02610663  0.026218607            2 
 1971000    0.9374167   -7.4466798    617.77492  0.026119352  0.026211153            4 
 1972000   0.93926833   -7.4727664     616.9135  0.026069705  0.026203672            2 
 1973000   0.91712353   -7.4636789    618.09241  0.026106285  0.026196113            3 
 1974000   0.94688608   -7.4432979    617.65083  0.026074419  0.026188567            4 
 1975000   0.95364092   -7.4529459    618.13413  0.026081609  0.026181056            1 
 1976000   0.94176786   -7.5029796    615.46191  0.025955715  0.026173452            3 
 1977000    0.9338189   -7.4693897    616.95185  0.026005389  0.026165842            3 
 1978000     0.921641    -7.489206    616.27752  0.025963832  0.026158228            2 
 1979000   0.93452381   -7.4585128    617.89792  0.026018946  0.026150585            3 
 1980000   0.92252735   -7.4590392    617.28485  0.025980002  0.026142983            4 
 1981000   0.93716291    -7.469234     618.0224  0.025997913   0.02613549            3 
 1982000   0.92633279   -7.4778665    618.18978  0.025991834   0.02612798            2 
 1983000   0.91559706    -7.488943    615.15505  0.025851196  0.026120364            4 
 1984000   0.93979514   -7.4759473    617.15718  0.025922261  0.026112717            3 
 1985000   0.94989709   -7.4905391    616.19124   0.02586865  0.026105014            2 
 1986000   0.94439227   -7.4808319     616.8304  0.025882444  0.026097272            2 
 1987000   0.93267887   -7.4736286    618.02188  0.025919388  0.026089623            1 
 1988000   0.95420819   -7.4477626    618.79282  0.025938666   0.02608199            2 
 1989000   0.94511462   -7.4501028    618.53591  0.025914861    0.0260743            1 
 1990000   0.94148216   -7.5030828    617.94305  0.025877012  0.026066667            3 
 1991000   0.93007139   -7.4879637    618.04659  0.025868349  0.026058928            2 
 1992000   0.94186439   -7.4585758    619.86863  0.025931586  0.026051234            2 
 1993000   0.94163003   -7.4661955    616.57168  0.025780719  0.026043632            2 
 1994000   0.92389888   -7.5012071    618.45025  0.025846299  0.026035828            2 
 1995000    0.9488334   -7.4671574     619.5053  0.025877414  0.026028094            2 
 1996000    0.9567896   -7.5374556    615.90402  0.025714096  0.026020357            1 
 1997000   0.94878046   -7.4767809    617.93884  0.025786131   0.02601265            2 
 1998000   0.93348468   -7.5041344    619.48163  0.025837572  0.026004961            1 
 1999000   0.94766438   -7.4634258    620.93603  0.025885277  0.025997317            1 
 2000000    0.9377779   -7.4489094    620.73934  0.025864139  0.025989725            2 
 2001000   0.96136642   -7.4462841    622.07905  0.025907007  0.025982107            3 
 2002000   0.94239163   -7.4337599    622.21718  0.025899816  0.025974541            2 
 2003000   0.92210621   -7.4791822    621.08898  0.025839947    0.0259669            1 
 2004000   0.94011069   -7.4878013    620.49984  0.025802555  0.025959287            1 
 2005000   0.93536921   -7.4969588    618.07091  0.025688733  0.025951598            3 
 2006000   0.90846721   -7.4576662    619.77993  0.025746923  0.025943942            5 
 2007000   0.91497283   -7.4646676    620.84124  0.025778161  0.025936275            1 
 2008000   0.93379483   -7.4922468    620.10543  0.025734787  0.025928662            2 
 2009000   0.93496004   -7.4825889    622.00446  0.025800749  0.025921009            2 
 2010000   0.93487963   -7.4883456    620.62333  0.025730652  0.025913387            1 
 2011000   0.91731661   -7.4837261    620.61686  0.025717589  0.025905724            3 
 2012000   0.93547266   -7.5050495    619.61361  0.025663254   0.02589807            1 
 2013000   0.95223049   -7.4807439    620.28711  0.025678387  0.025890434            4 
 2014000   0.92795381   -7.4422956    622.43067  0.025754331  0.025882819            3 
 2015000   0.93512357   -7.4801745    621.29831  0.025694719  0.025875244            7 
 2016000   0.91240768   -7.4806851    622.79839  0.025743981  0.025867623            4 
 2017000   0.94216939   -7.4854549    622.57599  0.025722029  0.025860032            3 
 2018000   0.92578081   -7.4508963    623.33143  0.025740479  0.025852425            3 
 2019000   0.91483204    -7.466479    622.55072  0.025695506  0.025844841            3 
 2020000   0.93227703   -7.4995931    623.94221   0.02574019  0.025837254            3 
 2021000   0.92346406   -7.4786405     622.3362  0.025661232  0.025829645            2 
 2022000    0.9195354   -7.4957521    623.07458  0.025678972  0.025822036            2 
 2023000   0.93565251   -7.4948861    623.35555  0.025677853  0.025814405            4 
 2024000   0.93794078   -7.4784678    625.52397  0.025754445   0.02580687            3 
 2025000   0.94082708   -7.5007552    623.20349  0.025646234  0.025799303            3 
 2026000   0.93895442   -7.4876539    622.30314  0.025596542  0.025791699            2 
 2027000   0.94175208   -7.4749561     624.3242  0.025667004  0.025784053            2 
 2028000   0.93298254   -7.5170049    623.32249  0.025613186  0.025776433            1 
 2029000   0.90135336   -7.4729427    623.45935  0.025606183  0.025768802            3 
 2030000   0.92603762   -7.4728429    624.05487  0.025618016  0.025761199            2 
 2031000    0.9249497    -7.451723    624.53219  0.025624987  0.025753502            2 
 2032000   0.93099666   -7.4459452    624.93968  0.025629088  0.025745881            1 
 2033000   0.93720294   -7.4572589    625.67382  0.025646574  0.025738302            3 
 2034000   0.93614681    -7.475883    623.89742  0.025561186   0.02573067            3 
 2035000   0.93585461   -7.5101047    624.77849  0.025584705  0.025723058            1 
 2036000   0.91366817   -7.5245578    621.90371  0.025454474  0.025715351            6 
 2037000   0.95089746   -7.4900236    622.90133   0.02548279  0.025707638            2 
 2038000   0.93672866    -7.477341    624.28962  0.025527053  0.025699966            2 
 2039000   0.91638996   -7.5181264    623.20946  0.025470388  0.025692269            1 
 2040000   0.93181213   -7.4894577    624.70614  0.025519042   0.02568458            2 
 2041000   0.94533207   -7.4983097    624.45291  0.025496199  0.025676862            2 
 2042000   0.92552821   -7.4845074    624.70385  0.025493954  0.025669228            4 
 2043000   0.92520301   -7.4950912    626.04412  0.025536145   0.02566166            1 
 2044000   0.92915995   -7.5003276    626.22302  0.025530945  0.025654125            2 
 2045000   0.93005384   -7.4990089    625.24717  0.025478695  0.025646568            2 
 2046000     0.925706   -7.4869353    627.11918  0.025542489  0.025639016            5 
 2047000   0.95148754   -7.5012492    626.56515  0.025507456  0.025631471            1 
 2048000   0.93371692   -7.5026186    626.27402  0.025483155  0.025623913            6 
 2049000   0.92099503   -7.4719868    628.23752  0.025550574  0.025616409            1 
 2050000   0.92168064   -7.4887047    627.77422  0.025519277  0.025608928            4 
 2051000   0.89981928   -7.4775595    629.19346  0.025564499  0.025601477            3 
 2052000   0.92321764   -7.5054729    627.60194  0.025487408  0.025594027            2 
 2053000   0.92924125   -7.4983717    628.11752  0.025495922  0.025586576            2 
 2054000    0.9013932   -7.4753271    627.88512   0.02547408  0.025579224            2 
 2055000   0.91319354   -7.4950381    629.60578  0.025531459  0.025571849            5 
 2056000   0.94081792   -7.5169422    628.67259  0.025481217  0.025564487            2 
 2057000   0.93785778   -7.4820276    628.76253  0.025472473  0.025557083            2 
 2058000   0.92886223   -7.4752832    630.00164   0.02551027  0.025549743            2 
 2059000   0.91589865   -7.5102347    629.20549  0.025465658  0.025542418            2 
 2060000   0.90614199   -7.5017884    631.47493  0.025545102  0.025535108            5 
 2061000   0.91879948    -7.482262    630.53436  0.025494677  0.025527811            2 
 2062000   0.90992287   -7.5115103    628.92944  0.025417452  0.025520476            2 
 2063000   0.92071687   -7.5232707    628.53701   0.02538928  0.025513121            2 
 2064000   0.92005546   -7.4799388    629.99354  0.025435786   0.02550573            2 
 2065000   0.91220739   -7.5013629      630.692  0.025451655  0.025498369            2 
 2066000   0.93777535   -7.5369882     629.4733  0.025390178  0.025490962            1 
 2067000   0.92882105   -7.4912688    632.23892  0.025489394  0.025483663            2 
 2068000   0.91879369   -7.4895375    631.25796  0.025437539  0.025476406            3 
 2069000   0.91411705   -7.4856892    632.41842  0.025471984  0.025469096            3 
 2070000   0.94921943   -7.5026251    630.70452  0.025390681  0.025461767            3 
 2071000   0.93171965      -7.4855    631.38216  0.025405688  0.025454481            2 
 2072000   0.93225558    -7.476118    632.37024  0.025433166  0.025447216            5 
 2073000   0.91200589   -7.5212077    632.08508  0.025409434  0.025439951            2 
 2074000   0.90720064   -7.5221852    631.71077  0.025382143  0.025432595            2 
 2075000   0.91974688   -7.4713603    632.04922  0.025383503   0.02542519            4 
 2076000   0.93168571   -7.5170304    630.22814  0.025298175  0.025417818            1 
 2077000   0.92301682   -7.5326479    630.68596  0.025304364  0.025410454            3 
 2078000   0.92084473   -7.5000261    632.31733  0.025357609  0.025403082            3 
 2079000   0.89540094   -7.4979312    633.14812  0.025378713  0.025395774            1 
 2080000   0.92063292   -7.5264393    630.10565  0.025244617  0.025388399            2 
 2081000   0.90980602   -7.4980592     633.0213  0.025349243   0.02538099            1 
 2082000   0.91445237   -7.5233446    633.13736  0.025341713  0.025373704            2 
 2083000   0.91979289   -7.4781139    633.73104  0.025353298  0.025366431            4 
 2084000    0.9099389   -7.4819031    633.93285  0.025349202  0.025359168            1 
 2085000   0.90642039   -7.4750017    634.12808  0.025344847  0.025351881            1 
 2086000   0.91146023   -7.4928608    633.36168   0.02530208  0.025344577            2 
 2087000   0.93254665    -7.511779    632.61148  0.025260002  0.025337246            1 
 2088000   0.91116673   -7.5132062    633.35661  0.025277643  0.025329889            1 
 2089000   0.93773283   -7.5311801      634.005  0.025291407  0.025322494            6 
 2090000   0.92694236   -7.5063441    633.23825  0.025248734  0.025315163            2 
 2091000   0.92148597    -7.494733    632.53947   0.02520881  0.025307879            4 
 2092000    0.9050387   -7.5331662    633.94238  0.025252644  0.025300564            2 
 2093000   0.93102088   -7.5074638    633.92634   0.02523994  0.025293256            2 
 2094000    0.9169894   -7.4805804    636.78405  0.025341613  0.025285954            1 
 2095000   0.90004426   -7.5104832    634.31771  0.025231412  0.025278658            4 
 2096000   0.89360195   -7.4913826    635.06094  0.025248924  0.025271354            2 
 2097000   0.91160273   -7.5004672    634.51446  0.025215167  0.025264057            1 
 2098000   0.90991119   -7.4935173    636.67436   0.02528894  0.025256781            2 
 2099000   0.93783661   -7.4943938    634.55568  0.025192778  0.025249533            2 
 2100000   0.90654657   -7.5327118     635.2782  0.025209452  0.025242231            1 
 2101000   0.90613897   -7.5059624    634.69369   0.02517427  0.025234938            1 
 2102000   0.92823194   -7.4980536    635.16617  0.025181025  0.025227647            3 
 2103000   0.91355126   -7.5264867    635.24669  0.025172242  0.025220351            2 
 2104000   0.90688038   -7.5189649    634.88529  0.025145964   0.02521301            2 
 2105000   0.92705535   -7.5141422    634.99327  0.025138293  0.025205676            1 
 2106000   0.90544843   -7.5235124    636.89449  0.025201586  0.025198425            2 
 2107000    0.9253688   -7.5519671    636.30522  0.025166319  0.025191115            2 
 2108000   0.91109136   -7.4932971    635.71808   0.02513117  0.025183779            3 
 2109000   0.92285604   -7.5239208    635.70715  0.025118822  0.025176477            1 
 2110000   0.90764501    -7.543369    636.92758  0.025155118  0.025169194            2 
 2111000   0.92494161   -7.5203169    636.02198  0.025107452  0.025161901            1 
 2112000   0.90427024   -7.5056951    637.57163  0.025156709  0.025154646            3 
 2113000   0.91949725   -7.5406987     636.5397  0.025104105  0.025147404            2 
 2114000   0.91071763   -7.5234638    637.04375    0.0251121  0.025140155            2 
 2115000    0.9127817   -7.5478579    636.12481  0.025064019  0.025132871            2 
 2116000   0.91457692   -7.4937174    637.96194  0.025124525  0.025125637            1 
 2117000   0.90619936   -7.5148809    637.14149  0.025080361  0.025118431            2 
 2118000   0.90581101   -7.4983298     636.6859  0.025050594  0.025111209            5 
 2119000   0.92194231    -7.562016    635.92154  0.025008712  0.025103919            4 
 2120000   0.89996964   -7.5698379    637.03731  0.025040775  0.025096578            2 
 2121000   0.94476725   -7.5592141    638.26819   0.02507733  0.025089322            2 
 2122000   0.91442133   -7.5210594    636.89408  0.025011549  0.025082077            3 
 2123000   0.93767699   -7.5299703    639.00851  0.025082765  0.025074781            2 
 2124000   0.92025335   -7.5109417    637.37158  0.025006732   0.02506747            1 
 2125000   0.90132155   -7.5304471    640.55521  0.025119812  0.025060143            4 
 2126000    0.8981725   -7.5335542    637.15509  0.024974721  0.025052824            2 
 2127000    0.9229717    -7.497595    638.36562  0.025010407  0.025045565            4 
 2128000   0.89581671   -7.5283331    638.63027  0.025009018   0.02503834            3 
 2129000   0.91731033   -7.5325687    640.31143  0.025063075  0.025031124            3 
 2130000   0.90529274   -7.5088702    640.11403  0.025043585  0.025023927            4 
 2131000   0.92731657    -7.525347    638.62712  0.024973687  0.025016742            2 
 2132000   0.90031745    -7.523595    639.76863  0.025006591  0.025009451            2 
 2133000    0.9213811   -7.5296624    638.27839  0.024936646  0.025002185            4 
 2134000   0.94038128    -7.566804     638.5766  0.024936606  0.024994914            1 
 2135000   0.89087289   -7.5090293     640.2897  0.024991792  0.024987675            2 
 2136000   0.91242352   -7.5651085    638.85409  0.024924083   0.02498043            1 
 2137000   0.91219236   -7.5773521    639.34869  0.024931707  0.024973146            1 
 2138000   0.90101866   -7.5172172    641.41159  0.025000452   0.02496585            1 
 2139000   0.92027032   -7.5206627    641.42329   0.02498922  0.024958682            2 
 2140000   0.90249615   -7.5234589    640.00787  0.024922425  0.024951534            2 
 2141000   0.91456331   -7.5141122    640.10399  0.024914526  0.024944392            3 
 2142000   0.93086057   -7.5272048    641.90342    0.0249729  0.024937258            2 
 2143000   0.91458162   -7.5177703    640.83059  0.024919528   0.02493002            3 
 2144000   0.91485111    -7.498215    641.97929  0.024952553  0.024922856            1 
 2145000   0.89638772    -7.537482    641.11254  0.024907247   0.02491573            1 
 2146000   0.90365213   -7.5170908    641.12212  0.024896013  0.024908569            1 
 2147000   0.92152983   -7.5150555     642.3414  0.024931742  0.024901512            3 
 2148000    0.9085793   -7.5200789    642.29252  0.024918239  0.024894397            1 
 2149000   0.90332741   -7.5160744    642.82298  0.024927213  0.024887264            3 
 2150000   0.88033017   -7.5462884    641.29757  0.024856495  0.024880093            3 
 2151000   0.90841743   -7.5324565    643.15795  0.024917014  0.024872864            3 
 2152000   0.91511573    -7.549537    640.24713  0.024792717   0.02486562            2 
 2153000   0.93922101   -7.5322606    643.19163  0.024895171  0.024858409            2 
 2154000   0.90759413   -7.5234792    642.24771  0.024847095  0.024851282            1 
 2155000    0.8877716   -7.5101549    641.15098  0.024793155   0.02484414            2 
 2156000   0.90246464   -7.5044014    643.29895  0.024864678  0.024836984            6 
 2157000   0.90127831   -7.5404609    643.56924  0.024863593  0.024829847            2 
 2158000    0.9115797   -7.5472846    642.73233  0.024819753  0.024822678            1 
 2159000   0.90986193   -7.5010953    645.29777  0.024907278  0.024815569            1 
 2160000   0.89721518   -7.5487186    643.07998  0.024810184  0.024808451            4 
 2161000   0.90333881   -7.5433661    644.86274  0.024867451  0.024801316            5 
 2162000   0.90050252   -7.5049839     643.4488  0.024801449  0.024794234            2 
 2163000   0.90591341   -7.5454007    642.28092  0.024744988  0.024787115            2 
 2164000   0.91263992   -7.5454337     644.2911  0.024810964  0.024780034            2 
 2165000   0.88906822   -7.5362879    643.73104  0.024777946  0.024773023            2 
 2166000   0.90365436   -7.4936302    644.65398  0.024802015  0.024765964            2 
 2167000   0.90711759   -7.5387754    645.72223   0.02483165  0.024758973            2 
 2168000   0.91277144    -7.547424    645.88444  0.024826431     0.024752            4 
 2169000   0.92623191   -7.5594056    644.98897  0.024780581  0.024744972            4 
 2170000   0.90023554   -7.5376067    645.40301  0.024785062  0.024737937            1 
 2171000   0.91638648   -7.5274487    645.83254  0.024790133   0.02473097            2 
 2172000   0.89828106   -7.5301565    647.55936  0.024844972  0.024724033            3 
 2173000   0.89323464   -7.5266806    645.77284  0.024765027  0.024717105            4 
 2174000   0.90046418   -7.5629073    644.65172  0.024710661  0.024710085            2 
 2175000   0.90095512   -7.5545535     645.9815  0.024750249  0.024703073            3 
 2176000   0.90868126   -7.5265427    646.81214  0.024770685   0.02469606            2 
 2177000   0.89682958   -7.5345187    646.95337  0.024764713  0.024689083            1 
 2178000   0.91567225   -7.5735838    645.50318  0.024697857  0.024682112            3 
 2179000   0.92298004   -7.5652557    646.46993  0.024723494  0.024675053            3 
 2180000   0.89156904    -7.530169    647.58448  0.024754758  0.024668005            2 
 2181000   0.88885253    -7.573319    647.00584  0.024721299  0.024660933            2 
 2182000   0.91331049   -7.5509266    647.71337  0.024736991  0.024653922            1 
 2183000   0.91824626    -7.533864    647.17663   0.02470517  0.024646889            3 
 2184000   0.91514934   -7.5464738    648.03608  0.024726651  0.024639874            2 
 2185000   0.89700045   -7.5579429     645.9296  0.024634996   0.02463283            2 
 2186000   0.90859712   -7.5908735    646.19841  0.024633974  0.024625716            4 
 2187000   0.88701448   -7.5964171    645.97961  0.024614373  0.024618701            4 
 2188000   0.88825091   -7.5483214    648.84239  0.024712157  0.024611733            2 
 2189000   0.90608088    -7.545939    649.19831  0.024714417  0.024604828            2 
 2190000   0.86648433   -7.5296027    648.94061  0.024693326   0.02459791            2 
 2191000   0.90663199   -7.6143336    646.94183  0.024606034  0.024590864            3 
 2192000   0.88824776   -7.5558802    648.05736  0.024637217  0.024583776            2 
 2193000   0.90296579   -7.5380538    648.94173  0.024659588  0.024576818            3 
 2194000   0.90369644   -7.5681867    647.95513  0.024610876  0.024569802            4 
 2195000   0.90238192   -7.5142132    650.64568   0.02470181  0.024562765            2 
 2196000    0.9167668    -7.574047    649.62213   0.02465172  0.024555761            1 
 2197000   0.88716508   -7.5526957    648.64402  0.024603399   0.02454877            3 
 2198000   0.90967645   -7.5480677    650.06833  0.024646206  0.024541742            2 
 2199000   0.89681855   -7.5188089    651.13662  0.024675482  0.024534769            3 
 2200000   0.91474187   -7.5491967    648.62399  0.024569091  0.024527778            2 
 2201000    0.9146658   -7.5328013    651.67873  0.024673585  0.024520799            5 
 2202000    0.9102386   -7.5481101    650.08088   0.02460191  0.024513875            2 
 2203000   0.91631001   -7.5373682    650.66668  0.024612902   0.02450692            1 
 2204000   0.89646336   -7.5345352    649.09757  0.024542406  0.024499973            2 
 2205000   0.88607562   -7.5390242    651.68178  0.024628941  0.024493056            2 
 2206000   0.90101142   -7.5510075     651.3279  0.024604408  0.024486161            3 
 2207000   0.89391483   -7.5674426    650.61984  0.024566525  0.024479178            2 
 2208000   0.90175675   -7.5638255    649.14847  0.024499867  0.024472173            2 
 2209000   0.90279135   -7.5655391    649.29016  0.024494121   0.02446522            3 
 2210000   0.92071704   -7.5791876    649.93976  0.024507532  0.024458239            2 
 2211000    0.8939211   -7.5579953     650.9709  0.024535312   0.02445131            3 
 2212000   0.90714101    -7.537851    652.70749  0.024589643   0.02444442            2 
 2213000   0.90131986   -7.5342264    653.09203  0.024593012  0.024437529            1 
 2214000   0.89477282   -7.5323117    654.23901  0.024625076  0.024430755            2 
 2215000   0.90112667   -7.5562071    651.32219  0.024504221  0.024423923            4 
 2216000   0.89996049   -7.5472274    651.55756  0.024502014  0.024417066            1 
 2217000   0.87859372   -7.5433974    651.39936  0.024485016   0.02441021            1 
 2218000   0.90726483   -7.5827865    653.20095  0.024541665  0.024403371            4 
 2219000   0.88881108   -7.5496576    653.05763  0.024525223  0.024396554            3 
 2220000    0.8978323   -7.5467993    653.41266  0.024527502  0.024389711            2 
 2221000   0.90625169   -7.5760489    653.43227  0.024517195   0.02438292            2 
 2222000   0.87779049   -7.5280758    653.33159  0.024502385  0.024376054            1 
 2223000   0.89488425   -7.5537817    652.15429  0.024447229  0.024369182            2 
 2224000   0.88856469   -7.5850714    653.92272    0.0245025  0.024362212            1 
 2225000   0.88313952   -7.5778744    652.22772  0.024428005  0.024355322            3 
 2226000   0.91346074   -7.6145538    652.41377  0.024423996   0.02434846            2 
 2227000   0.90084181   -7.5745336    655.77096  0.024538653  0.024341576            1 
 2228000   0.87669504   -7.5656916    654.34154  0.024474175  0.024334726            2 
 2229000   0.87835928   -7.5791096    654.16219   0.02445649   0.02432785            2 
 2230000   0.89342049   -7.5759835    654.93229  0.024474301  0.024321027            3 
 2231000   0.90414524   -7.5752313    653.43187  0.024407286  0.024314216            3 
 2232000   0.89971429   -7.5861671    655.40722  0.024470102  0.024307361            2 
 2233000   0.89741809    -7.566892    655.01096  0.024444356  0.024300517            2 
 2234000   0.89845001   -7.5668357    655.68824  0.024458678  0.024293723            2 
 2235000    0.9098432     -7.57392    658.03935  0.024535397  0.024286976            4 
 2236000   0.89206805    -7.574707    656.03935  0.024449886  0.024280192            2 
 2237000   0.89694776   -7.5758089    656.39548  0.024452223  0.024273342            4 
 2238000   0.88768114   -7.5582293    655.59606  0.024411531  0.024266573            2 
 2239000   0.88317899   -7.5671759      655.991  0.024415327  0.024259744            3 
 2240000    0.8913492   -7.5708527    656.16022  0.024410722  0.024252913            1 
 2241000   0.92254255    -7.565071    656.15606  0.024399675  0.024246096            3 
 2242000   0.89288861   -7.5416629    655.43304  0.024361918  0.024239312            2 
 2243000   0.88961521   -7.5422011    656.30032  0.024383279  0.024232588            7 
 2244000   0.88890902   -7.5784423    656.77832  0.024390163   0.02422585            1 
 2245000   0.88879167   -7.5649446    655.90763   0.02434698  0.024219075            3 
 2246000   0.89850753   -7.5663072    658.64158  0.024437577  0.024212344            3 
 2247000   0.87891182   -7.5829136    658.61084  0.024425562  0.024205654            2 
 2248000   0.90420658   -7.5590858    658.67824  0.024417195   0.02419899            2 
 2249000   0.88728518   -7.5731223    656.60718  0.024329597  0.024192279            3 
 2250000   0.88685504   -7.5939597    658.60353  0.024392723  0.024185579            1 
 2251000   0.88495804   -7.5420042    659.57851  0.024417981   0.02417889            2 
 2252000   0.90108293   -7.5568931    658.13882  0.024353864  0.024172258            5 
 2253000   0.88529388   -7.5544788     659.4245  0.024390609  0.024165574            2 
 2254000   0.89371134   -7.5675342    658.19598  0.024334368  0.024158943            2 
 2255000   0.88938564   -7.5266108    659.47911  0.024370994  0.024152274            1 
 2256000    0.8868836   -7.5666026    657.69172  0.024294168  0.024145511            2 
 2257000   0.87640032   -7.5803589    657.67205  0.024282678  0.024138715            4 
 2258000   0.89960286   -7.5691858    658.09688  0.024287603  0.024131967            2 
 2259000   0.88140202   -7.5892508    659.16215  0.024316148  0.024125244            2 
 2260000   0.87046177   -7.5983564    658.56382  0.024283327  0.024118493            2 
 2261000   0.88486627   -7.5857664    657.91226  0.024248572  0.024111707            4 
 2262000   0.87018939   -7.5768795    658.72319  0.024267727  0.024104983            2 
 2263000   0.91744566   -7.5959895     656.8573  0.024188294  0.024098213            3 
 2264000   0.88239677   -7.5446332    660.18933  0.024300255  0.024091528            1 
 2265000   0.90463824   -7.5907117    659.39871  0.024260438  0.024084782            2 
 2266000   0.87971519   -7.5484587    659.91634  0.024268768  0.024078072            1 
 2267000   0.90092149   -7.5576484    658.28001  0.024197912  0.024071235            4 
 2268000    0.8870295    -7.615445     657.6443  0.024163885  0.024064382            2 
 2269000   0.89531066   -7.5775511    659.10353  0.024206829  0.024057616            2 
 2270000   0.86311573   -7.5502662    659.08822  0.024195603  0.024050808            2 
 2271000   0.88756376   -7.5911789    659.28193  0.024192057  0.024044111            2 
 2272000   0.89172373   -7.6100204    659.15049  0.024176588  0.024037356            2 
 2273000    0.8851232   -7.6105546     659.2579  0.024169889  0.024030592            2 
 2274000   0.88383286   -7.5630802     660.1615  0.024192374   0.02402383            3 
 2275000   0.88453701   -7.5715822    659.31165   0.02415061  0.024017115            1 
 2276000   0.88994131   -7.5461332    659.19699  0.024135801   0.02401037            2 
 2277000   0.88810709   -7.5864699    660.09325  0.024158002  0.024003623            1 
 2278000   0.89087141   -7.5923273    660.79138  0.024172936  0.023996857            2 
 2279000   0.89248109   -7.5881964    659.53352  0.024116335  0.023990151            2 
 2280000   0.88603168   -7.5476427    660.97026   0.02415827  0.023983414            2 
 2281000     0.886119   -7.5747361    661.58312  0.024170069   0.02397667            2 
 2282000   0.87672037   -7.5699077    662.22532  0.024182929  0.023969965            4 
 2283000   0.89878954   -7.6016274    661.89064   0.02416012   0.02396328            2 
 2284000   0.89736723      -7.5773    661.27245  0.024126986  0.023956647            2 
 2285000   0.87389491   -7.5446964    662.36138  0.024156141  0.023949953            5 
 2286000   0.89975079   -7.5633576    661.20924  0.024103574  0.023943278            3 
 2287000   0.88698037   -7.5937898    661.88984  0.024117834  0.023936605            2 
 2288000   0.88634793   -7.5705005    661.62357  0.024097595  0.023929974            4 
 2289000   0.88957222   -7.5991917    661.34912  0.024077076  0.023923317            7 
 2290000   0.88214487   -7.5949401    660.02429  0.024018351  0.023916602            2 
 2291000   0.90175849   -7.6033743    660.64678   0.02403051  0.023909888            3 
 2292000   0.86358406   -7.5754219    661.53506  0.024052322    0.0239032            2 
 2293000    0.8990257   -7.6126893     660.8796  0.024018011  0.023896476            1 
 2294000   0.88814285   -7.5966271    662.62977  0.024071119  0.023889742            2 
 2295000   0.88246044   -7.5645723    663.41384  0.024089101  0.023883047            1 
 2296000   0.90186818   -7.5977513    661.87675  0.024022821  0.023876398            3 
 2297000   0.88890637   -7.5804918    662.89358  0.024049252  0.023869688            4 
 2298000   0.88547141   -7.5498846    664.01514  0.024079458  0.023863011            3 
 2299000    0.8823286    -7.600999    660.36554  0.023936695  0.023856275            3 
 2300000   0.87625295   -7.5961494    662.84611  0.024016164  0.023849554            2 
 2301000   0.89428682    -7.593156    662.39772  0.023989487  0.023842792            2 
 2302000   0.90284392   -7.6194666    663.32805  0.024012744  0.023836034            2 
 2303000   0.87869143   -7.6130045    662.42067  0.023969484  0.023829325            5 
 2304000   0.87495032   -7.5986309    664.05142  0.024018064  0.023822557            2 
 2305000   0.89355279   -7.5724598    663.05349  0.023971565  0.023815778           10 
 2306000   0.88598352   -7.5860894    661.93675  0.023920813  0.023809043            4 
 2307000   0.89557929    -7.636005    661.94622  0.023910787  0.023802268            4 
 2308000   0.88426574   -7.5763254    664.92576  0.024008007  0.023795493            5 
 2309000   0.89058064   -7.5847394    664.39673  0.023978516  0.023788866            3 
 2310000   0.87120306   -7.6276395    663.60481  0.023939567  0.023782114            4 
 2311000   0.88039865   -7.5954722    663.81089   0.02393664  0.023775395            5 
 2312000   0.88388114   -7.5859453    664.04094  0.023934578   0.02376871            3 
 2313000   0.88689303   -7.5653193     665.2073  0.023966252   0.02376207            2 
 2314000   0.86762024   -7.5727638    663.88713  0.023908352  0.023755418            3 
 2315000   0.87186709   -7.6110894    665.92217  0.023971281  0.023748755            2 
 2316000   0.88886488   -7.5773493     663.4067  0.023870419  0.023742112            3 
 2317000   0.88954205   -7.5965492    665.62344  0.023939845  0.023735436            3 
 2318000   0.86944162   -7.5859531     665.9588  0.023941573  0.023728771            3 
 2319000   0.88106504   -7.5982776    665.98808  0.023932301   0.02372213            2 
 2320000   0.88550788   -7.6004249    666.51758  0.023941005  0.023715559            5 
 2321000   0.87856738   -7.6067698    665.58571  0.023897232  0.023709007            2 
 2322000   0.88944175   -7.5969021    667.62783  0.023960229  0.023702406            4 
 2323000   0.88725155   -7.5644668     666.3003  0.023902292  0.023695837            3 
 2324000   0.88469774   -7.5992586    666.74959  0.023908118  0.023689251            2 
 2325000   0.87890936   -7.5889432    667.32891  0.023918599  0.023682608            2 
 2326000   0.87970075   -7.5878392    666.72894  0.023886821  0.023675939            2 
 2327000   0.89319542    -7.563127    668.64323  0.023945109  0.023669348            3 
 2328000   0.88218103   -7.5777028    666.98338  0.023875407  0.023662777            4 
 2329000    0.8830105   -7.6365778     665.7142  0.023819744  0.023656166            2 
 2330000   0.87340135   -7.5921955    667.46087  0.023871991  0.023649533            2 
 2331000   0.88388552   -7.6008009    667.58806  0.023866297  0.023642929            3 
 2332000   0.87880949   -7.6128411    667.01358  0.023835534  0.023636341            2 
 2333000   0.87757396   -7.6019015    667.20084  0.023832006  0.023629791            4 
 2334000   0.88327449   -7.6018402     666.5939  0.023800125  0.023623255            2 
 2335000   0.86137848   -7.5872617    668.00463   0.02384028   0.02361672            2 
 2336000   0.88305016   -7.6021745    667.90621  0.023826563   0.02361019            2 
 2337000   0.87273844   -7.5854225    669.49162    0.0238729  0.023603625            4 
 2338000   0.86417482   -7.5764544    668.80039  0.023838052    0.0235971            4 
 2339000   0.90051222   -7.5820941    669.73013  0.023860985  0.023590561            1 
 2340000   0.89715264   -7.6282512    668.81975  0.023818367  0.023584023            4 
 2341000   0.85308989   -7.6002918    669.31596  0.023825856  0.023577512            3 
 2342000   0.88518233   -7.5695148    669.47464  0.023821329  0.023570988            3 
 2343000   0.87215067   -7.6764244    667.33075  0.023734911  0.023564379            3 
 2344000   0.88770081   -7.6110044    668.55119  0.023768174  0.023557785            2 
 2345000   0.87634875   -7.5878945    668.71841   0.02376398  0.023551243            2 
 2346000   0.89458289   -7.5808125     669.3074  0.023774773  0.023544731            4 
 2347000   0.88056638   -7.5397118    671.73764  0.023850932  0.023538205            2 
 2348000   0.86826557   -7.5926234     668.2671    0.0237176  0.023531648            3 
 2349000   0.87061386   -7.6351157    670.23678   0.02377738  0.023525084            4 
 2350000   0.87655829   -7.6227936    668.10686  0.023691733  0.023518497            2 
 2351000   0.85690316   -7.6099481    669.69491  0.023737945  0.023511921            1 
 2352000   0.87676983   -7.6129415    668.92117  0.023700438  0.023505332            2 
 2353000   0.86925011   -7.6408619    669.26121  0.023702409  0.023498778            6 
 2354000   0.88647426   -7.6038557    669.45039  0.023699037  0.023492163            2 
 2355000   0.88925735   -7.5786724    671.34121  0.023755882  0.023485557            2 
 2356000   0.88131005   -7.6136219    668.14506  0.023632748  0.023478967            4 
 2357000   0.85313664   -7.6359742    668.69808  0.023642274  0.023472333            2 
 2358000   0.86074417   -7.5891042    670.69942  0.023702976  0.023465684            1 
 2359000   0.88184154   -7.5590078    670.82057  0.023697208  0.023459124            2 
 2360000   0.88589105   -7.6036495     671.2013  0.023700611  0.023452574            3 
 2361000   0.89562429   -7.5710163    670.52495    0.0236667  0.023446025            2 
 2362000   0.87705846   -7.6094746    670.08294  0.023641086  0.023439432            3 
 2363000   0.86852176   -7.6451819    669.42825  0.023607993  0.023432811            2 
 2364000   0.87986579   -7.6449257    671.39931  0.023667488  0.023426158            2 
 2365000   0.87252325   -7.6518672    669.11241    0.0235769  0.023419536            3 
 2366000   0.87133858   -7.6195226    670.16818   0.02360412   0.02341289            2 
 2367000   0.88273612   -7.6076724    670.71024  0.023613232  0.023406282            3 
 2368000   0.87880031   -7.5818268    673.05359  0.023685726  0.023399662            2 
 2369000   0.88510936   -7.6134736    671.23061  0.023611602  0.023393064            1 
 2370000    0.8614388    -7.593301    672.60525  0.023649974  0.023386497            2 
 2371000   0.87921704   -7.6478437    670.26584  0.023557776  0.023379905            6 
 2372000   0.86112664   -7.6231346    668.88559  0.023499353  0.023373256            2 
 2373000    0.8709704   -7.6292178    670.06589  0.023530899  0.023366613            2 
 2374000   0.87376689   -7.6080152    672.21106  0.023596288  0.023359997            3 
 2375000   0.85513055   -7.6127982    670.62283  0.023530626  0.023353394            2 
 2376000   0.86149837   -7.6084319    672.00925  0.023569348  0.023346775            3 
 2377000   0.87270115   -7.5929215    671.32886  0.023535579  0.023340182            4 
 2378000   0.88940394    -7.616023    672.21755  0.023556825  0.023333604            2 
 2379000   0.86293653    -7.644558    672.91126  0.023571223  0.023327002            3 
 2380000   0.86757147   -7.6313115    671.37488  0.023507524  0.023320367            1 
 2381000   0.86906173   -7.6114923    673.04476  0.023556096    0.0233137            3 
 2382000   0.85420282   -7.5887827    671.77839  0.023501903  0.023307058            3 
 2383000   0.88602798   -7.6357465    671.65613  0.023487765  0.023300361            2 
 2384000   0.86582482   -7.6219107    670.01959  0.023420707  0.023293674            3 
 2385000    0.8799532   -7.6160461    671.20899  0.023452445  0.023287027            3 
 2386000   0.88922066   -7.6242242    672.60506  0.023491375  0.023280346            2 
 2387000   0.86883286   -7.5938128    673.99296  0.023529987   0.02327368            1 
 2388000   0.87968613   -7.5941122    670.84402  0.023410246  0.023267027            1 
 2389000    0.8880951   -7.6184062    671.83833  0.023435131  0.023260377            3 
 2390000   0.86623939   -7.6136316    672.94152  0.023463791  0.023253705            1 
 2391000   0.86992193   -7.6220119     672.5311  0.023439673  0.023247045            2 
 2392000   0.86850635   -7.6314546    671.96322   0.02341009  0.023240374            4 
 2393000   0.85399936   -7.6187864    673.80743   0.02346453  0.023233687            5 
 2394000   0.87380689   -7.6208108    672.87994  0.023422443   0.02322706            5 
 2395000    0.8566219   -7.6365837    672.70664  0.023406633   0.02322042            3 
 2396000   0.85579509   -7.6253523    672.71919  0.023397301  0.023213773            3 
 2397000   0.87252281   -7.6260939     672.6863  0.023386396  0.023207076            1 
 2398000   0.87832164   -7.6238202    674.94674  0.023455197  0.023200383            1 
 2399000   0.86332837   -7.6286389    672.91559  0.023374864  0.023193737            3 
 2400000   0.86088291   -7.6254509    672.48379  0.023350132  0.023187077            1 
 2401000   0.86824458   -7.6279099    675.44767  0.023443276  0.023180487            3 
 2402000   0.86886581   -7.6065013    673.46124    0.0233646  0.023173914            2 
 2403000   0.88200837   -7.6199509    672.27937  0.023313891  0.023167303            3 
 2404000   0.85156778   -7.6151156    674.32966  0.023375266    0.0231607            2 
 2405000   0.85315416   -7.6363208    674.80484  0.023382011  0.023154092            1 
 2406000   0.86934483   -7.6311203      674.005   0.02334459  0.023147475            2 
 2407000   0.86266282   -7.5975282    674.30113  0.023345144  0.023140833            2 
 2408000   0.86359101   -7.6310857    672.73971  0.023281413  0.023134155            2 
 2409000   0.84025665   -7.6492113    672.30494  0.023256709  0.023127402            2 
 2410000    0.8705899   -7.6269194    673.10121  0.023274592  0.023120679            3 
 2411000      0.86791    -7.623702    673.97738  0.023295223   0.02311399            2 
 2412000   0.89584562   -7.6214877    675.52363  0.023338987  0.023107321            3 
 2413000   0.85334571   -7.6395667    672.73117  0.023232876  0.023100625            2 
 2414000   0.86648592   -7.6312484    672.48206  0.023214653  0.023093859            1 
 2415000   0.86844274   -7.6364578    673.25356  0.023231662  0.023087135            3 
 2416000   0.88534801   -7.6155336    673.04747  0.023214937  0.023080404            3 
 2417000   0.86440201   -7.6363669    673.55101  0.023222694   0.02307375            1 
 2418000   0.88343645   -7.6092826     673.9865  0.023228098  0.023067099            2 
 2419000   0.87014768   -7.6087725     674.4694  0.023235132  0.023060393            5 
 2420000   0.87590399   -7.6649789    674.67712  0.023232683  0.023053688            1 
 2421000    0.8801272   -7.5914348    675.25195  0.023242873  0.023046939            4 
 2422000   0.85203597   -7.6071512    675.33563  0.023236156  0.023040261            2 
 2423000   0.86702163   -7.6377633    673.98419  0.023180086  0.023033543            6 
 2424000   0.87325755   -7.6781979    673.43063  0.023151493  0.023026829            2 
 2425000   0.87010524   -7.6354946    673.73149  0.023152285  0.023020135            1 
 2426000   0.86614723   -7.6114935    675.36233  0.023198761  0.023013466            3 
 2427000   0.85704877   -7.6305357    675.13189   0.02318129  0.023006838            3 
 2428000   0.86481626   -7.6510118    675.27233  0.023176563  0.023000178            1 
 2429000   0.87539217   -7.6464584    674.92594  0.023155137  0.022993471            2 
 2430000   0.86575234   -7.6488426    675.27847  0.023157698  0.022986775            1 
 2431000   0.85414309   -7.6417912    674.51581  0.023122028  0.022980112            1 
 2432000   0.88624769   -7.6431804    673.01282   0.02306102  0.022973424            2 
 2433000    0.8431983   -7.6438514    675.80066  0.023147029  0.022966696            2 
 2434000   0.86405007   -7.6691231    672.63036  0.023028977  0.022959931            2 
 2435000   0.85809352    -7.651451    674.57631  0.023086116  0.022953173            2 
 2436000   0.86306555   -7.6619591    674.89644   0.02308759  0.022946468            2 
 2437000    0.8550142   -7.6718635    674.66342  0.023070149  0.022939752            4 
 2438000   0.85739793    -7.655737    676.07435  0.023108913  0.022933049            4 
 2439000   0.86736576    -7.646611    676.36254  0.023109285  0.022926365            4 
 2440000   0.84651609   -7.6401088     677.3394  0.023133176  0.022919696            1 
 2441000   0.86650851   -7.6461225    675.97567  0.023077143  0.022913039            2 
 2442000   0.85411696   -7.6494664    676.30556   0.02307895  0.022906376            2 
 2443000   0.85104187   -7.6373621    676.35322  0.023071129  0.022899682            3 
 2444000   0.86476145   -7.6335945    675.41598  0.023029732   0.02289301            3 
 2445000   0.86040495   -7.6534345    675.59214  0.023026317  0.022886304            1 
 2446000   0.84494731   -7.6396868    677.17438  0.023070809  0.022879593            3 
 2447000   0.86207651   -7.6318235    678.08245  0.023092305  0.022872896            2 
 2448000   0.86107377    -7.652083    676.08156  0.023014759  0.022866206            2 
 2449000   0.85447319   -7.6743967    676.78264  0.023029217  0.022859507            2 
 2450000   0.86579268   -7.6259201    677.24271  0.023035466  0.022852763            2 
 2451000   0.86145831   -7.6350178    676.57004  0.023003197  0.022846034            2 
 2452000   0.86477928    -7.656597    674.81095  0.022934032  0.022839257            2 
 2453000   0.83546941   -7.6518074    676.86407  0.022994431  0.022832474            5 
 2454000   0.87870872   -7.6643923    675.58403  0.022941593  0.022825723            2 
 2455000   0.85792108   -7.6428425    676.85086   0.02297525  0.022819017            1 
 2456000   0.88806362   -7.6296004    676.20379   0.02294394  0.022812262            2 
 2457000   0.84820523   -7.6504833    678.93904  0.023027372  0.022805543            3 
 2458000   0.86159981   -7.6657108    675.72111  0.022908907  0.022798785            4 
 2459000   0.85097405   -7.6504403    675.89574  0.022905508  0.022792022            2 
 2460000   0.86179847   -7.6529112    676.35926  0.022911899  0.022785259            1 
 2461000   0.84203023   -7.6628679      677.432  0.022938914   0.02277847            2 
 2462000   0.86184312   -7.6841871    675.36923  0.022859776  0.022771658            3 
 2463000   0.86636027   -7.6437246    676.51923  0.022889404  0.022764873            8 
 2464000   0.85637037   -7.6344293    678.37311  0.022942813  0.022758167            2 
 2465000   0.86740219    -7.652911    677.65725  0.022909305   0.02275147            2 
 2466000    0.8667284   -7.6247891    676.27597  0.022853338  0.022744719            2 
 2467000   0.84548398    -7.637389    676.51236  0.022852059  0.022737954            4 
 2468000   0.86232986   -7.6267025    677.29567  0.022869249  0.022731229            2 
 2469000   0.86161202   -7.6696031    677.96328  0.022882519  0.022724489            3 
 2470000   0.87259348   -7.6296977    677.04108  0.022842142  0.022717745            3 
 2471000   0.86416439   -7.6822154    678.33494  0.022876532  0.022710959            2 
 2472000   0.86132614   -7.6529222    678.65029  0.022877909  0.022704198            1 
 2473000   0.87737798   -7.6523087    678.49166  0.022863313  0.022697396            1 
 2474000   0.85533279   -7.6402319    675.72367  0.022760835   0.02269063            2 
 2475000   0.85842285   -7.6518773    678.72014   0.02285253  0.022683924            1 
 2476000   0.83692517   -7.6726784    677.13169  0.022789839  0.022677175            3 
 2477000   0.86216137    -7.649267    677.74102  0.022801138  0.022670409            2 
 2478000   0.83911507   -7.6733634    678.27053  0.022809743   0.02266365            6 
 2479000   0.84291944   -7.6741075    678.07972  0.022794128  0.022656911            3 
 2480000    0.8444322   -7.6733011    676.81029  0.022742281  0.022650108            2 
 2481000   0.83272537   -7.6559468    676.65692  0.022727963  0.022643344            2 
 2482000   0.84506336   -7.6610404    678.42745  0.022778252  0.022636554            1 
 2483000   0.84519031   -7.6146768    677.85675  0.022749924   0.02262977            5 
 2484000   0.88146255   -7.6267278    677.80281  0.022738956  0.022623002            2 
 2485000   0.85834387   -7.6589353    679.24734  0.022778248  0.022616262            2 
 2486000   0.85185686    -7.641655    678.27674  0.022736549  0.022609483            2 
 2487000   0.84408619    -7.650076    677.48134  0.022700755  0.022602704            5 
 2488000   0.85414489    -7.684459    678.39447  0.022722216  0.022595856            4 
 2489000   0.85682535   -7.6491084    678.02957   0.02270087  0.022589015            3 
 2490000   0.85134542    -7.674817     679.3805  0.022736964  0.022582202            2 
 2491000   0.86312112   -7.7125044    676.92024  0.022645532   0.02257536            2 
 2492000     0.853919   -7.6291168    680.10116  0.022742816  0.022568549            2 
 2493000    0.8580114    -7.673305    679.92372  0.022727762  0.022561776            2 
 2494000   0.87043552   -7.6313029     679.1906  0.022694153  0.022554981            1 
 2495000   0.84679699    -7.661574    677.96965  0.022644277  0.022548204            2 
 2496000   0.85016582   -7.6519828    680.82162  0.022730423    0.0225414            1 
 2497000   0.84635329   -7.6617874    680.03968  0.022695223  0.022534595            3 
 2498000   0.84610145   -7.6263645    681.56932  0.022737167  0.022527807            2 
 2499000   0.84643508   -7.6483543    679.94104  0.022673771  0.022521071            1 
 2500000   0.84904488   -7.6653319    679.06053  0.022635351  0.022514326            3 
 2501000   0.84238105   -7.6723751    680.09813  0.022660873  0.022507555            2 
 2502000   0.82545923   -7.6869147    678.38372  0.022594715  0.022500738            2 
 2503000   0.85909478   -7.6820951    679.06654  0.022608421  0.022493911            3 
 2504000   0.86290757   -7.6583302    679.45749  0.022612403  0.022487106            1 
 2505000   0.82387445   -7.7002829     678.2086   0.02256183  0.022480283            2 
 2506000    0.8398064   -7.6468138    679.98159  0.022611785  0.022473473            2 
 2507000   0.83920287   -7.6487768    679.97194  0.022602445  0.022466693            3 
 2508000   0.84658571   -7.6603438    679.85543  0.022589561  0.022459948            2 
 2509000   0.85608239   -7.6750992    679.05917  0.022554111  0.022453179            4 
 2510000   0.83970645   -7.7141215    679.51526  0.022560268  0.022446374            3 
 2511000   0.82698259   -7.7042332    680.18791  0.022573606  0.022439575            2 
 2512000   0.83509087   -7.6663864    680.07849   0.02256099  0.022432803            2 
 2513000   0.85653061   -7.6833077    679.16882  0.022521847  0.022426072            2 
 2514000   0.85133356   -7.6812522    680.56887  0.022559297  0.022419331            2 
 2515000   0.85063446   -7.6378724    682.25679  0.022606255   0.02241259            4 
 2516000   0.85138195   -7.6783518    681.69296  0.022578596  0.022405872            3 
 2517000   0.83862216   -7.6845913     679.3904  0.022493392  0.022399122            2 
 2518000   0.85235425   -7.6854419    678.95642  0.022470096  0.022392349            3 
 2519000   0.84957035   -7.6847661    683.57192  0.022613865  0.022385616            2 
 2520000    0.8590452   -7.6807062    682.02346  0.022553686  0.022378907            3 
 2521000   0.85648196   -7.6550356    684.08376  0.022612844  0.022372162            6 
 2522000   0.85109228   -7.6838624    680.47699  0.022484701  0.022365414            5 
 2523000   0.85227404   -7.6260173    682.34339  0.022537435   0.02235868            2 
 2524000   0.83172126   -7.6947306    680.57387  0.022470083  0.022351931            3 
 2525000   0.83504068   -7.6548667    681.56302  0.022493829  0.022345206            3 
 2526000   0.84085052   -7.6898004     681.8856  0.022495566  0.022338506            1 
 2527000    0.8507253   -7.6600725    683.21073  0.022530363  0.022331838            4 
 2528000   0.83653893   -7.6517947    683.40314  0.022527793  0.022325153            2 
 2529000    0.8560062   -7.6519578    684.01444  0.022539029  0.022318481            2 
 2530000   0.83019832   -7.6482306    683.31784  0.022507175  0.022311881            1 
 2531000    0.8376251   -7.6486031    683.14386  0.022492554  0.022305276            3 
 2532000   0.85570987   -7.6638692    684.15206  0.022516853  0.022298626            1 
 2533000   0.87848677   -7.6759653    684.59327  0.022522479  0.022291973            1 
 2534000   0.87160008   -7.6563774    683.24541  0.022469265  0.022285339            2 
 2535000    0.8501571   -7.6396099     684.3314  0.022496101  0.022278742            2 
 2536000   0.86060763   -7.6632143    683.66781  0.022465425  0.022272093            4 
 2537000   0.81831404     -7.68069    683.23249  0.022442271  0.022265427            4 
 2538000   0.84287611   -7.6679223    683.89901  0.022455313  0.022258785            2 
 2539000   0.83634024   -7.6803022    682.32654  0.022394858   0.02225209            4 
 2540000   0.83570422   -7.7168637    682.50243  0.022391812   0.02224539            2 
 2541000   0.84405081   -7.6589774    685.09304   0.02246796  0.022238737            3 
 2542000   0.84685181   -7.6793742    685.50829  0.022472734   0.02223213            1 
 2543000   0.85612462   -7.6908367    683.42571  0.022395652  0.022225475            2 
 2544000   0.85714783   -7.6903309    684.26712  0.022414411  0.022218825            4 
 2545000   0.85383044   -7.7080102    683.11854  0.022367994  0.022212221            2 
 2546000   0.85057012    -7.707412    683.51526  0.022372194  0.022205579            5 
 2547000   0.84454708   -7.6803622    685.07172  0.022414334  0.022198947            2 
 2548000   0.84644219   -7.7051749    685.51111  0.022419908  0.022192363            2 
 2549000    0.8363336   -7.6779079    685.36017  0.022406178  0.022185745            2 
 2550000   0.85404726   -7.6862561    685.93116  0.022416051   0.02217917            1 
 2551000   0.83425279   -7.6986073    685.52944  0.022394141  0.022172628            3 
 2552000   0.85013664    -7.658337    685.55807  0.022386301  0.022166077            2 
 2553000   0.86195635   -7.7153304    684.53478   0.02234413  0.022159511            2 
 2554000   0.82297307   -7.6740017    686.01098  0.022383548  0.022152915            1 
 2555000   0.86053997   -7.7100454    685.46504  0.022356981  0.022146341            2 
 2556000   0.83668575   -7.6965051    685.37228   0.02234521  0.022139727            1 
 2557000   0.83250359   -7.6840271    685.05357  0.022326084   0.02213312            7 
 2558000   0.84758014   -7.6593855    685.98967  0.022347852  0.022126522            5 
 2559000   0.84254995   -7.6718372    686.66278  0.022361039  0.022119984            2 
 2560000   0.85276129   -7.6666517    686.61728  0.022350823  0.022113462            2 
 2561000   0.83361173   -7.6737658    686.11766  0.022325838  0.022106895            4 
 2562000   0.83280559   -7.7030736    687.09972  0.022349067  0.022100351            2 
 2563000   0.82461158   -7.6646194    687.26554  0.022345739  0.022093822            3 
 2564000   0.84574749   -7.6833798    687.12828  0.022332562  0.022087317            3 
 2565000   0.84342855    -7.669649    688.01791  0.022352759   0.02208084            2 
 2566000   0.82959352   -7.7020697    687.17987  0.022316831  0.022074319            3 
 2567000   0.83628183   -7.6827407    687.80766  0.022328518  0.022067765            1 
 2568000   0.83035123   -7.6839339    686.51949  0.022278021  0.022061275            1 
 2569000   0.85801755   -7.6834937    687.62824  0.022305315  0.022054782            2 
 2570000   0.82431429   -7.6781545    688.43036  0.022322645  0.022048295            5 
 2571000    0.8502732   -7.6968732     686.7305  0.022258865  0.022041751            2 
 2572000   0.84002721   -7.7215983     687.8184  0.022285459  0.022035212            2 
 2573000   0.83399495   -7.6857288    690.14974  0.022352304  0.022028744            2 
 2574000   0.83387794   -7.6935278    687.76361  0.022266369  0.022022277            1 
 2575000   0.84197509   -7.6934062    687.97281  0.022264492   0.02201579            1 
 2576000   0.84041927   -7.6784775    689.09332  0.022292098  0.022009337            3 
 2577000   0.83884767    -7.687206    688.30626  0.022257996  0.022002821            3 
 2578000   0.81779838   -7.7282336    686.61708   0.02219476  0.021996293            2 
 2579000   0.83050621   -7.7139218    688.24357  0.022238709  0.021989743            2 
 2580000   0.84012243   -7.6794875    688.58594  0.022241148  0.021983242            2 
 2581000   0.82915071   -7.6794374    688.94626  0.022244164  0.021976731            2 
 2582000   0.84172614   -7.6654268    689.04893  0.022238863  0.021970234            7 
 2583000   0.85386819   -7.6963871    688.38734  0.022208909  0.021963763            5 
 2584000   0.83132468   -7.6833942    688.46018  0.022202663  0.021957282            3 
 2585000   0.84017872    -7.696858    688.82895  0.022205962  0.021950768            2 
 2586000   0.84193239   -7.6874307    690.76803  0.022259862  0.021944319            1 
 2587000   0.83483066   -7.6787106    687.96194  0.022160867  0.021937852            2 
 2588000    0.8214431   -7.6869649    688.22534  0.022160785  0.021931329            3 
 2589000   0.86368464    -7.726163    687.23509  0.022120352  0.021924835            3 
 2590000   0.83312335   -7.7130937    689.22092  0.022175705  0.021918369            5 
 2591000   0.84362151   -7.6928993    690.61301   0.02221192  0.021911904            4 
 2592000   0.82441259   -7.7025618    688.83111  0.022146062  0.021905423            2 
 2593000   0.84777239   -7.6963186    689.25466  0.022151133  0.021898941            2 
 2594000   0.84681613   -7.7326867    688.94268  0.022132571   0.02189247            2 
 2595000   0.83220589   -7.7155085    689.59848  0.022145102  0.021886045            5 
 2596000   0.85139275   -7.7012409    688.43794  0.022099317  0.021879606            1 
 2597000   0.82685105   -7.7215431    689.33271  0.022119519  0.021873114            4 
 2598000   0.83461518   -7.7111863    692.97498  0.022227835   0.02186665            2 
 2599000   0.83899221   -7.7226475    689.79583  0.022117347    0.0218602            3 
 2600000   0.84651101   -7.6877111    690.61038  0.022134948  0.021853748            2 
 2601000   0.81937592   -7.7316855    690.86881  0.022134718  0.021847269            2 
 2602000    0.8352966    -7.717294    690.70389  0.022120929  0.021840822            2 
 2603000   0.85011556   -7.6871592    689.18471  0.022063795  0.021834422            1 
 2604000   0.82312321   -7.7102447    690.44566  0.022095675  0.021827999            3 
 2605000    0.8454828     -7.71381    691.99503  0.022136757  0.021821521            1 
 2606000   0.82314181   -7.6961788    690.35639  0.022075863  0.021815063            1 
 2607000   0.83223416   -7.7150759    690.99498  0.022087808  0.021808609            4 
 2608000    0.8306302    -7.725624    690.49152  0.022063251   0.02180213            2 
 2609000   0.83072089   -7.7699983    690.13742  0.022043485  0.021795616            1 
 2610000    0.8273346   -7.7267604    689.56406  0.022016733  0.021789128            2 
 2611000   0.82886715   -7.7156642    689.68903  0.022012289  0.021782683            3 
 2612000   0.84805541   -7.7253233    690.66585  0.022035026  0.021776195            1 
 2613000   0.83975375   -7.6929664    692.65472  0.022090022  0.021769728            3 
 2614000   0.83456341   -7.7296027    690.91491  0.022026106  0.021763291            2 
 2615000   0.83204954   -7.7153005     691.5413  0.022037645  0.021756817            3 
 2616000     0.828122   -7.7179626    691.38832  0.022024348  0.021750372            3 
 2617000   0.82742667   -7.7055397    692.90248  0.022064147  0.021743989            2 
 2618000   0.82960457   -7.7209616    690.90178  0.021992035  0.021737557            2 
 2619000   0.82997872   -7.7210315    690.84812  0.021981931  0.021731089            1 
 2620000   0.84777747   -7.7389495    689.99245  0.021946325    0.0217246            2 
 2621000   0.81445461   -7.7085976    690.57226  0.021956386  0.021718133            3 
 2622000   0.83069948   -7.7045373    693.07092  0.022027425  0.021711695            2 
 2623000   0.84963172    -7.742913    689.51672   0.02190611  0.021705255            3 
 2624000   0.82045961   -7.7113423    692.32284  0.021986879  0.021698792            4 
 2625000   0.80938846   -7.7353773    690.95166  0.021934973  0.021692351            2 
 2626000   0.83174177   -7.7344816     692.1164  0.021963582  0.021685894            1 
 2627000   0.83397397   -7.7262681    692.32709  0.021961905  0.021679462            3 
 2628000   0.83229165    -7.735568    692.04686  0.021944662  0.021673038            2 
 2629000   0.82508089   -7.7196647    692.23402  0.021942247   0.02166664            2 
 2630000   0.84593083   -7.7106314    691.00153  0.021894852  0.021660199            1 
 2631000   0.84778116   -7.7094607     692.9275  0.021947533  0.021653776            2 
 2632000    0.8314135   -7.7310335    692.81734  0.021935706  0.021647373            2 
 2633000   0.81565136   -7.7003829    692.92181  0.021930682  0.021640947            4 
 2634000   0.83434777   -7.7498175    692.72237  0.021916046  0.021634496            2 
 2635000   0.84119917   -7.7092926    692.36622  0.021896465  0.021628086            3 
 2636000   0.84130155   -7.7169339    693.94626  0.021938109  0.021621686            1 
 2637000   0.83777984   -7.7378033    691.72104  0.021859469  0.021615264            3 
 2638000   0.81932581   -7.7170379    691.84608  0.021855133  0.021608835            2 
 2639000    0.8270837   -7.7184552    693.23797  0.021890803  0.021602386            2 
 2640000   0.83851879   -7.7163106    693.28319  0.021883939  0.021595977            1 
 2641000   0.81432933    -7.697141    693.36983  0.021878387  0.021589586            4 
 2642000   0.83324175    -7.728208    693.34331  0.021869269  0.021583236            1 
 2643000   0.84192957   -7.7449154    693.63404  0.021870162  0.021576852            2 
 2644000   0.83794037   -7.7027774    696.35539  0.021947661   0.02157052            2 
 2645000   0.83622049   -7.7336195    691.93592  0.021800124  0.021564126            3 
 2646000   0.83635473   -7.6991544    694.07493  0.021859251  0.021557727            3 
 2647000   0.83531575    -7.711448     692.3478  0.021796619  0.021551326            2 
 2648000   0.82706686   -7.6717772    692.70123   0.02179951  0.021544964            3 
 2649000   0.83198667   -7.7214623    696.16062  0.021900108   0.02153858            4 
 2650000   0.82866666   -7.7152006    694.78544  0.021848599  0.021532181            1 
 2651000   0.83455368   -7.6978591    695.80949  0.021872548  0.021525804            1 
 2652000   0.81849479     -7.71882    694.80608   0.02183277  0.021519498            2 
 2653000   0.83023493   -7.7211499    695.81241   0.02185615   0.02151316            3 
 2654000   0.82511883   -7.7112552    694.71293  0.021813393  0.021506838            3 
 2655000   0.83631731   -7.7339773    693.80386  0.021776644  0.021500504            2 
 2656000   0.81277676   -7.7201198    694.41243  0.021787539  0.021494157            3 
 2657000   0.81925233   -7.6932382    696.03628  0.021830269  0.021487791            1 
 2658000   0.81906619   -7.6956097    694.00225  0.021758285  0.021481465            3 
 2659000   0.82355188   -7.7122889    696.86909  0.021839949  0.021475141            2 
 2660000   0.83195061   -7.7101755    696.02007   0.02180514  0.021468802            2 
 2661000   0.80644747   -7.7505309    695.20373  0.021771381  0.021462422            4 
 2662000    0.8270457   -7.7324525    695.53425  0.021773549  0.021456025            2 
 2663000   0.82012542    -7.763147    694.14136  0.021721785  0.021449634            4 
 2664000   0.83229628   -7.7419208    696.21801  0.021778591   0.02144325            6 
 2665000    0.8166658   -7.7230751    696.45912  0.021777959  0.021436882            5 
 2666000   0.82023567   -7.7318329    696.22915  0.021762602  0.021430536            6 
 2667000     0.829922   -7.7558681    696.24841  0.021755044  0.021424181            4 
 2668000   0.83264622   -7.7589224    695.70432  0.021729895  0.021417805            2 
 2669000   0.80738463   -7.7736237    694.25843  0.021676609  0.021411419            4 
 2670000   0.83753749   -7.7283327    695.47248  0.021706382  0.021405072            3 
 2671000   0.82185301   -7.7323938    695.43953  0.021697227  0.021398729            2 
 2672000     0.808901   -7.7228234    695.07138  0.021677625  0.021392418            2 
 2673000   0.81698685   -7.7331622    696.56763  0.021716163   0.02138612            2 
 2674000   0.82497628   -7.7214216    696.52176  0.021706612  0.021379791            3 
 2675000   0.81722879   -7.7310414    697.12341   0.02171724  0.021373433            3 
 2676000   0.81752715   -7.7879951    694.71049  0.021633984  0.021367057            2 
 2677000   0.83419682    -7.733977    694.98202  0.021634355  0.021360681            3 
 2678000   0.81611801   -7.7670058    695.73076  0.021649576  0.021354328            3 
 2679000     0.818339   -7.7237442    696.24474  0.021657482  0.021347956            4 
 2680000    0.8139775   -7.7384068    696.52421  0.021658091  0.021341625            3 
 2681000   0.82325114   -7.7262461    697.37293  0.021676394  0.021335291            2 
 2682000    0.8347351   -7.7259451     696.2487   0.02163338  0.021328918            6 
 2683000   0.80099842   -7.7143026     697.5511  0.021665769   0.02132262            2 
 2684000   0.81133675   -7.7201513    695.86851  0.021605456  0.021316307            2 
 2685000   0.82506496   -7.7553619     696.4496  0.021615444  0.021310008            2 
 2686000   0.82885348   -7.7579188    695.16672  0.021567595  0.021303683            5 
 2687000   0.83991536   -7.7576991     697.9409  0.021645605  0.021297384            2 
 2688000   0.80919592   -7.7305357    697.92245  0.021636981  0.021291071            3 
 2689000   0.83304321    -7.727515    697.64591  0.021620364  0.021284812            2 
 2690000   0.82843047   -7.7587526    696.55752   0.02157861  0.021278474            3 
 2691000   0.82451818   -7.7597813    695.77757  0.021546438  0.021272122            3 
 2692000    0.8300084   -7.7441119    697.13993  0.021580607  0.021265774            2 
 2693000   0.83521748   -7.7231665    699.95956  0.021659845  0.021259514            4 
 2694000   0.82896074   -7.7025583    698.47501  0.021605884   0.02125324            1 
 2695000   0.83145074   -7.7383159    697.85649  0.021578741  0.021246972            3 
 2696000   0.82282799    -7.766959    697.37052  0.021555716  0.021240685            2 
 2697000   0.84450755   -7.7257659    697.36359  0.021547509   0.02123437            4 
 2698000   0.82648166   -7.6980033    699.10741  0.021593384  0.021228113            2 
 2699000   0.81387259   -7.7467453    699.19992   0.02158824  0.021221855            5 
 2700000   0.81179044    -7.734939    698.69773  0.021564745  0.021215576            2 
 2701000    0.8320695   -7.7529727    697.64273  0.021524211  0.021209318            2 
 2702000   0.79704649   -7.7531408    698.18276    0.0215329  0.021203059            2 
 2703000    0.8113463   -7.7262634    699.21964  0.021556901  0.021196795            3 
 2704000   0.81459694   -7.7567888    697.96757  0.021510342    0.0211905            4 
 2705000   0.82515566   -7.7503702    698.53363  0.021519828  0.021184181            2 
 2706000   0.81089778   -7.7444438    698.44524  0.021509154   0.02117788            3 
 2707000   0.80929095   -7.7097321    698.15427  0.021492251  0.021171575            2 
 2708000   0.82111873   -7.7288259    698.91025  0.021507578  0.021165288            5 
 2709000   0.81108743   -7.7759013    696.37513  0.021421654  0.021158974            2 
 2710000   0.80737946   -7.7527092    697.83235  0.021458559  0.021152645            4 
 2711000   0.80357781   -7.7094758    698.37666  0.021467375  0.021146365            2 
 2712000   0.81849657   -7.7453738     698.9119  0.021475906  0.021140097            3 
 2713000   0.80338876   -7.7243643    698.79998  0.021464553  0.021133845            3 
 2714000   0.82172769   -7.7521202    699.54844  0.021479625  0.021127609            2 
 2715000   0.80784484   -7.7539219    700.09405  0.021488461  0.021121396            4 
 2716000   0.82972604   -7.7675455    698.37647  0.021427849  0.021115141            1 
 2717000   0.80868616    -7.762557    698.54768  0.021425214  0.021108889            6 
 2718000   0.81411992    -7.735787    698.11913  0.021404192  0.021102635            3 
 2719000   0.81684839   -7.7268557    701.25904  0.021492554  0.021096423            2 
 2720000   0.82433643   -7.7689627    701.45583  0.021490681  0.021090198            2 
 2721000   0.81688997   -7.7817589    698.78311  0.021400928  0.021083934            4 
 2722000   0.82189195   -7.7637796    699.59336  0.021417872  0.021077674            5 
 2723000    0.8397262   -7.7768373    698.73145  0.021383629  0.021071413            2 
 2724000   0.79170872   -7.7500133    699.64014  0.021403577  0.021065167            2 
 2725000   0.82177245   -7.7370956    700.02699  0.021407553  0.021058926            3 
 2726000   0.80297484   -7.7491994    701.39157  0.021441415  0.021052673            3 
 2727000   0.80780413   -7.7140053    701.71046  0.021443297   0.02104649            1 
 2728000   0.82469469   -7.7380089    700.85581  0.021409329  0.021040331            3 
 2729000   0.81737596   -7.7611145    700.61597  0.021394161  0.021034138            3 
 2730000   0.83063086   -7.7553604    701.81102  0.021422803  0.021027962            2 
 2731000   0.81033409   -7.7288401    701.89197  0.021417429  0.021021793            2 
 2732000   0.81436613   -7.7296653    702.70428  0.021434367  0.021015681            2 
 2733000   0.80360809   -7.7108986    700.93427  0.021372554  0.021009583            3 
 2734000   0.83410415   -7.7492338    701.74836   0.02138955   0.02100344            2 
 2735000   0.82149534   -7.7712739    700.45778  0.021342407  0.020997263            2 
 2736000   0.80809051   -7.7349445    701.48975  0.021366038  0.020991122            3 
 2737000   0.82020266   -7.7340054    701.29053  0.021352166  0.020984975            3 
 2738000   0.81270899   -7.7617244    700.78363  0.021328939  0.020978798            2 
 2739000   0.81418685   -7.7426244    702.83126  0.021383451  0.020972629            3 
 2740000   0.82440154   -7.7645479    699.53677  0.021275449  0.020966453            1 
 2741000   0.81287534   -7.7731021    701.27248  0.021320457  0.020960236            2 
 2742000   0.80577858   -7.7718236    701.80014  0.021328718  0.020954053            2 
 2743000     0.831404   -7.7643085    701.43592  0.021309877  0.020947876            3 
 2744000   0.81875258   -7.7559937    701.96246  0.021318102  0.020941744            2 
 2745000   0.81509325   -7.7800744    701.46971  0.021295377  0.020935592            5 
 2746000   0.82622647   -7.7813796    701.72993  0.021295519  0.020929431            3 
 2747000   0.80572947   -7.7481732    702.40697  0.021308305  0.020923283            2 
 2748000   0.77837522    -7.762048    703.56396  0.021335637  0.020917133            1 
 2749000   0.81915409   -7.7703734    701.92804  0.021278284     0.020911            2 
 2750000   0.80156156   -7.7623261    702.50342  0.021287982  0.020904843            1 
 2751000   0.82291123   -7.7853533    703.28696  0.021303979  0.020898714            7 
 2752000   0.78601183   -7.7574751    703.34943   0.02129813  0.020892563            4 
 2753000   0.81267905   -7.7762498    703.12298  0.021283539  0.020886416            2 
 2754000   0.80835613   -7.7699723    703.35645  0.021282875  0.020880285            1 
 2755000   0.82226045   -7.7613536    702.81925  0.021258901  0.020874133            3 
 2756000   0.81430698   -7.7449411     701.8875  0.021223013  0.020867988            3 
 2757000   0.80914912   -7.7451952    704.31176  0.021288592  0.020861812            2 
 2758000   0.81121046   -7.7767016    703.12306  0.021244956  0.020855634            2 
 2759000   0.80402964   -7.7782577    702.82288  0.021228189  0.020849446            3 
 2760000   0.81625746   -7.7550381    704.04478  0.021257391  0.020843246            3 
 2761000   0.80027875   -7.7715992    703.69878  0.021239249  0.020837055            2 
 2762000   0.80500151   -7.7705146    701.71577  0.021171728   0.02083085            1 
 2763000   0.80201089   -7.7679231    702.69744  0.021193674  0.020824634            3 
 2764000   0.81605626   -7.7719875    701.93391  0.021162986  0.020818451            2 
 2765000   0.80424698   -7.7657892    702.42243  0.021170055  0.020812245            2 
 2766000   0.81484065   -7.7722836    701.36143  0.021130436  0.020806028            4 
 2767000   0.78655602   -7.7886187    701.33037  0.021121864  0.020799795            1 
 2768000   0.81252831   -7.7887546    702.20507  0.021140567  0.020793587            3 
 2769000   0.83306254   -7.8018339     702.0844  0.021129301  0.020787392            3 
 2770000   0.78519794   -7.7814696    703.18311  0.021154727  0.020781184            5 
 2771000   0.79689163   -7.7911427    700.96711   0.02108045   0.02077492            2 
 2772000   0.81985675   -7.8043943      701.895   0.02110074  0.020768683            3 
 2773000   0.83520703   -7.7897043    702.68102  0.021116751  0.020762446            3 
 2774000   0.79482875   -7.7898422    702.37365  0.021099906  0.020756202            2 
 2775000    0.7992015    -7.800112     702.3022  0.021090156      0.02075            2 
 2776000   0.79651621   -7.7718104    703.30246  0.021112586  0.020743764            2 
 2777000     0.808964   -7.7608882    702.81065  0.021090225  0.020737539            2 
 2778000   0.79704885   -7.8163271    702.82684  0.021083119  0.020731319            2 
 2779000   0.82086664   -7.7754114    703.87063  0.021106832  0.020725079            3 
 2780000   0.80522755   -7.7887361    702.75638  0.021065839  0.020718879            2 
 2781000   0.79762302   -7.7798021    703.10048  0.021068575  0.020712669            2 
 2782000   0.80068318    -7.802995    703.20975  0.021064275   0.02070644            3 
 2783000   0.80818593   -7.7713322      702.345  0.021030812  0.020700264            3 
 2784000   0.80576713   -7.7726416    703.24254  0.021050124   0.02069408            2 
 2785000   0.80060681   -7.8070334    701.48572  0.020989998  0.020687875            1 
 2786000    0.7938442   -7.7555666    703.23926  0.021034914  0.020681695            2 
 2787000   0.80742311    -7.786957     702.2386  0.020997447  0.020675536            1 
 2788000   0.80955279   -7.7552986    704.25054  0.021050052  0.020669378            5 
 2789000    0.7954516   -7.7480263    704.61374  0.021053357  0.020663265            3 
 2790000   0.80443345   -7.7803235    702.92166  0.020995271  0.020657102            2 
 2791000   0.79936545   -7.7892872    705.51432   0.02106516  0.020650941            1 
 2792000   0.83496421   -7.7558729    704.75092  0.021034829  0.020644795            1 
 2793000   0.81558093   -7.7559426    704.95616  0.021033422  0.020638642            2 
 2794000   0.78887596   -7.7735354    704.47577  0.021011566  0.020632498            2 
 2795000   0.80199039   -7.7844095     704.9235  0.021017397  0.020626368            3 
 2796000   0.79277573   -7.7680465    706.07514  0.021044204  0.020620209            2 
 2797000    0.8075944   -7.7808741    705.60441  0.021022656  0.020614079            2 
 2798000   0.81098325    -7.758075    706.02113  0.021027553  0.020607949            1 
 2799000   0.80646272   -7.7763239    704.89435  0.020986494  0.020601842            2 
 2800000   0.82103658   -7.7696505    704.73237  0.020974178  0.020595712            5 
 2801000   0.81859954   -7.7659472    706.21911  0.021010922  0.020589573            4 
 2802000   0.79131388   -7.8005194    703.45741  0.020921289  0.020583435            2 
 2803000   0.79764047   -7.7784421    704.82109  0.020954367  0.020577263            1 
 2804000   0.81563377   -7.7707405    705.33194  0.020962076  0.020571098            5 
 2805000   0.79668618   -7.7972942    704.70007  0.020935831  0.020564935            3 
 2806000   0.79605343   -7.7769166    705.28369  0.020945702  0.020558741            4 
 2807000   0.82032994   -7.8024534    705.37914  0.020941074  0.020552582            3 
 2808000   0.80053202   -7.7779158    705.66297   0.02094204  0.020546444            2 
 2809000   0.79310294   -7.7753502     704.9775  0.020914249  0.020540317            4 
 2810000   0.81024955   -7.7822133    704.60419  0.020895735  0.020534186            3 
 2811000   0.79956247   -7.7871707    704.75968  0.020892911  0.020528071            2 
 2812000   0.80355152   -7.7550863    705.56598  0.020909376  0.020521955            2 
 2813000     0.792257   -7.7960282    705.96055  0.020913632  0.020515825            3 
 2814000   0.79710827   -7.7666126    704.52485  0.020863683   0.02050968            2 
 2815000   0.80724635   -7.7724721    707.00844  0.020929794  0.020503529            2 
 2816000   0.79418943    -7.819909    705.06469  0.020864841  0.020497386            3 
 2817000   0.78611915    -7.776611    704.81845  0.020850149  0.020491236            2 
 2818000     0.792162   -7.7967704    705.26055  0.020855824  0.020485118            2 
 2819000   0.80438229   -7.8099263    704.25695  0.020818758  0.020478986            2 
 2820000   0.79694545   -7.8098778    706.48329  0.020877166  0.020472855            3 
 2821000   0.79560116   -7.8205953    705.62355  0.020844368  0.020466686            2 
 2822000   0.78871015   -7.7989193    706.62841  0.020866655  0.020460601            4 
 2823000   0.80001613   -7.7971879    706.85436  0.020865933  0.020454524            1 
 2824000   0.80758734   -7.7691086     707.7185  0.020884045  0.020448453            2 
 2825000   0.79088211   -7.7799892     706.6783  0.020845968  0.020442371            2 
 2826000   0.80306972    -7.807397     707.0837  0.020850546  0.020436209            2 
 2827000   0.81660691   -7.7626777    708.30915  0.020879294  0.020430058            1 
 2828000   0.79575428   -7.7991949    707.60754  0.020851236  0.020423964            2 
 2829000   0.78957612   -7.8099659    706.53113  0.020812158  0.020417866            2 
 2830000   0.79439043    -7.811503     707.0556  0.020820247  0.020411777            2 
 2831000   0.78211364   -7.8223823    705.19417    0.0207581  0.020405641            4 
 2832000   0.81081018   -7.7780059    706.83645  0.020799095  0.020399533            2 
 2833000   0.79932651   -7.7964679    706.95614  0.020795274  0.020393369            2 
 2834000   0.80093645   -7.7972498    707.68867  0.020809476  0.020387225            3 
 2835000   0.79419142   -7.8018847     705.2594  0.020730729  0.020381079            4 
 2836000   0.79440484    -7.818771    707.59437   0.02079203  0.020374911            1 
 2837000    0.7919323   -7.8065842    705.43936    0.0207214  0.020368742            3 
 2838000   0.78914404   -7.7956594    705.24471  0.020708384  0.020362568            3 
 2839000   0.80173479   -7.8195787    707.05494  0.020754225  0.020356408            2 
 2840000   0.81035929   -7.8120857    706.89143  0.020742119   0.02035029            1 
 2841000   0.80484636   -7.7667779    708.28061  0.020775566  0.020344218            2 
 2842000   0.81532991   -7.7899893    707.33477  0.020740522  0.020338126            4 
 2843000   0.79745031   -7.8018185    706.64877  0.020713119  0.020332007            2 
 2844000   0.78211866   -7.8376337    707.11485  0.020719493  0.020325863            1 
 2845000   0.79513071   -7.7960904    706.51124   0.02069453  0.020319737            2 
 2846000   0.79803064   -7.7880959    707.98548  0.020730425  0.020313579            1 
 2847000   0.78639003    -7.789066    708.00212  0.020723631  0.020307452            2 
 2848000   0.77830868   -7.8027515      707.706   0.02070769  0.020301353            1 
 2849000   0.80324883   -7.7946326    707.68242  0.020699732  0.020295268            2 
 2850000   0.79672659   -7.8049484    707.92025  0.020699422   0.02028916            2 
 2851000   0.79890737    -7.801884    706.63627  0.020654632  0.020283077            2 
 2852000   0.79712596   -7.8031734    707.50054  0.020672643  0.020276999            2 
 2853000   0.79578999   -7.8161094    708.86822  0.020705346  0.020270868            3 
 2854000   0.79279728   -7.8061935    708.68832  0.020692838  0.020264749            3 
 2855000   0.80174887   -7.8083493    707.06028   0.02063807  0.020258663            4 
 2856000   0.80581699   -7.8188689    707.12067  0.020632606  0.020252546            3 
 2857000   0.78644904   -7.8128982    708.88745  0.020676918  0.020246454            4 
 2858000   0.79257087   -7.8412658    707.37292  0.020625523  0.020240317            2 
 2859000   0.80033794   -7.8307004    705.60674  0.020566828  0.020234182            4 
 2860000   0.79543776    -7.794295    710.27535  0.020695669  0.020228064            2 
 2861000    0.7872495   -7.8419582    706.26172  0.020571528  0.020221958            3 
 2862000   0.78443607   -7.8083348    708.05905  0.020616674  0.020215847            3 
 2863000   0.80527594   -7.8128715    707.13718   0.02058264  0.020209731            3 
 2864000   0.80304653   -7.8120015    707.09822   0.02057432  0.020203619            1 
 2865000   0.79675111   -7.8037698    707.48619  0.020578423    0.0201975            2 
 2866000   0.78126342   -7.8182336    708.07194  0.020588274  0.020191369            3 
 2867000    0.7969318   -7.8266483    707.91997  0.020576676  0.020185273            4 
 2868000   0.78775205   -7.8001942     707.7428  0.020564354  0.020179161            4 
 2869000   0.80021483   -7.8078719    709.73835  0.020615149   0.02017302            3 
 2870000   0.79077892   -7.7735932    708.18757  0.020562938  0.020166932            3 
 2871000   0.80179914   -7.7866606    707.14107    0.0205254   0.02016084            3 
 2872000   0.79463894   -7.7932175    709.89921  0.020598283  0.020154768            4 
 2873000   0.78119034    -7.839207    708.44373  0.020548896  0.020148662            2 
 2874000   0.78277648   -7.8211417    708.58718  0.020545905  0.020142566            2 
 2875000   0.78046034   -7.8011882    709.26589  0.020558432  0.020136499            1 
 2876000   0.81054022   -7.8121747    709.17322  0.020548598  0.020130447            2 
 2877000   0.78348175    -7.795157     709.2974  0.020545053  0.020124409            2 
 2878000   0.78642537   -7.7790641    711.08466  0.020589665  0.020118381            4 
 2879000   0.80328923   -7.7964772    709.02585   0.02052292  0.020112378            5 
 2880000   0.79289751   -7.8195977    708.89972  0.020512145   0.02010631            2 
 2881000   0.79411547   -7.7961905    710.72299  0.020557763  0.020100245            5 
 2882000   0.79622557   -7.7834304    708.79233  0.020494805  0.020094206            2 
 2883000   0.78924036   -7.8313919    707.79332  0.020458819  0.020088144            2 
 2884000   0.79264494   -7.8387758    709.88049  0.020512034  0.020082072            2 
 2885000   0.79382463   -7.8006262     709.2858  0.020487747  0.020076015            4 
 2886000    0.7838477   -7.7968358    707.87945   0.02044004  0.020069933            2 
 2887000   0.79550489   -7.8214996    707.73538  0.020428801  0.020063865            1 
 2888000   0.77744872   -7.8161707    708.53996  0.020444943  0.020057765            4 
 2889000   0.78764802   -7.8407494    708.40984  0.020434113  0.020051659            3 
 2890000   0.80429069   -7.8148784    711.33707   0.02051145  0.020045595            2 
 2891000   0.80072931   -7.8410377    710.23646   0.02047263  0.020039533            1 
 2892000   0.78706136    -7.836666    709.75224  0.020451598  0.020033436            1 
 2893000   0.77344842   -7.8318085    710.06279  0.020453473  0.020027331            3 
 2894000   0.79041019   -7.8163301    710.89912  0.020470488  0.020021247            3 
 2895000   0.81235822   -7.8287855    709.30735  0.020417598  0.020015162            4 
 2896000   0.77653949   -7.8070315    710.86398   0.02045534  0.020009063            1 
 2897000   0.79285881   -7.8225955    707.82592  0.020360888  0.020002974            3 
 2898000   0.79312841   -7.8160428     709.2683  0.020395339  0.019996897            3 
 2899000    0.7952836   -7.8286448    709.08657   0.02038308  0.019990791            4 
 2900000   0.78685125   -7.7982841    710.02782  0.020403098  0.019984706            2 
 2901000    0.7788609   -7.7908001    710.26017   0.02040274  0.019978623            3 
 2902000   0.78889041   -7.8139892    709.93238  0.020386296  0.019972524            3 
 2903000   0.79195721   -7.8010523     709.8578  0.020377133  0.019966434            2 
 2904000   0.79303291   -7.8216528     709.7148  0.020366013  0.019960336            4 
 2905000   0.79629493   -7.8199163    708.13477  0.020313677  0.019954231            2 
 2906000   0.81338804   -7.8197644    709.94535  0.020358607  0.019948134            3 
 2907000   0.79259687    -7.814677    712.08579  0.020412963  0.019942062            1 
 2908000   0.77920786   -7.8326012    709.30172  0.020326161  0.019936021            2 
 2909000    0.7770242   -7.8565172    709.69183  0.020330349  0.019929958            4 
 2910000   0.80486843   -7.8335868    708.10535  0.020277931  0.019923871            2 
 2911000   0.79502726   -7.8358428    710.15972  0.020329776  0.019917782            2 
 2912000   0.79763234   -7.8513104    710.08185  0.020320566  0.019911694            2 
 2913000   0.77979873   -7.8515052    709.77472  0.020304804  0.019905601            2 
 2914000   0.78064441   -7.8486559    710.65646  0.020323051  0.019899508            2 
 2915000   0.79363294   -7.8197349    711.13744   0.02032983   0.01989345            2 
 2916000   0.78681795   -7.8370202    711.33257  0.020328434  0.019887385            1 
 2917000   0.79070496    -7.815781    711.29132  0.020320287  0.019881327            2 
 2918000    0.7736261   -7.8168096    710.85889  0.020300974  0.019875317            1 
 2919000   0.79878395   -7.8196697    709.48103  0.020254683  0.019869268            4 
 2920000   0.77116222   -7.8061956    711.72949  0.020311915  0.019863244            1 
 2921000    0.7854795    -7.793702    711.69178  0.020303885   0.01985725            5 
 2922000   0.78319461   -7.8236538    711.23537   0.02028392  0.019851242            5 
 2923000    0.7817119   -7.8206889    711.45579  0.020283264  0.019845251            4 
 2924000   0.80254334   -7.8388985    711.88696  0.020288616  0.019839267            2 
 2925000   0.80986818   -7.8049799    711.87949  0.020281467  0.019833295            1 
 2926000   0.76415067   -7.8565325    711.80636  0.020272453  0.019827302            2 
 2927000   0.80727968   -7.8392171    712.07734  0.020273242  0.019821285            1 
 2928000   0.78774476   -7.8181286    712.45119  0.020276958  0.019815286            2 
 2929000    0.7711099    -7.827959    711.66917  0.020247786  0.019809265            2 
 2930000   0.77374832   -7.8292727    711.57535  0.020238207  0.019803262            4 
 2931000   0.78481463   -7.8120129    711.88338   0.02024006   0.01979726            2 
 2932000   0.79297822   -7.8503897    711.19264  0.020213524  0.019791256            1 
 2933000   0.79169068   -7.8125217     713.0001  0.020257987  0.019785262            2 
 2934000   0.78817729   -7.8481069    711.61265  0.020211675  0.019779254            2 
 2935000   0.78053007   -7.8399346    712.03567  0.020216799  0.019773257            1 
 2936000   0.76717662   -7.8342028    712.85676  0.020233219  0.019767274            1 
 2937000   0.79208683    -7.852652    711.59144  0.020190428  0.019761289            4 
 2938000   0.79668228   -7.8309895    712.22626  0.020201562  0.019755294            4 
 2939000   0.78089139   -7.8122744    713.50129  0.020230841  0.019749289            3 
 2940000   0.77771834   -7.8241269    713.02519  0.020210465  0.019743329            3 
 2941000    0.7912591   -7.8361761    714.06248  0.020232984   0.01973737            5 
 2942000    0.7907724   -7.8258412    711.96262  0.020166628  0.019731423            3 
 2943000   0.76896235    -7.821631     712.5922  0.020177602  0.019725424            1 
 2944000   0.77593091   -7.8264734    712.73398  0.020174762   0.01971945            2 
 2945000   0.77060278   -7.8240482    712.56373  0.020163094  0.019713452            4 
 2946000   0.79203246   -7.8503934    711.57443  0.020128265   0.01970746            1 
 2947000   0.76424278   -7.8405711    710.90823  0.020102597  0.019701463            4 
 2948000   0.77583729   -7.8481128    711.43583  0.020110692  0.019695454            2 
 2949000   0.78488267   -7.8521535    712.68808  0.020139258  0.019689442            3 
 2950000   0.79458121   -7.8674414    710.77665  0.020078437  0.019683427            2 
 2951000   0.77495423   -7.8575821    711.30371  0.020086516   0.01967743            2 
 2952000   0.78107545   -7.8635045    712.68046  0.020118577  0.019671429            2 
 2953000   0.78011582   -7.8654458    712.44295  0.020105061  0.019665404            2 
 2954000   0.77256233   -7.8711853    712.23856  0.020092489  0.019659402            2 
 2955000   0.76053533   -7.8503785    712.47041  0.020092228   0.01965338            2 
 2956000   0.78570955   -7.8526087    712.04708  0.020073497  0.019647366            2 
 2957000   0.78427816   -7.8467305     712.5846  0.020081857  0.019641344            2 
 2958000   0.77434652   -7.8391056    712.07833  0.020060805  0.019635365            3 
 2959000   0.77598068   -7.8898829     711.7623  0.020045125  0.019629372            2 
 2960000   0.77194799   -7.8440327    712.23737  0.020051728  0.019623358            4 
 2961000   0.77898302   -7.8622927    713.23463  0.020073022  0.019617348            4 
 2962000   0.77415633   -7.8832245    712.50144  0.020045618  0.019611331            2 
 2963000   0.77644777   -7.8489712    713.43961  0.020065238  0.019605336            3 
 2964000   0.77892837   -7.8556803    712.06791  0.020019903  0.019599339            1 
 2965000   0.78798468   -7.8504624    713.69691  0.020058935  0.019593331            2 
 2966000   0.78755286   -7.8634711    711.79983  0.019998871  0.019587321            2 
 2967000   0.79012802   -7.8383342    713.84251  0.020049503  0.019581307            1 
 2968000   0.79711464   -7.8524727    712.33165  0.020000327  0.019575303            2 
 2969000   0.77298644    -7.832687    714.57908  0.020056671  0.019569303            5 
 2970000   0.77165635   -7.8657881    714.15071  0.020037899  0.019563324            3 
 2971000   0.77296458   -7.8621849    713.17786  0.020003867  0.019557307            3 
 2972000   0.76418332   -7.8384389    712.30996  0.019972801  0.019551282            2 
 2973000   0.78282702   -7.8239066    713.15303  0.019989714   0.01954528            5 
 2974000   0.76198397   -7.8341108     712.4062  0.019962066  0.019539302            3 
 2975000   0.77493975   -7.8684878    714.22257  0.020006234  0.019533289            2 
 2976000   0.77972289   -7.8536074    712.75306  0.019958363  0.019527292            2 
 2977000   0.75041945   -7.8423175    713.92943  0.019984588  0.019521293            1 
 2978000    0.7739318    -7.861055    712.48309  0.019937404  0.019515306            2 
 2979000   0.77633104   -7.8781041    714.03209  0.019974043  0.019509291            1 
 2980000   0.77191695   -7.8711713    713.36097  0.019948573  0.019503292            3 
 2981000   0.78839104   -7.8987043    711.84495  0.019899501  0.019497278            3 
 2982000   0.76697406   -7.8873529     712.5703  0.019913098  0.019491233            4 
 2983000   0.76941658   -7.8904758    711.18749  0.019867792  0.019485193            3 
 2984000   0.76593313   -7.8474715    713.48489  0.019925293  0.019479177            3 
 2985000   0.76999645   -7.8526356    712.09012  0.019879679  0.019473173            3 
 2986000   0.77827132   -7.8675369    714.30046  0.019934708  0.019467169            3 
 2987000   0.76585581   -7.8482996    714.21663  0.019925696  0.019461154            2 
 2988000   0.78504025   -7.8490106     713.4493  0.019897627  0.019455134            2 
 2989000   0.77002415   -7.8663976    713.51396  0.019892773  0.019449134            1 
 2990000   0.76913283   -7.8757766    713.25464  0.019878892  0.019443125            3 
 2991000    0.7814891   -7.8579113    713.30545  0.019873661  0.019437125            3 
 2992000   0.79524973   -7.8468629    711.56566  0.019818562  0.019431139            2 
 2993000   0.76472593   -7.8623576    713.60133  0.019868619  0.019425124            2 
 2994000   0.77778885   -7.8624587    714.27125  0.019880629  0.019419145            2 
 2995000   0.77546853   -7.8544572    713.75781  0.019859705  0.019413187            2 
 2996000   0.77985056   -7.8292834    713.33769  0.019841391  0.019407237            2 
 2997000   0.77470932   -7.8772263    712.80077  0.019819841  0.019401265            4 
 2998000   0.77425311   -7.8968536    713.19799  0.019824272  0.019395261            4 
 2999000   0.77573262   -7.8620574    712.65475  0.019802566  0.019389281            3 
 3000000   0.77721798   -7.8898934     716.1944  0.019894289  0.019383328            4 
 3001000   0.75464607   -7.8345751     715.4763  0.019867719   0.01937742            4 
 3002000    0.7597714   -7.8446646      715.906  0.019873029  0.019371533            2 
 3003000   0.75314945    -7.861519    714.05393  0.019815016  0.019365601            5 
 3004000   0.77560345   -7.8676945    714.87622  0.019831231  0.019359659            1 
 3005000   0.77168857   -7.8837665    712.88343  0.019769368  0.019353722            3 
 3006000   0.77644671   -7.8706035    714.13405  0.019797462  0.019347762            8 
 3007000   0.75373014   -7.8668365    714.72352  0.019807214  0.019341795            2 
 3008000   0.77658581   -7.8192135    714.85143  0.019804173  0.019335854            3 
 3009000   0.76612619   -7.8636671    713.52126  0.019760753  0.019329901            3 
 3010000   0.78169991   -7.8595767    714.42567  0.019779227  0.019323936            2 
 3011000   0.76451985   -7.8815436    712.03079  0.019706376  0.019317988            3 
 3012000    0.7822721   -7.8693241    713.86976  0.019750713  0.019312004            2 
 3013000   0.76378039    -7.875676    712.86569  0.019716387  0.019306011            2 
 3014000   0.76998521   -7.8838949    712.79276  0.019707829  0.019300015            3 
 3015000   0.76423424   -7.8997456    713.31816  0.019715814  0.019294013            1 
 3016000   0.77555628   -7.8430799    716.28595  0.019791279  0.019288054            1 
 3017000   0.76043688   -7.8718665    713.28484  0.019701824  0.019282104            4 
 3018000   0.76346771   -7.9184304    712.21473  0.019665748  0.019276098            3 
 3019000   0.75891518   -7.8815688       713.96  0.019707409  0.019270078            1 
 3020000   0.76936196   -7.8732334    714.02027  0.019702546  0.019264084            1 
 3021000   0.77042085   -7.8726039    713.06377   0.01966964  0.019258103            5 
 3022000   0.74163082   -7.8999703    714.10497  0.019691842  0.019252108            3 
 3023000   0.75771648   -7.8745499    714.58628  0.019698596   0.01924611            4 
 3024000   0.76270641   -7.8868857    713.57569  0.019664233  0.019240094            2 
 3025000    0.7684407   -7.8749444    714.38767  0.019680101   0.01923409            2 
 3026000   0.75658029   -7.8574223    714.16666  0.019667511  0.019228095            2 
 3027000   0.76126823   -7.8740873    715.67922  0.019702655  0.019222115            6 
 3028000   0.77139717   -7.8910618    713.70941  0.019641937   0.01921614            4 
 3029000   0.75819445   -7.8844387    714.41041  0.019654738  0.019210174            3 
 3030000   0.76721153   -7.8761841    716.00091  0.019691994  0.019204219            5 
 3031000   0.74874582   -7.8653241    714.79455   0.01965233  0.019198285            1 
 3032000   0.78614416   -7.8617145    713.61121  0.019613325  0.019192329            2 
 3033000   0.76430149   -7.8724343    713.92298  0.019615424  0.019186383            2 
 3034000   0.76583777   -7.8643864    714.52761  0.019625566  0.019180402            3 
 3035000   0.76525069   -7.8723795    713.46998   0.01959006   0.01917442            3 
 3036000   0.76547726   -7.8888832    714.60494   0.01961476   0.01916847            2 
 3037000   0.75085988   -7.8478517    714.41009  0.019602955  0.019162496            1 
 3038000   0.77851584   -7.8729322    714.16891  0.019589887  0.019156529            3 
 3039000   0.76532153   -7.8913346    714.08384  0.019581108  0.019150551            5 
 3040000   0.76325224   -7.8846658    714.61786  0.019589305  0.019144563            1 
 3041000   0.75231735   -7.9042208     713.7173  0.019558185   0.01913856            3 
 3042000   0.75755318   -7.8800456    715.24738  0.019593671  0.019132581            2 
 3043000   0.76327581   -7.8800329    714.37253  0.019563274  0.019126617            1 
 3044000   0.77977617   -7.8758123    715.14243  0.019577924  0.019120632            2 
 3045000     0.763854   -7.9063576    714.02852   0.01954101  0.019114652            1 
 3046000   0.76857073   -7.8715287    714.26375   0.01954103  0.019108681            5 
 3047000    0.7775896   -7.8810846    716.41908  0.019593564  0.019102736            4 
 3048000   0.76644173   -7.8764053    715.51814  0.019562504  0.019096784            1 
 3049000   0.77497616   -7.8719709      715.534  0.019556521  0.019090847            3 
 3050000   0.76665375   -7.8889158    715.06068  0.019537177  0.019084913            3 
 3051000   0.76129399   -7.8640987    714.62751  0.019518942  0.019078962            3 
 3052000   0.76644626   -7.8749693    716.09896  0.019552724  0.019073006            3 
 3053000   0.76683134   -7.8594933     714.3738   0.01949923  0.019067058            6 
 3054000   0.75007752   -7.8690398    715.25265  0.019516826  0.019061104            2 
 3055000   0.75650233    -7.881511    713.98495  0.019475858  0.019055132            2 
 3056000   0.76441367   -7.8573122     715.4585  0.019509667   0.01904919            2 
 3057000   0.77562115   -7.8564423    716.19246  0.019523293  0.019043247            4 
 3058000   0.77912227   -7.8706861    714.87002   0.01948087   0.01903728            3 
 3059000   0.76299415   -7.8986178    714.92215  0.019475922  0.019031265            4 
 3060000   0.78097188   -7.8898726    714.78362  0.019465785  0.019025284            2 
 3061000   0.77065774   -7.8709545    713.48718  0.019424131  0.019019309            4 
 3062000   0.75280105   -7.8869467    714.77686  0.019452886  0.019013352            2 
 3063000   0.75121588   -7.8977277     714.5977  0.019441661  0.019007391            3 
 3064000   0.76124745   -7.8637475    714.85059  0.019442194  0.019001442            3 
 3065000   0.76630734   -7.8883483    713.21158  0.019391288  0.018995471            3 
 3066000   0.76454381    -7.906023    713.69269   0.01939804    0.0189895            1 
 3067000   0.74515475   -7.8888108    714.10656   0.01940296   0.01898352            1 
 3068000   0.77355468   -7.8848623    713.33806  0.019375762  0.018977539            1 
 3069000   0.74278388   -7.9212722    713.83602   0.01938297  0.018971542            2 
 3070000   0.78134259    -7.897857     713.4929  0.019367343  0.018965542            4 
 3071000   0.76651723   -7.8737678    714.55617  0.019389888  0.018959546            5 
 3072000   0.76786844   -7.8931132    713.95093  0.019367159   0.01895356            2 
 3073000   0.75318866   -7.9018215    713.56712  0.019350448  0.018947603            3 
 3074000   0.77816739   -7.8757161    714.62525  0.019372838  0.018941615            2 
 3075000   0.76073652   -7.8910528    714.69745  0.019368495  0.018935661            4 
 3076000   0.75704009   -7.9206825    713.75016  0.019336534  0.018929676            2 
 3077000   0.75890696   -7.9349991    713.90953  0.019334566  0.018923683            2 
 3078000   0.74864446   -7.9291218    714.56552  0.019346045  0.018917694            2 
 3079000   0.77194392   -7.8842043    715.16008  0.019355854  0.018911707            3 
 3080000    0.7594413   -7.8779212    716.03935  0.019373359  0.018905755            4 
 3081000   0.75509669   -7.8742185    715.48808  0.019352161  0.018899791            3 
 3082000   0.75640777   -7.8954099    715.71694  0.019352069  0.018893849            4 
 3083000   0.76524153   -7.8943825    713.20006  0.019277761  0.018887885            3 
 3084000   0.77456436   -7.8971298    716.45603  0.019359491  0.018881912            2 
 3085000   0.76442137   -7.8776051    715.91063  0.019338483  0.018875964            3 
 3086000   0.75922338   -7.8911196    715.62524   0.01932451   0.01887003            2 
 3087000   0.74357034   -7.8835824    715.39602  0.019312062  0.018864095            4 
 3088000   0.76659789   -7.9013082    715.57179  0.019310551  0.018858139            2 
 3089000   0.75506614    -7.888728    715.53211  0.019303229  0.018852205            3 
 3090000   0.76669191   -7.8866143    716.92443  0.019334532  0.018846282            4 
 3091000   0.77286569   -7.9161615    714.60841  0.019265837   0.01884035            2 
 3092000    0.7501168   -7.9060063    715.76429  0.019290758   0.01883442            3 
 3093000   0.78486254   -7.9163875    715.73747  0.019283799  0.018828496            2 
 3094000   0.72068507   -7.9033344    714.36895  0.019240707  0.018822572            4 
 3095000   0.75186181   -7.9151519    714.59293   0.01924052  0.018816637            3 
 3096000   0.77362073   -7.9021852     714.4155   0.01922953  0.018810699            3 
 3097000   0.75792897   -7.9219827    714.38505  0.019222502  0.018804773            2 
 3098000    0.7591145   -7.8958719     716.2168  0.019265569  0.018798866            1 
 3099000   0.75038729    -7.925074    715.01719  0.019227094  0.018792967            2 
 3100000   0.75086449   -7.9194828    715.96028  0.019246244  0.018787036            1 
 3101000   0.74947819    -7.912008    714.49797  0.019200741  0.018781099            3 
 3102000   0.74750143   -7.9249476    714.28135  0.019188732  0.018775167            2 
 3103000   0.75565593     -7.89884     717.4783  0.019268404  0.018769253            2 
 3104000   0.74239269   -7.9242054    715.98377  0.019222073  0.018763354            2 
 3105000   0.74510535   -7.9179747    715.06397  0.019191196   0.01875746            2 
 3106000   0.77096564   -7.9326561    715.29474  0.019191209  0.018751537            3 
 3107000   0.76121734   -7.9106825    716.77219  0.019224659  0.018745636            2 
 3108000   0.74800661   -7.9196281    717.90224  0.019248773  0.018739765            2 
 3109000    0.7603002   -7.8827154    719.36197  0.019281708  0.018733899            4 
 3110000   0.73929032   -7.9077159    716.23525  0.019191727  0.018728034            3 
 3111000   0.76141292   -7.8982096    718.33551  0.019241817  0.018722151            3 
 3112000   0.74634544   -7.9035569    716.98635  0.019199506  0.018716281            2 
 3113000   0.75472152   -7.8879093    716.19809  0.019172237  0.018710438            2 
 3114000   0.75472275   -7.8696117    716.07115  0.019162683   0.01870458            2 
 3115000   0.74819645   -7.9260362    716.14632  0.019158543  0.018698725            1 
 3116000   0.75668359   -7.9004182     717.5789  0.019190707  0.018692837            1 
 3117000   0.75103728   -7.9207064    716.97699  0.019168458  0.018686949            4 
 3118000   0.74323291   -7.8942716    716.89575  0.019160139  0.018681085            4 
 3119000   0.75570981   -7.8999561    718.98784  0.019209892  0.018675259            2 
 3120000   0.74559073    -7.916413    717.90782  0.019174888  0.018669443            3 
 3121000   0.75532933   -7.8801648    716.27858  0.019125242  0.018663617            3 
 3122000   0.75479231   -7.8706752    719.61844  0.019208265  0.018657787            2 
 3123000   0.73958119   -7.9055526    717.23383  0.019138484  0.018651983            2 
 3124000   0.75802915   -7.9015362    717.00764  0.019126324  0.018646165            2 
 3125000   0.76147671   -7.9171955    717.95691  0.019145518  0.018640352            2 
 3126000   0.75188051   -7.9004383    718.51276  0.019154211   0.01863453            2 
 3127000   0.75353223   -7.9329614    717.26628  0.019114867  0.018628712            3 
 3128000   0.75598677   -7.9029812    717.58527  0.019117255  0.018622908            7 
 3129000   0.74456116   -7.9113781     718.6197  0.019138695  0.018617103            2 
 3130000    0.7540563   -7.9122526     718.0087  0.019116313   0.01861128            2 
 3131000     0.751695   -7.9318891     716.3948  0.019067252  0.018605457            2 
 3132000   0.75090982   -7.9078456    716.83309  0.019072826   0.01859962            3 
 3133000   0.74265608   -7.8887769    718.53211   0.01911193  0.018593793            2 
 3134000   0.74456244   -7.9217436    716.73566  0.019058064  0.018587966            3 
 3135000   0.74670339   -7.9207299    716.59666   0.01904829  0.018582112            3 
 3136000   0.74522943   -7.9097893    716.82481  0.019048278  0.018576274            4 
 3137000   0.74237098   -7.9243298    716.10372  0.019023051  0.018570417            4 
 3138000   0.73062073   -7.9379593    716.59113  0.019029932  0.018564554            3 
 3139000   0.74056153   -7.9042962    718.54901  0.019075847  0.018558699            3 
 3140000   0.73259634   -7.9447482    718.15935  0.019059431  0.018552818            2 
 3141000   0.75174216   -7.9335602    715.13671   0.01897317  0.018546936            2 
 3142000   0.72989564   -7.8989094    718.74644   0.01906287  0.018541062            3 
 3143000   0.74980511   -7.9040937    716.48226  0.018996772   0.01853521            2 
 3144000    0.7565514   -7.8975691    717.55902   0.01901927  0.018529352            1 
 3145000   0.72910799    -7.899668    716.15361  0.018975983  0.018523479            2 
 3146000    0.7478292   -7.9070644     716.4561  0.018977964  0.018517588            3 
 3147000   0.76167675    -7.926003    717.58362  0.019001791  0.018511705            2 
 3148000   0.75310738    -7.919885    716.67122  0.018971601  0.018505817            5 
 3149000   0.74716132   -7.9184109    716.61163     0.018964  0.018499959            2 
 3150000   0.72901991   -7.9197067    717.95185  0.018993435  0.018494075            5 
 3151000    0.7424268   -7.9230282    716.66815  0.018953458  0.018488177            5 
 3152000   0.74532463   -7.9273485    716.10441  0.018932541  0.018482275            3 
 3153000    0.7458103   -7.9185366    718.28977  0.018984295  0.018476368            3 
 3154000   0.76033725   -7.9415303    716.11764  0.018920885  0.018470475            3 
 3155000   0.74256903   -7.9368173    716.24338  0.018918209  0.018464566            3 
 3156000   0.74266797   -7.9405057    717.22911  0.018938242  0.018458644            4 
 3157000   0.73952368   -7.9140074    716.68602  0.018917908  0.018452736            2 
 3158000    0.7456975    -7.905564    715.45697  0.018879485   0.01844681            2 
 3159000   0.75111394   -7.9561314    716.70957  0.018906552  0.018440909            4 
 3160000   0.74202578    -7.949258    714.88152  0.018852361   0.01843501            2 
 3161000   0.72753694   -7.9546303    714.69425   0.01884146   0.01842909            1 
 3162000   0.74263162   -7.9526765    716.66419  0.018887418  0.018423159            3 
 3163000   0.74323451   -7.9373514    716.23806   0.01887022   0.01841725            2 
 3164000   0.73141489   -7.9115516    716.81613  0.018879481  0.018411344            4 
 3165000   0.74517364    -7.937959    719.58839  0.018946508  0.018405456            3 
 3166000   0.74586441    -7.912305    717.82093  0.018894002  0.018399568            3 
 3167000   0.75353735   -7.9407993    716.65898  0.018857462  0.018393679            3 
 3168000   0.75491639   -7.9167236    716.59563  0.018849843  0.018387789            3 
 3169000   0.74954965   -7.9338918    715.45407  0.018813876  0.018381907            1 
 3170000   0.75818467   -7.9265268    715.60677  0.018811955   0.01837604            4 
 3171000   0.76117472   -7.9041385    719.01519  0.018895595  0.018370166            4 
 3172000    0.7445646   -7.9236708    717.30999   0.01884484  0.018364307            3 
 3173000    0.7362692   -7.9030382    719.12502   0.01888657  0.018358456            4 
 3174000   0.73974141   -7.9317793    716.15591  0.018802665  0.018352606            2 
 3175000   0.75665974   -7.9311438    715.86982  0.018789234  0.018346728            1 
 3176000   0.75524994    -7.941382    716.28213  0.018794136   0.01834085            3 
 3177000    0.7520659   -7.9559261    716.67772  0.018798597  0.018334982            4 
 3178000   0.73270496   -7.9265374    717.35774  0.018810514  0.018329121            3 
 3179000   0.74857094   -7.9202134    716.07605  0.018770998  0.018323267            2 
 3180000   0.71975775    -7.941267    716.64002  0.018779875  0.018317399            5 
 3181000   0.74317685    -7.936682    716.57848  0.018772359  0.018311542            2 
 3182000   0.73026224   -7.9103183    717.74305  0.018796958  0.018305702            2 
 3183000   0.73023103    -7.923946    717.49968  0.018784681  0.018299862            3 
 3184000    0.7497987   -7.9611987    717.10663  0.018768494  0.018294014            4 
 3185000   0.74007517   -7.9324468    717.71324  0.018778473  0.018288162            4 
 3186000   0.75304127   -7.8959706     718.2961  0.018787824  0.018282322            2 
 3187000   0.75406681   -7.9158784    718.62113  0.018790428  0.018276515            3 
 3188000   0.74020548   -7.9065505    718.48003  0.018780846  0.018270703            3 
 3189000   0.74237593   -7.9052961    718.07543  0.018764383  0.018264861            2 
 3190000   0.73905068   -7.9273694    717.58922    0.0187458  0.018259031            1 
 3191000   0.74032162   -7.9355572    716.13333  0.018701905  0.018253177            3 
 3192000   0.74648204   -7.9506075    717.82685  0.018740258  0.018247321            3 
 3193000   0.74340209   -7.9187566    718.02428  0.018739542  0.018241482            2 
 3194000   0.73352761   -7.9632939    716.38821  0.018690989  0.018235623            4 
 3195000   0.74982298    -7.950216    715.98364  0.018674586  0.018229784            2 
 3196000   0.75242394   -7.9338556    718.80076  0.018742197  0.018223928            2 
 3197000   0.73779713   -7.9361279    717.30959  0.018697466  0.018218088            3 
 3198000   0.74995726    -7.912593    717.88793   0.01870669  0.018212264            4 
 3199000   0.74240222   -7.9217614    719.36453  0.018739307  0.018206436            4 
 3200000   0.74880025   -7.9212382    716.57051   0.01866069  0.018200617            5 
 3201000   0.75662665   -7.9458014    717.56638  0.018680787  0.018194796            2 
 3202000   0.73193813   -7.8995499    719.01903  0.018712758  0.018188962            4 
 3203000   0.73943337     -7.91641    717.48617  0.018667035  0.018183143            5 
 3204000   0.72607692   -7.9288388    718.75987  0.018694337  0.018177316           11 
 3205000    0.7483692   -7.9207482    718.50919  0.018681986  0.018171498            6 
 3206000   0.73963215   -7.9260714    717.82572  0.018658394    0.0181657            2 
 3207000   0.73708628   -7.9455037    718.42953  0.018668266   0.01815993            2 
 3208000   0.74683578   -7.9403896    718.53953  0.018665304  0.018154171            3 
 3209000    0.7424682   -7.9416515    718.28105  0.018652775  0.018148394            5 
 3210000    0.7323069   -7.9254186    719.18757  0.018670498   0.01814263            4 
 3211000   0.73218197   -7.9787938    719.27965  0.018667073  0.018136841            6 
 3212000   0.74184206   -7.9155995    718.08641  0.018630303  0.018131039            1 
 3213000   0.75032572   -7.9342665     718.8914  0.018645383  0.018125229            3 
 3214000   0.74673652   -7.9626343    718.32508  0.018624898  0.018119407            1 
 3215000   0.73213506    -7.948773    718.75958  0.018630367   0.01811358            4 
 3216000     0.725547    -7.949037    719.05288  0.018632175  0.018107764            3 
 3217000   0.74357515   -7.9668468    718.40594  0.018609624  0.018101955            2 
 3218000   0.75538139   -7.9366102     716.9508  0.018566159  0.018096141            3 
 3219000   0.74244256   -7.9600562    717.15938  0.018565791  0.018090308            2 
 3220000   0.73610085   -7.9448514    718.08725  0.018584039  0.018084495            2 
 3221000   0.73418272   -7.9159547    718.59188  0.018591325  0.018078684            2 
 3222000    0.7392607   -7.9603999    718.18052  0.018574915   0.01807286            2 
 3223000   0.71801917    -7.955849    718.50084  0.018577434  0.018067048            5 
 3224000   0.73853193   -7.9819141    717.91672  0.018556574  0.018061228            2 
 3225000   0.73340815   -7.9670428    717.20926  0.018532539  0.018055415            3 
 3226000   0.74880268   -7.9350276    718.14802  0.018551044    0.0180496            4 
 3227000   0.73066462   -7.9676344    717.12591  0.018518901  0.018043779            4 
 3228000   0.73064395   -7.9439617    718.44777  0.018547289  0.018037971            2 
 3229000   0.73140836   -7.9697868    719.10713  0.018558561  0.018032158            5 
 3230000   0.72585779   -7.9447139    718.96392  0.018549121  0.018026343            5 
 3231000   0.73212505   -7.9624899    717.26053  0.018499446  0.018020543            2 
 3232000   0.73025935   -7.9563909    717.08767  0.018489265  0.018014729            1 
 3233000    0.7394661   -7.9637965    718.04412    0.0185082  0.018008916            3 
 3234000   0.74426407   -7.9569856    719.14828  0.018530929  0.018003111            2 
 3235000   0.74207215   -7.9659161    717.20867  0.018475236  0.017997295            2 
 3236000   0.73988584   -7.9634541    719.19559  0.018520694  0.017991482            2 
 3237000   0.73038495   -7.9473703    717.18939  0.018463325  0.017985687            3 
 3238000   0.71342233   -7.9550476    717.36916  0.018462249  0.017979889            4 
 3239000   0.74398633   -7.9816412    718.09471  0.018475216  0.017974087            2 
 3240000   0.73094469   -7.9239359    718.27802  0.018474229  0.017968304            5 
 3241000   0.70805734   -7.9659826    717.29534  0.018443262  0.017962501            2 
 3242000   0.73639118   -7.9361972    718.98179  0.018480922  0.017956715            3 
 3243000   0.74197256   -7.9487095    718.56744  0.018464576  0.017950931            2 
 3244000   0.73231915   -7.9288516    718.82811   0.01846558  0.017945139            3 
 3245000   0.75121678   -7.9513137    717.05056  0.018414241  0.017939348            4 
 3246000   0.74639477   -7.9509525    718.68959  0.018450647   0.01793356            5 
 3247000   0.73508212    -7.956293    718.76192  0.018446821  0.017927778            1 
 3248000   0.72629013   -7.9444849    717.69219  0.018413695  0.017922002            3 
 3249000   0.73558142   -7.9522875    719.17055  0.018445946  0.017916231            4 
 3250000   0.74746886   -7.9441678    718.42808  0.018421233  0.017910457            6 
 3251000   0.72098114   -7.9566111    718.02648  0.018405272  0.017904686            6 
 3252000   0.73562267   -7.9616098    717.53945  0.018387132  0.017898902            6 
 3253000   0.74222773   -7.9446019    718.91013  0.018416593  0.017893126            2 
 3254000   0.72226014   -7.9302368    718.56737  0.018402156  0.017887362            2 
 3255000   0.71404472     -7.95256    720.52233  0.018446552  0.017881617            4 
 3256000   0.72931174   -7.9491235    718.33954  0.018385021  0.017875852            5 
 3257000   0.72186055   -7.9477622    719.45859  0.018408008  0.017870093            2 
 3258000   0.71721555   -7.9544619    718.11427  0.018367973   0.01786434            4 
 3259000   0.72713613   -7.9525753    718.70729    0.0183775   0.01785857            3 
 3260000   0.73146705   -7.9475564    719.20422  0.018384566  0.017852795            2 
 3261000   0.71573102   -7.9337174    718.97231  0.018373002  0.017847062            4 
 3262000   0.74159754   -7.9179049    719.42153  0.018378846  0.017841318            3 
 3263000   0.70793291   -7.9326856    718.68416  0.018354381  0.017835585            2 
 3264000   0.72942195   -7.9817572    718.67999  0.018348652  0.017829819            2 
 3265000   0.74474258   -7.9302126    718.76424  0.018345182  0.017824059            1 
 3266000   0.71935257   -7.9702373    719.61716  0.018361328  0.017818301            3 
 3267000   0.72464092   -7.9611469    718.44723  0.018325865  0.017812537            1 
 3268000   0.74153053   -7.9309871    718.12763  0.018312108   0.01780677            1 
 3269000   0.73624377   -7.9752035    717.71078   0.01829588  0.017800995            1 
 3270000   0.71191646   -8.0031541    717.84947  0.018293819  0.017795221            4 
 3271000   0.73869749   -7.9861748    719.42171  0.018328282  0.017789445            3 
 3272000    0.7277156   -7.9772366     719.4786  0.018324129  0.017783679            3 
 3273000   0.72187076   -7.9874811    718.26948  0.018287745  0.017777899            3 
 3274000    0.7309312   -7.9772104    716.68475  0.018241823  0.017772109            3 
 3275000   0.73320535   -8.0106507    716.04866  0.018220068  0.017766318            1 
 3276000   0.74104062   -8.0030952    718.33023  0.018272543   0.01776052            1 
 3277000   0.72862848   -7.9822376    717.56063  0.018247397   0.01775474            2 
 3278000   0.71538696   -7.9525774    718.64208  0.018269323  0.017748964            4 
 3279000   0.73628701   -7.9803502    718.60386   0.01826278  0.017743185            4 
 3280000   0.73389353   -7.9819777     718.0406  0.018242902  0.017737426            2 
 3281000   0.71128774   -7.9743218    717.34719   0.01821973  0.017731626            3 
 3282000   0.73946861   -7.9907211    716.87931  0.018202298  0.017725829            3 
 3283000   0.73584126   -7.9700782    717.57363  0.018214378  0.017720047            3 
 3284000   0.72650278   -7.9781469    719.34133  0.018253688  0.017714277            4 
 3285000   0.72816944   -8.0183106    717.65864  0.018205445  0.017708509            2 
 3286000     0.721995   -7.9852705     719.1172  0.018236894  0.017702728            2 
 3287000   0.71478078   -8.0031713    718.46322  0.018214766  0.017696949            4 
 3288000   0.72315282    -7.990321    718.58825  0.018212395  0.017691145            2 
 3289000   0.72219028   -7.9633522    718.91676  0.018215181  0.017685362            4 
 3290000   0.72453132   -8.0046862    717.42074  0.018171751  0.017679575            3 
 3291000   0.72512407   -7.9873691    717.41192  0.018166006  0.017673773            3 
 3292000   0.72344896   -7.9811834    717.10654  0.018152758  0.017667982            3 
 3293000   0.74083856   -7.9692457    718.23392  0.018175775  0.017662195            2 
 3294000   0.70249221   -7.9796138    718.15767  0.018168328  0.017656421            3 
 3295000   0.72667247   -8.0039775    716.11137  0.018111062  0.017650652            2 
 3296000   0.72857222   -8.0193291    717.64658  0.018144382  0.017644874            2 
 3297000   0.72309559   -8.0030363      719.044  0.018174199  0.017639104            4 
 3298000   0.72480789   -7.9796518    720.19283  0.018197716  0.017633356            2 
 3299000   0.73624023   -7.9793764    718.44513  0.018148053  0.017627601            2 
 3300000   0.70917313   -7.9856691    718.31936  0.018139378  0.017621845            4 
 3301000   0.72662618   -8.0099965    718.47298  0.018137761  0.017616104            3 
 3302000   0.74055299    -7.984076    718.31604  0.018128307   0.01761036            8 
 3303000   0.71553832   -7.9864959    718.34002  0.018123424   0.01760462            1 
 3304000   0.72346773   -8.0009979    720.30728  0.018167557  0.017598877            4 
 3305000   0.72803082   -7.9844322    720.33544  0.018162769  0.017593133            2 
 3306000   0.73662194   -7.9965849    718.21121  0.018103731  0.017587383            3 
 3307000   0.72571191   -8.0139216     718.5167  0.018105955  0.017581633            3 
 3308000   0.71127658   -7.9960218    719.12852  0.018115894  0.017575884            5 
 3309000   0.72125335   -8.0042455     718.3892    0.0180918  0.017570132            2 
 3310000   0.72654639   -8.0109738    718.01659  0.018076953  0.017564387            2 
 3311000   0.72078557   -8.0063116     717.3811  0.018055499   0.01755864            3 
 3312000   0.71757621   -7.9737926    718.93311  0.018089098  0.017552882            2 
 3313000   0.70246276   -7.9724546    717.15489   0.01803891  0.017547138            9 
 3314000   0.72456858   -7.9816618     718.5739  0.018069149  0.017541412            3 
 3315000   0.72037225   -7.9759704    719.33029  0.018082712  0.017535692            4 
 3316000   0.72395264   -7.9680788    720.32498  0.018102256  0.017529967            3 
 3317000   0.72777779   -7.9641032    719.66534  0.018080227  0.017524253            1 
 3318000   0.71885787    -7.981493    718.55546  0.018046902   0.01751854            2 
 3319000    0.7287931   -7.9939155    718.63582  0.018043482  0.017512807            3 
 3320000   0.72147613   -7.9878179    717.49181  0.018009333  0.017507079            3 
 3321000   0.72443994   -7.9782456    719.12986  0.018045013   0.01750135            3 
 3322000   0.73617468   -7.9808343    718.32042  0.018019276  0.017495638            2 
 3323000   0.72978089   -7.9804753    718.59248  0.018020676  0.017489913            2 
 3324000   0.72104104   -8.0279702    718.18192  0.018004962  0.017484189            3 
 3325000    0.7331458    -7.998637    719.00705  0.018020227  0.017478465           10 
 3326000   0.72005516   -8.0017951    718.18447  0.017994199  0.017472747            2 
 3327000   0.73459715   -8.0199115    717.72201  0.017977207  0.017467004            3 
 3328000   0.70557193   -8.0037382    717.15788  0.017957679  0.017461264            2 
 3329000   0.72251229   -7.9818978    718.80816  0.017993596  0.017455527            2 
 3330000   0.71648779   -8.0211594     717.3404  0.017951462  0.017449781            2 
 3331000   0.72460217   -8.0283491     717.5332  0.017950896  0.017444033            3 
 3332000   0.71651933   -7.9901525    716.93271   0.01793049  0.017438283            4 
 3333000   0.72640263   -8.0168593    719.69857  0.017994264  0.017432557            3 
 3334000   0.71415494   -7.9959579    718.37907  0.017955886  0.017426829            2 
 3335000   0.72731591   -7.9878587    718.86079  0.017962539  0.017421102            2 
 3336000   0.72450761    -8.003857    718.78098   0.01795516  0.017415387            1 
 3337000   0.71011877    -8.009144    718.72307  0.017948334  0.017409679            1 
 3338000   0.72969701   -8.0035951    719.23672   0.01795578  0.017403969            3 
 3339000   0.71727965   -7.9898251    717.23764   0.01790051  0.017398256            1 
 3340000   0.72789977   -7.9925555    719.48197  0.017951147  0.017392547            2 
 3341000   0.71798261   -7.9983654    718.60317  0.017923854  0.017386835            2 
 3342000   0.71486709   -8.0091902     719.0232  0.017928965   0.01738114            2 
 3343000   0.71280249   -8.0044666    719.26204  0.017929555  0.017375434            2 
 3344000   0.73568152   -8.0135867    719.92157  0.017940629  0.017369739            3 
 3345000    0.7231887   -8.0128757    721.02976  0.017962874  0.017364055            5 
 3346000   0.70752038    -8.004638    719.55271  0.017920719  0.017358347            3 
 3347000   0.72107726   -8.0190713    717.87102  0.017873494   0.01735266            2 
 3348000   0.70444865   -8.0199143    719.39012  0.017905967  0.017346966            3 
 3349000   0.70458779   -8.0082156    720.84849  0.017936909  0.017341272            3 
 3350000   0.71255345   -7.9707215    720.35316  0.017919233  0.017335599            2 
 3351000   0.72626756   -7.9939697    718.19268  0.017860158  0.017329936            1 
 3352000   0.71500553   -7.9712194    719.91443  0.017897634  0.017324265            5 
 3353000   0.70904796   -8.0061845    718.02728  0.017845394  0.017318594            2 
 3354000   0.71468449   -7.9863971    718.04326   0.01784047  0.017312933            6 
 3355000   0.71065336   -8.0108983    719.25337   0.01786521  0.017307266            1 
 3356000   0.70807323   -8.0028411     719.6573  0.017869917  0.017301599            4 
 3357000   0.70203238   -7.9841825    720.07082  0.017874859  0.017295953            2 
 3358000   0.70986241   -8.0010168    719.40557  0.017853027  0.017290304            3 
 3359000   0.70861485   -8.0078362    719.24088  0.017843626  0.017284641            3 
 3360000    0.7019015   -8.0251251    718.70675  0.017825068  0.017278979            3 
 3361000   0.71450937   -8.0020729    719.47327   0.01783877  0.017273322            3 
 3362000   0.71859386   -7.9794282    719.50703  0.017834301  0.017267673            2 
 3363000    0.7117263   -8.0004543    719.24793  0.017822577  0.017262014            2 
 3364000   0.71193597   -8.0016371    721.05955  0.017862157  0.017256334            3 
 3365000   0.71242763   -8.0218089    720.29402  0.017837891  0.017250689            2 
 3366000   0.73902849   -8.0171528    719.09001  0.017802783  0.017245043            3 
 3367000    0.6995675   -7.9996097    720.45241  0.017831215  0.017239403            3 
 3368000   0.72321999   -7.9717855    720.34027  0.017823146  0.017233762            1 
 3369000    0.7157721   -7.9851981    720.43331  0.017820157  0.017228121            1 
 3370000   0.71621622   -8.0299653    718.50801   0.01776726  0.017222466            2 
 3371000   0.71680291   -8.0098038    719.86501  0.017795536  0.017216822            2 
 3372000   0.69760099   -7.9952391    717.89275  0.017741517  0.017211178            3 
 3373000   0.71504098   -8.0110572    717.38081  0.017723609  0.017205533            2 
 3374000    0.7006839   -8.0049786     718.0595  0.017735119   0.01719989            4 
 3375000   0.70161739   -8.0065427    719.72945  0.017771097  0.017194234            2 
 3376000   0.70825463   -8.0193248    720.05413  0.017773848  0.017188576            2 
 3377000   0.71409113   -8.0076135    718.74522  0.017736285  0.017182934            2 
 3378000   0.71859721   -8.0103367    720.05141  0.017763258   0.01717729            3 
 3379000   0.70989007   -8.0169961    719.82598  0.017752441  0.017171636            1 
 3380000   0.70660449   -8.0200514    719.69852  0.017744046  0.017165983            2 
 3381000   0.69899329   -8.0316446    719.13152  0.017724823  0.017160333            3 
 3382000   0.70174923   -8.0067486    720.15848  0.017744887  0.017154695            5 
 3383000   0.71766361   -7.9908073    718.78539  0.017705818   0.01714906            2 
 3384000   0.71921223    -8.000004    720.09054  0.017732726  0.017143415            5 
 3385000   0.71327201   -8.0246154    718.17246  0.017680267  0.017137774            1 
 3386000   0.71242013   -8.0408406    718.16687  0.017674908  0.017132123            2 
 3387000   0.69773511   -8.0265143    718.46185  0.017676947  0.017126449            4 
 3388000   0.71092245   -8.0219468    719.81822  0.017705092  0.017120791            3 
 3389000   0.70419087   -8.0571986    719.74694  0.017698115  0.017115131            3 
 3390000   0.70637595   -8.0397658    717.63192  0.017640903  0.017109465            4 
 3391000   0.70438543   -8.0458716    718.09604  0.017647106  0.017103798            5 
 3392000   0.69809991   -8.0445514    717.70822  0.017632376  0.017098136            2 
 3393000   0.71272992   -8.0353932    718.64377  0.017650156  0.017092483            3 
 3394000   0.70709193   -8.0513563    720.11461   0.01768107  0.017086828            3 
 3395000   0.70764026   -8.0408687    717.91385  0.017621842  0.017081177            2 
 3396000   0.72450072   -8.0126788    718.71965  0.017636426  0.017075526            2 
 3397000   0.70967626   -8.0179559    718.41991  0.017623882  0.017069873            4 
 3398000   0.70499501   -8.0411563    719.68365  0.017649687  0.017064233            2 
 3399000    0.7061163   -8.0432419     718.5373   0.01761639  0.017058586            2 
 3400000    0.7256317   -8.0343438    719.77418  0.017641524  0.017052959            5 
 3401000   0.70882021   -8.0650359    717.73996  0.017586493   0.01704731            1 
 3402000   0.69942298   -8.0247029    721.69692  0.017678251  0.017041665            4 
 3403000   0.71732552   -8.0300035    719.08551  0.017609107  0.017036032            4 
 3404000   0.69716913   -8.0419541    720.17919  0.017630709  0.017030422            1 
 3405000   0.69729269   -8.0212404    719.09884   0.01759909  0.017024794            5 
 3406000   0.70549694   -8.0216818    719.11907  0.017594418  0.017019174            3 
 3407000   0.70928304   -8.0254291    720.23884  0.017616643  0.017013548            2 
 3408000   0.71710556   -7.9997675    718.98706  0.017580865  0.017007941            5 
 3409000   0.71631227   -8.0163047    717.60365   0.01754189  0.017002332            4 
 3410000   0.72155985   -8.0267075    721.07564  0.017621594  0.016996717            3 
 3411000   0.70868596   -8.0119833    720.54794  0.017603536  0.016991123            5 
 3412000   0.70973441   -8.0218671    718.10521  0.017538717  0.016985521            3 
 3413000   0.71012702   -8.0201458    720.19475  0.017584597  0.016979925            3 
 3414000   0.69145828   -8.0213084    720.01263  0.017575001  0.016974338            1 
 3415000   0.72587878   -8.0320377    719.64064  0.017560777  0.016968741            3 
 3416000   0.71244746   -8.0102134     720.0672  0.017566042  0.016963145           10 
 3417000   0.69831703   -8.0263487    721.33499   0.01759182  0.016957549            6 
 3418000   0.71240408    -8.032302    720.06196  0.017555636  0.016951965            1 
 3419000   0.69593219   -8.0372029    719.52371  0.017537382  0.016946375            3 
 3420000   0.71097909   -8.0460768    719.08097  0.017521466  0.016940772            4 
 3421000   0.70180464   -8.0267411    719.26675   0.01752087  0.016935167            4 
 3422000   0.70851003   -8.0307755    719.01798  0.017509692  0.016929563            2 
 3423000   0.70491104   -8.0213002    718.96642  0.017503321   0.01692397            2 
 3424000   0.69592635   -8.0162151    718.85362  0.017495464  0.016918382            2 
 3425000   0.69721099    -8.034596    719.88653  0.017515487  0.016912798            3 
 3426000   0.70627694   -8.0573443    718.79301  0.017483776  0.016907204            2 
 3427000   0.69502287   -8.0173413    717.97196  0.017458709  0.016901606            4 
 3428000   0.68917726   -8.0329676    719.58973  0.017492944  0.016896016            2 
 3429000   0.70689135   -8.0345328    718.29439  0.017456362  0.016890436            2 
 3430000   0.70003257   -8.0192213    719.25412   0.01747459  0.016884878            3 
 3431000   0.69117962   -8.0426837    719.27965  0.017470117  0.016879316            2 
 3432000   0.69236198   -8.0194035    720.36079  0.017491278  0.016873748            2 
 3433000   0.69044331   -8.0218985    719.78082  0.017472105  0.016868193            2 
 3434000   0.70875915   -8.0291574    720.13853  0.017475697   0.01686262            3 
 3435000   0.70461441   -8.0339422    718.74798  0.017436875  0.016857035            4 
 3436000   0.69710035   -8.0398705    719.76499  0.017456466   0.01685145            2 
 3437000   0.70157732   -8.0472848    720.12932   0.01746022  0.016845871            3 
 3438000   0.70710893   -8.0410238    720.76985  0.017470667  0.016840303            2 
 3439000   0.68598339   -8.0340948    719.10324  0.017425202  0.016834721            1 
 3440000   0.68212185   -8.0427834    719.90105  0.017439464  0.016829167            2 
 3441000   0.69866248   -8.0415395    718.60686  0.017403053  0.016823603            2 
 3442000   0.71690691   -8.0311875    718.92177  0.017405621  0.016818024            3 
 3443000   0.69155302   -8.0602573    719.76064  0.017420869  0.016812447            5 
 3444000   0.70565497   -8.0293292    718.47993  0.017384822   0.01680688            5 
 3445000   0.68783249   -8.0461825    719.35061  0.017400837  0.016801308            3 
 3446000   0.69567904   -8.0461442    720.94599  0.017434368  0.016795727            3 
 3447000   0.70375202   -8.0612964    718.77444  0.017376812  0.016790153            3 
 3448000    0.7054304   -8.0348277    719.75086  0.017395371  0.016784586            3 
 3449000     0.678826   -8.0589931     720.1926     0.017401  0.016779028            2 
 3450000   0.69042436   -8.0577002     720.0008  0.017391324  0.016773479            2 
 3451000      0.70189   -8.0837564    719.85381  0.017382735  0.016767926            2 
 3452000    0.6861164   -8.0377181    718.91536  0.017355044  0.016762363            4 
 3453000    0.6845983   -8.0550112     719.3148  0.017359658   0.01675681            4 
 3454000   0.70823639   -8.0663921    719.73063  0.017364665  0.016751256            5 
 3455000   0.70590534   -8.0530788     721.4348  0.017400743  0.016745705            1 
 3456000   0.70581559    -8.061407    719.63733  0.017352366  0.016740151            2 
 3457000   0.70907549   -8.0593664    719.76996  0.017350544  0.016734614            1 
 3458000   0.68781593    -8.042064    721.97582  0.017398685  0.016729072            2 
 3459000   0.68439504   -8.0554911    719.46338  0.017333126  0.016723524            2 
 3460000   0.71187294   -8.0484249    718.70332   0.01730981  0.016717975            3 
 3461000   0.70613378   -8.0595795    718.79988  0.017307134  0.016712407            4 
 3462000   0.70373932   -8.0848666    718.68254   0.01729931  0.016706856            2 
 3463000   0.69891414     -8.08377    719.19583  0.017306666  0.016701298            4 
 3464000   0.68938922   -8.0285259    718.59206  0.017287145  0.016695748            4 
 3465000   0.71997155   -8.0644768    719.55867  0.017305403  0.016690205            2 
 3466000   0.71284671   -8.0923496    718.36166  0.017271631  0.016684661            1 
 3467000   0.72384881   -8.0410498    719.40137   0.01729164  0.016679122            4 
 3468000   0.69028464    -8.055686    719.35845  0.017285622  0.016673588            6 
 3469000   0.70534876   -8.0444702    719.26716  0.017278446  0.016668062            3 
 3470000   0.69713628   -8.0663124    719.28831  0.017273975  0.016662538            3 
 3471000   0.69020177   -8.0585682    719.20549   0.01726701  0.016657014            2 
 3472000   0.69563915   -8.0666682    720.06666  0.017282706  0.016651499            1 
 3473000   0.69380313   -8.0698141    720.42456  0.017286317  0.016645968            2 
 3474000   0.68515854   -8.0894858    720.29213  0.017278165  0.016640433            1 
 3475000   0.68396223   -8.0508422    718.97811  0.017241681  0.016634887            3 
 3476000   0.70015217   -8.0442348    720.55102   0.01727443  0.016629353            1 
 3477000   0.69053193   -8.0814825    719.15718  0.017236056  0.016623812            5 
 3478000   0.69223864   -8.0960359    719.79277  0.017246329  0.016618277            3 
 3479000   0.69926924   -8.0789738    718.38698  0.017207698  0.016612745            1 
 3480000   0.68495017   -8.0594318    719.69159  0.017233994   0.01660723            2 
 3481000   0.68115689   -8.0631246     719.7474  0.017230379  0.016601711            8 
 3482000   0.70389395   -8.0720641    719.53547  0.017220359  0.016596197            2 
 3483000   0.70052886   -8.0916818    719.55762  0.017215944  0.016590705            3 
 3484000    0.7000546   -8.0772605    720.17641  0.017225804  0.016585198            2 
 3485000   0.69807445   -8.0741911    718.87985  0.017189858  0.016579697            2 
 3486000   0.68010425   -8.0674634    718.88106  0.017184956  0.016574195            1 
 3487000   0.70725027   -8.0560443    720.03719  0.017207657    0.0165687            2 
 3488000   0.69641412   -8.0593585    720.04576  0.017202928  0.016563216            3 
 3489000   0.69266165   -8.0688752    719.99984  0.017196901  0.016557746            3 
 3490000   0.68132861   -8.0772368    721.24314   0.01722166  0.016552269            4 
 3491000   0.69397032   -8.0746634    720.16661   0.01719103   0.01654679            5 
 3492000   0.69623911   -8.0716195    719.78109  0.017176907   0.01654131            2 
 3493000   0.69471591   -8.0672551    718.98865  0.017153083   0.01653584            2 
 3494000   0.69802769   -8.0555276    721.52522  0.017208673  0.016530371            2 
 3495000   0.67961775    -8.071449    721.66163  0.017207001  0.016524903            4 
 3496000   0.69364902   -8.0597575    720.43862  0.017172927  0.016519442            3 
 3497000   0.68830707   -8.0827444    719.74312  0.017151442  0.016513978            3 
 3498000   0.69124009   -8.0611155    719.18307  0.017133197  0.016508507            2 
 3499000   0.69878895   -8.0688368    719.09897  0.017126297  0.016503054            2 
 3500000   0.67736077   -8.0497889    720.94101  0.017165262    0.0164976            2 
 3501000   0.69168719   -8.0762167    719.61109  0.017128704  0.016492138            1 
 3502000   0.69409802   -8.0693594    719.12912  0.017112344  0.016486678            4 
 3503000   0.69639466   -8.0906817    719.61638   0.01711905  0.016481216            2 
 3504000   0.69625311    -8.098324    720.52652  0.017135809  0.016475741            2 
 3505000    0.7028037   -8.0815023    721.24595  0.017148025  0.016470279            1 
 3506000   0.69082653   -8.0657653    719.87689  0.017110594  0.016464823            2 
 3507000   0.67729518   -8.0632293    720.84657  0.017128756  0.016459368            3 
 3508000   0.68646587   -8.0709827    720.44952  0.017114441  0.016453911            2 
 3509000   0.68860228   -8.0671466    721.00103  0.017122661  0.016448462            3 
 3510000   0.69959645   -8.0590557    719.90352  0.017091726  0.016443026            6 
 3511000    0.6985938   -8.0673465    721.98417  0.017136243  0.016437604            3 
 3512000   0.69966635   -8.0861334    719.65399  0.017076072  0.016432161            2 
 3513000   0.69400085    -8.071341    722.28201  0.017133552  0.016426733            6 
 3514000   0.69645733   -8.0594008    721.32082  0.017105882  0.016421325            6 
 3515000   0.68904541   -8.0793215    721.75098  0.017111213    0.0164159            1 
 3516000   0.67993695   -8.0665872    719.24262  0.017046896  0.016410469            4 
 3517000   0.68420585   -8.0950937    720.75205  0.017077814   0.01640503            4 
 3518000   0.68928419    -8.094648    720.93177  0.017077217  0.016399594            6 
 3519000   0.69585426   -8.0786198    719.98197  0.017049871  0.016394176            2 
 3520000   0.69682594   -8.0477545    719.34846   0.01703003  0.016388765            5 
 3521000   0.69191602   -8.0915763    719.79945  0.017035867  0.016383339            2 
 3522000    0.6940638   -8.0770508    721.97013   0.01708239  0.016377916            2 
 3523000   0.67544509   -8.0592099    720.39521  0.017040288  0.016372494            3 
 3524000   0.68604593   -8.0728056    721.86866  0.017070296  0.016367063            5 
 3525000   0.68605749   -8.0984139    719.06811  0.016999246  0.016361619            4 
 3526000    0.6888219   -8.0782788    720.23459  0.017021993  0.016356176            7 
 3527000   0.68740299   -8.0584202    720.18838  0.017016075  0.016350735            5 
 3528000   0.68460439   -8.0433181    721.39477  0.017039748  0.016345303            3 
 3529000   0.69338966   -8.1009724    720.21817  0.017007135  0.016339869            2 
 3530000   0.68876701   -8.0974833     719.8968  0.016994731  0.016334453            2 
 3531000   0.68685029   -8.0858184    720.97589  0.017015385  0.016329033            2 
 3532000   0.68240432   -8.0981089    720.73019   0.01700477  0.016323611            3 
 3533000   0.68100275   -8.0808228    720.31921  0.016990264  0.016318191            1 
 3534000   0.69304138   -8.0888176    720.09382  0.016980141  0.016312778            4 
 3535000   0.67886751    -8.078452     720.2997  0.016980191  0.016307374            3 
 3536000   0.66985434    -8.083107    720.32209  0.016975916  0.016301962            2 
 3537000   0.67977394   -8.0715803    720.45148  0.016974165  0.016296549            3 
 3538000   0.69799674   -8.0894432    720.74919   0.01697638  0.016291157            4 
 3539000   0.69719321   -8.1036108    719.39977  0.016939808  0.016285756            5 
 3540000    0.6864277   -8.0878339    718.94534  0.016924325  0.016280346            5 
 3541000    0.6919517   -8.0890151    720.09403  0.016946579  0.016274922            4 
 3542000   0.69478132   -8.0772287    720.25477  0.016945576    0.0162695            7 
 3543000   0.67769272   -8.1070296     719.7196  0.016928206  0.016264096            3 
 3544000   0.69525093    -8.070654    720.98473  0.016953178  0.016258702            8 
 3545000   0.70071899   -8.0745708    719.47075  0.016912806  0.016253305            1 
 3546000   0.70157486   -8.0784339     721.5893  0.016957823  0.016247912            4 
 3547000   0.68891896   -8.0780232    721.43838  0.016949497  0.016242513            2 
 3548000   0.68947851   -8.1017278    719.88834  0.016908313   0.01623711            4 
 3549000   0.69595066   -8.1033994    718.74777  0.016876767   0.01623172            2 
 3550000   0.68379569   -8.0822141    718.92247  0.016876114  0.016226335            3 
 3551000    0.6935402   -8.0888829    720.00285  0.016896716  0.016220941            2 
 3552000   0.68216908   -8.0835462     719.2953  0.016875359  0.016215554            4 
 3553000   0.67439585   -8.0972128    720.61284  0.016901511  0.016210168            5 
 3554000   0.68365968   -8.0983737    721.22986  0.016911224  0.016204783            3 
 3555000    0.7022779   -8.1038325    719.09976  0.016856534  0.016199393            4 
 3556000   0.69037028    -8.077716     720.8966  0.016893902  0.016193997            2 
 3557000   0.68975028   -8.0864806     721.6781  0.016907462  0.016188618            3 
 3558000   0.68162038   -8.0927785    721.15895  0.016890551  0.016183231            2 
 3559000   0.67367908   -8.1012195    719.67167   0.01685098  0.016177845            2 
 3560000   0.67394487   -8.1177828    721.22503  0.016882608  0.016172464            7 
 3561000   0.68062469   -8.1230529     720.7665  0.016867137  0.016167085            2 
 3562000   0.68984141   -8.0936232    720.90531  0.016865649   0.01616171            3 
 3563000   0.68647731   -8.1003113    721.26801  0.016869399  0.016156342            2 
 3564000    0.6740358   -8.1221033    721.62427  0.016872995  0.016150975            4 
 3565000   0.69042107   -8.1264651    720.05845  0.016831661  0.016145617            3 
 3566000   0.68399365   -8.1346518     720.5577  0.016838608  0.016140253            4 
 3567000   0.68363948   -8.1213742    719.86283  0.016817653  0.016134881            2 
 3568000   0.68392628   -8.1057908    720.04411  0.016817174  0.016129517            4 
 3569000     0.689643   -8.1263769    720.55457  0.016824381   0.01612417            3 
 3570000   0.68444358   -8.1018193    720.91302  0.016828035  0.016118815            2 
 3571000   0.67151985   -8.1151573    722.14961   0.01685218   0.01611347            2 
 3572000   0.67889134    -8.125125    719.04326  0.016774992  0.016108117            2 
 3573000   0.70406559   -8.1079828    720.73998   0.01680987  0.016102758            4 
 3574000   0.68668557   -8.0945128    721.16383  0.016815049  0.016097417            3 
 3575000   0.67325695   -8.0844918    721.61069  0.016820762  0.016092071            3 
 3576000   0.66408143   -8.1063457    720.43362  0.016788628  0.016086727            2 
 3577000   0.67274993   -8.1181979    719.42254   0.01676038  0.016081384            3 
 3578000    0.6800477   -8.1207323    719.59254  0.016759655  0.016076042            1 
 3579000   0.67454439   -8.1194521    720.40563  0.016773904  0.016070694            2 
 3580000   0.69725107   -8.1113883    721.93722   0.01680487  0.016065346            3 
 3581000   0.67470392   -8.1362018    719.53294  0.016744227  0.016060003            2 
 3582000    0.6845553   -8.1054684    720.61697  0.016764772  0.016054664            2 
 3583000   0.67868197   -8.1163357    722.43297   0.01680233  0.016049325            2 
 3584000   0.68326629   -8.0984797    720.11478   0.01674374  0.016044007            5 
 3585000   0.68431162   -8.1007001    719.50615  0.016724922  0.016038684            3 
 3586000   0.68055982   -8.1032773    722.05421  0.016779471  0.016033371            5 
 3587000   0.68704237    -8.087587    720.96284  0.016749439  0.016028067            5 
 3588000   0.68726985   -8.1010047    720.93955   0.01674423  0.016022761            5 
 3589000   0.67036672   -8.0937425    721.65242  0.016756116  0.016017458            2 
 3590000   0.68935478   -8.0868429    721.44617  0.016746661  0.016012166            1 
 3591000   0.65216267   -8.1009586    722.28006  0.016761349  0.016006881            3 
 3592000   0.67109004   -8.1040416    721.08904  0.016729052  0.016001584            3 
 3593000   0.68065887   -8.1146015    719.54007   0.01668847  0.015996271            3 
 3594000   0.68730697   -8.0880512    721.30991  0.016724864  0.015990977            2 
 3595000   0.68882232   -8.0950737     720.9726  0.016712392  0.015985682            4 
 3596000   0.65952438   -8.1006069    722.11005  0.016734104  0.015980386            4 
 3597000   0.66564526   -8.0954232    720.04727  0.016681662   0.01597509            1 
 3598000   0.68680805   -8.1013042    720.54176  0.016688479  0.015969787            4 
 3599000    0.6830008    -8.119543    720.67106  0.016686836  0.015964488            2 
 3600000   0.67788541   -8.0894875    721.67331  0.016705401  0.015959198            2 
 3601000    0.6875342    -8.108513    723.55038    0.0167442  0.015953912            4 
 3602000   0.68346257   -8.1076294    722.23149  0.016709039  0.015948632            3 
 3603000   0.66596906   -8.1019035     720.2648  0.016658914  0.015943344            2 
 3604000   0.67934535   -8.1044337    720.43538  0.016658236  0.015938053            2 
 3605000   0.68958923   -8.0814526    722.01344  0.016690093  0.015932764            3 
 3606000   0.67506504   -8.0818444    720.25591  0.016644849  0.015927487            2 
 3607000   0.66503673   -8.1120894    720.09371  0.016636487   0.01592221            3 
 3608000   0.66903746   -8.0821079    720.84613  0.016649255  0.015916935            4 
 3609000   0.67474694   -8.1089861    721.27327  0.016654504  0.015911661            4 
 3610000   0.67485489   -8.1146009    721.11088  0.016646142  0.015906384            5 
 3611000   0.67837908   -8.1300602    721.94318   0.01666074   0.01590111            2 
 3612000   0.66855397   -8.1139301    721.27731  0.016640765  0.015895828            2 
 3613000   0.68058473    -8.099218      721.436  0.016639819  0.015890559            6 
 3614000   0.69112854   -8.1255932     721.8084  0.016643802  0.015885291            4 
 3615000   0.66159442   -8.1211101    721.71473  0.016637039  0.015880018            3 
 3616000   0.67442792   -8.1049764    722.44186  0.016649195  0.015874752            4 
 3617000   0.66440146   -8.1395134    721.02813   0.01661202   0.01586948            6 
 3618000   0.66703538   -8.1085282    720.49911  0.016595244  0.015864216            2 
 3619000    0.6760053   -8.0827162    719.83958  0.016575472  0.015858961            4 
 3620000   0.66377291   -8.1103223    720.38455  0.016583438  0.015853706            2 
 3621000   0.68179937   -8.1298306    721.94552  0.016614782  0.015848438            3 
 3622000   0.67143596   -8.1172276    720.51732  0.016577336  0.015843165            2 
 3623000    0.6913514   -8.1352546      721.767  0.016601504  0.015837885            6 
 3624000   0.65962102   -8.0968301    721.17837  0.016583388  0.015832605            4 
 3625000    0.6628247    -8.131929    720.25688  0.016557629  0.015827331            3 
 3626000   0.64784266   -8.1238812    720.51433   0.01655898  0.015822049            2 
 3627000    0.6744025   -8.0982738    720.08969  0.016544658  0.015816764            2 
 3628000   0.66443166   -8.1116204    719.68533   0.01653081  0.015811488            2 
 3629000   0.67908781   -8.1430209    719.95024  0.016532338  0.015806203            2 
 3630000   0.69082664   -8.1291763    720.64346  0.016543697   0.01580093            3 
 3631000   0.69236358   -8.1169272    719.61789  0.016515604  0.015795662            2 
 3632000   0.66451846   -8.1365844    719.79677  0.016515161   0.01579039            2 
 3633000   0.67527997   -8.0877708    720.79169  0.016533436  0.015785124            2 
 3634000   0.67902982   -8.1471486    722.77753  0.016574425  0.015779875            4 
 3635000   0.67546192   -8.0911247    722.30891  0.016559122  0.015774626            2 
 3636000   0.67159333   -8.1142524    719.27937  0.016485134  0.015769374            2 
 3637000   0.67324052   -8.1117957    720.35804  0.016505317  0.015764126            2 
 3638000   0.67196288   -8.1078904    720.32265  0.016499969  0.015758859            2 
 3639000   0.65997582   -8.1111932    721.55566  0.016523671  0.015753602            2 
 3640000   0.66748828   -8.0898792    721.41978  0.016516021  0.015748349            6 
 3641000   0.66041464   -8.1378617    720.68171  0.016494592  0.015743089            2 
 3642000   0.66892932   -8.1289951    721.05568   0.01649862  0.015737821            5 
 3643000   0.65772928   -8.1110984    720.51551  0.016481735   0.01573256            4 
 3644000   0.66512686   -8.1261835    720.85928  0.016485073  0.015727308            2 
 3645000   0.68565135   -8.1421177    719.81645  0.016456709   0.01572206            3 
 3646000   0.67972385   -8.1167433    719.86552  0.016453317  0.015716819            2 
 3647000   0.68700078   -8.1237155    721.66267   0.01648987  0.015711567            2 
 3648000   0.67944656   -8.1364072    721.37808  0.016478849  0.015706331            4 
 3649000   0.66292488   -8.1090249    720.52821  0.016454924  0.015701089            9 
 3650000   0.68359717   -8.1100048    720.36905  0.016446782  0.015695859            4 
 3651000   0.68155032   -8.1098842     720.0658  0.016435356  0.015690624            4 
 3652000   0.66941065   -8.1058621     722.6091   0.01648889  0.015685403            2 
 3653000    0.6519995   -8.1248411     722.2598  0.016476407  0.015680178            2 
 3654000    0.6660294   -8.1178522     721.6008  0.016456869  0.015674957            1 
 3655000   0.67111933   -8.1151276    721.49216   0.01644989  0.015669734            2 
 3656000    0.6556752   -8.1056753    722.47571  0.016467809   0.01566451            4 
 3657000   0.66674822   -8.1096792    720.42759  0.016416634  0.015659303            3 
 3658000    0.6645121   -8.1444294    720.66489  0.016417553  0.015654084            2 
 3659000   0.66875142   -8.1247653    721.64234  0.016435327  0.015648876            2 
 3660000   0.66805789   -8.1214963    720.81414   0.01641198  0.015643664            3 
 3661000   0.66133723   -8.1186151    720.35192  0.016396975  0.015638444            2 
 3662000   0.66613759   -8.1049364    722.13381  0.016433047  0.015633232            3 
 3663000   0.67369342    -8.119084    721.17914  0.016406842  0.015628023            2 
 3664000   0.67416616    -8.116232    721.74527   0.01641524  0.015622814            3 
 3665000   0.66731317   -8.1072698      720.655  0.016385971  0.015617606            4 
 3666000   0.66498653   -8.1545591    720.06877  0.016368175  0.015612392            2 
 3667000    0.6542272   -8.0990016    721.40331  0.016394039  0.015607184            3 
 3668000   0.65345573   -8.1166923    721.61752  0.016394437  0.015601983            2 
 3669000    0.6626774   -8.1319799    721.63596  0.016390387  0.015596783            3 
 3670000   0.66254907   -8.1203097    720.39963  0.016357848  0.015591578            4 
 3671000   0.67433993   -8.1222945    720.91433  0.016365076  0.015586377            4 
 3672000   0.65609598   -8.1316309    720.20719  0.016344571  0.015581178            4 
 3673000   0.65307989   -8.1244416    720.53946   0.01634766  0.015575982            3 
 3674000   0.66554079   -8.1308814    721.07942  0.016355458  0.015570792            2 
 3675000   0.66401215   -8.1382545    720.99806  0.016349162  0.015565599            1 
 3676000   0.66290362   -8.1106839    720.56159   0.01633482  0.015560404            3 
 3677000   0.64793595   -8.1329857    720.62319  0.016331774  0.015555219            2 
 3678000   0.66970713   -8.1247235    721.98216  0.016358124   0.01555003            3 
 3679000   0.65615727   -8.1265209    721.42563  0.016341072  0.015544845            1 
 3680000   0.65919845   -8.1262993     721.3335  0.016334545  0.015539678            3 
 3681000    0.6623266   -8.1277971    720.61975  0.016313949  0.015534499            5 
 3682000   0.66028508   -8.1426891    720.74734  0.016312406  0.015529334            2 
 3683000   0.65346926   -8.1343075    721.40421   0.01632284  0.015524173            4 
 3684000   0.66692166   -8.1343474    721.37592  0.016317769  0.015519017            3 
 3685000   0.65820732    -8.130006    721.85963  0.016324279  0.015513844            4 
 3686000   0.64180204   -8.1295095    720.69507  0.016293522  0.015508679            2 
 3687000    0.6583243   -8.1338332    720.46588  0.016283923  0.015503511            2 
 3688000   0.65417553   -8.1437109     719.9279  0.016267351  0.015498356            2 
 3689000   0.65679261   -8.1402888    722.37081  0.016318126  0.015493201            2 
 3690000   0.64278055    -8.137206    722.06596  0.016306819  0.015488055            4 
 3691000   0.66088051   -8.1307282    721.15015  0.016281725    0.0154829            5 
 3692000   0.66191639   -8.1297573    721.03676  0.016274755  0.015477733            4 
 3693000   0.65767242   -8.1319915    720.95536  0.016268512  0.015472573            2 
 3694000   0.66187684   -8.1640631    721.32875  0.016272531  0.015467428            2 
 3695000   0.67533543   -8.1491215     721.1732  0.016264619  0.015462279            2 
 3696000   0.65667313   -8.1403384    721.50024  0.016267592  0.015457139            3 
 3697000   0.67091643   -8.1720454    721.53916  0.016264069  0.015452001            4 
 3698000   0.65316389   -8.1179751    722.46441  0.016280521  0.015446856            3 
 3699000   0.65266145   -8.1590264    721.23558  0.016248436  0.015441716            3 
 3700000    0.6620558   -8.1160076    721.52206  0.016250497  0.015436582            4 
 3701000    0.6652091    -8.132105     721.7875  0.016252083  0.015431432            1 
 3702000    0.6694976   -8.1773308     720.7896   0.01622523   0.01542628            3 
 3703000   0.67136136   -8.1470489    720.94968   0.01622445  0.015421129            3 
 3704000   0.66371365   -8.1528825    719.99216  0.016198528  0.015415961            1 
 3705000   0.64871199   -8.1679689    719.90488  0.016192193  0.015410803            2 
 3706000    0.6590047   -8.1579865     719.7384   0.01618408  0.015405654            3 
 3707000   0.66534679   -8.1641758    720.27085  0.016191683  0.015400502            2 
 3708000   0.65039313   -8.1446937    719.50904  0.016170196  0.015395357            3 
 3709000   0.65770285   -8.1458671    722.66632  0.016236774  0.015390208            4 
 3710000   0.65829813   -8.1608352    722.05969  0.016218771  0.015385064            2 
 3711000   0.66511704   -8.1350638    720.38971    0.0161769  0.015379914            3 
 3712000   0.64672242   -8.1495147    720.26092  0.016169651   0.01537477            3 
 3713000   0.66172516   -8.1125158    720.96046  0.016180996  0.015369644            3 
 3714000   0.65254868   -8.1632157    720.48217  0.016165908  0.015364518            2 
 3715000   0.66053079    -8.130483    722.31003  0.016202558  0.015359393            4 
 3716000   0.65808138    -8.125395    720.58696  0.016159557  0.015354274            2 
 3717000   0.66384026   -8.1367019    720.87047  0.016161566  0.015349156            2 
 3718000   0.65548781   -8.1447514    721.21507  0.016164942  0.015344026            3 
 3719000   0.64211613   -8.1628482    722.45241  0.016188321  0.015338918            4 
 3720000   0.65470563   -8.1408137    722.31547  0.016180902  0.015333819            2 
 3721000   0.64519124   -8.1586137    721.57675   0.01616001  0.015328718            3 
 3722000   0.64832331    -8.133115     722.9144  0.016185617   0.01532363            3 
 3723000   0.66288868   -8.1527085    722.18522  0.016164948  0.015318539            4 
 3724000   0.65106051   -8.1402914    721.02275  0.016134594   0.01531346            2 
 3725000   0.65790182    -8.149046    721.77023  0.016146985  0.015308388            2 
 3726000   0.65214419   -8.1667376     721.3992  0.016134353  0.015303301            3 
 3727000   0.64576689   -8.1427054    720.95289  0.016120045  0.015298217            6 
 3728000   0.65621407   -8.1514269    720.17309   0.01609829  0.015293137            2 
 3729000   0.65507575   -8.1618373    721.74176  0.016129028  0.015288058            1 
 3730000    0.6515418   -8.1618263    722.68505  0.016145779  0.015282982            5 
 3731000    0.6691578   -8.1588416    722.00234  0.016126202  0.015277911            4 
 3732000   0.65188211   -8.1514619    722.39206  0.016130584  0.015272843            3 
 3733000   0.64475992   -8.1402057    722.46318   0.01612785   0.01526777            4 
 3734000   0.66134872   -8.1395965    722.04718  0.016114247  0.015262714            2 
 3735000   0.65908056   -8.1425108    723.18848  0.016135397   0.01525765            3 
 3736000   0.65811716   -8.1368607    722.04794  0.016105637  0.015252596            4 
 3737000   0.64775261   -8.1649796    720.79236  0.016073329   0.01524753            5 
 3738000   0.64718997   -8.1476496    720.03963  0.016052248  0.015242463            5 
 3739000    0.6533519   -8.1551916    721.04559  0.016070375  0.015237395            3 
 3740000   0.64269987   -8.1779813    722.45797  0.016097548  0.015232328            7 
 3741000     0.651252   -8.1614212    721.31594  0.016067806  0.015227264            3 
 3742000   0.65568549   -8.1529535      722.295  0.016085315  0.015222207            3 
 3743000   0.66522395   -8.1372438    721.10772  0.016054585  0.015217153            7 
 3744000   0.66260686   -8.1444462    722.16249  0.016073773  0.015212106            2 
 3745000   0.65447405   -8.1622433    720.98568  0.016043295  0.015207057            3 
 3746000    0.6607459   -8.1497743    721.33676  0.016046822  0.015202012            3 
 3747000   0.64661784   -8.1713885     722.2432  0.016062699  0.015196963            2 
 3748000    0.6578715   -8.1468756    721.01284  0.016031057  0.015191911            2 
 3749000   0.65899384   -8.1526694    722.25095  0.016054302  0.015186868            3 
 3750000   0.65957833   -8.1651013    722.47702  0.016055045  0.015181831            2 
 3751000   0.64565861   -8.1648843    720.81999  0.016013952  0.015176794            4 
 3752000   0.65209044    -8.175095    720.80258  0.016009297  0.015171757            2 
 3753000   0.65704115   -8.1728324    721.06959   0.01601096  0.015166715            4 
 3754000   0.65872227   -8.1591739    720.52632  0.015994635  0.015161666            5 
 3755000   0.62799684    -8.182114    720.58812  0.015991747  0.015156618            2 
 3756000   0.66897997   -8.1544247    721.01281  0.015996912   0.01515158            5 
 3757000   0.64589691   -8.1664788     721.0651  0.015993814  0.015146551            4 
 3758000   0.66263482   -8.1684004    722.31181  0.016017203  0.015141515            6 
 3759000   0.65390314   -8.1473226    721.01266  0.015984142  0.015136473            2 
 3760000   0.65410753   -8.1573156    721.04135  0.015980526  0.015131437            2 
 3761000   0.64089705   -8.1826191    722.42959  0.016007037  0.015126413            5 
 3762000   0.65965826   -8.1949392    721.10886  0.015973526  0.015121389            4 
 3763000   0.65779671   -8.1769107    720.82021  0.015962889  0.015116376            2 
 3764000   0.64877679   -8.1752567    721.54178  0.015974623   0.01511136            2 
 3765000   0.64862966   -8.1434593    722.36972  0.015988706  0.015106349            2 
 3766000   0.64909125   -8.1834472    721.45538  0.015964228  0.015101337            1 
 3767000   0.64738259   -8.1762375    721.79371  0.015967474  0.015096326            3 
 3768000   0.64425804   -8.1637935    721.78288  0.015962997  0.015091318            3 
 3769000   0.66038242   -8.1757611    721.89423  0.015961224   0.01508632            3 
 3770000   0.65896954   -8.1590129     722.2143  0.015964065  0.015081313            1 
 3771000   0.65097906   -8.1606255    721.29031  0.015939413  0.015076309            3 
 3772000   0.65286781   -8.1584597    722.32619  0.015958072  0.015071313            1 
 3773000   0.64363654   -8.1854356     721.6204  0.015938254  0.015066318            3 
 3774000    0.6435788   -8.1947821    720.77926  0.015915458   0.01506131            3 
 3775000   0.64361304   -8.1855542    722.64971  0.015952532  0.015056305            2 
 3776000   0.65811487   -8.1840176    721.15491  0.015915318  0.015051303            6 
 3777000   0.64290468   -8.1893599    722.49944   0.01594077  0.015046313            4 
 3778000   0.64407856   -8.1638455    721.90691   0.01592348  0.015041318            4 
 3779000   0.65383743   -8.1879772    721.12452  0.015902014  0.015036319            2 
 3780000   0.64643319    -8.178012    722.31544  0.015924062  0.015031328            2 
 3781000   0.63928048   -8.1817838    722.27702  0.015919003   0.01502633            2 
 3782000   0.65812154   -8.1779603    722.45892  0.015918802  0.015021337            1 
 3783000   0.63762745   -8.1689084    721.51279  0.015893752  0.015016343            2 
 3784000    0.6555214   -8.1859666    721.91851  0.015898487  0.015011348            3 
 3785000    0.6435109   -8.1656201    722.53553  0.015907872  0.015006355            2 
 3786000    0.6514029   -8.1834471    721.31979   0.01587691  0.015001377            2 
 3787000   0.63918061   -8.1719521    721.88859  0.015885234  0.014996412            2 
 3788000   0.65188354   -8.1813451    720.46784  0.015849785  0.014991435            3 
 3789000   0.65225335   -8.1772529    722.27708  0.015885394  0.014986467            5 
 3790000   0.63493664   -8.1630923    722.76083  0.015891839  0.014981488            1 
 3791000   0.65498397   -8.1825977     720.0381  0.015827796  0.014976509            2 
 3792000   0.64455018   -8.1700987    723.86125   0.01590764  0.014971537            2 
 3793000   0.64064259   -8.1680645    722.82155  0.015880604  0.014966567            2 
 3794000   0.64458359   -8.1689767    720.75037  0.015830925  0.014961594            2 
 3795000   0.65486267   -8.1957386    720.92508   0.01583059  0.014956623            3 
 3796000   0.64949684   -8.2002482     723.4113     0.015881  0.014951671            2 
 3797000   0.63934946   -8.1886686    721.23379  0.015829027  0.014946716            2 
 3798000    0.6414971   -8.1867021    722.12012  0.015844307  0.014941759            2 
 3799000   0.64643204   -8.1819527    722.55158    0.0158496  0.014936801            2 
 3800000   0.65002579   -8.1762286    722.19926  0.015837703  0.014931843            3 
 3801000   0.62590043   -8.2056673    722.72881  0.015845146  0.014926886            2 
 3802000   0.64801116   -8.1923949    723.14816   0.01585017  0.014921949            2 
 3803000   0.63530234   -8.1489991    721.89206  0.015818478  0.014917005            2 
 3804000    0.6527456   -8.1770401    721.79781  0.015812255  0.014912071            2 
 3805000   0.63112218   -8.1870333    722.36237  0.015820464  0.014907149            3 
 3806000   0.63637732   -8.1878914     721.4216  0.015795709  0.014902217            5 
 3807000    0.6548081   -8.1799891    721.06669  0.015783791  0.014897286            3 
 3808000   0.65440574   -8.1843225    721.59679  0.015791246  0.014892352            4 
 3809000   0.63997186   -8.1779126    722.08646  0.015797814  0.014887418            2 
 3810000   0.63639804   -8.1994601    722.33188  0.015799035  0.014882478            2 
 3811000   0.64172685   -8.1856996     722.0144  0.015787947  0.014877539            2 
 3812000   0.64915866   -8.2016936     722.3834  0.015791872  0.014872604            4 
 3813000    0.6536868   -8.2007562    720.78441  0.015752785  0.014867664            5 
 3814000   0.64011311   -8.1971089    721.40589  0.015762233   0.01486273            3 
 3815000    0.6544689   -8.1842662    722.34534  0.015778622  0.014857796            4 
 3816000   0.64513088   -8.1880845    721.68403  0.015760046  0.014852862            2 
 3817000   0.64990508   -8.1913286    722.13629  0.015765791  0.014847933            4 
 3818000   0.62607469   -8.1929479    720.73079  0.015730985  0.014842999            2 
 3819000   0.64444149   -8.1966503    721.67834  0.015747542  0.014838063            1 
 3820000   0.63600742    -8.199943    721.35811  0.015736434  0.014833133            4 
 3821000   0.63987062   -8.1792397    721.68759  0.015739501  0.014828199            3 
 3822000   0.65322822   -8.2116105    722.37614  0.015750396  0.014823267            2 
 3823000   0.64029338   -8.1654809    722.06655  0.015739527  0.014818336            2 
 3824000   0.63445403   -8.1903795    721.44229  0.015721807  0.014813408            4 
 3825000   0.64984223   -8.1992664    721.24901  0.015713486  0.014808481            1 
 3826000   0.63687211   -8.2044426    722.47246  0.015736027   0.01480356            2 
 3827000    0.6252805   -8.2082729    720.44242  0.015687711  0.014798627            6 
 3828000   0.63705685   -8.1981159    721.74729  0.015712019    0.0147937            3 
 3829000    0.6282123   -8.2211873    722.11418    0.0157159  0.014788773            2 
 3830000   0.63282121   -8.1959741    722.14051   0.01571237  0.014783842            4 
 3831000   0.63884919   -8.2072006    722.46143  0.015715249  0.014778922            2 
 3832000    0.6371772    -8.205651     721.7208  0.015695042  0.014774003            4 
 3833000   0.64879909   -8.2062818    721.11075  0.015677684  0.014769079            2 
 3834000   0.63163692   -8.1653448    721.74379  0.015687354  0.014764168            5 
 3835000   0.63310745   -8.1986621    721.84255   0.01568541  0.014759266            2 
 3836000   0.64313898   -8.1979444    721.07401  0.015664625   0.01475436            2 
 3837000    0.6539066   -8.2164688    721.27887  0.015664992  0.014749463            2 
 3838000   0.63715869   -8.1961936    722.33676   0.01568388  0.014744561            3 
 3839000    0.6468976   -8.1859988    721.40452  0.015659558  0.014739657            2 
 3840000   0.62420652    -8.207564    722.15132  0.015671687  0.014734754            2 
 3841000   0.62545588   -8.1839361    721.13242  0.015645501  0.014729849            2 
 3842000   0.63833076   -8.1906732    721.01755  0.015638937  0.014724945            1 
 3843000   0.63623825   -8.2229919    721.99826  0.015656134  0.014720043            3 
 3844000   0.64538777   -8.1946876    722.14857  0.015655319  0.014715136            1 
 3845000   0.63620055   -8.2124227    722.06158  0.015649362  0.014710238            3 
 3846000   0.64049475   -8.2200531    720.68241   0.01561541  0.014705342            4 
 3847000    0.6470353   -8.2137568    721.63727  0.015632035  0.014700458           11 
 3848000   0.62799582   -8.2015668    721.67236  0.015628733  0.014695572            2 
 3849000   0.62750151   -8.2153277    722.78002  0.015648654  0.014690693            4 
 3850000   0.63828531   -8.2320913    722.59734  0.015640635  0.014685806            4 
 3851000   0.63310639    -8.207875    722.17967  0.015627535  0.014680927            5 
 3852000     0.644722   -8.1883711    720.97994  0.015597524  0.014676044            2 
 3853000   0.64108266   -8.1986316    719.68563  0.015565482  0.014671165            4 
 3854000   0.62611668   -8.2016276    720.62429  0.015581739  0.014666291            2 
 3855000   0.64679102   -8.2180741    720.99687  0.015585752  0.014661421            4 
 3856000   0.63398844   -8.2044468    720.92442  0.015580144  0.014656547            4 
 3857000   0.63666971   -8.1899035    721.11151  0.015580147  0.014651676            2 
 3858000    0.6346454   -8.1865067    721.73017  0.015589471  0.014646812            5 
 3859000   0.64630521   -8.2057991    721.70202  0.015584824  0.014641949            2 
 3860000   0.64152435   -8.2068665     720.2125  0.015548629  0.014637091            4 
 3861000   0.63473056   -8.2227751    722.53284  0.015594683  0.014632231            3 
 3862000   0.62864668   -8.2006934    722.31949  0.015586041  0.014627373            3 
 3863000   0.63966845   -8.2325349    721.03918  0.015554387  0.014622523            4 
 3864000   0.63958509   -8.2097758    722.53585   0.01558264  0.014617672            4 
 3865000   0.63534854   -8.1882694    721.95297  0.015566041  0.014612818            2 
 3866000   0.64507672   -8.2098546    722.19383  0.015567206  0.014607969            1 
 3867000   0.62363245   -8.2285992    721.51623  0.015548578  0.014603118            3 
 3868000   0.63194238   -8.2224051    722.80335  0.015572289  0.014598264            4 
 3869000   0.64176104    -8.212256     721.8702  0.015548165  0.014593421            7 
 3870000   0.63549935   -8.2261666    721.67774  0.015540003  0.014588568            5 
 3871000   0.63783656   -8.2363356    720.39863  0.015508452  0.014583717            3 
 3872000   0.63083389   -8.2097416    720.99204  0.015517218  0.014578871            2 
 3873000    0.6235646   -8.2065255    722.55452  0.015546831  0.014574026            1 
 3874000   0.63751461   -8.2127343    721.09172  0.015511352  0.014569184            2 
 3875000   0.61446007   -8.2105914    723.12089  0.015550987  0.014564348            2 
 3876000   0.62864307   -8.2040379    722.23166  0.015527856  0.014559522            1 
 3877000    0.6397584   -8.2114375    721.02784  0.015497976  0.014554693            3 
 3878000   0.63524838   -8.1851594    722.12981   0.01551766  0.014549874            2 
 3879000   0.62279935   -8.2101188    722.24345  0.015516101   0.01454505            1 
 3880000   0.63826678   -8.1762591    722.43305  0.015516174   0.01454023            4 
 3881000   0.62317456   -8.1850169    722.27293  0.015508738  0.014535403            3 
 3882000   0.60714408   -8.2042898    722.09942  0.015501018  0.014530593            2 
 3883000   0.65307307   -8.1934344    721.70217  0.015488501  0.014525781            4 
 3884000   0.63598334   -8.2076181    723.37692  0.015520445  0.014520971            5 
 3885000   0.63981008   -8.1797806    722.06759  0.015488365  0.014516162            2 
 3886000   0.62384403   -8.2183796    721.83175  0.015479322  0.014511352            3 
 3887000   0.61634396   -8.2303679     721.7092  0.015472713  0.014506537            3 
 3888000   0.62926778   -8.1978547    721.25774  0.015459057  0.014501718            2 
 3889000   0.62584025   -8.2242473    722.57121  0.015483226  0.014496901            6 
 3890000   0.63049651   -8.2086395    722.67968   0.01548157  0.014492098            3 
 3891000   0.62549382   -8.2161243    723.76838  0.015500908  0.014487298            2 
 3892000   0.63428058   -8.1846121    722.40887  0.015467816  0.014482495            2 
 3893000   0.63078964   -8.2535994    720.54083  0.015423855  0.014477689            4 
 3894000   0.64287707   -8.2229965    722.23794  0.015456213  0.014472886            7 
 3895000   0.63142545   -8.2129787    722.49907  0.015457832  0.014468091            4 
 3896000   0.63953599   -8.2004104    723.02203   0.01546505  0.014463308            2 
 3897000   0.63043421   -8.2298894    722.23519  0.015444256  0.014458519            2 
 3898000   0.63074505   -8.2282712    722.45868  0.015445072  0.014453729            2 
 3899000   0.63265323   -8.2086698    721.39873  0.015418456  0.014448938            4 
 3900000   0.62400752   -8.2111323    722.59464  0.015440056  0.014444147            4 
 3901000   0.64408596    -8.211339    722.24967  0.015428729  0.014439348            3 
 3902000   0.62870845     -8.20094    721.54427   0.01540971  0.014434558            3 
 3903000   0.63401587   -8.2352249    721.74099  0.015409962  0.014429774            3 
 3904000   0.64221355   -8.2332786    721.94234  0.015410313  0.014424986            3 
 3905000   0.61470312   -8.2235425    722.55174  0.015419371  0.014420206            4 
 3906000   0.63514524   -8.2220067    720.86616  0.015379462  0.014415419            2 
 3907000   0.62775415   -8.2169453    721.55368   0.01539019  0.014410641            2 
 3908000   0.60585277   -8.2043807    722.37575  0.015403782  0.014405851            8 
 3909000   0.62704893   -8.2203768    721.71668  0.015385791  0.014401071            3 
 3910000   0.62481069   -8.2220348     722.1068  0.015390171  0.014396297            3 
 3911000    0.6166427   -8.2164251    721.50055  0.015373318  0.014391526            4 
 3912000   0.63179601   -8.2141611    721.82939  0.015376393  0.014386764            4 
 3913000   0.63156143   -8.2154929    721.99177  0.015375921  0.014381995            3 
 3914000   0.62495442   -8.2271792    721.87885  0.015369589  0.014377218            2 
 3915000   0.62317375   -8.2360579    723.39816  0.015398003  0.014372453            2 
 3916000   0.63326534   -8.2395454    721.11724  0.015345532  0.014367687            2 
 3917000   0.63479592   -8.2319049    722.02569  0.015360941  0.014362923            3 
 3918000   0.62719687   -8.2173639    722.35646  0.015364056  0.014358158            4 
 3919000   0.63647443   -8.2274604    720.80698  0.015327188  0.014353393            4 
 3920000   0.61857726   -8.2213861    720.51466  0.015317063  0.014348634            7 
 3921000   0.62045693   -8.2141519    721.94848   0.01534363  0.014343878            3 
 3922000   0.61766212   -8.2116569     722.3539  0.015348332  0.014339113            3 
 3923000   0.62563876   -8.2341613    722.67045  0.015351144   0.01433435            3 
 3924000   0.62470497   -8.2154691    721.41465  0.015320563  0.014329587            3 
 3925000   0.62719183   -8.2361951    719.73749  0.015281051  0.014324821            3 
 3926000   0.65079214   -8.2386176    721.70269  0.015318872  0.014320062            4 
 3927000   0.62750215   -8.2333442    720.90765    0.0152981  0.014315299            4 
 3928000   0.63492314   -8.2425807    721.08993  0.015298072  0.014310535            2 
 3929000    0.6320565   -8.2392348     721.6909  0.015306925  0.014305779            4 
 3930000   0.62302753   -8.2108462     720.6906  0.015281819  0.014301006            3 
 3931000   0.62583145   -8.2350363    721.59915  0.015297192  0.014296237            3 
 3932000   0.62471475   -8.2215375    720.39856  0.015267857  0.014291467            4 
 3933000   0.61582155   -8.2304473    722.50839  0.015308679  0.014286702            2 
 3934000   0.60866543   -8.2483291    721.82769  0.015290368   0.01428194            4 
 3935000   0.62173497   -8.2507489    722.06721  0.015291555  0.014277184            4 
 3936000   0.62613081   -8.2429751    721.84618   0.01528299  0.014272417            2 
 3937000   0.62431989   -8.2589318     720.0224  0.015240505  0.014267651            3 
 3938000   0.60550619    -8.252011    721.37419   0.01526524  0.014262891            6 
 3939000   0.63132871   -8.2358238    720.78154  0.015248827   0.01425813            4 
 3940000   0.62040629   -8.2459732    721.98002  0.015270305  0.014253378            2 
 3941000   0.62194445    -8.252652    721.50698  0.015256428  0.014248617            4 
 3942000   0.62828016   -8.2394977    721.04445   0.01524278  0.014243855            3 
 3943000   0.61953444   -8.2521067    721.06699   0.01523939  0.014239094            7 
 3944000    0.6159862   -8.2377684    720.68422  0.015227439  0.014234344            5 
 3945000   0.63330427   -8.2500779    719.35159  0.015195429  0.014229595            1 
 3946000   0.62249516   -8.2476682    720.92542  0.015224815  0.014224849            4 
 3947000   0.61729089   -8.2491242    721.08678  0.015224364  0.014220117            4 
 3948000   0.62203047   -8.2514236    721.47719  0.015228748  0.014215384            3 
 3949000   0.63269857   -8.2478677    721.15039  0.015217996  0.014210638            4 
 3950000   0.63225541   -8.2404965    719.37284  0.015176642    0.0142059            3 
 3951000   0.62027605   -8.2396924    720.57943   0.01519825   0.01420116            9 
 3952000   0.60891777   -8.2641429    720.76302  0.015198275  0.014196425            5 
 3953000    0.6163578   -8.2673322    721.89644  0.015218324  0.014191694            2 
 3954000   0.60234062   -8.2539853    721.42092  0.015204454  0.014186964            7 
 3955000   0.62916929   -8.2588241     721.0736  0.015193291  0.014182247            2 
 3956000   0.60255222   -8.2690346    721.37639  0.015195829  0.014177527            5 
 3957000    0.6051699   -8.2560273    720.25178  0.015168305  0.014172802            3 
 3958000   0.61817694   -8.2620534    722.01605  0.015201618  0.014168078            6 
 3959000   0.61476348   -8.2708246    720.89102  0.015174098  0.014163354            3 
 3960000   0.60902267   -8.2665461    720.25748  0.015156933  0.014158624            3 
 3961000   0.61680053   -8.2786997    719.91482  0.015145898  0.014153893            4 
 3962000   0.61358178   -8.2523327    720.78351  0.015160346  0.014149158            2 
 3963000   0.61461467   -8.2447794    722.78788  0.015198668  0.014144433            3 
 3964000   0.63111845   -8.2641857    719.81049  0.015132242  0.014139715            2 
 3965000   0.63322296   -8.2559259    721.89998  0.015172341  0.014134999            3 
 3966000   0.61599044   -8.2659432    720.33318  0.015135594  0.014130282            3 
 3967000   0.60655192   -8.2470451     721.6403  0.015159237  0.014125564            2 
 3968000   0.61062752   -8.2625226    720.62255  0.015134042  0.014120845            2 
 3969000    0.6251562   -8.2612985    721.52715  0.015149222  0.014116135            2 
 3970000   0.62048297   -8.2665798    720.79898  0.015130121  0.014111423            2 
 3971000     0.614872    -8.243705    720.33023  0.015116474  0.014106715            3 
 3972000   0.61689205   -8.2721398    720.91645  0.015124967   0.01410201            4 
 3973000   0.61431946     -8.23534    720.62529  0.015115054  0.014097312            4 
 3974000   0.60835029   -8.2451195    721.61152  0.015131931  0.014092608            1 
 3975000   0.62116766   -8.2526584    719.85951  0.015091394  0.014087911            2 
 3976000   0.61313639   -8.2554485    720.87772  0.015108939  0.014083221            2 
 3977000   0.62214273   -8.2470339    722.17009   0.01513222   0.01407853            3 
 3978000   0.60551903   -8.2473512    720.52557  0.015093966  0.014073837            3 
 3979000   0.60988184   -8.2504522    721.18123  0.015103904   0.01406914            7 
 3980000   0.61485635   -8.2607837    721.98214  0.015116879  0.014064436            3 
 3981000   0.62455273   -8.2714609    720.42755   0.01508054  0.014059744            4 
 3982000   0.61588177   -8.2499304    720.82968  0.015085168  0.014055054            1 
 3983000   0.62521837   -8.2557615    720.11221   0.01506637  0.014050364            2 
 3984000   0.61964031   -8.2538202    721.45499  0.015090675  0.014045675            4 
 3985000   0.61589548   -8.2540834    720.20589  0.015060767  0.014040981            2 
 3986000   0.61223026   -8.2452642    721.52752   0.01508462  0.014036293            5 
 3987000    0.6159851   -8.2569218    720.41713  0.015057628  0.014031603            4 
 3988000   0.60596993   -8.2592044    720.58387  0.015057336  0.014026914            2 
 3989000   0.61448591   -8.2757802    720.75312  0.015057097  0.014022225            1 
 3990000   0.62899143   -8.2727482    719.84411  0.015034338  0.014017545            2 
 3991000   0.61231137   -8.2690396    719.75107  0.015028628  0.014012857            4 
 3992000   0.59803424     -8.24612    721.83484  0.015068362  0.014008165            3 
 3993000   0.61254538   -8.2554829    720.23227  0.015031143  0.014003476            5 
 3994000   0.61381431   -8.2708664    721.24559  0.015048523  0.013998795            3 
 3995000   0.61156605   -8.2532539    721.40183  0.015048015  0.013994113            5 
 3996000   0.62165329   -8.2521825    721.34382  0.015043039  0.013989435            2 
 3997000   0.60567704   -8.2424081    721.17715  0.015035801  0.013984761            6 
 3998000   0.60212276   -8.2686485    720.22021  0.015012094  0.013980095            5 
 3999000   0.61471859   -8.2432458    721.26573  0.015030127  0.013975426            2 
 4000000   0.60745722   -8.2663243    719.43876  0.014988307  0.013970756            3 
 4001000   0.61030922   -8.2598773    720.57547  0.015008237  0.013966095            3 
 4002000    0.6115234   -8.2663411    721.24981  0.015018528  0.013961431            2 
 4003000   0.61897995   -8.2718015    721.28755  0.015015562  0.013956771            2 
 4004000   0.60391711   -8.2825329    720.19661  0.014989107  0.013952109            3 
 4005000    0.6083082   -8.2504698    720.41099  0.014989825  0.013947446            2 
 4006000   0.62077359   -8.2617828    720.35311  0.014984879  0.013942784            2 
 4007000   0.60895281   -8.2768528    720.49221  0.014984032  0.013938127            3 
 4008000     0.610648   -8.2534741    720.37746  0.014977908  0.013933478            2 
 4009000   0.61792423    -8.285867    719.83632  0.014962923   0.01392882            1 
 4010000   0.61318008   -8.2798368    719.18719  0.014945702  0.013924158            6 
 4011000   0.62000306   -8.2827681    720.92685   0.01497812  0.013919501            2 
 4012000   0.61065553   -8.2647067    720.78366  0.014971412  0.013914842            4 
 4013000   0.61805832   -8.2566972    719.19158   0.01493462  0.013910183            2 
 4014000   0.59834874   -8.2492762    720.37422  0.014955452  0.013905529            6 
 4015000   0.61193509   -8.2668286    721.24495    0.0149698  0.013900879            3 
 4016000   0.59709041   -8.2342755    722.23518   0.01498662  0.013896232            2 
 4017000   0.61537142   -8.2638507    718.95076  0.014914753   0.01389159            3 
 4018000   0.60736907   -8.2681856      720.431  0.014941741  0.013886954            3 
 4019000    0.6089423   -8.2420727    720.23167   0.01493389  0.013882316            2 
 4020000   0.61419581   -8.2725651    721.23844  0.014951046  0.013877681            3 
 4021000   0.60170412   -8.2718052    720.37203  0.014929371  0.013873052            3 
 4022000   0.60678434   -8.2588999    721.46537  0.014948313  0.013868425            3 
 4023000   0.61266092   -8.2690569    720.66928  0.014928107  0.013863805            4 
 4024000   0.60766539   -8.2652498    721.49771  0.014941553  0.013859174            2 
 4025000   0.59406802   -8.2610807    720.14679  0.014909871  0.013854544            2 
 4026000     0.604358   -8.2479634    719.33433  0.014889351  0.013849923            3 
 4027000   0.61277026   -8.2764076     720.1421  0.014902369  0.013845301            7 
 4028000   0.61517509   -8.2756066    719.67214  0.014888947  0.013840685            3 
 4029000   0.60865719   -8.2527088    720.06992  0.014893479  0.013836062            3 
 4030000   0.61566583   -8.2607556    721.17854  0.014912708  0.013831438            2 
 4031000   0.59815153   -8.2829435    720.12059  0.014887137   0.01382681            2 
 4032000    0.6202078   -8.2807593    719.88517  0.014878579   0.01382219            3 
 4033000   0.60583751   -8.2693937    720.50554  0.014887709  0.013817568            3 
 4034000    0.5996522   -8.2802735    720.98548  0.014893932  0.013812951            2 
 4035000   0.60960898   -8.2593495    720.96694  0.014889858  0.013808342            2 
 4036000   0.60068614     -8.27717    720.81759  0.014883085  0.013803731            3 
 4037000   0.61477789    -8.244084     721.5816   0.01489517  0.013799115            3 
 4038000   0.61359223   -8.2599513    720.57013  0.014870607  0.013794514            5 
 4039000   0.60598772   -8.2963841    720.58639  0.014867261  0.013789905            3 
 4040000   0.60658292   -8.2896771    720.54445  0.014862716  0.013785294            5 
 4041000   0.60645066   -8.2684061    720.45071  0.014857104  0.013780686            5 
 4042000   0.60190737   -8.2858013    719.73102  0.014838591  0.013776082            4 
 4043000   0.60236862   -8.2615539    719.81598  0.014836672  0.013771477            2 
 4044000   0.60426053   -8.2833968    719.94868  0.014835738  0.013766879            4 
 4045000    0.6099541   -8.2833185    720.50808  0.014843595  0.013762286            4 
 4046000   0.60985936   -8.2959243    719.34197  0.014815908  0.013757688            2 
 4047000   0.58870693   -8.2735462    720.86797   0.01484367   0.01375309            4 
 4048000   0.60218091   -8.2877842     719.1185  0.014803988  0.013748485            3 
 4049000   0.58890975   -8.2776319    719.91207  0.014816664  0.013743888            2 
 4050000   0.60390044   -8.2947995    720.12773  0.014817443  0.013739285            2 
 4051000   0.60858402   -8.2859459    720.56559  0.014822792  0.013734682            3 
 4052000   0.59614406   -8.2830517    717.65557  0.014759287  0.013730081            2 
 4053000   0.62253639   -8.2824691    720.33278  0.014810691  0.013725483            2 
 4054000   0.61609603   -8.2759061    720.23354  0.014804998  0.013720886            4 
 4055000    0.5965017    -8.271805    719.54954   0.01478729  0.013716301            5 
 4056000   0.60246752   -8.2939659    719.19401   0.01477634  0.013711715            8 
 4057000   0.61309601   -8.3105435    721.03295  0.014810471   0.01370712            5 
 4058000   0.61046242   -8.2968534    719.26389  0.014770492  0.013702534            2 
 4059000   0.60727173   -8.2778319     720.8384  0.014799179  0.013697949            3 
 4060000   0.60653378   -8.2850421    720.40363   0.01478661  0.013693359            2 
 4061000   0.60253697   -8.2986229    719.54025  0.014765252  0.013688773            2 
 4062000   0.60181974   -8.2888645     719.7612   0.01476615  0.013684187            4 
 4063000   0.60658447   -8.2848351    718.98452  0.014746586  0.013679603            3 
 4064000   0.60423148   -8.3134038     717.8276  0.014719234  0.013675016            3 
 4065000    0.6096395   -8.3233264    720.06828  0.014761547  0.013670431            3 
 4066000   0.59480593    -8.279271     718.6805  0.014729474  0.013665848            3 
 4067000   0.59580103   -8.3267469    719.33628  0.014739289  0.013661263            2 
 4068000   0.59633018   -8.3016314    720.21798  0.014753728  0.013656684            7 
 4069000   0.60079076   -8.3210789     718.9831  0.014724812  0.013652105            4 
 4070000    0.6014432   -8.3068644     718.6544  0.014714464  0.013647527            2 
 4071000   0.59426992   -8.3044044    720.11549  0.014740758  0.013642954            4 
 4072000   0.59196158   -8.2920265    719.81291  0.014730945  0.013638392            3 
 4073000   0.60916083    -8.307629    720.59058   0.01474324   0.01363383            3 
 4074000   0.60131968   -8.3116614    719.14245  0.014709999  0.013629264            1 
 4075000   0.59378162   -8.2961438    720.50965  0.014734349  0.013624702            3 
 4076000   0.59232399   -8.2830242    719.57592  0.014711644  0.013620147            6 
 4077000   0.60607386   -8.2966492    720.10603  0.014718871  0.013615583            3 
 4078000   0.61168106   -8.2925155    721.07668  0.014735096  0.013611027            4 
 4079000   0.60799861   -8.3103404    719.53328  0.014699953  0.013606472            1 
 4080000   0.60005231   -8.2844518    720.12128  0.014708359  0.013601917            4 
 4081000    0.5833586   -8.2774845    719.26949  0.014687362  0.013597365            2 
 4082000   0.60916378   -8.2765703    720.22439  0.014703258  0.013592812            5 
 4083000   0.60004397   -8.3002901    719.06079  0.014675908  0.013588264            3 
 4084000   0.60353578   -8.3010527    719.52316  0.014681749  0.013583711            2 
 4085000   0.60397177   -8.3103519    720.58014  0.014699717  0.013579158            2 
 4086000   0.59242559   -8.3032578    718.98757  0.014663639  0.013574604            3 
 4087000   0.59804202   -8.3040714    719.99142   0.01468052  0.013570053            3 
 4088000   0.60310064   -8.3084475    717.80673  0.014632394  0.013565509            2 
 4089000   0.60126989   -8.3072521    719.80682  0.014669577  0.013560965            3 
 4090000   0.59677767   -8.3082266    718.70484  0.014643538  0.013556414            2 
 4091000    0.5952268   -8.3073788    719.36092  0.014653323  0.013551873            2 
 4092000   0.59832071   -8.2909621     720.4774  0.014672479  0.013547328            2 
 4093000   0.59569122   -8.2883142    720.03689  0.014659925  0.013542791            3 
 4094000    0.5890615   -8.2845813    719.07301  0.014636725  0.013538253            5 
 4095000   0.59812189   -8.2806167    719.49165   0.01464167  0.013533713            2 
 4096000   0.59795453    -8.297115    717.93262  0.014606377  0.013529172            2 
 4097000   0.58616907   -8.3024021    718.98113  0.014624138  0.013524643            2 
 4098000   0.58879603   -8.3050736    720.11078  0.014643541  0.013520109            4 
 4099000   0.58504226    -8.302464    718.55906  0.014608422   0.01351558            4 
 4100000   0.58361492   -8.2929333    717.87616  0.014590979  0.013511051            2 
 4101000   0.58860008   -8.3028327    719.56361   0.01462171  0.013506528            4 
 4102000   0.58933163   -8.2856495    719.87994  0.014624572  0.013502005            3 
 4103000   0.58439466   -8.2983868    718.13821  0.014585633  0.013497481            4 
 4104000   0.59624582   -8.3116487    720.25865  0.014625135   0.01349295            2 
 4105000   0.59840988   -8.2829629    719.04712  0.014596978  0.013488428            4 
 4106000   0.59324255   -8.3061583    718.46016   0.01458151  0.013483908            4 
 4107000   0.59469249   -8.3215614    717.74001  0.014563347  0.013479385            2 
 4108000   0.60498902   -8.3003551     719.3178  0.014591809  0.013474861            3 
 4109000   0.59021047   -8.2962534    720.73937  0.014617088  0.013470342            3 
 4110000   0.59043469   -8.3141553    719.93772  0.014597277  0.013465822            1 
 4111000   0.59223906   -8.2979507    718.43481  0.014563261  0.013461306            3 
 4112000   0.61091589   -8.3148725    720.31198  0.014597762  0.013456792            2 
 4113000   0.60044128   -8.3207139    718.46798  0.014556852  0.013452283            5 
 4114000   0.60369001   -8.3088455    718.25896   0.01454908  0.013447778            4 
 4115000    0.5850687   -8.2980302    718.20088  0.014544368  0.013443272            3 
 4116000   0.60142619   -8.3187825    719.99385  0.014577135  0.013438776            4 
 4117000   0.60240799   -8.3057592    719.50053  0.014563609  0.013434276            3 
 4118000   0.58766869   -8.2969571    718.90027  0.014547925  0.013429776            3 
 4119000   0.61295197   -8.3111561    719.24447  0.014551357  0.013425277            4 
 4120000    0.5875382   -8.2962427    719.38377  0.014550643  0.013420782            3 
 4121000   0.59641704   -8.3263246    718.98547  0.014539057  0.013416287            4 
 4122000   0.59512232   -8.3124634    719.57967  0.014547543  0.013411798            3 
 4123000   0.58510739   -8.3201532    719.12923   0.01453491  0.013407306            2 
 4124000   0.59293554   -8.3029469    718.55529  0.014519788  0.013402815            2 
 4125000   0.59240697   -8.3124803    719.08041  0.014526877  0.013398317            5 
 4126000   0.59524061   -8.3121412    719.23603  0.014526499  0.013393823            4 
 4127000   0.60198701    -8.321082    718.35329  0.014505155  0.013389325            4 
 4128000   0.58138358   -8.3050768     718.5363  0.014505335  0.013384833            5 
 4129000   0.57279594   -8.3104596    719.49639  0.014521199  0.013380347            4 
 4130000   0.59266932   -8.3371868    719.71938  0.014522183  0.013375855            4 
 4131000   0.58891651   -8.3023983    719.48671  0.014513974  0.013371361            7 
 4132000   0.58019452   -8.2910057    719.15188  0.014503708  0.013366876            2 
 4133000   0.57749856   -8.3223181    717.64475  0.014469811  0.013362393            3 
 4134000   0.60037706   -8.3081556    718.67673  0.014487113  0.013357908            2 
 4135000   0.60580468    -8.329115     717.8575    0.0144671  0.013353431            4 
 4136000   0.59816602   -8.3193129     719.2207  0.014491068  0.013348954            3 
 4137000   0.59391918   -8.3091474     719.0088  0.014483297  0.013344475            2 
 4138000   0.59086778    -8.334121    716.94879  0.014438311  0.013340003            6 
 4139000   0.58114443   -8.3340776    718.76296  0.014471349  0.013335529            3 
 4140000   0.58634942   -8.3235372    718.60506  0.014464675  0.013331056            5 
 4141000   0.58851991   -8.3415936    718.39332  0.014456921  0.013326588            3 
 4142000   0.59166517   -8.3235768    719.26858   0.01447104  0.013322117            3 
 4143000    0.5942468   -8.3194997    718.41232  0.014450324  0.013317647            2 
 4144000   0.58447977    -8.306367    718.75189  0.014453666  0.013313179            2 
 4145000    0.5946972   -8.3338397    719.15579  0.014458299  0.013308717            2 
 4146000   0.58244417   -8.3235756    718.79889  0.014447638  0.013304257            3 
 4147000   0.58770707   -8.3157956    720.08076  0.014469913  0.013299801            3 
 4148000    0.5946346    -8.324092    718.71319   0.01443895  0.013295353            2 
 4149000   0.58684351   -8.3107589     719.1656  0.014444557  0.013290899            2 
 4150000   0.59629065   -8.3363666    718.20681  0.014421824   0.01328644            6 
 4151000   0.58697228   -8.3170281    717.94969  0.014413187  0.013281983            4 
 4152000   0.57588801   -8.3467027    718.97533  0.014430301  0.013277532            2 
 4153000     0.572318   -8.3171156     718.5451  0.014418194  0.013273079            3 
 4154000    0.5953167   -8.3134537    719.15603  0.014426979  0.013268632            2 
 4155000   0.59595823   -8.3474659       718.13  0.014402928  0.013264194            3 
 4156000   0.58740216   -8.3212278    719.15077   0.01441993  0.013259749            3 
 4157000   0.59216657   -8.3371352    717.91135  0.014391616  0.013255307            4 
 4158000   0.57497116   -8.3097903    719.80343  0.014426075  0.013250864            4 
 4159000   0.58146381   -8.3311961    719.23716   0.01441126  0.013246422            4 
 4160000   0.58032045   -8.3256144     718.0559  0.014384133  0.013241976            4 
 4161000   0.58155755   -8.3219553    717.91224  0.014377799  0.013237531            8 
 4162000   0.59111859   -8.3301304    719.65983  0.014409335  0.013233092            2 
 4163000   0.58448207    -8.343553    719.03256  0.014393317  0.013228651            4 
 4164000   0.59132745   -8.3437711    718.42656  0.014377733  0.013224217            1 
 4165000   0.59157262   -8.3161665    718.53094  0.014376369  0.013219773            3 
 4166000   0.59072186   -8.3261634    717.69971  0.014356291  0.013215342            5 
 4167000   0.59879293   -8.3517715    717.86636  0.014356179  0.013210911            7 
 4168000   0.58699581   -8.3275647    719.12816  0.014377962  0.013206485            3 
 4169000   0.58098339   -8.3442105    718.87073  0.014369368  0.013202056            5 
 4170000   0.59168074   -8.3300091    717.42891  0.014337109  0.013197631            3 
 4171000   0.59595341   -8.3122405    718.55674  0.014356204  0.013193206            5 
 4172000   0.58269641   -8.3254905    719.73867  0.014376372  0.013188785            5 
 4173000   0.58691514   -8.3379323    718.74573  0.014353098  0.013184364            9 
 4174000   0.58346026   -8.3308296    719.11741   0.01435708  0.013179941            3 
 4175000   0.59157974   -8.3406137    717.99457  0.014331229  0.013175519            3 
 4176000   0.58600056    -8.349872    719.80173   0.01436386  0.013171098            4 
 4177000   0.57822137   -8.3384768    717.16575  0.014307832  0.013166679            2 
 4178000   0.58888327   -8.3393337    717.98139  0.014320676  0.013162255            2 
 4179000   0.57043204   -8.3381144    717.57037  0.014309053  0.013157842            3 
 4180000   0.56874453    -8.319424    717.99604  0.014314116  0.013153421            2 
 4181000   0.58988854   -8.3405569     717.1502  0.014293833  0.013148999            3 
 4182000   0.59363938   -8.3463965    717.81975  0.014303757   0.01314458            2 
 4183000   0.57500409   -8.3526009    717.94134   0.01430276  0.013140163            3 
 4184000   0.58037073   -8.3478014    718.15735  0.014303644  0.013135751            3 
 4185000   0.58837502   -8.3263136    718.61194  0.014309278  0.013131341            2 
 4186000   0.58985079   -8.3406966    718.04814  0.014294636  0.013126936            4 
 4187000   0.56993802   -8.3432288    719.43772  0.014318878  0.013122525            6 
 4188000   0.57908525   -8.3241537    718.71076  0.014300994  0.013118124            3 
 4189000   0.57890466   -8.3373574    718.19928  0.014287405  0.013113726            6 
 4190000   0.58484172   -8.3349653    719.29492  0.014305786  0.013109325            3 
 4191000   0.58690054   -8.3412941    717.40672  0.014264828  0.013104929            7 
 4192000     0.589942   -8.3495726    718.31819  0.014279544  0.013100526            9 
 4193000   0.57959875   -8.3328906    717.57535  0.014261375  0.013096131            7 
 4194000   0.57375293   -8.3414539    718.23884  0.014271158  0.013091732            2 
 4195000   0.58800457   -8.3402713    718.41536  0.014271263  0.013087342            4 
 4196000   0.57971599   -8.3470819    718.89875  0.014277462  0.013082957            6 
 4197000   0.58896433    -8.328278    718.60029  0.014268134  0.013078567            3 
 4198000   0.57042528   -8.3561074    717.97997  0.014252421  0.013074185            3 
 4199000   0.59362076   -8.3325034     717.9301  0.014248037  0.013069802            2 
 4200000   0.57410305   -8.3461947     719.0444  0.014266754  0.013065421            3 
 4201000    0.5792712   -8.3424799    718.52305  0.014253016  0.013061035            4 
 4202000    0.5702135   -8.3372026    719.33989  0.014265824  0.013056656            5 
 4203000   0.57619833   -8.3489558    717.98954  0.014235656  0.013052273            7 
 4204000   0.57906855   -8.3449945    717.46039  0.014221781  0.013047891            5 
 4205000   0.58914114   -8.3631398    718.36221   0.01423627  0.013043515            2 
 4206000   0.57976991    -8.329902    719.30508  0.014251567  0.013039141            8 
 4207000   0.58737425   -8.3331859    717.36172  0.014209685  0.013034766            4 
 4208000   0.57676897   -8.3598882    717.38121  0.014206694  0.013030394            2 
 4209000     0.572891   -8.3379683    717.36615   0.01420302  0.013026027            3 
 4210000   0.57358599   -8.3300283    717.14002  0.014195171  0.013021651            3 
 4211000   0.57530689    -8.352881     718.2875  0.014214508  0.013017286            2 
 4212000    0.5738727   -8.3418258    718.00129   0.01420547  0.013012922            5 
 4213000   0.57015162   -8.3590275    718.12914  0.014204627  0.013008556            6 
 4214000   0.59553386   -8.3459532     718.3423  0.014205472  0.013004201            4 
 4215000   0.58018066   -8.3234159    718.25413  0.014200358  0.012999848            5 
 4216000   0.57256951    -8.324817    717.95327  0.014191043  0.012995493            2 
 4217000   0.58218811   -8.3372161    718.11235  0.014190822  0.012991141            4 
 4218000   0.58378209   -8.3394766    717.77854  0.014180863  0.012986788            3 
 4219000   0.58121328   -8.3487514    717.68761  0.014175705  0.012982434            4 
 4220000   0.57564676   -8.3690632    717.49359  0.014168515  0.012978086            3 
 4221000   0.57306807    -8.348985    718.05867  0.014176314  0.012973731            2 
 4222000   0.58131829   -8.3424747    717.78045  0.014167465  0.012969383            6 
 4223000    0.5706694   -8.3689606    717.18457  0.014152352  0.012965038            2 
 4224000   0.58461157   -8.3526117    716.61861  0.014137835  0.012960696            5 
 4225000   0.56397622   -8.3602811      716.637  0.014134852  0.012956347            4 
 4226000   0.55342612   -8.3526131    719.56168   0.01418918  0.012952004            2 
 4227000   0.57117604   -8.3524708    718.38202  0.014162566  0.012947664            2 
 4228000   0.57935154   -8.3511518    717.24078  0.014136723  0.012943324            7 
 4229000   0.58131675   -8.3375287     716.9359  0.014127373  0.012938984            4 
 4230000    0.5819736   -8.3479882    717.73312  0.014139738  0.012934645            4 
 4231000   0.58827433   -8.3551855    716.93689  0.014120714   0.01293031            4 
 4232000   0.58680496   -8.3662223    718.82067  0.014154471  0.012925974            2 
 4233000   0.58421524   -8.3571041    717.42941  0.014123738  0.012921641            4 
 4234000    0.5722061   -8.3656019    716.88108   0.01410961  0.012917306            3 
 4235000   0.58401419   -8.3512693    716.79316  0.014104549  0.012912972            3 
 4236000   0.58552772   -8.3460095    717.84845  0.014121979  0.012908642            4 
 4237000   0.58030057   -8.3508649    717.74986  0.014116707  0.012904318            2 
 4238000   0.57478609   -8.3562234     717.7974  0.014114311  0.012899988            3 
 4239000   0.58629148   -8.3512808    716.89459  0.014093233  0.012895662            3 
 4240000   0.58488525   -8.3540947    718.18369  0.014115245  0.012891338            3 
 4241000   0.58029982   -8.3623513    718.42559   0.01411667  0.012887016            3 
 4242000   0.57277282   -8.3673243    718.00225  0.014105026  0.012882696            4 
 4243000   0.55922434   -8.3558955    716.90319  0.014080116  0.012878368            3 
 4244000   0.58327177   -8.3538213    717.98832  0.014098106  0.012874044            2 
 4245000   0.57337557   -8.3718306    717.27032   0.01408069  0.012869725            5 
 4246000   0.56861204   -8.3614974    718.38093   0.01409917  0.012865407            2 
 4247000   0.57061249   -8.3732019    717.38614  0.014076331  0.012861089            3 
 4248000   0.56512189    -8.379122    716.82183  0.014061947  0.012856771            5 
 4249000   0.57181688   -8.3520043    717.21128  0.014066276  0.012852453            3 
 4250000   0.57455601   -8.3703823    717.77598  0.014074039  0.012848147            3 
 4251000   0.57718408   -8.3527997    718.37772  0.014082524  0.012843839            4 
 4252000   0.56898446   -8.3505186    718.14845  0.014074719  0.012839536            4 
 4253000   0.57398937   -8.3407723    717.30083  0.014054801  0.012835228            4 
 4254000   0.55488113   -8.3675632    718.39053  0.014072844  0.012830926            3 
 4255000    0.5598954   -8.3827197    715.91918  0.014021136  0.012826621            1 
 4256000   0.56470715   -8.3727165    718.64474  0.014071208  0.012822312            3 
 4257000   0.56211907   -8.3632492     718.3185  0.014061516  0.012818011            5 
 4258000    0.5653848   -8.3544728    717.93953  0.014050797  0.012813709            2 
 4259000   0.58955171   -8.3745161    717.57495  0.014040365  0.012809416            4 
 4260000    0.5715306   -8.3441258    718.01744  0.014045725  0.012805124            4 
 4261000   0.58577954   -8.3861573    716.99203  0.014022374  0.012800828            5 
 4262000   0.56280239   -8.3597516    717.32032  0.014025503  0.012796539            4 
 4263000   0.57501451   -8.3800595    715.64979  0.013989557  0.012792246            5 
 4264000   0.56998152    -8.391104    717.18948  0.014016367  0.012787955            3 
 4265000   0.56021468   -8.3524813     717.4422  0.014018019  0.012783665            3 
 4266000    0.5683435   -8.3845339    716.74215  0.014001058  0.012779379            5 
 4267000   0.57466009   -8.3795673    717.61495  0.014014822  0.012775096            4 
 4268000   0.57586419   -8.3884042     717.3897   0.01400714  0.012770807            3 
 4269000     0.558183   -8.3691899    716.56923  0.013987843   0.01276652            2 
 4270000   0.57569759   -8.3844074    717.29929  0.013998815  0.012762238            3 
 4271000   0.56539278   -8.3521026    716.24827  0.013975031  0.012757954            3 
 4272000   0.56874676   -8.3637661    716.79414  0.013982408  0.012753664            4 
 4273000   0.57093338   -8.3765025    717.99709  0.014002596  0.012749384            3 
 4274000   0.56560769   -8.3770278    717.87959  0.013997028  0.012745102            3 
 4275000   0.57121433   -8.3771216    716.71357  0.013971025  0.012740825            4 
 4276000   0.57098138   -8.3886121    717.36614  0.013980475  0.012736552            5 
 4277000   0.57267435   -8.3632829    718.20986  0.013993645  0.012732286            2 
 4278000    0.5608447   -8.3693595    718.83931  0.014002636  0.012728016            3 
 4279000   0.56435177   -8.3662344    716.86924  0.013960996  0.012723745            3 
 4280000   0.57597804   -8.3646487    715.92769  0.013939402  0.012719476            4 
 4281000   0.57008487   -8.3585406     717.2721  0.013962316  0.012715211            5 
 4282000   0.57497023   -8.3823415    717.57753  0.013964999  0.012710951            7 
 4283000   0.56732698   -8.3664492    717.15136  0.013953447  0.012706687            3 
 4284000   0.57075435   -8.3927852    716.28711  0.013933378  0.012702422            3 
 4285000   0.57147137   -8.3584674     717.2445  0.013948746  0.012698159            2 
 4286000    0.5564047   -8.3819028    717.37463  0.013948021  0.012693896            4 
 4287000   0.57435801   -8.3829491    716.93935  0.013936307  0.012689636            2 
 4288000   0.56087566   -8.3863151      716.599  0.013926442  0.012685375            3 
 4289000   0.56300528   -8.3685333    718.56539  0.013961401   0.01268112            2 
 4290000   0.56351299    -8.374806    716.57907  0.013919562  0.012676873            5 
 4291000   0.57172674   -8.3892092    716.61823  0.013917079  0.012672623            7 
 4292000   0.57395491   -8.3685182    717.20517  0.013925232  0.012668372            5 
 4293000   0.55390721   -8.3766058    717.55093    0.0139287  0.012664126            3 
 4294000     0.579503   -8.3793205    717.62757  0.013926944  0.012659879            2 
 4295000   0.55835344   -8.4033461    717.81754  0.013927387  0.012655634            3 
 4296000   0.55948696   -8.3759034    717.64917  0.013920879  0.012651388            5 
 4297000   0.57440181    -8.385271    717.49858  0.013914719  0.012647149            3 
 4298000   0.55942145   -8.3750954     716.6408   0.01389485  0.012642913            3 
 4299000   0.56447128   -8.3801865    716.34279  0.013885841  0.012638673            4 
 4300000   0.57244808   -8.3715515    717.23951   0.01389999  0.012634443            5 
 4301000   0.57402056   -8.3851198    715.68839  0.013866705  0.012630211            3 
 4302000   0.57447397     -8.35213    717.12061  0.013891225  0.012625979            2 
 4303000   0.55554081   -8.3728952    716.63566  0.013878605  0.012621749            4 
 4304000   0.56297942    -8.372894    717.89229  0.013899711  0.012617524            2 
 4305000   0.56061374   -8.3922121    717.34179  0.013885826  0.012613297            5 
 4306000   0.55602691   -8.3780933    715.57613  0.013848431  0.012609066            3 
 4307000   0.56305597   -8.3840898    715.23256  0.013838568  0.012604841            3 
 4308000   0.56851725   -8.3700149    716.98693  0.013869292  0.012600611            3 
 4309000   0.57010397   -8.3662694    716.58855  0.013858369  0.012596383            4 
 4310000   0.56219728     -8.38585    715.95408  0.013842886  0.012592159            1 
 4311000    0.5539272   -8.3774068     717.2853  0.013865408  0.012587939            2 
 4312000   0.55699407    -8.357741    716.52619  0.013847522  0.012583719            3 
 4313000   0.56125531   -8.3782817    716.99383  0.013853347  0.012579505            3 
 4314000   0.56027018   -8.3772553    716.98075  0.013849883  0.012575287            5 
 4315000   0.56110055   -8.3951215    717.17904  0.013850503  0.012571071            3 
 4316000   0.54087123   -8.3901138    716.68071  0.013837672  0.012566858            4 
 4317000   0.55264721   -8.3680682    717.82141  0.013856486  0.012562646            4 
 4318000   0.56476673    -8.366045     716.0088  0.013818295  0.012558435            4 
 4319000   0.56462788   -8.3736283    716.72277  0.013828872  0.012554224            3 
 4320000   0.55436584   -8.3808709    717.07166  0.013832401  0.012550017            2 
 4321000   0.56533866      -8.3694    716.32679  0.013814834  0.012545814            8 
 4322000   0.56742628   -8.3768486    716.34814   0.01381205  0.012541612            3 
 4323000   0.54742144   -8.3933779    716.00788  0.013802296  0.012537407            4 
 4324000   0.56151543   -8.3916083    716.60174  0.013810548  0.012533206            4 
 4325000   0.56008203   -8.3715939    716.57577  0.013806855  0.012529012            4 
 4326000   0.54839091   -8.3844336    715.46096  0.013782188  0.012524815            4 
 4327000   0.56315682   -8.3740588    716.31657  0.013795481   0.01252062            2 
 4328000   0.56151524   -8.3914227    716.91631  0.013803841   0.01251643            4 
 4329000   0.57174111   -8.3895382    716.16593  0.013786208  0.012512233            2 
 4330000   0.55721981   -8.3780948     715.9765  0.013779378  0.012508038            3 
 4331000   0.56253815   -8.3787189    716.31631  0.013782735  0.012503844            4 
 4332000   0.55184788   -8.3851205    714.81862  0.013750743  0.012499655            3 
 4333000   0.55665369   -8.3937855    717.31613  0.013795602  0.012495462            3 
 4334000   0.55551363   -8.3867651    716.48788  0.013776494  0.012491277            3 
 4335000    0.5469256   -8.3740823    716.75752  0.013778499  0.012487091            2 
 4336000   0.55825836   -8.3787409    716.07409  0.013762186  0.012482907            2 
 4337000   0.55788655   -8.3872766     717.0195  0.013777179  0.012478729            4 
 4338000   0.55061394   -8.3774612    716.30138  0.013760208  0.012474548            4 
 4339000   0.55616591   -8.3713546    715.72779   0.01374602  0.012470368            4 
 4340000   0.54508571    -8.360242    716.24498  0.013752784  0.012466195            2 
 4341000   0.54267326   -8.3837081    716.67348  0.013757842  0.012462024            2 
 4342000   0.54707074   -8.3609646     716.3318  0.013748115  0.012457853            2 
 4343000   0.54146051   -8.3779992    715.19974  0.013723228  0.012453676            3 
 4344000   0.56096794   -8.3835331    715.22872  0.013720625  0.012449509            3 
 4345000   0.57319005   -8.3861269     716.1329  0.013734808   0.01244534            2 
 4346000   0.56167028   -8.3746986     716.7719    0.0137439  0.012441169            4 
 4347000   0.56773464   -8.3784723    714.68182  0.013700671  0.012436998            3 
 4348000   0.55470923   -8.3765826    715.96096  0.013722036  0.012432832            3 
 4349000   0.54517494   -8.3860094    716.47071  0.013728648   0.01242867            2 
 4350000   0.56356668   -8.3936318    715.49374  0.013706777  0.012424504            5 
 4351000   0.54662793   -8.3822969    715.88277  0.013711077  0.012420348            3 
 4352000   0.55492739    -8.392136     717.4116  0.013737201   0.01241619            2 
 4353000   0.55884627   -8.3712259    715.81904  0.013703558   0.01241203            3 
 4354000   0.55859757   -8.3972557    716.16094  0.013706954  0.012407878            5 
 4355000   0.55855203   -8.3815659    717.15965  0.013722917  0.012403726            3 
 4356000   0.55141308   -8.3837936    716.46715  0.013706519  0.012399572            3 
 4357000   0.55813962   -8.4139727    714.79328  0.013671358  0.012395419            4 
 4358000   0.55703976   -8.3900523    716.65379  0.013703797  0.012391271            2 
 4359000   0.56203505   -8.4009552    716.41403   0.01369607  0.012387122            2 
 4360000   0.54818826   -8.3826582    716.93591  0.013702904  0.012382977            2 
 4361000    0.5678711   -8.3772135    716.23214  0.013686313  0.012378838            3 
 4362000   0.55358717    -8.377574     716.6522  0.013691201  0.012374701            1 
 4363000   0.54690409   -8.3922956    716.29774  0.013681292  0.012370564            2 
 4364000   0.54686396     -8.38644    716.24856  0.013677218  0.012366431            3 
 4365000   0.54994013    -8.386486    715.43545  0.013658562  0.012362299            3 
 4366000   0.56100662   -8.3788744    716.74167  0.013680365  0.012358167            4 
 4367000   0.55454434   -8.3852215    716.94003  0.013681017  0.012354044            3 
 4368000   0.54494983   -8.4037308    716.01282  0.013660196  0.012349919            4 
 4369000   0.55231389   -8.3885967    715.93386  0.013655563  0.012345795            3 
 4370000   0.55930309   -8.3702497    716.68598  0.013666781   0.01234167            2 
 4371000   0.53346087   -8.3989581    717.10542  0.013671651  0.012337548            3 
 4372000   0.54044497   -8.3842562    716.37918  0.013654681  0.012333427            2 
 4373000   0.56222555   -8.4021977    716.56924   0.01365518  0.012329307            2 
 4374000   0.55374922   -8.3809022    716.44129  0.013649621   0.01232519            2 
 4375000   0.54637777   -8.4058409    715.85929  0.013635415  0.012321075            2 
 4376000   0.55202824   -8.4005846    716.45921  0.013643724   0.01231696            3 
 4377000   0.55201245   -8.3969746    716.92283  0.013649433  0.012312846            3 
 4378000   0.54345981   -8.3952104    717.39411  0.013655286  0.012308735            5 
 4379000    0.5469505   -8.3692119    716.31284  0.013631591  0.012304631            2 
 4380000   0.54328616   -8.3850924    717.00242  0.013641599  0.012300524            3 
 4381000   0.55967972   -8.4011843    716.66711  0.013632107  0.012296417            3 
 4382000   0.55910246   -8.3890428    716.26066  0.013621266  0.012292308            4 
 4383000   0.54674816   -8.3749424    717.11159  0.013634337  0.012288203            4 
 4384000   0.55395025   -8.3843928     715.6157  0.013602792  0.012284103            3 
 4385000   0.55081452   -8.4015763    716.64387   0.01361923  0.012280006            2 
 4386000   0.54080782   -8.3953917    716.03891   0.01360463  0.012275906            2 
 4387000     0.537501   -8.3991817    716.62324  0.013612629  0.012271803            2 
 4388000   0.55091767   -8.3937297    716.13006  0.013600161  0.012267702            4 
 4389000    0.5608637    -8.402734    716.42673  0.013602695  0.012263605            3 
 4390000   0.54602268   -8.3811571    715.22516  0.013576787  0.012259501            2 
 4391000   0.55160219   -8.3941312    715.62465  0.013581277  0.012255404            2 
 4392000   0.54487431   -8.3982626    717.16972  0.013607501  0.012251307            3 
 4393000   0.54976635    -8.400923     716.8374  0.013598099  0.012247213            3 
 4394000   0.54829228   -8.3874848    717.03559  0.013598763  0.012243128            2 
 4395000   0.54957885   -8.3992296    716.76423  0.013590524  0.012239047            2 
 4396000   0.53627472   -8.4070463    717.12225  0.013594219  0.012234956            3 
 4397000   0.55261406   -8.4035176     714.9636  0.013550216  0.012230865            2 
 4398000   0.55525012   -8.4131987     715.7535  0.013562102  0.012226779            4 
 4399000   0.54433874   -8.3837948    715.39864  0.013552297  0.012222698            4 
 4400000   0.54826455   -8.3816979    715.91964  0.013559084  0.012218614            2 
 4401000   0.53333135   -8.4157888      715.966  0.013556881  0.012214541            4 
 4402000   0.54482223    -8.396199    715.86764  0.013551939  0.012210463            2 
 4403000   0.54327383   -8.4070617     715.4831  0.013541583  0.012206387            3 
 4404000   0.55218759   -8.4186764    716.83569  0.013564103  0.012202313            4 
 4405000   0.55642866   -8.4178184    716.59996  0.013556564  0.012198239            3 
 4406000   0.53367804   -8.3931607    716.40112  0.013549726   0.01219417            3 
 4407000   0.54375843   -8.4088731    714.85219  0.013517362  0.012190101            5 
 4408000   0.54896864   -8.4112728    716.23905  0.013540514  0.012186038            4 
 4409000   0.54724836     -8.40885    716.09691  0.013534757   0.01218197            2 
 4410000   0.55201125   -8.3989529    715.90814   0.01352812    0.0121779            2 
 4411000   0.55078855    -8.394834    715.34949    0.0135145  0.012173837            2 
 4412000   0.54540148   -8.4113595    715.55157  0.013515253  0.012169774            2 
 4413000   0.55100235   -8.4077684    717.30054  0.013545218  0.012165713            2 
 4414000   0.53016957   -8.3935193    715.39697  0.013506211  0.012161652            3 
 4415000   0.55563434   -8.4300305    716.48088   0.01352361  0.012157597            3 
 4416000   0.55424589   -8.4078488    715.23911  0.013497115  0.012153543            6 
 4417000   0.54794362   -8.3810752    715.46065  0.013498239  0.012149488            2 
 4418000   0.53840496     -8.40808    716.31734  0.013511343  0.012145435            2 
 4419000   0.53472278   -8.3881034    716.47107  0.013511184  0.012141382            2 
 4420000   0.54837403   -8.4096868    716.93501  0.013516874  0.012137333            4 
 4421000    0.5577037      -8.4266    715.68787  0.013490309  0.012133287            3 
 4422000   0.55294057    -8.410628     715.1736  0.013477567  0.012129241            3 
 4423000   0.53413227   -8.4039213    716.77245  0.013504643  0.012125195            2 
 4424000      0.54814   -8.4074465    715.62679   0.01348001  0.012121146            3 
 4425000   0.55449969   -8.4224551    715.83002  0.013480791    0.0121171            4 
 4426000   0.54739673   -8.4107964    714.80343  0.013458417  0.012113065            3 
 4427000   0.53955885   -8.4034342    715.34698  0.013465608  0.012109028            3 
 4428000   0.54821855   -8.4154538    716.65951  0.013487269  0.012104985            1 
 4429000    0.5433678    -8.392307    715.80004  0.013468052  0.012100946            2 
 4430000   0.55335471   -8.4016139     716.1862  0.013472276  0.012096911            3 
 4431000    0.5473292   -8.3970389    715.61495  0.013458492  0.012092881            2 
 4432000   0.53393976   -8.3987661    715.64536  0.013456027  0.012088849            2 
 4433000   0.53915883   -8.4064963    715.82381  0.013456346  0.012084824            3 
 4434000   0.53822329   -8.4074688    715.03127  0.013438417  0.012080797            3 
 4435000   0.54173932   -8.4074026    716.62578  0.013465347  0.012076773            2 
 4436000   0.55642207   -8.3989624    715.86572  0.013448034  0.012072751            7 
 4437000   0.53635261   -8.4171998    716.29474   0.01345306  0.012068728            2 
 4438000   0.54644535    -8.411216    717.00888  0.013463439  0.012064711            3 
 4439000   0.54175719   -8.4086321    715.71156  0.013436051  0.012060692            2 
 4440000   0.54129717   -8.4215497    715.57564  0.013430474  0.012056674            2 
 4441000    0.5448417    -8.413949    715.76446  0.013430993  0.012052655            1 
 4442000   0.54431178   -8.4120222    715.77557  0.013428177  0.012048638            2 
 4443000   0.54838525   -8.3842718    716.19635  0.013433047  0.012044625            2 
 4444000   0.54083243   -8.3980028    715.43874  0.013415818  0.012040614            2 
 4445000   0.52636111   -8.3982331    715.16993   0.01340776  0.012036604            2 
 4446000   0.55152534   -8.4136546    715.27076  0.013406634  0.012032595            4 
 4447000   0.53605453   -8.4100534    716.30513  0.013423003  0.012028588            4 
 4448000   0.53154418   -8.4373497    714.93946  0.013394399   0.01202458            4 
 4449000   0.54075618   -8.4352631     714.4709  0.013382612  0.012020573            2 
 4450000    0.5312471   -8.4089691    716.78171  0.013422879  0.012016564            4 
 4451000   0.55259989   -8.4119797    715.11665  0.013388689  0.012012558            2 
 4452000   0.54362767   -8.4227356    715.11061  0.013385568  0.012008557            3 
 4453000   0.54841493   -8.4247858    714.81663  0.013377061  0.012004555            3 
 4454000   0.52991695   -8.4112298    716.16087  0.013399208  0.012000562            2 
 4455000   0.53327979   -8.4353625    715.27398  0.013379611  0.011996568            5 
 4456000   0.52755066   -8.4100224    715.26085  0.013376362   0.01199257            3 
 4457000   0.54519327    -8.403264    715.83586  0.013384112  0.011988577            2 
 4458000   0.54243686   -8.4233423    714.97194  0.013364961  0.011984589            7 
 4459000   0.53115267   -8.4271303    715.44651  0.013370833  0.011980605            4 
 4460000   0.53813533    -8.428045    715.94421  0.013377134  0.011976615            3 
 4461000   0.53375932   -8.4211785    715.44775  0.013364861  0.011972631            5 
 4462000   0.54542273   -8.3992472    715.27281  0.013358599  0.011968646            4 
 4463000    0.5315099   -8.4167328    716.00609  0.013369297  0.011964663            2 
 4464000   0.53740473   -8.4154017    716.25894  0.013371023  0.011960684            1 
 4465000   0.53426018   -8.4078634    715.20395  0.013348338  0.011956701            2 
 4466000   0.52896212   -8.4045657    716.50225  0.013369575  0.011952723            2 
 4467000   0.54195525   -8.3988767    716.10725  0.013359213  0.011948749            2 
 4468000    0.5457917    -8.422956    715.63284  0.013347375  0.011944774            3 
 4469000   0.54827466   -8.4114478    716.58526  0.013362148  0.011940799            1 
 4470000   0.53293988   -8.4150608    716.35316  0.013354831   0.01193683            3 
 4471000    0.5513383   -8.4132681     715.6966  0.013339607  0.011932862            3 
 4472000   0.54141537   -8.4115421     715.3426  0.013330028  0.011928896            2 
 4473000   0.53508814   -8.4272376      715.152  0.013323497  0.011924933            3 
 4474000   0.53348503   -8.4045328     715.1774  0.013320992  0.011920967            2 
 4475000   0.53146422   -8.4100786    716.59182  0.013344354  0.011917005            3 
 4476000   0.54230103   -8.4049762    716.62525  0.013341995  0.011913045            1 
 4477000   0.54171786   -8.4085532    715.33272  0.013314956  0.011909088            2 
 4478000   0.52069547    -8.402722    716.28824  0.013329765  0.011905129            2 
 4479000   0.53641042   -8.4020172    716.87189  0.013337648  0.011901176            2 
 4480000   0.52465138   -8.4110143    716.51876  0.013328102  0.011897224            2 
 4481000   0.53899339   -8.4199128    714.53192  0.013288178  0.011893272            3 
 4482000   0.53272591   -8.4149434     714.4653  0.013283975  0.011889319            3 
 4483000   0.53884854   -8.4174043    717.35779  0.013334779  0.011885375            3 
 4484000   0.53174512   -8.4115589    714.98043  0.013287623  0.011881428            2 
 4485000   0.52974907   -8.4145688     716.4855  0.013312625  0.011877474            4 
 4486000   0.54132027   -8.4179868    715.34013  0.013288381  0.011873525            3 
 4487000    0.5409284   -8.4299142    715.00363   0.01327917  0.011869582            4 
 4488000   0.54353338   -8.4109243    715.56753  0.013286682  0.011865639            4 
 4489000    0.5339735   -8.4177767    713.86613  0.013252137  0.011861694            2 
 4490000   0.53139943    -8.424303    716.24299    0.0132933  0.011857756            3 
 4491000   0.53048836   -8.4083373    715.41151  0.013274911  0.011853817            2 
 4492000   0.52635402    -8.434313    714.40936  0.013253365  0.011849881            2 
 4493000   0.53732255   -8.4150898    714.67905  0.013255417  0.011845936            1 
 4494000   0.52738626   -8.4104537    714.78326    0.0132544  0.011841996            2 
 4495000   0.52855794   -8.4253186    714.33812  0.013243198  0.011838057            2 
 4496000   0.53318039   -8.4251872    715.11134  0.013254584  0.011834115            2 
 4497000   0.53929619   -8.4351684     716.4753  0.013276912  0.011830179            4 
 4498000   0.53593711   -8.4141037    715.20607  0.013250446  0.011826247            2 
 4499000   0.53194898   -8.4186473    714.76368  0.013239306  0.011822314            2 
 4500000   0.54334754   -8.4193924    715.38645  0.013247897  0.011818388            6 
 4501000   0.52776455   -8.4336953    714.29847  0.013224811   0.01181446            2 
 4502000   0.53476964   -8.4452942    714.64011  0.013228197  0.011810531            2 
 4503000   0.52244862   -8.4316256    715.55639  0.013242216  0.011806604            2 
 4504000   0.54021465   -8.4162108    715.22883  0.013233216  0.011802674            4 
 4505000    0.5249254   -8.4041536    714.09874  0.013209374  0.011798749            5 
 4506000   0.53086355   -8.4107596    715.33999  0.013229398  0.011794827            2 
 4507000   0.53374618   -8.4250547    714.69652  0.013214565  0.011790903            6 
 4508000   0.53351514   -8.4261188    714.21575  0.013202746  0.011786976            4 
 4509000   0.51870095   -8.4414204    714.65071  0.013207857  0.011783059            3 
 4510000    0.5237329   -8.4308175    715.16504  0.013214432  0.011779142            4 
 4511000   0.52569479   -8.4307327    714.75218  0.013203875  0.011775223            3 
 4512000    0.5401787   -8.4264824    714.94654  0.013204539  0.011771304            2 
 4513000   0.54310337   -8.4359256    715.07867  0.013204053  0.011767393            4 
 4514000   0.52916076   -8.4188621     715.9584  0.013217368  0.011763485            2 
 4515000    0.5207847   -8.4295511    715.69277  0.013209538  0.011759579            3 
 4516000   0.52255534   -8.4469986    714.96147  0.013193118  0.011755672            3 
 4517000   0.52937107    -8.430393    715.22496  0.013195059  0.011751759            2 
 4518000   0.53782198   -8.4400913    714.92234  0.013186556  0.011747852            2 
 4519000   0.53103464   -8.4256115    714.42395  0.013174448  0.011743947            2 
 4520000   0.53339932    -8.435813    715.27125  0.013187154  0.011740039            5 
 4521000   0.52530939   -8.4430252    714.60417  0.013171941   0.01173614            2 
 4522000   0.52316873   -8.4504205     714.0769  0.013159312  0.011732236            2 
 4523000    0.5314989   -8.4353732    714.59554  0.013165958  0.011728336            1 
 4524000   0.52905145   -8.4292326    715.09765  0.013172297  0.011724437            4 
 4525000   0.53519962   -8.4270392    714.56927  0.013159655  0.011720541            2 
 4526000   0.52521527   -8.4211855    713.85863  0.013143663  0.011716648            3 
 4527000   0.53030466   -8.4398775    714.88059  0.013159572  0.011712756            3 
 4528000   0.50986161   -8.4384394    715.24641  0.013163398  0.011708865            3 
 4529000   0.53273479   -8.4341985    715.61807   0.01316733  0.011704979            2 
 4530000   0.53291672   -8.4303825    714.38066   0.01314166  0.011701094            3 
 4531000   0.52091717   -8.4266953    713.68576   0.01312598  0.011697207            2 
 4532000   0.52571266   -8.4050025    715.28922  0.013152567  0.011693324            3 
 4533000    0.5218357   -8.4263482    715.49914  0.013153525  0.011689441            2 
 4534000   0.53490899   -8.4451333    714.46004  0.013131526  0.011685561            2 
 4535000   0.53270399   -8.4382704    714.17897  0.013123465  0.011681681            3 
 4536000   0.52026113   -8.4454686    713.69583  0.013111696  0.011677801            4 
 4537000    0.5229542   -8.4471261    714.92136  0.013131316  0.011673923            6 
 4538000   0.53232072   -8.4439651    714.75291  0.013125329  0.011670043            2 
 4539000   0.53568353   -8.4473992      714.978   0.01312657  0.011666165            3 
 4540000   0.53264279   -8.4501301    713.86476  0.013103245   0.01166229            1 
 4541000   0.52656441   -8.4465496    714.30445  0.013108428  0.011658423            5 
 4542000   0.52379081   -8.4483784    715.06931  0.013119575  0.011654554            4 
 4543000   0.52680202   -8.4422816    713.60516   0.01308983  0.011650682            4 
 4544000   0.53240594   -8.4384994    715.91658  0.013129339  0.011646817            3 
 4545000   0.53841813    -8.438905    715.51404  0.013119069  0.011642956            4 
 4546000   0.52709474   -8.4395011    714.38778  0.013095538  0.011639091            3 
 4547000   0.51599224   -8.4534565    714.97954  0.013103503  0.011635232            3 
 4548000   0.53780504   -8.4495629    714.11865  0.013084848  0.011631374            4 
 4549000    0.5213365   -8.4324112     715.8791  0.013114221  0.011627518            2 
 4550000   0.52667493   -8.4330962    714.59675  0.013087853  0.011623664            1 
 4551000   0.52202248   -8.4543317    713.72698   0.01306905   0.01161981            4 
 4552000   0.53069945   -8.4457291    714.21729  0.013075155  0.011615954            2 
 4553000    0.5170589   -8.4427772    713.41551  0.013057609  0.011612101            1 
 4554000   0.52753798   -8.4371103    713.98077  0.013065085  0.011608248            2 
 4555000   0.51697249   -8.4398614    714.72973  0.013075919  0.011604398            5 
 4556000   0.51509522   -8.4419174    714.55135  0.013069786  0.011600547            1 
 4557000   0.53219961   -8.4551598    714.39093  0.013063984  0.011596703            2 
 4558000    0.5188117   -8.4541651    714.21478  0.013057898  0.011592856            3 
 4559000   0.52273128   -8.4529017    714.15183  0.013053883  0.011589012            2 
 4560000   0.51803188   -8.4397248    714.94706  0.013065553  0.011585167            3 
 4561000   0.53015972   -8.4403643    713.69022  0.013039725  0.011581327            3 
 4562000   0.51547632   -8.4378024    713.61572  0.013035506  0.011577486            2 
 4563000   0.52598251   -8.4390015    715.04887  0.013058822  0.011573647            4 
 4564000   0.51800372   -8.4523244     714.7349  0.013050228   0.01156981            2 
 4565000   0.52679426   -8.4602506     713.9991  0.013033938  0.011565971            3 
 4566000   0.51374501    -8.435747    714.71669   0.01304418  0.011562135            2 
 4567000   0.51920968   -8.4578319    713.86139  0.013025717  0.011558299            7 
 4568000   0.51724579   -8.4413269    714.90259   0.01304186  0.011554466            2 
 4569000   0.52644942    -8.452146    715.08455  0.013042324  0.011550635            2 
 4570000   0.51723076   -8.4657166    714.38046  0.013026631  0.011546808            4 
 4571000   0.51806759   -8.4405286    714.48421  0.013025673  0.011542981            2 
 4572000   0.51881767   -8.4512404    713.69921  0.013008516  0.011539155            3 
 4573000   0.51409895   -8.4372908     714.1823  0.013014474  0.011535332            3 
 4574000   0.54249364   -8.4510725    714.73736  0.013021742  0.011531511            3 
 4575000   0.51888649   -8.4412239    714.68195  0.013017886  0.011527694            3 
 4576000   0.52337381   -8.4665576    714.07474  0.013003983  0.011523875            3 
 4577000   0.51749036   -8.4633128    714.28285  0.013004931  0.011520057            3 
 4578000   0.51529017   -8.4529705    714.91788   0.01301365  0.011516241            4 
 4579000   0.52465067   -8.4500676    714.66754  0.013006252  0.011512433            3 
 4580000   0.51648046   -8.4459281    713.65199  0.012984934  0.011508622            2 
 4581000    0.5131474   -8.4539805    714.00307  0.012988486  0.011504812            2 
 4582000   0.50876965   -8.4438095    714.96057  0.013003066  0.011501004            3 
 4583000   0.51918698    -8.444147    713.79426  0.012979021  0.011497197            5 
 4584000   0.51448192   -8.4646057    713.99282    0.0129798  0.011493392            3 
 4585000   0.51795188   -8.4527204    714.69111   0.01298966  0.011489586            1 
 4586000    0.5146314   -8.4621621    714.70809  0.012987136  0.011485789            2 
 4587000   0.52920237   -8.4498687    714.86332  0.012987125  0.011481992            4 
 4588000   0.51251962   -8.4474886     714.0429  0.012969393  0.011478197            2 
 4589000    0.5171861   -8.4472525    714.51852  0.012975204  0.011474398            2 
 4590000   0.52395601   -8.4540986     713.3089  0.012950416  0.011470603            3 
 4591000   0.52124326   -8.4437092    713.92927  0.012958855  0.011466809            3 
 4592000   0.51267263   -8.4622682    713.74157  0.012952627  0.011463017            2 
 4593000   0.52713788    -8.463415    715.13923  0.012975166  0.011459221            2 
 4594000    0.5155015   -8.4615936    713.64964  0.012945321  0.011455429            2 
 4595000    0.5276884   -8.4581526    714.64121  0.012960486  0.011451637            2 
 4596000   0.51262979   -8.4742595    713.45066  0.012936079  0.011447852            1 
 4597000   0.51467273   -8.4655041    713.91085  0.012941608  0.011444066            4 
 4598000   0.51827442   -8.4691988    714.16849  0.012943463   0.01144028            3 
 4599000   0.50001081    -8.451506    715.62413  0.012967024  0.011436498            6 
 4600000   0.52146502   -8.4585359    714.00237  0.012934826  0.011432715            4 
 4601000   0.51230147   -8.4505772    713.38697  0.012920868  0.011428937            4 
 4602000   0.51209603    -8.458283    714.86973   0.01294491   0.01142516            3 
 4603000   0.50703431   -8.4477856    714.24525  0.012930792  0.011421381            4 
 4604000   0.51450537   -8.4417128    715.90551  0.012958035  0.011417612            3 
 4605000   0.50742828   -8.4598665    715.19399  0.012942345  0.011413838            4 
 4606000   0.51412742   -8.4491706    714.70193  0.012930633  0.011410066            3 
 4607000   0.51674363   -8.4671286    713.15963  0.012899928  0.011406296            3 
 4608000   0.51847935   -8.4631421    713.29516   0.01289958  0.011402525            3 
 4609000   0.50666604   -8.4577747    713.38178  0.012898347  0.011398758            2 
 4610000   0.50362539    -8.455798    713.66122    0.0129006  0.011394991            4 
 4611000   0.50677072   -8.4576164    713.61873  0.012897035  0.011391231            1 
 4612000   0.51131033   -8.4664573    714.06526  0.012902307  0.011387472            2 
 4613000   0.51918442   -8.4679153    713.39948  0.012887482  0.011383709            2 
 4614000   0.51491704   -8.4567885     713.6912  0.012889958  0.011379952            2 
 4615000   0.50875336   -8.4677015    713.65123  0.012886443  0.011376191            3 
 4616000   0.51273379   -8.4406858     714.8945  0.012906097  0.011372433            5 
 4617000   0.51009855   -8.4554591    713.75459  0.012882727  0.011368678            3 
 4618000   0.51208519   -8.4674555    714.68953  0.012896808  0.011364924            3 
 4619000   0.50879458    -8.451518    713.97901  0.012881197  0.011361173            2 
 4620000   0.50868088   -8.4570022    713.86616  0.012876374  0.011357419            1 
 4621000   0.50477322   -8.4557326    713.66799  0.012870014  0.011353667            2 
 4622000   0.50480132   -8.4558546     714.6637  0.012885181  0.011349916            2 
 4623000   0.50748009   -8.4545867    713.65617  0.012864233  0.011346169            2 
 4624000   0.51879406   -8.4560057    712.61742   0.01284273  0.011342425            3 
 4625000    0.5169862   -8.4559074    713.39392  0.012853945  0.011338677            5 
 4626000    0.5131379   -8.4707812    714.05359  0.012863049  0.011334937            3 
 4627000   0.52334225   -8.4587227    713.08262  0.012842782  0.011331194            3 
 4628000   0.52569719   -8.4811276    713.50323  0.012847581  0.011327451            3 
 4629000   0.50386141   -8.4599613    713.85012   0.01285105  0.011323714            2 
 4630000   0.52378508   -8.4473746    714.57462  0.012861314  0.011319975            2 
 4631000     0.510205   -8.4637882    713.77946  0.012844228   0.01131624            1 
 4632000   0.50004093   -8.4547424    714.61508  0.012856489  0.011312502            3 
 4633000    0.5189709   -8.4647806     712.6255  0.012817928  0.011308763            3 
 4634000   0.51773308     -8.46415    713.92705  0.012838567   0.01130503            2 
 4635000   0.51756417   -8.4549856    712.78011  0.012815176  0.011301298            3 
 4636000   0.49807281   -8.4731877    713.17698  0.012819546  0.011297565            3 
 4637000   0.51292502   -8.4698257    713.02986  0.012814137  0.011293831            2 
 4638000    0.5087771   -8.4705841    711.87766  0.012790672  0.011290102            2 
 4639000   0.50766951    -8.472705    713.26663  0.012812866  0.011286378            2 
 4640000   0.50359468    -8.463666    713.34038  0.012811429  0.011282653            5 
 4641000   0.50555745   -8.4818024    713.64195  0.012814084  0.011278931            3 
 4642000   0.51116199   -8.4685623    714.64772  0.012829379  0.011275212            3 
 4643000   0.51136666   -8.4631808    713.57584  0.012807377  0.011271494            5 
 4644000   0.50734918    -8.458447     713.7818  0.012808315  0.011267776            4 
 4645000   0.50491024   -8.4634112    713.24195  0.012795873  0.011264056            3 
 4646000   0.50866589     -8.46428    714.29102  0.012811935  0.011260337            2 
 4647000   0.49309783   -8.4608324    714.20105  0.012807565  0.011256616            5 
 4648000   0.51175083   -8.4746985    713.75548  0.012796821  0.011252904            2 
 4649000    0.5108936   -8.4793103     712.5322  0.012772141  0.011249189            4 
 4650000   0.51056379   -8.4630703    713.42059  0.012785315  0.011245478            4 
 4651000   0.49973032   -8.4772713     714.3218  0.012798713  0.011241772            3 
 4652000   0.50735384    -8.465604    713.79453  0.012786517  0.011238064            4 
 4653000   0.50521449   -8.4651864     714.0483  0.012788314  0.011234358            2 
 4654000   0.51137048   -8.4688407    714.46589  0.012793044  0.011230654            3 
 4655000   0.50975926   -8.4553303    714.46529  0.012790284  0.011226948            3 
 4656000   0.51304814   -8.4702732    712.22997  0.012747529  0.011223246            4 
 4657000   0.51164612   -8.4677055    714.34061   0.01278256  0.011219545            3 
 4658000   0.50892836   -8.4792106    713.53936  0.012765482  0.011215844            2 
 4659000   0.50978753   -8.4676071    715.14369  0.012791438  0.011212151            3 
 4660000    0.5203831    -8.474759    714.66118  0.012780064  0.011208454            3 
 4661000   0.50137476   -8.4735254    713.70764  0.012760274  0.011204761            3 
 4662000    0.5077699   -8.4702421    713.43189  0.012752608  0.011201068            3 
 4663000   0.50781005   -8.4638645    713.20133  0.012745752  0.011197378            2 
 4664000   0.50682713   -8.4553305    713.73693  0.012752589  0.011193687            3 
 4665000   0.49485061   -8.4686469     712.3597  0.012725254  0.011190001            1 
 4666000   0.50026021   -8.4764829    713.31016  0.012739501  0.011186313            5 
 4667000   0.49893077   -8.4882323    713.04423  0.012732023  0.011182628            3 
 4668000   0.51615758   -8.4867805    712.92232  0.012727119  0.011178947            2 
 4669000   0.50081243   -8.4759331    714.47965  0.012752189  0.011175263            3 
 4670000   0.49841604   -8.4783803    712.85322  0.012720436  0.011171581            5 
 4671000   0.51427626   -8.4720863    713.09889  0.012722095  0.011167901            2 
 4672000   0.49287127   -8.4855061    713.44803    0.0127256  0.011164219            2 
 4673000   0.51272036   -8.4570894    713.83616  0.012729798  0.011160544            5 
 4674000   0.50780777   -8.4719959    713.91648  0.012728507  0.011156876            3 
 4675000   0.50348004   -8.4798422    714.09423  0.012728952  0.011153205            2 
 4676000   0.50897149   -8.4641187    712.95819  0.012705984  0.011149533            2 
 4677000   0.49541158   -8.4698015    713.01128  0.012704213   0.01114586            4 
 4678000   0.50799373   -8.4812476    712.78295   0.01269743   0.01114219            3 
 4679000   0.49583642    -8.483187    714.27766  0.012721338  0.011138522            2 
 4680000   0.48807283   -8.4763817    714.80077  0.012727934   0.01113486            2 
 4681000   0.51338235   -8.4662395    713.88418  0.012708897  0.011131201            4 
 4682000   0.50656438    -8.479659    713.93749  0.012707132  0.011127542            2 
 4683000   0.50663803   -8.4879186    713.92705  0.012704233  0.011123884            1 
 4684000   0.50977093   -8.4728705    713.05886  0.012686074  0.011120223            4 
 4685000   0.50912506   -8.4672251    713.39662  0.012689374  0.011116565            3 
 4686000   0.50204096   -8.4674901    713.98637  0.012697154  0.011112909            5 
 4687000   0.50685207   -8.4693516     713.3079  0.012682382  0.011109254            3 
 4688000   0.49441778   -8.4546996    713.14716  0.012676819  0.011105601            3 
 4689000   0.50179166   -8.4742767    712.92213  0.012670117  0.011101949            3 
 4690000   0.51268922   -8.4638483    712.53908  0.012660609  0.011098302            5 
 4691000   0.50368589   -8.4610389    713.95718  0.012683102  0.011094655            2 
 4692000   0.50014604   -8.4745501    714.24031  0.012685427  0.011091005            3 
 4693000     0.497661   -8.4905629    712.96293  0.012660042  0.011087359            1 
 4694000   0.49823547   -8.4604219    712.61726  0.012651208  0.011083711            3 
 4695000   0.50073526    -8.488378    712.79013  0.012651582  0.011080064            4 
 4696000   0.49957528   -8.4790744      712.363  0.012641308   0.01107642            5 
 4697000   0.50807089    -8.492045    712.56649  0.012642227  0.011072777            4 
 4698000   0.48858836   -8.4756763     712.6216  0.012640514  0.011069136            2 
 4699000   0.49901465   -8.4887548    713.42293  0.012652035    0.0110655            3 
 4700000   0.49482471   -8.4951827    712.15243  0.012626816  0.011061864            3 
 4701000   0.50517427   -8.4539502    714.12981  0.012659183  0.011058232            4 
 4702000   0.49719273   -8.4683082    712.74366  0.012631924  0.011054599            3 
 4703000   0.49837101    -8.486269    713.86726  0.012649147  0.011050969            4 
 4704000   0.49423361    -8.485944    713.89543  0.012646957  0.011047341            6 
 4705000   0.51116889   -8.4815723    712.97397  0.012627948   0.01104371            2 
 4706000   0.50434926   -8.4830927    713.94973  0.012642544  0.011040087            3 
 4707000   0.50701242   -8.4794441    712.40017  0.012612424  0.011036459            2 
 4708000   0.49967114   -8.4868537    713.54387  0.012629989  0.011032831            7 
 4709000   0.49602371   -8.4745152    712.75239  0.012613301  0.011029204            2 
 4710000   0.50070214   -8.4639025    712.67264  0.012609212  0.011025581            3 
 4711000   0.50490986   -8.4897666    713.52867  0.012621677  0.011021958            3 
 4712000   0.51381813   -8.4766479    711.31965  0.012579932  0.011018334            2 
 4713000   0.50142757   -8.4859054      713.525  0.012616257  0.011014713            3 
 4714000   0.48663808   -8.5091957    713.10694   0.01260619  0.011011094            2 
 4715000   0.50193975    -8.504409    713.36762  0.012608123  0.011007478            3 
 4716000   0.49614953   -8.4788853    713.03086  0.012599499  0.011003861            2 
 4717000   0.49177452   -8.4872145    711.89951  0.012576841  0.011000246            3 
 4718000   0.49413034   -8.4843289    712.37297  0.012582538  0.010996634            3 
 4719000   0.50016193   -8.4916784    712.46022  0.012581412  0.010993023            4 
 4720000    0.4900979   -8.4883007    713.14378  0.012590815  0.010989415            3 
 4721000   0.50259034   -8.4791078    712.95488  0.012584814  0.010985805            3 
 4722000   0.49389418   -8.4693422    713.65393  0.012594486    0.0109822            3 
 4723000   0.49468843   -8.5025862    714.21357  0.012601693  0.010978596            2 
 4724000   0.50790034   -8.4947078    713.19196  0.012581004   0.01097499            5 
 4725000   0.49598379   -8.5093813    713.14598   0.01257753  0.010971386            4 
 4726000   0.49156126   -8.4914842    713.12927  0.012574575  0.010967786            4 
 4727000   0.49419878    -8.496219     713.5042  0.012578524   0.01096419            4 
 4728000   0.50315548   -8.4891542    713.19075  0.012570339  0.010960592            3 
 4729000   0.50059723   -8.4998373    713.43332  0.012571955  0.010956992            2 
 4730000   0.49664532   -8.4938509    713.42808  0.012569205  0.010953397            3 
 4731000   0.49740928   -8.4733358    712.94765  0.012558086  0.010949801            2 
 4732000   0.48630606   -8.4975667    712.34486  0.012544817   0.01094621            2 
 4733000     0.494614   -8.4963814    712.76473  0.012549559   0.01094262            2 
 4734000   0.48882482   -8.4825987    713.48496  0.012559586  0.010939032            4 
 4735000   0.50397989   -8.4806598    713.45689   0.01255644  0.010935446            2 
 4736000   0.47456319   -8.4983489    711.78875  0.012524436  0.010931861            5 
 4737000   0.49218646   -8.4884314    713.46628  0.012551303  0.010928275            2 
 4738000   0.49725159   -8.5199635    712.70444  0.012535255  0.010924692            4 
 4739000   0.49039198   -8.5171969    712.95837  0.012537075  0.010921109            2 
 4740000   0.49134012   -8.5120361    713.59775  0.012545671   0.01091753            4 
 4741000   0.49074738    -8.481662    712.91321  0.012530992  0.010913947            3 
 4742000   0.49746772   -8.4674319    712.68343  0.012524312  0.010910369            4 
 4743000   0.49634712   -8.4931623    712.55044  0.012519334  0.010906796            8 
 4744000   0.48084614   -8.4767741    712.14864  0.012509637  0.010903216            3 
 4745000   0.48522437   -8.4803945    713.98502  0.012539252  0.010899642            2 
 4746000   0.49547482    -8.478446    712.27088  0.012506512  0.010896069            3 
 4747000   0.50007133   -8.5035131    712.48117  0.012507569  0.010892496            7 
 4748000   0.48185098   -8.4938623    713.11973  0.012516142  0.010888926            2 
 4749000   0.48878496   -8.5021386    713.15332  0.012514096  0.010885358            2 
 4750000   0.49479961   -8.5046341    712.70087  0.012503524  0.010881794            3 
 4751000   0.48503567   -8.4889698    712.15388  0.012491298  0.010878227            2 
 4752000    0.4958765   -8.4817931     712.3703  0.012492465  0.010874661            2 
 4753000    0.4782382   -8.4895391    712.60557  0.012493961  0.010871093            4 
 4754000   0.48951297   -8.4819664    712.85495  0.012495705  0.010867533            3 
 4755000   0.48348677   -8.4933627    712.66954  0.012489827  0.010863974            2 
 4756000    0.4904426   -8.5126262    713.23114  0.012497041  0.010860414            2 
 4757000    0.4863304   -8.4959018    713.71655  0.012502918  0.010856854            5 
 4758000   0.48945953   -8.4983552    712.26461   0.01247486    0.0108533            5 
 4759000   0.47744275   -8.4915619    711.47644  0.012458437  0.010849746            4 
 4760000   0.49372793    -8.496636    713.42409  0.012489918  0.010846192            3 
 4761000   0.48798002   -8.4954387    712.35894   0.01246865  0.010842638            3 
 4762000   0.50040575   -8.5074251    711.86873  0.012457454  0.010839087            5 
 4763000   0.48464898   -8.4920093    712.53988  0.012466581  0.010835538            3 
 4764000   0.49501477   -8.4761196    713.53413  0.012481356  0.010831993            2 
 4765000   0.48853065   -8.5086443    712.02922  0.012452417  0.010828446            3 
 4766000   0.49046754   -8.5058126    711.28919  0.012436865  0.010824901            5 
 4767000   0.49446103   -8.5065271    712.69463  0.012458825  0.010821356            4 
 4768000   0.48783022   -8.4888629    713.15269  0.012464218  0.010817816            3 
 4769000   0.49100089   -8.4899786    712.55872  0.012451225  0.010814277            4 
 4770000   0.48574793   -8.5081896     713.5175  0.012465365  0.010810737            2 
 4771000   0.50050959   -8.5106757    712.56839  0.012446175    0.0108072            2 
 4772000   0.48835409   -8.4978863    712.23335  0.012437716  0.010803665            3 
 4773000   0.49485637    -8.506676    711.99192  0.012430895  0.010800129            3 
 4774000   0.48528714   -8.5153496    711.76292  0.012424293  0.010796597            3 
 4775000   0.48454383   -8.5101727    713.36476  0.012449647  0.010793064            3 
 4776000   0.48700051   -8.4715851    711.97022  0.012422708  0.010789536            3 
 4777000   0.48384775   -8.4945589    711.95519  0.012419845  0.010786008            5 
 4778000   0.48338743   -8.5040738    713.54091  0.012444902  0.010782481            5 
 4779000   0.48909771   -8.5153165    713.32402  0.012438516  0.010778957            4 
 4780000   0.48849267   -8.5108454     712.4978   0.01242151  0.010775436            3 
 4781000    0.4984864    -8.508059    712.62695  0.012421163  0.010771914            2 
 4782000   0.48714407    -8.495136    712.23316  0.012411703  0.010768393            5 
 4783000   0.48893929   -8.4935083    713.35963  0.012428734  0.010764874            3 
 4784000   0.47995787   -8.5040326    711.90576  0.012400811  0.010761358            5 
 4785000   0.49173539   -8.5036025    713.14501  0.012419802  0.010757845            2 
 4786000   0.48006948    -8.521265    712.64131  0.012408436  0.010754327            3 
 4787000   0.48629489   -8.5089756     711.9145  0.012393192  0.010750815            3 
 4788000   0.48970941   -8.4905619    713.12617  0.012411692  0.010747305            2 
 4789000   0.48213053   -8.5091948    712.28187  0.012394409  0.010743795            3 
 4790000   0.48997856   -8.5026185    711.61264  0.012380178  0.010740284            3 
 4791000   0.48146511    -8.496334    711.94996  0.012383461  0.010736777            7 
 4792000   0.47876267   -8.5026529    713.94423  0.012415558  0.010733273            2 
 4793000   0.48507205   -8.4924568    712.07288  0.012380431  0.010729771            3 
 4794000   0.48685714   -8.5110451    712.69783  0.012388712  0.010726266            4 
 4795000   0.47646269   -8.5007823    711.82225  0.012370911  0.010722765            2 
 4796000   0.48656775   -8.5187747    712.77944  0.012384964  0.010719268            3 
 4797000   0.48271068   -8.5054508    711.86579   0.01236651  0.010715768            3 
 4798000   0.47480564   -8.5041234    712.65327   0.01237761  0.010712273            3 
 4799000   0.47215056   -8.5176345    712.72995  0.012376362  0.010708776            3 
 4800000   0.48345081   -8.5239355    712.15062  0.012363726   0.01070528            5 
 4801000   0.48503122   -8.4987527    711.70238   0.01235337  0.010701787            4 
 4802000   0.49409843   -8.5068712     711.2818  0.012343499  0.010698295            2 
 4803000   0.48002933   -8.5040257    712.56625  0.012363215  0.010694806            3 
 4804000    0.4912088   -8.4972616    712.06008  0.012351861  0.010691315            2 
 4805000   0.48477723   -8.5302842    712.04441  0.012349019  0.010687825            4 
 4806000   0.49193345   -8.5010997    712.59706  0.012356032  0.010684339            6 
 4807000   0.48316945   -8.5006586    712.55788  0.012352782  0.010680854            5 
 4808000   0.49206713     -8.50856    712.43492  0.012348082  0.010677373            3 
 4809000    0.4929293   -8.5033503    711.93081  0.012336778   0.01067389            2 
 4810000   0.48791291   -8.4965893    712.02879  0.012335911  0.010670408            3 
 4811000   0.47814309   -8.5142462    711.85846  0.012330397  0.010666929            3 
 4812000   0.48185403   -8.5005414    712.14404   0.01233278   0.01066345            4 
 4813000   0.47200935    -8.514229    713.32077  0.012350592  0.010659977            3 
 4814000   0.48549342   -8.5124821    711.83955  0.012322385  0.010656502            3 
 4815000   0.48257099   -8.5029085    712.80495  0.012336534  0.010653027            4 
 4816000   0.48393625   -8.5014181    711.91145  0.012318512  0.010649553            3 
 4817000   0.48820908   -8.5117946     712.1411  0.012319928  0.010646077            4 
 4818000   0.48217146    -8.517389    712.98628  0.012331989  0.010642609            2 
 4819000   0.48264888    -8.520725    711.81373  0.012309154  0.010639136            2 
 4820000   0.48630736   -8.5088402    712.10176   0.01231158  0.010635667            3 
 4821000   0.47104575   -8.5142358     710.3257  0.012278326  0.010632198            5 
 4822000    0.4933922   -8.5153526    711.97479  0.012304279  0.010628731            3 
 4823000   0.47399381   -8.5056754    712.67554  0.012313835  0.010625267            3 
 4824000   0.47892246   -8.5009879    712.37628  0.012306113  0.010621804            5 
 4825000   0.48509168    -8.510799     711.7491  0.012292731  0.010618343            4 
 4826000   0.47201867   -8.5087935    711.99688  0.012294462  0.010614882            2 
 4827000   0.47366308   -8.5093045    711.27832   0.01227951  0.010611425            3 
 4828000   0.47817053   -8.5002345    711.86891   0.01228716  0.010607965            3 
 4829000   0.48410485   -8.5054113    712.52006  0.012295852  0.010604513            3 
 4830000   0.48931557   -8.5109038    712.72571  0.012296855  0.010601057            3 
 4831000   0.48225489   -8.5154521    712.70582  0.012293966  0.010597605            2 
 4832000   0.47058714   -8.4987238    710.74234   0.01225756  0.010594156            4 
 4833000   0.46975782   -8.5003126    712.24184  0.012280879  0.010590704            3 
 4834000   0.47120684   -8.5189752    712.62539   0.01228495  0.010587257            3 
 4835000   0.47863854   -8.5065348    711.83072  0.012268713   0.01058381            8 
 4836000   0.47068334   -8.5122861    712.03034  0.012269616  0.010580362            7 
 4837000   0.47666031   -8.5270354    711.58537  0.012259413  0.010576919            7 
 4838000   0.48154468   -8.5050096    711.66313  0.012258218  0.010573475            5 
 4839000   0.48522226   -8.5073147    711.84117  0.012258751  0.010570036            2 
 4840000   0.47590294   -8.5222022    712.15829  0.012261679  0.010566596            4 
 4841000   0.47766695    -8.517982    711.03451  0.012239801  0.010563157            5 
 4842000   0.48708975   -8.5104645    712.18195  0.012257021  0.010559719            5 
 4843000   0.46865672    -8.500157    712.51157  0.012260162  0.010556279            4 
 4844000   0.47608527   -8.5161983    712.74608  0.012261665  0.010552846            5 
 4845000   0.47465289   -8.5250574    712.37351  0.012252726  0.010549408            7 
 4846000   0.48034671   -8.5243326    712.25425  0.012248147  0.010545975            7 
 4847000   0.47008157   -8.5287274     711.9117  0.012239731  0.010542542            5 
 4848000   0.47660787   -8.5099914    712.11248  0.012240657  0.010539111            2 
 4849000    0.4929571    -8.521254    712.43249  0.012243633  0.010535681            4 
 4850000    0.4699614    -8.498453    711.97498  0.012233247  0.010532252            5 
 4851000   0.48089557    -8.532204     712.0963  0.012232809  0.010528821            4 
 4852000   0.48238761   -8.5253511    711.54441  0.012220809  0.010525394            4 
 4853000   0.49129131   -8.5077589     712.0957  0.012227758  0.010521969           11 
 4854000   0.47767124   -8.5170877    711.71494  0.012218702  0.010518544           10 
 4855000   0.48718926   -8.5207982    711.09121  0.012205479  0.010515124            6 
 4856000   0.48329107   -8.5099754    712.89116  0.012233854  0.010511706            7 
 4857000   0.47253771   -8.5226681    711.79023  0.012212446  0.010508287            3 
 4858000   0.48227531   -8.5247638    712.14031  0.012215938   0.01050487            7 
 4859000      0.47725   -8.5205046      711.032  0.012194416  0.010501454            6 
 4860000   0.46408689   -8.5082243    711.16851  0.012194247  0.010498039            3 
 4861000   0.46056354    -8.510029    710.87388  0.012186688  0.010494626            7 
 4862000   0.46809816   -8.5093483    711.62963  0.012197135  0.010491214            5 
 4863000   0.47360057   -8.5104222     712.6843    0.0122127  0.010487804            6 
 4864000   0.47096347   -8.5259072    711.54677    0.0121907  0.010484396           11 
 4865000   0.47363702   -8.5206771    711.05289  0.012179734  0.010480987           10 
 4866000   0.47559289   -8.5091299    713.12305  0.012212684  0.010477581            9 
 4867000   0.47293831    -8.524896    711.63129  0.012184633  0.010474176            8 
 4868000   0.47653895   -8.5335421    711.77931  0.012184664  0.010470771            6 
 4869000    0.4775661   -8.5235752    711.40901  0.012175823  0.010467369            4 
 4870000   0.47579788   -8.5281591    711.08052  0.012167702  0.010463966            3 
 4871000   0.48245348   -8.5244485    711.49317  0.012172264  0.010460564            9 
 4872000   0.47120327    -8.519543    710.78164  0.012157595  0.010457163            6 
 4873000    0.4697019   -8.5067103    711.20385   0.01216232  0.010453765            8 
 4874000   0.48070394   -8.5218894    711.34269  0.012162199  0.010450369            3 
 4875000   0.46848878   -8.5314315    711.98004  0.012170599  0.010446974            8 
 4876000    0.4679201   -8.5198618    711.81726  0.012165321  0.010443581            6 
 4877000   0.46755952    -8.508651    712.08919  0.012167473  0.010440192            6 
 4878000    0.4649142   -8.5224156     711.2201  0.012150131  0.010436801            4 
 4879000   0.46989141   -8.5170827    712.53208   0.01217005  0.010433411            3 
 4880000   0.46977107    -8.517076    711.82517  0.012155484  0.010430025            4 
 4881000   0.47187466   -8.5350074    712.24201  0.012160111  0.010426637            3 
 4882000   0.46765352    -8.520666     711.0805  0.012137794  0.010423249            4 
 4883000   0.46350236   -8.5479523    710.52661  0.012125855   0.01041986            5 
 4884000   0.46748709   -8.5242325    710.92458  0.012130163  0.010416477            2 
 4885000   0.47206525   -8.5233345    710.94511   0.01212803  0.010413096            4 
 4886000   0.48282958   -8.5220214    711.88699  0.012141612  0.010409713            7 
 4887000   0.46870025   -8.5286702    711.86151  0.012138693  0.010406335            5 
 4888000   0.46349215   -8.5241359    710.81709  0.012118404  0.010402956            4 
 4889000   0.46147971   -8.5325566    712.06198  0.012137144  0.010399576            3 
 4890000   0.47837654   -8.5245034     710.7236  0.012111854  0.010396204            3 
 4891000   0.46651029    -8.533103    711.99282  0.012131003  0.010392831            3 
 4892000   0.46218192   -8.5457194    711.50771  0.012120259  0.010389461            4 
 4893000   0.46384761   -8.5137957    711.30108  0.012114263  0.010386093            2 
 4894000   0.47644884    -8.534198    712.01251  0.012123902  0.010382723            3 
 4895000   0.47721936   -8.5355635    711.71135  0.012116298  0.010379358            3 
 4896000   0.46684899   -8.5361661    711.90468  0.012117114  0.010375996            6 
 4897000   0.47839462   -8.5193702     713.1695  0.012136163  0.010372633            5 
 4898000   0.46614998    -8.525805    711.90093  0.012112102  0.010369272            2 
 4899000   0.45770622   -8.5304623    712.14478  0.012113778  0.010365914            6 
 4900000   0.46908046   -8.5314318     711.3957  0.012098566  0.010362554            3 
 4901000   0.46386549   -8.5073311    712.12305  0.012108465  0.010359194            6 
 4902000   0.46855435   -8.5268766    710.32699  0.012075462  0.010355838            3 
 4903000   0.47030441   -8.5215333    711.66671   0.01209577  0.010352481            2 
 4904000    0.4756423   -8.5396222    711.54526   0.01209124  0.010349125            2 
 4905000   0.47550455   -8.5237636    711.45457  0.012087234  0.010345771            4 
 4906000   0.46738015   -8.5288117    711.56831  0.012086702  0.010342417            3 
 4907000   0.46719181   -8.5242944    711.23049  0.012078502  0.010339069            3 
 4908000    0.4763757   -8.5397323    710.13986  0.012057523  0.010335718            3 
 4909000   0.45652142   -8.5410899    712.06373  0.012087725   0.01033237            4 
 4910000   0.45826981   -8.5313421    712.39681  0.012090917  0.010329023            5 
 4911000   0.46232693   -8.5216481    711.74794  0.012077444  0.010325677            2 
 4912000   0.45111405   -8.5298368     711.1025  0.012064035  0.010322333            3 
 4913000   0.45509025   -8.5273698    711.61758  0.012070316   0.01031899            3 
 4914000   0.46612389   -8.5400487    711.33538  0.012063075  0.010315647            3 
 4915000   0.46158976   -8.5235086     710.5943  0.012048055  0.010312306            3 
 4916000   0.46594956    -8.531595    711.99605  0.012069366  0.010308966            4 
 4917000   0.46967251   -8.5378564    712.61553   0.01207741  0.010305627            3 
 4918000   0.46100156   -8.5261667    710.32299  0.012036109  0.010302291            7 
 4919000   0.47125671   -8.5449665     710.6443  0.012039105  0.010298954            2 
 4920000    0.4678612   -8.5360115    710.69894  0.012037584   0.01029562            2 
 4921000   0.47588778   -8.5344003    712.30339  0.012062308  0.010292289            5 
 4922000   0.47129501   -8.5407695    712.27137  0.012059315  0.010288958            3 
 4923000   0.46079533   -8.5424044    710.99539  0.012035266  0.010285631            2 
 4924000   0.46539351   -8.5383098    712.17968  0.012052865  0.010282303            4 
 4925000   0.46309981   -8.5236803     710.6185  0.012024002  0.010278974            4 
 4926000   0.45235927   -8.5290589    712.19316  0.012048199  0.010275648            4 
 4927000   0.46089994   -8.5283643    711.05315  0.012026472  0.010272322            4 
 4928000   0.45442736   -8.5342095    711.22708  0.012026973  0.010269003            4 
 4929000    0.4535236   -8.5396149    711.86231  0.012035273  0.010265681            4 
 4930000   0.46794418   -8.5372594     710.3035  0.012006482  0.010262363            4 
 4931000   0.46967904   -8.5489487    711.77712  0.012028952  0.010259045            2 
 4932000   0.46625816   -8.5449285    710.61175  0.012006822  0.010255729            3 
 4933000   0.46250822    -8.540014    710.79361   0.01200746  0.010252413            3 
 4934000   0.45636475   -8.5379608    710.46658  0.011999503  0.010249096            9 
 4935000   0.46755319    -8.545713    711.74866  0.012018721  0.010245784            4 
 4936000   0.45541421    -8.531153    712.00786  0.012020662  0.010242472            4 
 4937000   0.46218336   -8.5460823    712.50711  0.012026654  0.010239161            2 
 4938000   0.46326577   -8.5469368    710.95344  0.011997999  0.010235852            3 
 4939000   0.45499209   -8.5315117    711.72426  0.012008576  0.010232544            8 
 4940000   0.45142524   -8.5498561    710.92816  0.011992715  0.010229237            3 
 4941000   0.44955652   -8.5400124    710.28311  0.011979409   0.01022593            3 
 4942000   0.46823657   -8.5413532    710.71778  0.011984314  0.010222628            4 
 4943000   0.46783246   -8.5294951    711.27661  0.011991311  0.010219325            4 
 4944000    0.4541759   -8.5325641    711.37323  0.011990514  0.010216027            6 
 4945000   0.45997293   -8.5460038    711.74653   0.01199438  0.010212728            4 
 4946000   0.46034413   -8.5430624    710.99211  0.011979244   0.01020943            4 
 4947000   0.46255624   -8.5397533    712.25946  0.011998172  0.010206133            5 
 4948000   0.45790362   -8.5419957    712.18143  0.011994433  0.010202835            3 
 4949000   0.45989797   -8.5187499    710.49486   0.01196361  0.010199543            5 
 4950000   0.45896291   -8.5329432    711.34269  0.011975466  0.010196251            3 
 4951000   0.46073742     -8.54249    711.31436  0.011972571  0.010192959            5 
 4952000   0.45475434   -8.5501867    711.93208  0.011980548   0.01018967            4 
 4953000   0.46472515   -8.5411962    710.90427  0.011960836  0.010186381            4 
 4954000   0.45234234   -8.5500925    711.20627  0.011963502  0.010183096            5 
 4955000   0.45865273   -8.5483493    710.64382  0.011951628   0.01017981            3 
 4956000   0.45580946   -8.5419564    710.75425  0.011951074  0.010176527            3 
 4957000   0.45476202   -8.5383643     711.8313  0.011966769  0.010173244            5 
 4958000    0.4635591    -8.522438    711.11137  0.011952255  0.010169962            4 
 4959000   0.46265462   -8.5560106    711.53838  0.011957021  0.010166681            4 
 4960000   0.46080343   -8.5484904    709.92244   0.01192746    0.0101634            5 
 4961000   0.45267339   -8.5379412    711.26926   0.01194768  0.010160121            3 
 4962000   0.46156033   -8.5491467    710.80763  0.011937519  0.010156844            6 
 4963000   0.47546875   -8.5382143    711.05686  0.011939298   0.01015357            2 
 4964000   0.45858155   -8.5333928    710.52545  0.011927972  0.010150299            2 
 4965000   0.46110026   -8.5379206    710.83598  0.011930782  0.010147028            4 
 4966000   0.45934284   -8.5343347    710.61041  0.011924594  0.010143757            3 
 4967000   0.46150275   -8.5461017    711.60822  0.011938934  0.010140488            3 
 4968000   0.47095334   -8.5335328    709.88106  0.011907559  0.010137219            6 
 4969000   0.45533707   -8.5530567     710.6541  0.011918127  0.010133954            5 
 4970000   0.45300935   -8.5346486    710.09804  0.011906406  0.010130688            5 
 4971000   0.45359642   -8.5350763    710.92594  0.011917889  0.010127425            3 
 4972000   0.44993113   -8.5426705    710.58616  0.011909798  0.010124161            4 
 4973000   0.46290242   -8.5566225    711.06616  0.011915446  0.010120896            5 
 4974000   0.46216023   -8.5412952    710.43646  0.011902501  0.010117636            3 
 4975000   0.45887997   -8.5590638    710.88055  0.011907547  0.010114377            3 
 4976000   0.45130495    -8.543762    710.54499  0.011899534  0.010111119           10 
 4977000   0.46343992   -8.5493769    711.47329  0.011912687  0.010107861            4 
 4978000   0.45614586   -8.5496581    711.05606  0.011903309   0.01010461            5 
 4979000   0.45288114    -8.547753    711.00798  0.011900114  0.010101355            3 
 4980000   0.45381766   -8.5412633     709.4479  0.011871618  0.010098105            3 
 4981000    0.4578838   -8.5411623    711.97072  0.011911442  0.010094853            3 
 4982000   0.45110636   -8.5421434    709.65284   0.01187028  0.010091602            4 
 4983000   0.45520903   -8.5418043    710.39267  0.011880271  0.010088353            3 
 4984000     0.465919   -8.5496079    710.36215  0.011877377    0.0100851            2 
 4985000   0.46213431   -8.5479664    710.81817  0.011882617  0.010081855            4 
 4986000   0.45606057   -8.5470365    710.07991  0.011867895  0.010078611            3 
 4987000   0.46012424     -8.55114     710.4052  0.011870951   0.01007537            4 
 4988000   0.45473935   -8.5449188    709.50269  0.011853493  0.010072127            2 
 4989000   0.45534907   -8.5389665    711.45424  0.011883715  0.010068886            4 
 4990000   0.45238326   -8.5535262    709.75297  0.011852922  0.010065648            4 
 4991000   0.46094772   -8.5533068    710.04823  0.011855477  0.010062409            5 
 4992000   0.45096214   -8.5663762    709.97431  0.011851868  0.010059171            4 
 4993000   0.45197084   -8.5510644    710.75152  0.011862466  0.010055934            6 
 4994000   0.44306998   -8.5527125    710.53907  0.011856546  0.010052702            3 
 4995000   0.44902803   -8.5563857      710.596  0.011855122  0.010049468            4 
 4996000   0.45042576   -8.5423297    711.17064  0.011862334  0.010046236            6 
 4997000   0.45688442   -8.5503785    711.19632  0.011860388  0.010043006            3 
 4998000   0.44360574   -8.5509225    710.00317  0.011838121  0.010039777            3 
 4999000   0.44253367   -8.5492259    710.88096  0.011850386  0.010036549            3 
 5000000   0.44055937   -8.5430393    710.96004  0.011849334  0.010033323            5 
 5001000   0.44250061   -8.5377892    711.35031  0.011853468    0.0100301            3 
 5002000   0.45338242   -8.5486309    710.64398  0.011839331  0.010026878            4 
 5003000   0.44368708   -8.5409339    710.41864  0.011833211  0.010023656            4 
 5004000   0.44533661   -8.5425143     710.7094  0.011835688  0.010020434            3 
 5005000   0.44995849   -8.5484623    710.45185  0.011829035  0.010017213            3 
 5006000   0.45775415   -8.5504692    711.83033  0.011849619  0.010013995            4 
 5007000   0.45542201   -8.5414094    711.16644  0.011836203  0.010010777            4 
 5008000   0.45824832   -8.5541258    710.14519  0.011816846  0.010007564            5 
 5009000   0.43498557   -8.5472031      711.213  0.011832252   0.01000435            4 
 5010000   0.45283362   -8.5547673    709.92546  0.011808474  0.010001133            5 
 5011000   0.44423961    -8.558099    710.46671  0.011815119 0.0099979194            4 
 5012000   0.44312743   -8.5619227    710.16716  0.011807781 0.0099947056            4 
Loop time of 12027 on 48 procs for 5000000 steps with 4000 atoms

Performance: 71838.161 tau/day, 415.730 timesteps/s
99.4% CPU use with 48 MPI tasks x no OpenMP threads

MPI task timing breakdown:
Section |  min time  |  avg time  |  max time  |%varavg| %total
---------------------------------------------------------------
Pair    | 702.83     | 808.8      | 881.91     | 115.6 |  6.72
Neigh   | 76.827     | 80.583     | 83.807     |  17.9 |  0.67
Comm    | 726.22     | 808.79     | 931.75     | 137.8 |  6.72
Output  | 13.533     | 13.537     | 13.614     |   0.3 |  0.11
Modify  | 10167      | 10205      | 10238      |  17.4 | 84.85
Other   |            | 110.4      |            |       |  0.92

Nlocal:        83.3333 ave          93 max          75 min
Histogram: 2 4 4 6 8 9 12 1 1 1
Nghost:        2026.25 ave        2047 max        2001 min
Histogram: 3 4 1 7 5 5 10 2 6 5
Neighs:        13038.8 ave       15072 max       11174 min
Histogram: 3 1 2 7 14 12 2 4 2 1
FullNghs:      26077.1 ave       29643 max       23159 min
Histogram: 2 4 4 6 12 10 6 2 1 1

Total # of neighbors = 1251700
Ave neighs/atom = 312.92500
Neighbor list builds = 268079
Dangerous builds = 2

#clear
#
#next RN
#
#jump SELF
Total wall time: 3:20:30
