
units lj                  # Use reduced LJ style units
atom_style atomic         # Uncharged point particles
atom_modify map hash      # Needed for indexing of clusters etc
                          # Used to be able to find where atoms are in relation to each other.

lattice fcc 1.0 spacing 1 1 1
Lattice spacing in x,y,z = 1.5874011 1.5874011 1.5874011
region box block 0 10 0 10 0 10 units lattice
create_box 2 box
Created orthogonal box = (0.0000000 0.0000000 0.0000000) to (15.874011 15.874011 15.874011)
  3 by 4 by 4 MPI processor grid
create_atoms 1 box
Created 4000 atoms
  using lattice units in orthogonal box = (0.0000000 0.0000000 0.0000000) to (15.874011 15.874011 15.874011)
  create_atoms CPU = 0.002 seconds
set type 1 type/fraction 2 0.29 78393
Setting atom values ...
  1200 settings made for type/fraction
mass 1 1.0
mass 2 1.0
pair_style lj/cut  3.5
pair_modify tail  yes
pair_coeff 1  1  1.0  1.0   # Intearaction between 1 and 1 set with epsilon = 1 and sigma = 1
pair_coeff 1  2  1.5  0.8
pair_coeff 2  2  0.5  0.88

write_data data.0
System init for write_data ...
Neighbor list info ...
  update every 1 steps, delay 10 steps, check yes
  max neighbors/atom: 2000, page size: 100000
  master list distance cutoff = 3.8
  ghost atom cutoff = 3.8
  binsize = 1.9, bins = 9 9 9
  1 neighbor lists, perpetual/occasional/extra = 1 0 0
  (1) pair lj/cut, perpetual
      attributes: half, newton on
      pair build: half/bin/atomonly/newton
      stencil: half/bin/3d
      bin: standard
WARNING: Not all mixed pair coeffs generated from mixing. Use write_data with 'pair ij' option to store all pair coeffs. (../write_data.cpp:312)


#############################
#   M E L T   S Y S T E M   #
#############################

velocity all create 2.4 9580093 mom yes dist gaussian # Assign velocities
                                                    # Temperature 2.4, random number seed, zero linear momentum
                                                                                # Gaussian distribution

timestep 0.002   # simulation timestep
thermo 1000       # output thermodynamic data every 1000 steps bf 100

# Define a fix  in this case with index 1 applied to all
# particles in the simulation. This fix is for simulations
# in the anisotropic NPT ensemble. Note that we use the MTK
# correction.
fix 1 all npt temp 2.4 2.4 0.1 iso 5.68 5.68 0.5 mtk yes tchain 5 pchain 5 # Use NPT ensemble
                                                                         # Set temperature and pressure and damping
                                                                         # Numbers of thermostats in chain and in barostat
run 10000          # run for 10000 steps
Per MPI rank memory allocation (min/avg/max) = 3.642 | 3.644 | 3.648 Mbytes
Step Temp E_pair E_mol TotEng Press Volume 
       0          2.4   -6.4756105            0   -2.8765105   -3.9602485         4000 
    1000    2.4167653   -4.9434618            0   -1.3192202    5.6795021    4196.8537 
    2000    2.4277949   -4.9918908            0   -1.3511089    5.5448853    4178.0157 
    3000    2.3573604   -4.9615862            0   -1.4264297     5.789085    4159.9645 
    4000    2.4550923   -4.9286529            0   -1.2469352    5.9723662    4186.0512 
    5000    2.3337286   -4.9306522            0   -1.4309344    5.9128217    4170.9509 
    6000     2.402208   -4.9847957            0   -1.3823845    5.4970357    4184.0549 
    7000    2.4369945   -4.9851259            0    -1.330548    5.9597881    4147.5397 
    8000    2.3929084   -4.9564379            0   -1.3679726    5.5343176    4204.1642 
    9000    2.4245907   -4.9983547            0   -1.3623779    6.0812732    4134.4987 
   10000    2.4492395   -4.9435753            0   -1.2706345    5.8858313    4181.3659 
Loop time of 2.4296 on 48 procs for 10000 steps with 4000 atoms

Performance: 711227.856 tau/day, 4115.902 timesteps/s
99.6% CPU use with 48 MPI tasks x no OpenMP threads

MPI task timing breakdown:
Section |  min time  |  avg time  |  max time  |%varavg| %total
---------------------------------------------------------------
Pair    | 1.018      | 1.1086     | 1.1923     |   3.3 | 45.63
Neigh   | 0.1972     | 0.21126    | 0.22867    |   1.2 |  8.70
Comm    | 0.75272    | 0.84389    | 0.94314    |   4.1 | 34.73
Output  | 0.00024176 | 0.00024621 | 0.0003136  |   0.0 |  0.01
Modify  | 0.22863    | 0.25062    | 0.26877    |   2.1 | 10.32
Other   |            | 0.01496    |            |       |  0.62

Nlocal:        83.3333 ave          92 max          74 min
Histogram: 1 2 3 9 7 7 8 8 2 1
Nghost:        1599.85 ave        1638 max        1552 min
Histogram: 1 1 1 5 6 15 11 5 2 1
Neighs:        9140.94 ave       10259 max        8006 min
Histogram: 2 2 5 7 9 5 9 5 3 1

Total # of neighbors = 438765
Ave neighs/atom = 109.69125
Neighbor list builds = 906
Dangerous builds = 217

# Equilibrate just above the melting temperature to avoid step fn in T

fix 1 all npt temp 1.25 1.25 0.1 iso 5.68 5.68 0.5 mtk yes tchain 5 pchain 5
run 2000
Per MPI rank memory allocation (min/avg/max) = 3.643 | 3.645 | 3.649 Mbytes
Step Temp E_pair E_mol TotEng Press Volume 
   10000    2.4492395   -4.9435753            0   -1.2706345    5.8858313    4181.3659 
   11000    1.2545886   -6.8445908            0   -4.9631783    5.3425131    3374.3828 
   12000    1.2695684   -6.8285436            0   -4.9246671     6.151032    3347.8764 
Loop time of 0.574129 on 48 procs for 2000 steps with 4000 atoms

Performance: 601955.793 tau/day, 3483.540 timesteps/s
99.6% CPU use with 48 MPI tasks x no OpenMP threads

MPI task timing breakdown:
Section |  min time  |  avg time  |  max time  |%varavg| %total
---------------------------------------------------------------
Pair    | 0.24663    | 0.26934    | 0.30982    |   2.5 | 46.91
Neigh   | 0.037261   | 0.039821   | 0.04575    |   0.8 |  6.94
Comm    | 0.17459    | 0.2161     | 0.24113    |   3.1 | 37.64
Output  | 5.1121e-05 | 5.2434e-05 | 6.6674e-05 |   0.0 |  0.01
Modify  | 0.03832    | 0.04424    | 0.050575   |   1.7 |  7.71
Other   |            | 0.004578   |            |       |  0.80

Nlocal:        83.3333 ave          91 max          77 min
Histogram: 4 2 9 6 3 12 3 6 1 2
Nghost:        1846.65 ave        1879 max        1827 min
Histogram: 5 6 10 7 7 5 2 4 1 1
Neighs:        11413.6 ave       12831 max        9864 min
Histogram: 3 2 4 7 4 11 4 5 4 4

Total # of neighbors = 547854
Ave neighs/atom = 136.96350
Neighbor list builds = 144
Dangerous builds = 9

#############################
# L I N E A R  Q U E N C H  #
#############################

# Define solid atoms. This closely follows ten Wolde  Ruiz-Montero and Frenkel  Faraday Discuss  1996  104  93-110
# Compute components of the per-atom q6 vector
compute q6 all orientorder/atom degrees 1 6 components 6 nnn NULL cutoff 1.3 # compute the Q6 parameter.
                                                                             # Use all neighbours within 1.3 unit cell.

# get number of connections
compute coord_number all coord/atom orientorder q6 0.5

# An atom is solid if it has 8 or more connections (of a possible 14)
variable is_solid atom c_coord_number>=8
group solid dynamic all var is_solid    # Must be dynamic to update
dynamic group solid defined

# do clustering
compute cluster solid cluster/atom 1.3 # Create a cluster where all atoms within are solid and max 1.3 units from another member

# define chunks one chunk per cluster
compute clus_chunks solid chunk/atom c_cluster nchunk every compress yes  # Says which atoms are in which chunk

# count the size of each chunk
compute size_chunks solid property/chunk clus_chunks count


# Find the maximum entry in the vector of chunk sizes
variable max_n equal max(c_size_chunks)


# Thermo style which includes this variable
# thermo_style custom step temp pe vol v_max_n

thermo ${N}  # Print the thermo information every 100 steps
thermo 1000  

# Reset the npt fix at a lower temperature (below freezing)
fix 1  all npt temp  ${temp} ${temp}  0.1  iso  5.68  5.68  0.5  mtk yes tchain  5  pchain  5
fix 1  all npt temp  0.45 ${temp}  0.1  iso  5.68  5.68  0.5  mtk yes tchain  5  pchain  5
fix 1  all npt temp  0.45 0.45  0.1  iso  5.68  5.68  0.5  mtk yes tchain  5  pchain  5

dump dmp2 all dcd ${N} traj.dcd
dump dmp2 all dcd 1000 traj.dcd


compute msd all msd com yes
variable twopoint equal c_msd[4]/6/(step*dt+1.0e-6)
fix 9 all vector 10 c_msd[4]
variable fit equal slope(f_9)/6/(10*dt)
thermo_style custom step temp pe c_msd[4] v_twopoint v_fit v_max_n

fix 1 all npt temp 1.25 ${temp} 0.1 iso 5.68 5.68 0.5 mtk yes tchain 5 pchain 5
fix 1 all npt temp 1.25 0.45 0.1 iso 5.68 5.68 0.5 mtk yes tchain 5 pchain 5
run 2000000 # 5000000  # Run for this many steps
Neighbor list info ...
  update every 1 steps, delay 10 steps, check yes
  max neighbors/atom: 2000, page size: 100000
  master list distance cutoff = 3.8
  ghost atom cutoff = 3.8
  binsize = 1.9, bins = 8 8 8
  4 neighbor lists, perpetual/occasional/extra = 1 3 0
  (1) pair lj/cut, perpetual
      attributes: half, newton on
      pair build: half/bin/atomonly/newton
      stencil: half/bin/3d
      bin: standard
  (2) compute orientorder/atom, occasional
      attributes: full, newton on
      pair build: full/bin/atomonly
      stencil: full/bin/3d
      bin: standard
  (3) compute coord/atom, occasional
      attributes: full, newton on
      pair build: full/bin/atomonly
      stencil: full/bin/3d
      bin: standard
  (4) compute cluster/atom, occasional
      attributes: full, newton on
      pair build: full/bin/atomonly
      stencil: full/bin/3d
      bin: standard
Per MPI rank memory allocation (min/avg/max) = 9.808 | 9.814 | 9.817 Mbytes
Step Temp PotEng c_msd[4] v_twopoint v_fit v_max_n 
   12000    1.2695684   -6.8285436 3.9443045e-34 2.7391003e-36 8.3333333e+20            1 
   13000    1.2629369    -6.890508   0.50725401 0.0032516281  0.041877765            2 
   14000    1.2264965    -6.857207   0.98314032 0.0058520255  0.039971781            1 
   15000    1.2695029   -6.8609266    1.4626044 0.0081255795   0.03976914            1 
   16000    1.2197644   -6.9115881    1.9743367  0.010283004  0.040201111            1 
   17000    1.2375915   -6.8749278    2.4518147  0.012018699  0.040628476            1 
   18000    1.2496426   -6.8889162    2.9768337  0.013781637  0.040936124            1 
   19000      1.26477   -6.8260558    3.4517819  0.015139394  0.041101146            2 
   20000    1.2458195   -6.8565871    3.9875246  0.016614685  0.041237105            2 
   21000     1.241679   -6.8702022    4.5055255  0.017879069  0.041485297            1 
   22000    1.2591881   -6.8737002    5.0200899  0.019015492  0.041691055            1 
   23000    1.2334943   -6.8663474    5.4784604  0.019849494  0.041749452            1 
   24000    1.2422146   -6.8760622    5.8611129  0.020351086  0.041530012            1 
   25000    1.2292261   -6.8926773     6.368144  0.021227146  0.041187944            2 
   26000    1.2109782   -6.8488292    6.8775162  0.022043321  0.041053585            1 
   27000    1.2625495   -6.8576882    7.3394292  0.022652559  0.041015656            1 
   28000    1.2700485   -6.8579046    7.7460908  0.023053841  0.040844152            2 
   29000    1.2213559   -6.8724906     8.283422  0.023802936  0.040713402            1 
   30000    1.2512419   -6.8534379    8.7864094  0.024406692  0.040689077            1 
   31000    1.2461696   -6.8750763    9.2699487  0.024919216  0.040603371            1 
   32000    1.2162335   -6.8745475      9.65654  0.025147239  0.040491518            2 
   33000    1.2682294   -6.8946266    10.074687  0.025441127  0.040328183       -1e+20 
   34000     1.243128   -6.8862529    10.578548  0.025927813  0.040218828            1 
   35000    1.2396159   -6.8627574    11.034943  0.026273674  0.040108109            2 
   36000    1.2021247   -6.8543957    11.553122  0.026743338  0.040026032            1 
   37000    1.2297451   -6.8299676    12.091422  0.027232933   0.03998515            2 
   38000    1.2403708   -6.8605349    12.634106  0.027706373    0.0400044            1 
   39000    1.2199545   -6.8580507    13.079256  0.027947129  0.040045547            1 
   40000    1.2345284    -6.888325    13.499667  0.028124305  0.040063531            4 
   41000    1.2577453    -6.882314    13.921935  0.028296616  0.040025029            1 
   42000    1.2577573   -6.8769133     14.31876  0.028410238  0.039946878            3 
   43000    1.2366391   -6.9306931    14.697932  0.028484365  0.039839331            1 
   44000    1.2391816   -6.8287636    15.160334  0.028712753   0.03972026            2 
   45000    1.2338218   -6.8290956    15.511397  0.028724809  0.039573068            3 
   46000     1.229824   -6.8121447    15.984888  0.028958131  0.039420099            1 
   47000    1.2275233   -6.9084067    16.384147  0.029049906  0.039261424            1 
   48000    1.2229897   -6.8823755    16.918513  0.029372418  0.039168363            1 
   49000    1.2185056   -6.8954864    17.258212    0.0293507  0.039077439            2 
   50000    1.2184408     -6.86795    17.856576   0.02976096  0.039001678            1 
   51000    1.2392122   -6.8797764    18.361569  0.030002563  0.038956949            2 
   52000    1.2354175   -6.8943039    18.669249  0.029918667  0.038884506            1 
   53000    1.2329423    -6.908751    19.067981  0.029981102  0.038811011            2 
   54000    1.2268875   -6.9259275    19.495183  0.030085158  0.038733955            1 
   55000    1.2251047   -6.8980177    19.886534  0.030131111  0.038658766            2 
   56000    1.2431266   -6.8996995    20.253364  0.030138935  0.038557338            1 
   57000    1.2065959   -6.8705537    20.769272  0.030364433  0.038469437            2 
   58000    1.2715596   -6.8868117    21.171934  0.030419445  0.038382801            1 
   59000    1.2245997   -6.9168406    21.633518  0.030555817  0.038302589            2 
   60000    1.2089018   -6.9121752    21.995048  0.030548677  0.038231423            1 
   61000    1.2407641   -6.8592404    22.460515  0.030683764  0.038155352            1 
   62000    1.2661293   -6.9114876    23.010387   0.03092794  0.038097076            2 
   63000    1.1910193   -6.8601914    23.665295    0.0313033  0.038069122            1 
   64000     1.252244    -6.891237    24.098268  0.031377952  0.038056874            1 
   65000    1.2095191   -6.8971387    24.613593  0.031555889  0.038057398            2 
   66000    1.2369562   -6.9028873    24.997772  0.031562843  0.038050361            1 
   67000    1.2535392   -6.8852556    25.249405  0.031404733  0.038025311            1 
   68000    1.2290606   -6.9127291    25.815405  0.031636525  0.037996993            2 
   69000    1.2355939   -6.9206024    26.320958  0.031788596  0.037984314            1 
   70000    1.2172114   -6.9140588    26.824747  0.031934223  0.037981376            1 
   71000    1.2318799   -6.9400244    27.254015   0.03198828  0.037970552            1 
   72000    1.2130181   -6.9196882    27.489274  0.031816289  0.037943764            1 
   73000    1.2422767   -6.9214456    27.798639  0.031733606  0.037896516            3 
   74000    1.1991079   -6.9166552    28.411751  0.031995215  0.037858564            2 
   75000    1.2212025   -6.9013141     28.81478  0.032016422  0.037825153            2 
   76000    1.1819275   -6.9119985    29.145406  0.031957682  0.037795952            1 
   77000    1.2443834   -6.9078144    29.639258  0.032077119  0.037757602            1 
   78000    1.2308277   -6.9075182     29.90946  0.031954551  0.037706147            1 
   79000    1.2324058   -6.9141428    30.386489  0.032053258  0.037653014            1 
   80000    1.2077434   -6.9314829    30.753916  0.032035329  0.037602343            2 
   81000    1.2046412   -6.9451065    31.064832  0.031959704  0.037548166            1 
   82000    1.2448751   -6.9413002    31.594417  0.032108147    0.0375031            2 
   83000    1.2407958    -6.915058    32.081472  0.032210313  0.037456187            1 
   84000    1.2186052   -6.9107744    32.313646  0.032057188  0.037412008            2 
   85000     1.210671   -6.9141337    32.741446  0.032099456  0.037353489            2 
   86000    1.2194375   -6.8736826    33.031338  0.032007111  0.037291292            2 
   87000    1.2324805   -6.9260102    33.508748  0.032096502  0.037234661            1 
   88000     1.231183    -6.898393    33.999344  0.032196348  0.037180999            1 
   89000    1.1997947   -6.9187756    34.250996  0.032070221  0.037127883            1 
   90000    1.2110048   -6.9207684    34.766634  0.032191328  0.037075972            1 
   91000    1.2121071   -6.8696449    35.167727  0.032204878  0.037023691            2 
   92000    1.2241089    -6.948523    35.440375  0.032101789  0.036967128            3 
   93000    1.2430255   -6.8891098    35.880866  0.032151314  0.036910548            2 
   94000    1.1942003    -6.910669    36.298857  0.032179837  0.036856499            2 
   95000    1.1948779   -6.8969699    36.811501   0.03229079  0.036803965            1 
   96000    1.2062564   -6.9152567    37.183114  0.032277009  0.036766822            2 
   97000    1.2162272    -6.940084    37.566227   0.03227339   0.03672758            1 
   98000    1.2119557   -6.9309368    38.220082   0.03250007  0.036689098            2 
   99000    1.2003349   -6.9102351    38.764242  0.032629834  0.036663888            1 
  100000    1.2061905   -6.9458297    39.259555  0.032716295  0.036646776            2 
  101000    1.2177927   -6.9706089    39.625796  0.032694551  0.036628576            1 
  102000    1.2261396   -6.9088647    40.020491  0.032696479  0.036606182            2 
  103000    1.2417869   -6.9360225    40.412989  0.032696593  0.036588499            1 
  104000    1.2133137   -6.9721828    41.068629  0.032907555  0.036575699            1 
  105000    1.2067839   -6.9089198    41.339528  0.032809149  0.036561724            1 
  106000    1.2118326   -6.9441099    41.936085   0.03296862  0.036552859            1 
  107000    1.2371655   -6.9279609    42.499389  0.033099213  0.036542664            1 
  108000    1.1979806    -6.956747    42.791834  0.033018391  0.036539039            1 
  109000    1.2073791   -6.9553971    43.089234  0.032942839  0.036532192            1 
  110000    1.2149579   -6.9339901    43.783168  0.033169066  0.036526556            1 
  111000    1.2174218   -6.9566755    44.098834  0.033107233  0.036519191            1 
  112000    1.2402458   -6.9507256     44.63948  0.033213899  0.036512169            1 
  113000    1.2045568    -6.935358    44.898778  0.033111193  0.036503211            2 
  114000    1.1977586   -6.9543474      45.1639  0.033014547  0.036490167            2 
  115000    1.2013515   -6.9546927    45.436852  0.032925255  0.036473559       -1e+20 
  116000    1.2156394   -7.0016652    45.676725  0.032813739  0.036445826            2 
  117000    1.2151048   -6.9589857    46.013706  0.032773295  0.036414619            1 
  118000    1.2244797    -6.941755    46.742689  0.033010373  0.036385789            1 
  119000    1.1763479   -6.9758921    47.188679  0.033045293  0.036362807            2 
  120000    1.1859364   -6.9445385    47.661695  0.033098399  0.036347125            2 
  121000     1.223874     -6.96175    48.082925  0.033114962  0.036332844            1 
  122000    1.2025357   -6.9887861    48.343969  0.033021837  0.036317827            4 
  123000    1.2010274   -6.9918762    48.907352  0.033135062  0.036304995            2 
  124000    1.1811334   -6.9389152    49.214118  0.033074004  0.036283829            1 
  125000    1.2411517   -6.9434713    49.477268  0.032984845  0.036258716            2 
  126000    1.2157563    -6.924708    49.985082  0.033058917  0.036238074            2 
  127000    1.2235135   -6.9295318    50.252134  0.032973841  0.036215784            1 
  128000    1.2048756   -6.9254379    50.812014  0.033080738  0.036191759            5 
  129000    1.1934404   -6.9623664    51.170848  0.033056103  0.036169297            3 
  130000    1.1848911   -7.0080027    51.532777  0.033033831  0.036145637            1 
  131000    1.2202086   -6.9276766    52.040705  0.033104774  0.036121603            1 
  132000    1.2049908   -6.9492463    52.542186  0.033170572  0.036097378            1 
  133000    1.2003342   -7.0048849    52.874033  0.033129093  0.036075662            2 
  134000    1.2295138   -6.9663728    53.303918  0.033149203  0.036058461            2 
  135000    1.2000406   -6.9706919    53.630855  0.033105466  0.036042117            2 
  136000     1.216122   -6.9501813    54.187168  0.033202921  0.036023786            1 
  137000    1.1837801   -6.9361966    54.631611  0.033230907  0.036010841            1 
  138000    1.2310432    -6.976829    54.782462  0.033081197  0.035992132            2 
  139000    1.1925041   -6.9768499    55.337297  0.033175838  0.035972666            1 
  140000    1.2127634   -6.9359838    55.950128  0.033303647  0.035960167            2 
  141000    1.1930936   -6.9679971     56.56705  0.033432063  0.035949396            2 
  142000    1.1872848   -6.9900635    56.766166  0.033313477   0.03594104            4 
  143000    1.1872501    -6.986934    57.232609  0.033352336  0.035932869            1 
  144000     1.197624   -6.9897987    57.986054  0.033556744  0.035926871            1 
  145000     1.186789   -6.9859171    58.327813  0.033521731  0.035924106            1 
  146000    1.1844796   -6.9768484    58.587354   0.03344027  0.035918128            1 
  147000    1.1888606   -6.9608536    58.770312  0.033316503  0.035908781            2 
  148000    1.2045111   -6.9776243    59.385236  0.033437633  0.035896747            3 
  149000     1.188012   -6.9797888    59.572485  0.033317945  0.035887548            1 
  150000     1.184846   -6.9934106    60.016512  0.033342507   0.03587622            2 
  151000    1.2054043    -6.973555    60.486673  0.033381166   0.03586664            1 
  152000    1.2051798   -6.9676969     61.08191  0.033487889  0.035859125            1 
  153000    1.1927985   -6.9754263    61.509233  0.033501761   0.03585086            3 
  154000    1.2092511   -6.9375428    61.760915  0.033420408  0.035839654            2 
  155000     1.200536   -6.9710782    62.181769  0.033431058  0.035827159            1 
  156000    1.1952968   -6.9726514    62.473357   0.03337252  0.035813471            2 
  157000    1.1783506   -6.9724675    63.184362  0.033537347    0.0358002            1 
  158000    1.2059735   -6.9706475    63.540963  0.033513166  0.035787307            2 
  159000    1.1990673   -6.9776423    63.601081    0.0333339  0.035773095            2 
  160000    1.1866642   -6.9331658    64.321019   0.03350053  0.035759626            1 
  161000     1.170038   -6.9642302     64.20971   0.03323484  0.035745682            3 
  162000    1.1832387   -6.9760981    64.993495  0.033432868  0.035731176            1 
  163000    1.1656635   -6.9734566    65.554835  0.033514742  0.035717262            3 
  164000     1.180247   -7.0107954    65.730144  0.033399464  0.035705606            1 
  165000    1.1989405   -6.9345598    66.278779  0.033474131  0.035693252            4 
  166000    1.1515489   -6.9995003    66.670191  0.033468971  0.035682002            2 
  167000    1.1830047   -6.9992112    67.036792  0.033451493   0.03566865            3 
  168000    1.1980477   -7.0052354    67.309041  0.033387421  0.035656005            1 
  169000    1.1910275    -6.985479    67.871594  0.033467255   0.03564436            1 
  170000    1.1870136     -6.95356    68.535318  0.033595744  0.035633871            1 
  171000     1.183324   -6.9843323    68.982907  0.033617401  0.035625353            1 
  172000    1.1775172   -6.9811706    69.105011   0.03348111  0.035616667            1 
  173000    1.1857346    -7.007124    69.648058  0.033549161  0.035606268            4 
  174000    1.1672596   -6.9703178    70.122497  0.033583571  0.035597883            2 
  175000    1.1808895    -6.951788    70.527691  0.033584614  0.035589142            1 
  176000      1.21247   -6.9943725     70.90925  0.033574455  0.035577753            2 
  177000    1.1920677   -6.9720619    71.221376  0.033531721  0.035567721            1 
  178000    1.1786773    -6.957285    71.731289  0.033582064  0.035556745            1 
  179000    1.1878823   -6.9871904    72.041341  0.033538799  0.035546684            1 
  180000    1.1825731   -6.9987491    72.686004  0.033650928  0.035537752            1 
  181000    1.1846332   -7.0237172    72.880283  0.033554458   0.03552614            1 
  182000    1.1900306   -6.9917319    73.295231  0.033560087  0.035515085            1 
  183000    1.2148699   -6.9878521    73.782257  0.033598478  0.035504605            2 
  184000    1.1817935   -6.9788028    73.838446  0.033441325  0.035494645            2 
  185000    1.1955406      -7.0151    74.144381   0.03339837   0.03548156            1 
  186000    1.2013485   -7.0579773    74.795541  0.033510547  0.035469595            2 
  187000    1.1826909   -6.9882093    75.612337  0.033695337  0.035461397            2 
  188000    1.1978084   -7.0101298    76.057784  0.033713556  0.035454933            2 
  189000    1.1710729   -6.9747086    76.660968  0.033801132    0.0354523       -1e+20 
  190000     1.172371   -7.0137843    77.120754  0.033824892  0.035452328            4 
  191000    1.1846608   -7.0041651    77.495738  0.033811404  0.035453135            1 
  192000    1.2190405   -7.0171822    77.607024  0.033683604   0.03545135            1 
  193000    1.1949089   -7.0228036    78.293064  0.033805295  0.035450826            1 
  194000    1.1461105   -7.0402932     78.86545  0.033876911  0.035451634            2 
  195000    1.1990081   -7.0312302    79.503834  0.033975997  0.035454066            3 
  196000    1.1909901   -7.0047947    79.675755  0.033875746  0.035457208            2 
  197000    1.2044601   -7.0231823    79.907096  0.033801648   0.03545752            1 
  198000    1.2105636   -7.0125659    80.752168  0.033986603  0.035457663            1 
  199000    1.2070724   -6.9898795    81.068043  0.033948092  0.035458264            1 
  200000    1.1550098   -6.9994159    81.711841  0.034046601  0.035460745            2 
  201000    1.1662297   -7.0391077    82.191534  0.034076092  0.035463562            1 
  202000    1.1899779   -7.0090779    82.606492  0.034078586  0.035467316            1 
  203000    1.1682393   -6.9978177    83.057841  0.034095994  0.035469481            2 
  204000     1.177054   -7.0510293    82.854873  0.033845945  0.035469368            2 
  205000    1.1732644   -7.0261603    83.417514  0.033909558  0.035467517            2 
  206000    1.1887545   -6.9832792    83.724938  0.033869311  0.035465446            2 
  207000    1.1704758   -7.0328385    83.976731  0.033807058  0.035461966            3 
  208000     1.143775   -7.0020395    84.689737  0.033930183  0.035459854            1 
  209000    1.1674195   -6.9995913    84.901659  0.033852336  0.035457756            3 
  210000    1.1745908   -6.9974008    85.219731  0.033817354   0.03545226            1 
  211000    1.1643924   -7.0470066    85.589733  0.033803212  0.035445303            1 
  212000    1.1643652    -7.024696    85.976842  0.033795928  0.035437763            1 
  213000    1.1489581   -7.0507082    86.316516  0.033770155  0.035431461            3 
  214000    1.1701156   -6.9926505    87.396461   0.03403289  0.035427655            1 
  215000    1.1689597   -7.0318308      87.4601  0.033899264  0.035425036            2 
  216000    1.1645691   -7.0235834    88.105749  0.033991415  0.035422519            2 
  217000    1.1540912   -7.0648398    88.168445   0.03385885  0.035420345            1 
  218000    1.1720669   -7.0100253    88.676676  0.033897812  0.035417545            1 
  219000    1.1481109   -6.9816265    89.700632   0.03413266  0.035415745            1 
  220000    1.1834103   -7.0425246    89.419795  0.033871134  0.035415441            1 
  221000    1.1757277   -7.0205956    90.259956  0.034034674  0.035416853            1 
  222000    1.1831871   -7.0384349    90.406094  0.033936221  0.035416493            2 
  223000     1.178093   -7.0559231    90.566841  0.033844111  0.035413724            1 
  224000    1.1641096   -7.0305929    91.374713  0.033993569  0.035409993            3 
  225000    1.1493348   -7.0847975    91.112496  0.033745369  0.035403387            1 
  226000    1.1408016   -7.0411307    91.397965  0.033701314  0.035397487            2 
  227000    1.1408393   -7.0446469    92.446994  0.033937957  0.035392312            1 
  228000    1.1355726   -7.0258301    92.666696  0.033869406  0.035385223            1 
  229000    1.1779462   -7.0365886     92.91726  0.033812686   0.03537836            2 
  230000    1.1584271   -7.0559302    93.376884  0.033832204  0.035371186            1 
  231000    1.1523418   -7.0056748    94.053262  0.033929748  0.035365011            1 
  232000    1.1544663    -7.029204    93.970872  0.033753905  0.035358461            1 
  233000    1.1758101   -7.0257283    94.531116  0.033809412  0.035350547            1 
  234000    1.1664963   -7.0220606    94.954489  0.033815701  0.035343031            1 
  235000    1.1349337    -7.039062    94.764428  0.033604407  0.035332618            1 
  236000    1.1678228   -7.0383998    95.483462  0.033715912  0.035321471            1 
  237000    1.1550176   -7.0308384     95.41993  0.033551312  0.035312276            1 
  238000    1.1721403    -7.058207    95.781307  0.033536872  0.035300056            2 
  239000    1.1489684   -7.0653028    96.327658  0.033587049  0.035288638            3 
  240000    1.1481222    -7.072483    96.869037  0.033635082  0.035276427            4 
  241000    1.1373079   -7.0602304    97.364838  0.033666957  0.035265362            2 
  242000    1.1552504   -7.0509609    97.543488  0.033589355  0.035252275            2 
  243000    1.1605781    -7.041688    97.834939  0.033551076  0.035238375            2 
  244000    1.1435741    -7.072599    98.451219   0.03362405  0.035227826            1 
  245000    1.1586123   -7.0548919    99.172505  0.033732144  0.035218556            1 
  246000    1.1672623   -7.0623315    99.495361   0.03370439  0.035210065            2 
  247000    1.1432266   -7.0404414    100.05252   0.03375591  0.035201267            1 
  248000    1.1726177   -7.0437416    100.15368  0.033653791  0.035190685            1 
  249000    1.1637766   -7.0389148    100.29089  0.033564555  0.035180138            2 
  250000    1.1484919    -7.046682    100.90751  0.033635837  0.035168124            2 
  251000    1.1531419   -7.0640334    101.11757  0.033571571   0.03515639            1 
  252000    1.1782659   -7.0374195    101.66881  0.033620639  0.035144734            2 
  253000    1.1516156    -7.083315    101.80262  0.033531826  0.035130883            3 
  254000    1.1621925   -7.0592005    102.03774  0.033476949  0.035118484            3 
  255000    1.1496846   -7.0510654    102.82735  0.033603709  0.035106391            1 
  256000    1.1177306   -7.0780313    102.86844  0.033485821   0.03509308            2 
  257000    1.1476548   -7.0398722    103.21633  0.033468331   0.03507774            1 
  258000    1.1441859   -7.0882111    103.38023  0.033391548  0.035062655            1 
  259000    1.1375851   -7.0459766    103.69581   0.03336416  0.035047108            1 
  260000    1.1385752   -7.1067681    104.25727  0.033415791  0.035031874            1 
  261000    1.1562125   -7.0563285    104.16802  0.033259267  0.035015577            1 
  262000    1.1808072   -7.0826359    104.88538  0.033360488  0.034999437            4 
  263000    1.1383492   -7.0622339    105.43262  0.033407039  0.034984088            2 
  264000    1.1793823   -7.0421487     106.1032  0.033492172   0.03496956            1 
  265000    1.1476561   -7.0797947    105.98569  0.033328832  0.034955046            1 
  266000    1.1389544   -7.0373586    106.62102  0.033402576      0.03494            1 
  267000    1.1401501   -7.0289582    107.30682  0.033491516  0.034926217            1 
  268000    1.1214437   -7.0690749    107.25963  0.033351874  0.034912491            1 
  269000    1.1557872   -7.0448819    107.93876  0.033438277  0.034899241            2 
  270000    1.1575919   -7.0766295    108.01508  0.033337989  0.034885503            1 
  271000    1.1609549   -7.0935774    107.92529   0.03318736  0.034869911            1 
  272000    1.1416277   -7.0728022    108.81507  0.033337952  0.034854456            1 
  273000    1.1413013    -7.080637    109.07674  0.033295707  0.034839315            1 
  274000    1.1526114   -7.1029112    109.79002  0.033391125  0.034823959            3 
  275000    1.1138755   -7.0656196    110.12043  0.033369827  0.034810796            1 
  276000    1.1274238   -7.0633564     110.6807  0.033418087  0.034798316            2 
  277000    1.1508455   -7.0584659    110.93345  0.033373482  0.034786025            1 
  278000    1.1340356    -7.055094    111.67584  0.033475971  0.034773989            2 
  279000    1.1269063   -7.0880114    111.90039  0.033423056  0.034761849            2 
  280000    1.1370706   -7.0894726    112.25304  0.033408644  0.034749956            2 
  281000    1.1349602    -7.098967    112.48254  0.033357812  0.034738418            2 
  282000    1.1534049    -7.121308    112.78774   0.03332971  0.034725008            2 
  283000    1.1262481    -7.066247    113.02402  0.033281514  0.034711876            2 
  284000    1.1252555   -7.0573097    113.38896  0.033271407  0.034698465            1 
  285000    1.1590832   -7.0697616    113.78208  0.033269613  0.034684609            1 
  286000    1.1288231   -7.1226723    113.83675  0.033169216   0.03467028            1 
  287000    1.1356057   -7.0337096    114.93996  0.033373972  0.034655421            2 
  288000    1.1508006   -7.0621312     115.1994  0.033333159  0.034641503            3 
  289000    1.1524969   -7.0927557    115.12243  0.033195624  0.034626967            1 
  290000    1.1369841    -7.125528    115.35495  0.033147974  0.034612575            1 
  291000    1.1465139   -7.0786492    115.86214  0.033179308  0.034597528            2 
  292000    1.1275392   -7.0752115    116.21623  0.033166733  0.034582452            1 
  293000    1.1113045    -7.124888    116.50937   0.03313691  0.034566969            2 
  294000    1.1627156   -7.0890919    116.84322  0.033118828  0.034551228            1 
  295000    1.1372419   -7.0865134    116.98796  0.033047446  0.034535781            2 
  296000    1.1300837   -7.0659262    117.16519  0.032985696  0.034518309            2 
  297000     1.146441   -7.0403304    117.58274  0.032991789  0.034500964            2 
  298000    1.1275495    -7.066765    118.10288  0.033026533  0.034483423            2 
  299000    1.1173681   -7.1270923    118.36251  0.032988437  0.034465861            1 
  300000    1.1349166    -7.111212    118.08084  0.032800235  0.034447719            1 
  301000    1.1424374   -7.1228468    118.72798  0.032870427  0.034428868            2 
  302000    1.1371781   -7.0895584    119.38877   0.03294392  0.034410235            2 
  303000    1.1143089    -7.079647     119.5327  0.032874779  0.034392033            3 
  304000    1.1255922   -7.1181268    120.04549  0.032907207  0.034375247            2 
  305000    1.1368689   -7.1133456    120.35335   0.03288343   0.03435848            1 
  306000    1.1309191   -7.1479155    120.59591  0.032842024  0.034341141            3 
  307000    1.1349727   -7.0821839    120.97687  0.032838455  0.034323547            2 
  308000    1.1333987   -7.0888869    121.07141  0.032757416  0.034305562            1 
  309000    1.1209294   -7.1655043    121.10577  0.032660671  0.034285785            1 
  310000    1.1073067    -7.040893    121.92563  0.032775707  0.034265765            2 
  311000    1.1174622   -7.1282314    122.51995  0.032829567  0.034247403            3 
  312000    1.0921391   -7.1316332    122.30291  0.032666375  0.034228415            1 
  313000    1.1414809   -7.0957949    123.42908  0.032861842  0.034210721            8 
  314000    1.1434261   -7.1147764    123.11639  0.032674202  0.034191545            2 
  315000    1.1055662   -7.1124853    123.12095  0.032571679  0.034170663            2 
  316000    1.1210432   -7.0774643    123.57533  0.032588431  0.034149318            1 
  317000    1.1682507   -7.0886459     123.8326  0.032553259  0.034128318            2 
  318000    1.1202444   -7.1144935    123.87053   0.03246083  0.034107148            1 
  319000    1.1360561   -7.1139108    124.21851  0.032449978  0.034084905            1 
  320000    1.1076713   -7.1183846    124.35771  0.032384821  0.034063595            1 
  321000    1.1489602   -7.0953977    125.03101  0.032458726  0.034041052            5 
  322000    1.1103615   -7.1239007    125.54314  0.032490461   0.03401878            1 
  323000    1.1146339   -7.0933828    125.14496  0.032287141  0.033995436            1 
  324000    1.1278712   -7.1225476    125.19271  0.032199771  0.033970869            3 
  325000    1.1104297   -7.1027712    125.28527  0.032124427  0.033945528            1 
  326000    1.1186752   -7.1491302    125.53442  0.032089576  0.033919536            4 
  327000     1.149659   -7.1127213    126.30595  0.032188061  0.033894197            2 
  328000    1.1410897   -7.1175375    126.88839  0.032237904  0.033870066            3 
  329000     1.106822   -7.1546088    126.84516  0.032128967  0.033844899            1 
  330000    1.1438922   -7.1081209    127.21619    0.0321253  0.033820429            1 
  331000    1.1161544   -7.1588681     127.2502  0.032036807  0.033795101            2 
  332000     1.112288   -7.1692507    126.81696  0.031831567  0.033769152            3 
  333000     1.103755   -7.1075718    127.45771  0.031896323  0.033743628            2 
  334000    1.1128498    -7.160773    127.83511  0.031894987  0.033716445            2 
  335000    1.1219892   -7.1244411    128.27415  0.031908993   0.03368973            3 
  336000    1.1167466    -7.137903    128.64365  0.031905666  0.033662404            2 
  337000    1.1187571   -7.1334319    129.19577  0.031947521  0.033634949            2 
  338000    1.1130934   -7.1211439    129.24087  0.031864121   0.03360858            1 
  339000    1.1015536   -7.0801274    130.23056  0.032013412  0.033583016            2 
  340000    1.1017704   -7.1424634    130.73807  0.032043644  0.033559086            3 
  341000    1.1216699   -7.1201701    130.54348  0.031902121  0.033533583            3 
  342000    1.1169484   -7.1095471    131.28377  0.031989222  0.033508164            1 
  343000    1.1193116   -7.1029728      131.121  0.031856414  0.033483201            2 
  344000    1.1216117   -7.1743685     131.5637  0.031871051  0.033458681            1 
  345000    1.0935128   -7.1655294    132.00057  0.031884197  0.033434842            1 
  346000    1.1366442   -7.1746398    132.29445  0.031862826  0.033411719            2 
  347000    1.1280021    -7.162865    132.67312  0.031861941  0.033388375            1 
  348000    1.1095388   -7.1363133    133.49928   0.03196822  0.033365676            1 
  349000    1.1075103   -7.1683803    133.30947  0.031831296  0.033343875            2 
  350000    1.0939515   -7.0807644    134.29693   0.03197546  0.033321095            2 
  351000    1.1086892   -7.1420444    134.08182  0.031833291  0.033298801            1 
  352000    1.0886196   -7.1296546    134.37464  0.031812178  0.033276036            2 
  353000    1.0973885   -7.1323978    135.23645  0.031925508  0.033254225            3 
  354000    1.1049407   -7.1785008    134.75469  0.031721915  0.033231922            1 
  355000    1.1312045   -7.1738628    135.29188  0.031758657   0.03320952            2 
  356000    1.1146025   -7.1531454     135.1584  0.031638201  0.033186163            1 
  357000      1.09141    -7.150216    136.59073  0.031883925  0.033163288            3 
  358000    1.1148998   -7.1849781    136.28427  0.031723525  0.033141429            2 
  359000    1.1258972   -7.1469687    137.05829   0.03181483  0.033119913            1 
  360000    1.1177708   -7.1753478    136.84276  0.031676564  0.033098233            2 
  361000    1.0897184   -7.1528617    137.75767  0.031800016  0.033075964            2 
  362000    1.1232113   -7.1600285    137.50047  0.031652962   0.03305454            2 
  363000    1.1019848   -7.1485073    138.22975  0.031733184  0.033032732            2 
  364000    1.0939315   -7.2132447    138.57465  0.031724966  0.033010938            3 
  365000     1.117766    -7.176018    138.73818  0.031675384   0.03299002            2 
  366000    1.1088976   -7.1818756    138.95448  0.031638088  0.032969056            1 
  367000    1.1134308   -7.1536774    139.46925  0.031668767  0.032948084            1 
  368000    1.1098302   -7.1223549    140.28086  0.031766498  0.032927961            3 
  369000    1.1316982   -7.1653569    140.18819  0.031659484  0.032908395            1 
  370000    1.1450202   -7.1699551    140.60251  0.031667232  0.032888382            1 
  371000    1.1265876   -7.1526291    140.98364  0.031667484  0.032868238            2 
  372000    1.0943535   -7.1933731    141.26359  0.031645069  0.032847899            2 
  373000    1.1010771   -7.2075874    141.62852  0.031641761  0.032827634            2 
  374000    1.1299282   -7.1340341    142.19175  0.031682653  0.032807344            1 
  375000    1.1291221    -7.158963    142.17801  0.031595114  0.032787485            2 
  376000    1.1204981   -7.2015652    142.37586  0.031554932  0.032767743            1 
  377000     1.096993   -7.1739922    142.43866  0.031485114  0.032748106            2 
  378000    1.1145718   -7.1702135    143.46491  0.031628066  0.032728467            2 
  379000    1.1504499   -7.1437279    144.27659  0.031723085  0.032710195            2 
  380000    1.1106124   -7.1491163    144.33946  0.031653391  0.032692489            2 
  381000    1.0894162   -7.1779399    144.27212  0.031555582  0.032674162            2 
  382000    1.1102904   -7.1914414    144.43986  0.031509569  0.032655149            2 
  383000    1.0946594   -7.1848894    144.53242  0.031447437  0.032636498            2 
  384000     1.089747   -7.1779134    145.55238  0.031586888  0.032618867            2 
  385000    1.0775999   -7.1608932     146.6089  0.031733528  0.032601626            2 
  386000    1.1074461   -7.1777291    146.29127  0.031582744   0.03258413            2 
  387000    1.1206023   -7.1622004    146.58374  0.031564113  0.032566272            1 
  388000    1.0816105   -7.1738958    146.58624  0.031483299  0.032548399            2 
  389000    1.0880229   -7.1557023    147.07087  0.031506185  0.032530169            2 
  390000    1.0966594   -7.1800379    147.20616  0.031454309  0.032511956            4 
  391000    1.0990714   -7.2176013    147.23335  0.031379656  0.032493722            2 
  392000    1.0715686   -7.1660697    148.20538  0.031506246  0.032475672            1 
  393000     1.110986   -7.1874232     148.4237   0.03147237  0.032457649            2 
  394000     1.085491   -7.1639547    148.72303  0.031455801  0.032440546            2 
  395000     1.091596   -7.1427639    149.30547  0.031499045  0.032423688            2 
  396000    1.1025499   -7.1965478    149.41363  0.031442263  0.032406908            6 
  397000    1.1208436   -7.1789222    150.03415  0.031493314  0.032390771            3 
  398000    1.0991286    -7.178451    150.31883  0.031473792  0.032374835            1 
  399000    1.0958067   -7.1747641    150.60033  0.031453703  0.032358876            2 
  400000    1.0971654   -7.1690881    151.20614  0.031501278  0.032342383            1 
  401000    1.0847333   -7.1908483    151.05959  0.031392268  0.032326519            2 
  402000    1.1140052    -7.203902    151.64102  0.031434705  0.032310671            2 
  403000    1.0924084   -7.1610026    151.43997  0.031315129  0.032294104            4 
  404000    1.1148886   -7.2120573    151.69322  0.031289856  0.032277327            2 
  405000    1.0834845   -7.1827138    152.49095  0.031376739  0.032260624            2 
  406000    1.1047377   -7.1721022    152.74919  0.031352461  0.032244812            1 
  407000    1.1022371   -7.2177723    152.98462  0.031323632    0.0322288            2 
  408000    1.0912586   -7.1882401    153.63478  0.031379652  0.032212177            2 
  409000    1.0720535   -7.2156583    153.53434  0.031282466  0.032195484            2 
  410000    1.0906339   -7.2070639    153.88552  0.031277545  0.032178191            1 
  411000    1.1138747   -7.2271783    154.15676  0.031256439  0.032160509            2 
  412000    1.1041967   -7.1798202    154.62462  0.031275206  0.032143919            2 
  413000    1.0702177   -7.2196425    154.53556   0.03118151  0.032127125            1 
  414000    1.0941098   -7.1794103    155.24189  0.031248368  0.032109843            1 
  415000    1.0863083   -7.1735463    155.35722  0.031196228  0.032092726            2 
  416000    1.0854598   -7.2147104    155.31848  0.031113478  0.032075534            6 
  417000    1.0849902   -7.1960516    155.74168  0.031123437  0.032057497            4 
  418000    1.1010623   -7.2112071    156.35485  0.031171222  0.032039965            1 
  419000     1.100076   -7.2069832    156.36055  0.031097961  0.032022185            2 
  420000    1.0687403   -7.1956075    156.27551  0.031007046  0.032004222            2 
  421000    1.1176502   -7.2327202    156.59773  0.030997175   0.03198599            2 
  422000    1.1080245   -7.1993436    156.72338  0.030948535  0.031967343            3 
  423000    1.0973638   -7.2516945    156.70748  0.030872237  0.031948163            3 
  424000    1.1004223   -7.1958972    157.27397  0.030910764  0.031929551            1 
  425000    1.0629318   -7.2059034    157.17836  0.030819287   0.03191078            1 
  426000    1.0758085   -7.1876827    157.86163    0.0308806   0.03189169            1 
  427000    1.0815333   -7.2432532    157.65775  0.030768492  0.031872357            1 
  428000    1.0836766   -7.2372979    158.45621  0.030852065  0.031852597            1 
  429000     1.085118   -7.2094962    158.65414  0.030818598  0.031833414            3 
  430000     1.091072   -7.2095304    159.12997  0.030839142  0.031813927            2 
  431000    1.0937356    -7.230542    159.18552  0.030778329  0.031794598            2 
  432000    1.0848737   -7.2269928    159.09282  0.030689202    0.0317751            1 
  433000    1.0689542   -7.1981766    160.57189  0.030902982   0.03175639            1 
  434000    1.0896564   -7.1751803      160.823  0.030879992  0.031738384            1 
  435000    1.1114771   -7.2137281     160.7734  0.030799501  0.031719569            1 
  436000    1.0938084   -7.2089774    160.40162  0.030657803  0.031700489            2 
  437000    1.0984627   -7.1997939    161.22189  0.030744067  0.031681628            1 
  438000    1.0976915   -7.1929336    161.32627  0.030693734  0.031663221            2 
  439000    1.0780426   -7.2316694    160.91801  0.030546319  0.031644445            4 
  440000    1.0903532   -7.2250724    161.61251   0.03060843  0.031625009            3 
  441000    1.0441873   -7.2253073    162.39947  0.030687731  0.031605572            2 
  442000    1.0852445   -7.2068364    162.71614  0.030678004  0.031586212            2 
  443000    1.0625426   -7.2059889    162.44351   0.03055747  0.031566859            2 
  444000    1.0926354   -7.1849218    163.45056  0.030677658  0.031548019            2 
  445000    1.0824447   -7.2018654    163.02227  0.030528514  0.031529044            1 
  446000     1.064861   -7.1942508    163.26189  0.030504837  0.031510211            1 
  447000     1.064565   -7.2541547    163.91385  0.030558137  0.031491004            2 
  448000    1.0602187   -7.2588508    164.10762  0.030525971  0.031472487            2 
  449000    1.0570601   -7.2282711    164.52689    0.0305358   0.03145464            2 
  450000    1.0696949   -7.2196657     165.4673  0.030642093  0.031437007            2 
  451000    1.0859402   -7.2490471     165.4253  0.030566389  0.031420141            2 
  452000    1.0830411   -7.1989329    166.18811  0.030639401  0.031403695            2 
  453000    1.0686632   -7.2091141    167.09592  0.030738764  0.031387196            3 
  454000    1.0624407   -7.2427566    166.30409  0.030525714  0.031370639            2 
  455000    1.0568696   -7.1969198    166.95728  0.030578256  0.031353042            1 
  456000    1.0669867   -7.2135293    166.97182  0.030513856  0.031336037            2 
  457000    1.0980896   -7.2489904    167.65463  0.030571596  0.031318717            3 
  458000    1.0600102   -7.2361957    167.46286  0.030469953  0.031301649            2 
  459000    1.0753514   -7.2597805    167.79399  0.030463688  0.031283991            3 
  460000    1.0397831   -7.2409283    167.76898  0.030392931  0.031266516            1 
  461000    1.0622898   -7.2446725    168.53612  0.030465677   0.03124905            2 
  462000    1.0423084   -7.2298844    168.61425  0.030413826  0.031232305            4 
  463000    1.0704286   -7.2603266     168.6815  0.030360241  0.031215036            1 
  464000    1.0835987    -7.256897    168.87478  0.030329521  0.031196853            2 
  465000    1.0600292   -7.2700341    169.14701  0.030313085   0.03117892            2 
  466000    1.0785942   -7.2072484    169.61256  0.030331287  0.031160799            1 
  467000    1.0522868   -7.2495033    170.08381   0.03035043  0.031142022            1 
  468000    1.0544168   -7.2358249    170.07975  0.030284855  0.031123446            2 
  469000    1.0643439   -7.2601001    169.78337  0.030167622  0.031104124            1 
  470000    1.0345154   -7.2560569    170.43599  0.030219148   0.03108457            2 
  471000    1.0657003   -7.2400525    171.14352   0.03028017  0.031065976            2 
  472000    1.0603565   -7.2483053    171.06353  0.030201894   0.03104747            3 
  473000     1.067976   -7.2399649    171.13296  0.030150275  0.031029655            2 
  474000    1.0745995    -7.242579    171.61853  0.030172033  0.031011757            2 
  475000    1.0720207   -7.2525407    171.75313  0.030132129  0.030993737            6 
  476000    1.0497771    -7.194076    172.47858  0.030195829  0.030976224            1 
  477000    1.0690357   -7.2147395    173.24074  0.030265678  0.030958738            3 
  478000    1.0613839    -7.281416    172.95881  0.030153209   0.03094133            1 
  479000    1.0851575   -7.2764144    173.22347  0.030136303   0.03092353            1 
  480000     1.056542   -7.2241901    173.47057  0.030116418  0.030905673            2 
  481000    1.0695852   -7.2630466    173.75683  0.030103402  0.030887907            2 
  482000    1.0440445   -7.2529499    173.82495  0.030052723  0.030870127            1 
  483000    1.0714688   -7.2525388    174.04174  0.030027905  0.030851992            1 
  484000    1.0460945   -7.2794534     174.6471  0.030070093  0.030833425            2 
  485000    1.0426859   -7.2348048    174.57264  0.029995299  0.030814975            5 
  486000    1.0632266   -7.2474854    174.66088  0.029948711  0.030796787            3 
  487000    1.0541544   -7.2565739    175.38794  0.030011626  0.030778799            2 
  488000    1.0470149   -7.2737513    175.64618  0.029994224  0.030760967            6 
  489000    1.0600331   -7.2787882    175.43112  0.029896237  0.030742562            3 
  490000    1.0617841   -7.2477453    175.32224  0.029816708  0.030723809            1 
  491000    1.0558343   -7.2115113    176.47449  0.029951543  0.030705055            4 
  492000    1.0827498    -7.245765    175.89553  0.029792602  0.030686087            2 
  493000    1.0532691   -7.3313539    175.71696  0.029701988  0.030666482            2 
  494000    1.0315209   -7.2991111    176.26012  0.029733488  0.030646193            2 
  495000    1.0623838   -7.2973381    176.66116  0.029740937  0.030626381            2 
  496000    1.0309575     -7.28578    176.67554  0.029683391  0.030606666            2 
  497000    1.0819764   -7.2974979    177.00193  0.029678392  0.030587105            4 
  498000    1.0533669   -7.2733341    177.31114  0.029670538  0.030567479            1 
  499000    1.0581046   -7.2958783     177.7887  0.029690832  0.030547807            2 
  500000    1.0552603   -7.2898108    178.30329  0.029717215  0.030528053            4 
  501000      1.06989   -7.2664338     178.3069  0.029658499  0.030508623            2 
  502000    1.0699001   -7.2414141    178.47004    0.0296265  0.030489043            3 
  503000    1.0528384   -7.2796351    178.16852  0.029517648  0.030468747            2 
  504000    1.0652267   -7.2742494    178.14011  0.029454384  0.030448335            1 
  505000    1.0631008   -7.3116801    178.60097  0.029472107  0.030427883            2 
  506000    1.0541978   -7.2759527      179.632  0.029583663  0.030408002            2 
  507000    1.0557276   -7.2941103    179.18888  0.029452478  0.030388084            3 
  508000     1.049042   -7.2633148    179.49496  0.029444711  0.030367724            1 
  509000    1.0514263   -7.3184826    179.44962   0.02937944  0.030347401            2 
  510000    1.0448929   -7.2914783    180.41665  0.029479844  0.030327587            4 
  511000    1.0598426   -7.2753572    180.37771  0.029415805  0.030307547            3 
  512000    1.0514528   -7.2454597    180.44319  0.029369009  0.030287064            2 
  513000    1.0676993   -7.2772954    181.10716  0.029419616  0.030266897            2 
  514000    1.0676974   -7.2669883    180.87058  0.029324024  0.030246453            3 
  515000    1.0543322   -7.3471038    181.10582  0.029305149  0.030225871            2 
  516000    1.0222901   -7.2482784    181.38369  0.029293232  0.030205496            2 
  517000    1.0406571   -7.2961359    182.03335  0.029341288  0.030185166            1 
  518000    1.0631888   -7.3120226    182.02311  0.029282997  0.030164797            2 
  519000    1.0541614    -7.299361     181.6951  0.029173908  0.030144827            2 
  520000    1.0574978   -7.2855829    182.71444   0.02928116  0.030124606            1 
  521000    1.0451564   -7.2782982    183.26562  0.029313118  0.030104377            2 
  522000    1.0393436   -7.3155567    183.03852  0.029220708   0.03008441            2 
  523000    1.0158169   -7.2514115      183.652  0.029262587  0.030064575            2 
  524000    1.0393027   -7.2952502    183.33703  0.029156652  0.030044854            3 
  525000    1.0391254    -7.350854    183.90852  0.029191829  0.030024823            2 
  526000    1.0473719    -7.321213    184.21689  0.029185185  0.030004907            1 
  527000    1.0403316   -7.3499255    184.36982  0.029153988  0.029985243            3 
  528000    1.0640975   -7.3019635    185.01259  0.029200219  0.029966289            1 
  529000    1.0462307   -7.3174097    185.38209  0.029203228  0.029947503            2 
  530000    1.0292185     -7.29283    185.78289  0.029211146  0.029928745            1 
  531000        1.045   -7.2981025    185.88941  0.029172851  0.029910238            1 
  532000     1.056454   -7.3022144    186.60429  0.029229995  0.029892051            2 
  533000    1.0389378   -7.3121065    186.85963  0.029215076  0.029873796            1 
  534000    1.0412726   -7.3366609    186.63481  0.029125282   0.02985583            1 
  535000    1.0393563   -7.3297059    187.36913  0.029185223  0.029837485            3 
  536000    1.0538872   -7.2832742    187.16418  0.029098909  0.029818947            2 
  537000    1.0111958   -7.2603345    187.84633  0.029150579  0.029800824            3 
  538000    1.0509369   -7.3152923     187.4074  0.029028408   0.02978247            2 
  539000     1.021886   -7.2695901    188.36256  0.029122226   0.02976386            1 
  540000    1.0535548   -7.3054708     188.5573  0.029098348  0.029745646            1 
  541000    1.0250071   -7.3299084    188.56926  0.029046405  0.029727539            3 
  542000    1.0219641    -7.285281    189.11086  0.029076086  0.029709725            4 
  543000    1.0244053    -7.306709    189.58654   0.02909554  0.029691815            1 
  544000    1.0023586   -7.2908745    189.93154  0.029094906  0.029674386            2 
  545000    1.0473577   -7.2733049     189.8728  0.029032537  0.029656647            2 
  546000    1.0336507   -7.3502457    189.23512  0.028882039  0.029638164            1 
  547000     1.030635   -7.2922291    189.86663  0.028925446  0.029619812            1 
  548000    1.0514676   -7.3252308    190.04529  0.028899831  0.029601252            2 
  549000    1.0181782   -7.3164831    189.97894  0.028837119  0.029582661            2 
  550000    1.0403226   -7.3128449    190.67191  0.028889684  0.029564234            3 
  551000    1.0325059   -7.3032208    191.03722  0.028892502  0.029545541            3 
  552000    1.0430075   -7.3006703    190.73255  0.028794165  0.029526965            2 
  553000    1.0480706   -7.3386045    191.39031  0.028841216   0.02950855            1 
  554000    1.0235909   -7.2834846    191.33405  0.028780693   0.02948993            2 
  555000    1.0208116   -7.3040115    192.06072  0.028837945  0.029471401            1 
  556000    1.0493406    -7.324261    192.04047  0.028783044  0.029453208            1 
  557000    1.0111027   -7.3371629    192.12394  0.028743858  0.029435254            2 
  558000    1.0354423   -7.3290348    192.28365  0.028716197  0.029416664            2 
  559000    1.0312898   -7.3508615    192.92528  0.028760477  0.029398166            3 
  560000    1.0189257   -7.3169878     193.1207  0.028738199  0.029379846            2 
  561000    1.0461298   -7.3419071    193.10737  0.028684993   0.02936149            3 
  562000      1.04399   -7.3119738    193.46913  0.028687593  0.029343454            1 
  563000    1.0126453   -7.3420858     193.7673  0.028680773  0.029325117            4 
  564000    1.0330215   -7.3306985    193.80605  0.028635646  0.029306433            1 
  565000    1.0234733   -7.3235564      194.187  0.028641151  0.029287794            4 
  566000    1.0400336    -7.317644    194.20659  0.028593432  0.029269145            1 
  567000    1.0403917   -7.3038434    194.57087  0.028596542  0.029250663            3 
  568000    1.0082175   -7.3292917    194.61664  0.028552911  0.029232341            2 
  569000    1.0338413   -7.3224867    195.38818  0.028615727  0.029213869            2 
  570000    1.0329978   -7.3205246    195.59451  0.028595688  0.029195706            3 
  571000    1.0213454   -7.3170905    195.86623  0.028585264  0.029177722            2 
  572000    1.0207339   -7.3443795     195.9945  0.028553977  0.029159582            2 
  573000     1.013257   -7.3124722    195.97967  0.028501988  0.029141505            1 
  574000    1.0270991   -7.3276927    196.51901  0.028530634  0.029123254            3 
  575000    1.0279658   -7.3742682    196.26921  0.028444813  0.029105138            4 
  576000    1.0224607   -7.3283062    196.82007  0.028475126  0.029086637            1 
  577000    1.0374549   -7.3707731    197.52894  0.028528154  0.029069017            5 
  578000    1.0437519   -7.3631835    197.32012  0.028448691  0.029051258            1 
  579000    1.0401473   -7.3462567    197.98016  0.028494554  0.029033782            1 
  580000    1.0311991   -7.3306853     197.9897  0.028446796  0.029016296            2 
  581000    1.0179277   -7.3256057    198.32025  0.028445246  0.028998809            1 
  582000    1.0300979   -7.3319076    198.89194  0.028478227  0.028981251            1 
  583000    1.0057404   -7.3547204    198.51481  0.028375474  0.028963818            2 
  584000    1.0378416    -7.354014     198.7813  0.028364912  0.028946303            2 
  585000    1.0046876   -7.3278859    199.48603  0.028416814  0.028928759            2 
  586000    1.0283569    -7.380822    199.92529  0.028430787  0.028911581            3 
  587000    1.0209747   -7.3514035    200.24764  0.028428115  0.028894735            1 
  588000   0.99361155   -7.3865379    200.93058  0.028476556  0.028878227            2 
  589000    1.0229511   -7.3693383    200.64227  0.028387417  0.028861352            2 
  590000    1.0033611   -7.3395164    201.21109  0.028419646  0.028845166            1 
  591000   0.99746526   -7.3857443    201.06879  0.028351493  0.028828385            3 
  592000    1.0319396   -7.3534557    201.65997   0.02838682  0.028811821            2 
  593000     1.005232   -7.3941259    201.45489   0.02831013  0.028795174            1 
  594000    1.0210311   -7.3400418    201.73469  0.028301724  0.028778269            2 
  595000    1.0189568   -7.3641145    201.52288  0.028224493  0.028761198            3 
  596000   0.99673985    -7.357594    201.48733  0.028172166  0.028743509            2 
  597000    1.0041057   -7.3617353    202.22292  0.028227654  0.028725802            1 
  598000    1.0117152   -7.3992408    202.17108  0.028173228  0.028708063            1 
  599000    1.0262165   -7.3351337    202.43318  0.028162657  0.028690668            3 
  600000   0.99942039   -7.3435678    202.43474  0.028115935  0.028672904            2 
  601000     1.023868   -7.3557317    202.73312  0.028110527  0.028655108            1 
  602000    1.0044707   -7.3544244    203.31461  0.028144325  0.028637338            1 
  603000    1.0088853   -7.3330175    203.44655  0.028115886  0.028619571            2 
  604000    1.0012604   -7.3416514    204.21468  0.028175314   0.02860215            1 
  605000    1.0171973   -7.3599857    204.21312  0.028128529  0.028584871            2 
  606000    1.0280124   -7.3967161     204.2991  0.028093936   0.02856744            1 
  607000    1.0149692   -7.3756342    204.01784  0.028009038  0.028550095            3 
  608000    1.0172182   -7.3759473    204.44788  0.028021913  0.028532744            1 
  609000    1.0153166   -7.3784737    204.73913  0.028015753  0.028515138            1 
  610000    1.0037051   -7.3486925    204.79529  0.027977499  0.028497418            5 
  611000    1.0197845   -7.3602589    204.93086  0.027950199  0.028479664            1 
  612000    1.0141048   -7.3611648    205.20633  0.027942039  0.028462242            2 
  613000   0.98596751   -7.3561285    205.19188  0.027894492   0.02844442            3 
  614000   0.98810054   -7.4351925     204.4644  0.027750326   0.02842619            3 
  615000    1.0017053   -7.3629966    205.60213  0.027859367  0.028407765            1 
  616000    1.0222242   -7.3949413    205.14516  0.027752321  0.028389411            1 
  617000    1.0126355   -7.3715807    206.21029  0.027851201  0.028371275            2 
  618000    1.0042064   -7.3945407    206.06893  0.027787072   0.02835305            1 
  619000    1.0151146   -7.3502184    206.11386  0.027748231  0.028334526            1 
  620000    1.0176124   -7.3644413    206.67542  0.027778955  0.028316481            4 
  621000   0.99315911   -7.4007701    206.39259  0.027696268  0.028298206            1 
  622000     1.003002   -7.3793345    206.97406  0.027729644  0.028280139            2 
  623000    1.0120551   -7.3778421    207.35144  0.027735613  0.028262109            2 
  624000    1.0025878   -7.4092112     207.2526  0.027677964  0.028244409            1 
  625000    1.0016314   -7.3759883    208.11977  0.027749303  0.028226897            3 
  626000    1.0378882   -7.3451889     208.4193  0.027744848  0.028209228            1 
  627000   0.97747453   -7.3674176    207.52779   0.02758211   0.02819152            3 
  628000    1.0088054   -7.3999878     208.2701   0.02763669  0.028173574            1 
  629000    1.0094302   -7.4058606     208.7764  0.027659831  0.028156053            3 
  630000   0.98337415   -7.3844327    208.71807   0.02760821  0.028138228            1 
  631000   0.99802079   -7.3723984    209.20458  0.027628709  0.028120744            2 
  632000   0.99804852   -7.3971616    209.66722  0.027645994  0.028103194            2 
  633000    0.9941526    -7.401463    210.14231  0.027664865  0.028085728            3 
  634000   0.99652937   -7.3647066    210.03853  0.027607588  0.028068568            4 
  635000     1.014497   -7.3664322    210.92106   0.02767993  0.028051883            1 
  636000   0.99940406   -7.3780469    210.60936  0.027595566  0.028035021            1 
  637000    1.0065276   -7.3580538    210.70956  0.027565353  0.028018103            1 
  638000   0.99968357    -7.359423    211.01369  0.027561872  0.028001253            2 
  639000    1.0019124   -7.4062583    211.06888  0.027525936  0.027984487            2 
  640000   0.97711922     -7.40643    211.23351  0.027504363  0.027967555            1 
  641000   0.99971487   -7.4402286     211.5722  0.027505486  0.027950623            5 
  642000    1.0054787   -7.4024902    212.28188  0.027554761  0.027933831            2 
  643000    1.0003328   -7.4097503    212.21685   0.02750348  0.027917081            1 
  644000   0.99083659   -7.4254444     212.9196  0.027551708  0.027900344            2 
  645000    1.0139678   -7.4233284    212.18721  0.027414368    0.0278837            3 
  646000   0.98985537   -7.4295559    212.40572  0.027400119  0.027866836            2 
  647000   0.98571398   -7.4140621    213.02381  0.027437379  0.027849951            3 
  648000    1.0062579   -7.4179359    212.39914  0.027314705  0.027832788            1 
  649000   0.99805808   -7.4231624    213.15512  0.027369687  0.027815166            8 
  650000   0.99471576   -7.3692459    214.11582  0.027450747  0.027797814            1 
  651000   0.98593898   -7.4453239    213.56865  0.027338537  0.027780829            2 
  652000   0.99929001   -7.4134926    213.90811  0.027339993  0.027763665            2 
  653000   0.99818118   -7.4254108    214.54121  0.027378919  0.027746744            2 
  654000   0.99099824    -7.422315    214.79888  0.027369887  0.027730323            3 
  655000   0.98340108   -7.4102506    214.60566   0.02730352  0.027713947            2 
  656000   0.97598012    -7.422968    214.78729  0.027284971  0.027697408            3 
  657000   0.98126356   -7.4437735    214.93881  0.027262659  0.027680415            1 
  658000    0.9857674   -7.4195218    215.15817  0.027249009  0.027663546            3 
  659000    1.0016857   -7.4092078    215.24064  0.027218088  0.027646563            2 
  660000   0.97526656   -7.4347189     215.9299  0.027263876  0.027629519            1 
  661000   0.99765892   -7.4344965    215.62063   0.02718364  0.027612498            1 
  662000   0.98218353   -7.4030309    216.26055   0.02722313  0.027595379            3 
  663000   0.98326832   -7.4371331    215.96936  0.027145469  0.027578166            1 
  664000    1.0028759   -7.4364838    216.23227  0.027137584  0.027560904            1 
  665000   0.98911014   -7.4330095    216.46472  0.027125904  0.027543576            1 
  666000   0.99715209   -7.4206926    216.83561  0.027131583   0.02752652            2 
  667000   0.97730636    -7.429049     216.5902  0.027060245  0.027509156            3 
  668000     1.002337   -7.4107032     216.4777  0.027005701  0.027491961            2 
  669000   0.97600473   -7.4119583    217.26219  0.027063053  0.027474664            3 
  670000   0.97846071   -7.4444925    216.66787   0.02694874  0.027457107            1 
  671000   0.97309005   -7.4124049    217.16779  0.026970665  0.027439488            2 
  672000   0.99351036   -7.4127518     217.5042  0.026972247  0.027421707            1 
  673000   0.97717629   -7.4144433    217.44453  0.026924781  0.027403913            1 
  674000   0.96806785   -7.4745043     217.2336  0.026858754  0.027385834            1 
  675000    1.0046177   -7.4342418    216.86365   0.02677329  0.027367329            1 
  676000    1.0021312   -7.4017178    217.54698  0.026817921  0.027348964            2 
  677000   0.98810783     -7.39846    218.27793  0.026868283  0.027330818            1 
  678000    0.9754991   -7.4139184    217.47743  0.026730265  0.027312582            2 
  679000   0.97795986   -7.4522213    218.29285  0.026790974  0.027294047            3 
  680000   0.97787094   -7.4428955    218.16389  0.026735771  0.027275983            4 
  681000    0.9646486   -7.4339151    218.10261  0.026689013  0.027257684            2 
  682000   0.96195537   -7.4106111    218.90226  0.026747588  0.027239393            2 
  683000   0.99901799   -7.4212283    219.02627  0.026723556  0.027220946            4 
  684000   0.98519877   -7.4258682    218.85923  0.026664136   0.02720261            2 
  685000    0.9822697    -7.443002    219.44423  0.026696379  0.027184149            3 
  686000   0.98852018   -7.4142816    219.33225  0.026643859   0.02716589            2 
  687000   0.97690593   -7.4293781    219.17059  0.026585467  0.027147728            1 
  688000   0.96897032   -7.4741364    219.71253  0.026612467  0.027129381            2 
  689000   0.99034981   -7.4428201    220.16687  0.026628794    0.0271112            3 
  690000   0.97120488   -7.4130692    219.98818  0.026568621  0.027093112            2 
  691000   0.96023977   -7.4384706    220.25425  0.026562259  0.027074948            2 
  692000   0.97857712   -7.4358626    220.41021  0.026542656  0.027056797            2 
  693000   0.97141221   -7.4557165    220.78279  0.026549158  0.027038379            4 
  694000   0.99693166   -7.4282567    220.93242  0.026528869  0.027020435            2 
  695000    1.0040428   -7.4325832    221.50581   0.02655945  0.027002392            2 
  696000   0.96494062   -7.4441862    221.90782  0.026569423  0.026984315            2 
  697000   0.97741134   -7.4560866    221.26102  0.026453972   0.02696631            2 
  698000   0.97920975     -7.44381    221.42236  0.026435335  0.026947994            2 
  699000   0.98143515   -7.4436439    221.92161  0.026457036  0.026929887            1 
  700000   0.98883325   -7.4302776    222.53485  0.026492244  0.026911783            1 
  701000   0.99273009   -7.4441311    222.22961  0.026418166  0.026893823            2 
  702000    0.9654817   -7.4684472    222.08802  0.026363725  0.026875619            2 
  703000    0.9674442   -7.4423086    222.72111  0.026401269  0.026857615            3 
  704000   0.98332263   -7.4426569    222.58886  0.026348113  0.026839654            3 
  705000   0.99256897   -7.4678196    223.22078  0.026385435  0.026821567            2 
  706000   0.95255854   -7.4717733     223.5974  0.026392516   0.02680359            1 
  707000   0.97988173   -7.4317425    223.71732  0.026369321  0.026785932            1 
  708000   0.96715807   -7.4579501    224.14883  0.026382866  0.026768009            1 
  709000   0.96831001   -7.4417758    223.91208  0.026317828  0.026750267            3 
  710000    0.9833536   -7.4468128    223.98859  0.026289741  0.026732625            1 
  711000   0.97177385   -7.4694568    224.58295  0.026322428  0.026714891            1 
  712000   0.97768187   -7.4634746    224.48009  0.026273419  0.026697572            2 
  713000   0.97945804   -7.4778241    224.50625  0.026239628  0.026679934            4 
  714000    0.9746208   -7.4608564    225.08254  0.026270137  0.026662266            3 
  715000   0.95606671   -7.4388865    225.04037  0.026228481  0.026644807            2 
  716000   0.94899944   -7.4816227    225.43877  0.026238218  0.026627607            1 
  717000   0.96263748   -7.4758235    225.27019   0.02618203  0.026609863            3 
  718000   0.97878007   -7.4332785    225.63892  0.026188361  0.026592191            1 
  719000   0.93282136    -7.471227    225.34556  0.026117937  0.026574588            1 
  720000   0.97735428    -7.443384    225.89934  0.026145756  0.026556862            2 
  721000   0.96304646   -7.4836625    225.96057   0.02611657  0.026539212            2 
  722000   0.95980847   -7.4783981    225.98858  0.026083631  0.026521688            2 
  723000   0.97420511   -7.4873157    226.32016  0.026085772  0.026504197            2 
  724000   0.95523058   -7.4717672    227.13308  0.026143311  0.026486626            2 
  725000   0.94201608   -7.4636781    227.60752  0.026161784  0.026469373            1 
  726000   0.97147912   -7.4440531    227.60413  0.026125359  0.026452092            2 
  727000   0.96686233   -7.4724369    227.25495  0.026049398   0.02643506            1 
  728000   0.96309166    -7.460624    227.98935  0.026097682  0.026417929            4 
  729000   0.95063197   -7.5129427    227.90527  0.026052271  0.026400897            2 
  730000   0.96293485   -7.4868598    228.40408  0.026073525  0.026383653            2 
  731000   0.94688555   -7.4633993    227.95833  0.025987042  0.026366295            2 
  732000   0.96076712   -7.4965041    228.10291  0.025967999  0.026349083            8 
  733000   0.95030702   -7.4941251     228.5187  0.025979844  0.026331751            6 
  734000   0.98088762   -7.4566371    229.30988  0.026034274  0.026314656            2 
  735000   0.96650018    -7.498084     229.2671  0.025994002   0.02629767            1 
  736000   0.98641138   -7.5361597    228.97377  0.025925472  0.026280493            2 
  737000   0.96340823   -7.4038783    230.06012   0.02601313  0.026263513            2 
  738000   0.97922924   -7.5488595    229.24389  0.025885715  0.026246643            4 
  739000   0.96507066   -7.4714082    230.28693  0.025968305  0.026229807            2 
  740000   0.96076221   -7.4923055    230.04538  0.025906011     0.026213            3 
  741000   0.96931525   -7.4770792    230.95444  0.025973284  0.026196495            2 
  742000   0.94496694   -7.5121776    230.83707  0.025925098  0.026179927            2 
  743000   0.97414021   -7.4757635    231.14209  0.025924416  0.026163286            1 
  744000   0.96637062   -7.4920003    230.69501  0.025839495  0.026146714            1 
  745000   0.94977922   -7.5178862     231.3641  0.025879653  0.026130018            1 
  746000   0.95963513   -7.4746435    231.50472  0.025860671  0.026113737            2 
  747000   0.95561467   -7.4891967    231.86457  0.025866195  0.026097579            2 
  748000   0.96298156    -7.488751    231.74858  0.025818692  0.026081225            3 
  749000   0.93762654   -7.5231543    231.72183  0.025781245  0.026064889            2 
  750000   0.97018056   -7.5061833    231.76278   0.02575142  0.026048604            3 
  751000   0.95645913   -7.5249554    232.32382  0.025779385  0.026032161            3 
  752000   0.97865839   -7.5104731    232.25276  0.025737229  0.026015681            4 
  753000    0.9565709    -7.540571    231.26676   0.02559393  0.025998853            4 
  754000    0.9406358   -7.5198925    232.37508   0.02568248  0.025981874            2 
  755000   0.94086193    -7.532341    232.31591  0.025641933  0.025965011            1 
  756000   0.93588436   -7.5153582    233.01078  0.025684609  0.025948311            2 
  757000   0.95225014   -7.5014828    233.80786  0.025738425  0.025931614            3 
  758000   0.95763386   -7.5059118    232.67045  0.025579424  0.025914929            1 
  759000   0.95924687   -7.5079399    233.02515  0.025584667  0.025898188            3 
  760000   0.94305947    -7.523979    233.44229  0.025596743  0.025881422            3 
  761000   0.95090077   -7.5185882    233.20048  0.025536627  0.025864319            1 
  762000   0.94709122   -7.5016634    232.92753  0.025473264  0.025847096            2 
  763000   0.95620086   -7.4934835    233.50249  0.025502674   0.02582996            6 
  764000   0.92749502   -7.4941966    233.39361  0.025457418  0.025812876            3 
  765000   0.95423008   -7.5197703    233.88792  0.025477987  0.025795783            3 
  766000   0.93350428   -7.5400522    234.10199  0.025468015  0.025778675            2 
  767000   0.96713067   -7.5225783    234.42681  0.025470102  0.025761558            1 
  768000   0.92640107   -7.5454354    234.23674  0.025416313  0.025744511            2 
  769000   0.92965909   -7.5205763    235.81374  0.025554154  0.025727625            1 
  770000    0.9580636   -7.4951219    235.20693  0.025455296  0.025710921            2 
  771000   0.94460548   -7.5250849    235.10011  0.025410734  0.025694377            1 
  772000   0.95743597   -7.5058377    235.26388  0.025395496  0.025677542            4 
  773000   0.95489073   -7.5265469    235.66186  0.025405548  0.025660881            2 
  774000   0.94089698   -7.5169474    235.92753  0.025401328  0.025644232            3 
  775000   0.94841499   -7.5585823    235.48021  0.025320452  0.025627686            2 
  776000    0.9457459   -7.5574765    235.74931  0.025316721  0.025611028            3 
  777000    0.9481002   -7.5540835    235.65837  0.025274385  0.025594268            1 
  778000   0.93896017   -7.5417354    236.69962   0.02535343  0.025577562            4 
  779000   0.94998937   -7.5387959    237.16015  0.025370149  0.025561119            4 
  780000   0.93112464   -7.5397507    236.71597  0.025290168  0.025544669            4 
  781000   0.95054793   -7.5374162    236.86163  0.025273328  0.025528143            1 
  782000   0.93420832   -7.5001895    237.27782  0.025285361  0.025511662            1 
  783000   0.95177585   -7.5357309    237.15833   0.02524035  0.025495122            2 
  784000   0.93622243   -7.5230614    236.91705  0.025182509   0.02547849            3 
  785000   0.95451754   -7.5665094    236.78357   0.02513626  0.025461693            2 
  786000   0.95183767   -7.5426484    237.72195  0.025203769  0.025444961            2 
  787000   0.95894371   -7.5434126    238.30998  0.025234009  0.025428559            2 
  788000   0.93405593   -7.5536597    237.51092  0.025117483  0.025412317            1 
  789000   0.92856508   -7.5346179    238.47131  0.025187083  0.025396025            2 
  790000   0.96127186   -7.5303135    239.41302  0.025254538  0.025380111            3 
  791000   0.95456942   -7.5092432    239.45674  0.025227217  0.025364227            1 
  792000   0.95320686    -7.531221    239.87083  0.025238934  0.025348363            2 
  793000   0.94228411   -7.5612456    239.55151  0.025173551  0.025332469            3 
  794000   0.94485376   -7.5437497    239.18503  0.025103383  0.025316428            3 
  795000   0.94415715   -7.5648052    239.54874  0.025109931  0.025300245            5 
  796000   0.93137197   -7.5217634      240.346  0.025161851   0.02528443            3 
  797000   0.91780186   -7.5531827    240.16738  0.025111604  0.025268437            2 
  798000   0.92445301   -7.5431226    240.44302  0.025108921  0.025252539            1 
  799000   0.97094238    -7.560131    240.01985  0.025033359   0.02523666            3 
  800000   0.94645962   -7.5655326    240.55807  0.025058133  0.025220601            1 
  801000   0.93042202   -7.5505972    240.25893  0.024995727  0.025204373            2 
  802000   0.91847275    -7.534055    241.22109  0.025064536  0.025188405            3 
  803000   0.93621237   -7.5452218    240.89201  0.024999171  0.025172652            2 
  804000   0.92294756   -7.5325141     241.1889  0.024998849  0.025156785       -1e+20 
  805000   0.94140803   -7.5820368    241.14691  0.024963449  0.025141041            1 
  806000   0.91264541   -7.5654571     241.1661  0.024934461   0.02512525            2 
  807000   0.93325261   -7.5238296    241.32056  0.024919512  0.025109364            2 
  808000   0.95355482   -7.5608983    241.16288  0.024872409  0.025093465            3 
  809000   0.92975171   -7.5392917    241.56516  0.024883102  0.025077507            4 
  810000   0.93122914   -7.5486693    241.73291  0.024869641  0.025061587            3 
  811000   0.94078469   -7.5830892    242.05039  0.024871598  0.025045472            1 
  812000   0.92839737   -7.5497301    242.37252  0.024874027  0.025029379            1 
  813000   0.93054029   -7.5578687    242.53205  0.024859784   0.02501326            3 
  814000   0.92587727   -7.5788068    242.22459  0.024797767  0.024996957            2 
  815000   0.92692131   -7.5618082    242.26107  0.024771071  0.024980553            1 
  816000   0.92928629   -7.5720947    242.40108  0.024755012  0.024964455            1 
  817000   0.93229547   -7.5674299    243.10188  0.024796193  0.024948414            2 
  818000   0.92596159   -7.5785606    243.21061  0.024776957  0.024932508            1 
  819000   0.94344384   -7.5862136    243.21883   0.02474754  0.024916501            1 
  820000   0.92552757   -7.5833753    243.68222  0.024764454  0.024900565            1 
  821000   0.92821937   -7.5529541      244.292  0.024796184   0.02488469            1 
  822000   0.91544881   -7.5769555     244.1488  0.024751501  0.024868879            1 
  823000   0.92177429   -7.5564146    244.64495  0.024771664  0.024853293            2 
  824000   0.92186622   -7.5914737    244.17157  0.024693727  0.024837515            3 
  825000   0.94126868   -7.6000413    244.12288  0.024658877  0.024821824            2 
  826000   0.93690912   -7.5749452    245.43976  0.024761881  0.024806373            2 
  827000   0.92033353   -7.5746302    245.17383  0.024705142  0.024790967            2 
  828000   0.94018039   -7.5465551    246.26942   0.02478557  0.024775729            2 
  829000    0.9282389   -7.5576902    245.66859  0.024695275  0.024760423            3 
  830000   0.92044671   -7.5780849    245.76894  0.024675596  0.024744989            1 
  831000   0.89757865   -7.6012301    244.89109  0.024557871  0.024729363            6 
  832000   0.92707712   -7.5720297    246.29944  0.024669415  0.024713868            2 
  833000   0.91495052   -7.6046167    246.08958  0.024618806   0.02469847            2 
  834000   0.94520471   -7.5633558    246.13772  0.024594096  0.024683133            1 
  835000   0.90422227   -7.5733448    246.86905   0.02463763  0.024667859            1 
  836000   0.93996899    -7.575968     247.2321  0.024644348  0.024652751            2 
  837000   0.93485478      -7.5915    247.39447   0.02463107  0.024637703            4 
  838000   0.92394575   -7.5763035    248.07364  0.024669216  0.024622606            1 
  839000   0.91635501   -7.5685095    247.89512  0.024622082  0.024607655            5 
  840000   0.94732365   -7.5850738    247.55952  0.024559476  0.024592674            1 
  841000   0.91887019   -7.5978453    247.94086   0.02456806  0.024577678            2 
  842000   0.91531824    -7.579426    247.76313  0.024521291  0.024562667            1 
  843000   0.91803127   -7.5675096    248.58539  0.024573487  0.024547917            2 
  844000   0.93828313   -7.6174261    248.24153  0.024510419  0.024533105            2 
  845000   0.92906712   -7.5785337    249.32407  0.024588172  0.024518425            3 
  846000    0.9250517   -7.5912914    248.62289   0.02449004  0.024503793            1 
  847000   0.90359279   -7.5974449    249.19082  0.024517004  0.024488951            4 
  848000   0.91288455   -7.5841899    249.78196  0.024546183  0.024474233            3 
  849000   0.92533233   -7.5635613     249.8362  0.024522596  0.024459525            2 
  850000   0.92167737   -7.5869103    249.97164  0.024507024  0.024444862            1 
  851000   0.93300193    -7.604097    250.08535  0.024489361  0.024430288            4 
  852000   0.89818081   -7.6009308    248.89518  0.024344207  0.024415547            2 
  853000   0.90741004   -7.6279761    249.38161  0.024363189  0.024400822            1 
  854000   0.89688289   -7.6070886    249.89806  0.024385056  0.024386243            5 
  855000   0.92650274   -7.5982708     250.4529  0.024410614   0.02437178            1 
  856000    0.9113001   -7.6042923    250.72064  0.024408162  0.024357172            2 
  857000   0.91682827   -7.5966067    250.98793  0.024405672  0.024342392            3 
  858000   0.91058512    -7.601887    250.79821    0.0243588  0.024327703            4 
  859000   0.93353679    -7.621022    250.38018   0.02428989  0.024312968            5 
  860000   0.89926251   -7.6096615    250.86534  0.024308657  0.024298247            2 
  861000    0.9028276   -7.6367264    250.64247  0.024258853  0.024283326            1 
  862000   0.91158555   -7.6228988    251.12183  0.024277053  0.024268449            1 
  863000   0.92313474   -7.6410509    251.63251  0.024298234  0.024253484            2 
  864000    0.9208769   -7.5834855    251.63061  0.024269928  0.024238686            2 
  865000   0.91604156    -7.590198    251.62344  0.024241179  0.024223922            3 
  866000   0.89565771   -7.5924436    251.88373  0.024238234    0.0242091            2 
  867000    0.9109465   -7.5947078    252.44225  0.024263961  0.024194606            2 
  868000   0.90360826   -7.6385941    252.08981  0.024202171  0.024179971            3 
  869000   0.94034512   -7.6130662    252.10964  0.024176222  0.024165189            3 
  870000   0.91065619   -7.6244579    252.33001  0.024169542  0.024150523            1 
  871000   0.91376927   -7.6240091    252.09633  0.024119435  0.024135736            3 
  872000    0.9182049   -7.6125401    252.10177  0.024092294  0.024120906            2 
  873000    0.9085066    -7.639861    252.67597  0.024119508  0.024106027            3 
  874000    0.8763119   -7.6449873    253.13821  0.024135985  0.024091166            2 
  875000   0.92105813   -7.6603686    253.03693  0.024098755  0.024076215            2 
  876000   0.89091964   -7.6348001    253.24301   0.02409085  0.024061415            3 
  877000    0.9207688   -7.5787822    254.22764   0.02415694  0.024046681            1 
  878000     0.891302   -7.6184458     252.9597  0.024009083  0.024031889            2 
  879000   0.91265294   -7.6771031    252.75067  0.023961952  0.024017019            2 
  880000    0.9151908   -7.6478694    252.62151  0.023922491  0.024001958            4 
  881000   0.89368942   -7.6051463     253.7359  0.024000748  0.023986933            1 
  882000   0.90314281   -7.6329135    252.73759  0.023879213  0.023971927            2 
  883000   0.91434853   -7.6072884    253.97561  0.023969008  0.023956943            1 
  884000   0.89152091   -7.6265789    253.51286  0.023898271  0.023941873            2 
  885000   0.89917978   -7.6421464    253.77386  0.023895844  0.023926713            6 
  886000   0.89822086   -7.6632118    253.55061  0.023847875  0.023911441            4 
  887000   0.88396698    -7.649637    253.63283  0.023828713  0.023896225            2 
  888000   0.90795893   -7.6264585    253.75717  0.023813548  0.023880931            2 
  889000   0.91731701   -7.6301107    253.80819  0.023791544  0.023865738            2 
  890000   0.89999104   -7.6366129    254.33547  0.023814182  0.023850508            2 
  891000   0.89796393   -7.6604558    254.27556  0.023781852  0.023835154            2 
  892000   0.89241249   -7.6441148    253.56001  0.023688342    0.0238197            2 
  893000   0.89332819   -7.6849172    253.77255  0.023681649  0.023804161            1 
  894000   0.87951122   -7.6125714    254.98874  0.023768525  0.023788544            3 
  895000   0.86953828   -7.6419738     254.1791  0.023666583   0.02377303            3 
  896000   0.88428461    -7.640542    255.09726  0.023725564  0.023757696            4 
  897000   0.88031339    -7.617862    254.78954  0.023670526  0.023742403            2 
  898000    0.8909713   -7.6550989    255.21579  0.023683723  0.023726971            3 
  899000    0.8923745   -7.6604011    254.74422  0.023613665  0.023711354            2 
  900000   0.86891834   -7.6435771    254.78849  0.023591527   0.02369562            3 
  901000   0.89684804   -7.6559086     255.4176   0.02362353  0.023680034            3 
  902000   0.90152557   -7.6596808    255.02483  0.023561052  0.023664566            5 
  903000   0.90103782    -7.654821    255.50892  0.023579634  0.023648831            2 
  904000   0.90807216   -7.6424225    255.66188  0.023567652   0.02363317            3 
  905000   0.89490748   -7.6862442    255.04655  0.023484949  0.023617589            3 
  906000   0.89072257   -7.7052768    254.89462  0.023445053  0.023601705            1 
  907000   0.88521429    -7.668756    255.39737  0.023465396  0.023585923            1 
  908000    0.8906125   -7.6739619    255.36444  0.023436531  0.023570089            1 
  909000   0.90069131   -7.6577744    256.11694  0.023479734  0.023554485            6 
  910000   0.88355018   -7.6752763     255.5714  0.023403975  0.023538992            7 
  911000   0.88102225   -7.6893164    256.02843  0.023420091  0.023523327            4 
  912000   0.89966998   -7.6169306    257.04404  0.023487211  0.023507669            1 
  913000   0.89166891   -7.6659494    255.56936  0.023326886  0.023492049            3 
  914000   0.88592062   -7.6416729    257.29637  0.023458823  0.023476348            2 
  915000   0.87965334   -7.6784343     256.1365   0.02332755  0.023460625            1 
  916000   0.87249651    -7.658891    256.86951  0.023368769  0.023444676            2 
  917000   0.88417567   -7.6700092    256.41726  0.023302186  0.023428744            3 
  918000   0.87275516   -7.6440015    256.40771  0.023275936  0.023412827            3 
  919000   0.88774935   -7.6380589    257.53716  0.023353025  0.023396935            2 
  920000   0.88105527   -7.6448936    256.76125  0.023257359  0.023380937            2 
  921000   0.87444763   -7.6479524    256.94673   0.02324889  0.023365041            2 
  922000    0.8769061   -7.6407309    256.67681  0.023199278  0.023349197            3 
  923000   0.87851521   -7.6665297    257.04361   0.02320726  0.023333365            2 
  924000    0.8993767   -7.6916936    257.37045  0.023211621  0.023317552            1 
  925000   0.87618792   -7.6937985    257.09278  0.023161511  0.023301586            3 
  926000   0.86438271   -7.6552733    257.34431  0.023159135   0.02328548            2 
  927000   0.88191299   -7.6836169    256.70272  0.023076476  0.023269556            2 
  928000   0.86930982   -7.6454443    257.66314  0.023137853  0.023253633            2 
  929000   0.86843769   -7.6554367    257.87246  0.023131724  0.023237722            4 
  930000   0.86693899    -7.680564    257.64442  0.023086418  0.023221858            2 
  931000   0.86157423   -7.7064221    257.59978  0.023057625  0.023205948            2 
  932000   0.88993719   -7.6634719     258.0022  0.023068867  0.023190164            2 
  933000   0.88516301   -7.6746932    257.99653  0.023043634  0.023174304            1 
  934000    0.8589798    -7.681525    257.70109  0.022992603   0.02315824            3 
  935000   0.87990915   -7.6661451    258.50759  0.023039892  0.023142348            3 
  936000   0.87371365   -7.6887966    258.01786  0.022971675  0.023126437            2 
  937000   0.87304163   -7.6478503    258.73175   0.02301065  0.023110449            3 
  938000   0.87161674   -7.6600728    258.65404  0.022979215  0.023094525            4 
  939000   0.86941491   -7.6580601    259.17855  0.023001291  0.023078665            4 
  940000   0.87418858   -7.6885482    259.23924  0.022982202  0.023062901            2 
  941000   0.89480567   -7.6853316    258.71346  0.022911217   0.02304706            1 
  942000   0.85979294    -7.658935    259.40723  0.022948269  0.023031315            3 
  943000   0.87013892   -7.7014142    258.91174  0.022880147  0.023015453            3 
  944000   0.89211405   -7.7146767    258.61166  0.022829419  0.022999527            2 
  945000   0.89577745   -7.6715356    259.08888  0.022847344  0.022983539            2 
  946000   0.88120663   -7.6887102    258.37543  0.022760345  0.022967495            2 
  947000   0.86921458   -7.6852626    259.44858  0.022830745  0.022951353            4 
  948000   0.87488369   -7.6668164    259.45865  0.022807547   0.02293522            4 
  949000   0.86246707   -7.6958171    259.35506  0.022774417   0.02291903            2 
  950000   0.88017071   -7.7397638    259.19105  0.022736057  0.022902878            2 
  951000    0.8889264   -7.7142704    259.10593   0.02270469  0.022886691            2 
  952000   0.89122191   -7.7119734    259.42553  0.022708817  0.022870727            2 
  953000   0.86371895   -7.7032492    259.11649  0.022657966  0.022854586            2 
  954000    0.8668864   -7.6939805    259.53009  0.022670344   0.02283821            3 
  955000   0.89225338   -7.6571325    259.97232  0.022685194  0.022821958            2 
  956000   0.87008135   -7.7176348    260.00727  0.022664511  0.022805787            4 
  957000   0.88067718   -7.6898143    259.96491   0.02263714  0.022789661            1 
  958000   0.87147541   -7.7669952    259.84087   0.02260272  0.022773563            2 
  959000   0.87549872   -7.7214595    260.34072  0.022622586  0.022757439            2 
  960000   0.87621081   -7.6985091    260.58282  0.022620036  0.022741388            2 
  961000   0.86604626    -7.675373    260.21726  0.022564799  0.022725206            1 
  962000    0.8665604   -7.7212023    260.47376  0.022563562   0.02270913            2 
  963000   0.86380107   -7.7091081    260.71968  0.022561413  0.022693134            2 
  964000   0.87681304   -7.7005897    260.72652    0.0225386  0.022677091            5 
  965000   0.86895696   -7.7033105    261.02903  0.022541367  0.022661083            2 
  966000   0.87058297   -7.6839923    261.41236  0.022551101  0.022645141            2 
  967000   0.84197584   -7.6951681    261.22741  0.022511842  0.022629261            2 
  968000   0.87120962   -7.7218325     260.9059  0.022460907   0.02261323            2 
  969000   0.87148169   -7.6996821     261.4615  0.022485509  0.022597277            1 
  970000   0.87360924   -7.7239077    261.39518  0.022456631  0.022581261            1 
  971000   0.86708236   -7.7244843    261.98353  0.022483997  0.022565308            4 
  972000   0.86936475   -7.7252088    261.75997  0.022441698  0.022549468            2 
  973000    0.8689583   -7.7477183    262.30771  0.022465546  0.022533815            3 
  974000   0.89219354   -7.7364215    261.62397  0.022383981   0.02251807            2 
  975000   0.86800843   -7.7272511    261.97126  0.022390706  0.022502242            1 
  976000   0.85409496   -7.7465626    262.31368  0.022397001  0.022486611            1 
  977000   0.86515336   -7.7401226    262.21461  0.022365627   0.02247079            2 
  978000   0.86137261   -7.7341296    262.63243  0.022378359  0.022454999            2 
  979000   0.86414326   -7.7405975    262.42652  0.022337974  0.022439257            3 
  980000   0.86440127   -7.7266512    262.42796  0.022315303  0.022423453            2 
  981000   0.86048644   -7.7235126     262.4677  0.022295931  0.022407733            2 
  982000   0.85806909   -7.7366733    262.79899   0.02230134  0.022391945            4 
  983000   0.86229712   -7.7444191    262.38346  0.022243427  0.022376056            2 
  984000   0.86835136   -7.7283398    262.19892  0.022205193  0.022360196            1 
  985000   0.83502337   -7.7344546    262.91554  0.022243277  0.022344318            3 
  986000   0.86120718   -7.7099793    263.55699  0.022274932  0.022328603            3 
  987000   0.87045552   -7.7021725    262.89748   0.02219668  0.022312952            2 
  988000   0.86183397   -7.7302617    263.14654  0.022195221  0.022297168            2 
  989000   0.85005039   -7.7464247     263.5823  0.022209496  0.022281182            2 
  990000   0.85062292   -7.7132921    263.54668  0.022184064  0.022265287            2 
  991000   0.84489574    -7.710305    263.58754  0.022165115  0.022249497            5 
  992000   0.84801833   -7.7084827     263.9925  0.022176789  0.022233839            2 
  993000   0.87895031   -7.7392033    264.01361  0.022156228  0.022218099            1 
  994000   0.84544603   -7.7196916    263.49965  0.022090849  0.022202267            3 
  995000    0.8497053   -7.7217282     263.7319  0.022088099  0.022186361            4 
  996000   0.85089121   -7.7164956    264.22495  0.022107175   0.02217067            2 
  997000   0.86118057   -7.7505724    263.76056  0.022046185  0.022154881            2 
  998000   0.84616845   -7.7408154    263.50869  0.022003064  0.022139022            2 
  999000   0.85143515   -7.7631031    264.08634  0.022029224  0.022123067            3 
 1000000   0.85853736   -7.7635535    263.38276  0.021948563  0.022107181            4 
 1001000    0.8597567   -7.7779994    264.10738  0.021986961  0.022091308            3 
 1002000   0.86231451   -7.7406099    264.65371  0.022010455  0.022075355            1 
 1003000    0.8467725   -7.7264635    264.50561  0.021976206   0.02205947            3 
 1004000   0.83722332   -7.7265924    265.08918  0.022002754  0.022043725            3 
 1005000   0.84434335   -7.7444657    264.87213  0.021962863  0.022027966            1 
 1006000   0.85745544   -7.7790108    264.36174  0.021898753  0.022012124            7 
 1007000   0.85577138   -7.7317928    264.91683  0.021922942  0.021996371            4 
 1008000   0.84797892   -7.7643383    265.08478  0.021915078  0.021980658            1 
 1009000   0.86135417   -7.7872173    265.06168   0.02189145  0.021964943            4 
 1010000   0.85440591   -7.7307026    265.28198  0.021887952  0.021949175            2 
 1011000   0.84899697   -7.7502131    265.42893  0.021878415  0.021933498            4 
 1012000   0.84248355   -7.7544418    265.75174  0.021883378   0.02191772            2 
 1013000   0.86699114    -7.770479    264.32884  0.021744722  0.021901878            2 
 1014000   0.85850419   -7.7647832    265.53162  0.021822126  0.021886032            2 
 1015000   0.85320561   -7.7805402    265.39136   0.02178911  0.021870194            3 
 1016000   0.85962765     -7.74526    265.99625  0.021817277  0.021854533            1 
 1017000   0.83755425   -7.7690504    265.52261  0.021757015   0.02183892            1 
 1018000   0.85066951   -7.7685942    265.56302   0.02173895  0.021823222            1 
 1019000   0.83978183   -7.7439703      265.617  0.021722031  0.021807707            4 
 1020000   0.84838283   -7.7158408    266.53744  0.021775934  0.021792221            1 
 1021000   0.83696286   -7.7424169    266.08047  0.021717309  0.021776761            5 
 1022000   0.85660252     -7.76843    267.03892   0.02177421  0.021761366            3 
 1023000   0.84625546   -7.7611144    266.44566  0.021704599  0.021745951            2 
 1024000   0.86544256   -7.7797349    266.36034   0.02167646  0.021730476            2 
 1025000   0.83971775   -7.7709377    266.66835  0.021680354   0.02171486            3 
 1026000   0.84822558   -7.7978387    266.21342  0.021622273  0.021699131            1 
 1027000   0.84714924    -7.781788    266.10993  0.021592821  0.021683462            3 
 1028000   0.85324341   -7.7682032     266.6166  0.021612889   0.02166781            1 
 1029000    0.8437004   -7.7778393    266.94889  0.021618796  0.021652298            1 
 1030000   0.82973979   -7.7798575    266.62953  0.021571969  0.021636691            2 
 1031000   0.83793838   -7.7729349    266.63087  0.021551153  0.021621156            2 
 1032000   0.84683471   -7.7890327    267.98398  0.021639533  0.021605627            1 
 1033000   0.84190418   -7.7924979    266.03424  0.021461297  0.021589976            3 
 1034000   0.83278784   -7.8087618    267.82043  0.021584496  0.021574263            3 
 1035000   0.82231606   -7.8023981    267.21399  0.021514814  0.021558625            3 
 1036000   0.85024649   -7.7911194    267.50387  0.021517364  0.021543047            3 
 1037000   0.82838657   -7.7581029    267.41179  0.021489214  0.021527555            3 
 1038000   0.84307526   -7.7491863    267.58101  0.021482098  0.021512008            3 
 1039000   0.83530995   -7.7483652    267.67493  0.021468955  0.021496474            2 
 1040000   0.84255754   -7.8033237    267.53761  0.021437308  0.021480851            3 
 1041000    0.8250035    -7.763641     267.3022  0.021397871  0.021465171            4 
 1042000   0.82911908   -7.8097695     267.3081  0.021377807  0.021449571            2 
 1043000     0.816846   -7.7811209    268.33229  0.021439141  0.021434046            3 
 1044000   0.82971896   -7.7806255     267.8997  0.021384075  0.021418446            1 
 1045000   0.84347243   -7.8299632    267.54904  0.021335649  0.021402715            1 
 1046000   0.83350784   -7.8143487    267.87444  0.021341176  0.021387077            2 
 1047000   0.84625995   -7.7814722    268.26606  0.021351963  0.021371396            2 
 1048000   0.84250741   -7.7961064    267.76317    0.0212916  0.021355751            2 
 1049000   0.82596185   -7.7792605    268.18933  0.021305158  0.021340193            2 
 1050000   0.82288767   -7.8033825    268.02555  0.021271869  0.021324591            2 
 1051000   0.84946734   -7.7826604    267.95219  0.021245813   0.02130897            1 
 1052000    0.8239586   -7.7789269    268.49655  0.021268738  0.021293384            4 
 1053000   0.83994997   -7.7533347    267.83687  0.021196334  0.021277769            1 
 1054000   0.83346448   -7.7916986    268.05931   0.02119381  0.021262064            2 
 1055000   0.82596702   -7.8032709    267.87776  0.021159381  0.021246329            1 
 1056000   0.83232122   -7.8609757    268.08997   0.02115609  0.021230554            7 
 1057000   0.84751639    -7.785352    268.51943  0.021169933  0.021214893            2 
 1058000   0.83065797   -7.8111293    268.23665   0.02112765  0.021199211            3 
 1059000   0.81853298    -7.792213    268.45759  0.021125086  0.021183584            4 
 1060000   0.82633547   -7.8012956    269.03002  0.021150159  0.021167923            1 
 1061000   0.82318668   -7.8086409     268.7521  0.021108396  0.021152174            3 
 1062000   0.81897547   -7.8097928    268.92302  0.021101932  0.021136477            3 
 1063000   0.83768673   -7.8051891    268.78309  0.021071111  0.021120876            3 
 1064000   0.81333813   -7.8186996    268.52593  0.021031166  0.021105172            3 
 1065000   0.83487785   -7.8086967    268.84007     0.021036  0.021089452            2 
 1066000   0.85685879   -7.8056949    268.60605  0.020997971  0.021073723            4 
 1067000   0.83656245   -7.8321165    269.29483  0.021032086  0.021058016            2 
 1068000   0.83177864   -7.7842222    269.13418  0.020999858  0.021042479            3 
 1069000   0.81926051   -7.8236977     269.2703  0.020990824  0.021026863            1 
 1070000   0.83376391   -7.8097609    270.03473  0.021030742  0.021011369            2 
 1071000   0.82200274   -7.8159862     269.5712  0.020975039  0.020995871            1 
 1072000   0.82926205   -7.7939282    270.20189    0.0210045    0.0209805            1 
 1073000   0.81832888   -7.7729613    270.96139   0.02104391  0.020965159            3 
 1074000   0.83327418   -7.7745375      270.992  0.021026692   0.02094987            4 
 1075000   0.82228172   -7.7775644    270.14281  0.020941303  0.020934571            1 
 1076000   0.82615775   -7.7998386    270.49488  0.020949108  0.020919289            2 
 1077000   0.83058157   -7.8423823    270.55081  0.020933984   0.02090393            2 
 1078000   0.82971492    -7.810703     269.7895  0.020855712  0.020888528            2 
 1079000   0.82033645   -7.8125669    269.92242   0.02084665  0.020873176            2 
 1080000   0.83282008   -7.8654828    269.75198  0.020814196  0.020857839            1 
 1081000   0.82104209   -7.8394601    269.65475  0.020787446  0.020842416            2 
 1082000   0.82408333    -7.813015    270.52932  0.020835592  0.020827041            2 
 1083000   0.81574535     -7.83298    270.86583  0.020842246    0.0208116            2 
 1084000   0.82655256   -7.8141226    270.47088  0.020792656  0.020796161            1 
 1085000   0.82030119    -7.859009    270.28393  0.020759134  0.020780794            2 
 1086000   0.82788677   -7.8521547    270.53248  0.020759091  0.020765388            2 
 1087000   0.81532234   -7.8331387    271.66752   0.02082701  0.020750001            3 
 1088000   0.81918099   -7.7897919    271.30262  0.020779918  0.020734652            1 
 1089000   0.81824209   -7.7913389    271.71314  0.020792251  0.020719449            2 
 1090000   0.82030871   -7.7862951     271.6264  0.020766544  0.020704261            3 
 1091000   0.83085411   -7.8497261    270.77113  0.020682182  0.020689097            1 
 1092000   0.81836225    -7.840775    270.74076  0.020660925  0.020673864            4 
 1093000   0.81563352   -7.8500412    272.06217   0.02074277  0.020658661            3 
 1094000   0.80754473   -7.8606032    270.97414  0.020640931  0.020643429            2 
 1095000   0.82266746   -7.8439675    271.87546  0.020690674   0.02062816            1 
 1096000   0.81168582   -7.8080209    272.28967   0.02070329  0.020613085            5 
 1097000   0.80237398     -7.83189    272.02793  0.020664534  0.020598018            5 
 1098000   0.80935996   -7.8325124    271.79359  0.020627929    0.0205829            2 
 1099000    0.8048002   -7.8501292    271.43907  0.020582277   0.02056774            2 
 1100000   0.80715952    -7.848023    271.92058  0.020600044  0.020552617            5 
 1101000   0.80318298   -7.8889134    270.89461  0.020503679  0.020537353            4 
 1102000   0.80902739   -7.8375363    272.15098   0.02058008  0.020522081            2 
 1103000   0.81654268   -7.8711867    271.88456  0.020541293  0.020506937            2 
 1104000   0.81603662   -7.8456814    272.48955  0.020568354  0.020491729            2 
 1105000   0.79202594   -7.8412307    272.23721  0.020530709  0.020476644            2 
 1106000   0.83577829   -7.8642822    272.05901   0.02049872  0.020461476            3 
 1107000   0.81913954   -7.8680781    271.79915   0.02046064  0.020446333            2 
 1108000   0.81345215   -7.8674444    272.11914  0.020466241  0.020431094            3 
 1109000   0.82462689   -7.8380975    273.22345  0.020530767  0.020415921            1 
 1110000   0.81546501   -7.8473397    271.88656  0.020411904  0.020400843            2 
 1111000   0.81069788   -7.8625161    271.80796  0.020387636  0.020385655            2 
 1112000   0.80513097   -7.8311019    272.54634  0.020424636  0.020370467            4 
 1113000   0.80713009   -7.8744519    271.72723  0.020344955  0.020355207            2 
 1114000   0.82318769   -7.8603585    272.16268  0.020359267  0.020339892            3 
 1115000   0.81692341   -7.8409519    271.93222  0.020323783  0.020324595            3 
 1116000   0.81125524   -7.8998831    272.25912  0.020329982  0.020309288            1 
 1117000   0.79585913   -7.8557824    272.68105  0.020343259   0.02029403            3 
 1118000   0.80983605   -7.8383888    273.39511  0.020378288  0.020278877            4 
 1119000   0.82556289   -7.8770204    272.64522  0.020304231  0.020263828            1 
 1120000   0.81843009   -7.8486473    273.15115  0.020323746  0.020248763            1 
 1121000   0.82414077   -7.8617586    273.03407  0.020296913  0.020233684            1 
 1122000   0.80355293   -7.8935878    273.09027  0.020282997  0.020218613            2 
 1123000   0.78756832   -7.8649023    272.71067  0.020236767   0.02020344            1 
 1124000   0.79752525   -7.8670507    272.74835  0.020221556  0.020188293            2 
 1125000   0.80501935   -7.8698871    272.94761  0.020218341  0.020173075            3 
 1126000   0.79767034   -7.9122151    272.23218  0.020147438  0.020157783            2 
 1127000   0.80995538   -7.9246645    272.52962  0.020151555  0.020142355            3 
 1128000   0.80979001   -7.8532581     272.9382  0.020163874  0.020127043            4 
 1129000   0.80457092   -7.8399392    273.44706  0.020183574  0.020111838            3 
 1130000   0.80524902   -7.8836743    273.19927  0.020147439  0.020096587            2 
 1131000   0.79513174   -7.8772529    273.32168  0.020138644  0.020081303            2 
 1132000   0.79179911   -7.9068315    273.23323  0.020114342  0.020066061            3 
 1133000     0.793649   -7.8514187    273.19011  0.020093418  0.020050791            2 
 1134000   0.80885793   -7.8464129    273.65746  0.020110043  0.020035734            2 
 1135000   0.78886864   -7.8836332    273.39306  0.020072912  0.020020724            2 
 1136000   0.78893575   -7.8751815    273.36327  0.020053057  0.020005546            2 
 1137000   0.79919839   -7.9248947    273.79967  0.020067404  0.019990453            2 
 1138000   0.79427841   -7.8710021    274.39473  0.020093346  0.019975416            1 
 1139000   0.79927167   -7.8583382    273.40356  0.020003187  0.019960454            6 
 1140000     0.797461   -7.8828043    274.25504  0.020047883  0.019945436            3 
 1141000   0.79062156   -7.8634625    273.60435  0.019982789  0.019930434            7 
 1142000   0.79556415   -7.8915781    273.60771  0.019965536  0.019915482            3 
 1143000   0.80052422   -7.8952991    273.93143   0.01997167  0.019900602            3 
 1144000   0.79925798   -7.9027915    274.25404  0.019977712  0.019885692            3 
 1145000   0.79524586   -7.8448378    274.45125  0.019974618  0.019870745            2 
 1146000   0.78794717   -7.9050302    274.40389  0.019953744  0.019855854            2 
 1147000   0.80446267   -7.8853779    273.66121   0.01988239   0.01984088            4 
 1148000   0.80927224   -7.8793233    274.17946   0.01990269  0.019825962            2 
 1149000    0.7995488   -7.8845211     274.2964   0.01989385  0.019811086            1 
 1150000   0.79568755   -7.8637154    274.88786   0.01991941  0.019796254            1 
 1151000   0.78604982   -7.8697062    274.76461  0.019893181  0.019781501            4 
 1152000   0.79230941   -7.8756306    274.50345  0.019857021  0.019766766            7 
 1153000    0.8003597   -7.8687462     274.9118  0.019869312   0.01975194            3 
 1154000    0.7866408   -7.8963377    275.19875  0.019872815  0.019737056            2 
 1155000   0.79889289   -7.9086336    274.64164  0.019815414  0.019722258            3 
 1156000   0.78541956   -7.8910397    274.71643  0.019803664   0.01970749            2 
 1157000   0.79818673   -7.9004409    275.92483  0.019873583  0.019692746            2 
 1158000   0.82118265   -7.9009392    274.72816  0.019770305  0.019678065            2 
 1159000   0.78837327   -7.8773945     275.7742  0.019828458  0.019663286            1 
 1160000   0.79120895   -7.9124797    275.14891  0.019766445  0.019648591            1 
 1161000   0.77766508   -7.8698768    275.59624  0.019781527  0.019633948            1 
 1162000   0.79791912   -7.8896714    275.95655  0.019790343  0.019619319            2 
 1163000   0.77013593   -7.9059937    275.65877   0.01975199  0.019604684            4 
 1164000   0.79009081   -7.9049707    275.72573  0.019739815  0.019589898            2 
 1165000   0.79767058   -7.9181916    275.50809  0.019707302  0.019575134            3 
 1166000   0.79068125   -7.9411295    275.29965  0.019675504  0.019560232            3 
 1167000   0.76945826    -7.923571    275.41649  0.019666987  0.019545348            1 
 1168000   0.76295181   -7.9367314    275.17157  0.019632675  0.019530464            2 
 1169000   0.76660965   -7.9486099    274.78035  0.019587992  0.019515613            1 
 1170000   0.78298543   -7.9469565    275.47253   0.01962055  0.019500679            1 
 1171000   0.78806379   -7.9225199    275.18743  0.019583507  0.019485816            3 
 1172000   0.78254976   -7.9356189      275.275  0.019573023  0.019470995            1 
 1173000   0.79826342    -7.937533    275.85593  0.019597608   0.01945621            6 
 1174000   0.78792508   -7.9110729    275.29537  0.019541125   0.01944138            3 
 1175000   0.78552182   -7.9196239    275.85906  0.019564472  0.019426662            4 
 1176000   0.76975443   -7.9077541    275.86638  0.019548355  0.019411884            2 
 1177000   0.76970428   -7.9172659    275.65422  0.019516725  0.019397116            2 
 1178000   0.77695194   -7.9235357    275.67895  0.019501907  0.019382397            3 
 1179000   0.78502127   -7.9093602      275.919  0.019502333  0.019367722            2 
 1180000    0.7698509   -7.9230835    275.58514  0.019462227  0.019353067            2 
 1181000   0.78164983   -7.8887042    276.12436  0.019483796  0.019338481            2 
 1182000   0.77513602    -7.912593    276.25643  0.019476624  0.019323976            2 
 1183000   0.78212778   -7.9262988    276.34812  0.019466619  0.019309482            3 
 1184000   0.78913094   -7.8980259    276.66948  0.019472796  0.019295039            4 
 1185000   0.77197267   -7.9204906    276.24912  0.019426802   0.01928052            4 
 1186000   0.78547013     -7.91843    276.40516  0.019421385  0.019265926            2 
 1187000   0.76806423   -7.9492882    275.75478  0.019359364  0.019251223            1 
 1188000   0.76221004   -7.9498893      275.633  0.019334526  0.019236526            2 
 1189000   0.77202939   -7.9088155    276.64959  0.019389514   0.01922189            3 
 1190000   0.78737569   -7.8914264    276.71625  0.019377888  0.019207263            2 
 1191000   0.78088348   -7.9505404    276.15635  0.019322443  0.019192653            2 
 1192000   0.78938436   -7.9486734    275.94384  0.019291376  0.019177969            2 
 1193000   0.77221865   -7.9278157    276.61624  0.019322174  0.019163375            3 
 1194000   0.75739232   -7.9392246    276.70053  0.019311874  0.019148772            1 
 1195000   0.77837152   -7.9412785    277.36262  0.019341884  0.019134236            2 
 1196000   0.79309468   -7.9258826    277.23281  0.019316667  0.019119696            3 
 1197000   0.78926881   -7.9408452    276.69062  0.019262783    0.0191051            2 
 1198000    0.7651509   -7.9477026    276.94948  0.019264711  0.019090525            2 
 1199000   0.76522329   -7.9417878    276.55876  0.019221487  0.019075906            3 
 1200000   0.76353049   -7.9415557    276.21514  0.019181607  0.019061291            4 
 1201000   0.78011787   -7.9324006    276.64238   0.01919528  0.019046769            4 
 1202000   0.77635628   -7.9533841    277.34156  0.019227784  0.019032253            2 
 1203000   0.76742368   -7.9526377    276.82746  0.019176189   0.01901774            3 
 1204000   0.77889486   -7.9572039    276.66661  0.019149128  0.019003198            1 
 1205000    0.7778494   -7.9255574    277.21668  0.019171278  0.018988669            2 
 1206000   0.76761412   -7.9266015    277.31193  0.019161963  0.018974239            5 
 1207000   0.77154647    -7.948548     277.5355  0.019161523   0.01895974            2 
 1208000   0.76683108   -7.9616749    277.11712  0.019116799  0.018945172            1 
 1209000   0.77601411   -7.9322226    277.34308  0.019116562  0.018930682            2 
 1210000   0.76970806   -7.9730409    277.39857  0.019104585  0.018916165            1 
 1211000    0.7607164   -7.9591033     277.0945  0.019067885  0.018901589            3 
 1212000   0.77717601   -7.9267392    277.09052  0.019051878  0.018887039            4 
 1213000   0.76829414   -7.9688203    277.23554  0.019046135  0.018872464            2 
 1214000   0.76826564   -7.9592194    277.45728  0.019045667  0.018857796            4 
 1215000   0.77015914   -7.9616993    276.34155  0.018953467  0.018843151            2 
 1216000   0.77824876   -7.9876014    276.25312   0.01893182  0.018828492            2 
 1217000   0.75471578   -7.9742591    277.45041  0.018998248  0.018813847            2 
 1218000   0.75682933   -7.9522283    277.37388  0.018977414  0.018799265            3 
 1219000   0.76189526    -7.937102    277.93606  0.019000277  0.018784741            2 
 1220000    0.7834417   -7.9717364    277.22656   0.01893624  0.018770184            2 
 1221000   0.76918205   -7.9511753    277.13952  0.018914791  0.018755638            2 
 1222000    0.7702477   -7.9706339    276.93945  0.018885669  0.018741068            3 
 1223000   0.76483393    -7.970933    277.24959   0.01889136  0.018726534            2 
 1224000   0.74874883    -7.976733    277.41824  0.018887408  0.018711974            2 
 1225000   0.75522729   -7.9684732     277.6121  0.018885177  0.018697412            4 
 1226000   0.76244522   -7.9300188    278.17081  0.018907749  0.018682929            2 
 1227000    0.7779189   -7.9726297    277.46159  0.018844172  0.018668456            5 
 1228000   0.75542361   -8.0012583    276.71506  0.018778166  0.018653897            8 
 1229000   0.75230363   -7.9831557    277.15326  0.018792599  0.018639334            9 
 1230000   0.76758879   -7.9741608    277.74956  0.018817721  0.018624858            5 
 1231000    0.7684605   -7.9928503      277.203  0.018765435  0.018610282            6 
 1232000   0.76704555   -8.0025943    277.55017  0.018773686  0.018595678            2 
 1233000    0.7611117   -8.0084649    277.73856  0.018771192  0.018581058            5 
 1234000   0.75257811   -8.0074766    277.69664   0.01875315  0.018566476            2 
 1235000   0.74979147   -7.9680958    278.14227  0.018768034  0.018551964            4 
 1236000   0.76372021   -8.0009233    277.15239  0.018686111  0.018537462            1 
 1237000   0.76574971   -7.9814091    277.35907  0.018684928  0.018522947            2 
 1238000   0.75621166   -7.9835473    277.70388  0.018693045  0.018508484            5 
 1239000   0.75114821   -7.9871572    277.31327  0.018651686  0.018493972            3 
 1240000   0.76327641   -7.9800601    277.19929  0.018628984  0.018479498            2 
 1241000   0.76035292   -7.9871732    277.87046  0.018659042  0.018465064            1 
 1242000   0.75636905   -8.0250384    277.68346  0.018631472  0.018450619            2 
 1243000   0.76842813   -8.0247037    277.95782  0.018634877  0.018436111            1 
 1244000   0.77020006   -7.9755007    277.87945  0.018614647    0.0184216            2 
 1245000   0.75481308   -7.9704132    278.30806  0.018628384  0.018407212            5 
 1246000   0.75351958   -7.9974844    278.00595  0.018593228  0.018392823            1 
 1247000   0.75635196   -8.0235316    278.17432   0.01858957  0.018378321            2 
 1248000   0.75039409   -8.0009577    278.08455   0.01856868  0.018363892            2 
 1249000   0.76306191   -7.9924293     277.5699  0.018519475  0.018349532            2 
 1250000   0.75377621   -7.9857854    277.76602  0.018517735  0.018335083            2 
 1251000   0.75575963   -8.0036951    277.65888  0.018495795  0.018320655            1 
 1252000   0.74518532   -8.0011666    277.99829  0.018503613  0.018306205            2 
 1253000   0.74597463   -8.0092888    278.21901  0.018503526   0.01829178            2 
 1254000   0.75010616   -7.9939471    277.98997  0.018473549  0.018277396            3 
 1255000   0.75851753   -7.9837483    278.07438  0.018464434  0.018263033            3 
 1256000   0.74079863   -8.0318901     277.7839  0.018430461  0.018248725            3 
 1257000   0.75585463   -7.9929952    278.41522  0.018457652  0.018234386            5 
 1258000   0.73754312   -7.9991748    278.48809  0.018447806  0.018220093            4 
 1259000    0.7464434   -8.0206186    277.88897  0.018393498  0.018205765            2 
 1260000   0.74847982   -8.0115843    278.18429  0.018398432  0.018191461            2 
 1261000   0.75959852   -8.0492507    278.23056  0.018386899  0.018177085            1 
 1262000   0.77175381   -7.9947053    278.30751  0.018377411  0.018162721            3 
 1263000   0.75934849     -8.01153    278.27931  0.018360999   0.01814834            2 
 1264000   0.73865952    -8.032146    278.07803  0.018333204  0.018133944            4 
 1265000    0.7456647   -8.0074183    277.60415  0.018287493  0.018119551            1 
 1266000   0.76513351   -8.0372632    278.44043  0.018328095  0.018105182            2 
 1267000   0.73861438   -8.0217422    277.90467  0.018278392  0.018090806            4 
 1268000   0.74305552   -8.0065192      278.667  0.018314077  0.018076469            6 
 1269000    0.7438017   -8.0071022    278.49904  0.018288616   0.01806214            3 
 1270000   0.75065106   -8.0666965    277.48895  0.018207936  0.018047782            4 
 1271000    0.7496297    -8.035677    278.53781   0.01826238  0.018033393            2 
 1272000   0.75040044   -8.0329482    277.61515  0.018187575  0.018018998            3 
 1273000   0.75025652   -8.0390078    277.82624  0.018187107  0.018004628            3 
 1274000   0.74730152   -8.0278217      277.934  0.018179879  0.017990257            2 
 1275000   0.75938929   -8.0446514    278.25565  0.018186644  0.017975893            4 
 1276000   0.73986454   -7.9989703    278.68497  0.018200429  0.017961576            3 
 1277000   0.72455837   -8.0187824    278.60014  0.018180641  0.017947379            2 
 1278000   0.75543379   -8.0431537    278.38428   0.01815234  0.017933122            6 
 1279000   0.73363449   -8.0110175    278.47221  0.018143876   0.01791889            2 
 1280000   0.74683662    -8.025365    278.43343  0.018127177  0.017904677            4 
 1281000   0.75091677   -8.0267152    279.12397  0.018157948  0.017890471            2 
 1282000   0.74593087   -7.9983702    278.42574  0.018098397   0.01787621            2 
 1283000   0.75307789   -7.9959081     278.6053  0.018095953   0.01786205            2 
 1284000   0.73872599   -8.0187029    277.90519  0.018036422  0.017847855            4 
 1285000   0.74671915   -8.0203633    278.64597  0.018070426  0.017833666            3 
 1286000   0.73893588   -8.0108619    279.15091  0.018089095  0.017819473            3 
 1287000   0.74931746   -8.0171158    278.59829  0.018039257  0.017805241            4 
 1288000   0.74228644   -8.0369096    278.56502  0.018023099  0.017791063            2 
 1289000   0.73028994   -7.9884948    279.42174  0.018064504  0.017776948            4 
 1290000   0.75023063   -8.0591228    278.56625  0.017995236  0.017762749            1 
 1291000    0.7471061   -8.0353968    278.55212  0.017980385  0.017748581            4 
 1292000   0.73192654   -7.9996341    279.12993  0.018003737  0.017734504            3 
 1293000   0.74897498    -8.038666    278.98802  0.017980667  0.017720472            2 
 1294000    0.7462921   -8.0156814    279.68675  0.018011769  0.017706459            2 
 1295000   0.73030354   -8.0444739    279.02846    0.0179555  0.017692458            4 
 1296000   0.74774431    -8.016447    279.29585  0.017958838   0.01767841            4 
 1297000    0.7339546   -8.0321286    278.81601  0.017914162  0.017664386            7 
 1298000   0.73274766   -8.0514358     278.8308   0.01790131   0.01765032            4 
 1299000   0.74241048   -8.0436435    279.14034  0.017907387  0.017636214            1 
 1300000   0.73785009   -8.0455343    278.91749  0.017879326  0.017622162            2 
 1301000   0.73316739    -8.047574    278.72896  0.017853507  0.017608071            2 
 1302000   0.72466394   -8.0651916    278.43132  0.017820745  0.017593943            3 
 1303000    0.7285965    -8.075895    278.83136  0.017832653  0.017579804            2 
 1304000   0.73780453   -8.0587437    278.79584  0.017816707  0.017565696            4 
 1305000   0.75124134   -8.0739709    279.15307  0.017825867  0.017551588            5 
 1306000   0.73494526   -8.0740947    279.41027  0.017828629  0.017537488            1 
 1307000   0.72244755   -8.0813325     278.5452  0.017759832  0.017523372            2 
 1308000   0.71946113   -8.0526276    279.19233  0.017787483  0.017509306            2 
 1309000   0.73035984   -8.0517226    278.81307   0.01774975  0.017495242            3 
 1310000   0.72295289   -8.0844406    278.62624  0.017724316  0.017481161            1 
 1311000   0.74021386   -8.0837764    279.07478  0.017739307  0.017467112            2 
 1312000   0.72443215   -8.0620939    278.93388  0.017716837  0.017453059            1 
 1313000   0.72047274   -8.0439315    279.06169  0.017711455  0.017439085            7 
 1314000   0.74175106   -8.0558818    279.32816  0.017714876  0.017425097            3 
 1315000   0.72921775   -8.1018284    279.07178  0.017685157  0.017411118            1 
 1316000   0.74336216   -8.0765226    279.32504  0.017687756  0.017397171            4 
 1317000   0.73295613   -8.0611933      279.651   0.01769495  0.017383236            2 
 1318000   0.72940415   -8.0976027    278.81663   0.01762877  0.017369287            3 
 1319000   0.72349052   -8.0904539    279.23275  0.017641695  0.017355342            1 
 1320000   0.73365012   -8.0652893     279.6752  0.017656263  0.017341399            4 
 1321000   0.71844204     -8.05033     280.0087  0.017663935  0.017327506            2 
 1322000   0.73830074   -8.0859983    279.92193  0.017645104  0.017313648            3 
 1323000   0.71917385   -8.0495777    280.03952  0.017639173   0.01729984            2 
 1324000   0.71477854   -8.0750946    279.20209  0.017573142  0.017286016            3 
 1325000   0.71619466   -8.1064208    279.51459  0.017579534  0.017272178            4 
 1326000     0.728587     -8.07149    279.54893  0.017568434  0.017258361            2 
 1327000   0.73110302   -8.0809074    279.89868  0.017577159  0.017244578            3 
 1328000   0.72644205   -8.0720026    280.12599  0.017578187  0.017230765            1 
 1329000   0.72282794   -8.0988845    278.98805  0.017493608  0.017216962            3 
 1330000    0.7268481   -8.1024626    279.60834   0.01751932  0.017203141            2 
 1331000   0.72837122   -8.0745843    279.86588  0.017522281  0.017189362            2 
 1332000   0.70794534   -8.0547993    280.38853  0.017541825  0.017175595            3 
 1333000   0.71320929   -8.1043671    279.50254  0.017473277  0.017161838            2 
 1334000   0.73555836   -8.0856736    279.36433  0.017451545  0.017148031            1 
 1335000   0.72763791   -8.0872866    280.04889  0.017481204  0.017134251            1 
 1336000   0.72073509   -8.0753104    280.15276  0.017474598  0.017120505            2 
 1337000   0.73545992   -8.0805338    279.93147  0.017447735  0.017106788            2 
 1338000   0.72663692   -8.1135463    279.64351  0.017416761  0.017093109            1 
 1339000   0.72518198   -8.0932602    279.40341   0.01738881  0.017079363            5 
 1340000   0.72037705   -8.1070485    280.17164  0.017423609   0.01706564            3 
 1341000   0.71558692   -8.0801235    279.60238  0.017375241  0.017051916            3 
 1342000    0.7079751   -8.1068364    279.73031  0.017370238  0.017038256            1 
 1343000   0.72278141   -8.0773329    280.38555  0.017397961  0.017024536            2 
 1344000   0.72650347    -8.114927    279.81837   0.01734985  0.017010853            3 
 1345000   0.72089836   -8.0649444    280.71635  0.017392587  0.016997248            2 
 1346000   0.72018721   -8.0768956    280.52021  0.017367522  0.016983674            6 
 1347000   0.71009231   -8.0771512    280.97062  0.017382493    0.0169701            5 
 1348000   0.72369341   -8.0981108    279.44356  0.017275195  0.016956522            1 
 1349000    0.7260253    -8.102757    280.07364  0.017301312  0.016942953            1 
 1350000   0.70861482   -8.1091006    280.10182  0.017290236  0.016929342            2 
 1351000   0.69979554   -8.0801051    280.75319  0.017317616  0.016915743            2 
 1352000   0.70661698   -8.0820307     280.1253  0.017266106  0.016902173            4 
 1353000   0.71067596   -8.0815417    280.52874  0.017278193  0.016888594            3 
 1354000   0.70389927   -8.0746541    280.41359  0.017258345  0.016875083            3 
 1355000   0.71206298   -8.1162202    280.36082  0.017242363  0.016861584            2 
 1356000   0.70785332   -8.1037042    280.84628  0.017259482  0.016848044            2 
 1357000   0.70637986   -8.0876319    280.13704  0.017203208  0.016834486            2 
 1358000   0.71871552   -8.1005248    280.14514  0.017191037  0.016820952            2 
 1359000   0.70646338   -8.1078049    279.97962  0.017168238  0.016807418            4 
 1360000   0.72241076   -8.1016338    280.18585   0.01716825  0.016793878            3 
 1361000   0.70470085   -8.1104574    280.19571   0.01715624  0.016780389            1 
 1362000   0.71497452   -8.1048632    280.13421   0.01713988  0.016766942            3 
 1363000   0.71057985   -8.0992416    280.55353  0.017152942  0.016753484            1 
 1364000   0.69524898   -8.1342657    279.72532  0.017089768  0.016739967            2 
 1365000   0.71013497   -8.1204027     279.7671  0.017079798  0.016726463            2 
 1366000   0.70419215   -8.1285212     280.4374  0.017108187  0.016712948            3 
 1367000   0.69679123   -8.1084096    280.24606  0.017084008  0.016699442            2 
 1368000   0.70702289   -8.1265239    280.25346   0.01707197  0.016685939            3 
 1369000   0.69492447   -8.1230287    279.90024  0.017037999  0.016672509            2 
 1370000   0.70594123   -8.1107375    280.02482   0.01703314  0.016659108            4 
 1371000   0.70157956      -8.0784    280.42058  0.017044772  0.016645724            5 
 1372000   0.70634321   -8.1109813    280.48718  0.017036394  0.016632308            3 
 1373000   0.72191773   -8.1274968    280.97941  0.017053861  0.016618872            1 
 1374000   0.69554208   -8.1157009    280.36675  0.017004291  0.016605566            3 
 1375000   0.70083147   -8.0910051    280.46006  0.016997579  0.016592216            4 
 1376000   0.69834106   -8.1220619    280.23152  0.016971386  0.016578887            3 
 1377000   0.71067769   -8.1172163    280.60706  0.016981787   0.01656549            2 
 1378000   0.71009965   -8.1592272    280.85182  0.016984266    0.0165521            2 
 1379000   0.70508862   -8.1435504    280.05443  0.016923763  0.016538679            4 
 1380000   0.69765386   -8.1444418    280.63488  0.016946551  0.016525282            3 
 1381000   0.70388026   -8.1232694    280.62713  0.016933812   0.01651193            2 
 1382000   0.70858211   -8.1063794    280.50588  0.016914248  0.016498614            3 
 1383000   0.70053106   -8.1435491    280.89775   0.01692563   0.01648531            3 
 1384000   0.68844892   -8.1363956     280.4199  0.016884628  0.016472018            2 
 1385000   0.70389473   -8.1258367    280.55631  0.016880645  0.016458751            1 
 1386000   0.70748897   -8.1387064    280.89902   0.01688907  0.016445466            4 
 1387000   0.68987362   -8.1410338    280.32069  0.016842147  0.016432221            2 
 1388000   0.70189101   -8.1322171     280.5405   0.01684321   0.01641896            4 
 1389000     0.704414   -8.1465796     280.4156   0.01682359  0.016405651            3 
 1390000    0.6963898   -8.1628221    280.60156  0.016822635  0.016392344            2 
 1391000   0.70772972   -8.1179382    280.60066  0.016810488  0.016379062            3 
 1392000   0.69744335   -8.1273994    280.91899  0.016817468  0.016365818            1 
 1393000   0.68827596   -8.1189003    280.50182  0.016780439  0.016352583            2 
 1394000   0.70684052     -8.10158    280.97355  0.016796601  0.016339378            2 
 1395000   0.69580876   -8.1608107     280.6603  0.016765848  0.016326182            2 
 1396000   0.68871236   -8.1450729    280.84501  0.016764864  0.016312969            5 
 1397000   0.69813661   -8.1501185    280.49469  0.016731967  0.016299758            3 
 1398000   0.69742605   -8.1238102    280.76541  0.016736136  0.016286594            1 
 1399000   0.69278392   -8.1451304    281.58277  0.016772859  0.016273449            2 
 1400000    0.6969997   -8.1220515    281.08704  0.016731371  0.016260315            2 
 1401000   0.68654333   -8.1126718    280.14361  0.016663313   0.01624721            2 
 1402000   0.70499089   -8.1412423     280.9234  0.016697777  0.016234109            3 
 1403000   0.69093356   -8.1382916    281.05255  0.016693547     0.016221            4 
 1404000   0.69502556   -8.1623644     280.8724  0.016670964  0.016207896            3 
 1405000   0.68532334   -8.1319468    281.28921   0.01668382  0.016194744            3 
 1406000   0.68844475   -8.1618335    281.30675  0.016672994  0.016181612            2 
 1407000   0.70792847   -8.1641655    280.19944   0.01659556  0.016168442            1 
 1408000   0.69061332   -8.1519459    280.17929  0.016582581   0.01615527            3 
 1409000   0.68674228   -8.1780725    280.00929  0.016560758  0.016142113            6 
 1410000    0.6965144   -8.1240834    280.37716  0.016570754  0.016128971            1 
 1411000   0.68371436   -8.1669103    280.75881   0.01658155  0.016115871            2 
 1412000   0.68171141   -8.1341138    280.73766  0.016568559  0.016102804            1 
 1413000   0.68145386   -8.1563691    280.80533  0.016560824  0.016089718            2 
 1414000   0.67624308   -8.1668419    280.51465  0.016531981  0.016076628            3 
 1415000   0.68587796   -8.1712066    281.16259  0.016558457  0.016063553            4 
 1416000   0.68259477   -8.1507349    280.31379   0.01649681  0.016050456            3 
 1417000   0.69387422   -8.1842594    280.64451  0.016504617  0.016037373            2 
 1418000   0.68567355    -8.163328     280.5489  0.016487359  0.016024303            4 
 1419000    0.6795209   -8.1625938    280.38196  0.016465936  0.016011178            1 
 1420000     0.694695   -8.1821051    280.16419   0.01644156  0.015998048            6 
 1421000   0.67134556   -8.1823282    280.74348  0.016463962  0.015984986            8 
 1422000   0.69422229   -8.1793829    280.85784  0.016459086  0.015971937            3 
 1423000   0.68313802    -8.183959    280.62057  0.016433625  0.015958892            3 
 1424000   0.69237409   -8.1633239    280.29693  0.016403144  0.015945874            2 
 1425000   0.67784492   -8.2034485    280.45252  0.016400732   0.01593286            5 
 1426000   0.69269758   -8.1874011    280.81961  0.016410683  0.015919833            3 
 1427000   0.69216419   -8.2002602    280.43625  0.016376796  0.015906831            1 
 1428000   0.67463463   -8.1666856    281.33689  0.016417885  0.015893888            4 
 1429000   0.68810349   -8.1834259    280.84806   0.01637789  0.015880931            1 
 1430000   0.68167699   -8.1619147    280.57512  0.016350532   0.01586803            3 
 1431000   0.68088124   -8.1894985    280.58764  0.016339835  0.015855119            2 
 1432000   0.69592048   -8.1592289    280.98365   0.01635147  0.015842198            1 
 1433000   0.67136349   -8.1912779    280.62955  0.016319466  0.015829264            5 
 1434000   0.69689572   -8.1952009    280.52634  0.016302089  0.015816358            2 
 1435000   0.68691801   -8.2216849    280.21553  0.016272679  0.015803408            1 
 1436000   0.68552486   -8.1856527    280.40055  0.016272084  0.015790425            3 
 1437000   0.68022639   -8.1898772    280.56243  0.016270148  0.015777497            2 
 1438000   0.65571458   -8.1884888    280.60132  0.016261087  0.015764582            4 
 1439000   0.68909307    -8.187255    280.89779  0.016266956  0.015751646            2 
 1440000   0.67568439   -8.1727668    281.06927  0.016265583  0.015738715            3 
 1441000   0.66917527   -8.1728809    280.32243  0.016211105  0.015725783            1 
 1442000   0.67107487   -8.1868491    280.92462  0.016234664   0.01571291            2 
 1443000   0.67280022   -8.2018081      280.137  0.016177928  0.015700017            3 
 1444000   0.67958598    -8.194939    280.38609    0.0161811  0.015687108            4 
 1445000    0.6771173   -8.1822294    280.50226  0.016176601  0.015674201            4 
 1446000   0.67922687     -8.17831    281.39451  0.016216835  0.015661287            4 
 1447000   0.68316873   -8.2102991     280.2797  0.016141425    0.0156484            3 
 1448000   0.68606239   -8.2128221    280.46584   0.01614099  0.015635479            1 
 1449000    0.6737428   -8.1840378    280.73637  0.016145409  0.015622531            2 
 1450000   0.67274442    -8.217041    281.03155  0.016151239  0.015609637            2 
 1451000   0.67402673   -8.2004997    280.35489  0.016101246  0.015596762            2 
 1452000   0.67221193   -8.2147485    279.48083  0.016039992  0.015583837            2 
 1453000   0.68000293   -8.2128859    280.42437  0.016083068  0.015570922            2 
 1454000    0.6699941   -8.1994755    280.55608  0.016079555   0.01555801            4 
 1455000   0.68512352   -8.2359882    279.76705  0.016023313   0.01554512            2 
 1456000   0.65612986   -8.2374287    280.25707  0.016040354  0.015532205            1 
 1457000   0.67833252   -8.2215406    279.93191  0.016010747  0.015519326            4 
 1458000   0.66579347   -8.2218588    280.25573  0.016018274  0.015506457            3 
 1459000   0.67842612   -8.1928267    279.88773  0.015986276  0.015493604            2 
 1460000   0.67488932   -8.2299274    280.35782  0.016002159  0.015480761            2 
 1461000   0.66722485   -8.2164018    280.02438  0.015972187  0.015467914            5 
 1462000   0.68372606   -8.2477483    280.23666  0.015973362  0.015455063            4 
 1463000   0.66659224   -8.2321305    279.67367  0.015930375   0.01544224            2 
 1464000   0.68035031   -8.2213848    280.26736  0.015953288  0.015429419            4 
 1465000   0.65956915    -8.238019    280.75167  0.015969947  0.015416572            1 
 1466000    0.6720062   -8.2495923    280.04739  0.015919019  0.015403762            1 
 1467000   0.67472261   -8.2404095    279.14637  0.015856985  0.015390908            2 
 1468000   0.66618273   -8.2103399    280.44895  0.015920127  0.015378111            2 
 1469000   0.67188991   -8.2538651    280.37865  0.015905301  0.015365298            1 
 1470000   0.66557721   -8.2382226    279.93778  0.015869489  0.015352485            2 
 1471000   0.67917857   -8.2302922    280.45321    0.0158879  0.015339672            2 
 1472000   0.68342234   -8.2322583    280.17116  0.015861139  0.015326881            2 
 1473000    0.6584563   -8.2201231    280.48039  0.015867865  0.015314132            2 
 1474000   0.67617246   -8.2592286    280.63725  0.015865968  0.015301381            1 
 1475000   0.64660825   -8.2545224    280.35294  0.015839149  0.015288645            1 
 1476000   0.67764259    -8.236075    279.73656  0.015793618   0.01527594            4 
 1477000   0.65736293   -8.2379987    280.44552  0.015822925  0.015263281            2 
 1478000    0.6529896   -8.2524592    280.41409  0.015810447  0.015250599            3 
 1479000   0.67460379   -8.2349639     279.7531  0.015762514   0.01523792            3 
 1480000   0.67214691   -8.2204263    280.08621   0.01577062  0.015225259            1 
 1481000   0.66653773   -8.2285586    279.90248  0.015749633  0.015212597            3 
 1482000   0.67091162   -8.2493676    280.29836  0.015761266  0.015199971            3 
 1483000    0.6514721   -8.2450406    280.07714  0.015738207  0.015187303            1 
 1484000   0.67811263   -8.2480251    280.36259  0.015743631  0.015174647            3 
 1485000   0.65984571   -8.2482172    279.83394  0.015703364  0.015162039            3 
 1486000    0.6588456    -8.224558    280.04159  0.015704441  0.015149397            2 
 1487000   0.64898228    -8.239002    280.19086  0.015702245  0.015136798            5 
 1488000   0.64823548   -8.2306818      280.358  0.015701053  0.015124182            1 
 1489000   0.67711903   -8.2367236     280.0716   0.01567448  0.015111605            4 
 1490000   0.66476419   -8.2202045    280.02277  0.015661229  0.015099031            2 
 1491000   0.66050165   -8.2588821    279.60254  0.015627238  0.015086482            2 
 1492000   0.65293248   -8.2381931    279.72703  0.015623717  0.015073867            2 
 1493000   0.64994395   -8.2454485    279.87367  0.015621437  0.015061278            2 
 1494000   0.65461926   -8.2424861     280.1815  0.015628151  0.015048676            2 
 1495000   0.65494464    -8.239258    279.51725  0.015580672  0.015036096            4 
 1496000   0.66100349   -8.2527541    280.27252  0.015612329  0.015023546            2 
 1497000   0.64665669   -8.2566185    279.67024  0.015568372  0.015010991            2 
 1498000   0.65083147   -8.2373175    280.11199  0.015582554  0.014998421            4 
 1499000   0.66187381    -8.249919     279.7156  0.015550123  0.014985847            1 
 1500000   0.65353328   -8.2648191    279.79304  0.015544058  0.014973277            2 
 1501000   0.65112352   -8.2577312    279.85733  0.015537271  0.014960721            2 
 1502000   0.65839639   -8.2723151    279.93902  0.015531459  0.014948154            4 
 1503000   0.64412644   -8.2607715    279.49704   0.01549662  0.014935598            1 
 1504000   0.64657082   -8.2605077    279.51938  0.015487554  0.014923026            5 
 1505000   0.64673664   -8.2627392    279.41917  0.015471715  0.014910495            2 
 1506000    0.6523098   -8.2659764    279.99681  0.015493405  0.014897947            1 
 1507000   0.65633533    -8.263639    279.80521  0.015472529  0.014885404            2 
 1508000   0.65509065   -8.2752962    279.32198  0.015435565  0.014872879            3 
 1509000   0.65407492   -8.2595455    280.15995  0.015471612  0.014860373            2 
 1510000   0.64942988   -8.2639804    278.81892  0.015387358  0.014847862            3 
 1511000    0.6487832   -8.2985087    279.61914  0.015421307  0.014835393            2 
 1512000     0.645496   -8.2755839    279.33045  0.015395197  0.014822929            2 
 1513000   0.64743186   -8.2603226    279.31608   0.01538423  0.014810468            4 
 1514000   0.64617724   -8.2593013    279.10817  0.015362625  0.014798006            4 
 1515000   0.66149456   -8.2718109    279.95509   0.01539907  0.014785565            5 
 1516000   0.65811094   -8.2735163    279.47118  0.015362312  0.014773145            2 
 1517000    0.6421683   -8.2631533    279.59955  0.015359237  0.014760743            2 
 1518000   0.64718479   -8.2636491    279.56629  0.015347293  0.014748372            4 
 1519000   0.63797495   -8.2706884    279.60094   0.01533909  0.014735981            4 
 1520000   0.64554634    -8.259053    279.68266  0.015333479  0.014723607            2 
 1521000    0.6479638   -8.2721975    279.50417  0.015313619  0.014711259            2 
 1522000   0.64531974   -8.2577058    279.80817  0.015320202  0.014698908            1 
 1523000   0.64869086   -8.2695082    279.21636  0.015277761  0.014686551            1 
 1524000    0.6517334   -8.2781758    279.52582  0.015284658  0.014674181            3 
 1525000   0.64891226   -8.2821855    279.56502  0.015276777  0.014661821            5 
 1526000    0.6625561   -8.2772149    280.57621  0.015321986  0.014649505            2 
 1527000   0.64769128   -8.2715489    279.62537  0.015260062  0.014637191            2 
 1528000   0.64526071   -8.2752028     279.9088  0.015265532  0.014624875            2 
 1529000   0.64709626   -8.2777988    279.48489  0.015232444   0.01461254            2 
 1530000   0.63959881   -8.2768453    279.77882  0.015238498  0.014600225            1 
 1531000   0.64255989   -8.3003243    279.12924  0.015193188  0.014587919            2 
 1532000   0.65530731   -8.2826752    279.42399  0.015199303  0.014575609            3 
 1533000   0.62369253   -8.3090084    279.24963   0.01517991  0.014563294            4 
 1534000   0.63876685   -8.2827263    279.53783  0.015185671  0.014550984            2 
 1535000   0.63349588   -8.3141201    279.64015  0.015181333  0.014538671            4 
 1536000   0.63611704   -8.2908025     279.5195  0.015164904  0.014526391            3 
 1537000   0.63411468   -8.2709305    279.41043  0.015149123  0.014514083            5 
 1538000   0.64746938   -8.2948442    279.93931   0.01516793  0.014501827            2 
 1539000   0.63886554   -8.2844256    279.65773  0.015142827  0.014489567            3 
 1540000   0.63464535   -8.3013278    279.48351  0.015123567  0.014477345            5 
 1541000    0.6444822   -8.2881248    279.52922  0.015116224  0.014465117            3 
 1542000   0.63742444    -8.289115    279.55424  0.015107774  0.014452905            5 
 1543000   0.64681483   -8.2876141     279.1907  0.015078348  0.014440697            4 
 1544000   0.62822595   -8.3065082    279.10961  0.015064206  0.014428492            2 
 1545000    0.6353753   -8.2722848    279.24654  0.015061841    0.0144163            5 
 1546000   0.63137768   -8.2775967    279.14161  0.015046443  0.014404169            3 
 1547000   0.64333145   -8.2923308    279.18726  0.015039176  0.014392024            1 
 1548000   0.62461945   -8.2703647    279.58435  0.015050837  0.014379899            3 
 1549000    0.6277557     -8.30126    279.27122  0.015024275  0.014367761            4 
 1550000   0.63804128   -8.2987868    279.13815  0.015007428  0.014355612            2 
 1551000   0.62914326   -8.3149161     278.9938  0.014989996  0.014343468            3 
 1552000   0.64899814   -8.2861874    279.44551  0.015004591  0.014331333            3 
 1553000   0.63624281    -8.300615    279.48122  0.014996846  0.014319244            2 
 1554000   0.62471797   -8.3186619    279.40457  0.014983085  0.014307158            3 
 1555000    0.6254535   -8.2811832    279.23965  0.014964611  0.014295063            3 
 1556000   0.63686198   -8.3100133    279.61951  0.014975338  0.014282989            2 
 1557000   0.64449795   -8.3183304    278.95775  0.014930301  0.014270892            2 
 1558000   0.63547472   -8.3101229    278.98928  0.014922405  0.014258845            3 
 1559000   0.63015761   -8.3167102    279.58125  0.014944476  0.014246765            3 
 1560000   0.61784867   -8.3142232    279.48804  0.014929916  0.014234732            2 
 1561000   0.63195504   -8.3143542    279.18871  0.014904373  0.014222716            4 
 1562000   0.63527124   -8.3201974     279.1885   0.01489482  0.014210695            4 
 1563000   0.62906259    -8.305566    279.22108  0.014887027  0.014198704            5 
 1564000   0.62891229   -8.3256935     279.4445  0.014889413  0.014186691            2 
 1565000    0.6274917   -8.3014476    278.65748  0.014837991  0.014174665            5 
 1566000   0.62161376   -8.3018681    279.20944  0.014857888  0.014162662            2 
 1567000   0.61892604   -8.3475902    278.91718  0.014832865  0.014150661            2 
 1568000   0.61551544   -8.3191505    279.55527  0.014857317  0.014138663            1 
 1569000   0.62133089   -8.3278054    278.35243  0.014783962  0.014126675            2 
 1570000   0.63112735   -8.3457747    278.61973  0.014788733   0.01411471            3 
 1571000   0.61706949   -8.3074911    278.82822  0.014790379  0.014102728            2 
 1572000   0.62566763   -8.3352643    279.54499  0.014818967  0.014090776            2 
 1573000   0.62727917   -8.3266387    279.56664  0.014810693  0.014078829            2 
 1574000   0.62928586   -8.3374209    278.53912  0.014746882  0.014066903            2 
 1575000   0.62441716   -8.3281058    279.15255  0.014769976  0.014054983            7 
 1576000   0.62663662   -8.3188767    279.42408  0.014774962  0.014043082            2 
 1577000   0.63423952   -8.3361377    278.94746  0.014740407  0.014031214            4 
 1578000   0.62457745   -8.3178287    278.23306  0.014693339  0.014019346            2 
 1579000   0.61514247   -8.3318216    278.53257   0.01469984  0.014007465            2 
 1580000    0.6180639   -8.3393957    278.72083  0.014700466  0.013995578            2 
 1581000   0.63024752   -8.3491638    278.89732   0.01470047  0.013983723            2 
 1582000   0.63805527   -8.3315681    278.49866  0.014670178  0.013971895            3 
 1583000   0.61820901   -8.3299802    278.86291  0.014680086   0.01396006            3 
 1584000   0.61286628   -8.3377399    278.66408  0.014660358  0.013948235            3 
 1585000   0.62439952   -8.3138775     278.9258  0.014664868  0.013936404            2 
 1586000   0.61214374   -8.3279039    278.69393  0.014643439  0.013924585            2 
 1587000    0.6235248   -8.3304194    279.14974  0.014658146  0.013912774            2 
 1588000   0.62771939   -8.3184896    279.23782  0.014653538  0.013900961            2 
 1589000   0.60674609   -8.3260185    278.86279  0.014624648  0.013889182            2 
 1590000   0.62994198   -8.3374159    278.78753  0.014611506  0.013877429            2 
 1591000   0.63045663   -8.3268542    278.89803   0.01460811  0.013865682            4 
 1592000    0.6110153   -8.3287205     278.9467  0.014601481  0.013853926            2 
 1593000   0.62361783   -8.3258342     278.7012  0.014579473  0.013842179            3 
 1594000   0.60319181   -8.3478702    278.96276  0.014584001  0.013830454            3 
 1595000   0.61824009   -8.3349809    279.48209   0.01460199   0.01381875            2 
 1596000   0.62020582    -8.337325    278.97424  0.014566324  0.013807047            5 
 1597000   0.60723398   -8.3455376    278.77652  0.014546886  0.013795377            2 
 1598000   0.61982611   -8.3420096    278.87822  0.014543086    0.0137837            3 
 1599000   0.61868687   -8.3552344    279.50481  0.014566646  0.013772023            4 
 1600000   0.61610704   -8.3230859     279.0675  0.014534766  0.013760362            2 
 1601000   0.61972966   -8.3284624    279.14796  0.014529875  0.013748712            3 
 1602000   0.60254735   -8.3311515    279.06392  0.014516433  0.013737075            2 
 1603000   0.61632773   -8.3358098    278.66567  0.014486675   0.01372542            2 
 1604000   0.61631752   -8.3471057    278.72008  0.014480469  0.013713783            1 
 1605000   0.61211357   -8.3459331    278.70509  0.014470669  0.013702184            5 
 1606000   0.62046418   -8.3490014    278.95265  0.014474504  0.013690603            1 
 1607000   0.61662616   -8.3837296    278.40001  0.014436839  0.013678988            2 
 1608000   0.60267976   -8.3486282    279.19113   0.01446886   0.01366741            2 
 1609000   0.61368292   -8.3584182    279.29216    0.0144651  0.013655845            2 
 1610000   0.61848748   -8.3613955    278.33519  0.014406583  0.013644286            3 
 1611000   0.61663501   -8.3510486    278.97468   0.01443072  0.013632729            2 
 1612000   0.60800526   -8.3671909    278.76872  0.014411121   0.01362118            1 
 1613000   0.62363918   -8.3410084    279.14845  0.014421805   0.01360965            3 
 1614000   0.60711698   -8.3390999    279.28372  0.014419853  0.013598143            2 
 1615000   0.60783734   -8.3474537    278.53214  0.014372143  0.013586635            2 
 1616000   0.59415339   -8.3462935    278.69922  0.014371866  0.013575127            2 
 1617000   0.61038527   -8.3639993    278.80373  0.014368364  0.013563632            3 
 1618000    0.6124695   -8.3536803    278.32102  0.014334622  0.013552156            4 
 1619000   0.62588624   -8.3683976    279.00438  0.014360942  0.013540684            2 
 1620000   0.59521293   -8.3737773    278.44748   0.01432343  0.013529213            3 
 1621000   0.61322497   -8.3625397    278.98766  0.014342364  0.013517747            2 
 1622000   0.61267673   -8.3490382    278.65356  0.014316356  0.013506295            6 
 1623000   0.61097219   -8.3517203    278.55729  0.014302593  0.013494856            2 
 1624000   0.58990172   -8.3869714    278.76581  0.014304485  0.013483434            4 
 1625000   0.60818642   -8.3723123    278.67527   0.01429104  0.013472017            2 
 1626000   0.59715082   -8.3837124      278.943  0.014295971  0.013460609            4 
 1627000   0.62901589    -8.378792    278.99998  0.014290103  0.013449225            2 
 1628000   0.59920865   -8.3981908    278.54521  0.014258047  0.013437839            2 
 1629000   0.60275795   -8.3846115    278.46069  0.014244971   0.01342645            3 
 1630000   0.59870391   -8.3572384    278.17641  0.014221698  0.013415062            2 
 1631000   0.59248816   -8.3692929    278.50167  0.014229597  0.013403694            2 
 1632000   0.61686404   -8.3736075    278.50022  0.014220804  0.013392328            4 
 1633000   0.61109467   -8.3835707    278.57119  0.014215717  0.013380958            3 
 1634000   0.59394071   -8.3698041    278.40517   0.01419855  0.013369591            3 
 1635000   0.59033454    -8.388809    278.47097   0.01419322  0.013358248            2 
 1636000   0.59555368    -8.389305    278.68112  0.014195248   0.01334693            1 
 1637000   0.60301576   -8.3934988    278.37303  0.014170893  0.013335605            2 
 1638000   0.59713761   -8.3839575    279.12984  0.014200745  0.013324306            2 
 1639000   0.59526649   -8.3779906     278.8757  0.014179159   0.01331305            4 
 1640000   0.59933012   -8.3811438    278.94146  0.014173855    0.0133018            3 
 1641000   0.59792958   -8.3629186    278.48095  0.014141832  0.013290547            2 
 1642000   0.59543518   -8.3855986    278.40993  0.014129615  0.013279296            2 
 1643000   0.60455522   -8.3849869     278.1596  0.014108318  0.013268047            5 
 1644000   0.59589448   -8.3751612    278.79541  0.014131965  0.013256833            3 
 1645000   0.59026334   -8.3779188    278.25016  0.014095753  0.013245608            2 
 1646000   0.59350672   -8.3866625    278.40502  0.014095029  0.013234375            2 
 1647000   0.59098699   -8.4044252    278.35088  0.014083732  0.013223131            2 
 1648000    0.6088842   -8.3995143    278.25663   0.01407042  0.013211905            2 
 1649000   0.59135623   -8.3951732    277.98849  0.014048337  0.013200724            4 
 1650000   0.59344041   -8.3953477    278.38015  0.014059604  0.013189548            2 
 1651000   0.60094267   -8.3827073    278.62162  0.014063276  0.013178359            2 
 1652000    0.5916208   -8.3807611    278.79844  0.014063682  0.013167204            3 
 1653000   0.59506396   -8.3431064    278.01113  0.014015483  0.013156056            3 
 1654000   0.60115796   -8.3963191    278.55644  0.014034484  0.013144904            5 
 1655000   0.59635823   -8.3772633     278.3308  0.014014642  0.013133765            3 
 1656000   0.58152605   -8.4075946    278.43605  0.014011476  0.013122628            2 
 1657000   0.58939162    -8.401993    278.08813  0.013985522  0.013111492            4 
 1658000   0.59492391   -8.4012927    278.40648  0.013993088  0.013100375            1 
 1659000   0.57598639   -8.3944546    278.31939  0.013980279  0.013089265            6 
 1660000   0.58460769   -8.3992503     278.1861  0.013965166   0.01307817            2 
 1661000   0.58685701   -8.3972276    278.21912  0.013958415  0.013067082            2 
 1662000   0.58965425   -8.3737602       277.85  0.013931508  0.013055996            2 
 1663000   0.61225687   -8.4068276    277.94855  0.013928069  0.013044922            3 
 1664000   0.59832582   -8.4002256    278.23511   0.01393405  0.013033853            2 
 1665000   0.59683468   -8.4016624     278.2296  0.013925405  0.013022796            2 
 1666000   0.57815739   -8.4249771     278.1203   0.01391158  0.013011716            2 
 1667000   0.60856333   -8.4074472    277.77796  0.013886121  0.013000668            4 
 1668000   0.57314028   -8.4060739    277.80117  0.013878955  0.012989628            2 
 1669000   0.59407999   -8.4159534    277.93471  0.013877307   0.01297859            2 
 1670000   0.58876774   -8.3869904    277.66919  0.013855748  0.012967562            2 
 1671000   0.58863388     -8.40593    277.98579  0.013863245  0.012956543            2 
 1672000   0.58233034   -8.4064576    278.11344  0.013861316  0.012945542            3 
 1673000   0.59223647   -8.3990722    278.55171  0.013874861   0.01293457            1 
 1674000   0.57987435   -8.3800098    278.12408  0.013845285  0.012923586            2 
 1675000   0.60032068   -8.3966251    277.79411  0.013820603  0.012912619            2 
 1676000     0.585731   -8.3982287    278.39942  0.013842453  0.012901672            2 
 1677000   0.57349281   -8.4025778    278.12885  0.013820754  0.012890729            3 
 1678000   0.58538011   -8.4148945      277.945  0.013803387  0.012879799            2 
 1679000   0.58867406   -8.4234094    277.63282  0.013779672  0.012868873            2 
 1680000    0.5796715   -8.4095538    277.71376  0.013775484  0.012857969            4 
 1681000    0.5783844    -8.408419    277.47705  0.013755554  0.012847047            3 
 1682000   0.56642742   -8.4224291    277.58908  0.013752927  0.012836125            3 
 1683000   0.58101796   -8.4184574    278.17526   0.01377378  0.012825231            3 
 1684000   0.58206411   -8.4135786    277.54013  0.013734171  0.012814346            2 
 1685000   0.58333282   -8.4082691     277.8272  0.013740218  0.012803476            2 
 1686000    0.5932169   -8.4101333    277.84174  0.013732787  0.012792626            3 
 1687000   0.58481458   -8.4164175    278.22139    0.0137434  0.012781771            3 
 1688000   0.57228273    -8.402968    277.98332  0.013723505   0.01277093            2 
 1689000   0.59126068   -8.3966278    277.84155  0.013708385  0.012760107            3 
 1690000   0.58497886   -8.4044082    277.90938  0.013703618  0.012749286            6 
 1691000   0.57747013    -8.400493    277.94089  0.013697067  0.012738475            6 
 1692000    0.5811386    -8.442134    278.13305  0.013698436  0.012727692            2 
 1693000   0.56151086   -8.4143274    277.69279  0.013668675  0.012716901            1 
 1694000   0.58779797   -8.4266601    277.56777  0.013654455  0.012706126            4 
 1695000   0.57797401   -8.4185567    278.02749  0.013669001  0.012695362            2 
 1696000   0.57905605   -8.4362054    278.12215  0.013665593  0.012684596            3 
 1697000   0.58623353   -8.4309838    277.45403  0.013624732  0.012673843            2 
 1698000   0.56741752   -8.4368033    277.76311  0.013631876  0.012663105            1 
 1699000   0.56683058   -8.4538338    277.97458  0.013634225  0.012652368            3 
 1700000   0.56800584   -8.4190152    277.83742  0.013619481  0.012641659            5 
 1701000   0.56114878   -8.4352252    277.82509  0.013610871  0.012630948            2 
 1702000   0.56672601   -8.4368475    277.52577  0.013588218  0.012620266            4 
 1703000    0.5618241   -8.4384385    277.67788  0.013587682  0.012609576            4 
 1704000   0.57220697   -8.4400166    277.91354  0.013591233  0.012598902            2 
 1705000   0.58440626   -8.4264094    277.95567  0.013585321  0.012588242            3 
 1706000   0.55721273    -8.434427    277.51909  0.013556032  0.012577583            2 
 1707000   0.57128616   -8.4133269    278.03294  0.013573176  0.012566936            3 
 1708000   0.57783524   -8.4392694    278.17115  0.013571972  0.012556288            1 
 1709000   0.57795822   -8.4173419    277.87301  0.013549493   0.01254567            2 
 1710000   0.56505001   -8.4196432    277.76509  0.013536311  0.012535059            1 
 1711000    0.5666281   -8.4269011    278.32907  0.013555867  0.012524453            1 
 1712000   0.57207145   -8.4515621    277.85348  0.013524799  0.012513854            2 
 1713000    0.5598281   -8.4409583    278.08784  0.013528305   0.01250326            3 
 1714000   0.58578567   -8.4464343    277.64261  0.013498766  0.012492671            4 
 1715000   0.58281933   -8.4359703    277.78715  0.013497918  0.012482084            4 
 1716000   0.56988885   -8.4535155    277.10501  0.013456926  0.012471501            1 
 1717000   0.57585623   -8.4415898    277.53988  0.013470194  0.012460929            3 
 1718000   0.57136966   -8.4514123    277.62081  0.013466279  0.012450351            2 
 1719000   0.56051431   -8.4194883    278.28489  0.013490639  0.012439796            2 
 1720000   0.57353376   -8.4532049    277.82745  0.013460632  0.012429258            2 
 1721000   0.58340888   -8.4271152    277.56432   0.01344007  0.012418737            2 
 1722000   0.57318663   -8.4385649    277.59402  0.013433702  0.012408207            2 
 1723000   0.56014634   -8.4437351    277.93614  0.013442452  0.012397694            2 
 1724000   0.54747488   -8.4632274    277.17828  0.013398022  0.012387194            3 
 1725000   0.57085669   -8.4341082    278.07954  0.013433794    0.0123767            1 
 1726000   0.56587229   -8.4541329    277.67743  0.013406597  0.012366228            3 
 1727000   0.57280274   -8.4544953    277.50288  0.013390411  0.012355753            3 
 1728000   0.56267833   -8.4619767    277.62638  0.013388618  0.012345286            4 
 1729000   0.55930924   -8.4434127    277.37405  0.013368712  0.012334833            2 
 1730000   0.56122141   -8.4454353    277.93425   0.01338797  0.012324395            4 
 1731000   0.56447925   -8.4502843    277.80424  0.013373976  0.012313973            4 
 1732000   0.55778745   -8.4446509     277.2782  0.013340945  0.012303569            1 
 1733000   0.55684801   -8.4621459    277.61219  0.013349307  0.012293174            2 
 1734000   0.56157301   -8.4442624    277.71907  0.013346745  0.012282789            4 
 1735000   0.55341908   -8.4421891    277.30359  0.013319096  0.012272413            3 
 1736000   0.56221538   -8.4459103    277.28413   0.01331049  0.012262039            2 
 1737000   0.56100463    -8.451421    277.44991   0.01331078  0.012251671            3 
 1738000   0.55199094   -8.4571135     277.3866  0.013300086  0.012241307            2 
 1739000   0.55429087   -8.4503011    276.92307  0.013270226  0.012230946            4 
 1740000   0.56261642   -8.4518755    277.49166  0.013289831  0.012220605            3 
 1741000   0.56884636   -8.4712647    277.37133  0.013276437  0.012210263            4 
 1742000   0.55903737   -8.4721346    277.50695  0.013275304   0.01219994            3 
 1743000   0.57024135   -8.4545078    277.42935  0.013263977  0.012189618            4 
 1744000   0.55840211   -8.4659857    276.87191  0.013229736  0.012179323            3 
 1745000    0.5491705   -8.4626236    276.95864  0.013226296  0.012169044            2 
 1746000   0.55673046   -8.4753137    277.27295  0.013233723  0.012158759            3 
 1747000   0.56180812   -8.4777678    277.21943  0.013223594  0.012148492            2 
 1748000   0.55832502   -8.4709061    277.80581  0.013243984  0.012138257            1 
 1749000   0.56504918   -8.4680136    277.69531  0.013231147  0.012128019            2 
 1750000   0.56139316   -8.4796278    277.36589    0.0132079   0.01211779            2 
 1751000   0.55019296   -8.4767586    277.36153  0.013200149  0.012107578            2 
 1752000   0.56011545   -8.4580605    277.47809  0.013198159  0.012097364            1 
 1753000   0.56395717   -8.4591934    277.33277  0.013183722  0.012087162            4 
 1754000   0.55322664   -8.4721069    277.77429  0.013197182  0.012076975            3 
 1755000   0.57029715   -8.4706476    277.58174  0.013180519  0.012066795            3 
 1756000   0.55668464   -8.4637334    277.07828  0.013149121   0.01205663            2 
 1757000   0.54139095   -8.4569507    277.41912  0.013157803  0.012046465            3 
 1758000   0.56205116   -8.4852508    277.63316  0.013160464  0.012036316            4 
 1759000   0.55178651   -8.4634367    277.24845  0.013134757  0.012026172            2 
 1760000   0.54480093   -8.4697649     277.2074   0.01312535  0.012016048            3 
 1761000   0.55423713   -8.4677034      277.096  0.013112626  0.012005933            2 
 1762000   0.54753131   -8.4779204    277.07504  0.013104192  0.011995828            2 
 1763000   0.56014049   -8.4727053    277.30971  0.013107852   0.01198572            3 
 1764000   0.53379985   -8.4660608    276.63554  0.013068573  0.011975627            3 
 1765000   0.54535687   -8.4763855    277.29861  0.013092475  0.011965553            3 
 1766000   0.55038001   -8.4833895    277.74627  0.013106185  0.011955498            2 
 1767000   0.53449631   -8.4716011    277.78294  0.013100497  0.011945438            2 
 1768000   0.54519197   -8.4963024     277.4994  0.013079723  0.011935393            2 
 1769000   0.53947773   -8.4776473    277.26422   0.01306125  0.011925352            2 
 1770000   0.54278884   -8.4683374    276.73887  0.013029137  0.011915316            2 
 1771000   0.54767389   -8.4796299    276.91551  0.013030092  0.011905293            4 
 1772000   0.54083377   -8.4757949    277.65699  0.013057609  0.011895297            2 
 1773000   0.55140808   -8.4799318    277.23215  0.013030276  0.011885294            2 
 1774000   0.54466382   -8.4762513    277.11297  0.013017332  0.011875303            3 
 1775000   0.54130129   -8.4909828    277.44711  0.013025686  0.011865321            2 
 1776000   0.54039256    -8.492558    276.97374   0.01299614  0.011855347            4 
 1777000   0.55493705   -8.4875663    276.82223  0.012981721  0.011845378            4 
 1778000   0.54345166   -8.4866536    277.00211  0.012982851  0.011835421            4 
 1779000   0.53838885   -8.4908046     277.1123  0.012980715  0.011825482            4 
 1780000   0.54684856   -8.4978732    277.05983  0.012970966   0.01181555            3 
 1781000    0.5409304   -8.4688274    276.89369  0.012955909  0.011805639            2 
 1782000   0.54709235   -8.4803643    277.16707  0.012961423  0.011795731            3 
 1783000   0.53601779   -8.4807765    277.01151  0.012946883   0.01178584            2 
 1784000   0.53774927   -8.4976953    277.48155  0.012961582  0.011775944            2 
 1785000   0.54236229   -8.4739928    277.03839  0.012933631  0.011766048            2 
 1786000   0.55227752   -8.4879477    276.80871  0.012915673  0.011756173            4 
 1787000   0.54399492   -8.4878967    276.99436  0.012917103    0.0117463            4 
 1788000    0.5360023   -8.4880857    277.53453  0.012935055  0.011736439            3 
 1789000   0.54132484   -8.4963528    277.35644  0.012919529  0.011726584            3 
 1790000   0.53416082   -8.4914414    276.74868  0.012884017  0.011716751            3 
 1791000   0.54112701   -8.4889429     276.8545  0.012881747  0.011706934            2 
 1792000   0.54536324   -8.5040608     277.3338  0.012896847  0.011697124            4 
 1793000   0.54075064   -8.4856744    276.80839  0.012865235  0.011687307            3 
 1794000   0.53895759   -8.4910071    277.36286  0.012883819  0.011677517            2 
 1795000   0.54270316   -8.5212743    276.67876  0.012844882  0.011667713            5 
 1796000   0.52177565   -8.4843062    277.07273   0.01285601  0.011657916            4 
 1797000   0.54299662   -8.4761965    277.20158  0.012854831  0.011648143            4 
 1798000   0.54113198   -8.4911678    277.11246  0.012843551  0.011638373            2 
 1799000   0.53641291   -8.5013128     276.7668    0.0128204  0.011628619            4 
 1800000    0.5349026   -8.5033849    276.51494  0.012801617  0.011618868            2 
 1801000   0.55354498   -8.5041595    276.79488  0.012807463  0.011609129            2 
 1802000   0.52406146   -8.5047017    276.83404  0.012802166  0.011599399            4 
 1803000   0.53593631   -8.4887331    277.04397  0.012804769  0.011589684            4 
 1804000   0.53616643    -8.492228    277.03166  0.012797102  0.011579992            3 
 1805000   0.53126837   -8.5002371    276.41128   0.01276137  0.011570306            3 
 1806000   0.54549997   -8.5037092      277.176   0.01278959  0.011560622            2 
 1807000   0.51717415   -8.4989136     277.2377  0.012785358  0.011550953            2 
 1808000   0.53585558   -8.4991589    276.77285  0.012756861  0.011541296            2 
 1809000   0.54221412   -8.5126776    276.73803  0.012748205  0.011531652            2 
 1810000   0.53481053   -8.5051377    276.87596  0.012747512  0.011522003            3 
 1811000   0.53891596   -8.5077891    277.20909  0.012755802  0.011512378            2 
 1812000   0.52584914   -8.5151871     276.8394   0.01273176   0.01150276            2 
 1813000   0.52432026   -8.4891611    276.56826  0.012712275  0.011493147            3 
 1814000   0.52974897   -8.5069011    276.74911  0.012713576  0.011483544            5 
 1815000    0.5163636   -8.4943626     277.2365  0.012728949  0.011473951            2 
 1816000   0.52814755   -8.5078772    276.61963  0.012693632  0.011464353            4 
 1817000   0.52186372   -8.5096636    276.79505  0.012694691  0.011454775            2 
 1818000   0.52046572   -8.4904861    277.09679  0.012701539  0.011445201            1 
 1819000   0.53380301   -8.5191993    276.64289  0.012673763  0.011435635            4 
 1820000   0.53010231   -8.5116412    276.55655  0.012662846   0.01142608            1 
 1821000   0.52795774   -8.5233867    276.69702   0.01266232  0.011416529            5 
 1822000   0.51054991   -8.5223697    276.75808  0.012658163  0.011406983            3 
 1823000   0.53900418   -8.5178469    276.81579  0.012653857  0.011397456            3 
 1824000   0.52117308   -8.5266041      276.805  0.012646427  0.011387935            1 
 1825000   0.52800696   -8.5345172    276.12127  0.012608277  0.011378413            5 
 1826000   0.51781516   -8.5144195      276.609  0.012623631  0.011368902            2 
 1827000   0.51643296   -8.5193237    276.53334   0.01261327  0.011359402            2 
 1828000   0.53356261   -8.5169288    276.74423  0.012615984  0.011349909            2 
 1829000   0.52500866   -8.5185039    276.99979  0.012620731  0.011340431            2 
 1830000   0.51526187   -8.5162453    276.38888  0.012586014  0.011330976            4 
 1831000   0.50909407   -8.5343018      276.948  0.012604588  0.011321517            5 
 1832000   0.51725005   -8.5268228    276.78386  0.012590241  0.011312073            1 
 1833000   0.50604505   -8.5490175    276.80698  0.012584424  0.011302639            4 
 1834000   0.53104674   -8.5432343    276.47443  0.012562452  0.011293219            2 
 1835000   0.53127036    -8.520629    276.60829  0.012561684  0.011283802            4 
 1836000   0.52325487   -8.5404698    276.66714  0.012557514  0.011274402            2 
 1837000    0.5175371   -8.5296875    276.40705  0.012538879  0.011265002            3 
 1838000   0.52133359   -8.5207499    276.85841  0.012552521   0.01125561            3 
 1839000   0.52220208   -8.5104429    276.71086   0.01253901   0.01124623            3 
 1840000   0.50881108   -8.5238434    276.66287  0.012530021  0.011236873            2 
 1841000   0.52364809   -8.5412655    276.69095  0.012524486  0.011227516            2 
 1842000   0.51337005   -8.5081736    276.16714  0.012493989  0.011218166            3 
 1843000   0.52352873    -8.528561     276.3481  0.012495393  0.011208831            1 
 1844000   0.50914656   -8.5304681     276.5407   0.01249732    0.0111995            5 
 1845000   0.52873515   -8.5452878    276.37338  0.012482989   0.01119017            3 
 1846000   0.51564875    -8.536753    276.83911  0.012497251  0.011180846            3 
 1847000   0.51830579   -8.5466599    276.64848  0.012481884  0.011171528            3 
 1848000   0.50836611   -8.5290472    276.22205  0.012455901  0.011162207            2 
 1849000   0.51192939   -8.5392816    276.52393   0.01246277  0.011152906            3 
 1850000   0.52353201   -8.5573305    276.27102  0.012444641  0.011143617            3 
 1851000   0.51493578   -8.5405782    276.72638  0.012458418  0.011134341            4 
 1852000   0.52706744   -8.5402419    276.16458  0.012426412  0.011125064            3 
 1853000   0.52178048   -8.5376575    276.46569  0.012433248  0.011115803            3 
 1854000   0.51698675   -8.5081758    276.22707  0.012415816  0.011106547            3 
 1855000   0.51171567   -8.5345888    276.73312  0.012431856   0.01109731            3 
 1856000   0.52032437   -8.5405338     276.6102  0.012419639  0.011088075            3 
 1857000   0.50990689   -8.5457779    276.35567  0.012401529  0.011078853            2 
 1858000   0.51004967   -8.5542545      276.337  0.012394017  0.011069637            7 
 1859000   0.51862513    -8.541658    276.67851  0.012402659  0.011060423            4 
 1860000   0.50165132   -8.5338182     276.3623  0.012381824  0.011051219            3 
 1861000   0.50211609   -8.5358626    275.97837  0.012357978  0.011042018            2 
 1862000   0.51011949   -8.5362318    276.02019  0.012353213  0.011032831            2 
 1863000   0.51589942   -8.5469321    276.09205  0.012349796  0.011023658            2 
 1864000   0.51152715   -8.5411405     276.0653  0.012341975  0.011014482            2 
 1865000   0.50791391   -8.5386762    276.01496  0.012333108  0.011005328            4 
 1866000   0.51871272   -8.5352969    276.49011  0.012347719  0.010996192            1 
 1867000     0.507328   -8.5383126    276.01423  0.012319864  0.010987053            3 
 1868000   0.50757417   -8.5459043    276.39151    0.0123301   0.01097793            3 
 1869000   0.49926605   -8.5554081    276.10586  0.012310766  0.010968804            3 
 1870000   0.51135244   -8.5474298    276.38251  0.012316511  0.010959694            3 
 1871000    0.5055772   -8.5563446     275.9904  0.012292464  0.010950585            7 
 1872000   0.50412834   -8.5453757    276.33915  0.012301422  0.010941487            2 
 1873000   0.51131886   -8.5653555     276.8179  0.012316155  0.010932403            2 
 1874000    0.4987099   -8.5556456    276.15599  0.012280149  0.010923337            6 
 1875000    0.4954864    -8.539952    275.98739  0.012266106  0.010914265            3 
 1876000   0.50168577   -8.5517489    276.25108  0.012271281  0.010905203            3 
 1877000   0.51541945    -8.544958    276.06184  0.012256342  0.010896155            2 
 1878000   0.51647088   -8.5484868    276.25724  0.012258486  0.010887121            4 
 1879000   0.50383213   -8.5625628    275.67157  0.012225987  0.010878088            2 
 1880000   0.51131946   -8.5487884    275.88236  0.012228828  0.010869065            3 
 1881000   0.50384269   -8.5647061    276.23848  0.012238104   0.01086005            1 
 1882000     0.500924   -8.5565291    275.86368  0.012215005  0.010851051            3 
 1883000   0.49952933   -8.5631268    276.11953  0.012219841  0.010842068            2 
 1884000   0.49147453   -8.5522563    276.10385  0.012212661  0.010833084            3 
 1885000   0.50690573   -8.5529131     275.6093  0.012184319  0.010824098            3 
 1886000   0.50184355   -8.5788646    275.69696  0.012181732  0.010815137            2 
 1887000   0.51019509   -8.5618699    276.09671   0.01219293  0.010806179            2 
 1888000   0.49865525   -8.5503315    276.31115  0.012195937  0.010797222            5 
 1889000   0.49711093   -8.5634946    276.06909  0.012178802  0.010788279            1 
 1890000   0.48768181   -8.5586536    276.02795  0.012170544  0.010779355            4 
 1891000    0.4955679   -8.5707997    276.39295  0.012180193  0.010770439            8 
 1892000   0.49532237   -8.5589314    275.98871  0.012155951  0.010761528            3 
 1893000   0.49733061   -8.5797384    276.14255  0.012156302  0.010752623            3 
 1894000   0.49608759   -8.5595576     275.8819  0.012138415  0.010743726            2 
 1895000   0.50471465   -8.5909126     276.0851  0.012140946   0.01073483            3 
 1896000   0.50180048   -8.5854545    275.96992   0.01212948  0.010725957            4 
 1897000   0.49564497    -8.573355    275.95675  0.012122507  0.010717085            4 
 1898000   0.49335059   -8.5691244    275.95724  0.012116142  0.010708233            1 
 1899000   0.50173313   -8.5707933    275.96248  0.012109991  0.010699383            2 
 1900000   0.48807918   -8.5814424    276.33515  0.012119963  0.010690546            4 
 1901000   0.50009214   -8.5661398    276.01676   0.01209963  0.010681725            3 
 1902000   0.49759874   -8.5772267    276.06499  0.012095381  0.010672899            2 
 1903000   0.50271174   -8.5727179    275.14408  0.012048698  0.010664084            3 
 1904000   0.48680432   -8.5601194    276.12257  0.012085196  0.010655283            1 
 1905000   0.49151892   -8.5859993    276.25606  0.012084692  0.010646484            4 
 1906000   0.50144827   -8.5823787    276.19311    0.0120756  0.010637696            1 
 1907000   0.49057926   -8.5614781    275.92035  0.012057348  0.010628914            2 
 1908000   0.48327528   -8.5785669    275.52998  0.012033979  0.010620142            1 
 1909000   0.48793314   -8.5780441    275.86884  0.012042467  0.010611382            6 
 1910000   0.49634714   -8.5857377    275.79016   0.01203273  0.010602624            3 
 1911000   0.49432922   -8.5828905      275.496  0.012013605  0.010593876            2 
 1912000   0.48912043   -8.5765218     276.0582  0.012031825  0.010585139            2 
 1913000   0.49693886   -8.5755986    276.19473  0.012031483   0.01057641            4 
 1914000   0.48308791   -8.5667427    275.81594  0.012008705  0.010567691            1 
 1915000   0.47879042   -8.5981838    276.25661   0.01202161  0.010558981            2 
 1916000   0.48998369   -8.5751316    275.64752  0.011988845  0.010550279            3 
 1917000   0.49358197   -8.5811729    276.09937  0.012002233  0.010541593            3 
 1918000   0.48810956   -8.6063004    275.76271  0.011981348  0.010532906            2 
 1919000   0.48758569   -8.5775024    276.05343  0.011987729  0.010524227            3 
 1920000   0.48319943   -8.5829182    275.83566  0.011972034  0.010515564            4 
 1921000   0.48948328   -8.5839677    275.90379  0.011968757  0.010506915            2 
 1922000   0.48761424   -8.5790589    275.76067  0.011956324  0.010498257            4 
 1923000   0.48723195   -8.5746744    275.88289  0.011955404  0.010489622            2 
 1924000   0.48768888   -8.5880652    275.60537   0.01193717  0.010480982            1 
 1925000    0.4931228   -8.6070369    275.85521  0.011941784  0.010472349            2 
 1926000   0.48021866   -8.5607923    275.22646  0.011908379   0.01046373            5 
 1927000   0.49015236   -8.5796795    275.71889  0.011923495  0.010455111            4 
 1928000   0.48006858   -8.5944485    275.40642  0.011903805  0.010446507            2 
 1929000   0.48498115   -8.5781554     275.4973  0.011901559  0.010437914            5 
 1930000   0.48073081   -8.5808487     275.5551  0.011897889  0.010429335            3 
 1931000   0.48139554   -8.5871932    275.46491  0.011887835  0.010420765            3 
 1932000   0.48540506   -8.5780931    275.89149  0.011900082  0.010412197            4 
 1933000   0.48574498   -8.5947973    275.88672   0.01189372  0.010403648            5 
 1934000   0.48783044   -8.5964051    275.68597   0.01187892  0.010395098            3 
 1935000   0.47365284   -8.5960385    275.72386  0.011874413  0.010386552            2 
 1936000   0.47972767   -8.5770808    275.22875  0.011846967  0.010378015            4 
 1937000   0.48539743   -8.5909671    275.49097  0.011852133   0.01036949            2 
 1938000   0.47516859   -8.5943198    274.96908  0.011823576  0.010360968            3 
 1939000   0.47094853   -8.6117636    275.45077   0.01183818  0.010352456            4 
 1940000    0.4795004   -8.5993033    276.15953  0.011862523  0.010343961            2 
 1941000   0.48605891   -8.6066963    275.28953  0.011819059  0.010335465            2 
 1942000   0.47369074   -8.5981942    275.29828  0.011813349  0.010326984            2 
 1943000    0.4669051   -8.6031597    275.29365   0.01180707  0.010318508            2 
 1944000   0.48646281   -8.5915103    275.39422  0.011805308  0.010310039            2 
 1945000   0.47781012   -8.5904512    275.55211  0.011806003  0.010301581            5 
 1946000   0.47712193   -8.5833439    275.61718  0.011802723  0.010293132            2 
 1947000   0.47695051   -8.6037994     275.5107  0.011792103  0.010284706            2 
 1948000   0.46888394   -8.6077812    275.35332  0.011779317  0.010276278            3 
 1949000   0.46506101   -8.5930953    275.49872   0.01177949  0.010267859            2 
 1950000   0.46723504   -8.6066573    275.39855  0.011769169   0.01025945            2 
 1951000   0.46988124   -8.6002437    275.04182  0.011747899  0.010251047            3 
 1952000   0.47771499   -8.5870381    275.64487  0.011767626  0.010242651            2 
 1953000   0.47148471   -8.6108256    275.24457   0.01174452  0.010234263            2 
 1954000   0.46667261   -8.6222214    275.22836  0.011737818   0.01022588            3 
 1955000   0.47054209   -8.5916414    275.52596    0.0117445  0.010217512            3 
 1956000   0.47072064    -8.603426    275.57154  0.011740437  0.010209149            3 
 1957000   0.46885164   -8.6242658    275.45107  0.011729308  0.010200801            4 
 1958000   0.45915903   -8.5939628    275.21523   0.01171328  0.010192454            3 
 1959000   0.47236927    -8.608099    275.20262  0.011706764  0.010184125            2 
 1960000   0.46889365   -8.5966214    275.01704  0.011692901  0.010175793            4 
 1961000   0.46839875   -8.6031961    275.57905  0.011710821  0.010167479            5 
 1962000   0.46971926   -8.6002498    275.56138  0.011704102  0.010159163            3 
 1963000   0.47093275   -8.6054083    275.54524  0.011697455  0.010150864            3 
 1964000   0.47516705   -8.6236681    275.45259  0.011687567  0.010142566            3 
 1965000   0.46378531   -8.6292061    275.27691  0.011674169   0.01013429            4 
 1966000   0.47875996   -8.6163723    275.50198  0.011677771  0.010126012            3 
 1967000   0.46949461   -8.6253281    275.37461  0.011666438   0.01011774            2 
 1968000   0.46670252   -8.6182523    275.40906  0.011661969  0.010109478            4 
 1969000   0.46192794   -8.5986092    275.35428  0.011653728  0.010101233            3 
 1970000   0.46754834   -8.6255745    275.40092  0.011649785  0.010092993            4 
 1971000   0.45770846   -8.6177638    275.70626  0.011656784  0.010084764            4 
 1972000   0.47189913   -8.6043464    275.12065  0.011626126  0.010076551            3 
 1973000   0.46720278   -8.6253585    275.25976  0.011626109  0.010068349            3 
 1974000   0.47084018   -8.6026765    275.09419   0.01161323  0.010060143            6 
 1975000   0.46837155   -8.6047448    275.33441  0.011617486  0.010051954            5 
 1976000   0.46934652   -8.6272338    275.46429  0.011617084  0.010043769            3 
 1977000   0.44999621   -8.6229074    275.21063  0.011600515  0.010035592            4 
 1978000   0.46259761   -8.6130402    275.16121  0.011592569  0.010027422            6 
 1979000   0.47130083   -8.6218937    275.26311  0.011591002  0.010019267            5 
 1980000   0.44742556   -8.6148366    275.07345  0.011577166  0.010011103            3 
 1981000   0.45546705   -8.6188678    275.37298  0.011583922  0.010002957            3 
 1982000   0.45155032   -8.6238243    274.96071  0.011560743 0.0099948167            4 
 1983000   0.46580513   -8.6163709    275.01139  0.011557043 0.0099866792            4 
 1984000     0.462176   -8.6136974    275.22373  0.011560137 0.0099785579            5 
 1985000   0.44773077    -8.619089    275.20407  0.011553487 0.0099704409            3 
 1986000   0.46682674   -8.6201352    274.78786  0.011530205 0.0099623336            2 
 1987000   0.45413327   -8.6313168    275.02448  0.011534327  0.009954232            4 
 1988000   0.45916003   -8.6236326    275.32415  0.011541086 0.0099461379            3 
 1989000   0.46307507   -8.6358638     275.2867  0.011533715 0.0099380547            4 
 1990000    0.4713587   -8.6093578    275.07218  0.011518935 0.0099299807            3 
 1991000   0.45374624   -8.6191825    275.15228  0.011516503 0.0099219209            1 
 1992000   0.46284676   -8.6264174    275.06055  0.011506884 0.0099138635            2 
 1993000    0.4542112   -8.6181798    274.97265  0.011497435 0.0099058085            6 
 1994000    0.4510502   -8.6207337    275.39858  0.011509469 0.0098977739            2 
 1995000    0.4514549   -8.6115227    275.09849  0.011491165 0.0098897417            2 
 1996000   0.46006091   -8.6379494    275.24958  0.011491716 0.0098817258            4 
 1997000   0.45967507   -8.6270443     275.2016  0.011483959 0.0098737037            2 
 1998000   0.45675909   -8.6239839     274.9064  0.011465899  0.009865695            2 
 1999000   0.45444427   -8.6399949    275.33795  0.011478154 0.0098576956            2 
 2000000   0.46800969    -8.626726    275.32238  0.011471766 0.0098497027            1 
 2001000   0.44263032   -8.6309658    275.17551  0.011459916 0.0098417164            1 
 2002000   0.46230987   -8.6398535    274.94044  0.011444407 0.0098337369            4 
 2003000   0.45030121   -8.6348648    274.99156   0.01144082 0.0098257665            3 
 2004000   0.45591918   -8.6290802    275.23598  0.011445275  0.009817805            1 
 2005000   0.45044306   -8.6406335    274.80292  0.011421568 0.0098098533            3 
 2006000   0.46129649   -8.6450313    274.92434  0.011420918 0.0098019063            1 
 2007000   0.45634856   -8.6471273    274.78545  0.011409461 0.0097939626            3 
 2008000   0.45874362   -8.6338523    275.77629  0.011444899 0.0097860273            3 
 2009000   0.45397867   -8.6356431    275.23464  0.011416735 0.0097781043            3 
 2010000   0.44295616   -8.6430006     274.9746  0.011400274 0.0097701867            2 
 2011000   0.45016984   -8.6393959    275.19157  0.011403596 0.0097622724            1 
 2012000   0.44837269   -8.6236141    274.70943  0.011377958 0.0097543667            1 
Loop time of 4762.9 on 48 procs for 2000000 steps with 4000 atoms

Performance: 72560.812 tau/day, 419.912 timesteps/s
99.4% CPU use with 48 MPI tasks x no OpenMP threads

MPI task timing breakdown:
Section |  min time  |  avg time  |  max time  |%varavg| %total
---------------------------------------------------------------
Pair    | 302.61     | 318.6      | 333.2      |  46.0 |  6.69
Neigh   | 31.052     | 32.531     | 33.87      |  13.1 |  0.68
Comm    | 300.82     | 319.1      | 338.59     |  54.9 |  6.70
Output  | 4.2748     | 4.2769     | 4.314      |   0.3 |  0.09
Modify  | 4037.5     | 4045.3     | 4051.8     |   5.9 | 84.93
Other   |            | 43.13      |            |       |  0.91

Nlocal:        83.3333 ave          88 max          78 min
Histogram: 3 0 3 4 7 9 8 5 3 6
Nghost:        2050.75 ave        2072 max        2035 min
Histogram: 4 8 6 5 7 5 6 2 2 3
Neighs:        13313.1 ave       14684 max       11740 min
Histogram: 1 2 3 8 5 10 13 3 1 2
FullNghs:      26625.8 ave       28561 max       24741 min
Histogram: 3 0 6 6 10 9 7 2 3 2

Total # of neighbors = 1278038
Ave neighs/atom = 319.50950
Neighbor list builds = 107084
Dangerous builds = 0

#clear
#
#next RN
#
#jump SELF
Total wall time: 1:19:26
