
units lj                  # Use reduced LJ style units
atom_style atomic         # Uncharged point particles
atom_modify map hash      # Needed for indexing of clusters etc
                          # Used to be able to find where atoms are in relation to each other.

lattice fcc 1.0 spacing 1 1 1
Lattice spacing in x,y,z = 1.5874011 1.5874011 1.5874011
region box block 0 10 0 10 0 10 units lattice
create_box 2 box
Created orthogonal box = (0.0000000 0.0000000 0.0000000) to (15.874011 15.874011 15.874011)
  3 by 4 by 4 MPI processor grid
create_atoms 1 box
Created 4000 atoms
  using lattice units in orthogonal box = (0.0000000 0.0000000 0.0000000) to (15.874011 15.874011 15.874011)
  create_atoms CPU = 0.003 seconds
set type 1 type/fraction 2 0.77 78393
Setting atom values ...
  3073 settings made for type/fraction
mass 1 1.0
mass 2 1.0
pair_style lj/cut  3.5
pair_modify tail  yes
pair_coeff 1  1  1.0  1.0   # Intearaction between 1 and 1 set with epsilon = 1 and sigma = 1
pair_coeff 1  2  1.5  0.8
pair_coeff 2  2  0.5  0.88

write_data data.0
System init for write_data ...
Neighbor list info ...
  update every 1 steps, delay 10 steps, check yes
  max neighbors/atom: 2000, page size: 100000
  master list distance cutoff = 3.8
  ghost atom cutoff = 3.8
  binsize = 1.9, bins = 9 9 9
  1 neighbor lists, perpetual/occasional/extra = 1 0 0
  (1) pair lj/cut, perpetual
      attributes: half, newton on
      pair build: half/bin/atomonly/newton
      stencil: half/bin/3d
      bin: standard
WARNING: Not all mixed pair coeffs generated from mixing. Use write_data with 'pair ij' option to store all pair coeffs. (../write_data.cpp:312)


#############################
#   M E L T   S Y S T E M   #
#############################

velocity all create 2.4 1741580 mom yes dist gaussian # Assign velocities
                                                    # Temperature 2.4, random number seed, zero linear momentum
                                                                                # Gaussian distribution

timestep 0.002   # simulation timestep
thermo 1000       # output thermodynamic data every 1000 steps bf 100

# Define a fix  in this case with index 1 applied to all
# particles in the simulation. This fix is for simulations
# in the anisotropic NPT ensemble. Note that we use the MTK
# correction.
fix 1 all npt temp 2.4 2.4 0.1 iso 5.68 5.68 0.5 mtk yes tchain 5 pchain 5 # Use NPT ensemble
                                                                         # Set temperature and pressure and damping
                                                                         # Numbers of thermostats in chain and in barostat
run 10000          # run for 10000 steps
Per MPI rank memory allocation (min/avg/max) = 3.642 | 3.644 | 3.648 Mbytes
Step Temp E_pair E_mol TotEng Press Volume 
       0          2.4   -3.8453673            0  -0.24626728   -3.4249601         4000 
    1000    2.3381308   -3.2986069            0   0.20771247    5.4824706    3748.1605 
    2000    2.3637153   -3.2844858            0   0.26020078    5.6212989    3763.0036 
    3000    2.4025238   -3.3065909            0   0.29629379    5.5661121    3743.4147 
    4000    2.3974085   -3.2422346            0   0.35297912    5.7860943    3766.4985 
    5000    2.3462234   -3.3080502            0   0.21040497    5.5060289    3747.4431 
    6000    2.4741067   -3.2808128            0   0.42941955    5.5618903     3773.605 
    7000    2.3894531    -3.254488            0   0.32879558    5.7405609    3753.7556 
    8000    2.4303408   -3.2769049            0   0.36769488    6.0958741    3716.1319 
    9000    2.3803705   -3.2773763            0   0.29228686    5.5507894    3757.0949 
   10000    2.3637214   -3.2875899            0   0.25710583    6.1057496    3693.8294 
Loop time of 2.59544 on 48 procs for 10000 steps with 4000 atoms

Performance: 665782.758 tau/day, 3852.909 timesteps/s
99.6% CPU use with 48 MPI tasks x no OpenMP threads

MPI task timing breakdown:
Section |  min time  |  avg time  |  max time  |%varavg| %total
---------------------------------------------------------------
Pair    | 1.1664     | 1.2325     | 1.3072     |   3.0 | 47.49
Neigh   | 0.21563    | 0.22356    | 0.23092    |   0.7 |  8.61
Comm    | 0.79293    | 0.87955    | 0.9565     |   3.8 | 33.89
Output  | 0.00025181 | 0.00025662 | 0.00032094 |   0.0 |  0.01
Modify  | 0.21955    | 0.24426    | 0.25999    |   2.0 |  9.41
Other   |            | 0.01531    |            |       |  0.59

Nlocal:        83.3333 ave          94 max          74 min
Histogram: 1 4 2 14 6 6 6 4 1 4
Nghost:        1727.02 ave        1758 max        1686 min
Histogram: 1 2 4 4 9 6 5 8 5 4
Neighs:        10325.6 ave       11857 max        8996 min
Histogram: 1 4 7 9 6 7 7 3 1 3

Total # of neighbors = 495630
Ave neighs/atom = 123.90750
Neighbor list builds = 914
Dangerous builds = 222

# Equilibrate just above the melting temperature to avoid step fn in T

fix 1 all npt temp 1.25 1.25 0.1 iso 5.68 5.68 0.5 mtk yes tchain 5 pchain 5
run 2000
Per MPI rank memory allocation (min/avg/max) = 3.644 | 3.646 | 3.649 Mbytes
Step Temp E_pair E_mol TotEng Press Volume 
   10000    2.3637214   -3.2875899            0   0.25710583    6.1057496    3693.8294 
   11000    1.2573271   -4.8521311            0   -2.9666119    5.7580544    2868.7411 
   12000    1.2413849   -4.8904237            0   -3.0288118    5.6231421    2856.5963 
Loop time of 0.655613 on 48 procs for 2000 steps with 4000 atoms

Performance: 527139.962 tau/day, 3050.578 timesteps/s
99.6% CPU use with 48 MPI tasks x no OpenMP threads

MPI task timing breakdown:
Section |  min time  |  avg time  |  max time  |%varavg| %total
---------------------------------------------------------------
Pair    | 0.28981    | 0.31763    | 0.3441     |   2.4 | 48.45
Neigh   | 0.040089   | 0.043252   | 0.047243   |   0.8 |  6.60
Comm    | 0.21748    | 0.24436    | 0.27462    |   3.0 | 37.27
Output  | 5.3736e-05 | 5.5509e-05 | 7.269e-05  |   0.0 |  0.01
Modify  | 0.040649   | 0.045357   | 0.048811   |   1.1 |  6.92
Other   |            | 0.004954   |            |       |  0.76

Nlocal:        83.3333 ave          90 max          77 min
Histogram: 3 3 5 8 5 8 7 5 1 3
Nghost:        2057.10 ave        2082 max        2041 min
Histogram: 5 7 5 7 10 5 7 0 1 1
Neighs:        13361.4 ave       15432 max       11781 min
Histogram: 4 6 4 7 9 6 7 3 1 1

Total # of neighbors = 641347
Ave neighs/atom = 160.33675
Neighbor list builds = 142
Dangerous builds = 7

#############################
# L I N E A R  Q U E N C H  #
#############################

# Define solid atoms. This closely follows ten Wolde  Ruiz-Montero and Frenkel  Faraday Discuss  1996  104  93-110
# Compute components of the per-atom q6 vector
compute q6 all orientorder/atom degrees 1 6 components 6 nnn NULL cutoff 1.3 # compute the Q6 parameter.
                                                                             # Use all neighbours within 1.3 unit cell.

# get number of connections
compute coord_number all coord/atom orientorder q6 0.5

# An atom is solid if it has 8 or more connections (of a possible 14)
variable is_solid atom c_coord_number>=8
group solid dynamic all var is_solid    # Must be dynamic to update
dynamic group solid defined

# do clustering
compute cluster solid cluster/atom 1.3 # Create a cluster where all atoms within are solid and max 1.3 units from another member

# define chunks one chunk per cluster
compute clus_chunks solid chunk/atom c_cluster nchunk every compress yes  # Says which atoms are in which chunk

# count the size of each chunk
compute size_chunks solid property/chunk clus_chunks count


# Find the maximum entry in the vector of chunk sizes
variable max_n equal max(c_size_chunks)


# Thermo style which includes this variable
# thermo_style custom step temp pe vol v_max_n

thermo ${N}  # Print the thermo information every 100 steps
thermo 1000  

# Reset the npt fix at a lower temperature (below freezing)
fix 1  all npt temp  ${temp} ${temp}  0.1  iso  5.68  5.68  0.5  mtk yes tchain  5  pchain  5
fix 1  all npt temp  0.45 ${temp}  0.1  iso  5.68  5.68  0.5  mtk yes tchain  5  pchain  5
fix 1  all npt temp  0.45 0.45  0.1  iso  5.68  5.68  0.5  mtk yes tchain  5  pchain  5

dump dmp2 all dcd ${N} traj.dcd
dump dmp2 all dcd 1000 traj.dcd


compute msd all msd com yes
variable twopoint equal c_msd[4]/6/(step*dt+1.0e-6)
fix 9 all vector 10 c_msd[4]
variable fit equal slope(f_9)/6/(10*dt)
thermo_style custom step temp pe c_msd[4] v_twopoint v_fit v_max_n

fix 1 all npt temp 1.25 ${temp} 0.1 iso 5.68 5.68 0.5 mtk yes tchain 5 pchain 5
fix 1 all npt temp 1.25 0.45 0.1 iso 5.68 5.68 0.5 mtk yes tchain 5 pchain 5
run 5000000 # 5000000  # Run for this many steps
Neighbor list info ...
  update every 1 steps, delay 10 steps, check yes
  max neighbors/atom: 2000, page size: 100000
  master list distance cutoff = 3.8
  ghost atom cutoff = 3.8
  binsize = 1.9, bins = 8 8 8
  4 neighbor lists, perpetual/occasional/extra = 1 3 0
  (1) pair lj/cut, perpetual
      attributes: half, newton on
      pair build: half/bin/atomonly/newton
      stencil: half/bin/3d
      bin: standard
  (2) compute orientorder/atom, occasional
      attributes: full, newton on
      pair build: full/bin/atomonly
      stencil: full/bin/3d
      bin: standard
  (3) compute coord/atom, occasional
      attributes: full, newton on
      pair build: full/bin/atomonly
      stencil: full/bin/3d
      bin: standard
  (4) compute cluster/atom, occasional
      attributes: full, newton on
      pair build: full/bin/atomonly
      stencil: full/bin/3d
      bin: standard
Per MPI rank memory allocation (min/avg/max) = 9.838 | 9.844 | 9.850 Mbytes
Step Temp PotEng c_msd[4] v_twopoint v_fit v_max_n 
   12000    1.2413849   -4.8904237 3.157613e-30 2.1927867e-32 8.3333333e+20            1 
   13000    1.2701393   -4.9429902   0.69966534 0.0044850341  0.058800394            2 
   14000    1.2459349   -4.8719739    1.4426883 0.0085874298  0.059310834            2 
   15000    1.2396736   -4.8353315    2.1589517  0.011994176  0.060317693            2 
   16000    1.2532129    -4.909152    2.9290627  0.015255534  0.060664337            2 
   17000    1.2055438   -4.8897288    3.6787776  0.018033223   0.06126835            1 
   18000    1.2628134   -4.8963657    4.4195735  0.020460988  0.061357877            3 
   19000    1.2342419   -4.9314334    5.1401892  0.022544689  0.061607177            1 
   20000    1.2398378   -4.9140496    5.9307488  0.024711453  0.061810421            2 
   21000    1.2346035     -4.87296    6.7582471   0.02681844  0.062164947            3 
   22000    1.2250964   -4.8691575    7.5478967  0.028590517  0.062542549            4 
   23000    1.2834686   -4.8792892    8.2954509  0.030055981  0.062828956            2 
   24000    1.2468938   -4.8559042    8.9088638  0.030933554  0.062876712            1 
   25000    1.2474309   -4.8763146    9.6677922  0.032225973   0.06269967            2 
   26000    1.2410422   -4.8618591    10.361873  0.033211131  0.062546263            2 
   27000    1.2209135   -4.9017859    11.084271  0.034210712  0.062294671            1 
   28000    1.2509344   -4.8878888    11.794813  0.035103611  0.062055065            4 
   29000    1.2635166    -4.890259    12.550635  0.036065041  0.061971833            1 
   30000    1.2274056   -4.8726585    13.413527  0.037259795  0.061954557            2 
   31000     1.260619   -4.9133647    14.183839  0.038128598  0.062059152            4 
   32000    1.2754777   -4.9129661    15.105385   0.03933694  0.062295901            2 
   33000    1.2234636   -4.9042244    15.879922  0.040100813   0.06250746            1 
   34000    1.2667661   -4.9021267    16.614964   0.04072295  0.062685132            1 
   35000     1.244149   -4.9050849    17.502438  0.041672471  0.062874588            1 
   36000    1.2542999    -4.862995    18.303468  0.042369138  0.063123043            2 
   37000    1.2557327   -4.8790632    18.960849  0.042704614  0.063292807            2 
   38000    1.2543908     -4.87215    19.844755  0.043519199  0.063420404            2 
   39000    1.2481456   -4.8945037    20.523524  0.043853682  0.063496899            4 
   40000    1.2671389   -4.8781283    21.081548   0.04391989  0.063497442            1 
   41000    1.2604753   -4.9085586    21.831446  0.044372858  0.063472756            4 
   42000    1.2257962   -4.8938419    22.549381  0.044740835  0.063376884            2 
   43000    1.2413397   -4.9011039     23.13705  0.044839244  0.063286164            2 
   44000    1.2603661   -4.9089752     23.78664  0.045050454  0.063163897            2 
   45000    1.2287815   -4.8926735    24.620635  0.045593768  0.063024929            1 
   46000    1.2338915   -4.8746635    25.292613  0.045819951  0.062892545            3 
   47000    1.2542608   -4.8438251    25.929129  0.045973633   0.06275602            2 
   48000    1.2326031   -4.8917446     26.58678  0.046157604  0.062601744            2 
   49000    1.2340293   -4.8869682    27.246383  0.046337386  0.062449797            2 
   50000    1.2470283   -4.8880718    28.047041  0.046745069  0.062308192            2 
   51000    1.2467526     -4.89943     28.73814  0.046957745  0.062206563            3 
   52000    1.2629882    -4.954346    29.599032  0.047434346  0.062121417            2 
   53000    1.2593179   -4.8911967    30.467057  0.047904178   0.06207253            3 
   54000    1.2358808   -4.8671315    31.118898  0.048022991  0.062029181            3 
   55000     1.223816   -4.9164109    31.824129  0.048218377  0.061966457            5 
   56000    1.2442291    -4.906911    32.492992  0.048352665  0.061906737            3 
   57000    1.2431814   -4.8888489    33.151124  0.048466555  0.061849756            1 
   58000    1.2345599   -4.8577797    34.211716  0.049154763  0.061820007            1 
   59000    1.2573399    -4.902891    34.915787  0.049316082  0.061833174            2 
   60000      1.22594   -4.9284283    35.755184  0.049659977  0.061843499            3 
   61000    1.2518394   -4.9184319    36.405625   0.04973446  0.061867588            1 
   62000    1.2357689   -4.8911887    37.260975  0.050081955  0.061883861            1 
   63000    1.2412474   -4.9075262    37.773665  0.049965166  0.061869824            2 
   64000    1.2180338   -4.8660606    38.783922  0.050499898  0.061867414            2 
   65000    1.2072651   -4.8967869     39.48753  0.050625038  0.061886826            2 
   66000    1.2550954   -4.9700723     40.00031  0.050505442  0.061885426            4 
   67000    1.2430481   -4.8717947    41.211144  0.051257641  0.061902268            4 
   68000    1.2137229   -4.8787981     41.67838  0.051076445  0.061929395            1 
   69000     1.259704   -4.9263405    42.422159  0.051234491  0.061938442            1 
   70000    1.2628685   -4.8817203    43.220478  0.051452949  0.061951762            3 
   71000    1.2120393   -4.9134883    44.243343  0.051928806  0.061991097            1 
   72000    1.2346207   -4.8925691    44.854642  0.051915094  0.062037585            1 
   73000    1.2313457   -4.9252827    45.285411  0.051695674  0.062050061            2 
   74000    1.2257139   -4.9347252    46.064497  0.051874433  0.062046006            2 
   75000    1.2404636    -4.914486    46.682988  0.051869986  0.062026144            3 
   76000    1.2678961   -4.9168242    47.509135  0.052093349  0.062011613            3 
   77000    1.2433274   -4.9256858    47.789842  0.051720607  0.061952793            4 
   78000       1.2241   -4.8962597    48.633657  0.051959035  0.061869436            2 
   79000    1.2382719   -4.8780909    49.519317  0.052235567  0.061822125            3 
   80000    1.2387244   -4.9229939    50.033506  0.052118235  0.061785776            3 
   81000    1.2330797   -4.9244556     50.93351   0.05240073  0.061753504            3 
   82000    1.2509852   -4.9110932      51.5428  0.052380894  0.061721629            2 
   83000    1.2648888   -4.9033961    52.150261    0.0523597  0.061683138            3 
   84000    1.2304186     -4.93552    52.889698  0.052469938  0.061640893            2 
   85000    1.2341134   -4.8668338    53.792856  0.052738093  0.061601469            2 
   86000    1.2635917   -4.8994047    54.461702  0.052772966  0.061566025            1 
   87000    1.2508879   -4.8927992    55.039932  0.052720242  0.061525968            2 
   88000    1.2322989   -4.9278326    55.839874  0.052878669  0.061482017            2 
   89000    1.2839233   -4.8821969    56.289062  0.052705114  0.061430186            1 
   90000    1.2370834   -4.8802548    57.195427  0.052958728  0.061384747            1 
   91000    1.2297545   -4.9310483     58.01426  0.053126611  0.061346069            3 
   92000    1.2358164    -4.869923    58.561116  0.053044489  0.061312186            3 
   93000    1.2464998   -4.8814921     59.53669  0.053348288   0.06127686            1 
   94000    1.2409642   -4.9358223    59.973008   0.05316756  0.061243722            1 
   95000    1.2401952   -4.8673264    60.722628  0.053265463  0.061192676            2 
   96000    1.2633469   -4.9064093    61.249506  0.053167974  0.061135651            2 
   97000      1.23906   -4.9379836     62.01687  0.053279097   0.06109653            2 
   98000    1.2425127   -4.9313813    62.920691  0.053503988  0.061066671            2 
   99000    1.2288318   -4.9210899    63.866492  0.053759673  0.061052698            2 
  100000    1.2278207   -4.9008777    64.725135  0.053937612  0.061046142            2 
  101000     1.212082   -4.9383523    65.540589  0.054076393  0.061043396            3 
  102000    1.2130058   -4.9112025    66.051088  0.053963307  0.061047114            3 
  103000    1.2470184   -4.9291001    67.224225  0.054388531  0.061052044            3 
  104000    1.2517721   -4.8994521    67.844548  0.054362618  0.061063458            2 
  105000     1.269192   -4.9612709     68.39149   0.05427896  0.061067673            3 
  106000    1.2474705   -4.8555851    69.382615  0.054546081  0.061071558            1 
  107000    1.2252837   -4.8982502    69.479328  0.054111626  0.061061077            5 
  108000    1.2077846    -4.909859    70.151149  0.054128972   0.06104169            2 
  109000    1.2357524   -4.9006075    71.096302   0.05435497  0.061017213            4 
  110000     1.214784    -4.927471    71.663912  0.054290842   0.06099267            2 
  111000    1.2313461    -4.897451    72.572539  0.054483888  0.060970277            3 
  112000    1.1957428    -4.890994    73.002049     0.054317  0.060947952            3 
  113000    1.2488675   -4.9297603    73.953313  0.054537841  0.060924179            1 
  114000    1.2499987   -4.9071027    74.735038  0.054630875  0.060912872            2 
  115000    1.2262634   -4.9503864    75.349627  0.054601178   0.06090394            5 
  116000    1.2414137   -4.9775608    76.161573  0.054713773   0.06090662            2 
  117000    1.2461118   -4.9366505    76.900961  0.054772764  0.060910933            5 
  118000    1.2369745   -4.8817455    77.751297  0.054909108  0.060914099            7 
  119000    1.2072104   -4.9010353    78.645718  0.055074032  0.060911429            1 
  120000    1.2614471   -4.9251227    79.450251  0.055173785   0.06090932            5 
  121000     1.230258    -4.898415    79.894835  0.055023991  0.060910282            2 
  122000    1.2069691   -4.9346712    80.773452  0.055173123  0.060909104            3 
  123000    1.2539109   -4.9284117    81.495977  0.055214076  0.060909666            2 
  124000    1.2454381   -4.9434886    82.439436  0.055402846  0.060919319            3 
  125000    1.2001531   -4.9602534    82.864418  0.055242945  0.060923154            2 
  126000     1.228443   -4.9069848    83.523803   0.05524061  0.060922043            2 
  127000    1.2350842   -4.9050512    84.275369  0.055298799  0.060917082            5 
  128000    1.2332356   -4.8922167    85.224261  0.055484545  0.060906392            2 
  129000    1.2307888   -4.9324637    85.688076  0.055354054  0.060902091            1 
  130000    1.2216519   -4.8954152    86.755251   0.05561234  0.060898423            2 
  131000    1.2364304    -4.954006    86.962163  0.055319442  0.060892971            3 
  132000    1.2472399   -4.8665707     87.82573  0.055445536  0.060887316            2 
  133000    1.2306066   -4.9118725    88.223702  0.055278009  0.060876721            2 
  134000     1.234795   -4.9569248    89.206568  0.055476721  0.060866904            1 
  135000    1.2474369   -4.9151631    90.246107  0.055707473  0.060861042            4 
  136000    1.2352867   -4.8905502     90.94462   0.05572587  0.060857222            2 
  137000    1.2156918   -4.8740353    91.678135  0.055765289  0.060857033            2 
  138000    1.2285886   -4.9155311     92.10299  0.055617747  0.060851203            1 
  139000    1.2084951    -4.908618    92.873728  0.055679693  0.060843318            3 
  140000    1.2203921   -4.9086935    94.023302  0.055966251  0.060836644            2 
  141000    1.2101038   -4.9213399    94.005425  0.055558762  0.060825122            1 
  142000    1.2115641   -4.8930762    94.860226  0.055669146  0.060813599            4 
  143000    1.2256896   -4.9371876    95.581627  0.055700249  0.060805656            2 
  144000    1.2255762   -4.9595588    96.401027  0.055787631  0.060799133            3 
  145000    1.2138812   -4.9047074    97.103354  0.055806525  0.060786548            2 
  146000    1.2329627   -4.9413094    97.730851  0.055782449  0.060766828            2 
  147000     1.224782    -4.938007    98.599082  0.055895171  0.060745211            4 
  148000    1.2299491    -4.945363    98.319736  0.055360212  0.060724725            2 
  149000     1.229315   -4.9259647    99.495229  0.055646101  0.060694913            3 
  150000    1.2382785   -4.9344688    99.421587  0.055234215  0.060663493            2 
  151000    1.2367964   -4.9300381    100.16057  0.055276251  0.060628092            3 
  152000    1.2114475   -4.9677985    100.70544  0.055211313  0.060590074            7 
  153000    1.2037929   -4.9465272    101.98364  0.055546644  0.060554825            2 
  154000    1.2222689   -4.9357951    102.38412  0.055402663  0.060523676            1 
  155000    1.2503276   -4.9242866    102.32006  0.055010786  0.060488227            2 
  156000    1.2201749   -4.9323308    103.57526  0.055328662  0.060450503            3 
  157000    1.2547047    -4.930479    103.82974  0.055111324  0.060413055            5 
  158000    1.2257795   -4.9085889    105.20712  0.055488987  0.060374071            3 
  159000    1.2441826   -4.8894076    105.45653  0.055270717  0.060332758            2 
  160000    1.2320088    -4.941605    105.77472     0.055091  0.060289583            7 
  161000    1.2117076   -4.9443889    106.12066  0.054927877  0.060243608            4 
  162000    1.2200721   -4.9422839    106.75901  0.054917185  0.060195931            4 
  163000    1.2543344   -4.8985428     107.7892  0.055106953  0.060145589            4 
  164000    1.2122328   -4.9315702    108.07017  0.054913705  0.060095712            4 
  165000    1.2451188     -4.93852     109.1015   0.05510177  0.060047785            2 
  166000    1.2225502   -4.9266064    109.81628  0.055128653  0.060000717            1 
  167000     1.214141   -4.9080913    110.70482  0.055241926  0.059959436            1 
  168000    1.2211717   -4.9038874    111.28147  0.055199144  0.059917254            2 
  169000    1.2392528   -4.8989953    112.12806  0.055289969  0.059882929            1 
  170000    1.2000423    -4.940228    112.84265  0.055315025  0.059848898            3 
  171000    1.2211164   -4.9625148    113.22562  0.055178176  0.059813972            3 
  172000    1.2087991   -4.9277862    114.31397  0.055384675   0.05977955            3 
  173000    1.2498135   -4.9703878    114.52426   0.05516583  0.059750272            3 
  174000     1.237413   -4.9608703    115.33047  0.055234899  0.059724323            2 
  175000     1.241007   -4.9719353    116.04021  0.055257244  0.059700536            1 
  176000     1.220472   -4.9449282    116.63873  0.055226669  0.059671871            6 
  177000    1.2402656   -4.9583024    117.62916  0.055380959  0.059644179            4 
  178000    1.2294047   -4.9537486    118.09081  0.055285958  0.059617667            3 
  179000    1.2134881   -4.9146934    119.60327  0.055681226  0.059591815            3 
  180000      1.23326   -4.8930266    119.50362  0.055325748  0.059561307            1 
  181000    1.2167365   -4.9499244    120.46916  0.055464622     0.059533            2 
  182000    1.2027693   -4.9840687    120.92063   0.05536659  0.059507646            2 
  183000    1.1984327   -5.0028069    121.26364  0.055220235  0.059478068            2 
  184000    1.2398341    -4.923207    122.33029  0.055403212  0.059452313            2 
  185000     1.216734    -4.921277    122.76702   0.05530046  0.059422754            2 
  186000    1.2093681   -4.9603607    123.23156   0.05521127   0.05939212            3 
  187000    1.2151038   -4.9032349     124.6835  0.055563059  0.059359435            2 
  188000    1.2170402   -4.9329389    124.84549  0.055339312  0.059327613            4 
  189000    1.2149435   -4.9420855    125.81627  0.055474546  0.059297024            2 
  190000    1.2147697   -4.9338993    125.94376   0.05523849  0.059264392            3 
  191000    1.2548852   -4.9304319     126.7446  0.055298691  0.059234777            1 
  192000    1.2034203   -4.9314563     127.0944    0.0551625  0.059207474            2 
  193000     1.205727    -4.926614    128.31441   0.05540346  0.059180606            1 
  194000    1.1981015   -4.9640805    128.29227  0.055108365  0.059152774            3 
  195000    1.2261382   -4.9447696    130.23153    0.0556545   0.05912722            1 
  196000    1.2259416   -4.9463826    130.01392  0.055278025  0.059099831            1 
  197000    1.2239881   -4.9254209     130.6801   0.05527923  0.059070163            2 
  198000    1.2178639   -4.9799202    130.96299  0.055119104  0.059041507            2 
  199000    1.2035237   -4.9679794    131.76793    0.0551792  0.059010352            3 
  200000     1.207468   -4.9360973    133.08592  0.055452468  0.058983637            2 
  201000    1.2531461   -4.9157721    133.91861  0.055521813   0.05895806            4 
  202000    1.2064948   -4.9726841    133.85834  0.055222089  0.058934046            5 
  203000    1.2214367   -4.9192634    135.19205  0.055497559  0.058910075            4 
  204000    1.2124334   -4.9292696    135.81469  0.055479856  0.058886834            4 
  205000    1.2137042   -4.9736028    136.11975  0.055333231   0.05886411            4 
  206000    1.2371766   -4.9505247    137.54278  0.055640284  0.058844649            4 
  207000    1.2286824   -4.9459228    138.28531  0.055670415  0.058829071            3 
  208000    1.2131106   -4.9337633     139.3615  0.055833935  0.058817064            2 
  209000    1.2262915   -4.9414105    139.92802  0.055792672  0.058808311            2 
  210000    1.2165106   -4.9640812    140.17308  0.055624237  0.058797608            5 
  211000     1.215262    -4.935212     141.5234  0.055893917  0.058787598            3 
  212000     1.228725   -4.9721502      142.286   0.05593003  0.058779457            2 
  213000    1.2226295   -4.9118631    143.11807  0.055992984   0.05876702            2 
  214000    1.2274037   -4.9150831    143.28961  0.055798136  0.058754541            3 
  215000    1.2014402   -4.9290345    143.64107  0.055674833  0.058740633            4 
  216000    1.1912789   -4.9413072    144.41316  0.055714955  0.058729924            2 
  217000    1.2310166   -4.9237818     146.6987  0.056335907  0.058722405            1 
  218000    1.2223157   -4.9509505    147.03477  0.056205952  0.058721627            2 
  219000    1.2270974   -4.9523848     147.3367  0.056064193  0.058720678            3 
  220000    1.2060588   -4.9129678     148.5185  0.056257008  0.058718806            1 
  221000    1.2115492   -4.9645782    149.29153   0.05629394  0.058718428            2 
  222000     1.202922   -4.9799741    149.38217  0.056074388  0.058716965            3 
  223000    1.2204513   -4.9495922    150.09256  0.056088401  0.058712367            2 
  224000    1.2092679    -4.918886    151.58314  0.056392536  0.058713659            2 
  225000      1.24117   -4.9434123    152.01548   0.05630203  0.058714013            3 
  226000    1.2117434   -5.0046145    152.90575  0.056381178  0.058717576            2 
  227000    1.2321182   -4.9790105    152.92068  0.056138282  0.058717498            2 
  228000    1.2180198   -4.9673417     152.9638  0.055907823  0.058715054            2 
  229000    1.2072829   -4.9342706    154.43311  0.056198367  0.058714978            1 
  230000    1.2341887   -4.9235131    155.51034  0.056344324  0.058713655            2 
  231000    1.2446573   -4.9317615    155.59808  0.056132063  0.058709708            2 
  232000     1.225945   -4.9605847    155.51445  0.055860077   0.05870187            3 
  233000    1.2026878   -4.9793172    156.30722   0.05590387  0.058693809            2 
  234000    1.2086448   -4.9790108    156.93933  0.055890076  0.058684183            2 
  235000    1.1942683      -4.9192    158.48211   0.05619933   0.05867963            1 
  236000    1.2298654   -4.9246782    158.66906  0.056027209  0.058673169            2 
  237000    1.2231082   -4.9624924    159.80949  0.056191805  0.058665233            3 
  238000     1.215372    -4.954545    160.26301  0.056114501  0.058658978            2 
  239000    1.2012726   -4.9349972    161.89521  0.056448817  0.058655417            2 
  240000    1.2006679   -4.9487113    161.84087  0.056194748   0.05865098            3 
  241000    1.2125616   -4.9860612     162.4328  0.056166253  0.058646444            3 
  242000    1.2335779   -4.9548029    163.15724  0.056183624  0.058638246            2 
  243000    1.2202493   -4.9491723    163.79241  0.056170236   0.05863098            3 
  244000    1.2190149   -4.9830045    164.05787  0.056030693  0.058626319            1 
  245000    1.2354745   -4.9317487    164.75814  0.056040184  0.058618947            3 
  246000    1.2485114   -4.9701754    165.36217  0.056016994  0.058609201            3 
  247000    1.2244133    -4.962688    166.65022  0.056224772  0.058604084            1 
  248000    1.2018815    -4.943333    167.50574  0.056285532  0.058597178            2 
  249000    1.2028178   -4.9469521    168.67979  0.056452406  0.058592608            3 
  250000    1.2089234    -4.951493    168.07538  0.056025128  0.058584925            3 
  251000    1.2241243   -4.9720915    168.51711  0.055948576  0.058574314            1 
  252000     1.225183   -4.9441794    169.72598  0.056126315  0.058562315            5 
  253000    1.2112899   -4.9786191    170.14347  0.056041987  0.058552378            4 
  254000     1.192374    -4.981433      170.493  0.055936023  0.058543789            2 
  255000    1.2127896   -4.9531124    172.27522  0.056299093  0.058539943            2 
  256000    1.2207947   -4.9281396    172.88581  0.056277932  0.058535039            2 
  257000    1.2360062   -4.9760455    173.61457  0.056295256  0.058528961            2 
  258000    1.1974539   -4.9604626    173.80189  0.056137561  0.058522296            1 
  259000     1.217754   -4.9846483    173.57161  0.055846721  0.058513503            2 
  260000    1.1835155   -4.9826623    174.79428  0.056023808  0.058506848            3 
  261000    1.1990425   -4.9616959    175.51897  0.056040538  0.058499841            2 
  262000    1.2194639   -4.9500336    176.27655  0.056067604  0.058492502            2 
  263000    1.2148654   -4.9362194    177.28458   0.05617382  0.058483176            2 
  264000    1.2241426    -4.989609    177.51181  0.056032768  0.058475191            2 
  265000    1.2140724   -4.9671265    178.13994  0.056018848   0.05846511            3 
  266000    1.2302507    -4.938432    178.54862  0.055936284  0.058454073            4 
  267000    1.2152857   -4.9332032    179.49446  0.056021992  0.058445564            1 
  268000    1.1853396   -4.9652288    179.63307  0.055856055  0.058437072            3 
  269000    1.2203581    -4.955726    181.19604  0.056132602  0.058429356            1 
  270000    1.1913572   -4.9662317    181.50219  0.056019196  0.058419333            2 
  271000     1.226039    -4.965171    182.84927  0.056226714  0.058411155            4 
  272000    1.1985912   -4.9564639    183.32296  0.056165121  0.058404811            1 
  273000    1.2097563   -4.9442788    184.51232  0.056322442  0.058397196            4 
  274000    1.2194689   -4.9099005    185.51005  0.056420332  0.058393624            2 
  275000    1.2199212   -4.9580175    185.86437  0.056322535  0.058387156            2 
  276000    1.2034294    -4.992326    184.75632  0.055783912   0.05837937            3 
  277000    1.2549608   -4.9443318    186.70273   0.05616809   0.05836939            2 
  278000    1.2150785   -4.9462109    186.87425  0.056017461  0.058360682            1 
  279000    1.2176888   -4.9723318    187.19484  0.055912438  0.058348869            1 
  280000    1.2038475   -4.9886096    188.52586  0.056108886  0.058339102            2 
  281000    1.2286053   -4.9545294    189.32998  0.056147682  0.058328675            3 
  282000    1.2187022   -4.9750263    189.83641  0.056098228  0.058322291            3 
  283000    1.2053321   -4.9673463    189.98409  0.055943489  0.058313838            4 
  284000    1.2118306   -4.9820134    191.36699  0.056152287  0.058306647            3 
  285000    1.2282744   -4.9493253    191.86341  0.056100412  0.058296055            2 
  286000    1.2152501   -5.0063733    192.94904  0.056220581  0.058289455            2 
  287000    1.2275711   -4.9877124    193.32782  0.056134673  0.058281747            3 
  288000    1.1853848   -4.9483222    193.96977  0.056125513  0.058274683            2 
  289000    1.2210603   -4.9975576    194.72808  0.056149966  0.058263835            2 
  290000    1.2176842   -4.9831937    195.46122  0.056167016  0.058257533            3 
  291000    1.2048035   -4.9201506    197.56812  0.056577353  0.058254127            4 
  292000    1.2007319   -4.9577328    197.50622   0.05636593  0.058253492            1 
  293000     1.206015   -4.9264064    198.38952  0.056424778  0.058252762            1 
  294000    1.1969128   -4.9749361    199.33909   0.05650201  0.058251227            1 
  295000     1.207192   -4.9408662     200.2112  0.056556836  0.058252859            3 
  296000    1.2104433   -4.9368093    200.84812  0.056545078  0.058252153            3 
  297000    1.1879698   -4.9654901    201.01486  0.056401476  0.058250413            1 
  298000    1.2407555   -4.9494335    201.99542  0.056486415  0.058250395            3 
  299000    1.2123031    -4.960616    202.34159  0.056393977  0.058251364            4 
  300000    1.2145312   -4.9877336    203.27881  0.056466336  0.058249401            3 
  301000    1.2348115   -4.9971585    203.28709  0.056281034  0.058246365            2 
  302000    1.2005385   -4.9256408    205.14207  0.056606533  0.058243249            3 
  303000    1.1883124   -4.9290945    205.18034  0.056430236  0.058237861            2 
  304000    1.1838913   -4.9909952    204.72143  0.056118814  0.058228118            3 
  305000    1.1948745   -4.9827569    205.31404  0.056096732  0.058219313            3 
  306000    1.1812234   -4.9827304    206.30344  0.056182854  0.058212347            6 
  307000    1.2417838   -4.9912453    206.70717  0.056109439  0.058205765            2 
  308000    1.2025713   -4.9698573    207.92307  0.056256242   0.05820081            2 
  309000    1.2152469   -4.9571764    208.90299  0.056338454  0.058195188            4 
  310000    1.2006458   -4.9613894    208.24782  0.055980597  0.058188013            2 
  311000    1.2173185   -4.9548622    209.81262  0.056219887  0.058179578            1 
  312000     1.206032    -4.931996    211.00163  0.056357272  0.058171783            3 
  313000    1.2171862   -4.9794178    211.11178  0.056206544  0.058168017            2 
  314000    1.1878752   -4.9564044    212.30238  0.056343518  0.058163343            3 
  315000    1.2274145   -4.9738885    212.72334  0.056276016  0.058159543            4 
  316000    1.1833311   -4.9652716    214.48531  0.056562583  0.058156372            2 
  317000    1.1965495   -4.9555844    214.90912  0.056495563  0.058152003            1 
  318000    1.2155349   -4.9906456    215.04171  0.056352651  0.058149558            3 
  319000    1.1927874   -4.9398769    216.84723  0.056647657  0.058147653            1 
  320000    1.2167136   -4.9559158    217.66677  0.056684055  0.058144338            3 
  321000    1.1915476    -4.938494    217.42086   0.05644363   0.05814155            2 
  322000     1.217782    -5.002145    218.02114   0.05642369  0.058137299            2 
  323000    1.1780703   -4.9880934     218.2531  0.056308848  0.058133951            1 
  324000    1.1994946    -4.964213    219.78099  0.056528031  0.058131148            2 
  325000    1.2219497   -4.9766617    219.67147  0.056326018  0.058127751            3 
  326000    1.1724283   -4.9579419     220.7729   0.05643479  0.058124149            2 
  327000    1.1889083   -4.9686389    221.71126   0.05650134   0.05812142            2 
  328000    1.2068704   -4.9830921    222.10107  0.056428116  0.058118115            3 
  329000    1.2037077   -4.9623833     223.1786  0.056529534  0.058115225            2 
  330000    1.1908149   -4.9844312    223.30868  0.056391081   0.05811065            2 
  331000    1.1858948   -4.9652398     223.9516  0.056382578  0.058103703            4 
  332000    1.1879951   -4.9486783    224.71992  0.056405603  0.058096831            2 
  333000    1.1899324   -4.9920709    223.89762  0.056030436  0.058087382            1 
  334000    1.2249472   -4.9488672    224.47527  0.056006803  0.058076538            4 
  335000    1.1926998    -4.969781    224.69594  0.055894512  0.058065166            3 
  336000    1.2251771    -5.000328     225.7066   0.05597882  0.058051927            2 
  337000    1.1923783   -4.9709886      226.993   0.05613081  0.058039582            3 
  338000     1.199192   -4.9341263    228.04823  0.056224909  0.058030179            2 
  339000    1.2209113   -4.9703606     228.7073  0.056221067  0.058022289            3 
  340000     1.216316   -4.9775773     228.1765  0.055925614  0.058013739            1 
  341000    1.1897264    -5.011538    229.77119  0.056151318  0.058006491            5 
  342000    1.1872232   -4.9978984    230.38157  0.056135861  0.057999736            3 
  343000    1.1973253   -5.0176111    230.85501  0.056087224  0.057992863            3 
  344000     1.186067   -4.9773517     231.0377  0.055968434  0.057984265            3 
  345000    1.2150769   -4.9977503    232.51151  0.056162202  0.057976683            2 
  346000    1.2194657   -5.0238679    231.96579  0.055868447  0.057967143            2 
  347000    1.1762345   -4.9707978    233.80048   0.05614805  0.057956846            2 
  348000     1.190495   -4.9814544    233.88168  0.056006149  0.057947593            3 
  349000    1.1806881   -4.9691568    234.20062   0.05592183  0.057936778            2 
  350000     1.189299   -4.9936931    235.42291  0.056053074  0.057925567            4 
  351000    1.1921467   -4.9587569    235.24275  0.055850606  0.057914694            2 
  352000    1.1967177   -4.9808471    237.38264  0.056198541  0.057906962            2 
  353000    1.1844281   -5.0087491    235.82764  0.055672246  0.057895614            1 
  354000    1.2053025   -4.9821117    238.27298  0.056090626  0.057886124            3 
  355000    1.1929345   -4.9580041    239.14459  0.056137229  0.057876964            4 
  356000    1.1468421   -4.9870056    239.93714  0.056165061  0.057868622            1 
  357000    1.2065978   -4.9984212    239.30649  0.055860524  0.057858516            1 
  358000    1.1879641   -4.9911376    241.01976  0.056103295  0.057848389            2 
  359000    1.1886117   -4.9824269    241.92878  0.056158027  0.057837964            2 
  360000    1.1955239   -5.0092011    241.93384  0.056003204  0.057827133            2 
  361000    1.1739821   -4.9726632    242.26329   0.05592412  0.057816625            2 
  362000    1.2088461   -4.9998958    243.70219  0.056100872  0.057807902            1 
  363000    1.1777439   -5.0008465    244.06237  0.056029009  0.057799535            2 
  364000    1.1964143   -5.0034686    245.06651  0.056104971  0.057791117            2 
  365000    1.1773334   -5.0005679    245.56393  0.056064823  0.057781604            3 
  366000    1.2178999   -4.9896078    246.04072  0.056020201  0.057772487            1 
  367000     1.172962   -4.9615498    246.22264  0.055908865  0.057761624            3 
  368000    1.1903407   -4.9579119    247.29191  0.055999075  0.057751513            2 
  369000     1.190032   -4.9719925    247.61597  0.055920499  0.057742197            4 
  370000    1.1795177   -5.0156216    248.29514  0.055922329  0.057730983            3 
  371000     1.182502   -4.9984108    248.58736  0.055837233  0.057721029            2 
  372000    1.2008119   -4.9638862     249.7774  0.055953718  0.057712339            1 
  373000    1.1915097   -4.9622088    251.78173  0.056251503  0.057702746            2 
  374000    1.1881154   -5.0051888    251.10894  0.055951189   0.05769326            2 
  375000    1.1876664   -5.0007105    252.29753  0.056066117  0.057684517            1 
  376000    1.1720203   -5.0191953    253.41714  0.056165146  0.057676182            2 
  377000    1.1897685   -4.9796694    253.73286  0.056085955  0.057668542            2 
  378000    1.1990837   -5.0306173    253.22683  0.055826021  0.057658638            3 
  379000    1.2050708   -4.9518392    255.55158  0.056189881  0.057649899            2 
  380000    1.1885278   -5.0072228    255.84139  0.056105567  0.057642808            3 
  381000     1.235019   -5.0325486    256.47946   0.05609787  0.057634969            2 
  382000    1.1967019   -4.9782977     256.3318  0.055918804  0.057626661            2 
  383000    1.2207793   -5.0066671     257.0854  0.055936771  0.057618795            1 
  384000    1.1776117   -5.0038236    258.51262  0.056100829  0.057611961            1 
  385000     1.195165   -4.9768999    260.65112  0.056417991  0.057607318            3 
  386000    1.1780767   -4.9979534    260.53116  0.056245932  0.057602934            6 
  387000    1.1741786   -4.9352645    260.89054  0.056177979  0.057598281            4 
  388000    1.1985433   -5.0096531    261.25252  0.056110935  0.057593302            4 
  389000     1.207815   -4.9902531    262.94126  0.056328461  0.057588435            3 
  390000    1.1705542   -5.0206034    262.53612  0.056097461  0.057583681            2 
  391000    1.1969372   -5.0117244    262.86717  0.056024546  0.057577507            3 
  392000    1.1907961   -5.0068087    263.42985  0.056001243  0.057571164            1 
  393000    1.2061454   -4.9806864    264.31543  0.056046528  0.057563963            3 
  394000    1.1775131   -4.9553977    265.26139  0.056104356  0.057557939            3 
  395000    1.1890062   -5.0077041    265.13962  0.055936628  0.057551609            1 
  396000    1.1911383   -4.9949004    266.52458  0.056086823  0.057545384            2 
  397000    1.1871891   -5.0060527    267.46914  0.056143816  0.057539765            3 
  398000    1.1743683   -4.9751958    268.09071  0.056132895  0.057534732            3 
  399000    1.1621399   -5.0294894    268.23844  0.056023066  0.057529721            2 
  400000    1.1836051   -4.9575468    269.50719  0.056147332  0.057523364            3 
  401000    1.1590154   -5.0141451    269.58465   0.05602341  0.057516737            4 
  402000    1.2033455   -5.0159422    270.31623  0.056035702  0.057510832            3 
  403000    1.1752791   -4.9930194     272.0789  0.056261146  0.057504748            5 
  404000    1.1784759   -4.9673549    272.71825  0.056253765  0.057498668            4 
  405000    1.1918246   -5.0466492    271.66186  0.055897503  0.057493565            4 
  406000    1.1654354   -4.9939451    272.81049  0.055995585  0.057487567            2 
  407000      1.19449   -5.0168286    273.73895  0.056048107  0.057480901            1 
  408000     1.172724   -4.9599729    275.23317  0.056215925  0.057474761            1 
  409000    1.1938635   -5.0072457    275.45556   0.05612379  0.057469236            3 
  410000    1.1662836   -5.0617628     274.4968  0.055792033  0.057461939            3 
  411000    1.1662465   -4.9411802    277.54192  0.056273706  0.057456171            4 
  412000    1.1602231    -5.011385    276.86634  0.056000473  0.057449046            1 
  413000    1.1765297   -5.0200761    277.31951  0.055956318   0.05744311            4 
  414000     1.205419    -5.021418    277.42381  0.055842151  0.057436209            2 
  415000     1.186091   -5.0137136    278.69491  0.055962833  0.057429266            1 
  416000    1.2015216    -5.008483    279.50632   0.05599085  0.057421951            3 
  417000    1.1798445   -4.9944387    280.59026  0.056073192  0.057415031            2 
  418000    1.1789895    -4.995543    281.12559  0.056045772  0.057407754            2 
  419000    1.1959603   -4.9998937    281.82567  0.056051247  0.057401816            5 
  420000    1.2019906   -5.0279798    283.60984  0.056271794   0.05739729            2 
  421000    1.1883643   -4.9914502    283.40984  0.056098544  0.057392075            1 
  422000    1.1745252   -5.0023603    283.39444  0.055962567  0.057386109            2 
  423000    1.1754276   -5.0382317     284.0975  0.055968775  0.057378404            3 
  424000    1.1700302   -5.0216576    284.80085  0.055975009  0.057371227            2 
  425000    1.1914639   -5.0399664    284.62226  0.055808286   0.05736299            4 
  426000    1.2140654   -5.0463962    286.00622  0.055948009  0.057354837            2 
  427000    1.1695815     -5.01273    287.17529  0.056045139  0.057346657            1 
  428000    1.2189746   -5.0085021    287.23067  0.055924974  0.057339129            2 
  429000    1.1610522    -4.974861    289.54176  0.056243542  0.057333245            4 
  430000    1.1718081     -5.06138    287.54841  0.055726436  0.057328832            3 
  431000    1.1913105   -5.0206985    290.19253  0.056108377   0.05732402            2 
  432000    1.1900498   -4.9992433    290.03018  0.055947179  0.057318144            1 
  433000    1.1821926    -5.005767    290.89428  0.055984273  0.057311296            3 
  434000    1.1815788   -4.9937598    290.55889  0.055790877   0.05730222            2 
  435000    1.1586256   -5.0044421    290.85189  0.055718752  0.057293526            2 
  436000    1.1659909   -5.0058562    292.32055  0.055871665  0.057284747            2 
  437000    1.1969774   -5.0368138    292.91754  0.055857655  0.057275843            2 
  438000    1.1940189   -4.9987401    293.81608   0.05590108  0.057267204            2 
  439000    1.1789151   -4.9986897    294.06354  0.055820718  0.057258574            3 
  440000      1.16672   -5.0013714    294.08258  0.055697458  0.057251181            4 
  441000    1.1868302   -5.0397198    293.68444  0.055495926  0.057241013            4 
  442000     1.179446   -5.0268786    295.80469  0.055770115  0.057232485            1 
  443000    1.1784143   -5.0497543    296.78556  0.055828735  0.057225023            1 
  444000    1.1804561   -5.0174209    297.29653  0.055798898  0.057217968            1 
  445000      1.16443   -4.9806845    299.31233  0.056050998  0.057211568            3 
  446000    1.2070254   -4.9957224    299.77693  0.056012131  0.057207045            3 
  447000    1.1985946   -4.9949729    301.44541  0.056197877  0.057201802            1 
  448000    1.1794004   -5.0392669    301.10608  0.056009315  0.057197545            5 
  449000    1.1660946   -5.0266971    301.77753  0.056009193  0.057191399            1 
  450000    1.1987013   -5.0037996     301.2898  0.055794408  0.057184843            2 
  451000    1.1749491   -5.0506736    301.10184  0.055635965  0.057178076            3 
  452000    1.1595122   -5.0354139    302.72499  0.055812129   0.05717124            4 
  453000    1.1801482   -4.9800262    304.65844  0.056044599  0.057165252            5 
  454000    1.1724248   -4.9898968    305.70407  0.056113081  0.057157406            4 
  455000    1.1927819   -4.9864105    306.03552  0.056050461  0.057151376            1 
  456000    1.1897307   -5.0143184    305.34301  0.055800988    0.0571442            1 
  457000    1.1719223   -5.0332263    307.19064  0.056015798  0.057136866            2 
  458000    1.1662424   -5.0398177     305.8168  0.055643523  0.057129222            2 
  459000    1.1751609   -5.0187665    306.57568  0.055660072  0.057120844            1 
  460000    1.1720939   -5.0246459     306.1145  0.055455525  0.057111913            1 
  461000    1.1872264   -5.0159166    307.97526  0.055671594  0.057102847            2 
  462000    1.1615554   -5.0279715    308.13921  0.055580666  0.057093673            2 
  463000    1.1589876   -4.9793643    309.98592  0.055793002  0.057083515            2 
  464000    1.2022506   -5.0022756    309.33936  0.055556638  0.057073943            2 
  465000    1.1814702   -5.0423985    308.76325  0.055333915  0.057062558            1 
  466000    1.1887255   -5.0169401    310.15322  0.055463737  0.057050806            6 
  467000    1.1719652   -5.0294004    310.31434  0.055373723  0.057039335            5 
  468000    1.1490874   -5.0329608    311.42938  0.055453949  0.057028077            4 
  469000    1.1793902   -5.0483513    312.09229  0.055453499  0.057016002            5 
  470000    1.1588909   -5.0331061    311.21779   0.05518046  0.057003486            5 
  471000    1.1758093    -5.010175    313.05662  0.055388645  0.056990743           10 
  472000    1.1713255    -5.017659    312.38777  0.055153207   0.05697915            2 
  473000     1.174233   -5.0045461    314.12142   0.05534204  0.056968267            3 
  474000    1.1644114   -4.9932888     314.5084  0.055293319  0.056956205            2 
  475000    1.1876185   -5.0070734    316.75335  0.055570763  0.056944907            3 
  476000    1.1495886   -5.0325338    315.54764  0.055242933  0.056933315            6 
  477000    1.1832747   -5.0198972    318.85005  0.055704062  0.056922836            2 
  478000    1.1787462   -5.0138139    317.73716  0.055393508  0.056912097            8 
  479000    1.1694715   -5.0592218    317.56607  0.055248099  0.056901401            4 
  480000    1.1520267   -5.0222212    319.81754  0.055523879   0.05689062            5 
  481000    1.1962737   -5.0203755    320.41129  0.055511311  0.056881495            2 
  482000    1.2104202   -5.0203619    321.05832  0.055508009  0.056872494            2 
  483000    1.1393563   -5.0157717    321.22024  0.055421022   0.05686357            3 
  484000    1.1546621    -4.993087    322.51882    0.0555301  0.056854214            1 
  485000    1.1769089   -5.0400913    322.62041  0.055433059  0.056844734            1 
  486000    1.1952495   -4.9905176    324.41393  0.055626531  0.056835891            2 
  487000    1.1635289   -4.9908641    324.64568  0.055551965  0.056825924            2 
  488000    1.1870559   -5.0367134    325.55149  0.055592809  0.056816443            4 
  489000    1.1700654   -4.9989105    326.09475  0.055571702  0.056806487            4 
  490000    1.1555946   -5.0233154    325.62673  0.055378696  0.056796561            2 
  491000    1.1659919   -4.9989171    327.70758  0.055619073   0.05678591            4 
  492000    1.1814757   -5.0268807    326.83799  0.055358739  0.056776275            1 
  493000    1.1631468   -5.0193743    326.62931  0.055211175  0.056766077            2 
  494000    1.1602052   -5.0508253    327.89904  0.055313604  0.056755249            3 
  495000    1.1714953   -5.0303344    330.69216  0.055672081  0.056745355            2 
  496000    1.1667659    -5.032673    329.66549  0.055387348  0.056735444            5 
  497000    1.1631276   -5.0750433    328.90363   0.05514816  0.056724923            4 
  498000    1.1680991   -5.0524801    329.86249  0.055197874  0.056714186            4 
  499000    1.1795722   -5.0245779    332.46234  0.055521433  0.056704826            2 
  500000    1.1769729   -5.0375217    331.86378   0.05531063  0.056696414            3 
  501000    1.1742455   -5.0393073     333.2438  0.055429774  0.056689028            3 
  502000    1.1629246   -5.0050028    333.24759  0.055319984   0.05667981            1 
  503000    1.1660209   -5.0458455    334.93019  0.055488765   0.05667204            3 
  504000     1.173261   -5.0425049    333.26687  0.055103649  0.056664206            3 
  505000    1.2063841   -5.0547277    334.29801  0.055164687  0.056655333            2 
  506000    1.1395623    -5.008532    337.66738   0.05561057  0.056648524            2 
  507000    1.1856318   -5.0449478    337.83675  0.055528723  0.056641476            3 
  508000    1.1642486   -5.0110234    338.95563  0.055602958  0.056635142            2 
  509000    1.1617736   -5.0232419     339.9291  0.055653094  0.056628814            4 
  510000    1.1900671    -5.053367    340.09983  0.055571868  0.056622746            2 
  511000    1.1755132   -5.0259465    340.96353  0.055603968  0.056616395            1 
  512000    1.1349267    -5.051732    340.17445  0.055366935  0.056610058            2 
  513000    1.1691388   -5.0479255    342.69054  0.055667729  0.056604844            2 
  514000    1.1733745   -5.0622703    341.27394  0.055329757  0.056598401            6 
  515000    1.1715114   -5.0430535    343.07471  0.055513707  0.056592037            2 
  516000    1.1571485    -5.078898    341.24145  0.055110053  0.056585258            3 
  517000    1.1592783   -5.0193454    343.61381  0.055385849  0.056578269            2 
  518000    1.1448981   -5.0329524    344.96562  0.055496399  0.056571201            2 
  519000    1.1721999   -5.0573295    344.54874  0.055322534  0.056563317            2 
  520000    1.1643253   -5.0147876    345.21291  0.055322581  0.056555132            2 
  521000    1.1854706   -4.9784398    347.72346  0.055617955  0.056546339            5 
  522000    1.1650563   -5.0446365    345.39957  0.055140416  0.056538113            2 
  523000    1.1588418   -5.0372051    348.17878  0.055477816  0.056529314            2 
  524000    1.1821708   -5.0356011    346.88489  0.055166172  0.056520477            4 
  525000    1.1570844    -5.039834    349.73518   0.05551352  0.056511536            2 
  526000    1.1595737   -5.1008957    347.95321  0.055125667  0.056502634            5 
  527000    1.1750821   -5.0472601    349.09461  0.055201552  0.056493748            1 
  528000    1.1631519   -5.0505543    349.83495   0.05521385  0.056484163            4 
  529000    1.1666926   -5.0198796    349.84512  0.055111078  0.056475611            1 
  530000    1.1460284   -5.0353581    348.91225  0.054860417  0.056465434            3 
  531000    1.1782855   -5.0315284    351.19155  0.055114807  0.056456576            1 
  532000    1.1725457   -4.9838279    353.04667  0.055301797  0.056448478            3 
  533000    1.1392487   -5.0386136    353.08303  0.055203726  0.056440057            2 
  534000    1.1756712   -5.0971108    353.70224  0.055196979  0.056431156            4 
  535000    1.1801113    -5.021992    355.30196  0.055342985  0.056422068            4 
  536000    1.1556783   -5.0539774    353.59744  0.054974727  0.056413006            2 
  537000    1.1721428   -5.0840363    353.71178  0.054890097  0.056403584            5 
  538000    1.1475917   -5.0268059    354.97914  0.054984377  0.056394238            2 
  539000    1.1614059   -5.0632474    357.52263  0.055275607  0.056384894           10 
  540000    1.1815707   -5.0447881    357.69638  0.055200059  0.056375577            2 
  541000    1.1609218   -5.0389044    357.57814  0.055079812  0.056366366            4 
  542000    1.1462528   -5.0364388    357.64574  0.054988582  0.056357916            4 
  543000    1.1709753   -5.0441768    358.92957  0.055084342  0.056349748            4 
  544000    1.1609729   -5.0431731    360.41135  0.055210071  0.056340424            3 
  545000    1.2015273   -5.0534563    359.03219  0.054897888  0.056330115            1 
  546000    1.1730585   -5.0064387    362.51038  0.055328203  0.056320372            2 
  547000    1.1837366   -5.0690812    362.21939  0.055182722  0.056311364            3 
  548000    1.1592356   -5.0735224    362.72039   0.05515821  0.056303164            5 
  549000    1.1688624   -5.0325214    362.57768  0.055036078  0.056294258            4 
  550000    1.1527965   -5.0432962    363.68942  0.055104458  0.056285241            2 
  551000    1.1834952   -5.0422097    365.02961   0.05520714  0.056277422            2 
  552000    1.1458276   -5.0026341    365.17358  0.055128862  0.056268843            3 
  553000    1.1706958    -5.020585    368.00548   0.05545592  0.056260495            2 
  554000    1.1623968   -5.0942296    366.14191  0.055075498  0.056251228            3 
  555000    1.1513543   -5.0789052    367.30749  0.055151275   0.05624267            2 
  556000    1.1810745   -5.0709874    366.27499  0.054897331  0.056234042            2 
  557000    1.1652881   -5.0408599    368.73366  0.055166616  0.056226401            2 
  558000    1.1860726   -5.0555445    368.54883  0.055040148  0.056217687            2 
  559000    1.1511002   -5.0365458    369.36788  0.055063787  0.056209512            4 
  560000    1.1715259   -5.0209634    369.91283  0.055046553  0.056200118            3 
  561000    1.1855299   -5.0727483    370.32635  0.055009856  0.056191408            2 
  562000    1.1629162   -5.0722047    371.71054  0.055117221  0.056182531            3 
  563000    1.1433888   -5.0752157    371.34026  0.054964514  0.056173088            3 
  564000    1.1644919   -5.0601498    371.27154  0.054856905  0.056164335            2 
  565000    1.1771665   -5.0690727    373.36911  0.055069191  0.056156173            3 
  566000    1.1549378   -5.0540627    375.52061  0.055288665   0.05614874            4 
  567000    1.1772913   -5.0394609    375.31171  0.055160452  0.056141635            1 
  568000    1.1521853   -5.0474874    377.28713  0.055353159  0.056135179            3 
  569000    1.1514997   -5.0294194    376.20366  0.055097197  0.056127311            4 
  570000    1.1567568   -5.0616682    376.18054  0.054997155  0.056118846            5 
  571000    1.1731833    -5.061002    377.74531  0.055129204   0.05611161            7 
  572000    1.1946521   -5.0244939    379.86708  0.055341941   0.05610518            3 
  573000    1.1636416   -5.0444209    379.98399   0.05526236  0.056099282            3 
  574000    1.1365071   -5.0343268    381.17797  0.055339426  0.056093128            3 
  575000    1.1764745   -5.0544214    380.68618   0.05517191  0.056087057            2 
  576000     1.159677   -5.0212096    381.91616  0.055254074  0.056080466            1 
  577000    1.1850985   -5.0477134    382.07995  0.055181968  0.056073865            1 
  578000    1.1788982   -5.0445692    382.63101  0.055165947   0.05606543            3 
  579000    1.1726978   -5.0585215    382.49245  0.055050726  0.056058604            3 
  580000    1.1618927   -5.0403496    383.82621  0.055147444  0.056051751            2 
  581000    1.1800822   -5.0955182    383.72158  0.055037519  0.056043799            3 
  582000    1.1691029   -5.1002649    383.12376  0.054857354  0.056036699            2 
  583000    1.1550704   -5.0343528      385.476  0.055099486  0.056030504            2 
  584000    1.1727076   -5.0766461    385.85306  0.055058941  0.056024321            7 
  585000    1.1907935   -5.0416177    388.36976  0.055323327  0.056017385            3 
  586000    1.1728502   -5.0605099    387.30446  0.055077426  0.056011332            4 
  587000    1.1338151   -5.0525529    388.56712  0.055162851  0.056005145            2 
  588000     1.147909   -5.0565496    389.48662  0.055199351  0.055998829            2 
  589000    1.1614348   -5.0736354    388.10313  0.054909894   0.05599166            1 
  590000     1.137143   -5.0821672     391.4122  0.055284209  0.055984348            2 
  591000      1.14196     -5.05071     391.6189  0.055219811  0.055978249            2 
  592000    1.1549233   -5.0602859    391.68569  0.055135935  0.055972805            2 
  593000    1.1388789   -5.0355322    391.79868  0.055058836  0.055966443            3 
  594000    1.1610482   -5.0548025    392.43597  0.055055552  0.055960185            3 
  595000    1.1670011   -5.0471058    394.36035  0.055232542  0.055953355            5 
  596000    1.1612387   -5.0528826    394.95402  0.055222878   0.05594759            2 
  597000    1.1598161   -5.0170877    395.54901  0.055213429   0.05594061            2 
  598000    1.1442003   -5.0401533     396.0614  0.055192503  0.055934393            2 
  599000    1.1518182   -5.0534134    395.36119  0.055002948  0.055927739            5 
  600000    1.1612546   -5.0529406    396.04182  0.055005808  0.055919424            2 
  601000    1.1746527   -5.0300532    397.54925  0.055123302  0.055911422            2 
  602000    1.1456467   -5.0649613    396.42029  0.054875456  0.055904322            1 
  603000    1.1733342   -5.0914401     396.1169  0.054742523  0.055896562            4 
  604000    1.1632727   -5.0602911    399.22813  0.055081144  0.055888556            3 
  605000    1.1570024    -5.012772    400.61363   0.05518094  0.055881902            4 
  606000    1.1648782    -5.071543    399.06479  0.054876897  0.055874185            2 
  607000    1.1644878   -5.0705086    400.19977  0.054942308  0.055865472            3 
  608000    1.1405173   -5.0496961    400.48722  0.054891341   0.05585697            2 
  609000    1.1356961   -5.0758984    399.32982  0.054642832  0.055847979            3 
  610000    1.1827694   -5.0365118     398.7144  0.054469181   0.05583798            4 
  611000    1.1501889   -5.0250385    404.38699  0.055153708  0.055828056            2 
  612000    1.1552005   -5.0600542    402.75731  0.054841681  0.055819012            4 
  613000    1.1609824   -5.0647941    403.73386  0.054884973  0.055809692            4 
  614000    1.1605923     -5.07057    402.19662  0.054586946  0.055800325            2 
  615000    1.1615056   -5.0399775     404.5419  0.054815976  0.055790686            2 
  616000    1.1410244   -5.0878794    403.03643  0.054523326  0.055781652            3 
  617000    1.1522817    -5.123778    402.36443  0.054344196  0.055771121            1 
  618000    1.1603847   -5.0807364    404.49144  0.054543074  0.055760666            3 
  619000    1.1399569   -5.0531746    406.16658  0.054680476  0.055750569            4 
  620000    1.1402281   -5.0750898    405.57936  0.054513354  0.055741518            1 
  621000    1.1581022   -5.0563622    406.69981  0.054575927  0.055732105            3 
  622000     1.146426   -5.0879058    408.62878  0.054746621  0.055722398            4 
  623000    1.1449425   -5.0331669     409.0624  0.054716747  0.055712861            2 
  624000    1.1505914   -5.1195812    408.85218  0.054600986  0.055703451            3 
  625000    1.1494576   -5.0373129    410.64651  0.054752869  0.055695477            2 
  626000    1.1303967   -5.0687712    409.28644  0.054484351  0.055687137            3 
  627000    1.1653269   -5.0891764     410.8577  0.054606287   0.05567789            5 
  628000    1.1568516   -5.0172128    413.23817  0.054835214  0.055668991            3 
  629000    1.1274822   -5.0943343    411.71975  0.054546867  0.055659523            3 
  630000    1.1430473   -5.0862319    411.88002  0.054481484  0.055649616            1 
  631000    1.1382454   -5.0472112    412.54804  0.054483365  0.055639758            2 
  632000    1.1646094   -5.0947184    414.58204  0.054665353  0.055630021            3 
  633000    1.1647206   -5.0307722    415.76184  0.054734313  0.055620421            5 
  634000    1.1416629   -5.0567751    413.89146  0.054402138  0.055610802            2 
  635000    1.1525093   -5.0779141    415.06045  0.054469875  0.055600768            4 
  636000    1.1581104   -5.0479132    416.74953  0.054605547  0.055590667            3 
  637000    1.1517901   -5.0905167    414.14629  0.054179264  0.055581511            3 
  638000    1.1468685   -5.0663373    416.56255  0.054409946  0.055570856            2 
  639000    1.1264604   -5.0581477    417.72954  0.054476988  0.055559977            2 
  640000    1.1565613   -5.0731346    417.48227  0.054359671  0.055549699            2 
  641000    1.1348648   -5.1033193    417.80169  0.054316392  0.055540056            3 
  642000     1.152754   -5.0618836    419.41797  0.054441585  0.055528942            1 
  643000    1.1401898   -5.0796403    419.50946  0.054368774  0.055519203            1 
  644000    1.1533766   -5.0277919     421.6074  0.054555823  0.055509212            3 
  645000    1.1338848   -5.0502697    421.01755  0.054395032  0.055500866            2 
  646000    1.1696035   -5.0813188    422.25409  0.054470341  0.055491165            3 
  647000    1.1330746   -5.0884087    422.91694  0.054471527  0.055481509            3 
  648000    1.1509758   -5.0807882    424.67422  0.054613455  0.055471897            2 
  649000    1.1653227   -5.0963781      422.602  0.054263225  0.055461909            2 
  650000    1.1263623   -5.1064227    424.63379   0.05444023   0.05545209            2 
  651000    1.1623563    -5.075476    425.21726  0.054431293  0.055442238            5 
  652000    1.1676368   -5.0643009    423.92876  0.054183124   0.05543165            3 
  653000    1.1595411   -5.0677231    424.67289  0.054195111  0.055421344            1 
  654000     1.117592   -5.0634169    425.68721   0.05424149  0.055410496            2 
  655000    1.1391954   -5.0914094    426.64553  0.054280601  0.055400036            5 
  656000    1.1623919   -5.1071076    427.61454  0.054320952  0.055389528            4 
  657000    1.1399884   -5.0318354    429.80487  0.054516092  0.055379539            2 
  658000    1.1466757   -5.1184671    426.64916  0.054033581  0.055369411            4 
  659000    1.1158118   -5.0501709    430.89747  0.054488804  0.055358931            1 
  660000    1.1572999   -5.0953937     431.1785   0.05444173  0.055348846            3 
  661000    1.1311116   -5.0949666    429.84806  0.054191637  0.055338059            1 
  662000    1.1246271   -5.0953988    430.93659  0.054246802  0.055328345            4 
  663000    1.1417529   -5.0910164    433.34636  0.054467868  0.055318042            3 
  664000    1.1660804   -5.0784597    432.64391   0.05429768   0.05530812            3 
  665000    1.1378349    -5.063872     433.5007  0.054323396  0.055297508            2 
  666000    1.1540369   -5.0882738    434.08862  0.054315392  0.055288508            2 
  667000    1.1380241   -5.0640015    435.29502  0.054384685  0.055279584            1 
  668000    1.1482478    -5.099563      436.333  0.054432759  0.055271777            4 
  669000    1.1417461   -5.0785984    436.73255  0.054401165  0.055263907            6 
  670000     1.155346   -5.0785482    437.33607  0.054395034  0.055255245            3 
  671000    1.1704377   -5.0566044    437.87791   0.05438126  0.055246809            1 
  672000    1.1419602   -5.0825248     438.7643  0.054410255  0.055238283            2 
  673000     1.138884   -5.0663958    439.55243  0.054426997   0.05522981            3 
  674000    1.1562193   -5.0896471    439.35254   0.05432153  0.055221311            4 
  675000    1.1331976   -5.0674617    440.44137  0.054375477  0.055213329            1 
  676000    1.1213402   -5.1280349    440.62674  0.054317892  0.055205141            4 
  677000    1.1475647   -5.1143947    440.70982  0.054247885  0.055196728            2 
  678000    1.1574968    -5.089161    441.34725   0.05424622  0.055188756            2 
  679000    1.1269812   -5.0591739     443.4629  0.054425982  0.055179888            2 
  680000    1.1276845   -5.0708908    444.43792  0.054465431  0.055171408            4 
  681000    1.1518728   -5.0506235    444.54251  0.054398251  0.055162957            3 
  682000    1.1432539   -5.0684396    444.44777  0.054306912  0.055154099            1 
  683000    1.1364037   -5.0856883      444.366  0.054217424  0.055144689            5 
  684000    1.1373911   -5.0867439    445.48099     0.054274  0.055135386            5 
  685000    1.1436393   -5.0847422    445.32477  0.054175763  0.055126259            4 
  686000    1.1317629   -5.0920136    445.35876  0.054100918  0.055117206            2 
  687000    1.1198505   -5.0823186    447.42622  0.054272952  0.055108034            2 
  688000    1.1321923   -5.0880749    448.47231  0.054320774  0.055098811            2 
  689000    1.1659839   -5.0966996    448.16092  0.054204272  0.055090089            2 
  690000    1.1405839   -5.0817293     447.9967  0.054105881  0.055081774            2 
  691000    1.1519557   -5.0983396    448.18557  0.054050358  0.055073333            2 
  692000    1.1443365   -5.0879732    449.39022  0.054117319  0.055064655            4 
  693000    1.1685282   -5.1096551    450.05187  0.054118791  0.055056414            4 
  694000    1.1192676   -5.1077702    449.39424  0.053961844  0.055047204            5 
  695000    1.1382244   -5.0650391    450.94219  0.054069807   0.05503773            1 
  696000    1.1378284   -5.0674502    451.24443  0.054028308  0.055028014            7 
  697000    1.1208347    -5.107495     451.6505  0.053999342  0.055018576            4 
  698000    1.1066799   -5.1395296    450.98959  0.053843074  0.055008885            2 
  699000    1.1320694   -5.1068155    452.77941  0.053979424  0.054999833            2 
  700000    1.1456165   -5.0599778    455.96924  0.054282052  0.054991401            5 
  701000    1.1287162    -5.089218    454.93296  0.054081427  0.054982764            1 
  702000    1.1529324   -5.0957631    455.57924  0.054081106  0.054973289            5 
  703000    1.1512967   -5.0624634    456.29833  0.054089418  0.054964825            5 
  704000    1.1375852    -5.056515    456.99305  0.054094821  0.054955299            2 
  705000    1.1626962   -5.0866532    456.70378  0.053983898  0.054946182            3 
  706000    1.1536232    -5.104045     457.1169  0.053956197  0.054936842            3 
  707000    1.1503042   -5.0830399    456.82257  0.053845187  0.054927653            5 
  708000    1.1247194   -5.0802282    457.64284  0.053865682  0.054917907            2 
  709000    1.1274024   -5.0576201    459.38906  0.053994953  0.054908564            2 
  710000    1.1445647   -5.0869924    459.80217   0.05396739  0.054898965            5 
  711000    1.1639362   -5.1204941    459.23696  0.053825241  0.054889126            4 
  712000    1.1312146   -5.0820094    458.84597  0.053703882  0.054878881            3 
  713000    1.1229248   -5.1068864    459.91182  0.053753135  0.054868501            3 
  714000    1.1519637   -5.0914412    460.16233  0.053707088  0.054858289            6 
  715000    1.1112518   -5.1120711    461.29798  0.053764334  0.054848005            4 
  716000    1.1461893   -5.0915671    462.51248  0.053830596  0.054837884            2 
  717000    1.1297527   -5.0724403    464.15105  0.053945961  0.054827527            2 
  718000    1.1159251   -5.1158763    462.74575  0.053707724   0.05481714            9 
  719000    1.1501328   -5.0825872    465.88019  0.053996313  0.054806797            2 
  720000    1.1410036   -5.0540569    464.95284  0.053813986  0.054797026            2 
  721000    1.1484985   -5.0845433      466.866  0.053960472  0.054786977            2 
  722000    1.1236294   -5.1392488    464.11549   0.05356827  0.054776298            4 
  723000    1.1637673   -5.0824402    466.49825  0.053768816  0.054765725            2 
  724000    1.1324112   -5.1042747    465.23551  0.053549207  0.054755234            4 
  725000    1.1224234   -5.1080658    467.46696  0.053731834  0.054744304            2 
  726000    1.1246982   -5.0809688    467.01983    0.0536065  0.054734256            6 
  727000     1.109387   -5.0689971    467.63776  0.053603594  0.054723687            5 
  728000    1.1142512   -5.1182208    467.85659  0.053555013  0.054712669            3 
  729000    1.1491138   -5.1100621    467.90226   0.05348677  0.054701613            2 
  730000    1.1187804   -5.0652838    470.98301  0.053765183  0.054691105            1 
  731000    1.1343257   -5.1188451    470.97414  0.053690622  0.054680647            3 
  732000    1.1491511   -5.0847397    471.46571  0.053673237  0.054670081            3 
  733000    1.1606957   -5.1159434    471.08563  0.053556802  0.054658994            4 
  734000    1.1252274   -5.1075658    471.98265  0.053585678  0.054648802            4 
  735000    1.1314401   -5.1231319    470.78214  0.053376659  0.054638089            5 
  736000    1.1398394   -5.0837801    472.88011  0.053541679  0.054627368            4 
  737000    1.1321555   -5.1030406    474.46937  0.053648731  0.054617576            4 
  738000    1.1313983   -5.1141523    474.80241  0.053613642   0.05460799            3 
  739000    1.1509193   -5.1234915    475.14406  0.053579619  0.054597192            2 
  740000    1.1545928   -5.0919277    476.26665  0.053633632  0.054586943            2 
  741000    1.1342434   -5.1295671    476.40958  0.053577325  0.054576537            3 
  742000    1.1265108   -5.0804752    478.32631  0.053720386  0.054565911            2 
  743000    1.1307043   -5.1158827    477.93057  0.053603698  0.054555076            3 
  744000    1.1155692   -5.0784273    479.85474  0.053747171  0.054544921            5 
  745000    1.1470827   -5.1365043    476.77984  0.053331079  0.054534329            2 
  746000    1.1500924   -5.1205638    479.27855  0.053538712  0.054524084            3 
  747000    1.1501032   -5.1143463     479.8801  0.053534148  0.054514471            1 
  748000     1.120988   -5.1466973    479.05748  0.053370932  0.054503973            2 
  749000     1.113439   -5.1050471    481.53292  0.053575091  0.054493666            6 
  750000    1.1038258   -5.1099732    482.04721  0.053560801  0.054484367            1 
  751000    1.1113434   -5.0816759     483.6088  0.053662761   0.05447366            1 
  752000    1.1273024   -5.1292532    482.46072  0.053464175  0.054463875            3 
  753000    1.1134175   -5.1449013    481.84035  0.053324518  0.054452695            3 
  754000    1.1138461   -5.1302458    482.73999  0.053353226  0.054442546            1 
  755000    1.1383132   -5.1106735     484.2207  0.053445994  0.054432054            4 
  756000    1.1447836   -5.1081122    485.06656  0.053468536  0.054422011            4 
  757000    1.1199746   -5.1057481    486.09655  0.053511289  0.054411481            2 
  758000    1.1222182   -5.1166422    487.36631  0.053580289  0.054401346            1 
  759000    1.1009312   -5.1020645    487.95611  0.053574452  0.054390911            2 
  760000    1.1586675   -5.0626389    486.66348  0.053362223  0.054380551            2 
  761000    1.1185105   -5.0992403    488.59367  0.053503468  0.054370056            3 
  762000    1.1219262   -5.1127196    489.01359  0.053479177   0.05435882            2 
  763000    1.1156017   -5.0891429    488.62407  0.053366543  0.054348655            4 
  764000    1.1451664   -5.1112463    490.58209  0.053510262  0.054338891            1 
  765000    1.1319731   -5.1224758    491.32848  0.053521621  0.054329145            5 
  766000    1.1355759   -5.0892847    489.90921  0.053297346   0.05431943            4 
  767000    1.1264869   -5.1238441    491.24028  0.053372477  0.054309496            2 
  768000     1.125149   -5.1087748    492.92015  0.053485259  0.054299545            4 
  769000    1.1314432   -5.0735963    492.39102  0.053358368  0.054289559            5 
  770000    1.1102802   -5.0932258    493.20846  0.053377539   0.05427988            7 
  771000    1.1201421   -5.1190727    492.54577  0.053236681  0.054268788            2 
  772000    1.1472402   -5.0980316    494.93871  0.053426027   0.05425851            4 
  773000    1.1227599   -5.1081742    495.47329  0.053414542  0.054248324            3 
  774000    1.0998086   -5.1301026    495.56147  0.053355025  0.054237865            3 
  775000    1.1076696   -5.1152109    495.86078  0.053318364  0.054227771            6 
  776000    1.1170729   -5.1238686    495.76274  0.053239125  0.054218256            4 
  777000    1.1495788   -5.0964515     498.4509  0.053458913   0.05420818            2 
  778000    1.1074458   -5.1345287    498.10272  0.053352905  0.054198142            5 
  779000    1.1263113   -5.1197441    498.81508  0.053360621  0.054188933            3 
  780000    1.1240282   -5.1072377    498.59422  0.053268613  0.054179391            4 
  781000     1.145539   -5.1201304    498.91274  0.053234393  0.054170167            1 
  782000    1.1181151   -5.1191875    501.84832  0.053479147  0.054161125            5 
  783000    1.1541236   -5.1166141    500.69567  0.053288172  0.054152379            2 
  784000     1.120351   -5.0760775    501.40089  0.053295162  0.054143065            2 
  785000    1.1189337   -5.0892333    503.03057  0.053400273  0.054133191            1 
  786000     1.147961   -5.1267669    503.52584  0.053384843  0.054124003            1 
  787000     1.134769   -5.1221247    501.02025  0.053051699  0.054114445            2 
  788000    1.1293886   -5.0930658     505.1582  0.053421975  0.054105857            3 
  789000    1.1464396   -5.1039595    504.54583  0.053289589  0.054096791            2 
  790000    1.1179209   -5.1305012    507.97377  0.053583731  0.054088006            2 
  791000    1.1205269   -5.0957773    508.63153  0.053585286  0.054079148            2 
  792000     1.130089    -5.152263    505.48585  0.053186643  0.054070661            3 
  793000    1.1144584   -5.0476708    508.74192   0.05346174   0.05406157            2 
  794000    1.1269663   -5.1151205    507.62678  0.053277369  0.054053452            2 
  795000    1.1169254   -5.1204508    506.97249  0.053141771  0.054043984            2 
  796000    1.1252737   -5.1233876    508.26139  0.053209945  0.054034508            2 
  797000    1.1079593   -5.1279844    509.53838  0.053276702  0.054025398            3 
  798000    1.1317507   -5.0750472    511.09732  0.053372736   0.05401616            2 
  799000    1.1250851   -5.1148417    509.93563  0.053184776  0.054006572            5 
  800000    1.1241733   -5.1335708    509.63507  0.053086987  0.053997264            3 
  801000    1.1199898   -5.1238067    511.21789  0.053185382  0.053988005            4 
  802000    1.1075349   -5.1225584     510.4856  0.053042976  0.053978064            3 
  803000    1.1199871   -5.1204054    511.94551  0.053128426  0.053968704            2 
  804000    1.1335457   -5.0940664    510.49469  0.052911971  0.053959127            1 
  805000    1.1241091   -5.1554728    512.34052  0.053037321  0.053949309            3 
  806000     1.122465   -5.0932688    513.11128  0.053051208  0.053938895            4 
  807000    1.1335915   -5.1774093    513.01495  0.052975521   0.05392924            4 
  808000    1.1344069   -5.1153709    516.22235  0.053240754  0.053920307            3 
  809000    1.1438793   -5.0917127    516.47633  0.053201105  0.053911311            2 
  810000    1.1292519   -5.1026519    516.43817  0.053131499  0.053902543            3 
  811000    1.1166515   -5.1378405    515.25275  0.052944179  0.053893137            5 
  812000    1.1235644   -5.1134902    518.83198  0.053246303  0.053883789            3 
  813000    1.1547093   -5.1323456    517.87868  0.053083096  0.053874646            4 
  814000    1.1380666   -5.1008756    519.92969  0.053227855   0.05386583            2 
  815000    1.1170342   -5.1515397    519.23697  0.053091715  0.053856459            3 
  816000    1.0918407   -5.1118341    519.94191  0.053098642  0.053848052            2 
  817000    1.1066629   -5.1037031    523.41591  0.053387995  0.053839849            2 
  818000    1.1097267   -5.1315497    523.51973  0.053333306  0.053831717            3 
  819000    1.1058464   -5.1309619    523.82283  0.053299026  0.053823652            2 
  820000    1.1039425   -5.1485208    520.94112   0.05294117  0.053815322            4 
  821000    1.1205938   -5.1630435    522.24275  0.053008805  0.053806487            4 
  822000    1.1289722   -5.1575035    524.80804  0.053204383  0.053797822            4 
  823000    1.1203335   -5.1872796    521.70969  0.052826012  0.053788744            6 
  824000    1.1062306   -5.1002829    523.25393  0.052918076  0.053779852            2 
  825000    1.1095131   -5.1350743    524.96729  0.053026999  0.053771313            3 
  826000    1.1312557   -5.1073985     528.6803  0.053337399  0.053763047            5 
  827000    1.1131047   -5.1493928    527.03564  0.053107178  0.053755604            1 
  828000     1.127526   -5.1360091    527.83394  0.053123384  0.053747242            2 
  829000    1.1339136    -5.143242    527.40525   0.05301621   0.05373864            5 
  830000    1.1435155   -5.1195597    528.66347  0.053078662  0.053730656            7 
  831000    1.1228508   -5.1070639    529.28088  0.053076702   0.05372285            2 
  832000    1.1289631   -5.1535803    528.43445   0.05292813  0.053715061            2 
  833000    1.1100042   -5.1128775    530.82563  0.053103804  0.053707291            3 
  834000     1.125699   -5.1150233    532.38561  0.053196005  0.053699374            1 
  835000    1.1275171   -5.1388147    530.69776  0.052963848  0.053691482            2 
  836000    1.1027725   -5.1317696    532.69799  0.053099879  0.053683965            3 
  837000    1.1176625   -5.0928349    535.03008  0.053268626  0.053676058            2 
  838000    1.1420064   -5.1180627    534.11438  0.053113999  0.053668297            1 
  839000    1.1331758   -5.1296698    534.29132  0.053068267  0.053661008            3 
  840000    1.1250577   -5.1229762    535.54917  0.053129877  0.053653246            2 
  841000    1.1160443   -5.1364342    536.26041  0.053137179  0.053645707            4 
  842000    1.1197704    -5.138567    538.71206  0.053316712  0.053638721            4 
  843000     1.122708   -5.1322894    537.99598  0.053182679   0.05363198            2 
  844000    1.1287489   -5.1549042    539.64908  0.053282887  0.053624954            2 
  845000     1.108435   -5.1591675    541.67678  0.053419801  0.053618233            1 
  846000    1.1297216    -5.148451    540.24354  0.053215479  0.053612087            3 
  847000    1.1196897   -5.0651065    543.33277  0.053456589  0.053605264            7 
  848000    1.1229497   -5.1568852    541.46732  0.053210232  0.053598142            2 
  849000    1.1241638   -5.1086525    544.23619  0.053419335   0.05359132            3 
  850000    1.0942977    -5.129677    542.40212  0.053176678  0.053584589            2 
  851000    1.1075566   -5.1425545    542.76985  0.053150201  0.053578537            3 
  852000    1.1145326   -5.1405625    542.67727  0.053078763  0.053571567            2 
  853000    1.1243379   -5.1187522    545.54681  0.053296874  0.053564839            4 
  854000    1.1076142   -5.1114585    545.50791  0.053230671   0.05355802            2 
  855000    1.0853015   -5.1748678    543.07556  0.052931341  0.053551068            2 
  856000    1.1312844   -5.1355859    544.84436  0.053041702  0.053543903            3 
  857000    1.1165152   -5.1332416    545.73354  0.053066271  0.053537238            4 
  858000    1.1121941   -5.1081348    548.14414  0.053238553  0.053530661            3 
  859000    1.1121661   -5.1267948    549.52291  0.053310333  0.053524576            3 
  860000    1.1196265   -5.1107056    546.80635  0.052985111  0.053518793            2 
  861000    1.1265782   -5.1274826     550.2294  0.053254878  0.053512437            2 
  862000    1.1169476   -5.1478726    549.40769  0.053113659   0.05350597            4 
  863000    1.0998892   -5.1378513    551.59099  0.053262938  0.053500137            3 
  864000    1.1136059   -5.1448601    550.88127  0.053132838  0.053494197            2 
  865000    1.1330858   -5.1571176    553.11779  0.053286878  0.053488378            3 
  866000    1.1057717   -5.1606565    550.97399  0.053019052  0.053482497            2 
  867000    1.1234177   -5.1525124    551.79288  0.053036609  0.053476073            2 
  868000    1.0923566   -5.1475418    553.59277  0.053148308  0.053469923            5 
  869000     1.118676   -5.1152184    553.41005  0.053069625  0.053462724            3 
  870000    1.1340409   -5.1248888    554.33208  0.053096943  0.053455988            2 
  871000    1.1216934     -5.14033    554.81503  0.053082188  0.053449852            3 
  872000    1.1088302   -5.1255523    554.10611  0.052953566  0.053443284            3 
  873000    1.1189759   -5.1548322    555.10485  0.052988244  0.053436413            2 
  874000    1.1248583   -5.1696042    556.36748  0.053048005  0.053428899            2 
  875000    1.1427901   -5.1843983    556.21804  0.052973146  0.053422151            3 
  876000    1.1125193   -5.1226909     556.9345  0.052980831  0.053415192            2 
  877000    1.1013886   -5.1253427    558.18049  0.053038815  0.053408077            2 
  878000    1.1348213   -5.1823866    557.79713  0.052942021  0.053400615            3 
  879000    1.1052784   -5.1436631    556.55864  0.052764376  0.053393505            4 
  880000    1.1041053   -5.1687563    557.22307  0.052767336  0.053385671            5 
  881000    1.1198103   -5.1642768    559.59113  0.052931435  0.053377534            3 
  882000    1.1134861   -5.1428417    559.55382  0.052867897  0.053369813            2 
  883000    1.1187944   -5.1435749    560.99776  0.052944296  0.053362884            3 
  884000     1.123498   -5.1399182    560.62535  0.052849297  0.053355648            2 
  885000     1.121736   -5.1691633    560.81677  0.052807606  0.053348094            4 
  886000    1.1176686   -5.1676105    561.37107  0.052800138  0.053340549            4 
  887000    1.0911168    -5.167289    560.59325  0.052667536  0.053332555            4 
  888000    1.1108126   -5.1415871    562.10354  0.052749957  0.053325196            1 
  889000    1.1186222   -5.1273662    566.10997  0.053066176  0.053318214            2 
  890000    1.1091337   -5.2111001    561.93746  0.052615867  0.053311149            1 
  891000    1.1143122    -5.131893    565.01542   0.05284469  0.053303773            3 
  892000    1.1162958   -5.1347013    570.56571  0.053303971   0.05329643            4 
  893000    1.0849628   -5.1359212    565.34412   0.05275701  0.053289512            2 
  894000    1.1169366   -5.1019006    568.34887  0.052978083  0.053282784            6 
  895000    1.0974821   -5.1319957    569.03511  0.052982785  0.053275974            1 
  896000    1.1316225   -5.1319942    569.26318  0.052944865  0.053268946            3 
  897000    1.1096961   -5.1388331    570.36581  0.052988277  0.053262579            2 
  898000    1.0978895   -5.1517108    569.32516  0.052832699  0.053255971            5 
  899000    1.0877447   -5.1608658    568.24144  0.052673474  0.053249844            3 
  900000    1.0989243   -5.1666473    569.76702  0.052756206  0.053242929            2 
  901000    1.0966784   -5.1384833     571.9715  0.052901544  0.053236485            8 
  902000    1.0958044   -5.1633986    570.07552  0.052667731  0.053229779            9 
  903000    1.1036293   -5.1530751    573.87241  0.052959802  0.053223112            2 
  904000    1.1118401    -5.132177     574.9792  0.053003245  0.053216454            9 
  905000    1.1147213   -5.1934111    573.26632  0.052786954  0.053209607            2 
  906000    1.1038722   -5.1485841    575.35634  0.052920929   0.05320313            2 
  907000    1.1040886   -5.1946997    574.66374  0.052798947  0.053196931            3 
  908000    1.1168457   -5.1760256    575.51227  0.052818674  0.053190036            3 
  909000    1.1077119   -5.1317709    578.78552  0.053060645  0.053183627            2 
  910000    1.0932173   -5.1774116    575.39036  0.052691425  0.053177209            5 
  911000    1.1021287   -5.1584546    578.27659  0.052897602  0.053170404            2 
  912000    1.1171785   -5.1495426    580.52403  0.053044959  0.053164195            2 
  913000    1.1015837    -5.169818    577.06918  0.052671521  0.053157373            2 
  914000    1.1189071    -5.142763    580.83109  0.052956883  0.053151094            7 
  915000    1.1144026   -5.1594199    579.41474  0.052770013  0.053144505            4 
  916000    1.1092718   -5.1455023     581.1775  0.052872771   0.05313809            3 
  917000    1.0954065    -5.148325    583.07541  0.052987587  0.053131677            3 
  918000    1.1366151   -5.1496421    582.60869  0.052887499  0.053125199            2 
  919000    1.1229038   -5.1277842    583.88688  0.052945854  0.053119362            4 
  920000    1.1009105    -5.146096    582.62388  0.052773902  0.053112965            3 
  921000     1.077576   -5.1596263    584.43227  0.052880227  0.053106263            2 
  922000    1.0945604   -5.1824299    584.51077  0.052829968  0.053099152            4 
  923000    1.0994878   -5.2206242    582.57727  0.052598164   0.05309236            2 
  924000    1.1010482   -5.1648382    583.25888  0.052602712  0.053085212            6 
  925000    1.1164733   -5.1731579    585.57347  0.052754367  0.053079224            2 
  926000    1.1024124   -5.1462529    586.87525  0.052814547  0.053073368            5 
  927000    1.0835509   -5.1742885    585.38722  0.052623806  0.053067109            4 
  928000    1.1093228   -5.1543596    584.82811  0.052516892  0.053060416            4 
  929000    1.0926159   -5.1967129    585.20459  0.052494132    0.0530532            2 
  930000    1.0856449   -5.2116198    586.38059  0.052543064  0.053045634            2 
  931000    1.1049253   -5.1699117    588.60015  0.052685298  0.053038464            2 
  932000    1.0892696   -5.1311508    589.74311  0.052730964    0.0530313            2 
  933000    1.1304309   -5.1373359    589.84205  0.052683284  0.053024707            2 
  934000    1.0862702   -5.1728518    589.22549  0.052571867  0.053017655            2 
  935000    1.0844032   -5.1919702    588.21346  0.052425442  0.053010024            4 
  936000    1.1001721   -5.1592432    590.70565  0.052591315  0.053002894            3 
  937000    1.1098437   -5.1133197     591.0936   0.05256969  0.052995783            2 
  938000    1.0676097   -5.1832254    593.44485  0.052722535   0.05298849            3 
  939000    1.1306909   -5.1712662    594.99748  0.052804178  0.052981657            4 
  940000    1.0911712   -5.1247394     594.2435  0.052681161  0.052974504            3 
  941000     1.091154   -5.1788431    593.74216  0.052580779   0.05296742            2 
  942000    1.1024719   -5.1548685    594.28258  0.052572769  0.052960009            2 
  943000    1.0972503   -5.1670819    594.32865  0.052521089  0.052952815            2 
  944000    1.0947388   -5.2002148    593.85403  0.052423555  0.052945548            1 
  945000    1.0986191   -5.1695055    595.56779  0.052519206  0.052938413            2 
  946000    1.0992222   -5.1343826    595.10269  0.052422718  0.052931169            6 
  947000    1.0927741   -5.2184302    594.77321  0.052338368  0.052923643            3 
  948000     1.086964   -5.1832915    595.63289  0.052358728   0.05291595            3 
  949000    1.1043436   -5.1372204    596.96795   0.05242079  0.052908644            1 
  950000    1.0779755   -5.1621389    596.92275  0.052361644  0.052901527            4 
  951000    1.0914677   -5.1764455    600.54992  0.052624423  0.052894138            5 
  952000    1.1081838   -5.1811775    600.48822  0.052563745  0.052886995            1 
  953000    1.0761897   -5.1850109    598.91007   0.05237059  0.052880126            5 
  954000    1.0994906   -5.1215556    602.92749  0.052666622  0.052873376            2 
  955000    1.0772042    -5.142795    602.74864  0.052595867  0.052866374            3 
  956000    1.0965418   -5.1582154    602.29952  0.052501702  0.052859958            1 
  957000    1.0858382   -5.1908069    602.13323   0.05243236  0.052852875            3 
  958000    1.0885837   -5.1488102    605.18082   0.05264273  0.052845973            1 
  959000    1.1121218   -5.1190498    604.55543  0.052533493  0.052839632            3 
  960000    1.1079933   -5.1377861    604.38233  0.052463744  0.052833077            4 
  961000    1.0959919   -5.1747948    606.25209  0.052571288   0.05282659            4 
  962000    1.1031398   -5.1903734    605.88114  0.052484506   0.05281992            6 
  963000    1.0728818    -5.162292    609.21379  0.052718396  0.052813362            1 
  964000    1.1037209   -5.1502077    605.16018  0.052313294  0.052806546            2 
  965000    1.1108124   -5.1793626    606.15834   0.05234528  0.052800208            2 
  966000    1.1172679   -5.1772515    607.10086    0.0523724  0.052792977            2 
  967000    1.0907121    -5.190557    606.99754  0.052309336  0.052786081            5 
  968000    1.0979417   -5.2043383    605.50106  0.052126469  0.052778532            1 
  969000    1.1115783   -5.1839401    606.87346    0.0521907  0.052771476            4 
  970000    1.1180699   -5.2019014    609.11239  0.052329243  0.052764026            4 
  971000    1.0948432   -5.2084145    609.59866  0.052317083  0.052756685            3 
  972000    1.0844046   -5.1676833    610.28368  0.052321989  0.052749398            4 
  973000     1.082287   -5.1775776    611.83799  0.052401335  0.052742335            2 
  974000    1.0920817   -5.2119231    610.93904  0.052270623  0.052735173            2 
  975000    1.0757498   -5.1538866    614.37739  0.052510888   0.05272805            2 
  976000    1.1017517   -5.1597102    613.22369   0.05235858  0.052721137            3 
  977000    1.1065569   -5.1535816    612.13333  0.052211987  0.052714096            4 
  978000    1.0866263   -5.2238268    612.23266  0.052167063  0.052707252            3 
  979000    1.1150801   -5.1920678     613.2268    0.0521984  0.052700006            2 
  980000     1.104262   -5.1686721    615.03831  0.052299176  0.052693036            3 
  981000    1.1033545    -5.156422    617.73771  0.052475171  0.052685484            4 
  982000    1.1146177   -5.1498699    617.43675  0.052396194   0.05267817            5 
  983000    1.0966773   -5.1699828    614.82516  0.052121496   0.05267105            1 
  984000    1.0834436   -5.1959883    616.91705  0.052245685  0.052663466            6 
  985000    1.1256799    -5.172694    617.19821  0.052216431  0.052655348            4 
  986000    1.1088097   -5.1889539    617.28578  0.052170874  0.052647847            9 
  987000    1.0885763   -5.1499047    620.74821  0.052410352  0.052640475            6 
  988000    1.0869746   -5.1807083     618.6085   0.05217683  0.052633028            4 
  989000    1.0826524   -5.1720602    620.16144  0.052254924  0.052625251            3 
  990000    1.0870528   -5.1827047     618.4512  0.052058182  0.052618042            4 
  991000    1.0915351   -5.2143924    617.64191  0.051937598  0.052610241            4 
  992000    1.0821014   -5.2100491    619.63618   0.05205277  0.052602492            3 
  993000    1.0994837   -5.1683302    622.37752  0.052230406   0.05259475            3 
  994000     1.056867   -5.2174913    620.51526  0.052021735   0.05258691            6 
  995000    1.0890774   -5.1448047    623.10147  0.052186053  0.052578968            3 
  996000    1.1028058   -5.1913638    621.62347  0.052009996  0.052571306            5 
  997000     1.093673   -5.2038547    620.72776  0.051882962  0.052562525            3 
  998000    1.0844003   -5.1986038    620.35192  0.051799593  0.052553773            4 
  999000    1.0840879   -5.1824056    621.76936  0.051865979  0.052545308            1 
 1000000    1.1004385   -5.1548659    624.73983  0.052061653  0.052536743            6 
 1001000    1.1080492   -5.1772117    625.56704  0.052078508  0.052528225            2 
 1002000    1.0879211   -5.2039043     623.3708  0.051843879  0.052519229            4 
 1003000    1.0856802   -5.2040149     625.3376    0.0519556  0.052510594            3 
 1004000    1.1110362   -5.1549557    625.49787  0.051917154  0.052501867            3 
 1005000    1.1085734   -5.1938573    625.69524   0.05188186  0.052493263            2 
 1006000    1.0943008   -5.1823125     627.2373  0.051958026  0.052484665            3 
 1007000    1.1105654   -5.1532922     628.4564  0.052007315  0.052475916            4 
 1008000    1.1076428   -5.2076035    624.32133  0.051613866  0.052466964            5 
 1009000     1.065718   -5.1936874    626.69629  0.051758861  0.052457741            5 
 1010000     1.096633   -5.2157381    626.36238  0.051680064  0.052448511            5 
 1011000    1.0876601   -5.1860788    626.88795  0.051672267  0.052438925            3 
 1012000    1.1119575   -5.1800659    627.43724  0.051666439  0.052429562            3 
 1013000     1.096302   -5.1941867    629.28895  0.051767765  0.052420373            8 
 1014000    1.0734589   -5.2058975    628.99496  0.051692551  0.052411324            3 
 1015000    1.1061684   -5.1786305    629.87597  0.051713955  0.052402311            3 
 1016000    1.0802824   -5.2030016     631.6101  0.051805291  0.052393902            2 
 1017000    1.0677619   -5.2325653    631.54143  0.051748724  0.052385414            3 
 1018000    1.0777531   -5.1845185    630.39185  0.051603786  0.052376481            2 
 1019000    1.0918187   -5.2092846     631.6576  0.051656657  0.052367224            3 
 1020000    1.0802287    -5.205585    630.25806  0.051491672  0.052358196            3 
 1021000    1.0589691   -5.1894037    633.48683  0.051704769   0.05234957            4 
 1022000    1.1049983   -5.2213933    632.63418  0.051584652  0.052340557            6 
 1023000     1.083012   -5.2204308    633.25338  0.051584668  0.052331848            4 
 1024000    1.0907362   -5.2079231    635.47399  0.051715006  0.052322554            5 
 1025000    1.0724099   -5.2117337    636.01639   0.05170865  0.052313282            3 
 1026000    1.0937272   -5.1944041    635.56542  0.051621623  0.052303773            3 
 1027000    1.0895025     -5.23453    633.58807  0.051410912  0.052294453            4 
 1028000    1.0999405    -5.209728    636.90371  0.051629678  0.052285034            2 
 1029000    1.0988123   -5.1797906    635.82176  0.051491882  0.052276072            3 
 1030000    1.0828022   -5.1851203    638.76139  0.051679724  0.052267268            4 
 1031000    1.1119847   -5.1837092    640.29887   0.05175387  0.052258363            4 
 1032000    1.0887081   -5.1656762    638.17507  0.051532224  0.052249964            3 
 1033000      1.08614   -5.1716307    641.70611  0.051767192  0.052241136            3 
 1034000    1.0999708   -5.1991167      639.461  0.051536186  0.052232038            2 
 1035000     1.111968   -5.2053275    639.07709  0.051455482  0.052223019            4 
 1036000    1.0975466   -5.1907147    639.81255  0.051464973  0.052213696            3 
 1037000     1.099041   -5.2104705    640.85034  0.051498741  0.052204315            5 
 1038000    1.0989234   -5.2071269    639.73963  0.051359957  0.052194892            2 
 1039000    1.0853401   -5.1866293    643.28742  0.051595077  0.052185769            3 
 1040000    1.1010709    -5.220083    642.10921  0.051451059  0.052176771            2 
 1041000    1.0895222   -5.1767305    643.33911  0.051500089  0.052167468            2 
 1042000    1.0906842   -5.2225715    641.54002  0.051306783  0.052157913            4 
 1043000    1.0462098   -5.1889786    645.80457   0.05159832  0.052148494            2 
 1044000     1.067575   -5.1975312    646.31962  0.051590008  0.052139275            6 
 1045000    1.0832978   -5.2254305    645.39973  0.051467283   0.05212988            5 
 1046000    1.1249889   -5.1905711    646.14724  0.051477632  0.052120568            3 
 1047000    1.0739812   -5.1974354    645.73594  0.051395729  0.052111176            4 
 1048000    1.0783254   -5.1959306     647.8857  0.051517629  0.052101983            4 
 1049000    1.0921028    -5.185921    648.90584  0.051549558  0.052092969            2 
 1050000    1.0829504   -5.1800297    650.37798    0.0516173  0.052083918            2 
 1051000    1.0772842   -5.2067314    645.59364  0.051188839  0.052075004            6 
 1052000    1.0846733   -5.1981423    648.75226  0.051390388  0.052065804            5 
 1053000    1.0769403   -5.2145442    648.95048  0.051357271   0.05205676            3 
 1054000    1.0897228   -5.2048767     651.5485  0.051513955  0.052047806            3 
 1055000    1.1020885   -5.1972521    650.40041   0.05137444  0.052038906            3 
 1056000    1.0826249   -5.2198891    650.58879  0.051340656  0.052029895            7 
 1057000    1.0837204   -5.2097325     648.8589    0.0511557   0.05202113            3 
 1058000    1.0884376   -5.1981311    653.57915  0.051479139  0.052012541            2 
 1059000     1.091138   -5.2095221    651.99914  0.051306196  0.052003209            4 
 1060000    1.0943433   -5.2331758    654.87122  0.051483586  0.051994021            6 
 1061000    1.0596989   -5.1803313    654.11377  0.051375571  0.051984877            3 
 1062000    1.0785923   -5.2025653    653.91253  0.051311404   0.05197579            2 
 1063000    1.0598525   -5.2191841     652.1703  0.051126552  0.051966505            2 
 1064000    1.0782641   -5.2236702    652.36083  0.051093423   0.05195691            2 
 1065000    1.0873271   -5.2096926    655.62215  0.051300637   0.05194802            2 
 1066000    1.0924582   -5.1672474    656.16978  0.051295323  0.051938733            5 
 1067000    1.0930642   -5.2034447    656.72855  0.051290889  0.051929394            2 
 1068000    1.0598248   -5.1967311    657.09198  0.051271222  0.051919945            2 
 1069000    1.1028135   -5.2311429    654.65434  0.051033235  0.051910959            8 
 1070000    1.0626196    -5.207286    655.11403  0.051021342    0.0519012            3 
 1071000     1.061523   -5.1925088    656.38646  0.051072709  0.051891773            5 
 1072000    1.0685481   -5.2246186    657.39408  0.051103396  0.051881846            2 
 1073000    1.0500605   -5.2365023    658.11073  0.051111427  0.051872417            2 
 1074000    1.0628988   -5.2234157    660.09813  0.051218043   0.05186339            2 
 1075000    1.0942173   -5.1943913    663.73569  0.051452379  0.051854383            2 
 1076000    1.0850412   -5.1844917    663.24684  0.051366701   0.05184574            2 
 1077000    1.0776988   -5.2374978     661.6187  0.051193029  0.051837034            5 
 1078000    1.0715507   -5.2015329    662.68612  0.051228055  0.051827879            3 
 1079000    1.0722821   -5.2066686    661.71638  0.051105683  0.051818902            1 
 1080000    1.0729057   -5.2058735     662.2299  0.051097986  0.051809388            2 
 1081000    1.0953571   -5.2290588    662.19393  0.051047944   0.05180017            2 
 1082000    1.0561594   -5.1938452    662.54478  0.051027787  0.051790981            3 
 1083000    1.0741943   -5.2130514    665.87786  0.051237139  0.051781629            2 
 1084000    1.0695786   -5.2139761    663.81722  0.051031459   0.05177243            3 
 1085000    1.0946379   -5.2084611    666.25005  0.051171279  0.051762965            2 
 1086000    1.0592185   -5.2067362    668.09266  0.051265551  0.051753629            3 
 1087000    1.0847907   -5.2388155    663.46119  0.050863323  0.051744159            2 
 1088000    1.0954734   -5.2471448    665.06813  0.050939655  0.051734492            2 
 1089000    1.0905064   -5.2135169    665.40548  0.050918693  0.051725049            5 
 1090000    1.0894117   -5.2131889    665.70904  0.050895186  0.051715433            3 
 1091000    1.0773173   -5.2069884    667.85113  0.051012154  0.051705783            2 
 1092000    1.0748561   -5.2105034    667.17996  0.050914221   0.05169605            4 
 1093000    1.0440237   -5.2163366    669.75088  0.051063654  0.051686314            3 
 1094000    1.0620843   -5.2108751    669.04921  0.050963529  0.051676446            4 
 1095000    1.0471804   -5.1708534    670.78379  0.051048995  0.051666988            1 
 1096000    1.0846546   -5.1898511    670.52999  0.050983119  0.051657238            5 
 1097000    1.0888411   -5.2284024     671.3331  0.050997653  0.051647455            2 
 1098000    1.0754249   -5.2262737    672.46174  0.051036866  0.051638017            3 
 1099000    1.1033186   -5.2022256    671.43771  0.050912777  0.051628154            5 
 1100000    1.0801247   -5.2220539    667.75297  0.050587346  0.051617763            3 
 1101000    1.0680812    -5.227668    670.80612  0.050772489    0.0516074            2 
 1102000    1.0711212   -5.2193755    672.66302  0.050866834  0.051597141            2 
 1103000    1.0877303   -5.2186628    673.48802  0.050883047   0.05158686            2 
 1104000    1.0675763   -5.2294282    670.01326  0.050574673  0.051576725            4 
 1105000     1.082378   -5.1982023     672.3314  0.050703726  0.051566986            3 
 1106000    1.0837958   -5.1960975    675.62698  0.050906192  0.051556694            3 
 1107000    1.0982982   -5.2418622    675.90358  0.050881028  0.051546897            6 
 1108000    1.0714023   -5.1993046    675.37285   0.05079519  0.051536999            5 
 1109000    1.0979721   -5.2494484    674.86041  0.050710882  0.051526865           11 
 1110000    1.0548845   -5.2151969      678.026  0.050902853  0.051517161            4 
 1111000    1.0674932   -5.2797685    675.98687  0.050704086  0.051507465            1 
 1112000    1.0744853   -5.2124756    680.66249  0.051008879  0.051497851            9 
 1113000    1.0720548   -5.2029341     679.9968  0.050913208  0.051488445            4 
 1114000    1.0525278   -5.2537419    677.13822  0.050653667  0.051478737            4 
 1115000    1.0758369    -5.199057    680.39625  0.050851738  0.051468923            2 
 1116000    1.0747287   -5.1875858    679.93831  0.050771977  0.051459575            2 
 1117000    1.0575169   -5.1968284    682.79884  0.050939931  0.051450206            4 
 1118000    1.0816932   -5.2149595    680.64849  0.050734085  0.051440709            4 
 1119000    1.0545652   -5.1890181    680.05957  0.050644889  0.051431172            3 
 1120000    1.0567015   -5.2412074    681.84185   0.05073228   0.05142176            3 
 1121000     1.061917   -5.2294956    681.10569  0.050632299  0.051412253            4 
 1122000    1.0772286   -5.2223272    684.42333  0.050833581  0.051402737            2 
 1123000     1.056431   -5.2231305    682.98161  0.050681331  0.051393598            3 
 1124000    1.0753209   -5.1910198    684.36239  0.050738611  0.051384278            4 
 1125000    1.0952759   -5.1874811    686.15723  0.050826462  0.051375167            3 
 1126000    1.0740115    -5.212027    686.32814  0.050793972  0.051366028            5 
 1127000      1.06312   -5.2561548    685.90464  0.050717587  0.051356696            6 
 1128000    1.0374982   -5.2015541    688.28655  0.050848593  0.051347506            2 
 1129000    1.0487326   -5.2276783    686.75984  0.050690865  0.051338391            2 
 1130000    1.0590483   -5.2440557    686.96331  0.050661011  0.051328918            1 
 1131000    1.0645583   -5.2087811    687.41974  0.050649848  0.051319528            3 
 1132000    1.0504451   -5.2278316    687.01025  0.050574959  0.051310043            2 
 1133000     1.059831   -5.2633809     685.5181  0.050420572  0.051300471            4 
 1134000    1.0740115   -5.2375215    688.82442  0.050619078  0.051290776            3 
 1135000    1.0568211   -5.2323894    688.19957  0.050528603  0.051280896            3 
 1136000    1.0740445   -5.2328837    690.74295  0.050670698  0.051271077            3 
 1137000    1.0795322   -5.2037261    689.97583  0.050569908  0.051261454            5 
 1138000    1.0755014   -5.2354012    689.11766  0.050462629  0.051251256            2 
 1139000    1.0648298   -5.2446196    691.35529  0.050582037   0.05124154            4 
 1140000    1.0438838   -5.2218783     692.9395  0.050653473  0.051231649            4 
 1141000    1.0617657   -5.1931819    692.58237  0.050582995  0.051221859            4 
 1142000    1.0901054   -5.2166408    692.08789  0.050502619  0.051212281            2 
 1143000    1.0900989    -5.264882    693.09737  0.050532033  0.051202437            3 
 1144000    1.0341643   -5.2309667    691.95816  0.050404877  0.051192632            4 
 1145000    1.0626146   -5.2105682    695.34572  0.050607403  0.051182723            9 
 1146000    1.0805603   -5.2354655    696.05877  0.050615094  0.051172939            2 
 1147000    1.0844717   -5.2195243    696.40578  0.050596177  0.051163371            3 
 1148000    1.0642181   -5.2101004    696.62835   0.05056826  0.051153937            3 
 1149000      1.08504   -5.2309649    696.29758  0.050500259  0.051144111            3 
 1150000    1.0601945   -5.2243376    695.53523  0.050401104  0.051134095            5 
 1151000    1.0575377   -5.2455768    696.33622  0.050415307  0.051124204            3 
 1152000    1.0706688   -5.2232413    699.62632  0.050609543  0.051114185            9 
 1153000    1.0680486   -5.1811769    697.72094  0.050427937  0.051104774            4 
 1154000    1.0951694    -5.240246    698.65572  0.050451742  0.051095017            4 
 1155000    1.0679139   -5.2176088    699.50262  0.050469165  0.051085143            3 
 1156000    1.0479031   -5.1996199    700.45206  0.050493949  0.051075572            2 
 1157000    1.0510466   -5.2734882    696.72312  0.050181729  0.051065856            2 
 1158000     1.070105   -5.2327702    695.32121  0.050037508  0.051055802            2 
 1159000    1.0455831   -5.2344651    699.00544  0.050259235  0.051046061            8 
 1160000    1.1068653   -5.2272752    700.21049  0.050302478  0.051036494            5 
 1161000    1.0800836    -5.239677    703.65951  0.050506712  0.051026979            2 
 1162000    1.0693939   -5.2187968    702.08734  0.050350498  0.051017282            2 
 1163000    1.0566896   -5.2249823    702.99888  0.050372519  0.051008057            2 
 1164000    1.0669446   -5.2720278    700.17742  0.050127249   0.05099851            4 
 1165000    1.0803834    -5.250602    703.54098   0.05032482  0.050988752            2 
 1166000    1.0528238   -5.2192592    703.89289   0.05030681  0.050979039            2 
 1167000    1.0438599   -5.2510885    704.13205   0.05028078  0.050969661            7 
 1168000    1.0844915   -5.2068517     704.0904   0.05023476  0.050960093            3 
 1169000     1.073231   -5.2157182    709.50206  0.050577564  0.050951213            6 
 1170000    1.0669541   -5.2094354    708.81169  0.050485163  0.050942005            2 
 1171000    1.0579471   -5.2436188    706.68511  0.050290713  0.050932925            2 
 1172000    1.0633015   -5.2548397    708.61361  0.050384927  0.050923745            8 
 1173000    1.0550711   -5.2672362    707.10881  0.050235068  0.050914302            2 
 1174000    1.0366685   -5.2465203    706.91906  0.050178809  0.050905135            5 
 1175000    1.0739967   -5.2512293    709.47609  0.050317453  0.050896177            6 
 1176000    1.0814395   -5.2296284    709.38833  0.050268447  0.050887485            4 
 1177000    1.0719799   -5.2573751    710.24303  0.050286252  0.050878425            3 
 1178000    1.0681134   -5.2437046    712.66219    0.0504147  0.050869597            2 
 1179000    1.0506075   -5.2145934    713.00743  0.050396341  0.050860706            4 
 1180000     1.052192   -5.2592053    712.31811  0.050304951   0.05085156            4 
 1181000    1.0661363   -5.2515144    712.59867  0.050282153  0.050842549            2 
 1182000    1.0559513   -5.2562155    710.87664  0.050118206  0.050833662            2 
 1183000    1.0455168   -5.2590907    711.58658  0.050125851  0.050824355            2 
 1184000    1.0671891    -5.237255    715.35788   0.05034895  0.050815061            5 
 1185000    1.0598559   -5.2223266    713.30517  0.050162108  0.050805827            3 
 1186000    1.0580445   -5.2209769    713.83835  0.050157276  0.050796416            2 
 1187000    1.0717228   -5.2245756    714.62678  0.050170372  0.050786868            4 
 1188000    1.0575375   -5.2618812    713.80945  0.050070809  0.050777781            3 
 1189000    1.0291986   -5.2598292    714.77149  0.050096124  0.050768126            4 
 1190000    1.0697974   -5.2349537     715.4998  0.050105028    0.0507587            3 
 1191000    1.0612925   -5.2260512    717.16552  0.050179508  0.050749441            2 
 1192000    1.0677108   -5.2070399    718.85569  0.050255571  0.050740484            4 
 1193000    1.0619036   -5.2597893     716.9514  0.050080428  0.050731369            3 
 1194000    1.0679155   -5.2574439    719.03715  0.050184056  0.050722378            5 
 1195000    1.0644171   -5.2523718    717.71072  0.050049562  0.050712936            4 
 1196000    1.0489728   -5.2554203    719.44054  0.050128243  0.050703608            3 
 1197000    1.0596008   -5.2634892    718.36342  0.050011377  0.050694409            2 
 1198000    1.0549073   -5.2453996    719.10551  0.050021252  0.050685331            8 
 1199000    1.0913391   -5.2330494    718.05712  0.049906667  0.050676029            3 
 1200000    1.0797231   -5.2940618    718.20709  0.049875492  0.050666688            7 
 1201000    1.0428192   -5.2520654     721.6642  0.050073841  0.050657022            3 
 1202000    1.0818066   -5.2392653    724.94603  0.050259708  0.050647467            2 
 1203000    1.0319919   -5.2520991    721.73247  0.049995322  0.050637678            4 
 1204000    1.0643224   -5.2524608    721.23357  0.049919267  0.050628324            3 
 1205000    1.0763144   -5.2830088    721.41872  0.049890644  0.050618417            2 
 1206000    1.0694393   -5.2441296    720.78064  0.049805185  0.050608865            9 
 1207000    1.0560686   -5.2284823    723.46272  0.049949097  0.050599589            3 
 1208000    1.0686174   -5.2622374    721.37003  0.049763385  0.050589629            4 
 1209000    1.0465583   -5.2757018     724.2533  0.049920961  0.050579703            7 
 1210000    1.0311804   -5.2530477    720.13873  0.049596331   0.05056985            3 
 1211000     1.074655   -5.2689376    723.63087  0.049795684  0.050559607            3 
 1212000    1.0467503   -5.2436295    723.85701  0.049770146  0.050549233            4 
 1213000    1.0587734   -5.2302962     726.5336  0.049912998  0.050539319            3 
 1214000     1.084236   -5.2656065    726.83376  0.049892488  0.050528759            2 
 1215000     1.068277   -5.2826198    725.08641  0.049731578  0.050518716            4 
 1216000    1.0653585   -5.2848611    725.72013   0.04973411  0.050508626            3 
 1217000     1.087857   -5.2712666    724.27092   0.04959401  0.050498657            3 
 1218000    1.0373636   -5.2389684    729.40009   0.04990422  0.050488464            3 
 1219000    1.0627993   -5.2627873    726.26641  0.049649058  0.050478014            3 
 1220000    1.0591565   -5.2354293    727.72403  0.049707926  0.050467249            2 
 1221000     1.061987   -5.2494293    727.26412  0.049635826  0.050456901            7 
 1222000    1.0627962   -5.2829063    726.66178  0.049554131   0.05044613            2 
 1223000    1.0559067   -5.2425168    729.33001  0.049695422  0.050435376            3 
 1224000    1.0836516    -5.268489    728.74936  0.049615288  0.050424895            4 
 1225000    1.0658287   -5.2437343    728.40161   0.04955113  0.050414197            2 
 1226000     1.052328   -5.2578566     729.3374   0.04957432  0.050403798            6 
 1227000    1.0558208   -5.2661036    731.49479  0.049680439  0.050393235            5 
 1228000    1.0612066   -5.2463298    731.13127  0.049615314  0.050382657            3 
 1229000    1.0526944   -5.2403288    728.70577  0.049410481  0.050372164            3 
 1230000    1.0534117   -5.2858358    729.31034  0.049411269  0.050361432            2 
 1231000    1.0381334   -5.2834384    730.80442  0.049472273  0.050350763            7 
 1232000    1.0633402    -5.268854     731.1755  0.049457217  0.050340248            5 
 1233000     1.021764   -5.2709812    729.21927  0.049284892  0.050329682            6 
 1234000    1.0632395   -5.2732626    733.03898  0.049502902   0.05031926            2 
 1235000    1.0437093   -5.2718851    732.80634  0.049447121  0.050308972            3 
 1236000    1.0488349   -5.2407192    737.04805  0.049693099  0.050298911            4 
 1237000    1.0660376   -5.2544595    735.99394  0.049581915  0.050288964            5 
 1238000    1.0374211    -5.296492    736.57588  0.049581037  0.050278728            4 
 1239000    1.0463501    -5.246438    738.01863  0.049638057  0.050268464            6 
 1240000    1.0605311   -5.2692871    737.59605  0.049569627  0.050258433            3 
 1241000    1.0791152   -5.2680433     739.3102  0.049644789  0.050248382            3 
 1242000    1.0504737   -5.2473035    739.36222  0.049608308  0.050238162            2 
 1243000    1.0491546   -5.2765953    736.60803  0.049383751  0.050228076            3 
 1244000    1.0528188   -5.2535726    738.47374  0.049469034  0.050217774            2 
 1245000    1.0789252   -5.2483563    739.72773  0.049513235  0.050207713            3 
 1246000    1.0473156   -5.2911496    737.34355  0.049314041  0.050197642            4 
 1247000    1.0518077   -5.2379969    739.45615  0.049415674  0.050187662            4 
 1248000    1.0612852   -5.2983413    739.81503  0.049400042  0.050177284            3 
 1249000     1.062374   -5.2704159    742.95353  0.049569891  0.050166933            2 
 1250000    1.0341439   -5.2663576    738.49604  0.049233069  0.050156443            3 
 1251000    1.0529675    -5.228424    743.31694  0.049514851  0.050146045            1 
 1252000    1.0473542   -5.2671023    740.68875   0.04930037  0.050135645            3 
 1253000    1.0650793   -5.2364818     742.3243  0.049369799  0.050125309            2 
 1254000    1.0213838   -5.2996643    740.03968  0.049178607  0.050114472            2 
 1255000     1.052594   -5.2732092    745.39366  0.049494931  0.050104117            2 
 1256000    1.0541697   -5.2542659    743.74342  0.049346034  0.050093746            6 
 1257000    1.0620743   -5.3034551    743.87335   0.04931539  0.050083153            3 
 1258000    1.0585568   -5.2905985    743.95188  0.049281391  0.050072376            2 
 1259000    1.0322104   -5.2696759    744.20737  0.049259159  0.050061565            3 
 1260000    1.0449681   -5.2815094    744.04789  0.049209517  0.050050955            3 
 1261000    1.0578893   -5.2532551    745.37801  0.049258394  0.050040272            2 
 1262000     1.040925   -5.2834432    744.50283  0.049161571  0.050029782            4 
 1263000    1.0612666   -5.3011291     747.6615  0.049331057  0.050019227            6 
 1264000    1.0671513   -5.3082214    746.25477  0.049199286   0.05000838            4 
 1265000    1.0631834   -5.3152137    744.85469  0.049068161  0.049997505            4 
 1266000    1.0427875   -5.2418678    747.51028  0.049204205  0.049987054            4 
 1267000    1.0586983   -5.2263896    747.74297  0.049180674  0.049976762            4 
 1268000    1.0332949   -5.2553428    748.43542  0.049187396  0.049966498            4 
 1269000    1.0355228   -5.2581746    747.84773  0.049110043  0.049956238            3 
 1270000      1.04884   -5.2932625    750.83624   0.04926747  0.049945894            4 
 1271000    1.0663742   -5.3111103    747.89236  0.049035691  0.049935274            1 
 1272000    1.0367495   -5.2863431    749.54379  0.049105332  0.049924829            1 
 1273000    1.0449469   -5.3038923    749.60642  0.049070858  0.049914454            7 
 1274000    1.0367189   -5.2694393    753.34703  0.049277017  0.049903961            1 
 1275000    1.0492732   -5.2595582    752.70286  0.049196266  0.049893959            5 
 1276000    1.0582075    -5.260002     753.7543  0.049226378   0.04988397            8 
 1277000    1.0387631   -5.2590484    751.96351  0.049070967  0.049873356            4 
 1278000    1.0306584   -5.3286442    752.34015  0.049057131  0.049862729            2 
 1279000    1.0574285   -5.2619765    753.08458  0.049067278  0.049852407            3 
 1280000    1.0567599   -5.2828018    752.99033  0.049022808  0.049842097            3 
 1281000    1.0552116   -5.2613671     756.5282  0.049214689  0.049831911            4 
 1282000    1.0465485   -5.2737009    755.99962  0.049141941  0.049821744            1 
 1283000     1.032912   -5.2683937    755.24657  0.049054726  0.049811543            4 
 1284000    1.0577661   -5.2983482    754.44925  0.048964775  0.049801009            2 
 1285000    1.0214672   -5.2728918    758.24041   0.04917253  0.049790355            2 
 1286000    1.0501937    -5.281836    755.12521  0.048932427   0.04978005            2 
 1287000    1.0422576   -5.2967606    757.01325  0.049016657  0.049769457            4 
 1288000    1.0286361   -5.3146563    756.10642  0.048919929  0.049758907            2 
 1289000    1.0380154    -5.259451    759.13784  0.049077957  0.049748355            3 
 1290000    1.0398262   -5.2774725    758.22203  0.048980751  0.049737982            5 
 1291000    1.0496107   -5.2962466    758.44605  0.048957271  0.049727771            3 
 1292000    1.0492859   -5.2889994    759.72951  0.049002161   0.04971701            2 
 1293000    1.0722512   -5.2857234     759.0116  0.048917995  0.049706746            2 
 1294000    1.0594749   -5.3239479    757.14587  0.048760038  0.049696468            3 
 1295000    1.0237391   -5.2680649    761.15133  0.048980137  0.049686081            3 
 1296000    1.0332133   -5.2643066    762.40931  0.049023232  0.049675828            5 
 1297000    1.0452671   -5.2653897    762.73268  0.049006212  0.049665133            2 
 1298000    1.0522838   -5.2563606    761.62573  0.048897389   0.04965464            4 
 1299000    1.0489008   -5.2944698    761.44591  0.048848211  0.049644284            7 
 1300000     1.042944   -5.2909642    761.66756  0.048824844  0.049633343            6 
 1301000     1.041915   -5.3017118    762.11587  0.048816031  0.049622672            9 
 1302000    1.0594105   -5.2837934    761.60249  0.048745679  0.049611749            3 
 1303000    1.0260883   -5.2512913    766.00111  0.048989582  0.049600959            3 
 1304000    1.0318516   -5.2443961    762.46345  0.048725936  0.049590143            3 
 1305000    1.0151767   -5.2841923    763.12372  0.048730761  0.049579312            1 
 1306000    1.0354836   -5.2994832    762.45157   0.04865056  0.049568382            4 
 1307000    1.0479619   -5.2926681    764.64735  0.048753337   0.04955749            4 
 1308000    1.0424674   -5.3121486    763.96121   0.04867235  0.049546727            2 
 1309000    1.0679382   -5.2633101    767.68491  0.048872225  0.049536129            2 
 1310000    1.0505188   -5.2906286    767.54363   0.04882593  0.049525637            2 
 1311000    1.0129148   -5.2756835    769.87849  0.048937102  0.049515569            3 
 1312000    1.0275372   -5.2617359    770.40577  0.048933294  0.049505105            3 
 1313000    1.0511332   -5.2880668    769.55637  0.048842115  0.049494831            4 
 1314000    1.0464687    -5.277009    768.75462  0.048754098  0.049484347            3 
 1315000    1.0063362    -5.282412    767.99572   0.04866893  0.049473909            2 
 1316000    1.0464066   -5.3121759    766.99521  0.048568592  0.049462658            2 
 1317000    1.0280098   -5.2878535    771.35965  0.048807875  0.049452021            8 
 1318000    1.0397859   -5.2911337    770.37805  0.048708779  0.049441109            1 
 1319000    1.0313843   -5.3179248    770.80353  0.048698732  0.049430276            4 
 1320000    1.0565889   -5.3108439    771.33648  0.048695485  0.049419615            4 
 1321000    1.0325202   -5.3193723    771.18024  0.048648766  0.049408857            7 
 1322000    1.0282898   -5.2632737    771.93651  0.048659639  0.049398272            1 
 1323000      1.05229   -5.2729973    772.83363  0.048679367  0.049387834            1 
 1324000    1.0340005   -5.2824666    774.35894  0.048738604  0.049377524            4 
 1325000    1.0423613   -5.2836126    772.31215  0.048573091  0.049367058            5 
 1326000    1.0283157   -5.3102661    771.85464  0.048507707  0.049356798            8 
 1327000     1.040111   -5.2938149    777.52178   0.04882704  0.049346391            4 
 1328000     1.052179    -5.297798    773.43823  0.048534025  0.049336235            2 
 1329000    1.0272543   -5.3000377    774.13119  0.048540957  0.049326187            4 
 1330000    1.0488615   -5.2812132    775.22637  0.048573081  0.049316033            5 
 1331000    1.0524253    -5.310325    778.45101  0.048738481  0.049306069            5 
 1332000    1.0554028   -5.2749571    778.03275  0.048675722  0.049296168            3 
 1333000    1.0305264   -5.3034895    774.37106  0.048410294  0.049285891            3 
 1334000    1.0449843   -5.2805036    775.93851  0.048471921  0.049275283            3 
 1335000     1.036586   -5.2869486    778.52046  0.048596783  0.049264774            4 
 1336000    1.0293793   -5.3071037    776.06674  0.048407357  0.049254331            3 
 1337000    1.0091051   -5.2533018    779.03144  0.048555936   0.04924379            3 
 1338000    1.0334013    -5.315407    780.62704  0.048619023  0.049233525            3 
 1339000    1.0337822   -5.3044681    781.07949  0.048610872  0.049223203            4 
 1340000    1.0175424   -5.2943443    780.27876  0.048524799  0.049212979            4 
 1341000    1.0403581   -5.2965292    778.37486  0.048370299   0.04920252            2 
 1342000    1.0437153   -5.2732035    783.05142  0.048624653   0.04919258            5 
 1343000    1.0564372   -5.2906477     783.4023   0.04861022  0.049182422            3 
 1344000    1.0313034   -5.2741823    783.06933  0.048553406  0.049172312            3 
 1345000    1.0521631   -5.2926806    784.22138  0.048588685  0.049162101            4 
 1346000     1.013979   -5.3275132    780.87571   0.04834545  0.049151886            3 
 1347000    1.0370746   -5.2898291    782.34252  0.048400304   0.04914175            2 
 1348000    1.0350581   -5.2858589    784.31388  0.048486268  0.049131332            3 
 1349000    1.0310111   -5.2874829    782.98578  0.048368284  0.049120654            2 
 1350000    1.0134757   -5.2944245    782.46542  0.048300334  0.049110329            3 
 1351000    1.0311333    -5.297024    781.53135  0.048206967  0.049099891            4 
 1352000    1.0374465   -5.3059791    784.58071  0.048359265  0.049089417            4 
 1353000    1.0403545   -5.2974894    787.16293  0.048482565  0.049079064            1 
 1354000    1.0441721    -5.259957    784.18532  0.048263498  0.049068964            5 
 1355000    1.0020379   -5.2797599     787.2509  0.048416414  0.049058634            2 
 1356000    1.0251548    -5.290113    786.13208  0.048311952  0.049048279            3 
 1357000    1.0526961   -5.2956401    787.76305  0.048376508  0.049037902            4 
 1358000    1.0080637   -5.2883092    786.68397  0.048274667  0.049027498            5 
 1359000    1.0188259   -5.3029898    787.61486  0.048296227  0.049017117            6 
 1360000    1.0201333   -5.3038511    788.93606   0.04834167  0.049006659            4 
 1361000    1.0275428   -5.2810204    787.67856  0.048229155  0.048996194            3 
 1362000    1.0313589   -5.2615452    790.07397  0.048340307  0.048985797            2 
 1363000    1.0572467    -5.284776    790.69558  0.048342846  0.048975566            2 
 1364000    1.0512996    -5.334197    791.78979  0.048374254  0.048965268            2 
 1365000    1.0219109   -5.3221185    790.91813    0.0482856  0.048954798            4 
 1366000    1.0313117   -5.2933117    791.39231  0.048279179  0.048944072            2 
 1367000    1.0271481   -5.3326644    790.19758   0.04817103  0.048933601            5 
 1368000    1.0424182   -5.3214903    789.99034  0.048123193  0.048923229            5 
 1369000    1.0400266   -5.3253455    787.45118  0.047933478  0.048912386            3 
 1370000    1.0544527   -5.2966959    790.61852  0.048091151  0.048901542            2 
 1371000     1.030768   -5.2772107    791.44655  0.048106404  0.048890822            4 
 1372000    1.0234741   -5.3367718    788.04387  0.047864667  0.048879806            6 
 1373000    1.0240605    -5.275541    793.93978  0.048187654  0.048868784            3 
 1374000    1.0518307   -5.3000356    791.38505  0.047997638   0.04885809            1 
 1375000    1.0411588   -5.3028697    792.78746  0.048047725   0.04884725            2 
 1376000    1.0349456   -5.3211995    792.33504  0.047985407  0.048836268            4 
 1377000    1.0420749   -5.3055382    791.86238  0.047921955  0.048825476            4 
 1378000    1.0414226   -5.3005225    797.71994  0.048241409  0.048814872            4 
 1379000    1.0304091   -5.2753779    794.24801  0.047996616  0.048804313            3 
 1380000    1.0199398   -5.3024663    794.77664  0.047993758  0.048793496            4 
 1381000    1.0263704   -5.2801581    795.16233  0.047982279  0.048782495            3 
 1382000    1.0397672   -5.2913999    796.63662  0.048036458  0.048772032            7 
 1383000    1.0077287   -5.3048496    796.71003  0.048006148   0.04876096            7 
 1384000    1.0437404   -5.3053276    798.04595    0.0480519  0.048750283            5 
 1385000    1.0444749    -5.287617    802.52422  0.048286656   0.04873973            1 
 1386000    1.0154904   -5.3413595     795.2486   0.04781437  0.048729255            2 
 1387000     1.033389   -5.3108868    798.33661   0.04796543  0.048718308            1 
 1388000    1.0153672   -5.2866556    800.46919  0.048058909  0.048707378            3 
 1389000    1.0233069   -5.3139462     800.4913  0.048025636  0.048696761            3 
 1390000    1.0413927   -5.2841908    800.45587  0.047988961  0.048686093            2 
 1391000    1.0277697   -5.3275325    798.42945  0.047833061  0.048675365            5 
 1392000    1.0176641   -5.3030613    803.45202  0.048099379  0.048664622            3 
 1393000    1.0296986   -5.3066756    800.75057   0.04790324  0.048653978            5 
 1394000    1.0137414   -5.3149005     802.2422  0.047958046  0.048643364            3 
 1395000    1.0221397   -5.3077933    801.38169  0.047872264  0.048633016            4 
 1396000    1.0113834    -5.323331    804.04005   0.04799666  0.048622554            5 
 1397000    1.0397568   -5.2885288    802.83106  0.047890185  0.048611947            2 
 1398000    1.0334783   -5.3171845    803.25113  0.047880969  0.048601572            2 
 1399000    1.0242254   -5.2939403    804.87419  0.047943423   0.04859102            4 
 1400000     1.048012    -5.284274    806.63504   0.04801399  0.048580556            6 
 1401000    1.0232916   -5.3134585    807.40583  0.048025567  0.048570032            5 
 1402000    1.0546275   -5.3096534     806.4428   0.04793407  0.048559772            2 
 1403000    1.0204808   -5.3120397    805.76627  0.047859721  0.048549365            6 
 1404000    1.0171353   -5.3148086    803.02085  0.047662681  0.048538912            6 
 1405000    1.0285168   -5.3637365    805.38774  0.047769142  0.048528374            4 
 1406000     1.027568    -5.286728    808.40157  0.047913796  0.048517901            4 
 1407000    1.0175786   -5.3169189    808.07198  0.047860221  0.048507265            3 
 1408000      1.03105     -5.30613    808.43787  0.047847885  0.048496962            3 
 1409000    1.0128401   -5.3446809    808.52354  0.047818993  0.048486634            6 
 1410000    1.0223897   -5.3277492    810.31578  0.047891004  0.048476401            4 
 1411000    1.0021819   -5.3191326    810.32132   0.04785739  0.048465808            2 
 1412000    1.0383697   -5.3178579    810.44197  0.047830617    0.0484552            2 
 1413000     1.026207   -5.3367011    807.18753  0.047604832  0.048444643            4 
 1414000    1.0055387   -5.3412975    809.27914  0.047694433  0.048434248            2 
 1415000    1.0246939   -5.3321298    810.32988  0.047722608  0.048423779            4 
 1416000    1.0336621   -5.3318096    810.10454  0.047675644  0.048413537            4 
 1417000    1.0375505   -5.3231576    813.70476  0.047853726  0.048403117            3 
 1418000    1.0017883   -5.3352583    812.95379  0.047775846  0.048392809            3 
 1419000    1.0268308    -5.311895    812.98494  0.047744006  0.048382327            3 
 1420000     1.006069   -5.2873267      814.934  0.047824765  0.048371872            3 
 1421000    1.0159972   -5.3684314    809.66764  0.047482268  0.048361386            2 
 1422000    1.0260135   -5.3301906    815.27898  0.047777718  0.048350798            4 
 1423000    1.0124353   -5.2871216    813.64149  0.047648249  0.048340397            2 
 1424000    1.0076791   -5.3089858    814.09524  0.047641341  0.048329868            1 
 1425000    1.0268152    -5.325114    813.03094  0.047545669  0.048319241            3 
 1426000    1.0333887   -5.2622569    817.45225  0.047770702  0.048308731            2 
 1427000    1.0204271   -5.3187967    815.40425  0.047617627  0.048298347            4 
 1428000    1.0185091   -5.3081726    815.85016  0.047610304  0.048287643            7 
 1429000    1.0340255   -5.3426864    816.53267  0.047616787  0.048276829            4 
 1430000    1.0147827   -5.2926861    819.94342   0.04778225  0.048266168            2 
 1431000    1.0395449   -5.3298775    817.05856  0.047580862    0.0482557            5 
 1432000    1.0317832    -5.354517    815.58203   0.04746171  0.048244877            2 
 1433000    1.0429853   -5.3296173    817.40749  0.047534746  0.048234051            2 
 1434000    1.0295307   -5.3077663    819.08267  0.047598946  0.048223579            3 
 1435000    1.0055679   -5.3267565    818.63373  0.047539705  0.048213004            2 
 1436000    1.0042158   -5.3180205    820.54467  0.047617495  0.048202301            2 
 1437000    1.0263109   -5.3153979     818.3339  0.047456153   0.04819175            6 
 1438000    1.0064068    -5.303697    822.82649  0.047683501  0.048181571            4 
 1439000    1.0108693   -5.3227608    822.79829  0.047648731  0.048171162            5 
 1440000     1.000461   -5.3289788    822.42214  0.047593874  0.048161064            2 
 1441000    1.0312725   -5.3151897    821.76442  0.047522809  0.048150854            4 
 1442000   0.99336586   -5.3313753    823.60136   0.04759601  0.048140852            7 
 1443000    1.0101048    -5.315515    825.49783  0.047672547  0.048130575            4 
 1444000    1.0264185    -5.344975    822.12867  0.047445099  0.048120154            4 
 1445000    1.0524237   -5.3141096    824.19555  0.047531462  0.048109482            1 
 1446000    1.0222219   -5.2981371    824.44008  0.047512683  0.048099073            8 
 1447000    1.0091539   -5.3514941    821.33824  0.047301212  0.048088612            3 
 1448000    1.0146805   -5.3277932    821.67257  0.047287786  0.048078068            2 
 1449000    1.0392686   -5.3368255    825.60854  0.047481513   0.04806756            2 
 1450000    1.0080427   -5.3611244    821.02663  0.047185438  0.048056879            2 
 1451000    1.0096481   -5.3473434    825.39778  0.047403962  0.048046043            4 
 1452000    1.0232776    -5.347156    821.63968  0.047155629  0.048035207            2 
 1453000    1.0184912   -5.3246536    824.63885  0.047295185  0.048024484            3 
 1454000    1.0230019   -5.3143086    826.83346  0.047388437  0.048013698            3 
 1455000    1.0267837   -5.3605541    823.40476  0.047159493   0.04800257           10 
 1456000    1.0125635   -5.3603047     819.6123  0.046910045  0.047991332            6 
 1457000    1.0095035   -5.3427194    825.88168  0.047236426   0.04797997            2 
 1458000    1.0197509   -5.3482273    825.06327  0.047157252  0.047968864            3 
 1459000    1.0195846   -5.3315227    825.40402  0.047144392  0.047957762            4 
 1460000    1.0304538   -5.3226002    827.46931  0.047229984   0.04794661            2 
 1461000    1.0147981   -5.3520916    826.26177   0.04712878  0.047935789            3 
 1462000    1.0313539   -5.3165999    826.07729  0.047086029  0.047924701            3 
 1463000    1.0138875   -5.3415195    824.62134  0.046970912  0.047913663            4 
 1464000    1.0176753   -5.3451972     825.3888  0.046982514  0.047902497            4 
 1465000    1.0338859   -5.3368106    827.41596  0.047065754  0.047891396            6 
 1466000    1.0286514   -5.3418034    829.24259  0.047137482  0.047880167            3 
 1467000    1.0105815   -5.3431827    830.73041  0.047189866  0.047869056            4 
 1468000    1.0336824    -5.406314    827.80837  0.046991847  0.047857909            4 
 1469000    1.0185162   -5.3555105    828.46457  0.046997083  0.047846495            5 
 1470000   0.99047279   -5.3291428    826.39305  0.046847678  0.047835057            4 
 1471000    1.0091778    -5.343264    829.46824  0.046990043  0.047823876            2 
 1472000    1.0131618   -5.3786072    828.15139  0.046883571  0.047812743            5 
 1473000    1.0329462   -5.3557383    830.96381  0.047010851  0.047801528            3 
 1474000    1.0091059   -5.3414158     829.4716  0.046894595  0.047790396            6 
 1475000    1.0489451   -5.3463439    831.30595  0.046966438  0.047779166            3 
 1476000    1.0102179   -5.3848215    831.32064  0.046935447  0.047768256            3 
 1477000    1.0130488   -5.3175442    833.98929  0.047054236  0.047757098            3 
 1478000    1.0028153   -5.3247691    834.02442  0.047024381   0.04774624            3 
 1479000    1.0338513   -5.3207651    834.78688  0.047035546  0.047735312            9 
 1480000     1.005783   -5.3328935    836.53272  0.047102068  0.047724486            3 
 1481000    1.0317742   -5.3328232     832.4996  0.046843326  0.047713557            2 
 1482000    1.0044705   -5.3434081    835.67943  0.046990521  0.047702419            4 
 1483000    1.0293775   -5.3454845    834.99238  0.046920228  0.047691579            2 
 1484000    1.0245597   -5.3236845    832.72818  0.046761466  0.047680598            5 
 1485000    1.0107851   -5.3118262    837.91924  0.047021282  0.047669572            3 
 1486000     1.020421   -5.3396279    835.64507  0.046862106  0.047658537            3 
 1487000    1.0070511   -5.3469282    835.47106   0.04682084  0.047647398            3 
 1488000    1.0204889   -5.3633443    832.61587  0.046629473   0.04763625            3 
 1489000    1.0004546    -5.326787    836.48646  0.046814778  0.047624895            3 
 1490000    1.0220052   -5.3764827    834.13447  0.046651816  0.047613508            7 
 1491000    1.0081898   -5.3571998     835.0469  0.046671524  0.047602167            4 
 1492000    1.0260397   -5.3710296     834.5719  0.046613712  0.047590897            2 
 1493000   0.99254729   -5.3150369    839.85454  0.046877347  0.047579662            2 
 1494000     1.037686   -5.3725087    839.95716  0.046851693  0.047568493            4 
 1495000    1.0149085   -5.3458548    841.74444   0.04691998  0.047557454            7 
 1496000   0.98251315   -5.3406694     840.3594  0.046811464  0.047546427            5 
 1497000    1.0026769   -5.3358074    839.72402  0.046744824  0.047535336            3 
 1498000    1.0075781   -5.3518004    839.53525  0.046703118  0.047524172            4 
 1499000      1.00431    -5.370852    838.96824   0.04664044  0.047513164            2 
 1500000    1.0371884    -5.375949    840.03037  0.046668354  0.047501941            6 
 1501000   0.99574798   -5.3350012    843.18009   0.04681213  0.047490613            2 
 1502000    1.0146462   -5.3581705    842.41398  0.046738459  0.047479248            3 
 1503000    1.0357214   -5.3650729    839.93712  0.046570033  0.047467827            3 
 1504000     1.005114   -5.3047954    842.67781  0.046690925  0.047456691            4 
 1505000   0.99898917   -5.3884025    839.50865  0.046484421  0.047445226            4 
 1506000   0.99686513   -5.3762486    839.26107  0.046439856  0.047433733            3 
 1507000    1.0142431   -5.3668846    841.24427  0.046518705   0.04742229            4 
 1508000    1.0041243   -5.3204592    845.01473  0.046696217  0.047410873            2 
 1509000    1.0068893   -5.3495482    846.73137  0.046760071  0.047399721            5 
 1510000    1.0107718   -5.3483925    846.19316  0.046699402  0.047388459            5 
 1511000     1.013383   -5.3580423     844.7608  0.046589499  0.047377494            4 
 1512000   0.99813791   -5.3372076    846.30327  0.046643699  0.047366544            5 
 1513000    1.0133303   -5.3491529    844.85716  0.046533221  0.047355345            2 
 1514000    1.0052112   -5.3773118     847.0003  0.046620448  0.047344388            3 
 1515000     1.021987   -5.3523056    846.69528  0.046572898  0.047333287            8 
 1516000    0.9868632   -5.3366377    847.12464  0.046565778  0.047322269            3 
 1517000   0.99465957   -5.3815384     845.7971  0.046462157  0.047311179            4 
 1518000    1.0114725   -5.3557674    846.80695  0.046486987  0.047300064            5 
 1519000    1.0079896    -5.339889    849.62211  0.046610824  0.047288969            4 
 1520000    1.0217367   -5.3578655    851.67544  0.046692733  0.047277979            4 
 1521000    1.0035725   -5.3517735    849.71194  0.046554457  0.047267261            2 
 1522000   0.99025817   -5.3097227    851.97422  0.046647734  0.047256296            3 
 1523000    1.0096475   -5.3039309    851.63658  0.046598631   0.04724542            3 
 1524000    1.0272303   -5.3843927    849.88183  0.046472104  0.047234703            2 
 1525000    1.0104707   -5.3761704    848.08427  0.046343403  0.047223408            2 
 1526000    1.0227306   -5.3645006    847.64737  0.046289175  0.047212079            3 
 1527000    1.0043667   -5.3347939    850.06559  0.046390831  0.047200699            2 
 1528000   0.98921097    -5.328407    850.36318    0.0463767  0.047189509            2 
 1529000    1.0120661   -5.3872162    849.04322  0.046274429  0.047178087            4 
 1530000    1.0015537   -5.3706128    850.89081  0.046344816  0.047166466            2 
 1531000    1.0075533   -5.3804663    852.45343  0.046399599  0.047155184            2 
 1532000    1.0024578   -5.3503561    852.75641  0.046385793  0.047143931            3 
 1533000    1.0055948   -5.3459157    854.35253  0.046442299  0.047132767            1 
 1534000   0.99493342   -5.3657919    850.62309  0.046209425  0.047121787            2 
 1535000    1.0204769    -5.381229     853.8289   0.04635336  0.047110602            5 
 1536000    1.0319065    -5.387994     854.7415  0.046372694  0.047099657            8 
 1537000    1.0164515   -5.3735528    854.64148  0.046337101  0.047088578            2 
 1538000   0.98646322   -5.3786018     855.7056  0.046364629  0.047077696            3 
 1539000    1.0350636   -5.3716962     854.3825   0.04626286  0.047066478            3 
 1540000   0.98851639   -5.3246199    857.91998  0.046424241  0.047055465            7 
 1541000   0.99019621   -5.3588612    857.90442  0.046393274  0.047044307            2 
 1542000    1.0468752    -5.370913    857.89183  0.046362507  0.047033341            4 
 1543000    1.0196637   -5.3528938     856.2759  0.046245188  0.047022283            4 
 1544000   0.99267915   -5.3634761    856.22027  0.046212234  0.047011432            4 
 1545000      1.00469   -5.3798231    859.98969  0.046385636  0.047000284            2 
 1546000    1.0280641   -5.3538183    858.85947  0.046294711   0.04698936            3 
 1547000    1.0006056    -5.386624    858.82924  0.046263156  0.046978432            3 
 1548000   0.99486326   -5.3811955    859.17854  0.046252075  0.046967625            7 
 1549000   0.99193901   -5.3914481    858.20314  0.046169741  0.046956642            3 
 1550000     1.012693    -5.360281    860.73205  0.046275917  0.046946044           10 
 1551000    1.0128697    -5.352798    861.41564  0.046282809  0.046935252            5 
 1552000   0.99960643   -5.3769464    859.94533   0.04617404  0.046924344            4 
 1553000   0.99253652   -5.3858944    859.36553  0.046113196   0.04691359            4 
 1554000     1.006964   -5.3652873     862.6332  0.046258751  0.046902413            3 
 1555000    1.0060696   -5.4052692    858.74575  0.046020673  0.046891093            2 
 1556000    1.0195595   -5.3752212    862.37069  0.046185234  0.046880174            5 
 1557000   0.98604959   -5.3660576    862.61962  0.046168894  0.046869013            6 
 1558000    1.0262177   -5.3727983    862.15657  0.046114493  0.046858265            4 
 1559000   0.98934452    -5.365292    866.37756  0.046310539   0.04684744            2 
 1560000    1.0136878   -5.3644932     863.2959  0.046116234   0.04683635            3 
 1561000    1.0097293   -5.3783768     865.3473  0.046196204  0.046825238            3 
 1562000    0.9901301   -5.3661901    864.60351  0.046126948  0.046814034            5 
 1563000   0.97705857   -5.3935422    861.51164  0.045932589  0.046802755            3 
 1564000   0.98909205   -5.3679035    863.92876   0.04603201  0.046791552            4 
 1565000    1.0028704   -5.3503022     863.0623  0.045956459   0.04678006            5 
 1566000   0.98241972   -5.3824413    862.50981  0.045897712  0.046768802            4 
 1567000    1.0022059    -5.353344      864.959  0.045998671   0.04675762            2 
 1568000    1.0071704   -5.4014264    862.48111  0.045837644  0.046746009            7 
 1569000    1.0253439   -5.3903521    862.14469  0.045790561  0.046734235            5 
 1570000    1.0029578   -5.3552739        864.3  0.045875796  0.046722921            3 
 1571000   0.99645675   -5.3638564    866.13928  0.045944159  0.046711324            2 
 1572000    1.0203068   -5.3384136    866.57847  0.045938214  0.046699708            2 
 1573000    1.0165262   -5.3518588    864.46925  0.045797269  0.046688036            4 
 1574000    1.0018091   -5.3577313    866.28127  0.045864108  0.046676454            6 
 1575000   0.99282083    -5.376089    865.97941  0.045819017  0.046665213            3 
 1576000    1.0105178   -5.3636713    870.43336  0.046025453  0.046653903            5 
 1577000    1.0070964   -5.3907369    867.35973  0.045833847  0.046642655            7 
 1578000    1.0110535   -5.3456777    869.80846  0.045934118  0.046631606            3 
 1579000    1.0026277   -5.3824998    867.91578  0.045805139  0.046620532            1 
 1580000   0.99480279   -5.3694184    869.61101  0.045865559  0.046609516            2 
 1581000    0.9941417   -5.3663247    870.93039  0.045906092   0.04659867            4 
 1582000    1.0152811   -5.3453687    871.61619    0.0459132  0.046587682            4 
 1583000   0.99760058   -5.3372893    870.37347  0.045818776  0.046576832            2 
 1584000    1.0071335   -5.3922107    870.23731  0.045782687  0.046565746            2 
 1585000   0.98281709   -5.3624086    876.54915  0.046085654  0.046554809            5 
 1586000    1.0114147   -5.3906227    872.13297  0.045824557  0.046543949            4 
 1587000   0.99236486   -5.3704046    874.07618   0.04589772  0.046532829            8 
 1588000   0.98970912   -5.3133553    875.15146  0.045925244  0.046521541            3 
 1589000    1.0059688   -5.3586779    870.52274  0.045653594  0.046510353            1 
 1590000    1.0063885   -5.3578943    872.37115  0.045721759   0.04649924            4 
 1591000   0.98082344   -5.3627603    873.07176  0.045729717  0.046488168            5 
 1592000   0.97616242   -5.3918655    875.56059  0.045831271  0.046477105            4 
 1593000   0.99826706   -5.3680058    875.26625  0.045787102  0.046465934           10 
 1594000    1.0020009   -5.3617929    877.20502  0.045859736  0.046454896            3 
 1595000   0.98600936   -5.3834264    875.80868  0.045758029  0.046444224            5 
 1596000   0.96972819   -5.3501794    874.32181  0.045651724  0.046433238            2 
 1597000   0.97414565    -5.359644    878.74784  0.045854093  0.046422296            5 
 1598000    0.9711601   -5.4128773    873.40304  0.045546675  0.046411461            5 
 1599000    1.0027668   -5.4051619    877.20877   0.04571653  0.046400447            6 
 1600000   0.98109722   -5.3680108    878.93129  0.045777671  0.046389576            5 
 1601000   0.99485638   -5.3826326     876.9274  0.045644774  0.046378624            3 
 1602000    1.0175154   -5.3822951    876.38776   0.04558821  0.046367508            2 
 1603000    1.0033328   -5.3878315    880.53569  0.045775405  0.046356466            3 
 1604000   0.99207136   -5.3855185    877.49334  0.045588806  0.046345371            4 
 1605000    1.0037464   -5.3828285    880.89806  0.045737179  0.046334403            7 
 1606000   0.99109147   -5.3548069    881.90307  0.045760849  0.046323615           10 
 1607000   0.99536329   -5.4206796    877.72547  0.045515737  0.046312611            8 
 1608000   0.99005254   -5.3902765    878.77033   0.04554158  0.046301515            5 
 1609000    1.0025978   -5.3836828    880.86161  0.045621587  0.046290319            3 
 1610000   0.97982724   -5.3961068    877.42767  0.045415511  0.046279114            3 
 1611000   0.99365645   -5.3866392    883.15265   0.04568346  0.046268147            2 
 1612000    1.0034281   -5.3854945     880.3764  0.045511601  0.046257312            2 
 1613000   0.98757407   -5.3973999    882.65226  0.045600964  0.046246325            4 
 1614000    1.0046319    -5.376676     882.6591  0.045573064  0.046235396            3 
 1615000   0.98695887    -5.407519    880.08836  0.045412196   0.04622418            5 
 1616000   0.96108223   -5.3794712    881.34742  0.045449021  0.046213061            2 
 1617000   0.99083217   -5.3950274     884.4479    0.0455807   0.04620226           12 
 1618000    0.9772041   -5.4053325    881.50347  0.045400879  0.046191198            2 
 1619000   0.99197058    -5.397573    884.04414   0.04550361  0.046179996            6 
 1620000   0.97203059   -5.3878596    882.27033  0.045384276  0.046169023            6 
 1621000   0.99588142   -5.4188344    882.49497  0.045367827  0.046157725            2 
 1622000    1.0003719   -5.3573111    886.71526  0.045556682  0.046146643            1 
 1623000    0.9862918   -5.3729601    884.06701  0.045392638  0.046135679            5 
 1624000   0.97063472   -5.3638939    888.97263  0.045616412  0.046124867            3 
 1625000    0.9846471   -5.3902727    883.43044  0.045304125  0.046114037            7 
 1626000   0.98627449   -5.3985395    886.94347  0.045456307  0.046102856            5 
 1627000   0.98143007   -5.3898246    887.72786  0.045468544  0.046091732            2 
 1628000   0.97870134   -5.3907219    885.05547  0.045303822  0.046080786            3 
 1629000    1.0194156   -5.4475671    885.98099  0.045323357  0.046070143            2 
 1630000   0.98963747   -5.3778521    886.94491  0.045344832  0.046059075            5 
 1631000    1.0154991    -5.389111    887.26675  0.045333474  0.046048108            7 
 1632000    0.9811408   -5.4081406    887.96127   0.04534116  0.046037011            5 
 1633000   0.97106459   -5.3871728    887.55462  0.045292642     0.046026            2 
 1634000   0.99389313   -5.4049945    888.09037  0.045292247   0.04601507            3 
 1635000    1.0084937   -5.3665986    891.91237  0.045459346  0.046004072            4 
 1636000    1.0031318   -5.3720168    892.84102  0.045478862  0.045993393            3 
 1637000   0.99655771   -5.3785339    891.90682  0.045403524  0.045982732            5 
 1638000    0.9707218   -5.4102288    890.31208  0.045294673  0.045971799            4 
 1639000    1.0039602   -5.3859022    892.22618  0.045364357  0.045960956            3 
 1640000   0.99969828   -5.3812996    891.14525  0.045281771  0.045950186            3 
 1641000   0.99754847   -5.3910255    889.08363  0.045149484  0.045939191            4 
 1642000   0.98458328     -5.37571    894.07968  0.045375542  0.045928234            4 
 1643000   0.99658431   -5.3689394    890.53949  0.045168365  0.045917499            4 
 1644000   0.97666385   -5.3853334    894.14759  0.045323783  0.045906764            4 
 1645000    1.0040293   -5.4103218    894.17144  0.045297439  0.045895884            5 
 1646000   0.99749891   -5.3990671    891.21892  0.045120439  0.045884899            4 
 1647000   0.99025081   -5.3999942    893.88758   0.04522807  0.045873971            5 
 1648000   0.99704704   -5.3319672    895.46263  0.045280271  0.045863167            4 
 1649000    1.0083975   -5.3839023    894.00387  0.045179092  0.045852271            4 
 1650000   0.98508276   -5.4127483    894.28419  0.045165868  0.045841068            5 
 1651000   0.99026455   -5.3937673    896.39203  0.045244904  0.045830188            4 
 1652000   0.97755803   -5.4059854    896.40969  0.045218406  0.045819406            4 
 1653000   0.99606137   -5.4060847    895.74574  0.045157579   0.04580856           12 
 1654000    0.9914592   -5.4240433    895.95784  0.045140964  0.045797804            3 
 1655000    1.0043551   -5.4018761    894.96338  0.045063614  0.045787198            3 
 1656000   0.98715264   -5.4022249    898.43647  0.045211175  0.045776507            8 
 1657000   0.96686539   -5.3882833    897.97886  0.045160876  0.045765749            3 
 1658000    1.0112943   -5.3436504    905.34843  0.045504042  0.045755149            4 
 1659000   0.99266849     -5.39042    900.61542   0.04523887  0.045744578            3 
 1660000   0.97256561   -5.4122987    899.42176  0.045151695  0.045733749            3 
 1661000   0.99121608   -5.4202709    898.46452  0.045076486  0.045723024            5 
 1662000   0.97410721   -5.4100772    898.53166  0.045052731   0.04571205            4 
 1663000   0.97184658     -5.40301    900.81074  0.045139845  0.045701063            4 
 1664000   0.96825248    -5.368589    903.58966  0.045251886  0.045690216            2 
 1665000   0.98131557   -5.4120269    899.69905  0.045029983  0.045679289            6 
 1666000   0.99340879   -5.4124223    900.71773  0.045053908  0.045668159            3 
 1667000    0.9768156   -5.4208067    899.83944  0.044982975  0.045657005            3 
 1668000   0.97776264   -5.4162635    901.08807  0.045018389  0.045645856            4 
 1669000   0.97451321   -5.4251518    900.34027  0.044954078  0.045634569            6 
 1670000   0.98969216   -5.3945657    899.71587  0.044896002  0.045623531            2 
 1671000    1.0076294   -5.4325325     900.7422  0.044920317   0.04561236            7 
 1672000   0.99310138   -5.4368217    898.61383  0.044787372   0.04560106            4 
 1673000   0.97243455   -5.4417632    897.68837  0.044714503  0.045589644            2 
 1674000   0.99578324   -5.4307923    900.37774  0.044821671  0.045578094            3 
 1675000   0.96842466   -5.4172042    899.99079  0.044775661  0.045566816            2 
 1676000    0.9914743    -5.400893    899.38609  0.044718879  0.045555707            4 
 1677000   0.97207397   -5.4116532    901.04268  0.044774532  0.045544531            5 
 1678000   0.98235883   -5.4293971    900.02378  0.044697248  0.045533128            3 
 1679000   0.99524379   -5.4371932    900.58572  0.044698517  0.045521976            7 
 1680000   0.99338021   -5.3991399    901.16937  0.044700862  0.045510508            4 
 1681000   0.99822444   -5.4187736    901.11515  0.044671582  0.045498972            3 
 1682000   0.97361499   -5.3859368    904.28232  0.044801938  0.045487943            4 
 1683000    0.9757819   -5.4028806    904.74676  0.044798314  0.045476568            5 
 1684000    0.9924752   -5.3966062    902.83118  0.044676919  0.045465153            4 
 1685000    0.9988151   -5.3881013    903.68728  0.044692744  0.045453877            7 
 1686000   0.96883514   -5.4074447    906.68439  0.044814373  0.045442664            6 
 1687000   0.98918966   -5.4097359    905.11384  0.044710227  0.045431211            2 
 1688000   0.98428305    -5.424688    908.42102  0.044847009  0.045419835            3 
 1689000    1.0108833   -5.4240836     907.0508  0.044752852  0.045408518            6 
 1690000   0.97098522   -5.4384205    900.59527  0.044408051  0.045397096            3 
 1691000   0.99248164   -5.4062766    905.90303  0.044643359  0.045385574            5 
 1692000   0.98599283   -5.4170468    904.55113  0.044550391  0.045374247            6 
 1693000    1.0116043   -5.4524759    904.06773  0.044500282  0.045362534            3 
 1694000   0.98820968   -5.4234238    904.35777  0.044488281  0.045351063            3 
 1695000   0.95924415   -5.4253835    903.46853  0.044418315  0.045339628            3 
 1696000   0.99163538   -5.4259592    905.90036  0.044511614  0.045328147            6 
 1697000   0.97299947   -5.3810113    907.68742   0.04457314  0.045316632            4 
 1698000   0.97718372   -5.4216735    907.97627  0.044561066  0.045305195            2 
 1699000   0.96739772   -5.4217371    906.73424  0.044473918  0.045293574            3 
 1700000   0.98737224    -5.434793    906.89358  0.044455568  0.045282051            4 
 1701000   0.97501643   -5.4121231    907.37524   0.04445303  0.045270391            8 
 1702000   0.97505387    -5.455404    908.58544  0.044486165  0.045258859            2 
 1703000   0.99297672   -5.4270944    909.47415   0.04450353  0.045247327            3 
 1704000   0.97821562   -5.4194495    910.03454  0.044504819  0.045235949            7 
 1705000    0.9644621   -5.3507018    910.94909  0.044523416  0.045224735            8 
 1706000   0.99595421   -5.4025669    910.10882  0.044456273  0.045213502            3 
 1707000   0.97488435    -5.390964    911.06177  0.044476751  0.045201965            4 
 1708000   0.98131864   -5.3908649    913.16897  0.044553521   0.04519069            6 
 1709000   0.97940579   -5.4410871    909.60171  0.044353506  0.045179271            6 
 1710000   0.98458153   -5.4020975     912.4706  0.044467378  0.045167927            4 
 1711000   0.98834704    -5.377653    911.48842  0.044393553  0.045156499            3 
 1712000   0.99672751   -5.4163856    912.55526  0.044419551  0.045145184            3 
 1713000   0.96961253   -5.4277542    916.31187  0.044576371  0.045133937            2 
 1714000   0.96707753   -5.4224807    913.37901   0.04440777  0.045122633            3 
 1715000   0.97337327   -5.4693007    911.32836  0.044282233  0.045111215            5 
 1716000   0.97973953   -5.4081151     913.6141  0.044367429  0.045099782            3 
 1717000   0.97589032   -5.4260117    913.87105   0.04435406  0.045088612            2 
 1718000   0.96847094   -5.4109714    915.87235  0.044425317  0.045077195            2 
 1719000   0.98723938   -5.4315938      913.523  0.044285583  0.045065654            8 
 1720000   0.97547891   -5.4143689    914.26827  0.044295943  0.045054504            4 
 1721000    0.9831036    -5.434889    915.11417  0.044311164    0.0450433            3 
 1722000   0.96971155   -5.4189987    916.60661  0.044357656  0.045032213            5 
 1723000   0.98013313   -5.4312323    915.76173  0.044291049  0.045021081            4 
 1724000   0.97514149   -5.4239047     916.6479  0.044308193  0.045010136            4 
 1725000   0.98035362   -5.4571309    916.85938  0.044292724  0.044998947            5 
 1726000   0.99072751   -5.4082056    919.69982  0.044404201  0.044987983            3 
 1727000   0.99458492   -5.4433635    919.12088  0.044350554  0.044977095            4 
 1728000   0.96675227    -5.405889    918.68514  0.044303875  0.044966012            2 
 1729000   0.96621997   -5.4343123    916.44682  0.044170369  0.044955111            2 
 1730000   0.98250896   -5.4018999    918.46065  0.044241842  0.044943919            5 
 1731000   0.97023876    -5.418706    917.12447  0.044151958  0.044932845            4 
 1732000   0.97234811   -5.4039035    919.16907   0.04422484  0.044921703            6 
 1733000   0.97980208    -5.431787      922.042  0.044337469  0.044910458           10 
 1734000   0.99154209   -5.3972032    923.93504  0.044402876  0.044899469            6 
 1735000    0.9591817   -5.4303119     920.2402  0.044199817  0.044888399            4 
 1736000   0.99346993   -5.4674679    920.45545   0.04418469  0.044877445            2 
 1737000   0.95662064   -5.4291813    919.86379  0.044130867  0.044866331            2 
 1738000   0.96975185   -5.4472217    921.17394  0.044168294  0.044855016            6 
 1739000   0.96953233   -5.4008479    923.46989  0.044252918  0.044843816            5 
 1740000   0.95245276   -5.4145215     925.1298  0.044306983  0.044832697            2 
 1741000   0.97227355   -5.4290861    920.78062  0.044073359  0.044821725            6 
 1742000   0.95697933   -5.3937973    923.77553  0.044191329  0.044810679            3 
 1743000   0.96698484   -5.4275292    925.14866  0.044231625  0.044799719            3 
 1744000   0.96723164   -5.4183051     925.1185  0.044204821  0.044788678            2 
 1745000   0.95809975   -5.4578787    920.54233  0.043960952   0.04477762            2 
 1746000    0.9841099   -5.4410562    924.87416  0.044142524  0.044766537            4 
 1747000   0.98099028    -5.409762    924.00502  0.044075798  0.044755368            9 
 1748000   0.97681294   -5.4011732    927.67339  0.044225467   0.04474438            3 
 1749000   0.93872993   -5.4115053    927.27157  0.044181035  0.044733336            2 
 1750000   0.96933945   -5.4091846    927.62181  0.044172467  0.044722445            1 
 1751000   0.96964786   -5.4032642    927.94248  0.044162501   0.04471169            3 
 1752000   0.98519244   -5.4469194    926.49605  0.044068496  0.044700664            5 
 1753000   0.94479322   -5.4605866    922.65144  0.043860593  0.044689423           10 
 1754000   0.98571861   -5.4625445    926.00595  0.043994961  0.044677994            6 
 1755000   0.98021212   -5.4384585    927.92699  0.044061111  0.044667051            2 
 1756000   0.97592896   -5.4122076    924.33929   0.04386576  0.044655909            4 
 1757000   0.96842234   -5.4177029     926.3252  0.043934984  0.044644879           10 
 1758000   0.98041973   -5.4321541     924.3358   0.04381569  0.044633883            8 
 1759000   0.97823644   -5.4649295     924.0574  0.043777592  0.044622752            2 
 1760000   0.95078558   -5.4391126    929.43618  0.044007395  0.044611679            5 
 1761000   0.97014112     -5.41943    931.85039  0.044096649  0.044600576            2 
 1762000   0.93449735   -5.4441488    929.60091  0.043965234  0.044589534            3 
 1763000   0.95119685   -5.4093575    932.57417  0.044080836  0.044578671            4 
 1764000   0.95747271   -5.4375015    926.70648  0.043778651  0.044567738            6 
 1765000   0.95275422   -5.4513272      932.874  0.044045043  0.044556404            5 
 1766000   0.98196312   -5.4520382    930.79542  0.043922019   0.04454524            7 
 1767000   0.93999802   -5.4300843    929.87704   0.04385385  0.044534052            4 
 1768000    0.9613609   -5.4512361     933.0391  0.043978087  0.044522804            2 
 1769000   0.97747411   -5.4605469    930.30919  0.043824627  0.044511583            3 
 1770000   0.96129446    -5.423802    930.62172  0.043814582  0.044500306            5 
 1771000   0.97226827   -5.4517925    932.40843  0.043873915  0.044489186            3 
 1772000   0.96596689   -5.4490591    932.26541  0.043842429  0.044478074           10 
 1773000   0.97096698   -5.4411141    934.05632  0.043901876  0.044467123            3 
 1774000    0.9690532   -5.4464817    935.17113  0.043929497  0.044456297            2 
 1775000   0.96530589   -5.4117725    934.86794  0.043890514  0.044445322            2 
 1776000    1.0011302    -5.439853    935.98816  0.043918363  0.044434268            3 
 1777000   0.97045233   -5.4360414    933.99491  0.043800174  0.044423395            3 
 1778000   0.95389248   -5.4076922     936.0536  0.043872029  0.044412441            3 
 1779000   0.95630763   -5.4415003    935.37445  0.043815554  0.044401497            2 
 1780000   0.96908519   -5.4287034    936.30723  0.043834608  0.044390469            6 
 1781000    0.9575362   -5.4658797    933.16796  0.043663109  0.044379802            7 
 1782000   0.94411623   -5.4159597    940.24933  0.043969759  0.044369022            4 
 1783000   0.97445001   -5.4307068    937.16299   0.04380085  0.044358107            4 
 1784000   0.95324475   -5.4497709    935.43128  0.043695407  0.044347451            9 
 1785000    0.9636014     -5.46488    938.82293  0.043829268  0.044336841            4 
 1786000    0.9751618   -5.4568358    938.27224  0.043779033  0.044326176            4 
 1787000   0.96161267   -5.4129948    941.36753  0.043898878  0.044315757            5 
 1788000     0.986432   -5.4608633    936.66129  0.043654982  0.044305116            3 
 1789000   0.94731572   -5.4545018    941.05415  0.043835204  0.044294502            3 
 1790000   0.97120264   -5.4544558     940.9844  0.043807468  0.044283763            6 
 1791000   0.97523038   -5.4795328    940.88743  0.043778496  0.044273326            4 
 1792000     0.965609    -5.434468    942.57353  0.043832474  0.044262731            6 
 1793000   0.95162806   -5.4451094     943.3814  0.043845576  0.044252337            2 
 1794000   0.95077869   -5.4366909    943.68764   0.04383536  0.044241682            4 
 1795000   0.95160842   -5.4477278    944.72715  0.043859199  0.044231365            6 
 1796000   0.97463984   -5.4374057    942.81221  0.043745926  0.044221107            7 
 1797000   0.95457656   -5.4529538    941.16679  0.043645279  0.044210648            5 
 1798000   0.96591073   -5.4898718    940.61557  0.043595457   0.04419993            3 
 1799000     0.982754   -5.4616741    947.89525  0.043908433  0.044189399            4 
 1800000   0.97981122   -5.4528127    942.03696  0.043612822  0.044178918            4 
 1801000   0.95839842   -5.4299472    942.49499  0.043609799  0.044168438            3 
 1802000   0.95810816   -5.4552444    944.21702  0.043665234  0.044157859            5 
 1803000   0.95461303   -5.4737055    945.11689  0.043682607  0.044147256            4 
 1804000   0.97219461    -5.468503    943.49311  0.043583385  0.044136714            5 
 1805000   0.97689989   -5.4337184    943.45059  0.043557275   0.04412613            3 
 1806000   0.97628081   -5.4694778    945.51779  0.043628543  0.044115522            4 
 1807000   0.96640551   -5.4458172    949.05059  0.043767321  0.044105004            6 
 1808000   0.97275868    -5.437857    945.15538  0.043563577  0.044094447            6 
 1809000   0.95617906   -5.4499399    951.30593  0.043822827  0.044083858            5 
 1810000   0.97540075   -5.4393857    947.34124  0.043616079  0.044073385            3 
 1811000   0.95414575   -5.4275542    949.86393  0.043708077  0.044062744            4 
 1812000   0.95692251   -5.4703422     945.3958  0.043478467  0.044052113           13 
 1813000    0.9758947   -5.4460983    950.48502  0.043688409    0.0440414            7 
 1814000   0.95270743   -5.4944898     946.2545  0.043469979  0.044030747            4 
 1815000   0.95757185   -5.4456859    951.19274  0.043672761   0.04402012            2 
 1816000    0.9310648   -5.4451015    951.10288  0.043644589   0.04400957            3 
 1817000   0.95245461   -5.4604202     948.8223  0.043515974  0.043998988            2 
 1818000   0.94031104   -5.4242372    951.54806  0.043616981  0.043988575            4 
 1819000   0.94355592   -5.4575622    947.85933  0.043424012  0.043977874            4 
 1820000   0.97505962   -5.4620803    947.99351  0.043406296  0.043967155            2 
 1821000   0.98491102   -5.4525051    945.51913  0.043269226   0.04395636            5 
 1822000   0.97071442    -5.478819    950.74376  0.043484438  0.043945499            3 
 1823000   0.96865562   -5.4732273    949.81182  0.043417984  0.043934627            3 
 1824000   0.96056715   -5.4692009    949.85085  0.043395963  0.043923843            4 
 1825000   0.98202495   -5.4270796    951.26454  0.043436737  0.043913072            2 
 1826000    0.9492191   -5.4596934    948.69758    0.0432958  0.043902268            4 
 1827000   0.96960241    -5.473593    950.11906  0.043336939  0.043891475            6 
 1828000   0.94902523   -5.4661405    950.15091  0.043314684   0.04388056            3 
 1829000   0.93459928   -5.4809578    949.38995  0.043256331  0.043869606            3 
 1830000   0.93834604   -5.4875451     949.9513  0.043258256  0.043858654            7 
 1831000   0.95398744   -5.4745304    949.50608  0.043214367   0.04384767            3 
 1832000   0.95760855   -5.5018988    947.82492  0.043114307  0.043836597            3 
 1833000   0.95729331    -5.469922    949.81416  0.043181222   0.04382582            4 
 1834000   0.96151533   -5.4413336    954.42697  0.043367274  0.043814877            3 
 1835000   0.96190094   -5.4854671    953.84648  0.043317279  0.043804117            4 
 1836000   0.96650531   -5.4833317    952.85154  0.043248527  0.043793293            4 
 1837000   0.96074724   -5.4677054     951.8749  0.043180679  0.043782552            5 
 1838000   0.96532549   -5.4710066    955.83375  0.043336677  0.043771723            5 
 1839000   0.97466841   -5.4278967    955.24418  0.043286396  0.043761178            5 
 1840000   0.97071657   -5.4498508    957.04272  0.043344326  0.043750338            3 
 1841000   0.95815149   -5.4761906    952.79551  0.043128531  0.043739552            4 
 1842000   0.94852019    -5.500142    952.46694  0.043090252  0.043728729            4 
 1843000    0.9643176   -5.4626322    955.13241  0.043187394  0.043717966            4 
 1844000   0.97346001   -5.4619824    956.93126  0.043245267  0.043707269            2 
 1845000   0.95960154   -5.4586124    955.18537  0.043142971  0.043696718            7 
 1846000   0.95652288   -5.4786508    957.48241  0.043223294  0.043686307            6 
 1847000   0.93295675   -5.4485397    961.88927  0.043398722  0.043675837            3 
 1848000   0.95395925   -5.4316555    958.15811  0.043206986   0.04366535            4 
 1849000   0.95580083   -5.4641264    960.00599  0.043266901  0.043654725            6 
 1850000   0.95672356   -5.4859366    956.47626  0.043084516  0.043644002            9 
 1851000   0.93982945   -5.4661087    961.31336  0.043279009  0.043633266            6 
 1852000   0.96619448   -5.4417151     961.5513  0.043266347  0.043622664            7 
 1853000   0.96510868   -5.4779152    959.78322  0.043163483  0.043612358            4 
 1854000   0.97262703   -5.4539787    959.96893   0.04314855  0.043601731            6 
 1855000   0.95872248   -5.4479881    961.56732  0.043197094  0.043591352            2 
 1856000   0.95756035    -5.471372    962.03808  0.043194957  0.043581003            5 
 1857000   0.95912506   -5.4621417    963.20696   0.04322415  0.043570616            7 
 1858000   0.95516227   -5.4859668    959.76986  0.043046729  0.043560261            3 
 1859000   0.97169392   -5.4635257    959.94052  0.043031223  0.043549776            3 
 1860000   0.97581685   -5.4643865    962.23428  0.043110855  0.043539279            6 
 1861000    0.9626569   -5.4867183    962.20109  0.043086203  0.043528743           11 
 1862000   0.94205532   -5.4851981     960.5789  0.042990463  0.043518147            4 
 1863000   0.92935625     -5.44149    963.60473  0.043102734  0.043507709            5 
 1864000   0.94379009   -5.4545565    962.06466  0.043010759   0.04349713            3 
 1865000   0.95825805   -5.4828756    966.00742   0.04316387  0.043486684            8 
 1866000   0.94769335   -5.4564815    962.63454   0.04299011  0.043475985            5 
 1867000   0.95180751   -5.4747676     965.5417  0.043096844  0.043465544            4 
 1868000   0.97308621   -5.4545901    964.87001  0.043043808  0.043455038            5 
 1869000   0.94024424   -5.4487018    965.46958  0.043047511  0.043444717            6 
 1870000   0.93957713   -5.4699363     966.1339  0.043054095  0.043434355            3 
 1871000   0.94836748   -5.4944111    963.40588   0.04290958  0.043423865            3 
 1872000   0.97060643   -5.4816635     963.7186  0.042900579  0.043413253            3 
 1873000   0.93715135   -5.4598811    963.39172   0.04286313  0.043402744            3 
 1874000   0.93147374   -5.5032289    963.68827  0.042853445  0.043391963            4 
 1875000   0.96446472   -5.4694183    964.73249     0.042877  0.043381358           10 
 1876000   0.93845453   -5.4794095      965.198  0.042874822  0.043370934            4 
 1877000   0.93453196   -5.4630673    967.43182  0.042951155  0.043360437            5 
 1878000   0.94921755   -5.4468217     970.2313  0.043052507  0.043349953            3 
 1879000   0.97255149   -5.4639748    969.95007  0.043017122  0.043339673            6 
 1880000   0.94427855   -5.4659644    967.39517  0.042880992  0.043329109            3 
 1881000   0.94804207   -5.4532741    967.38726  0.042857844  0.043318671            3 
 1882000   0.94932725   -5.4408788    971.00269   0.04299516  0.043308367            3 
 1883000   0.96250554   -5.4999892    966.43608  0.042770228   0.04329799            6 
 1884000   0.96545901   -5.4536096     973.4199  0.043056436  0.043287684            6 
 1885000   0.97242765   -5.4737705    971.51458  0.042949362  0.043277333            3 
 1886000   0.95709308   -5.4662622    972.58897  0.042974062  0.043267009            2 
 1887000   0.94569236    -5.454641    972.62645  0.042952943  0.043256672            4 
 1888000   0.95671076   -5.4659132    972.63742  0.042930677  0.043246412            4 
 1889000   0.94664142   -5.4577869    972.19039   0.04288823  0.043236087            6 
 1890000   0.96892908   -5.4971681     973.3714   0.04291761  0.043225907            7 
 1891000   0.96378136   -5.5126743    969.75084  0.042735362   0.04321559            2 
 1892000   0.95407355   -5.4850729    969.62121  0.042707065  0.043205224            6 
 1893000    0.9363636   -5.4545246    975.81447  0.042957143  0.043194968            3 
 1894000   0.94324115   -5.5080874    971.20286  0.042731558  0.043184801            6 
 1895000   0.93333367   -5.4743533    974.55924  0.042856607  0.043174587            2 
 1896000   0.95923021   -5.4935613    977.08482  0.042945008  0.043164203            5 
 1897000   0.93505809    -5.474928    979.09791  0.043010802  0.043153922            4 
 1898000    0.9464415   -5.4628455     977.6189  0.042923204  0.043143754            2 
 1899000   0.93300247   -5.4781319    976.10241  0.042834054  0.043133717            3 
 1900000   0.96175593   -5.4811594     975.0234  0.042764184  0.043123658            3 
 1901000   0.97678021   -5.4593346    976.77679  0.042818551  0.043113578            2 
 1902000   0.93924899   -5.4764688    977.48051  0.042826871  0.043103395            4 
 1903000    0.9694421   -5.4767588    978.07645  0.042830463   0.04309334            6 
 1904000   0.96222341   -5.4671956    978.18254  0.042812611  0.043083245            7 
 1905000   0.94171577   -5.4720407    980.96604    0.0429119  0.043073162            6 
 1906000   0.94845666   -5.4795086    975.32266  0.042642649    0.0430631            4 
 1907000   0.97169546   -5.5083058    976.80443  0.042685039  0.043052742            7 
 1908000   0.93551737   -5.4908938    979.37117  0.042774772  0.043042462            4 
 1909000   0.93802059   -5.4640293    980.38065  0.042796431  0.043032419            5 
 1910000   0.94332879   -5.4972129    977.16794  0.042633854  0.043022313            5 
 1911000   0.95662128   -5.4675127    978.84655  0.042684744  0.043012096            5 
 1912000   0.96577029   -5.4712734    982.56464   0.04282447  0.043001797            6 
 1913000   0.94931782   -5.4611824    978.38326  0.042619936  0.042991739            5 
 1914000   0.95506071   -5.5056877    978.97385  0.042623382  0.042981457            5 
 1915000   0.96676662   -5.4853258    980.21911  0.042655314  0.042971375            3 
 1916000   0.92973665   -5.5380118    975.01107  0.042406536  0.042960998            3 
 1917000   0.94371056   -5.4944727    980.53481  0.042624535  0.042950746            3 
 1918000   0.95900904    -5.524897    977.84662  0.042485515  0.042940488            6 
 1919000   0.95134296   -5.5033705    982.53446  0.042666947  0.042930223            3 
 1920000   0.95593001   -5.5125472    979.82545  0.042527146  0.042919958            5 
 1921000   0.93114736   -5.4935525     981.7164  0.042587038  0.042909672            5 
 1922000   0.93006273   -5.5219973    977.93507  0.042400931  0.042899301            5 
 1923000   0.92540321   -5.4909788    981.81463  0.042547003  0.042888822            5 
 1924000   0.94212165   -5.4913472    978.46203  0.042379679  0.042878481            9 
 1925000   0.95016461   -5.5034863    984.62029  0.042624255  0.042868136            4 
 1926000    0.9405393   -5.4762927    985.23777  0.042628841  0.042858021            3 
 1927000   0.94183108   -5.5090328    983.96276  0.042551581   0.04284783            2 
 1928000   0.94476118   -5.4906429      983.024  0.042488935  0.042837672            5 
 1929000    0.9443344   -5.5067056    983.05345  0.042468181  0.042827356            3 
 1930000   0.93812962    -5.495164    984.53569  0.042510177  0.042817174            4 
 1931000   0.92729903   -5.5335033    985.81935  0.042543559  0.042806983            3 
 1932000    0.9451375   -5.4800708    984.77797   0.04247662  0.042796666            6 
 1933000   0.94316636   -5.4997461    988.74183  0.042625531  0.042786572            6 
 1934000   0.92263216   -5.4991196    983.82702  0.042391719  0.042776461            3 
 1935000   0.95291943    -5.504702    986.69391  0.042493278  0.042766481            4 
 1936000   0.94964803     -5.47016    988.17468  0.042535067  0.042756454            3 
 1937000   0.95654852   -5.4727364    989.81476  0.042583667  0.042746481            3 
 1938000   0.92345634   -5.4644536    988.95255  0.042524619  0.042736528            3 
 1939000   0.94440502   -5.5144843    989.09689  0.042508892  0.042726626            6 
 1940000   0.93526491   -5.4956507    988.07705  0.042443172  0.042716641            7 
 1941000   0.94454029   -5.5022694    988.10956  0.042422701  0.042706538            3 
 1942000   0.94269733   -5.4741232    989.57085  0.042463562  0.042696509            6 
 1943000   0.93130174   -5.5209407    986.40511  0.042305932  0.042686404           12 
 1944000   0.95716407   -5.4838329    991.23678  0.042491288  0.042676319            5 
 1945000   0.95058227   -5.5406911    984.03731  0.042160981  0.042666148            6 
 1946000   0.95079912   -5.5154127    987.92818  0.042305935  0.042655879            5 
 1947000   0.94142603   -5.5502223    987.83747  0.042280323  0.042645559            7 
 1948000   0.92937031   -5.5302948    986.73374  0.042211402  0.042635199            9 
 1949000   0.94486265   -5.5292767    988.15223  0.042250394  0.042624862            3 
 1950000   0.93819197   -5.4894826    988.91579  0.042261359  0.042614622            3 
 1951000   0.93107036   -5.5063832    989.69534  0.042272994  0.042604251            9 
 1952000   0.91781942   -5.4862653    989.20131  0.042230247  0.042594021            5 
 1953000   0.92894436   -5.5051301    991.86551  0.042322304  0.042583906            6 
 1954000   0.93656781   -5.5201735    988.85175  0.042172115  0.042573744            7 
 1955000   0.93159941   -5.5070539    990.97612  0.042241096  0.042563514            3 
 1956000   0.93393888   -5.4919906    991.53651  0.042243375  0.042553341            4 
 1957000   0.92206509   -5.4872059    989.21528  0.042122947  0.042543153            2 
 1958000   0.94935385   -5.5445396     987.9983  0.042049638  0.042532854            6 
 1959000   0.93269791   -5.5070558    991.29589  0.042168449  0.042522561            6 
 1960000   0.93700962   -5.4910768    994.33266  0.042276048  0.042512288            8 
 1961000   0.92482092   -5.4786455    991.22224  0.042122312  0.042501977            3 
 1962000   0.92360462   -5.4898175    991.66164  0.042119506  0.042491565            5 
 1963000   0.93275234   -5.4881916    994.14862  0.042203626  0.042481265            4 
 1964000   0.94937422   -5.4883186    995.80492  0.042252415    0.0424709            3 
 1965000   0.95096995    -5.496652    992.51036  0.042091194  0.042460648            5 
 1966000   0.93468615    -5.492018    994.59576  0.042158179  0.042450295            2 
 1967000   0.92662848   -5.4803381    993.88035  0.042106437  0.042439932            8 
 1968000   0.92363779   -5.5046041    993.86807  0.042084522  0.042429489            3 
 1969000   0.92974695   -5.5045649    994.07066  0.042071723  0.042419096            5 
 1970000   0.93768167   -5.5088568    996.77114    0.0421646  0.042408697            3 
 1971000   0.91588589   -5.4799061    997.76357  0.042185167  0.042398519            5 
 1972000   0.94131764     -5.50956     994.9605  0.042045322   0.04238822            3 
 1973000   0.94650703   -5.5206365    994.70658  0.042013287  0.042378196            9 
 1974000   0.92963986   -5.4939722    996.73755  0.042077742  0.042368113            4 
 1975000   0.93436167   -5.5037064    997.74567  0.042098974  0.042357924            5 
 1976000   0.92718032   -5.5187736    996.38018  0.042020082  0.042347843            6 
 1977000   0.92460427   -5.4763222    999.43729  0.042127689  0.042337721            3 
 1978000   0.94053481   -5.5227687    998.10915  0.042050436  0.042327617            6 
 1979000   0.95447016   -5.5085084    1001.2569  0.042161737  0.042317588            4 
 1980000   0.94721244   -5.5482415    996.44235  0.041937809  0.042307508            4 
 1981000   0.93525595    -5.493364    1001.6964  0.042137659   0.04229735            5 
 1982000   0.93195293   -5.5193292    998.42699  0.041978935   0.04228743            6 
 1983000   0.93283016   -5.4879172    1002.3583  0.042122974  0.042277518            4 
 1984000   0.94557856   -5.5048037    1002.4872  0.042107157    0.0422677            3 
 1985000   0.93984156   -5.4992109    1003.3507  0.042122196  0.042257882            4 
 1986000   0.92092684   -5.5529399    998.39713  0.041893132  0.042247783            4 
 1987000   0.92193763   -5.5274641     998.7573  0.041887154   0.04223775            4 
 1988000    0.9340389   -5.5497092     1001.008  0.041960427  0.042227737            3 
 1989000   0.91961751   -5.5007242    1005.0795  0.042109917  0.042217966            3 
 1990000   0.92511709   -5.5092167    1001.0642  0.041920609  0.042208178            4 
 1991000   0.93753177   -5.4969262    1002.1935  0.041946823  0.042198256            4 
 1992000   0.91626889   -5.5256012    1001.2813  0.041887603  0.042188328            4 
 1993000   0.91876837   -5.5066272    1002.6219  0.041922641  0.042178302            9 
 1994000   0.92867004   -5.5056127    1003.9113  0.041955506  0.042168185            4 
 1995000   0.94648923   -5.5024972    1005.8261  0.042014457  0.042158181            4 
 1996000   0.91850489   -5.4744257    1006.5435  0.042023361  0.042148288            4 
 1997000   0.93966479   -5.4826671    1006.9744  0.042020298  0.042138426            3 
 1998000   0.95061296   -5.5060625    1006.3197   0.04197196  0.042128484            4 
 1999000   0.94323142    -5.510198    1004.2631  0.041865229   0.04211847            6 
 2000000   0.91144045   -5.5043565    1011.4805   0.04214502   0.04210847            3 
 2001000   0.92652739   -5.4959848    1002.4944  0.041749727  0.042098603            4 
 2002000   0.94934752   -5.5088052    1004.7287  0.041821873  0.042088647            4 
 2003000   0.92157889   -5.5059551    1007.4834  0.041915603  0.042078642            2 
 2004000   0.92783639   -5.5411705    1006.2434   0.04184312  0.042068662            5 
 2005000   0.92224463   -5.5102525    1009.1119  0.041941476  0.042058562            4 
 2006000   0.93976437   -5.5241936    1007.0363  0.041834341  0.042048527            3 
 2007000   0.93422255   -5.5225267    1006.4064  0.041787343  0.042038404            5 
 2008000   0.96023423   -5.4860006    1013.0366   0.04204169  0.042028326            3 
 2009000   0.91728419   -5.5284372    1005.5638  0.041710795  0.042018382            4 
 2010000   0.93944256    -5.488498    1010.7887  0.041906664  0.042008485            2 
 2011000   0.93338427   -5.4935171    1009.8856    0.0418484   0.04199853            4 
 2012000   0.90147321   -5.4989564    1009.2598   0.04180168  0.041988566            9 
 2013000   0.93784576   -5.5406752    1007.3962  0.041703766  0.041978396            3 
 2014000   0.92746774    -5.528439    1005.0423  0.041585665   0.04196826            3 
 2015000   0.93381234   -5.5414576    1004.8733  0.041558036   0.04195798            4 
 2016000   0.94367802   -5.5450919    1009.0686  0.041710837  0.041947854            2 
 2017000   0.93837338   -5.4937514    1007.6824  0.041632889   0.04193771            4 
 2018000   0.91868158   -5.5184451    1010.8537  0.041743215   0.04192752            8 
 2019000   0.92043176   -5.5280554    1006.4374   0.04154026  0.041917378            2 
 2020000   0.93646199   -5.4929719     1013.919  0.041828342  0.041907269            2 
 2021000   0.93412277   -5.5111165    1008.6846  0.041591812  0.041897224            4 
 2022000    0.9041222   -5.5415956    1004.9041  0.041415435  0.041886928            3 
 2023000    0.9190003   -5.5440044    1008.9815  0.041562922  0.041876722            4 
 2024000   0.93339565   -5.5064535    1012.0244  0.041667672  0.041866527            3 
 2025000   0.94383091   -5.5234422    1010.8482  0.041598692  0.041856448            3 
 2026000   0.94885963   -5.5678992     1008.764  0.041492431  0.041846214            4 
 2027000   0.91427931   -5.5273186    1009.7537   0.04151265  0.041836013            4 
 2028000   0.94696228   -5.5346433    1010.4631  0.041521331  0.041825699            3 
 2029000   0.93563379   -5.5223552    1011.4841  0.041542801   0.04181561            4 
 2030000   0.93633442   -5.5297377    1011.1955  0.041510489  0.041805455            5 
 2031000   0.91847032   -5.5440161    1010.9531  0.041480102  0.041795392            3 
 2032000   0.92660943   -5.5198535    1011.0148  0.041462222  0.041785336            4 
 2033000   0.93718504   -5.5500474    1013.0419   0.04152492  0.041775288            8 
 2034000   0.92018445   -5.5261216    1009.8671  0.041374429  0.041765239            8 
 2035000   0.95644353   -5.5359937    1011.7683  0.041431954  0.041755118            3 
 2036000   0.91580145   -5.5086549    1015.0854  0.041547374   0.04174506            6 
 2037000   0.92442682   -5.5577188    1014.9297  0.041520606  0.041734966            4 
 2038000     0.915467   -5.5565724    1014.6992  0.041490806  0.041724839            5 
 2039000   0.94999057   -5.5331304    1013.6143  0.041426118   0.04171455            3 
 2040000   0.94834052   -5.5395758    1012.0715   0.04134279  0.041704371            7 
 2041000   0.92792963   -5.5195458    1014.3574  0.041415865  0.041694319            4 
 2042000   0.94345235   -5.5570998    1013.4391  0.041358107  0.041684348            6 
 2043000   0.92379023   -5.5523961    1015.3087  0.041414126  0.041674124            2 
 2044000   0.92024806   -5.5019819    1013.4891  0.041319679  0.041663967            5 
 2045000   0.93222816   -5.5427676    1014.0409   0.04132196  0.041653715            5 
 2046000   0.92162687   -5.5471488    1015.9428  0.041379226  0.041643532            4 
 2047000   0.92056881   -5.5353538    1017.0918  0.041405788  0.041633369            3 
 2048000   0.92831238   -5.5363643    1017.1574  0.041388241  0.041623287            9 
 2049000   0.93442973   -5.5037287    1018.9768  0.041442039  0.041613224            3 
 2050000    0.9093412   -5.5210099    1016.1703  0.041307736  0.041603265            3 
 2051000   0.91559335   -5.5259049     1019.577  0.041426013  0.041593167            5 
 2052000   0.91213786   -5.5552312    1015.0682  0.041222716  0.041582886            9 
 2053000   0.93140602   -5.5427533    1015.2412   0.04120966   0.04157278            4 
 2054000   0.90010462   -5.5619445    1020.2887   0.04139438  0.041562743            5 
 2055000   0.89638179    -5.520703    1019.1654  0.041328685   0.04155271            3 
 2056000   0.90751763   -5.5359937    1019.0188  0.041302642  0.041542676            5 
 2057000   0.91427519   -5.5421988    1018.4234  0.041258442   0.04153254            4 
 2058000   0.90526141   -5.5591992     1018.001  0.041221292   0.04152246            3 
 2059000   0.91977483   -5.5550594    1020.3024  0.041294415  0.041512335            6 
 2060000   0.94384563   -5.5767385    1016.8582  0.041135039   0.04150222            4 
 2061000   0.93046646   -5.5522735    1017.7711  0.041151992  0.041492249            4 
 2062000    0.9165852   -5.5387404     1021.355  0.041276877  0.041482055            6 
 2063000   0.93576839   -5.5563474    1020.3552  0.041216479  0.041471965            5 
 2064000   0.94757509   -5.5605129    1018.6064  0.041125903  0.041461925            3 
 2065000   0.92722758   -5.5619304    1020.3808  0.041177595   0.04145197            3 
 2066000   0.92408187   -5.5458191    1021.1944  0.041190483  0.041441886            5 
 2067000   0.91526698   -5.5006796    1024.0081  0.041283989  0.041431913            2 
 2068000   0.93429162   -5.5090816    1024.3429  0.041277519  0.041421961            4 
 2069000    0.9041094    -5.563727    1019.7056  0.041070792  0.041411953            9 
 2070000   0.92187693   -5.5462657    1021.9116  0.041139759  0.041401781            6 
 2071000    0.9047551   -5.5714748    1020.6042  0.041067288  0.041391744            3 
 2072000   0.91351272   -5.5289837    1022.0092  0.041103974   0.04138169            3 
 2073000   0.92260472   -5.5379134    1022.9251  0.041120964  0.041371579            2 
 2074000   0.91223145   -5.5499016    1027.3352  0.041278335  0.041361411            5 
 2075000   0.91253631   -5.5049934    1028.6604  0.041311663  0.041351497            5 
 2076000   0.91466536   -5.5497294    1025.2563  0.041155117  0.041341648            4 
 2077000   0.92131454   -5.5632609    1022.3852  0.041020109  0.041331793            3 
 2078000   0.90917106   -5.5649562    1025.2497  0.041115241  0.041321898           11 
 2079000   0.93217142   -5.5309639    1026.8833  0.041160945   0.04131216            4 
 2080000   0.90907828     -5.54737    1026.0348  0.041107165  0.041302469           15 
 2081000   0.92138557   -5.5659288    1027.5885  0.041149627  0.041292619            4 
 2082000    0.9245656   -5.5454737    1029.4776  0.041205475    0.0412827            3 
 2083000   0.93310148   -5.5238283    1027.9919  0.041126256  0.041272831            4 
 2084000   0.91930094   -5.5596668    1026.5723  0.041049758  0.041262879            4 
 2085000   0.91934951   -5.5169088    1029.5934  0.041150816  0.041253135            3 
 2086000   0.91424059   -5.5716113    1026.3491  0.041001484  0.041243413            7 
 2087000   0.92409126    -5.533203    1026.3633  0.040982403  0.041233605            3 
 2088000   0.91996511   -5.5481691    1025.4742   0.04092729  0.041223704            4 
 2089000    0.9135464   -5.5624354    1026.8209   0.04096142  0.041213745            5 
 2090000   0.91126435    -5.577917    1026.2608  0.040919491  0.041203852            4 
 2091000   0.89833339   -5.5174141    1034.3073    0.0412206   0.04119415            4 
 2092000   0.91814681   -5.5373588    1031.4153  0.041085696  0.041184418            5 
 2093000   0.91346099   -5.5634319    1031.7054  0.041077616  0.041174858            5 
 2094000   0.91608376    -5.578712    1031.1932  0.041037616  0.041164984            4 
 2095000   0.92531163   -5.5467438    1031.9279   0.04104725  0.041155287            3 
 2096000   0.92203119   -5.5508854    1035.9844  0.041188946  0.041145455            4 
 2097000    0.9200699   -5.5507428    1030.3125  0.040943906  0.041135569            5 
 2098000    0.9193156   -5.5465484    1028.2849  0.040843853  0.041125812            4 
 2099000     0.917977   -5.5906612    1027.0519  0.040775445  0.041115807            3 
 2100000   0.90999282   -5.5675576    1033.0042  0.040992232   0.04110595            3 
 2101000   0.92271006   -5.5709706    1030.8132  0.040885816  0.041096205            3 
 2102000   0.88882721   -5.5774952    1031.6392  0.040899113  0.041086219            4 
 2103000    0.9057206   -5.5303177    1031.6437   0.04087984  0.041076383            5 
 2104000   0.90764309   -5.5520154    1033.4815  0.040933202  0.041066474            2 
 2105000   0.91452423   -5.5659135    1031.5983  0.040839204  0.041056687            8 
 2106000    0.9013588   -5.5238073    1037.3707  0.041048224  0.041046833            5 
 2107000   0.90796248   -5.5377477    1032.0421  0.040817991  0.041036875            5 
 2108000   0.92886975    -5.589804    1032.1504  0.040802909  0.041027005           11 
 2109000   0.91430006   -5.5754749    1032.2262  0.040786556  0.041017141            4 
 2110000   0.90574933   -5.5691029    1033.9784  0.040836429  0.041007235            5 
 2111000   0.90420954   -5.5991668    1032.4268  0.040755833  0.040997287            5 
 2112000   0.91999983   -5.5522875    1032.0448  0.040721464  0.040987208            8 
 2113000   0.90539736    -5.552352    1037.7243  0.040926185  0.040977398            3 
 2114000    0.9405204    -5.526343    1035.2273  0.040808391  0.040967618            3 
 2115000   0.92357427   -5.5765655    1034.2868  0.040752042  0.040957699            5 
 2116000   0.90995512   -5.5399417    1035.8414  0.040794004  0.040947812            4 
 2117000   0.89799991   -5.5530258    1037.7671   0.04085054   0.04093798            4 
 2118000   0.91427991   -5.5448905    1035.6755  0.040748959  0.040928241            6 
 2119000   0.92961154   -5.5643146    1033.1813   0.04063164   0.04091836           11 
 2120000     0.930044   -5.5631255    1035.3712  0.040698554  0.040908606            3 
 2121000   0.90404095   -5.5465638    1038.5927  0.040805936  0.040898921            3 
 2122000   0.91316147   -5.5604864    1038.9328  0.040800062   0.04088917            6 
 2123000   0.92265178    -5.565029    1043.0187  0.040941227  0.040879432            3 
 2124000   0.88466585   -5.5538319    1036.8549  0.040680118  0.040869762            5 
 2125000    0.9070354   -5.5467603    1038.4704  0.040724329  0.040860098            7 
 2126000   0.91177112   -5.5722177    1037.8188  0.040679635  0.040850336            2 
 2127000   0.92620457   -5.6005826    1035.3723  0.040564655  0.040840529            2 
 2128000   0.88525999   -5.5191842    1040.9914  0.040765642  0.040830781            8 
 2129000   0.91169461   -5.5626626    1041.6387  0.040771829  0.040821015            6 
 2130000   0.91751579     -5.56912    1039.9671   0.04068729  0.040811263            7 
 2131000   0.91395728   -5.5737086    1041.8691  0.040742575  0.040801542            6 
 2132000   0.91332629   -5.5689317    1039.2949  0.040622848  0.040791841            5 
 2133000    0.9106144    -5.580003    1040.1298  0.040636418  0.040782096            3 
 2134000   0.92138213   -5.5494352    1044.6237  0.040792867  0.040772387            4 
 2135000     0.911895   -5.5488349    1043.1222  0.040715153  0.040762739            5 
 2136000   0.92661736   -5.5625065    1041.2275   0.04062217  0.040753129           10 
 2137000   0.91057782   -5.5574224    1041.9768  0.040632381  0.040743628            7 
 2138000   0.90922118   -5.5629313    1046.8136    0.0408019  0.040733937            4 
 2139000   0.92620601   -5.5680747    1041.5776  0.040578839  0.040724258            5 
 2140000   0.89524952   -5.5816995     1047.822  0.040803037  0.040714497            3 
 2141000   0.91887159   -5.5583184    1046.9867  0.040751468   0.04070503            6 
 2142000   0.90779162   -5.5407784    1045.3038  0.040666968  0.040695512            5 
 2143000   0.89540283   -5.5830392    1041.2909  0.040491946  0.040685968            5 
 2144000   0.92568639   -5.5871926    1042.0388   0.04050213  0.040676377            5 
 2145000   0.92271008   -5.5615098    1044.1722  0.040566131  0.040666881            6 
 2146000   0.89131054   -5.5811962    1045.1473  0.040585092   0.04065727            4 
 2147000   0.90471042   -5.5371346    1047.2509  0.040647839  0.040647844            4 
 2148000   0.89151778   -5.5669374    1047.4801  0.040637808  0.040638325            5 
 2149000    0.9054648   -5.5538882    1048.0395  0.040640589  0.040628853            3 
 2150000    0.9028022   -5.5358976    1048.9529  0.040657089  0.040619384            4 
 2151000   0.89081733   -5.5859965    1043.2783  0.040418346  0.040609777            5 
 2152000   0.91639189   -5.5748786     1045.827  0.040498257   0.04060018            9 
 2153000   0.90184763   -5.5783896    1048.2971  0.040575054  0.040590693            4 
 2154000   0.90114718   -5.5858414    1046.3857   0.04048227  0.040581119            3 
 2155000   0.89777411   -5.5849734    1047.2619  0.040497367  0.040571465            4 
 2156000   0.90049472   -5.5616976     1048.443  0.040524233   0.04056177           14 
 2157000   0.90291891   -5.5653946    1047.1042  0.040453726  0.040552202            3 
 2158000   0.92210846   -5.5770868    1047.9812  0.040468844  0.040542529            7 
 2159000   0.91046229   -5.5607852    1043.6032  0.040281118  0.040532911            5 
 2160000   0.91065018   -5.5834778    1047.8977  0.040428153  0.040523257            5 
 2161000   0.90619681   -5.5952546    1048.2167  0.040421747  0.040513499            3 
 2162000   0.90304212   -5.5445565    1049.4822  0.040451827   0.04050386            5 
 2163000   0.90402937   -5.6083778    1043.5701  0.040205352  0.040494104           10 
 2164000     0.945801   -5.5655961    1047.5968  0.040341836   0.04048427            3 
 2165000   0.91447157    -5.568797    1048.7868  0.040369008  0.040474646            3 
 2166000   0.91784957   -5.5692208    1049.2686  0.040368904  0.040464998            4 
 2167000   0.88784661   -5.5804947    1048.8932  0.040335841  0.040455367            4 
 2168000   0.88718382   -5.5895639    1048.9539  0.040319569  0.040445698            4 
 2169000   0.90120973    -5.580786    1051.2965  0.040390981  0.040436008            3 
 2170000    0.9173163   -5.5577924    1049.8484  0.040316758  0.040426432            4 
 2171000   0.90019765   -5.5757635    1051.3273  0.040354956  0.040416864           11 
 2172000   0.89234254   -5.6194708    1051.4904  0.040342635  0.040407362            3 
 2173000   0.90796912   -5.5752492    1053.7459  0.040410565  0.040397893            5 
 2174000   0.88825133   -5.5951292    1050.2335  0.040257339  0.040388314            5 
 2175000   0.91832002   -5.5994614    1052.8515  0.040339136  0.040378855            7 
 2176000   0.90309455   -5.5677531    1052.7778  0.040317778  0.040369413            6 
 2177000   0.90311186   -5.5923454    1052.7764  0.040299205  0.040359818            3 
 2178000   0.88506158   -5.5944924    1053.9742   0.04032653  0.040350325            5 
 2179000   0.89635229   -5.5838298    1052.3785  0.040246998  0.040340921            6 
 2180000   0.92778214   -5.5629843     1055.158  0.040334786  0.040331419           11 
 2181000   0.89654108   -5.5911456    1057.1828  0.040393656  0.040322001            6 
 2182000   0.89729141   -5.5410821     1059.368  0.040458599  0.040312612            2 
 2183000   0.90347805   -5.5765213    1054.4424   0.04025204  0.040303111           12 
 2184000   0.90558323   -5.5981127    1052.6661  0.040165831  0.040293552            6 
 2185000    0.8970799   -5.6146866    1055.6686  0.040261958  0.040284019           14 
 2186000   0.88624637   -5.5690987    1058.0076  0.040332707  0.040274619            4 
 2187000   0.89845505   -5.6194505    1056.9156  0.040272655  0.040265208            3 
 2188000   0.92063145   -5.5639856    1057.8893  0.040291335  0.040255819            5 
 2189000   0.88955048   -5.5805211    1059.9706  0.040352162  0.040246425            7 
 2190000   0.87960057   -5.5956226     1056.263  0.040192655  0.040237011            3 
 2191000   0.91067828   -5.5676968    1057.3441  0.040215432  0.040227643            9 
 2192000   0.89409694   -5.6006137    1055.1836  0.040114948  0.040218172            7 
 2193000   0.90193634   -5.5867883    1055.9958  0.040127519  0.040208654            5 
 2194000   0.88934554   -5.6088191    1056.5669  0.040130923  0.040199212            6 
 2195000   0.89862191   -5.5935558     1057.334  0.040141763  0.040189744            2 
 2196000    0.9201139   -5.5589565    1060.5644  0.040246069   0.04018041            5 
 2197000   0.90318497   -5.5822184    1057.9817  0.040129786  0.040171063            3 
 2198000    0.8976363   -5.6083596    1059.6502  0.040174788  0.040161663            6 
 2199000   0.88213999   -5.5875152    1060.4245  0.040185861  0.040152249            4 
 2200000   0.90236725    -5.582378    1059.7096  0.040140515  0.040143028            3 
 2201000   0.88744429   -5.5528582    1058.2725  0.040067869  0.040133621            3 
 2202000   0.90763338   -5.5906938    1057.6986  0.040027952  0.040124218            4 
 2203000   0.90472119   -5.5888884    1060.1604  0.040102906  0.040114926            6 
 2204000   0.88945526   -5.5741542     1059.762  0.040069646  0.040105517            3 
 2205000   0.90929198   -5.5865127    1064.1774  0.040218346  0.040096103            4 
 2206000   0.89391137   -5.5781743    1060.7808  0.040071803  0.040086725            2 
 2207000   0.90926119   -5.6190741     1060.616  0.040047426  0.040077208           10 
 2208000   0.90856629   -5.6166597    1059.5882  0.039990498  0.040067563            3 
 2209000   0.91195688    -5.600809    1056.7783   0.03986639  0.040057943            6 
 2210000    0.9057523   -5.6103851    1060.1102  0.039973991  0.040048335            7 
 2211000   0.92955135   -5.6134295    1060.7065  0.039978386  0.040038794            3 
 2212000   0.90824097   -5.6254335    1059.7779  0.039925326  0.040029303            4 
 2213000    0.8842114   -5.5968686    1061.4368  0.039969755   0.04001966            9 
 2214000   0.90906489   -5.5896893    1060.6922  0.039923673  0.040009993            5 
 2215000   0.89325773   -5.5706715    1061.3918  0.039931972  0.040000496            4 
 2216000   0.89338017   -5.5927734    1063.0951  0.039978004  0.039991064            8 
 2217000    0.8925187   -5.5962315    1062.4962  0.039937459  0.039981509            3 
 2218000   0.87070938   -5.5761924    1063.1665   0.03994464  0.039971969            4 
 2219000   0.89497824   -5.6076598    1059.9662  0.039806452  0.039962486            3 
 2220000   0.91717962   -5.6146073     1060.302  0.039801128  0.039952932            4 
 2221000   0.87632004   -5.5932629    1064.8024  0.039952062  0.039943336            3 
 2222000    0.9151106    -5.608649     1063.345  0.039879425  0.039933775            3 
 2223000   0.89455081     -5.60294    1062.9993  0.039848525  0.039924052            4 
 2224000   0.89689832   -5.6125553    1061.3026  0.039767032  0.039914442            3 
 2225000   0.89398223   -5.5956278    1065.0642  0.039890043   0.03990476            4 
 2226000   0.89480236    -5.578593    1066.1753   0.03991372  0.039895163            3 
 2227000   0.90033783   -5.6191809    1063.7996  0.039806899  0.039885504            3 
 2228000   0.88363447   -5.5852189    1064.9434  0.039831813  0.039875779            5 
 2229000   0.87929644    -5.617878    1063.6675  0.039766244  0.039866044            3 
 2230000   0.89315108   -5.6111099     1062.097  0.039689724  0.039856379            7 
 2231000   0.89184582   -5.6066226    1065.5538  0.039801052  0.039846707            4 
 2232000   0.88887061   -5.5844698    1070.9255  0.039983778    0.0398371            4 
 2233000   0.89686423   -5.5633968    1066.5963  0.039804311  0.039827634            4 
 2234000   0.91308826   -5.5691198    1068.5372  0.039858892   0.03981803            4 
 2235000   0.90243765   -5.6205034    1064.6436  0.039695883  0.039808419            4 
 2236000   0.88456845   -5.5952653    1068.5382  0.039823279   0.03979889           10 
 2237000   0.88999675   -5.5734874     1069.338   0.03983527  0.039789455            8 
 2238000   0.89304433   -5.6118371    1066.3532   0.03970633  0.039779823            2 
 2239000   0.88724427   -5.5937866    1065.0884  0.039641521  0.039770235            3 
 2240000   0.87016721   -5.5834367    1070.7301  0.039833707   0.03976077            5 
 2241000   0.90015654   -5.5738055    1070.7173  0.039815457  0.039751343            6 
 2242000   0.89507413   -5.6179692    1067.5128  0.039678592  0.039741827            4 
 2243000    0.8868405   -5.6004167     1066.816  0.039635011  0.039732203            2 
 2244000   0.89712536   -5.6168452    1065.0486  0.039551714  0.039722593            4 
 2245000   0.89252545   -5.6136626     1066.592  0.039591388  0.039712959            4 
 2246000   0.88013138   -5.6169303    1071.9938  0.039774185  0.039703455            6 
 2247000   0.88758885   -5.5974937    1068.4457  0.039624897  0.039693852            6 
 2248000   0.90155782   -5.6218964    1063.4597  0.039422437  0.039684145            8 
 2249000   0.89065261   -5.5900716     1070.146  0.039652662  0.039674507            4 
 2250000   0.90879568   -5.6072714    1067.6509  0.039542627  0.039664781            8 
 2251000   0.87509754   -5.6131396    1067.4626  0.039518087  0.039655037            3 
 2252000    0.8959247   -5.5847414    1069.8056  0.039587242  0.039645255            5 
 2253000   0.88898716   -5.6230927    1065.9943    0.0394287  0.039635588            6 
 2254000   0.88865012   -5.6282359    1066.4228  0.039427047  0.039625795            4 
 2255000   0.86314586   -5.5966264    1071.1271  0.039583413  0.039616195            4 
 2256000    0.8675067   -5.6150479    1073.0669  0.039637519  0.039606403            4 
 2257000   0.90368527   -5.5939544    1070.7011  0.039532608  0.039596821            2 
 2258000   0.87680753   -5.6157409    1070.1351   0.03949421  0.039587219            4 
 2259000   0.90419733   -5.5961838    1070.4061  0.039486724  0.039577531            3 
 2260000   0.89517567   -5.6433523    1069.8825  0.039449945   0.03956789            4 
 2261000   0.89204417   -5.6024873    1070.6374  0.039460321  0.039558215            5 
 2262000   0.89783546   -5.6217716    1074.7526   0.03959448  0.039548536            6 
 2263000     0.878086   -5.6006426    1073.1083  0.039516433  0.039538888            2 
 2264000    0.8800171     -5.58615    1073.9896   0.03953142  0.039529349            5 
 2265000   0.88054387   -5.6127603    1070.9853  0.039403433  0.039519739            6 
 2266000   0.89124638   -5.5857181    1078.0041  0.039644162  0.039510227            4 
 2267000   0.87006492   -5.6579723    1069.9468  0.039330497  0.039500516            7 
 2268000   0.88606892    -5.628607    1074.3725  0.039475768  0.039490823            6 
 2269000   0.90811283   -5.6150394    1072.0563  0.039373303  0.039481041            7 
 2270000   0.89232886    -5.610262    1073.4937  0.039408726  0.039471343            7 
 2271000   0.88537821   -5.6130242     1071.771  0.039328159  0.039461512           11 
 2272000   0.90728609   -5.6280642    1072.7754  0.039347689  0.039451741            8 
 2273000   0.88253101   -5.5878837    1074.3228  0.039387108  0.039442011            6 
 2274000   0.88378231   -5.6032096    1075.2185  0.039402613  0.039432345            4 
 2275000   0.88230035   -5.6102763    1072.9597  0.039302554  0.039422571           11 
 2276000   0.88053156   -5.6265411    1069.2245  0.039148523   0.03941279            6 
 2277000   0.89208976   -5.5939825    1076.7355   0.03940622   0.03940315            8 
 2278000   0.88866653    -5.564238     1075.314  0.039336918  0.039393539            6 
 2279000   0.88653549   -5.6290322    1071.8489  0.039192955  0.039384014            4 
 2280000   0.88625747   -5.6072389    1075.1168  0.039295206  0.039374434            6 
 2281000   0.88583046    -5.615157    1079.0941  0.039423283  0.039364845            9 
 2282000   0.88514618   -5.6308602    1073.5892  0.039204979   0.03935523           12 
 2283000   0.88166179   -5.6274508    1074.6436  0.039226297  0.039345583            6 
 2284000   0.88772391   -5.5901181    1078.6087  0.039353793  0.039336056            4 
 2285000   0.90374247   -5.6124395    1075.8043  0.039234294  0.039326487            4 
 2286000   0.85739031   -5.5918742    1073.6741  0.039139477  0.039316873            4 
 2287000   0.88431564   -5.6146891    1075.4265  0.039186217  0.039307219            3 
 2288000   0.88555631   -5.6342872    1073.0433  0.039082288  0.039297477            7 
 2289000   0.89458354   -5.6001132    1080.5911  0.039339999  0.039287851            4 
 2290000   0.89185155   -5.6269496    1075.5705   0.03914012  0.039278286            6 
 2291000   0.88780561   -5.6230071    1073.4354  0.039045373  0.039268685            5 
 2292000   0.88097312   -5.5810834    1077.6913  0.039183075  0.039259068            7 
 2293000   0.90193879   -5.6211154    1076.5353  0.039123976  0.039249338            9 
 2294000   0.88091335   -5.6313131    1080.2041  0.039240196  0.039239692            5 
 2295000   0.87966013   -5.6134062    1078.5502  0.039163043  0.039230183            6 
 2296000   0.86557301    -5.617606     1077.111   0.03909375   0.03922063            5 
 2297000   0.87241901   -5.6314516    1078.5051  0.039127307  0.039210925            3 
 2298000    0.8771951   -5.6235875     1080.769  0.039192378  0.039201268            5 
 2299000   0.88717653   -5.6074883    1083.3298  0.039268153  0.039191645            8 
 2300000   0.89295582   -5.6261457    1079.1803  0.039100737  0.039182041            6 
 2301000   0.86985653    -5.601711    1084.2285  0.039266568  0.039172569            4 
 2302000   0.89784979    -5.629454    1081.3726  0.039146125  0.039163136            4 
 2303000   0.88355284   -5.6093301    1081.3817  0.039129458  0.039153533            4 
 2304000   0.87116396   -5.6539475    1076.7779   0.03894596  0.039143941            9 
 2305000   0.90157393   -5.6207409    1080.5493  0.039065411  0.039134325            6 
 2306000   0.88149161   -5.6041452    1081.7859  0.039093159  0.039124756            3 
 2307000   0.89343025   -5.6198533    1082.4955  0.039101844  0.039115164            6 
 2308000   0.86864204   -5.6642855    1079.2548  0.038967894  0.039105549            3 
 2309000   0.89332061   -5.6290289    1077.8732  0.038901157  0.039095874            6 
 2310000   0.88914243   -5.6099318    1084.4608  0.039121962  0.039086154            5 
 2311000   0.87522799    -5.642384    1079.2498  0.038917128  0.039076419            8 
 2312000   0.88033998   -5.6388518    1078.8721  0.038886684  0.039066712            5 
 2313000    0.8778243   -5.6368393    1081.7997  0.038975347  0.039056937            6 
 2314000   0.88554703   -5.6306262    1079.7592  0.038885019  0.039047249            5 
 2315000   0.89208472    -5.636685    1079.6667  0.038864894  0.039037505            7 
 2316000   0.86523201   -5.6442675    1080.0384  0.038861484  0.039027878            5 
 2317000   0.86330919   -5.6171366    1081.3689  0.038892565  0.039018208            6 
 2318000   0.88244709    -5.650893    1084.6678  0.038994385  0.039008553            7 
 2319000   0.88897483    -5.619233    1084.3307  0.038965457    0.0389989            7 
 2320000   0.87054312   -5.6325962     1082.172   0.03887112  0.038989261            4 
 2321000   0.90578513   -5.6658137    1082.9252  0.038881415  0.038979665            5 
 2322000   0.87689489   -5.6375705    1084.2533  0.038912333  0.038970117            9 
 2323000   0.90140407   -5.6443825    1084.8847  0.038918233  0.038960419           13 
 2324000   0.86981548   -5.6520603    1083.2228  0.038841895  0.038950719            5 
 2325000    0.8595442    -5.633229    1085.0483   0.03889062  0.038941091            7 
 2326000   0.88522185    -5.635507    1086.5953  0.038929323  0.038931482            5 
 2327000   0.86323873   -5.6252067    1085.7666  0.038882918  0.038921735            6 
 2328000   0.86981611   -5.6221984    1088.1603    0.0389519  0.038912107            3 
 2329000   0.86273317   -5.6349409    1084.4235  0.038801471  0.038902484            5 
 2330000   0.88739818   -5.6425534    1085.8686  0.038836502  0.038892786            9 
 2331000   0.85349774   -5.6449424    1084.0882  0.038756191  0.038882938            3 
 2332000   0.86213863   -5.6523837    1085.2271  0.038780272  0.038873264            3 
 2333000    0.8725846   -5.6480363    1085.1651  0.038761432  0.038863502            3 
 2334000   0.88235113   -5.6360197    1089.8349  0.038911559  0.038853886            7 
 2335000   0.90846209    -5.634253    1086.6027  0.038779539  0.038844374            4 
 2336000   0.85911313    -5.610185    1087.5303  0.038796029  0.038834682            2 
 2337000   0.86708586   -5.6316578     1085.579  0.038709847  0.038825055            7 
 2338000   0.86483441   -5.6336402    1088.8673  0.038810496  0.038815483            9 
 2339000   0.85743445   -5.6257961    1085.5888  0.038677099  0.038805876            5 
 2340000   0.88516994   -5.6645614    1084.8241  0.038633338  0.038796354            3 
 2341000   0.88308324   -5.6473602    1086.2597  0.038667936  0.038786684            4 
 2342000   0.88285737   -5.6137856    1089.7304  0.038774923  0.038777121            6 
 2343000   0.87024599   -5.6272874    1084.7938  0.038582792  0.038767493            2 
 2344000    0.8847766   -5.6701993    1084.9181  0.038570751   0.03875781            7 
 2345000   0.88415095   -5.6418599     1088.003  0.038663932  0.038748161            4 
 2346000   0.86854683   -5.6164579    1086.0147  0.038576821  0.038738367            3 
 2347000   0.88924545   -5.6403575    1089.6315  0.038688805   0.03872875            5 
 2348000   0.87095815   -5.6374432    1088.7055  0.038639463  0.038719068            6 
 2349000   0.86549876   -5.6475599    1091.8566  0.038734801  0.038709473            6 
 2350000   0.86363444   -5.6476722    1087.3513  0.038558557  0.038699746            4 
 2351000   0.88341832   -5.6459901    1088.4521  0.038581173  0.038690087           11 
 2352000    0.8810441   -5.6431297    1087.5601  0.038533166  0.038680348            7 
 2353000   0.88887219   -5.6704037    1090.7692  0.038630445  0.038670692            4 
 2354000   0.87800866   -5.6365267    1091.6673  0.038645827  0.038661165            3 
 2355000   0.87118878   -5.6610738    1089.8602   0.03856547  0.038651633            4 
 2356000   0.89225982    -5.664985     1088.468  0.038499858  0.038642048            6 
 2357000   0.88149833   -5.6801652    1092.5291  0.038627107  0.038632308            5 
 2358000   0.87450906   -5.6372866    1089.9049  0.038517985  0.038622568           12 
 2359000   0.87807112   -5.6595883    1091.6837  0.038564495  0.038612823            4 
 2360000   0.87907791   -5.6833167    1089.9832  0.038488106   0.03860306            5 
 2361000   0.87217653   -5.6282573    1092.1172  0.038547126  0.038593313            4 
 2362000   0.87475384    -5.664227    1089.9018  0.038452645  0.038583565            3 
 2363000   0.88526812   -5.6286723    1092.8507  0.038540368  0.038573926            6 
 2364000   0.87450588   -5.6407313    1095.1753  0.038606011  0.038564378            3 
 2365000   0.85450655   -5.6557523    1091.8743  0.038473371  0.038554772            2 
 2366000   0.89083758   -5.6528964    1091.2872  0.038436432   0.03854503            6 
 2367000   0.86938618   -5.6643073    1092.3039  0.038455988  0.038535241            6 
 2368000    0.8875397   -5.6228579     1095.644  0.038557293  0.038525658           10 
 2369000   0.87265856   -5.6312532    1092.1063  0.038416572  0.038516151           14 
 2370000    0.8603216   -5.6484621     1095.124  0.038506471  0.038506717           10 
 2371000   0.86902639   -5.6387978    1096.7227   0.03854642  0.038497076            5 
 2372000   0.87955081   -5.6766673    1090.4914  0.038311248  0.038487392            6 
 2373000   0.86655288    -5.654878    1091.9465  0.038346205  0.038477818            2 
 2374000   0.87125353   -5.6474327    1094.0274  0.038403098  0.038468213            3 
 2375000   0.87412202   -5.6579939    1091.9417  0.038313743  0.038458459            4 
 2376000   0.87474679   -5.6516327    1091.4191  0.038279289  0.038448626            4 
 2377000    0.8571727   -5.6530807      1090.16  0.038219044  0.038438886            6 
 2378000   0.86577383   -5.6476873    1094.0783  0.038340282    0.0384292            7 
 2379000   0.87247201   -5.6321999     1095.599  0.038377436  0.038419491            6 
 2380000   0.88483005   -5.6784079     1091.311  0.038211171    0.0384098            4 
 2381000   0.87318808   -5.6145636    1098.1803   0.03843554  0.038400233            9 
 2382000   0.86422184   -5.6514115     1093.161  0.038243808  0.038390646            3 
 2383000   0.87132969   -5.6462272    1098.1209  0.038401207  0.038380991           11 
 2384000   0.87119211   -5.6699764    1097.7808  0.038373211  0.038371288            5 
 2385000   0.89736328   -5.6790351    1093.6412   0.03821248  0.038361676            5 
 2386000   0.85320978   -5.6445892    1095.6422  0.038266353  0.038351962            4 
 2387000    0.8721514    -5.690994    1092.2096  0.038130486  0.038342304            4 
 2388000   0.88092043   -5.6431696    1097.4533  0.038297506  0.038332612            4 
 2389000   0.87905201   -5.6573026    1095.3704  0.038208818  0.038322978            5 
 2390000   0.87535705   -5.6624426    1095.1304  0.038184464  0.038313337            4 
 2391000   0.88180301   -5.6397864    1098.6412  0.038290853  0.038303656            4 
 2392000   0.86593649    -5.696679    1094.9401  0.038145906  0.038294001            8 
 2393000   0.87283758   -5.6459556    1098.3391  0.038248334  0.038284382            9 
 2394000   0.86690974   -5.6525359    1097.8215  0.038214339  0.038274854            5 
 2395000   0.86644166   -5.6443613     1098.661  0.038227594  0.038265284            5 
 2396000   0.86426115   -5.6802459    1097.0928  0.038157095  0.038255764            5 
 2397000   0.88004648   -5.6734076    1099.3299  0.038218951  0.038246219           10 
 2398000   0.88189325   -5.6714503     1099.979  0.038225571  0.038236725            6 
 2399000   0.88020774   -5.7070994    1098.2701  0.038150274  0.038227287            6 
 2400000   0.84820601   -5.6549981     1098.061  0.038127118  0.038217825            6 
 2401000   0.86077934   -5.6726884    1100.0434  0.038180043  0.038208428            7 
 2402000   0.86831135   -5.6636519    1101.3025  0.038207829   0.03819896            6 
 2403000   0.87578148   -5.6450207    1103.7493  0.038276782  0.038189506            9 
 2404000   0.85297441   -5.6697762    1102.3752   0.03821323  0.038179959            5 
 2405000   0.86246741   -5.6469151    1102.3492  0.038196438  0.038170524           19 
 2406000   0.87293384   -5.6609982    1103.0673  0.038205436  0.038161029            5 
 2407000   0.88680132   -5.6494587    1103.2168  0.038194738  0.038151597            2 
 2408000   0.86118437   -5.6993305    1098.5687  0.038018019  0.038142138           12 
 2409000   0.86534636   -5.6795022    1102.4268  0.038135698  0.038132792            3 
 2410000   0.85228643   -5.6597655    1104.7821  0.038201316  0.038123323            6 
 2411000   0.88336648   -5.6837798    1100.8124  0.038048264  0.038113723            9 
 2412000   0.86584001   -5.6576273    1103.7929  0.038135465  0.038104309            5 
 2413000   0.86000875   -5.6835874    1103.7325  0.038117573  0.038094851            9 
 2414000    0.8612851   -5.6766294    1105.4768     0.038162  0.038085313            4 
 2415000    0.8709426   -5.6676073    1104.7734  0.038121925  0.038075913            9 
 2416000    0.8656632   -5.6789291    1101.4094  0.037990113  0.038066404            5 
 2417000   0.85693404   -5.6681893    1101.4726  0.037976576  0.038056839           13 
 2418000   0.88012642   -5.6602583    1102.2476  0.037987578  0.038047423            2 
 2419000   0.86602581   -5.6586307    1108.0481  0.038171698  0.038038129            8 
 2420000   0.85201625   -5.6993206    1101.8862  0.037943738  0.038028643            4 
 2421000   0.85683931   -5.6941123      1102.67  0.037955047  0.038019134            6 
 2422000    0.8596056   -5.6710666    1104.9916  0.038019256  0.038009672           11 
 2423000   0.87186137   -5.6934354    1102.0171  0.037901261  0.038000116            3 
 2424000   0.88205472   -5.6835379    1106.5723  0.038042228  0.037990559            3 
 2425000    0.8551253   -5.6528143    1106.6205  0.038028195  0.037981213            7 
 2426000   0.86447615   -5.6408967    1106.0267  0.037992125  0.037971804            5 
 2427000   0.86668689   -5.6643234    1106.2011  0.037982458  0.037962429            4 
 2428000   0.86083056   -5.6440679    1108.7283  0.038053554  0.037953022            4 
 2429000   0.88896743   -5.6923511    1106.4157  0.037958546    0.0379436            2 
 2430000   0.87155425   -5.6797539    1106.1859  0.037935044  0.037934247            6 
 2431000   0.86523658   -5.6770607    1101.9067   0.03777275  0.037924804            4 
 2432000   0.88227587   -5.6565792    1106.3391  0.037909098  0.037915425            9 
 2433000   0.85671216    -5.704799    1105.4307  0.037862403  0.037905959            6 
 2434000   0.84013319   -5.6450467    1110.5939  0.038023622  0.037896427           15 
 2435000   0.86005232   -5.6744185     1106.154  0.037856058  0.037887076            3 
 2436000   0.86439773   -5.6900783    1110.8155  0.037999984  0.037877624            3 
 2437000   0.87612881   -5.6852666    1104.8663  0.037780955  0.037868184            6 
 2438000   0.86324928   -5.6745771    1110.6789  0.037964139  0.037858789            5 
 2439000    0.8511076   -5.7048275     1108.972  0.037890256  0.037849431            4 
 2440000   0.86843232   -5.6666075    1109.3994  0.037889325  0.037839954            6 
 2441000   0.86497708   -5.6860839    1109.2805  0.037869744  0.037830617            5 
 2442000   0.87425702   -5.6906033    1105.7674  0.037734352  0.037821368            9 
 2443000   0.84257814   -5.6861779    1109.8849  0.037859356  0.037811945            6 
 2444000   0.85523901   -5.7022857    1108.8756  0.037809452  0.037802552            7 
 2445000   0.83210221   -5.6477765    1110.5415  0.037850766  0.037793113            5 
 2446000   0.88241178   -5.6750308    1111.6975  0.037874677  0.037783768            4 
 2447000   0.87069857   -5.6996824    1109.3784   0.03778022  0.037774419            6 
 2448000   0.86566357   -5.6580713    1113.6312   0.03790956  0.037765045            2 
 2449000   0.85541926   -5.6776019    1109.7264  0.037761207  0.037755813            3 
 2450000    0.8498169   -5.7014261    1111.6818  0.037812308  0.037746566           10 
 2451000   0.87659201   -5.6637739    1111.7406  0.037798878  0.037737327            5 
 2452000   0.85534447   -5.6622611    1109.5147  0.037707814  0.037728092            5 
 2453000   0.85977314   -5.6771681    1113.2538  0.037819467  0.037718878            6 
 2454000   0.88126206   -5.7082696    1113.1531  0.037800637  0.037709662            4 
 2455000   0.84919897    -5.685557    1115.2386  0.037856029  0.037700416            8 
 2456000   0.85880548   -5.6943401    1114.2115  0.037805764   0.03769113            4 
 2457000   0.85584831   -5.6882259    1114.3793  0.037796068  0.037681869            6 
 2458000   0.86045658   -5.6915222    1113.5226  0.037751649  0.037672598            4 
 2459000    0.8523321   -5.6839365    1114.0015  0.037752526  0.037663253            6 
 2460000   0.87232448   -5.6637838    1114.5616   0.03775615  0.037653877            3 
 2461000   0.85005068   -5.6974477    1111.9047  0.037650843  0.037644579            3 
 2462000   0.85052354   -5.7033399    1108.4592  0.037518928   0.03763512            8 
 2463000   0.86109666   -5.7126465    1113.5034  0.037674359  0.037625782            4 
 2464000   0.84820492    -5.703027    1113.8084  0.037669386   0.03761642            4 
 2465000   0.85357661    -5.656402    1117.8379  0.037790329  0.037607039            8 
 2466000   0.87344006    -5.735833    1111.4542  0.037559281  0.037597605            6 
 2467000   0.84897572   -5.6881584    1113.7615  0.037621994  0.037588197            3 
 2468000   0.83911858   -5.6953564    1116.8068  0.037709577  0.037578912            4 
 2469000   0.86012872   -5.6957246    1115.1282  0.037637648  0.037569702            4 
 2470000   0.87369189   -5.6863669    1112.0705  0.037519248  0.037560387            5 
 2471000   0.84018067   -5.6830374    1112.4105  0.037515531   0.03755093            3 
 2472000    0.8675557    -5.727213    1114.2222  0.037561429  0.037541513            5 
 2473000   0.85828781   -5.7128864    1114.5718   0.03755802  0.037532046           11 
 2474000   0.86793916   -5.6895328     1116.977  0.037623855   0.03752268            5 
 2475000   0.86863354   -5.6772659    1119.4366  0.037691469  0.037513414            3 
 2476000   0.83889856    -5.681001    1119.0841  0.037664382  0.037504113            6 
 2477000   0.84896123   -5.6828603    1115.9638    0.0375442   0.03749482            4 
 2478000   0.84627615   -5.6991915    1117.9804  0.037596866  0.037485572            6 
 2479000   0.85291486   -5.6860927    1115.0779  0.037484129  0.037476262            4 
 2480000   0.87102172   -5.7080292    1118.4725   0.03758308  0.037466954            7 
 2481000   0.85574882   -5.6972413    1121.9061  0.037683262  0.037457717            4 
 2482000   0.86321255   -5.7034593    1119.3179  0.037581183  0.037448482            5 
 2483000   0.86626008   -5.6765152    1116.6591  0.037476813  0.037439284            4 
 2484000   0.86478022   -5.7069576    1120.4609  0.037589269  0.037430146            5 
 2485000   0.84787691   -5.6751526    1119.5187  0.037542544  0.037420994            7 
 2486000   0.84353831   -5.6713543    1117.7305  0.037467502  0.037411816            9 
 2487000   0.86374351   -5.7224144     1116.559  0.037413181  0.037402664            6 
 2488000   0.86381888   -5.6864786    1120.9885  0.037546506  0.037393455            6 
 2489000    0.8644009   -5.7179546    1118.8312  0.037459193  0.037384276            7 
 2490000   0.85484737   -5.7042437    1119.3705  0.037462198  0.037375032            6 
 2491000   0.86755315   -5.6690189    1123.3258  0.037579481  0.037365886            2 
 2492000   0.86175479   -5.7224404    1117.6581   0.03737487  0.037356679            5 
 2493000    0.8536677   -5.6727667    1119.4384  0.037419387  0.037347346            5 
 2494000   0.85547301   -5.6814233    1118.2796  0.037365665  0.037338096            3 
 2495000   0.86843874   -5.6736382    1123.6568  0.037530286  0.037328816            5 
 2496000   0.83739069   -5.7035855    1118.2849    0.0373359  0.037319625            8 
 2497000   0.85649242   -5.6857753    1123.2212  0.037485688  0.037310366            9 
 2498000   0.87130213   -5.7121096    1121.4651    0.0374121  0.037301132           12 
 2499000   0.85275188   -5.6983028     1120.867  0.037377185  0.037291838            5 
 2500000   0.86163297   -5.6792072    1122.5958   0.03741986  0.037282557            4 
 2501000   0.87527101    -5.692591    1121.4395  0.037366371  0.037273251            4 
 2502000   0.84978136   -5.7209878    1120.4221  0.037317548  0.037263873            3 
 2503000   0.83785463   -5.6841522    1122.6411  0.037376518  0.037254548            3 
 2504000   0.87401472   -5.7326327    1116.3795  0.037153205  0.037245188            8 
 2505000   0.86951963    -5.689922     1121.778  0.037317964  0.037235833            4 
 2506000   0.84364601   -5.6532264    1122.3718  0.037322819   0.03722656            4 
 2507000   0.85706308   -5.7163476    1122.6389   0.03731681  0.037217229            4 
 2508000   0.82264644    -5.721371    1118.6423  0.037169134  0.037207825            6 
 2509000   0.85485897   -5.6940534    1120.9631  0.037231403  0.037198424            7 
 2510000   0.85873815   -5.6734724    1122.6662  0.037273114  0.037189092            4 
 2511000   0.85624175   -5.6994447     1123.552  0.037287666   0.03717971            5 
 2512000   0.85295986   -5.7002563      1122.47   0.03723693  0.037170287           12 
 2513000   0.85324702   -5.6950043    1122.7539  0.037231525  0.037160984            6 
 2514000   0.85586757    -5.686457    1124.6359  0.037279102  0.037151645            4 
 2515000   0.85254487   -5.7108858    1118.7519  0.037069313  0.037142226            7 
 2516000    0.8350754   -5.6754085    1124.7246  0.037252404  0.037132873            4 
 2517000   0.89209087   -5.7073282    1123.2863  0.037189984  0.037123546            5 
 2518000    0.8519975   -5.6845727    1125.3191  0.037242492  0.037114215            3 
 2519000   0.83867073   -5.6938948    1120.8083  0.037078479  0.037104834            5 
 2520000   0.85385157   -5.6636473    1124.3437  0.037180676  0.037095534            4 
 2521000   0.83663281    -5.684991    1125.7782  0.037213347  0.037086217            6 
 2522000   0.86890772   -5.7070235    1123.5445  0.037124785  0.037076939           10 
 2523000   0.86432439   -5.7214498    1125.9156  0.037188388  0.037067562            7 
 2524000   0.84812875   -5.7029363    1124.8418  0.037138199  0.037058224            5 
 2525000   0.82596615   -5.7238644    1121.8165  0.037023647  0.037048842            3 
 2526000    0.8497415   -5.7047427     1124.738  0.037105371  0.037039366            5 
 2527000   0.84562508   -5.7089709     1120.031  0.036935463  0.037029996           12 
 2528000   0.83546049   -5.7304137    1122.3997  0.036998934  0.037020646            7 
 2529000   0.85513119   -5.7177671    1119.6526  0.036893786   0.03701122           11 
 2530000   0.84938124   -5.6973797    1120.9993  0.036923562  0.037001847           10 
 2531000   0.84681212    -5.708994    1127.3623  0.037118475  0.036992529            4 
 2532000   0.85123695   -5.7128613    1124.2647  0.037001866  0.036983226            4 
 2533000   0.86188298    -5.709415    1124.4254  0.036992546  0.036973889            3 
 2534000   0.85366383   -5.7151678    1128.5339  0.037113058   0.03696453            7 
 2535000   0.85400325   -5.7018078    1126.6057  0.037035034  0.036955167            6 
 2536000   0.85851867    -5.699985    1123.5048  0.036918532   0.03694583            8 
 2537000   0.84402739    -5.690507    1123.0473  0.036888952  0.036936445            4 
 2538000   0.85589072    -5.713877    1121.4197  0.036820978  0.036926977            6 
 2539000   0.83114493   -5.7127205    1125.2756  0.036933032  0.036917527            8 
 2540000   0.84400324    -5.733507    1123.4244  0.036857755  0.036907976            7 
 2541000   0.84068767   -5.6767517     1123.739  0.036853568  0.036898551            6 
 2542000   0.83043184   -5.7283339    1124.5899  0.036866965  0.036889151            6 
 2543000   0.86864747   -5.7182454    1129.4667  0.037012279  0.036879693            8 
 2544000   0.85504684   -5.7261824    1126.9653  0.036915791  0.036870278            7 
 2545000   0.83276288   -5.7376415    1126.2675  0.036878438  0.036860734            6 
 2546000   0.83973048   -5.6883094    1127.7832  0.036913562  0.036851329            5 
 2547000   0.85482249   -5.6998457    1126.7203  0.036864295  0.036841965            4 
 2548000   0.81903437   -5.6752207    1130.0243  0.036957885  0.036832684            5 
 2549000   0.82901239   -5.7133987     1128.842  0.036904734  0.036823307            4 
 2550000   0.82562658   -5.7006936    1127.1261  0.036834188  0.036813864            5 
 2551000   0.83909773   -5.7051939    1125.7363  0.036774345  0.036804578            7 
 2552000   0.82747317   -5.7042711    1128.4476  0.036848473  0.036795206            3 
 2553000   0.84254493   -5.7303444    1126.6516  0.036775414  0.036785697            8 
 2554000   0.86438188   -5.7287127    1125.1338  0.036711493  0.036776192            6 
 2555000   0.84204339   -5.6956234    1129.5994  0.036842772  0.036766788            7 
 2556000   0.84268583   -5.7328119    1129.4583  0.036823758  0.036757447            7 
 2557000   0.85218069   -5.6972441    1129.1775  0.036800204  0.036748123            6 
 2558000   0.83416518   -5.7414603    1126.4498  0.036696957  0.036738785            5 
 2559000   0.82650738   -5.7097787     1131.113  0.036834473  0.036729349            7 
 2560000   0.84665383   -5.7239598    1130.4848  0.036799637  0.036719954            7 
 2561000   0.83758393    -5.706285    1129.2677  0.036745663  0.036710459            5 
 2562000   0.83739627   -5.7182337    1127.9727  0.036689198  0.036701025            3 
 2563000   0.83602979   -5.6939607    1130.8762  0.036769287   0.03669163            4 
 2564000   0.83571465   -5.7124318    1131.1531  0.036763945  0.036682175            4 
 2565000   0.84772666   -5.7394199    1131.5427  0.036762271  0.036672806            7 
 2566000   0.83695481   -5.7011318    1127.7003  0.036623158  0.036663329            7 
 2567000   0.83667776   -5.7434291     1126.881  0.036582295  0.036653898            8 
 2568000   0.81846069   -5.7403536    1127.1268  0.036576026   0.03664433            5 
 2569000   0.82937116    -5.755879    1125.6889  0.036515146  0.036634634            6 
 2570000   0.84987402   -5.7346634    1129.5065  0.036624724  0.036624973            5 
 2571000   0.81321529   -5.6866992    1126.6605  0.036518231  0.036615389            9 
 2572000   0.85695752   -5.7025365    1131.8461   0.03667205   0.03660587            4 
 2573000   0.84987583   -5.7177614    1126.2367  0.036476122  0.036596356            7 
 2574000   0.82204416   -5.7200929    1130.6498  0.036604825  0.036586814            4 
 2575000   0.83390433   -5.7249405    1128.8892  0.036533631  0.036577262           12 
 2576000   0.83561525   -5.7538278    1126.4314   0.03643994  0.036567656            4 
 2577000    0.8548805   -5.6998254    1130.4566  0.036555962   0.03655808            4 
 2578000   0.83868056   -5.6990327    1131.9333  0.036589517   0.03654853            4 
 2579000   0.84653682   -5.7139092    1124.8109   0.03634519  0.036538958            5 
 2580000   0.85124629   -5.7530452    1126.2488  0.036377545  0.036529322            5 
 2581000   0.82875271   -5.7318776     1128.356  0.036431487   0.03651966            6 
 2582000   0.82096553   -5.7349839    1126.3969  0.036354146  0.036510005            9 
 2583000    0.8330904   -5.7325621    1130.9454  0.036486819  0.036500305            8 
 2584000   0.83602068   -5.7597054    1126.7588  0.036337681  0.036490729            5 
 2585000   0.84906382   -5.7410721    1127.2069   0.03633807  0.036481022            6 
 2586000    0.8469821   -5.7405183    1132.2165  0.036485452  0.036471368            5 
 2587000   0.84318346   -5.7304429    1126.0091  0.036271394  0.036461711            6 
 2588000   0.85818395   -5.7172246    1131.6581  0.036439275  0.036452122            8 
 2589000   0.84638544   -5.7393349    1128.7278  0.036330881  0.036442399            6 
 2590000   0.83266981   -5.6948096    1127.8684  0.036289203  0.036432775           11 
 2591000   0.83588821   -5.7325994    1131.1771  0.036381612  0.036423168            8 
 2592000   0.85167319   -5.7401345    1131.5493  0.036379543  0.036413542            4 
 2593000   0.85010121   -5.7311357    1129.5294  0.036300599  0.036403951            4 
 2594000   0.83664625    -5.730412    1128.4007  0.036250343  0.036394332            5 
 2595000   0.82762739   -5.7408941    1131.0326  0.036320893  0.036384698            6 
 2596000   0.83750732   -5.7413443     1130.309  0.036283672  0.036375087            8 
 2597000   0.83770641    -5.723061    1133.9694   0.03638716  0.036365454            7 
 2598000   0.83249861   -5.7812309    1128.6746  0.036203316  0.036355818           12 
 2599000   0.83883024    -5.758378    1128.3924   0.03618034  0.036346116            6 
 2600000   0.83287086   -5.7177926    1131.8289  0.036276568  0.036336457            4 
 2601000   0.84656222   -5.7350347    1128.7492  0.036163951  0.036326868            6 
 2602000   0.83838427   -5.7292152    1132.2207  0.036261233  0.036317222            5 
 2603000    0.8238389   -5.7741678    1128.6887  0.036134226  0.036307634            4 
 2604000   0.83021935   -5.7363443    1129.4951  0.036146155  0.036297926            4 
 2605000   0.83155675   -5.7140747    1134.8613  0.036303944  0.036288302            4 
 2606000   0.84259441   -5.7355738    1130.0831  0.036137218  0.036278631            3 
 2607000   0.81451106   -5.7172918    1134.6845  0.036270443  0.036269022            4 
 2608000    0.8273154   -5.7458606    1129.7548  0.036099016  0.036259394            5 
 2609000   0.84316111   -5.7059508    1135.6675  0.036274037  0.036249734            6 
 2610000   0.84157683   -5.7351603    1131.8276  0.036137535  0.036240126            7 
 2611000   0.84268404   -5.7107558     1132.073  0.036131526  0.036230491           11 
 2612000   0.85738858   -5.7339247     1135.928  0.036240684   0.03622095            9 
 2613000   0.84877163   -5.7339054    1135.6846  0.036219052  0.036211376            5 
 2614000   0.82153954   -5.7837071    1131.1227  0.036059765   0.03620173            4 
 2615000   0.83292877   -5.7122746    1131.7547  0.036066114  0.036192078            7 
 2616000     0.830734   -5.7169901    1137.7733  0.036244051   0.03618251            7 
 2617000   0.81598462   -5.7301898    1135.2124  0.036148657  0.036172939            4 
 2618000   0.86390583   -5.7217857    1134.8492  0.036123289  0.036163506            8 
 2619000   0.84117833   -5.7702505    1132.3724  0.036030685  0.036153968           16 
 2620000   0.81531972   -5.7138758    1136.8891  0.036160594  0.036144461           11 
 2621000   0.81761122    -5.743148    1133.6364  0.036043379  0.036134808            5 
 2622000   0.84447389   -5.7687737    1136.2289  0.036112031  0.036125113           10 
 2623000   0.83335007   -5.7863919    1134.6478  0.036048029  0.036115436           18 
 2624000   0.84104617   -5.7459812    1136.3736  0.036089099   0.03610586            7 
 2625000   0.85120895   -5.7374776    1133.3612  0.035979721  0.036096324            5 
 2626000   0.83609554   -5.7185062    1135.3245  0.036028321  0.036086813            5 
 2627000   0.84265431   -5.7413981    1135.4872   0.03601977  0.036077217            6 
 2628000   0.83396382   -5.7350337    1138.9771  0.036116728  0.036067655            3 
 2629000    0.8365692   -5.7492032    1136.5514    0.0360261  0.036058128            6 
 2630000   0.82916221   -5.7498219    1136.6164   0.03601446  0.036048646            9 
 2631000   0.83604875     -5.72541    1137.1801  0.036018626  0.036039151            4 
 2632000   0.84372899   -5.7435071    1137.3096  0.036009044  0.036029652           22 
 2633000   0.84480192   -5.7273381    1140.6893  0.036102332  0.036020178            7 
 2634000   0.83875843   -5.7568456    1138.0887  0.036006349  0.036010646            7 
 2635000   0.81478652   -5.7336839    1137.4118  0.035971278  0.036001142            8 
 2636000   0.82947654   -5.7411647     1141.149  0.036075778  0.035991559            5 
 2637000   0.83687406   -5.7435279    1137.6494  0.035951503  0.035982029            7 
 2638000   0.81234004   -5.7537577    1144.1378  0.036142843  0.035972576            6 
 2639000   0.82097715    -5.737968    1140.0142  0.035998932  0.035963099            5 
 2640000   0.81577862   -5.7590028    1139.8184  0.035979115  0.035953629           10 
 2641000    0.8222839   -5.7770957    1140.5317  0.035987999  0.035944155            7 
 2642000   0.84851599   -5.7831292    1134.9143  0.035797197  0.035934657            8 
 2643000   0.82444162   -5.7549183    1135.2971  0.035795722  0.035925071           19 
 2644000   0.82763741   -5.7539977    1139.9637  0.035929264  0.035915494           11 
 2645000   0.82766847   -5.7372203    1141.4621  0.035962889  0.035906008            4 
 2646000   0.82225358   -5.7568725     1140.776  0.035927689  0.035896607            6 
 2647000   0.81448166   -5.7658583    1138.6602  0.035847507  0.035887095            4 
 2648000   0.83441216   -5.7708777    1140.4647  0.035890758  0.035877461            8 
 2649000   0.82443889   -5.7816498    1138.0746  0.035802019  0.035867923            7 
 2650000   0.83309926   -5.7427239    1140.4297  0.035862569  0.035858455            6 
 2651000   0.82615532   -5.7717397    1140.0699  0.035837732  0.035849042            5 
 2652000   0.83196677    -5.775015    1139.7797  0.035815099  0.035839554            3 
 2653000   0.83079679   -5.7589024    1141.3422  0.035850679  0.035830127           12 
 2654000    0.8277603   -5.7905328    1138.2929  0.035741425  0.035820607            7 
 2655000   0.80761469   -5.7791137    1139.1246  0.035754069  0.035811132            4 
 2656000   0.82139353   -5.7477179    1142.5683  0.035848655  0.035801684           13 
 2657000   0.84038974   -5.7811824    1140.6028  0.035773515  0.035792216            5 
 2658000   0.83580835   -5.7758155     1141.054  0.035774202  0.035782789            9 
 2659000   0.82678196   -5.7627665    1142.0205   0.03579104  0.035773418            3 
 2660000   0.79255969   -5.7497606    1145.5676  0.035888711  0.035764037            7 
 2661000   0.80423234    -5.793674     1140.887  0.035728641  0.035754686           11 
 2662000   0.82901141   -5.7637355    1142.1838  0.035755816  0.035745255            9 
 2663000   0.82916585   -5.7731988     1140.153  0.035678839  0.035735776            5 
 2664000   0.82839899   -5.7622721    1143.6405  0.035774539  0.035726427            6 
 2665000   0.82258708   -5.7614407    1139.6177  0.035635324   0.03571706            9 
 2666000   0.83420711   -5.7477374    1146.2467  0.035829166  0.035707756            7 
 2667000   0.81058192   -5.7490396    1140.3152  0.035630396  0.035698357            7 
 2668000   0.83815146   -5.7418412    1142.7115  0.035691887  0.035688977            4 
 2669000   0.84938984   -5.7567771     1141.068  0.035627202  0.035679638            4 
 2670000   0.82984176   -5.7850109    1143.3494  0.035685062  0.035670209            4 
 2671000   0.84661256   -5.6999028      1147.21   0.03579215  0.035660797            5 
 2672000   0.84697891   -5.7300478    1147.5292  0.035788709  0.035651403            8 
 2673000   0.83916779   -5.7703916    1143.0951  0.035637083  0.035642035           10 
 2674000   0.81645477   -5.7515119    1146.1355  0.035718508  0.035632549            9 
 2675000   0.82791218   -5.7821078    1141.4461   0.03555907  0.035623082            6 
 2676000   0.82261233   -5.7582748    1146.6814  0.035708812    0.0356136            7 
 2677000   0.82621371   -5.7517571    1147.0589  0.035707226  0.035604259            5 
 2678000   0.80750372    -5.770999    1144.1529  0.035603463  0.035594857            8 
 2679000    0.8233744   -5.7518287    1145.5631  0.035634039  0.035585437           11 
 2680000    0.8420035   -5.7773747    1142.2057  0.035516346  0.035576014            6 
 2681000   0.85044395   -5.7535593    1146.1542  0.035625829  0.035566561            3 
 2682000   0.82354102   -5.7594789    1146.0653  0.035609784  0.035557179            5 
 2683000   0.82043431   -5.7503194     1146.121  0.035598243  0.035547736            9 
 2684000   0.81996112   -5.7655869    1144.6219  0.035538434  0.035538235           10 
 2685000   0.81882527   -5.7894437      1143.99  0.035505586  0.035528786            4 
 2686000   0.80774731   -5.7916739    1143.5114  0.035477519  0.035519353           13 
 2687000   0.80668388   -5.7761822    1145.3402  0.035521033  0.035509891            3 
 2688000   0.82165887   -5.7776276    1144.8648   0.03549308  0.035500499            5 
 2689000   0.83470894   -5.7565428    1146.8387  0.035541055  0.035491176            8 
 2690000   0.81613809   -5.7529718    1150.0154  0.035626251  0.035481856           12 
 2691000   0.80800165    -5.799553    1149.2666  0.035589824  0.035472488            6 
 2692000   0.80883533   -5.7397305    1148.1535  0.035542147  0.035463195            3 
 2693000    0.8173706   -5.7644202    1146.9636  0.035492129  0.035453912            8 
 2694000   0.81172854   -5.7929995    1146.5352  0.035465702  0.035444589           19 
 2695000   0.83076315   -5.7960287    1146.4141  0.035448796  0.035435273            5 
 2696000    0.8086353   -5.7583645    1149.9707  0.035545581  0.035425958            7 
 2697000   0.82956345   -5.7624838    1148.2022  0.035477759   0.03541668            5 
 2698000   0.80424555   -5.7583259    1147.4039  0.035439951  0.035407349            5 
 2699000   0.81207217   -5.7485259    1151.5808  0.035555785  0.035398069            7 
 2700000   0.80952933   -5.7649867    1151.3408   0.03553521  0.035388796            9 
 2701000   0.82873042   -5.7641788     1148.661  0.035439374  0.035379436            7 
 2702000   0.81668203   -5.7859945    1149.9066  0.035464675  0.035370253            9 
 2703000   0.79161981   -5.7596096    1155.0727  0.035610823  0.035361079            5 
 2704000   0.82868063   -5.7711023    1150.7689  0.035465017  0.035351826            8 
 2705000   0.83035917   -5.7909382    1151.6149  0.035477969  0.035342554           10 
 2706000   0.82003604   -5.7815812    1149.6816  0.035405323  0.035333251            6 
 2707000   0.82278115   -5.7540445    1152.0065  0.035463814  0.035323985            7 
 2708000   0.80150375   -5.7989019    1150.8694  0.035415724  0.035314743            5 
 2709000   0.81340017   -5.7514015    1150.1651  0.035380987  0.035305457           11 
 2710000   0.82190629   -5.7196859    1154.8209  0.035511099  0.035296318            7 
 2711000   0.81012805   -5.7628556    1154.8678   0.03549944  0.035287214            4 
 2712000   0.80048168   -5.7446623    1153.9505  0.035458164  0.035277995            4 
 2713000   0.82326763   -5.7745074    1149.3781  0.035304647  0.035268758            6 
 2714000   0.81808236   -5.7406318    1154.7419  0.035456334  0.035259618            5 
 2715000    0.8078654   -5.7823925    1150.8631  0.035324219  0.035250467           11 
 2716000   0.80578266   -5.7558314    1154.0851  0.035410074  0.035241347            7 
 2717000   0.81937008   -5.7606551    1152.7467   0.03535599  0.035232197           11 
 2718000   0.81683954   -5.7852711    1153.9374   0.03537949  0.035222963            7 
 2719000   0.83226752   -5.7931525    1153.6552  0.035357828   0.03521385           10 
 2720000   0.82628891   -5.7721677    1154.5985   0.03537373  0.035204762           11 
 2721000   0.80393397   -5.7950338    1153.4337  0.035325054  0.035195591           10 
 2722000   0.83198924   -5.8164615    1155.0774  0.035362399  0.035186371            8 
 2723000   0.81398901    -5.775582    1155.7602  0.035370309   0.03517721            9 
 2724000   0.82688875   -5.7723562    1154.2412  0.035310855  0.035168085            8 
 2725000   0.79976888   -5.8216764     1151.924  0.035227035  0.035158901            6 
 2726000   0.81447554   -5.7920969    1151.2199  0.035192586  0.035149641            7 
 2727000   0.81511684   -5.7791201     1153.477  0.035248657    0.0351405           10 
 2728000   0.82031102   -5.7614768    1155.5065   0.03529773  0.035131254            3 
 2729000   0.81930238   -5.8017262     1152.628  0.035196897  0.035122104            7 
 2730000   0.80426481   -5.8006438    1152.4206  0.035177675    0.0351128            4 
 2731000   0.81057613   -5.7906455    1152.8287  0.035177245  0.035103476            9 
 2732000   0.81608468    -5.783428    1152.6283  0.035158257  0.035094163            4 
 2733000    0.8319447   -5.7606011    1154.3573  0.035198114  0.035084875            3 
 2734000   0.79560831   -5.7654791    1156.1278  0.035239204  0.035075623           12 
 2735000   0.81979153   -5.7962037    1151.6468  0.035089788  0.035066321            8 
 2736000   0.81500422   -5.7891047    1154.5172  0.035164389  0.035057064           14 
 2737000   0.81432114   -5.7960342    1156.5129  0.035212302  0.035047811           10 
 2738000   0.81183254   -5.7790149    1152.3612  0.035073084  0.035038565            5 
 2739000   0.80694523   -5.7709971    1156.1909  0.035176794   0.03502931           12 
 2740000    0.8191288   -5.7811678    1157.1173  0.035192132  0.035020119            7 
 2741000   0.82613882   -5.7903552    1155.0876  0.035117586  0.035010956            6 
 2742000   0.81066242   -5.7844624    1158.2872  0.035202019  0.035001812            5 
 2743000   0.81190588   -5.7863563    1153.6353   0.03504786  0.034992637            4 
 2744000   0.82240862   -5.7741483    1155.4313  0.035089629  0.034983449            4 
 2745000   0.79494847   -5.7977145    1157.7857   0.03514832  0.034974237            8 
 2746000   0.82384973   -5.7803283    1154.9832  0.035050473  0.034964961            9 
 2747000   0.82273979   -5.7733488    1157.9309  0.035127136  0.034955762            7 
 2748000   0.81477417   -5.7660464    1156.4461  0.035069327  0.034946519            5 
 2749000   0.82624898   -5.7472074    1155.2075  0.035019022  0.034937219            4 
 2750000   0.81161637   -5.7956107    1153.6375  0.034958712   0.03492787            6 
 2751000   0.80062786   -5.7873579    1155.7167  0.035008989  0.034918573            6 
 2752000   0.81832913   -5.8206041    1151.7655  0.034876619  0.034909149            7 
 2753000    0.8310775    -5.792475    1156.5409  0.035008504  0.034899778            5 
 2754000   0.78186215   -5.8093714    1157.7373  0.035031994   0.03489042            5 
 2755000   0.82174648   -5.7816533    1153.7811  0.034899609  0.034881049            7 
 2756000   0.80052173   -5.7851713    1155.5784   0.03494129  0.034871709            7 
 2757000   0.81932851   -5.7858526    1154.4765  0.034895312   0.03486247           11 
 2758000   0.80304496   -5.7957947    1153.3991  0.034850107  0.034853123            5 
 2759000    0.8092508    -5.824417    1151.9575  0.034793933  0.034843744            8 
 2760000   0.81951256   -5.8024299    1152.2219  0.034789309  0.034834352           12 
 2761000   0.81056629   -5.7618878    1154.8862  0.034857124  0.034824987           13 
 2762000   0.80999895    -5.800865    1154.7594  0.034840676   0.03481563            7 
 2763000   0.80718299   -5.8224708    1155.8219  0.034860114  0.034806194            4 
 2764000   0.80543248   -5.8142524    1153.3962  0.034774368  0.034796792            4 
 2765000   0.80780311   -5.8393052    1150.7828  0.034683025  0.034787362            8 
 2766000   0.81757582   -5.8082239    1156.6677  0.034847785  0.034777844           10 
 2767000   0.80787181    -5.821472    1156.0956  0.034817963  0.034768509            6 
 2768000   0.81377999   -5.7875967    1156.1827  0.034808005  0.034759153            4 
 2769000   0.81589751   -5.7856234    1159.4615   0.03489411  0.034749848            8 
 2770000   0.81592763   -5.7744059    1158.4255  0.034850346  0.034740664            8 
 2771000   0.80962058   -5.7795008    1164.1425  0.035009699  0.034731448            5 
 2772000    0.8199999    -5.790254    1160.4945  0.034887399   0.03472227            8 
 2773000   0.79522729   -5.8026949    1159.4218  0.034842584  0.034712991           11 
 2774000   0.81926713   -5.7607143    1160.0822  0.034849863  0.034703799            7 
 2775000   0.81724892   -5.8035947    1159.7466  0.034827226  0.034694593           11 
 2776000    0.8224967   -5.7585187    1161.3154  0.034861775  0.034685459            7 
 2777000   0.81211788   -5.7838938    1160.4282  0.034822597  0.034676264            2 
 2778000   0.80477981   -5.8182227    1156.5733  0.034694423  0.034667007           15 
 2779000   0.81674124   -5.8224221    1159.8046  0.034778835  0.034657681           12 
 2780000   0.80553522    -5.778536     1157.268  0.034690288  0.034648424            6 
 2781000   0.79038495   -5.8230126    1158.3676  0.034710763  0.034639158            8 
 2782000   0.80097781   -5.8303453    1157.6404  0.034676505  0.034629865            7 
 2783000   0.80798891   -5.7936922    1162.2618  0.034802427  0.034620616            6 
 2784000   0.81887366   -5.8070284    1159.3176  0.034701795  0.034611463            4 
 2785000   0.80989711   -5.8354397    1157.6664  0.034639928  0.034602277            5 
 2786000   0.80882965   -5.7502525    1162.7414  0.034779296  0.034593072            9 
 2787000   0.82028733   -5.7754895    1159.4563  0.034668591  0.034583865            6 
 2788000    0.8041661   -5.8085791    1162.1806  0.034737584  0.034574704            6 
 2789000   0.79365619   -5.8023016    1158.6697  0.034620225  0.034565498            3 
 2790000   0.80136163   -5.7990014    1159.9949  0.034647398  0.034556301            8 
 2791000   0.79474123    -5.829493    1162.1087  0.034698099  0.034547057            7 
 2792000   0.80794678   -5.7928744    1160.0156  0.034623198  0.034537798            4 
 2793000   0.80514724   -5.8391145    1157.7636  0.034543609  0.034528501           10 
 2794000   0.80958576   -5.8287408    1160.6616   0.03461768  0.034519238            5 
 2795000   0.79281399    -5.816192    1161.7316  0.034637196  0.034509943            5 
 2796000   0.80933689   -5.8260443    1163.8556  0.034688114  0.034500767            8 
 2797000   0.80177146   -5.7983588      1161.21   0.03459689  0.034491641           18 
 2798000   0.78171354    -5.803428    1165.9296  0.034725089  0.034482515            7 
 2799000   0.80171321   -5.7940717    1166.1649  0.034719689  0.034473326            9 
 2800000   0.82342547   -5.8298444    1165.5628  0.034689368  0.034464238            5 
 2801000   0.80241458   -5.8079137    1164.1874  0.034636064  0.034455108           11 
 2802000   0.79496596   -5.8080727    1163.1219  0.034592016  0.034445963           10 
 2803000    0.7899071   -5.8079299    1165.1383  0.034639621  0.034436738            6 
 2804000    0.7993184    -5.795564    1160.8638  0.034500232  0.034427575           13 
 2805000    0.7939936   -5.8178694    1162.0567  0.034523371   0.03441837            6 
 2806000   0.80991974   -5.7909042    1163.6174  0.034557419  0.034409234           10 
 2807000   0.78734162   -5.8048832    1165.6476  0.034605379    0.0344002           10 
 2808000   0.81063341    -5.801351    1165.1479  0.034578225  0.034391108           24 
 2809000   0.80748281   -5.8512503    1161.7877  0.034466231   0.03438195            8 
 2810000   0.78508899   -5.8404117    1164.7339  0.034541337  0.034372816           15 
 2811000    0.8146579   -5.8056144    1162.1102   0.03445127   0.03436373            7 
 2812000   0.80728369    -5.806753    1167.1209  0.034587509  0.034354712            2 
 2813000    0.8110473   -5.8163323    1165.9772  0.034541332  0.034345688            5 
 2814000   0.79648973   -5.8155658    1167.5163  0.034574637  0.034336638            5 
 2815000   0.80132377   -5.8296139    1166.4674  0.034531302   0.03432754            5 
 2816000   0.77431682   -5.8058802    1165.7339  0.034497334  0.034318428            8 
 2817000   0.80339411   -5.8099394    1166.6418  0.034511945  0.034309293            8 
 2818000   0.81125855   -5.8184995    1165.6336  0.034469884  0.034300226            9 
 2819000   0.80777031   -5.8268315    1168.4057  0.034539604  0.034291133           10 
 2820000   0.78489752   -5.8326709    1165.0817  0.034429128  0.034282023           16 
 2821000   0.80218639   -5.8385568    1165.1385  0.034418602  0.034272927            7 
 2822000   0.80619853   -5.8068088    1166.7207  0.034453128  0.034263978            4 
 2823000   0.80331979   -5.7939517    1168.7232  0.034500035  0.034255022            9 
 2824000   0.80038322   -5.8273183    1163.9239  0.034346196   0.03424602            9 
 2825000   0.79204743   -5.7959556    1170.2369  0.034520262  0.034237005            6 
 2826000   0.80174917   -5.8023955    1169.0897   0.03447422   0.03422799            4 
 2827000   0.79009389   -5.8550759    1166.7185  0.034392127  0.034218984            7 
 2828000   0.80191516   -5.7867953    1170.2327  0.034483518  0.034210068            8 
 2829000    0.7802734   -5.7775754    1168.7489  0.034427621  0.034201115           11 
 2830000   0.79816719    -5.820939     1167.278  0.034372143  0.034192133            6 
 2831000   0.81080921   -5.8061002    1170.4287  0.034452746  0.034183086            6 
 2832000   0.81096436   -5.8262598    1171.0229  0.034458067  0.034174053            9 
 2833000   0.79002817   -5.8247007    1168.5515  0.034373206   0.03416509            7 
 2834000   0.79200084   -5.8325491     1167.132  0.034319336  0.034156165            3 
 2835000    0.8007921   -5.8034382    1168.7564   0.03435498  0.034147263            6 
 2836000   0.79540982   -5.8394945     1171.267  0.034416638  0.034138318            8 
 2837000    0.7953054   -5.8204627    1171.1539  0.034401184  0.034129367            6 
 2838000   0.81847572    -5.828847    1169.8002  0.034349312  0.034120382           14 
 2839000   0.78871942   -5.8280146     1171.455  0.034385788  0.034111476            6 
 2840000   0.80129691   -5.8552315    1168.3229  0.034281776  0.034102481           11 
 2841000   0.79325923   -5.8441036     1168.574  0.034277073  0.034093485            9 
 2842000   0.79749537   -5.8087399    1172.1313   0.03436932  0.034084598            6 
 2843000   0.79909968   -5.8599854    1166.1016   0.03418049  0.034075683           16 
 2844000   0.80836502   -5.8514008    1169.7041  0.034274029  0.034066735            7 
 2845000   0.81347604   -5.8087938    1175.0805  0.034419465  0.034057865            5 
 2846000   0.77926717   -5.7835278    1172.8944   0.03434336  0.034048904            6 
 2847000   0.80194935   -5.8410563    1171.6316  0.034294332  0.034039896           11 
 2848000   0.80668435   -5.8073793    1173.8607  0.034347517   0.03403092            5 
 2849000    0.7979239   -5.8280727     1171.466  0.034265416  0.034021964            8 
 2850000   0.78398429   -5.8462133    1168.4829  0.034166168  0.034012923            4 
 2851000   0.79172163   -5.8207325    1172.1063  0.034260093  0.034003956            8 
 2852000    0.8167939    -5.835302    1168.6047  0.034145765  0.033994994            6 
 2853000   0.80491378   -5.8545434    1169.6508  0.034164352  0.033986044            8 
 2854000   0.78221615   -5.8229681    1173.7647  0.034272503  0.033977097            7 
 2855000   0.78359011   -5.8275452    1170.6354  0.034169159  0.033968133            9 
 2856000   0.80423013    -5.797479    1174.0172  0.034255871  0.033959175            6 
 2857000   0.79105528   -5.8288952    1173.1069  0.034217329  0.033950312            8 
 2858000   0.80601091   -5.8057018    1172.7868  0.034196022  0.033941377           12 
 2859000   0.79174326   -5.8632061    1171.1897  0.034137509  0.033932376            3 
 2860000   0.79320322   -5.8423747    1170.5541  0.034107053  0.033923374            7 
 2861000   0.79355014   -5.8410768    1170.2634  0.034086666  0.033914413            4 
 2862000   0.79273202   -5.8163579    1172.7145  0.034146124  0.033905517           10 
 2863000   0.78699891   -5.8394349    1172.4292  0.034125894  0.033896621            8 
 2864000   0.78132461   -5.8136933    1171.6581  0.034091542   0.03388766            6 
 2865000   0.78901044   -5.8430963     1170.022  0.034032055  0.033878731            4 
 2866000   0.79330961   -5.8290809      1173.68   0.03412654  0.033869793           12 
 2867000   0.79778322   -5.8520517    1172.1119   0.03406906  0.033860754            7 
 2868000   0.81544369   -5.8607936     1168.449  0.033950748  0.033851761            7 
 2869000    0.7828392   -5.8147871    1171.3151  0.034022166  0.033842773            7 
 2870000   0.77831341   -5.8341314    1173.5337   0.03407473  0.033833788            8 
 2871000   0.77720412   -5.8611195    1169.4407  0.033944058  0.033824674            4 
 2872000   0.79413389   -5.8310577    1171.8757  0.034002893  0.033815629            8 
 2873000   0.79497824   -5.8362735    1171.0406  0.033966835  0.033806557            8 
 2874000    0.7925658   -5.8233483    1172.0009  0.033982861  0.033797482            5 
 2875000   0.80275485   -5.8417225    1171.5727  0.033958628  0.033788357           11 
 2876000   0.79038142   -5.8423471    1171.0304  0.033931107  0.033779313            7 
 2877000   0.79694068   -5.8473312    1168.2241   0.03383803  0.033770232           14 
 2878000   0.80055847   -5.8344069    1176.1221  0.034054959  0.033761065           15 
 2879000   0.80685475   -5.8344155    1174.0697  0.033983725  0.033752007            7 
 2880000   0.78559823   -5.8290653    1174.2901  0.033978301  0.033743008            8 
 2881000   0.79316238   -5.8467016    1172.0604  0.033902013  0.033733939            7 
 2882000   0.77771864   -5.8213935    1172.1366  0.033892454  0.033724901            7 
 2883000   0.77436414   -5.8179494    1174.9385  0.033961686  0.033715913           19 
 2884000   0.79405526   -5.8253051    1174.1211   0.03392629  0.033706964           10 
 2885000   0.80327914   -5.8257148    1174.8677  0.033936098  0.033698005            3 
 2886000   0.78690351   -5.8145665    1172.3682  0.033852165  0.033688991            7 
 2887000   0.78705681   -5.8539403    1172.9634  0.033857621  0.033679945            5 
 2888000   0.78766954    -5.839278    1171.4276  0.033801581  0.033670871            6 
 2889000    0.7859488   -5.8022864    1178.0665  0.033981381   0.03366184            6 
 2890000   0.80667764    -5.841737      1172.38  0.033805653  0.033652804            6 
 2891000   0.78812255   -5.8510601    1175.6998  0.033889651  0.033643686            5 
 2892000   0.77240411   -5.8649855    1170.9775   0.03374186  0.033634473           10 
 2893000   0.79096826   -5.8660015    1173.4322  0.033800904  0.033625381            7 
 2894000   0.79490829   -5.8445194    1171.3564  0.033729451   0.03361628            4 
 2895000   0.78501277   -5.8470889    1174.1132  0.033797157   0.03360727            6 
 2896000   0.77945341   -5.8576316    1172.9439  0.033751839  0.033598224           15 
 2897000   0.80064716   -5.8534044    1173.3693  0.033752426  0.033589106            4 
 2898000   0.78608769   -5.8594255    1173.3976  0.033741592  0.033580047            5 
 2899000   0.77672963   -5.8817899    1172.0412  0.033690962  0.033571008            8 
 2900000   0.78673245     -5.87845    1172.3313   0.03368768  0.033561944           10 
 2901000   0.79251235   -5.8176318    1175.1094  0.033755871  0.033552914           11 
 2902000   0.79652346   -5.8316157    1177.5542  0.033814444  0.033543948            7 
 2903000   0.78243706   -5.8467083    1172.8142   0.03366673  0.033534915            6 
 2904000   0.79894405   -5.8370899    1178.0771  0.033806161  0.033525854            5 
 2905000   0.78599851   -5.8371832    1176.2299  0.033741534  0.033516771            7 
 2906000   0.78401825   -5.8285948    1177.7767  0.033774279  0.033507767            5 
 2907000   0.78287066   -5.8293646    1179.4775  0.033811417  0.033498804           12 
 2908000   0.80489031   -5.8356303    1178.7923  0.033780155  0.033489906           12 
 2909000   0.77831265   -5.8542444    1182.6678  0.033879563   0.03348106           15 
 2910000   0.77898297    -5.827471    1179.6703  0.033782083  0.033472237            5 
 2911000   0.78950887   -5.8573263    1177.6395   0.03371234  0.033463387            4 
 2912000   0.78956516   -5.8629558    1178.3075  0.033719881  0.033454521            8 
 2913000   0.79269035   -5.8336787    1179.6874   0.03374778   0.03344565            8 
 2914000    0.7760194   -5.8755886    1178.5128  0.033702607  0.033436715            6 
 2915000   0.78578931   -5.8673527    1179.1217  0.033708453  0.033427801            9 
 2916000   0.77696921   -5.8803525     1181.244  0.033757546  0.033418908           15 
 2917000   0.78489724    -5.859819      1179.63  0.033699864   0.03341003           13 
 2918000    0.7915644   -5.8173379    1182.4472  0.033768769  0.033401238            8 
 2919000   0.79326842   -5.8767286    1178.7841  0.033652625  0.033392378            7 
 2920000    0.7815672   -5.8419727    1184.5577  0.033805872  0.033383496            4 
 2921000   0.78755302    -5.829436    1179.2766  0.033643632  0.033374679            7 
 2922000   0.78842186   -5.8291857    1180.3296   0.03366215   0.03336582            9 
 2923000   0.78816486   -5.8748294    1177.6095  0.033573083  0.033356979            8 
 2924000   0.78881408   -5.8744712     1178.588  0.033589488  0.033348105            7 
 2925000   0.78733069   -5.8544222    1177.4263  0.033544909  0.033339203           10 
 2926000   0.78235713   -5.8517457    1184.3204   0.03372979  0.033330378            8 
 2927000   0.78824987   -5.8578365    1179.9138  0.033592807  0.033321558            7 
 2928000   0.79940522   -5.8414889     1181.753  0.033633679   0.03331268           25 
 2929000    0.7918167   -5.8465216    1182.0091  0.033629483   0.03330382            5 
 2930000   0.76655589   -5.8750848     1181.101   0.03359218  0.033294944            4 
 2931000   0.78233452   -5.8508306    1182.7698  0.033628163  0.033286018            4 
 2932000   0.79285981   -5.8426473    1179.4582  0.033522573  0.033277047           11 
 2933000   0.80489825    -5.865771    1176.6148  0.033430356   0.03326808            9 
 2934000   0.78589739   -5.8398905    1179.7466  0.033507912  0.033259096            4 
 2935000   0.77948347   -5.8492537    1180.7225  0.033524204  0.033250166            8 
 2936000   0.78536135   -5.8334762    1181.9574  0.033547837   0.03324132            4 
 2937000   0.78623411   -5.8513304    1179.6391  0.033470635   0.03323256            4 
 2938000   0.77660527   -5.8203135    1182.6956  0.033545938  0.033223665            7 
 2939000    0.7987924   -5.8387165    1180.8483  0.033482146  0.033214743            8 
 2940000   0.80749121   -5.8737954    1178.7452  0.033411144   0.03320582            7 
 2941000   0.77571107   -5.8608192    1177.9196  0.033376392  0.033196857           10 
 2942000   0.79929513   -5.8599635     1181.021  0.033452894  0.033187845            9 
 2943000   0.78165821   -5.8734703    1178.1291  0.033359642  0.033178816            6 
 2944000   0.77240235   -5.8527162    1183.8905  0.033511393  0.033169833            4 
 2945000   0.77539063   -5.8563862    1179.7052  0.033381585  0.033160851            6 
 2946000   0.78676258   -5.8611996    1179.4518  0.033363085  0.033151839            6 
 2947000   0.78486785   -5.8418336    1179.4722  0.033352342  0.033142766           12 
 2948000   0.76924813   -5.8624908    1179.9142  0.033353524  0.033133726            7 
 2949000   0.77058366   -5.8843329    1177.6185   0.03327734   0.03312471            8 
 2950000   0.80077738   -5.8595473    1179.9454  0.033331791  0.033115658            7 
 2951000   0.78718601   -5.8636231    1176.6981  0.033228795  0.033106632           18 
 2952000    0.7863894   -5.8415925    1182.5428  0.033382531  0.033097703            5 
 2953000   0.77010999   -5.8697255    1180.1055  0.033302447  0.033088779            4 
 2954000   0.78628031   -5.8609209    1182.6487  0.033362917  0.033079859            6 
 2955000   0.80600936   -5.8613032    1182.6172  0.033350737  0.033070963            3 
 2956000   0.78295196   -5.8724646    1178.8427  0.033233048  0.033062059            6 
 2957000   0.79179415   -5.8673417    1182.5239  0.033325553  0.033053214            9 
 2958000   0.75729738   -5.8722781    1181.9166  0.033297176  0.033044303           11 
 2959000   0.78832217   -5.8572643    1182.2808  0.033296181   0.03303537            5 
 2960000   0.79528621   -5.8556925    1184.1261  0.033336885  0.033026568            8 
 2961000   0.78014946   -5.8495714    1183.4856    0.0333076   0.03301771            6 
 2962000   0.76499225   -5.8666399    1183.2635  0.033290106  0.033008726           13 
 2963000   0.77139633   -5.8685956    1180.4926  0.033200939   0.03299974            6 
 2964000   0.79345423   -5.8714615    1181.6517  0.033222325  0.032990808            7 
 2965000   0.78261939   -5.9004547    1181.4435   0.03320527  0.032981845           11 
 2966000   0.77240899   -5.8977644    1180.0798  0.033155758  0.032972889            6 
 2967000   0.77053518   -5.8550577    1182.6021  0.033215429  0.032963954            6 
 2968000   0.78372394   -5.8603083    1180.6745  0.033150116  0.032955044            7 
 2969000   0.75876651   -5.8875075    1182.9138  0.033201801  0.032946068            9 
 2970000    0.7868248    -5.868716    1184.9658  0.033248199  0.032937105            3 
 2971000   0.77905863   -5.8706039    1181.6419  0.033143775  0.032928177            5 
 2972000   0.77686518   -5.8903518    1183.6445  0.033188776  0.032919245           11 
 2973000   0.78749017   -5.8764389     1182.007  0.033131713  0.032910227            8 
 2974000   0.76831774   -5.8797296    1181.6742  0.033111246  0.032901186            8 
 2975000   0.78285491   -5.8711532    1180.9005  0.033078447  0.032892183            6 
 2976000   0.76842129   -5.8660524    1181.5703  0.033086086  0.032883175            6 
 2977000    0.7747033   -5.8769334     1181.233   0.03306553  0.032874087           13 
 2978000   0.79283643   -5.8715115    1183.4019  0.033115119  0.032865085            8 
 2979000   0.77571816   -5.8772382    1178.0054  0.032953043  0.032856139           10 
 2980000    0.7582176   -5.8893372    1184.0117  0.033109947  0.032847064            4 
 2981000   0.76878751   -5.9128373     1181.894  0.033039639  0.032838076           16 
 2982000   0.76846382   -5.8909945    1182.9272  0.033057435  0.032829124            8 
 2983000   0.77451141   -5.8552989     1182.435  0.033032602   0.03282015            8 
 2984000   0.78402148   -5.8974129    1180.2444  0.032960355  0.032811172           16 
 2985000   0.75984649   -5.8678073    1185.8873  0.033106849  0.032802215            9 
 2986000    0.7626486    -5.896013    1185.2135  0.033076957  0.032793286            5 
 2987000   0.76987768    -5.889719    1183.7959  0.033026335  0.032784295            5 
 2988000   0.77391586   -5.8733335    1184.1236   0.03302442  0.032775347            5 
 2989000     0.778195   -5.8880718    1181.8437  0.032949806  0.032766443            7 
 2990000   0.76609917    -5.885852     1183.527  0.032985703  0.032757515           11 
 2991000   0.77055299   -5.8958064    1181.3181  0.032913131  0.032748499            4 
 2992000   0.77362591   -5.8597274    1188.1913  0.033093563  0.032739577            7 
 2993000   0.77524092   -5.8852132     1187.928  0.033075176  0.032730673            6 
 2994000   0.76705123   -5.8768411    1186.9252  0.033036217  0.032721813            8 
 2995000   0.77634135    -5.865101    1183.7542  0.032936957  0.032712916            9 
 2996000   0.76521247   -5.8813837    1181.8659  0.032873439  0.032703971            6 
 2997000   0.76388158   -5.8805932    1186.4933  0.032991139     0.032695            5 
 2998000   0.77441845    -5.890169     1182.537  0.032870163   0.03268603           20 
 2999000   0.76842559   -5.8980635    1185.2588  0.032934835  0.032677095           10 
 3000000   0.77964814   -5.8885694    1184.3182  0.032897728  0.032668098            4 
 3001000   0.78468938   -5.8505888    1188.4191  0.033000641   0.03265923            9 
 3002000   0.77582764   -5.8432238    1188.7497  0.032998826  0.032650397            7 
 3003000   0.76213028   -5.8855416    1186.4202  0.032923194   0.03264159            5 
 3004000   0.78041513   -5.8722083    1184.7628  0.032866256  0.032632759           13 
 3005000   0.77515204   -5.9204736    1181.6952  0.032770248  0.032623857            6 
 3006000   0.78072074   -5.8866293    1185.6143  0.032867993  0.032615011            5 
 3007000   0.77788009   -5.8943238    1184.0333  0.032813249  0.032606081            8 
 3008000   0.75013213   -5.8655987    1182.3431  0.032755516  0.032597239            6 
 3009000   0.76033506   -5.8802108    1187.0055  0.032873754   0.03258842            4 
 3010000   0.78493991   -5.8623577    1191.3684  0.032983622  0.032579613            7 
 3011000   0.77674195    -5.879046    1188.3362  0.032888746  0.032570803            5 
 3012000   0.75402031     -5.87019    1190.6771  0.032942592   0.03256199            8 
 3013000   0.77141348   -5.8890924    1186.0809  0.032804539  0.032553135           21 
 3014000   0.76463524   -5.9027555    1182.0419  0.032681981  0.032544199            9 
 3015000   0.76686649   -5.8730874     1187.742   0.03282869  0.032535351           17 
 3016000   0.75676567    -5.912005    1185.1354  0.032745782  0.032526452            6 
 3017000   0.77099426   -5.8907096    1186.9198  0.032784217  0.032517601           11 
 3018000   0.78032785   -5.8831751      1185.69  0.032739398  0.032508747            9 
 3019000   0.77102615   -5.8759168     1189.622  0.032837087  0.032499892            8 
 3020000   0.77670636   -5.8700969    1184.1314  0.032674709    0.0324911           10 
 3021000   0.75510825   -5.8807977    1188.4037  0.032781742  0.032482309            5 
 3022000   0.76086709   -5.8662828    1189.7458  0.032807903  0.032473528            7 
 3023000   0.76953093   -5.8952438    1188.2346  0.032755393  0.032464739            7 
 3024000   0.76288577   -5.8515102    1189.5453  0.032780678  0.032455961            8 
 3025000   0.75965244   -5.8469501    1192.2267  0.032843712  0.032447145            7 
 3026000    0.7691501     -5.88828    1187.5469  0.032703979  0.032438314            9 
 3027000   0.74368856   -5.9066473    1187.4425  0.032690301  0.032429476            7 
 3028000    0.7652502   -5.9303466    1188.4325  0.032706751   0.03242062            4 
 3029000    0.7657546   -5.8788101    1190.7646  0.032760113  0.032411808            9 
 3030000   0.75980925   -5.9031626    1186.2365  0.032624766  0.032402971           11 
 3031000   0.76144534   -5.9325401    1189.1879  0.032695148  0.032394135           10 
 3032000   0.77363642   -5.8672802    1189.5463  0.032694215  0.032385314           10 
 3033000   0.77424125   -5.8919243    1189.6865  0.032687287  0.032376553           10 
 3034000      0.77056   -5.9095013    1190.7081  0.032704573   0.03236774            7 
 3035000   0.77387667   -5.8973157    1194.6071  0.032800855  0.032358939            7 
 3036000   0.77050702   -5.9340268    1189.3153  0.032644798  0.032350133            8 
 3037000   0.77958765   -5.9261812    1192.3244  0.032716618  0.032341286            5 
 3038000   0.77020218   -5.8885254    1192.9233  0.032722275  0.032332489            3 
 3039000   0.75795937   -5.8804007    1191.1771  0.032663627  0.032323711           12 
 3040000   0.77035009   -5.8683155    1194.0033  0.032730354  0.032315013            7 
 3041000   0.75412691   -5.9017448    1187.7237   0.03254751  0.032306233            3 
 3042000   0.76116279   -5.9091588    1191.4588  0.032639129  0.032297444            7 
 3043000   0.77159269   -5.9229533     1190.028  0.032589222  0.032288655            5 
 3044000   0.76191782   -5.8843204    1191.3909  0.032615826  0.032279827           13 
 3045000   0.76034346   -5.8956611    1192.9191  0.032646937  0.032271049            8 
 3046000   0.77691984   -5.9268843    1186.8898  0.032471268  0.032262231           22 
 3047000   0.76333929   -5.9050581    1192.0376  0.032601401  0.032253533            8 
 3048000   0.77343709    -5.925229    1193.5182  0.032631185  0.032244771           15 
 3049000   0.75509955   -5.9087976    1196.9531  0.032714363  0.032236049            3 
 3050000   0.75986926   -5.8899044    1194.4262  0.032634595  0.032227378           12 
 3051000    0.7558158   -5.9123881    1192.3306  0.032566662  0.032218678            5 
 3052000   0.75686739   -5.9101801    1191.4345  0.032531522  0.032209953            9 
 3053000   0.75676346   -5.9140089     1190.699  0.032500791  0.032201211            4 
 3054000   0.76063453   -5.9317046    1190.3587  0.032480865  0.032192474            8 
 3055000   0.76944039   -5.8874498    1194.7917  0.032591155  0.032183751           13 
 3056000   0.76483773   -5.8948324    1193.8365  0.032554443  0.032175051           16 
 3057000   0.77583262   -5.9062028    1198.4879   0.03267059  0.032166309            7 
 3058000   0.78156292   -5.9168951     1192.367  0.032493106  0.032157601            6 
 3059000   0.75787255   -5.8843095    1194.0394  0.032528044  0.032148964            6 
 3060000   0.76871058   -5.8913181    1192.7866  0.032483294   0.03214031            7 
 3061000   0.77687368   -5.9113303    1192.5464  0.032466143  0.032131627            6 
 3062000   0.75827757   -5.9300742    1194.7227   0.03251477  0.032122953            7 
 3063000   0.76455679   -5.9163779     1194.526  0.032498804   0.03211428            8 
 3064000   0.75428562   -5.8515246    1196.3011  0.032536475  0.032105651            7 
 3065000   0.77631543   -5.8881395    1193.9944  0.032463144  0.032097046           17 
 3066000   0.76029386   -5.9380967    1191.3764  0.032381398  0.032088399            5 
 3067000   0.76517288   -5.9261242    1193.6684  0.032433117  0.032079733           10 
 3068000   0.76788815   -5.9144196    1192.2248  0.032383332  0.032071047           11 
 3069000   0.77414643    -5.914404    1192.0353  0.032367636  0.032062404            5 
 3070000   0.76194198   -5.9115295    1192.8155   0.03237827  0.032053715            4 
 3071000    0.7626268   -5.8976242    1194.4553  0.032412224  0.032045028            8 
 3072000   0.74377073   -5.8783709    1193.9464  0.032387868  0.032036403            7 
 3073000   0.75505601   -5.9188364     1198.797  0.032508869  0.032027811            5 
 3074000   0.77562626   -5.9415305    1193.3858  0.032351598  0.032019072            6 
 3075000   0.74711198   -5.9138932    1195.2982  0.032392905  0.032010378            7 
 3076000   0.75586134   -5.9509538    1196.1667  0.032405902  0.032001705           13 
 3077000   0.75566673   -5.9040674     1197.773  0.032438875  0.031993041           11 
 3078000   0.75522266   -5.8796182    1198.5143  0.032448406  0.031984497            8 
 3079000    0.7601559   -5.9011768    1193.3552  0.032298237   0.03197592            5 
 3080000   0.77335464   -5.8963096    1200.2957  0.032475532  0.031967364           10 
 3081000   0.76218338   -5.8850699    1195.5935  0.032337809  0.031958776            9 
 3082000   0.75801234   -5.8718619    1199.5267  0.032433665  0.031950201            9 
 3083000   0.75953956   -5.9106905    1197.1919  0.032360035  0.031941658            5 
 3084000   0.74449558   -5.9349471    1196.7677  0.032338082  0.031933052           10 
 3085000   0.75812768   -5.9328943    1194.8814  0.032276646  0.031924358            8 
 3086000   0.76149432   -5.9210363    1193.5559  0.032230392  0.031915723            5 
 3087000   0.74508312   -5.9203553    1196.9252  0.032310906   0.03190712           12 
 3088000   0.74011226   -5.9099892    1197.5343  0.032316881  0.031898532            8 
 3089000   0.75716636   -5.9012009    1200.5343  0.032387351  0.031889973            7 
 3090000   0.74668857   -5.8771279    1200.7362  0.032382313  0.031881441            5 
 3091000    0.7465921   -5.9237121    1198.6512  0.032315625  0.031872878            4 
 3092000    0.7859324   -5.9358392    1198.3939  0.032298239  0.031864291            7 
 3093000   0.75773067   -5.9206536    1199.9165  0.032328821  0.031855734            7 
 3094000    0.7575406    -5.906143    1199.6386  0.032310888  0.031847128           16 
 3095000   0.76661939   -5.9314003    1198.0951  0.032258887  0.031838487            8 
 3096000   0.75985308   -5.8920715    1200.9086  0.032324197  0.031830025            5 
 3097000   0.74633422   -5.9229787    1197.9165  0.032233251  0.031821527            3 
 3098000   0.76227829   -5.9315188     1200.506  0.032292499  0.031812947           26 
 3099000   0.76585109   -5.9387138    1192.4565  0.032065627  0.031804341           13 
 3100000   0.76164609   -5.9109537    1198.8629  0.032227496  0.031795761           11 
 3101000   0.76107825   -5.9748413    1195.9052  0.032137622   0.03178721            7 
 3102000   0.76202289   -5.9178089    1196.8925  0.032153784  0.031778532           10 
 3103000   0.74656665   -5.9495018    1195.9981  0.032119402  0.031769867            9 
 3104000   0.76528369   -5.9333034    1196.1168  0.032112243  0.031761263            7 
 3105000   0.74505141   -5.8999022    1199.3931   0.03218983  0.031752628            6 
 3106000   0.76192483   -5.9177595    1198.4913  0.032155271  0.031744034            9 
 3107000   0.75012293   -5.8907677    1201.3234  0.032220884  0.031735504           15 
 3108000   0.74903722   -5.9276291     1199.661  0.032165942  0.031726957            9 
 3109000   0.75268667   -5.9024253     1200.084  0.032166936  0.031718366           10 
 3110000   0.73217361   -5.9053261    1200.3483  0.032163673  0.031709767           11 
 3111000   0.77462502   -5.9101727    1199.6833  0.032135521  0.031701142           10 
 3112000    0.7571079   -5.9694559     1194.161  0.031977319  0.031692469            9 
 3113000   0.76907427   -5.9694203    1192.7017  0.031927983  0.031683739           10 
 3114000   0.75595231   -5.9450812    1200.6829  0.032131313  0.031675058           11 
 3115000   0.73968456   -5.9349527    1198.7947  0.032070484  0.031666406            7 
 3116000   0.77147664   -5.9250851    1195.8702   0.03198198  0.031657714           16 
 3117000   0.75680452   -5.9449215    1199.0877   0.03205774  0.031648993           10 
 3118000   0.75341228   -5.9272427    1199.0519  0.032046502  0.031640338            7 
 3119000   0.75317463   -5.9295915    1196.7808  0.031975548  0.031631728           10 
 3120000   0.76781882   -5.9180428    1200.6113  0.032067609  0.031623134            7 
 3121000   0.75046316   -5.9338465    1196.0449  0.031935408  0.031614589            9 
 3122000   0.75142897   -5.9400095     1199.822  0.032025999   0.03160593           11 
 3123000   0.75158318   -5.9328518     1200.439  0.032032207  0.031597304            7 
 3124000   0.74841856    -5.939547    1199.9674  0.032009375  0.031588718           10 
 3125000   0.75174691   -5.9206234     1200.256  0.032006826  0.031580086            7 
 3126000   0.73835985   -5.8954267      1199.32  0.031971637  0.031571467            3 
 3127000   0.74796045   -5.9177832    1199.4798  0.031965669  0.031562888            7 
 3128000   0.75985006   -5.9332032    1199.4444  0.031954509  0.031554283            9 
 3129000   0.73767349   -5.9408897    1201.0929  0.031988199  0.031545715            7 
 3130000   0.76003964   -5.8965122    1204.4341  0.032066935  0.031537134            4 
 3131000    0.7498246   -5.9169769    1201.3006  0.031973294  0.031528605            8 
 3132000   0.74534339   -5.9318385    1199.8015    0.0319232  0.031520029           13 
 3133000   0.74172319   -5.9347737    1202.3316  0.031980307  0.031511438            4 
 3134000   0.74752357   -5.9235924    1200.4804  0.031920879  0.031502813            7 
 3135000   0.75246788   -5.9028319    1197.7983  0.031839402  0.031494246           11 
 3136000   0.75476439   -5.9398645    1201.2514  0.031921009  0.031485682            8 
 3137000   0.76265875   -5.9360319    1200.5125  0.031891205  0.031477021            9 
 3138000   0.73379343   -5.9289601    1196.9073  0.031785301  0.031468379            3 
 3139000   0.76180439   -5.9705116    1196.7281  0.031770419  0.031459687            7 
 3140000   0.76722011   -5.9314046    1201.0803  0.031875803  0.031450983            8 
 3141000   0.76468562   -5.9216106    1199.0475  0.031811724  0.031442356           14 
 3142000   0.74757598   -5.8953659    1198.8529  0.031796438   0.03143376            7 
 3143000   0.74232114   -5.9207186    1202.4016  0.031880411  0.031425217            4 
 3144000   0.75899493   -5.9361917    1201.0021  0.031833176  0.031416609           11 
 3145000   0.74602463   -5.9295694    1199.7287  0.031789314  0.031408024            9 
 3146000   0.74756628   -5.9198221    1204.3654  0.031902028  0.031399428            6 
 3147000   0.73315666   -5.9590212    1199.2054  0.031755255  0.031390791           11 
 3148000   0.74379804   -5.9301752    1203.2607  0.031852518  0.031382138            7 
 3149000   0.74585992   -5.9381627    1199.0164  0.031730083  0.031373455           10 
 3150000   0.76867551   -5.9706999    1198.5403  0.031707416  0.031364768            7 
 3151000   0.74600207   -5.9501914    1197.9161  0.031680845  0.031356047            6 
 3152000   0.75794303   -5.9738152    1199.4763  0.031712041  0.031347326           10 
 3153000   0.73646394     -5.97214    1200.5198  0.031729563  0.031338629           10 
 3154000   0.73603772   -5.9499867    1200.8162  0.031727337  0.031329998            6 
 3155000   0.75198956   -5.9125661    1199.5469  0.031683753  0.031321388            6 
 3156000   0.74816445   -5.9605858    1201.5095  0.031725535  0.031312767            8 
 3157000    0.7437138   -5.9368652    1201.5866  0.031717521    0.0313041           10 
 3158000   0.75722676   -5.9581162    1198.7642  0.031633001  0.031295403            5 
 3159000   0.75732972   -5.9531914    1199.1353  0.031632777  0.031286756            5 
 3160000   0.73499189   -5.9474525    1199.6184  0.031635506  0.031278132            9 
 3161000   0.75658259    -5.973169    1199.9976  0.031635495    0.0312695            7 
 3162000   0.73660593   -5.9667593    1200.2453  0.031632018  0.031260903            4 
 3163000   0.75083373   -5.9103182    1203.7337  0.031713924  0.031252305           11 
 3164000   0.74300358   -5.9595877    1199.5303  0.031593192  0.031243708            6 
 3165000   0.72755119   -5.9415735    1201.3041  0.031629914  0.031235124            8 
 3166000   0.76099661   -5.9855469    1197.8598  0.031529264  0.031226512           11 
 3167000   0.75184596   -5.9571371    1199.9781  0.031575046  0.031217863            7 
 3168000    0.7423563   -5.9664871    1202.2538  0.031624943  0.031209256           17 
 3169000   0.75229116   -5.9276613    1203.1154  0.031637621  0.031200597            5 
 3170000   0.74433866   -5.9653247    1199.7773  0.031539888  0.031191999            7 
 3171000    0.7435814   -5.9596238    1201.5549  0.031576655  0.031183362           10 
 3172000     0.766353   -5.9347163    1204.6748  0.031648665  0.031174769           18 
 3173000   0.74510931   -5.9647971    1197.2482  0.031443645  0.031166165           10 
 3174000   0.73648353   -5.9652776    1200.2666  0.031512986  0.031157508            7 
 3175000   0.73855312   -5.9265196    1200.8196  0.031517575  0.031148854           17 
 3176000   0.74931455   -5.9678081    1202.6941  0.031556836  0.031140201            5 
 3177000    0.7506955   -5.9904062    1200.8979  0.031499786  0.031131535           10 
 3178000   0.75327723   -5.9773737    1201.9754   0.03151813  0.031122971            8 
 3179000   0.75138791   -5.9428704    1203.0026  0.031535141  0.031114461            7 
 3180000   0.74948597    -5.972301    1203.0742  0.031527101  0.031105966           13 
 3181000   0.72297902   -5.9443648    1204.7287  0.031560533  0.031097458            9 
 3182000   0.73368742    -5.946495    1205.3295  0.031566351  0.031088943            4 
 3183000   0.73413863   -5.9518776    1204.8413  0.031543652  0.031080445           12 
 3184000   0.74350972   -5.9629285    1203.6156  0.031501663  0.031072001            7 
 3185000   0.74329181   -5.9517504    1208.7792  0.031626877  0.031063502           10 
 3186000   0.74689494   -5.9595819    1203.7031  0.031484177  0.031055015           11 
 3187000   0.74680149   -5.9612915    1206.4776  0.031546848  0.031046501            8 
 3188000   0.74446835    -5.959725    1203.2145  0.031451654  0.031038025           13 
 3189000   0.72909889   -5.9532179    1204.7396  0.031481646    0.0310296           14 
 3190000   0.73569714   -5.9763365    1207.4286  0.031542021  0.031021126            8 
 3191000   0.73803262   -5.9399471    1204.9492  0.031467387  0.031012683           12 
 3192000   0.73881262   -5.9844619    1205.0117  0.031459161  0.031004197            6 
 3193000   0.75527302   -5.9550901    1205.8212  0.031470435  0.030995722           12 
 3194000   0.74609653   -5.9704748    1205.1866  0.031444025  0.030987271            8 
 3195000   0.73958188    -5.963527      1204.95  0.031428012  0.030978776            7 
 3196000   0.75181901   -5.9626907    1203.5454  0.031381555  0.030970347            8 
 3197000   0.73705892   -5.9890262    1205.4609   0.03142167  0.030961887           17 
 3198000   0.75122726   -5.9395484    1206.6888  0.031443841  0.030953404            6 
 3199000   0.74461143   -5.9710985    1205.4785  0.031402483  0.030945003            7 
 3200000   0.72808325   -5.9469437    1204.8877  0.031377285  0.030936607            8 
 3201000   0.73931418   -5.9728578     1206.505  0.031409585  0.030928174           20 
 3202000    0.7495758   -5.9946641    1206.4739  0.031398967  0.030919681            6 
 3203000   0.75103212   -5.9567405    1204.0929  0.031327217  0.030911174            5 
 3204000   0.72116006   -5.9706856    1204.8678  0.031337594  0.030902678            8 
 3205000    0.7437769   -5.9542811    1206.9764  0.031382641  0.030894205           11 
 3206000   0.74023374   -5.9554167    1206.3369  0.031356231  0.030885768           13 
 3207000   0.75788858   -5.9432149     1206.178  0.031342323  0.030877361            9 
 3208000   0.74720986   -5.9698181    1206.5705  0.031342749  0.030868924            5 
 3209000   0.73771981    -5.922596    1211.1703  0.031452434  0.030860482           18 
 3210000   0.72192541   -5.9629386    1204.7983  0.031277214  0.030852112           17 
 3211000   0.73977343   -5.9563247    1206.0426  0.031299766  0.030843707           13 
 3212000   0.73948092    -5.982503    1207.4233  0.031325844  0.030835247           11 
 3213000    0.7479666   -5.9661786    1208.5265  0.031344707  0.030826829            7 
 3214000   0.71680136   -5.9773174    1210.4121  0.031383844  0.030818396           13 
 3215000   0.72518816   -5.9542364    1205.6749  0.031251294  0.030809909           12 
 3216000   0.72290458   -5.9822502    1208.7633  0.031321602  0.030801522            5 
 3217000   0.72906374   -5.9766156    1207.0299  0.031266965  0.030793089            8 
 3218000   0.73718565   -5.9691508    1208.2616  0.031289144  0.030784681            4 
 3219000   0.74338481   -5.9686154     1208.146  0.031276432  0.030776252           10 
 3220000   0.73359718    -5.974729    1206.8099   0.03123214  0.030767885           20 
 3221000   0.73924938   -5.9783931    1207.9398  0.031251676  0.030759511            4 
 3222000   0.72969626    -5.966388     1208.662  0.031260656  0.030751125           16 
 3223000   0.72222257   -5.9738981    1210.5796  0.031300537  0.030742735            9 
 3224000   0.72947738    -5.975983    1208.1418  0.031227818   0.03073438           12 
 3225000   0.72489706   -6.0010103    1208.1501  0.031218349  0.030725974            6 
 3226000   0.73448131   -5.9913005    1211.3711  0.031291877  0.030717536            4 
 3227000   0.74330359   -5.9971569    1209.6234  0.031237046  0.030709147           11 
 3228000   0.73398225   -5.9808778    1210.5891    0.0312523  0.030700824            7 
 3229000   0.71938201   -6.0041659    1209.1694  0.031205982  0.030692517           14 
 3230000   0.72410429   -5.9518402    1208.6235  0.031182236  0.030684174           14 
 3231000   0.73302177   -5.9531233     1209.954  0.031206902  0.030675884           15 
 3232000   0.72797269   -5.9911641    1208.4717  0.031159026  0.030667552            7 
 3233000   0.73102611    -5.965765    1210.9382  0.031212966  0.030659258            7 
 3234000   0.74075109     -5.99001    1212.8442  0.031252428  0.030650993           15 
 3235000   0.71170846   -5.9721029    1208.1055  0.031120697  0.030642666           15 
 3236000    0.7534392   -5.9878521    1209.3589  0.031143359  0.030634328           11 
 3237000   0.73077562   -5.9691473    1212.0084  0.031201945  0.030625962            9 
 3238000   0.72291339   -5.9696931    1212.1521  0.031196008  0.030617694            8 
 3239000   0.74251304    -5.979141    1211.7359  0.031175669  0.030609419            8 
 3240000   0.74361153   -5.9745295     1214.396  0.031234466  0.030601133            9 
 3241000   0.74586698   -5.9450888    1213.2164  0.031194498  0.030592881           20 
 3242000   0.73504527    -5.953256    1211.3473  0.031136831   0.03058465            7 
 3243000   0.74654336   -5.9920144    1210.3454  0.031101485  0.030576392           20 
 3244000   0.74307869   -5.9878025    1211.5526  0.031122909  0.030568065           12 
 3245000   0.72725793   -5.9903454    1209.2282  0.031053626  0.030559678           15 
 3246000   0.71407048    -5.990957    1208.8001  0.031033068  0.030551293            7 
 3247000   0.73832648   -5.9932306    1209.9221  0.031052308  0.030542949           13 
 3248000    0.7326767   -5.9791274    1210.5722  0.031059426  0.030534608            7 
 3249000   0.72389517    -5.976389    1212.0277  0.031087199  0.030526218           10 
 3250000   0.74815292   -5.9867154     1210.129  0.031028949   0.03051784           17 
 3251000   0.71823952   -5.9775068    1207.0404  0.030940233  0.030509431           19 
 3252000   0.73753061    -5.984264    1209.4109  0.030991464  0.030501049            4 
 3253000   0.73072508   -5.9837778    1210.3867  0.031006933  0.030492655            8 
 3254000   0.73570756     -5.98322    1210.0013  0.030987536   0.03048427           11 
 3255000   0.73040247   -5.9862848    1211.0155   0.03100398  0.030475952            8 
 3256000   0.74915515    -5.985474    1211.9892  0.031019378  0.030467631           10 
 3257000   0.72443898   -5.9757734    1207.2676   0.03088905  0.030459251           10 
 3258000    0.7179027   -5.9921245    1210.8983  0.030972435  0.030450938            6 
 3259000   0.72417597   -5.9766587    1212.0654  0.030992773  0.030442577            4 
 3260000   0.72707252   -6.0061307    1213.0253  0.031007803  0.030434197           11 
 3261000   0.71951256   -5.9864461    1209.4593  0.030907169  0.030425879           13 
 3262000   0.73955371   -5.9749721    1213.7161  0.031006442  0.030417524            9 
 3263000   0.74113223   -5.9788974    1210.4249  0.030912884  0.030409171           12 
 3264000   0.73456836   -6.0042541    1210.9429  0.030916639  0.030400834           11 
 3265000   0.72289359   -6.0246306     1206.341  0.030789713  0.030392392            8 
 3266000   0.73123318   -5.9989051    1211.2338   0.03090513  0.030384003            5 
 3267000   0.71212979   -5.9922374    1212.0047  0.030915333  0.030375617           10 
 3268000     0.711774   -5.9848057    1210.2882  0.030862102  0.030367299            5 
 3269000   0.71138159   -5.9875676    1211.6216  0.030886652  0.030358968            5 
 3270000   0.73297272   -6.0291454    1211.8893   0.03088403  0.030350557           10 
 3271000   0.72536798   -6.0047851    1210.5228  0.030839774  0.030342171           19 
 3272000   0.71830511   -6.0301099    1211.6192  0.030858272  0.030333806            7 
 3273000   0.72800168   -5.9871193    1212.1023  0.030861144  0.030325427           14 
 3274000    0.7236281   -5.9752654    1212.9093  0.030872258  0.030317099           13 
 3275000   0.72181943   -5.9780363     1214.037  0.030891527  0.030308768           15 
 3276000   0.71789297   -5.9600206    1212.5402  0.030844021  0.030300411            7 
 3277000   0.72984656   -5.9736455    1209.3526  0.030753551  0.030292069            9 
 3278000   0.73121561   -6.0003671    1211.0423  0.030787124  0.030283722            8 
 3279000   0.71249782   -5.9889806    1213.2429   0.03083366  0.030275301            9 
 3280000   0.73430311   -6.0024316    1213.9663  0.030842639  0.030266931           16 
 3281000   0.72015252   -6.0032566    1210.4357  0.030743566  0.030258618           11 
 3282000    0.7197909   -5.9966428    1213.3116  0.030807221  0.030250287           20 
 3283000   0.73096194   -5.9825639    1216.7824  0.030885937  0.030241978           17 
 3284000   0.73496516   -5.9891219    1212.2251   0.03076089  0.030233715            6 
 3285000   0.73038518   -5.9999595     1211.945  0.030744419  0.030225436            8 
 3286000   0.71935858   -6.0230676    1210.9556  0.030709971  0.030217176            6 
 3287000   0.71942785   -6.0069521    1211.7111  0.030719781  0.030208877            6 
 3288000   0.72848219    -5.993595    1214.6721  0.030785485  0.030200535            7 
 3289000   0.71821423   -5.9845561    1214.5644  0.030773396  0.030192249            9 
 3290000   0.72164843   -6.0162525    1211.3447   0.03068249  0.030183942            7 
 3291000   0.71693034   -5.9911676    1215.5322  0.030779201  0.030175644           12 
 3292000   0.72196771   -5.9833509    1210.0992  0.030632321  0.030167398            7 
 3293000   0.73954302   -6.0064074    1213.9688  0.030720943  0.030159102            8 
 3294000   0.73428464    -5.989977    1214.1536  0.030716292  0.030150853           10 
 3295000   0.73283309   -5.9859033    1215.7634  0.030747684  0.030142617           13 
 3296000   0.72340643   -6.0088642    1212.8037  0.030663525  0.030134375           12 
 3297000   0.71269929   -5.9711534    1215.2141  0.030715148  0.030126129            6 
 3298000   0.72093435    -5.975392     1218.984  0.030801091  0.030117886            6 
 3299000   0.72096688   -6.0052304    1216.2574   0.03072288  0.030109591            8 
 3300000   0.72109399   -6.0141992    1215.8808  0.030704061    0.0301013            4 
 3301000   0.70734248    -6.016443    1211.0907  0.030573834   0.03009298           15 
 3302000   0.72121616    -6.008414    1210.5643   0.03055129  0.030084673           10 
 3303000   0.73311976   -5.9673473    1216.5741  0.030693664  0.030076401           10 
 3304000   0.71653551   -6.0249047    1213.4507  0.030605598  0.030068148           11 
 3305000   0.71666286   -6.0499146    1211.5151  0.030547531  0.030059846           17 
 3306000   0.71883919   -5.9746163    1218.6877   0.03071909  0.030051572            8 
 3307000    0.7044423   -6.0154356    1214.4228  0.030602328   0.03004331            5 
 3308000   0.73132214     -6.00938    1214.2207  0.030587985  0.030035037            6 
 3309000   0.71943964   -5.9957794    1217.1612  0.030652796  0.030026766           12 
 3310000   0.72690196   -5.9957582    1213.0258   0.03053942  0.030018487            7 
 3311000   0.72675682   -6.0032603    1216.6106  0.030620422  0.030010243            5 
 3312000   0.71931688   -5.9694272    1216.6449  0.030612038   0.03000202           12 
 3313000   0.72308646   -5.9862641    1217.2976  0.030619218   0.02999376            6 
 3314000    0.7191189   -5.9761415    1218.7866   0.03064742  0.029985571           13 
 3315000   0.70739635   -6.0070638    1214.0155  0.030518239   0.02997735           19 
 3316000   0.72306875     -5.98563    1217.8375  0.030605084  0.029969121            7 
 3317000   0.71137217   -5.9719688    1222.6191  0.030715985  0.029960924            9 
 3318000   0.72765456   -5.9867444     1212.762  0.030459163  0.029952759            7 
 3319000   0.72967599   -6.0043443    1213.3921  0.030465805  0.029944536            5 
 3320000   0.71305187    -6.000884    1214.7824  0.030491526  0.029936286           11 
 3321000   0.72963989   -5.9932176    1214.1888   0.03046745  0.029928032            6 
 3322000    0.7154937   -6.0114608    1216.2923  0.030511045    0.0299198           13 
 3323000   0.70930461   -5.9787523    1214.6532  0.030460757  0.029911554            7 
 3324000   0.72561108   -6.0280245    1212.4965  0.030397527  0.029903274           10 
 3325000   0.72879819   -6.0129797    1215.1203  0.030454143  0.029894972            8 
 3326000   0.73139955   -5.9809656    1216.5688  0.030481279  0.029886718           13 
 3327000   0.73302189   -6.0056306    1219.0978  0.030535461   0.02987851            8 
 3328000   0.72783278   -6.0121345    1212.4683  0.030360283  0.029870262           13 
 3329000   0.71857864   -6.0185363    1218.4509  0.030500925  0.029861932            8 
 3330000   0.72038752   -6.0472155     1211.091  0.030307583  0.029853585            7 
 3331000   0.73297798   -6.0224538    1213.8658  0.030367902  0.029845181           10 
 3332000   0.71400103   -6.0076673    1211.7772  0.030306554   0.02983687           19 
 3333000   0.71708108   -6.0005707    1211.7582  0.030296985  0.029828555           11 
 3334000   0.71089667   -6.0077908    1214.3074  0.030351616   0.02982021           22 
 3335000   0.71813687   -5.9969994    1216.7888  0.030404517  0.029811977            7 
 3336000   0.72100242   -6.0354808    1213.6435  0.030316834  0.029803652           14 
 3337000   0.71149038    -6.000103    1217.8286  0.030412261  0.029795347           11 
 3338000   0.71261106   -5.9935353    1214.3032  0.030315139  0.029787122            8 
 3339000   0.71663041   -6.0205149    1217.0001  0.030373368  0.029778869           12 
 3340000   0.70613368   -6.0428402     1213.731   0.03028271  0.029770626            4 
 3341000   0.71968324   -6.0072046    1217.2228  0.030360741  0.029762395           16 
 3342000   0.71274401    -6.027505    1216.2214  0.030326685  0.029754144           13 
 3343000   0.70969438   -5.9972864    1216.1885  0.030316795  0.029745909            6 
 3344000   0.71246228   -5.9955033    1217.8134   0.03034822   0.02973769            7 
 3345000   0.71717527   -5.9956218    1215.9152  0.030291858  0.029729421           16 
 3346000   0.70691144   -6.0171317    1215.0977  0.030262445  0.029721182           15 
 3347000   0.73603926   -6.0026818    1217.5224  0.030313772  0.029712968            8 
 3348000   0.70052294    -6.015884    1215.4314  0.030252672   0.02970472            9 
 3349000   0.70564903   -6.0114463    1213.5933  0.030197903  0.029696449           16 
 3350000   0.71135316   -6.0048211    1216.1396   0.03025223  0.029688129           10 
 3351000   0.71901651    -6.013026     1215.581   0.03022931  0.029679855           11 
 3352000    0.7291735   -6.0184845    1213.9078  0.030178695  0.029671556            6 
 3353000   0.71524801   -6.0428173     1215.404  0.030206879  0.029663252           10 
 3354000   0.71693032   -6.0401759    1212.1992  0.030118248   0.02965492           15 
 3355000    0.7216794   -6.0219172    1213.3135  0.030136947  0.029646618            9 
 3356000    0.7202842   -5.9837251    1216.1458  0.030198297  0.029638401            5 
 3357000   0.69639285   -6.0145852    1213.5372  0.030124546  0.029630099           13 
 3358000   0.72464041   -6.0362907    1213.4003  0.030112176  0.029621793            9 
 3359000    0.7095936   -5.9992066    1219.2001  0.030247099  0.029613532           14 
 3360000   0.71787798   -6.0093034    1215.1468  0.030137571  0.029605319            7 
 3361000    0.7276547   -6.0234708    1214.0217  0.030100706  0.029597094           10 
 3362000   0.71988592    -6.050945     1215.355  0.030124801  0.029588812            4 
 3363000   0.71602156   -6.0217635    1217.1265  0.030159742  0.029580573            8 
 3364000    0.6997486   -6.0235082    1216.8479  0.030143874  0.029572366            7 
 3365000   0.70671307     -6.00649    1220.1683  0.030217145  0.029564125           13 
 3366000   0.72137711   -6.0304793    1216.0009  0.030104993  0.029555892            9 
 3367000   0.70228303   -6.0198589    1216.4013  0.030105962  0.029547637            8 
 3368000   0.71334603   -6.0315863    1218.4953  0.030148834  0.029539432           13 
 3369000   0.71229897   -6.0448524     1215.815  0.030073587  0.029531206           12 
 3370000   0.71476213   -6.0304519    1217.2714  0.030100677  0.029522946            8 
 3371000   0.71538574   -6.0396319    1218.2192  0.030115179  0.029514676           12 
 3372000   0.72469011    -6.032949    1214.5249  0.030014949  0.029506439            6 
 3373000   0.71172208   -6.0162361    1219.2968  0.030123945  0.029498195           11 
 3374000    0.7101898   -6.0164604    1214.9295  0.030007151  0.029489937           13 
 3375000   0.70424748    -6.018229    1216.3743  0.030033933  0.029481662           12 
 3376000   0.69340289   -6.0309326    1219.4126  0.030100035  0.029473338            9 
 3377000   0.72099585   -6.0255996    1218.1277  0.030059413  0.029465016            6 
 3378000   0.71638461   -6.0217595    1215.7671  0.029992281  0.029456731           21 
 3379000   0.69529812   -6.0170649    1216.9296  0.030012074  0.029448473            6 
 3380000   0.72597577   -6.0141661    1217.5352  0.030018127  0.029440206            8 
 3381000   0.70589092   -6.0482116    1217.1825  0.030000556  0.029431946            5 
 3382000   0.69937779   -6.0764528    1213.5088  0.029901162  0.029423663           17 
 3383000   0.70078047   -6.0276681    1216.1132  0.029956479  0.029415375           14 
 3384000   0.71593196   -6.0299978    1218.1195  0.029997033  0.029407155            9 
 3385000   0.70172438   -6.0210334    1218.4252  0.029995696    0.0293989           15 
 3386000   0.72657861   -6.0387005     1218.388  0.029985923  0.029390658           16 
 3387000   0.70207461    -6.043176    1217.9032  0.029965141  0.029382393            9 
 3388000   0.72294309   -6.0501107     1212.948  0.029834416  0.029374129           13 
 3389000   0.71027998    -6.007996    1217.4262  0.029935729  0.029365903            8 
 3390000   0.70246305   -6.0177546    1219.3914  0.029975206  0.029357653            9 
 3391000   0.69950265    -6.036484    1216.6871  0.029899909  0.029349475            7 
 3392000   0.68835821   -6.0246535    1217.8669  0.029920078  0.029341298           19 
 3393000   0.71150467   -6.0310328    1216.2586  0.029871761  0.029333042           12 
 3394000   0.70440156   -6.0312041     1217.738  0.029899283  0.029324777           46 
 3395000     0.695718   -6.0173563    1215.4209    0.0298336  0.029316564            9 
 3396000   0.69512949   -6.0393266    1215.8877  0.029836271  0.029308348            9 
 3397000   0.71232421   -6.0170731    1216.1663  0.029834321   0.02930014           20 
 3398000   0.70995381   -6.0399097    1218.6588  0.029886669  0.029291948           13 
 3399000   0.71082279    -6.051858    1216.4815  0.029824495  0.029283689           12 
 3400000    0.7204183   -6.0108844    1218.5161   0.02986559  0.029275449            7 
 3401000   0.70393699   -6.0009689    1222.3695  0.029951228  0.029267286           21 
 3402000   0.71763833   -6.0434222    1213.8348  0.029733363  0.029259062           13 
 3403000   0.69673345   -6.0581053    1214.8902   0.02975047  0.029250808           23 
 3404000   0.71130157   -6.0573354    1219.1303  0.029845532  0.029242547            7 
 3405000   0.70127306   -6.0523773      1215.11  0.029738375  0.029234291           16 
 3406000   0.71032333   -6.0505519    1217.7344  0.029793854  0.029225998           12 
 3407000   0.70201806   -6.0426759    1218.1188  0.029794511  0.029217738            8 
 3408000   0.72234032   -6.0534264    1218.2924  0.029790014  0.029209497            4 
 3409000   0.68322631   -6.0434434    1219.2633  0.029805009  0.029201283            9 
 3410000   0.70853081   -6.0247479    1219.7966  0.029809301  0.029193019           13 
 3411000   0.71837931   -6.0541882    1216.1816  0.029712245  0.029184774           14 
 3412000   0.69194459    -6.018074    1219.1161  0.029775208  0.029176565           24 
 3413000   0.72149267   -6.0031726    1219.7216  0.029781268  0.029168397            8 
 3414000   0.69601863   -6.0502387    1215.6422   0.02967297  0.029160242           10 
 3415000   0.70877024   -6.0422264    1218.7033  0.029738978   0.02915204           12 
 3416000   0.70585113   -6.0481154    1220.1445  0.029765429  0.029143843           12 
 3417000   0.71296616   -6.0386057    1216.8716    0.0296769  0.029135659            4 
 3418000   0.71136348   -6.0162912    1220.2343  0.029750203  0.029127476           12 
 3419000   0.71544247   -6.0640492    1220.0978  0.029738175  0.029119294            8 
 3420000   0.70104374   -6.0505861     1216.083  0.029631651  0.029111112           15 
 3421000    0.7127795     -6.04141    1220.3423  0.029726745  0.029102926           14 
 3422000   0.70096654   -6.0615528    1219.3584  0.029694097  0.029094697           10 
 3423000    0.6998348   -6.0284849    1218.6253  0.029667575  0.029086495           10 
 3424000   0.68818995   -6.0682833    1215.8372  0.029591053  0.029078309           24 
 3425000   0.69206981   -6.0429642    1224.2705  0.029787605  0.029070133            9 
 3426000   0.69269717   -6.0347165    1216.6102  0.029592582  0.029062007            9 
 3427000   0.71149432    -6.020947    1217.9389  0.029616255  0.029053814            7 
 3428000   0.71594377   -6.0568612    1218.6417  0.029624701  0.029045675           10 
 3429000   0.69995295   -6.0512838    1220.7007  0.029666102  0.029037489            7 
 3430000   0.70531747   -6.0585882    1220.6426  0.029656041  0.029029254           17 
 3431000   0.69893022    -6.061015    1216.5961  0.029549113  0.029021018           11 
 3432000    0.7118416    -6.059957    1216.8362  0.029546334  0.029012803           15 
 3433000   0.70625946   -6.0583623     1215.315  0.029500802    0.0290046            8 
 3434000   0.70904745   -6.0508544    1218.3833  0.029566669  0.028996403           13 
 3435000   0.69465421   -6.0330544    1216.4434     0.029511  0.028988195           16 
 3436000    0.7191531    -6.056657    1217.3404  0.029524165  0.028979987            7 
 3437000   0.69702246    -6.041675     1219.587  0.029570048  0.028971781            7 
 3438000   0.71134884   -6.0122629    1221.4971  0.029607744  0.028963616            7 
 3439000   0.69331669    -6.055948    1218.8231  0.029534339  0.028955427           23 
 3440000   0.70148622   -6.0884397    1218.8885  0.029527337  0.028947211            8 
 3441000   0.69250855    -6.051743    1222.6718  0.029610381  0.028939012           11 
 3442000   0.70791383   -6.0666201    1221.0942  0.029563583  0.028930862           11 
 3443000   0.70805268   -6.0421632     1216.559  0.029445228  0.028922725            7 
 3444000   0.69315152   -6.0395277    1219.9239  0.029518096  0.028914609            7 
 3445000   0.70301331   -6.0781395    1219.9135  0.029509276  0.028906459           16 
 3446000   0.71204128   -6.0627127    1221.6219  0.029542026  0.028898321           14 
 3447000   0.68804326   -6.0381553    1221.5206  0.029531008  0.028890179            9 
 3448000   0.68167102    -6.044067    1218.6088  0.029452068  0.028882055           21 
 3449000   0.70025227   -6.0826126    1218.2444  0.029434725   0.02887394            5 
 3450000   0.70294554   -6.0380175    1223.8448  0.029561468  0.028865874            6 
 3451000   0.68483915   -6.0637965     1220.405  0.029469839  0.028857806            8 
 3452000   0.71334555   -6.0378658    1221.8085  0.029495185   0.02884972            7 
 3453000   0.70690645    -6.059001    1219.8406  0.029439149  0.028841632            8 
 3454000   0.69932065   -6.0599474    1221.7007  0.029475505  0.028833531            8 
 3455000   0.69311229   -6.0474344     1223.698  0.029515147  0.028825443           15 
 3456000   0.70462677   -6.0501583    1220.0197  0.029417913  0.028817352            5 
 3457000   0.69406791    -6.091636    1221.7064  0.029450063  0.028809221           18 
 3458000   0.68214828   -6.0913206    1222.1231  0.029451588  0.028801115            8 
 3459000   0.69946726   -6.0464733     1220.216  0.029397129  0.028793021            7 
 3460000   0.68987061    -6.066027    1220.3057  0.029390793  0.028784901           14 
 3461000    0.6985212    -6.083729    1219.5634  0.029364428  0.028776802           20 
 3462000   0.69170287   -6.0750991    1223.4437  0.029449348  0.028768703           10 
 3463000   0.70682446   -6.0341427    1222.6721  0.029422275  0.028760619            7 
 3464000   0.68424951   -6.0429974    1225.1814  0.029474148  0.028752575           10 
 3465000   0.70840615   -6.0448851    1224.2989  0.029444418  0.028744534            7 
 3466000    0.6767819   -6.0513292    1222.4116  0.029390547   0.02873647            9 
 3467000      0.69387   -6.0593179    1222.4246   0.02938238  0.028728394           13 
 3468000   0.70483389   -6.0541619    1223.1057  0.029390275  0.028720299           17 
 3469000   0.69260939   -6.0669863    1217.7841  0.029253965  0.028712184            9 
 3470000   0.70203135   -6.0693699     1220.481  0.029310303  0.028704096            6 
 3471000   0.68575219   -6.0670819     1219.451  0.029277131  0.028695975           11 
 3472000   0.69989127   -6.0841959    1220.2305  0.029287406  0.028687876            9 
 3473000   0.70838553   -6.0600936    1219.1824  0.029253825  0.028679805            6 
 3474000   0.68800052   -6.0651457    1221.1545  0.029292711  0.028671761           10 
 3475000   0.68561886   -6.0741463    1220.3554  0.029265118  0.028663689           11 
 3476000   0.70179954   -6.0486236    1223.9845  0.029343703  0.028655587           12 
 3477000   0.68991291   -6.0645342    1220.9655  0.029262906  0.028647558            8 
 3478000   0.69845461    -6.062173    1222.8115  0.029298723  0.028639509            7 
 3479000   0.69005978   -6.0414073    1220.8455   0.02924321  0.028631441           13 
 3480000   0.69499023   -6.0608998     1222.278  0.029269109  0.028623357            9 
 3481000    0.7024069   -6.0650231     1222.794  0.029273054  0.028615283           11 
 3482000   0.70231827   -6.0526711    1220.6744  0.029213919  0.028607191           12 
 3483000   0.71924482   -6.0778171    1222.1564  0.029240989  0.028599127            9 
 3484000   0.68053407   -6.0425579     1221.543  0.029217924   0.02859105           11 
 3485000    0.6951864   -6.0726897    1220.2919  0.029179625  0.028582969            9 
 3486000   0.70320871   -6.0828633    1223.6771  0.029252177  0.028574871           12 
 3487000   0.69439482   -6.0798126    1222.3408  0.029211853  0.028566795           12 
 3488000    0.6937183   -6.0585127    1223.4086  0.029228989  0.028558708           12 
 3489000   0.69830213   -6.1071771    1220.1713  0.029143292  0.028550588           22 
 3490000   0.70217869   -6.0799691    1221.1337  0.029157919  0.028542461            6 
 3491000    0.7019404   -6.0599537    1223.5083  0.029206251  0.028534335            5 
 3492000   0.67841717   -6.0571074    1222.8149   0.02918134  0.028526217           10 
 3493000   0.68400601   -6.0634774    1223.3645  0.029186099  0.028518137           10 
 3494000   0.69624845   -6.0861193    1221.7617  0.029139517   0.02851003            8 
 3495000   0.70340337    -6.095303    1221.4184  0.029122995  0.028501909           22 
 3496000   0.69455863   -6.0684458     1223.789  0.029171172  0.028493821            9 
 3497000   0.69340903   -6.0636871    1224.4339  0.029178198  0.028485781           15 
 3498000   0.69049597    -6.083179    1223.3201  0.029143323  0.028477773           19 
 3499000   0.68288147   -6.0560984    1223.8778  0.029148275  0.028469721           10 
 3500000   0.68173913   -6.0668871    1222.9716  0.029118372  0.028461712            8 
 3501000   0.69734562   -6.0877044    1221.5472  0.029076149  0.028453685            7 
 3502000   0.68893416    -6.071081    1224.3361  0.029134213  0.028445661           15 
 3503000   0.68929407    -6.078606    1220.8973  0.029044088  0.028437623           12 
 3504000   0.68709365   -6.0886401    1223.4321  0.029096082  0.028429566            8 
 3505000    0.6958588   -6.0854165    1224.0568  0.029102633  0.028421469            5 
 3506000   0.69456058   -6.0933334    1222.0385  0.029046361  0.028413362           10 
 3507000   0.69847208   -6.0761676    1222.5614  0.029050505  0.028405272           11 
 3508000   0.69948978   -6.1004266    1220.5424   0.02899426  0.028397132           20 
 3509000   0.69384749   -6.0918861    1223.9186  0.029066177  0.028389016            7 
 3510000   0.68264736   -6.0746921    1218.2303  0.028922847  0.028380919            9 
 3511000    0.6966077   -6.0746706    1224.0422  0.029052553  0.028372838           10 
 3512000   0.69260481   -6.0720084    1221.8353  0.028991916   0.02836474            7 
 3513000   0.69711771   -6.0720392    1223.5607  0.029024592  0.028356675           15 
 3514000   0.69342298   -6.0652234     1224.562  0.029040077  0.028348623            8 
 3515000   0.69427204   -6.0875269    1224.4398  0.029028919  0.028340566           22 
 3516000   0.69954447   -6.0715235     1225.984  0.029057262  0.028332542           16 
 3517000   0.68831172   -6.0561712    1222.2408  0.028960308  0.028324506           21 
 3518000   0.69666936   -6.0864428    1222.5001  0.028958217  0.028316463           15 
 3519000   0.68422427     -6.08677    1225.6762  0.029025201  0.028308422            6 
 3520000   0.68072713   -6.0914096     1219.702  0.028875522  0.028300332           14 
 3521000   0.67454185   -6.0830833    1225.7105  0.029009526  0.028292204            6 
 3522000   0.69235842   -6.0781999    1221.3344  0.028897748  0.028284185           10 
 3523000   0.66703455   -6.0672471    1222.1593  0.028909058   0.02827612            6 
 3524000   0.68937517   -6.0745273      1222.13  0.028900161  0.028268052            7 
 3525000   0.67586725   -6.1038636    1220.5432   0.02885445  0.028260001           13 
 3526000   0.69165886   -6.0903987    1220.9553  0.028856006  0.028251984           11 
 3527000   0.69150047   -6.0807659    1224.7943  0.028938528  0.028243941           11 
 3528000   0.68241185   -6.0977854    1220.4742  0.028828283  0.028235895           10 
 3529000   0.68600718   -6.0802906    1223.6418  0.028894914  0.028227838            6 
 3530000   0.68129055   -6.1012538    1219.2138  0.028782195  0.028219804            6 
 3531000   0.69205099   -6.0935795    1219.3401  0.028777025  0.028211755           15 
 3532000   0.67947835   -6.0891603    1222.4182  0.028841501  0.028203729            9 
 3533000   0.68694709   -6.0962411    1223.7419  0.028864561  0.028195722           10 
 3534000   0.68634161   -6.0996677    1221.1992  0.028796435  0.028187723            8 
 3535000   0.67921466   -6.0635245    1226.2132  0.028906487  0.028179753           16 
 3536000    0.6800388   -6.0940046    1225.0614  0.028871169   0.02817174           31 
 3537000   0.67466518   -6.0949639    1224.4248  0.028848006  0.028163761           31 
 3538000   0.67860917   -6.1113209    1223.3468  0.028814463  0.028155782           16 
 3539000   0.68861675    -6.091928     1224.667  0.028837406  0.028147726           16 
 3540000   0.68888544   -6.0893637     1223.496  0.028801695  0.028139732           11 
 3541000    0.6633747   -6.1140145     1224.409  0.028815049  0.028131742           16 
 3542000   0.68314109   -6.1236659    1222.6075  0.028764528   0.02812371            9 
 3543000   0.68814145   -6.1137702    1222.2325  0.028747589  0.028115663           13 
 3544000   0.67767753   -6.0965175    1222.3644  0.028742579  0.028107628           13 
 3545000   0.67793789   -6.0998816    1223.3291  0.028757149  0.028099583           10 
 3546000   0.67477678   -6.0972294    1223.2721  0.028747698  0.028091572            9 
 3547000   0.67821496   -6.0818144    1225.8575  0.028800336  0.028083589            8 
 3548000   0.68403324   -6.1084622    1225.5789  0.028785675  0.028075577            7 
 3549000   0.68185994   -6.1070765    1223.3778  0.028725879  0.028067578            7 
 3550000   0.69933286   -6.1104803    1225.3065  0.028763062  0.028059561           14 
 3551000   0.68286117   -6.0872801    1222.9143  0.028698824  0.028051575            8 
 3552000    0.6810208    -6.112314     1224.775  0.028734397   0.02804356            9 
 3553000   0.67378998   -6.0988064    1224.1289  0.028711156  0.028035512           15 
 3554000   0.70191552   -6.0945708    1224.0446  0.028701102  0.028027503           17 
 3555000    0.6778405   -6.1156687    1223.4894  0.028680015  0.028019514           14 
 3556000   0.68523725   -6.1097527    1222.8702  0.028657439  0.028011509           11 
 3557000   0.70140113   -6.1206405    1224.3747   0.02868463  0.028003511            7 
 3558000   0.68094349   -6.1322565    1221.9351  0.028619428   0.02799546           14 
 3559000   0.70223729   -6.1037405    1223.1004  0.028638671  0.027987388           11 
 3560000   0.68058223   -6.1046503    1222.9421  0.028626923  0.027979395           15 
 3561000   0.67498414   -6.1557772    1218.9806  0.028526178  0.027971384           23 
 3562000   0.68853792   -6.1003109    1226.9709  0.028705102   0.02796334           35 
 3563000   0.67352218   -6.1272959    1220.6973  0.028550316  0.027955323           13 
 3564000   0.67231442   -6.1041013    1225.0556  0.028644211  0.027947329            9 
 3565000   0.68390223   -6.0908806    1226.0523  0.028659475  0.027939349           16 
 3566000    0.6730613   -6.1145239    1225.0199  0.028627312  0.027931374            8 
 3567000   0.67131247   -6.1060016    1224.5006  0.028607154  0.027923391           13 
 3568000    0.6909044   -6.1076561    1224.4828   0.02859872  0.027915382            7 
 3569000   0.68610803   -6.0988954    1224.8469  0.028599208  0.027907386           12 
 3570000   0.66759986   -6.1239303    1223.6249  0.028562673  0.027899402           31 
 3571000   0.68186354   -6.1213408    1223.5266   0.02855238  0.027891371           10 
 3572000   0.68140141   -6.1189321    1220.8515  0.028481977  0.027883391           11 
 3573000   0.66644229   -6.1003484     1224.744  0.028564791  0.027875439           16 
 3574000   0.67064834   -6.1187141     1225.164  0.028566592  0.027867471           26 
 3575000   0.68008475   -6.1032511     1225.414  0.028564429  0.027859534           14 
 3576000   0.69530077   -6.0872993    1226.3416  0.028578057  0.027851649            8 
 3577000   0.64925726   -6.0778768    1228.5283  0.028621011  0.027843752           15 
 3578000   0.67566571   -6.0825464    1227.0636  0.028578898  0.027835882           19 
 3579000   0.68463982   -6.0991753    1227.2069   0.02857425  0.027827973           16 
 3580000   0.68162162    -6.120563    1223.1305   0.02847138  0.027820036           10 
 3581000   0.69031256   -6.1203402     1225.649  0.028522038  0.027812089            8 
 3582000   0.68401897   -6.1284733    1226.5041  0.028533968  0.027804132           10 
 3583000   0.67569083   -6.0782659    1225.3129  0.028498299  0.027796172            6 
 3584000   0.68247448   -6.1004127    1224.5405   0.02847239  0.027788229           16 
 3585000    0.6758739   -6.1145677    1224.1934  0.028456378  0.027780295           25 
 3586000   0.67598919    -6.121494    1223.6732  0.028436355  0.027772299           12 
 3587000   0.68573083   -6.1071788    1227.7749  0.028523718  0.027764295           17 
 3588000   0.67262876   -6.1092712    1223.0255  0.028405461  0.027756302            7 
 3589000   0.67801195   -6.1379404    1223.0807  0.028398827  0.027748303           13 
 3590000   0.65735185   -6.0988233     1221.524  0.028354783  0.027740308            9 
 3591000   0.66687554   -6.1510317      1222.52  0.028369998   0.02773229            8 
 3592000   0.66430355   -6.1117481    1222.8284  0.028369257  0.027724258            9 
 3593000   0.66502966   -6.1212177    1222.1229  0.028344997  0.027716263            8 
 3594000    0.6741493   -6.1282371    1222.0366   0.02833511  0.027708253            6 
 3595000   0.67414424   -6.1343503    1222.5782  0.028339782  0.027700247           13 
 3596000   0.67913123    -6.130471    1222.7018  0.028334764  0.027692261           18 
 3597000   0.66835869     -6.12241    1223.4915  0.028345182  0.027684284           19 
 3598000   0.68257654   -6.1216874    1225.2955  0.028379087  0.027676286           13 
 3599000   0.69122969    -6.137363    1224.3182  0.028348575  0.027668323            8 
 3600000   0.67567011   -6.1302012    1222.9013  0.028307901   0.02766037            9 
 3601000   0.66782251   -6.1279364    1223.4882  0.028313622  0.027652456           10 
 3602000   0.65480483   -6.1338655    1225.0153   0.02834109  0.027644523           15 
 3603000   0.66458331    -6.135337    1223.9454   0.02830848  0.027636592           31 
 3604000   0.67192484   -6.1322942    1225.0972  0.028327256  0.027628664            7 
 3605000   0.67274892   -6.1231299    1223.0118  0.028271194  0.027620724           40 
 3606000   0.67837042   -6.1176417    1222.1334  0.028243054  0.027612783           10 
 3607000   0.68675537   -6.1296065    1222.9791  0.028254761  0.027604805            9 
 3608000   0.68719658   -6.1230087    1225.6584  0.028308814   0.02759689           10 
 3609000   0.67559504   -6.1409527    1226.0092   0.02830907  0.027588942           25 
 3610000   0.67354398   -6.1218129    1225.1372  0.028281099  0.027581014           21 
 3611000   0.67875034   -6.1546519    1225.4287  0.028279993  0.027573099           23 
 3612000   0.67189761   -6.1430349     1222.104  0.028195459  0.027565152           19 
 3613000   0.68095968   -6.1508321    1220.0535  0.028140361  0.027557198           10 
 3614000   0.67546472   -6.1541777    1226.0434  0.028270693  0.027549282           22 
 3615000   0.68953889   -6.1105754    1226.7932  0.028280157  0.027541378           26 
 3616000   0.68527125   -6.1553325    1222.1537  0.028165416  0.027533445           11 
 3617000   0.66664572   -6.1266033    1222.9346   0.02817562  0.027525482           29 
 3618000   0.67079411   -6.1533388    1224.0024  0.028192427  0.027517542           25 
 3619000   0.66885229   -6.1346517    1226.4874  0.028241857  0.027509579           17 
 3620000   0.67000647   -6.1421496    1225.0275  0.028200448  0.027501634           54 
 3621000     0.672173   -6.1234145    1224.8687  0.028189006  0.027493662           23 
 3622000   0.65070839   -6.1352263    1225.8083  0.028202842  0.027485742           27 
 3623000   0.67114375   -6.1222937    1227.2379  0.028227939  0.027477814           12 
 3624000   0.67092183   -6.1627982    1222.8648  0.028119591  0.027469866           18 
 3625000    0.6930519   -6.1472487    1222.4595  0.028102518  0.027461874           15 
 3626000   0.68655566   -6.1586406    1226.3035   0.02818311  0.027453903           13 
 3627000   0.67225412   -6.1385467    1227.0373    0.0281922  0.027445949           17 
 3628000   0.67048434   -6.1183649    1226.7007  0.028176696  0.027438002            9 
 3629000   0.67152695   -6.1455083    1223.8872  0.028104327   0.02743005           25 
 3630000    0.6746685    -6.134454     1223.364  0.028084573  0.027422088           17 
 3631000   0.66626548   -6.1295209    1225.1803  0.028118524  0.027414088           11 
 3632000   0.67554938   -6.1324531    1224.9856  0.028106314  0.027406131           20 
 3633000   0.67686308   -6.1304563    1222.1181  0.028032803  0.027398178            8 
 3634000   0.67732167   -6.1478048    1223.2568  0.028051201  0.027390181           20 
 3635000   0.66129209    -6.139609    1220.7471   0.02798595  0.027382196           16 
 3636000   0.67269949    -6.132219    1224.6089  0.028066761    0.0273742           48 
 3637000    0.6672254   -6.1302319    1223.9209   0.02804328  0.027366209           17 
 3638000   0.67192129   -6.1467756     1224.798  0.028055661  0.027358223           18 
 3639000     0.657282   -6.1298735    1225.4703  0.028063348   0.02735026           11 
 3640000   0.66661833   -6.1137813    1223.9599  0.028021061  0.027342313            7 
 3641000   0.67449526   -6.1394437    1222.5752  0.027981672  0.027334345           12 
 3642000   0.67573284   -6.1094766    1223.8589   0.02800336  0.027326357           11 
 3643000   0.68066468   -6.1350358    1222.5542  0.027965829  0.027318428           18 
 3644000   0.67767996   -6.1267254    1226.0452   0.02803799  0.027310475           15 
 3645000   0.67156113   -6.1076739     1224.154  0.027987059  0.027302501           35 
 3646000   0.67866711   -6.1512471    1222.7895  0.027948198  0.027294521           34 
 3647000   0.66619528    -6.142993    1223.0203  0.027945807  0.027286516           24 
 3648000   0.66638629   -6.1448203    1225.5497  0.027995928  0.027278557            8 
 3649000   0.67038222   -6.1237055    1225.3173  0.027982947   0.02727061           15 
 3650000   0.67419316   -6.1147748    1225.2144  0.027972931    0.0272627           13 
 3651000   0.67261074   -6.1256831    1222.2533  0.027897684  0.027254758            9 
 3652000   0.67322021   -6.1468369    1221.2823  0.027867888  0.027246786           14 
 3653000   0.66643468   -6.1046308    1225.6302  0.027959443  0.027238852           16 
 3654000   0.67805288   -6.1104119     1228.026  0.028006431  0.027230952           13 
 3655000   0.66102228   -6.1259847    1223.8742  0.027904108   0.02722306           15 
 3656000   0.66111368   -6.1274996    1225.3497  0.027930107  0.027215156           22 
 3657000   0.66357391   -6.1198187    1223.8965  0.027889355  0.027207212           14 
 3658000   0.67501928   -6.1355664     1223.371   0.02786976  0.027199264           11 
 3659000   0.66804267   -6.1408876    1228.1316  0.027970565  0.027191316            6 
 3660000   0.67653501   -6.1340698     1224.228  0.027874043  0.027183379           14 
 3661000   0.67335487   -6.1631023    1223.6507  0.027853289  0.027175457           11 
 3662000   0.67233004   -6.1381254       1224.2  0.027858183  0.027167526            9 
 3663000   0.67126486   -6.1695723    1223.3097  0.027830325  0.027159588           19 
 3664000   0.65221914   -6.1572168     1223.126  0.027818549  0.027151646           19 
 3665000   0.67123453    -6.148362    1223.9349  0.027829351  0.027143695           20 
 3666000   0.67580825   -6.1161473    1229.1329  0.027939919  0.027135775           11 
 3667000   0.67312009   -6.1325382    1226.4598  0.027871552  0.027127879           11 
 3668000   0.67422157   -6.1399635    1226.3781  0.027862099  0.027120016           14 
 3669000   0.68470495   -6.1242145     1227.259  0.027874511  0.027112149            9 
 3670000   0.66508079   -6.1782238    1225.8554  0.027835046  0.027104231            8 
 3671000   0.66528803   -6.1802493     1224.106   0.02778775  0.027096299           12 
 3672000   0.66468579   -6.1635366    1225.4112  0.027809804  0.027088421           12 
 3673000   0.64666961   -6.1352184    1228.0814  0.027862815  0.027080555            7 
 3674000   0.67089623   -6.1637245    1224.8165  0.027781176  0.027072699           25 
 3675000    0.6481684   -6.1513089    1223.9239  0.027753377  0.027064859           16 
 3676000   0.65687463   -6.1544699    1223.6361  0.027739302  0.027057001           29 
 3677000   0.66864752   -6.1263797    1228.7983  0.027848751  0.027049138            6 
 3678000   0.66326595    -6.138512    1228.1094  0.027825572   0.02704128           14 
 3679000   0.65926993   -6.1527602    1224.7586  0.027742108  0.027033443           16 
 3680000   0.66169618   -6.1631068    1226.3337  0.027770238  0.027025526           20 
 3681000   0.66185208   -6.1655791    1224.8649  0.027729442  0.027017643           24 
 3682000   0.66257009   -6.1697759    1228.2251   0.02779796  0.027009721           20 
 3683000    0.6670976   -6.1456559    1226.7019  0.027755948  0.027001818           30 
 3684000   0.66248723   -6.1691305    1224.8916  0.027707465  0.026993897           24 
 3685000   0.63754501   -6.1671075    1226.5619  0.027737717  0.026985978           23 
 3686000   0.67519094   -6.1618953    1228.0945  0.027764843  0.026978116           16 
 3687000   0.65059578   -6.1411486    1227.1634  0.027736266  0.026970248           12 
 3688000   0.67404084   -6.1686222    1225.5849   0.02769308  0.026962367           52 
 3689000   0.67686368   -6.1539812     1223.605  0.027640848  0.026954474           23 
 3690000   0.68039166   -6.1589708     1222.986  0.027619378  0.026946616           12 
 3691000   0.66276865   -6.1753487    1225.0983  0.027659583  0.026938741           11 
 3692000    0.6647471   -6.1679426    1224.7829  0.027644974  0.026930844            9 
 3693000   0.65797476   -6.1821514    1225.5652  0.027655141  0.026922985            9 
 3694000   0.66708841   -6.1568094    1224.5116  0.027623886  0.026915102           12 
 3695000   0.66691888   -6.1606358    1226.4698  0.027660572   0.02690722           17 
 3696000   0.66997484   -6.1839274    1226.9217  0.027663278  0.026899342           13 
 3697000   0.64983227   -6.1851519    1227.3655  0.027665798  0.026891479           15 
 3698000   0.65345235   -6.1591777     1227.278  0.027656347  0.026883607           12 
 3699000   0.65846024   -6.1734269    1224.3313  0.027582484  0.026875783           10 
 3700000   0.64615049   -6.1742753    1227.7118  0.027651168  0.026867917           35 
 3701000   0.66735871   -6.1667281    1226.6047  0.027618766   0.02686006           10 
 3702000   0.65745488   -6.1526894    1225.3384  0.027582801  0.026852158           29 
 3703000   0.65506237   -6.1745502    1223.5019  0.027534023  0.026844296           10 
 3704000   0.65933772   -6.1695268    1225.6052  0.027573911  0.026836441           15 
 3705000   0.63907974   -6.1832017    1225.1084  0.027555295   0.02682855           17 
 3706000   0.65014512   -6.1758214    1222.9689   0.02749975   0.02682068           23 
 3707000   0.66415429   -6.1669458    1223.4416  0.027502959  0.026812764           19 
 3708000   0.67175349   -6.2001784    1221.8664   0.02746014  0.026804828           12 
 3709000   0.65470065    -6.153022    1224.6573  0.027515442  0.026796919           21 
 3710000   0.65098311   -6.1689491    1225.5849  0.027528861  0.026788989           30 
 3711000    0.6474447   -6.1605974    1223.4723  0.027474003  0.026781095           13 
 3712000   0.67009841   -6.1674087    1225.2807    0.0275072  0.026773232           14 
 3713000   0.65275793   -6.1650526    1228.3372   0.02756839  0.026765388            9 
 3714000   0.65436671   -6.1646314     1226.035  0.027509312  0.026757539           11 
 3715000   0.65346474   -6.1765502    1223.9504  0.027455146  0.026749695           10 
 3716000   0.65243377   -6.1758885    1222.9709  0.027425792  0.026741838           18 
 3717000    0.6615589   -6.1835255     1226.297  0.027492982  0.026733975           20 
 3718000   0.66639788   -6.1772084    1224.3214  0.027441309  0.026726082           10 
 3719000   0.65856722   -6.1883688    1222.1759  0.027385854  0.026718195           14 
 3720000   0.66758614   -6.1649072    1225.4985  0.027452923  0.026710351           14 
 3721000   0.65520155   -6.1876652    1227.4746  0.027489801  0.026702503           21 
 3722000   0.66535193   -6.1692084    1224.8885  0.027424515  0.026694657           18 
 3723000   0.66220277   -6.1629494    1225.1746  0.027423551  0.026686845           16 
 3724000   0.66010378   -6.1750257    1227.0553  0.027458272  0.026679008           14 
 3725000   0.66313944   -6.1575736    1223.8086  0.027378268  0.026671162           19 
 3726000   0.65459749   -6.1800095     1224.599  0.027388598  0.026663306            8 
 3727000   0.65092031   -6.1763345    1227.5775  0.027447847  0.026655452           13 
 3728000    0.6624194   -6.1785747    1227.9689  0.027449234  0.026647616            9 
 3729000   0.63877446   -6.1869116    1225.5143  0.027387018  0.026639773           14 
 3730000   0.65844697   -6.1781652     1225.524  0.027379892  0.026631938           24 
 3731000   0.65528221   -6.2006362    1224.0615   0.02733989  0.026624122           15 
 3732000   0.64606033   -6.1866664     1225.248  0.027359058  0.026616272           23 
 3733000   0.66298385   -6.1894107    1225.1106  0.027348661  0.026608451           20 
 3734000   0.65909204   -6.1739128    1227.7755  0.027400811  0.026600628           27 
 3735000   0.65231124   -6.1713789    1227.5496  0.027388434  0.026592851           16 
 3736000   0.65293536   -6.1639665    1227.1543  0.027372285  0.026585036           13 
 3737000   0.65126587   -6.1815013    1224.1942  0.027298951  0.026577235           10 
 3738000    0.6459832   -6.1959532    1227.9234  0.027374787  0.026569414           10 
 3739000   0.64915444   -6.1845246    1225.2834  0.027308625  0.026561588            8 
 3740000   0.65137875   -6.1665794    1226.9071  0.027337503   0.02655376           10 
 3741000   0.67323385   -6.2130161    1226.1798  0.027313993  0.026545966           16 
 3742000   0.65483805   -6.1838463    1226.6126  0.027316332  0.026538124           12 
 3743000   0.65338269   -6.1661641     1228.225  0.027344934  0.026530312            9 
 3744000   0.65537879   -6.1647274    1228.5306  0.027344431  0.026522516           14 
 3745000   0.65542993   -6.1959047    1221.7839  0.027187003  0.026514712           18 
 3746000   0.67024083   -6.1956852    1222.7903  0.027202134  0.026506855           31 
 3747000   0.64320995    -6.167064    1229.7275  0.027349157  0.026499034           24 
 3748000   0.63955264   -6.2005185    1224.7926  0.027232136  0.026491209           22 
 3749000   0.67091104   -6.2071105    1225.9159  0.027249841  0.026483387           15 
 3750000   0.63629813   -6.1826707    1225.6221  0.027236047  0.026475572           27 
 3751000   0.63873884   -6.1917805    1226.7015  0.027252765  0.026467789           47 
 3752000   0.64120042   -6.1942293    1226.6927  0.027245307      0.02646            8 
 3753000   0.64824738   -6.1889639    1225.2337   0.02720565    0.0264522            8 
 3754000   0.64118444   -6.1999563    1223.3648  0.027156916  0.026444392           17 
 3755000   0.64524716   -6.1936946    1224.7998  0.027181532  0.026436575           18 
 3756000   0.65281749   -6.1546795    1228.9412  0.027266178  0.026428794           13 
 3757000   0.65182902   -6.1930263    1224.5719  0.027162007  0.026420996           21 
 3758000   0.65476227   -6.1748648    1224.4366  0.027151778  0.026413205           29 
 3759000   0.65630361   -6.1705892    1227.3541  0.027209232  0.026405407           28 
 3760000   0.65423008   -6.1778574    1228.0226  0.027216813  0.026397621           40 
 3761000   0.65715776   -6.1898448    1225.7055  0.027158236  0.026389833           33 
 3762000   0.63677977   -6.1715381    1226.6775  0.027172547  0.026382039           19 
 3763000   0.65728604   -6.1959292    1225.5059  0.027139382  0.026374235           22 
 3764000   0.65668649   -6.1835646    1222.7287  0.027070686  0.026366422           24 
 3765000   0.65656613   -6.1933446    1227.1098  0.027160464  0.026358559           12 
 3766000   0.64108553   -6.1990271    1224.7626  0.027101314  0.026350754           23 
 3767000   0.64537533   -6.1899073    1226.5085  0.027132743  0.026342933           14 
 3768000   0.64473303   -6.2152017    1225.4768  0.027102725  0.026335119           13 
 3769000   0.65396512   -6.1817715    1225.5769  0.027097747  0.026327316           18 
 3770000   0.64223381   -6.2165142    1223.6637  0.027048269  0.026319518           28 
 3771000   0.64554882   -6.1686419    1222.3936   0.02701303  0.026311728           22 
 3772000    0.6520884   -6.1826703    1223.0923  0.027021305  0.026303894           25 
 3773000   0.65030119   -6.1995248    1224.3478  0.027041873  0.026296083           17 
 3774000   0.64980552   -6.2127438    1222.8558  0.027001762  0.026288234           14 
 3775000   0.65849588   -6.2127447    1222.8815  0.026995177  0.026280372           24 
 3776000   0.66774332   -6.1906587    1222.7625  0.026985401  0.026272538            7 
 3777000    0.6461532    -6.163951    1224.3935  0.027014243  0.026264684           18 
 3778000   0.65286206   -6.1858469    1221.9315  0.026952786  0.026256856           20 
 3779000   0.64318042   -6.1963108    1222.6012  0.026960421  0.026249027           30 
 3780000   0.64455045   -6.2030301    1223.1686  0.026965798  0.026241184           37 
 3781000     0.644998   -6.2176076    1225.6126  0.027012533  0.026233339           60 
 3782000   0.65706805   -6.1767161    1224.5213  0.026981344  0.026225543           29 
 3783000   0.63563564   -6.1902054    1224.0285  0.026963356  0.026217737           37 
 3784000   0.65193759   -6.1657053    1225.8194  0.026995669   0.02620994           14 
 3785000   0.64366098   -6.2217946    1223.6827  0.026941496  0.026202119           54 
 3786000   0.64167531   -6.2141206    1221.6021  0.026888583  0.026194274           44 
 3787000   0.64599941   -6.2113497    1225.7906   0.02697365   0.02618644           22 
 3788000   0.63771313    -6.217217    1222.4459  0.026892948  0.026178589           53 
 3789000    0.6413118   -6.2148955    1221.4699  0.026864386  0.026170747           31 
 3790000   0.65611318   -6.2006011    1224.3393  0.026920388  0.026162922           51 
 3791000   0.64246148   -6.2151112    1222.4152  0.026870993  0.026155091           55 
 3792000    0.6444895   -6.1973145    1227.3409  0.026972154  0.026147306           18 
 3793000   0.65878772   -6.2056795    1224.3725  0.026899826   0.02613953           25 
 3794000   0.63855667   -6.1979675    1224.0984  0.026886717  0.026131733           29 
 3795000   0.63805138   -6.2075997     1222.692  0.026848748  0.026123951           32 
 3796000   0.64645583   -6.2021741    1225.2672  0.026898208  0.026116167           23 
 3797000   0.62872438   -6.1883524    1227.8385  0.026947557  0.026108385           22 
 3798000   0.65487311   -6.1923393    1223.6215  0.026847936  0.026100604           11 
 3799000   0.64935197   -6.2279234    1221.8621  0.026802275  0.026092753           22 
 3800000   0.64761569   -6.1847768    1227.7192  0.026923667  0.026084983           20 
 3801000   0.63900934   -6.1945604     1226.023  0.026879396  0.026077232           28 
 3802000   0.64190033   -6.1989518    1223.6713  0.026820782  0.026069454           26 
 3803000   0.64392511   -6.1956853    1224.6104  0.026834307  0.026061685           35 
 3804000   0.63590871   -6.1986684    1223.1506  0.026795273  0.026053908           38 
 3805000    0.6417751   -6.2028342    1224.3182  0.026813802  0.026046127           14 
 3806000   0.64254554   -6.1960276    1225.8205  0.026839651  0.026038324           18 
 3807000   0.63621837   -6.2026347    1223.1941   0.02677511  0.026030558           28 
 3808000   0.66336081   -6.1996754    1226.0366  0.026830283  0.026022778           10 
 3809000     0.626497   -6.1864975    1224.7112  0.026794243  0.026015026            8 
 3810000   0.64188016   -6.1679234    1224.8374  0.026789968  0.026007303           19 
 3811000   0.64875214   -6.1846608    1228.5778   0.02686473    0.0259996           20 
 3812000   0.63262777   -6.2139103    1225.7377  0.026795596  0.025991893           30 
 3813000    0.6400022   -6.1981759    1226.8191  0.026812201   0.02598416           18 
 3814000   0.64108506   -6.2137506    1228.4577  0.026840974   0.02597641           18 
 3815000   0.63482991   -6.2148472    1225.0886  0.026760345  0.025968659           11 
 3816000   0.65148642   -6.2094455    1224.3504  0.026737213  0.025960929           24 
 3817000   0.63764748   -6.1993934    1226.8033   0.02678376   0.02595324           12 
 3818000   0.64483832   -6.2082302    1226.0905  0.026761187  0.025945517           15 
 3819000    0.6410215    -6.222375    1225.3934  0.026738968  0.025937787           17 
 3820000   0.64197512   -6.2011688    1228.0907  0.026790809  0.025930063           26 
 3821000   0.63386859   -6.1831142    1224.6662  0.026709111  0.025922355           16 
 3822000    0.6462391   -6.2249716    1226.0257  0.026731765  0.025914615           31 
 3823000   0.64771456   -6.2209412    1224.2337  0.026685711  0.025906855           21 
 3824000   0.62614065   -6.2232622    1224.3817  0.026681958  0.025899082           20 
 3825000   0.64556096   -6.2213769    1225.7935  0.026705741   0.02589134           25 
 3826000   0.64314961   -6.1951491    1225.9944  0.026703136  0.025883613           12 
 3827000   0.64474598   -6.2148259    1224.3714  0.026660818   0.02587588           14 
 3828000   0.63813002   -6.1941537    1224.0478  0.026646808  0.025868181           11 
 3829000   0.64628846   -6.2211318    1223.4054  0.026625868  0.025860438           13 
 3830000   0.63267207   -6.2164152    1223.8189  0.026627914  0.025852679           23 
 3831000    0.6418272   -6.2053363    1228.2272  0.026716855  0.025844947           15 
 3832000   0.62975151   -6.2091458    1225.9035  0.026659349  0.025837201           19 
 3833000    0.6225912   -6.2177177    1225.2544  0.026638282  0.025829511           18 
 3834000   0.63929446   -6.2089638    1228.0958  0.026693093  0.025821816           17 
 3835000   0.64220946   -6.2069276    1224.9146  0.026617005  0.025814118           17 
 3836000   0.65017736   -6.2206779    1223.6429   0.02658244  0.025806396           33 
 3837000   0.65567862   -6.2054174    1224.6587  0.026597574  0.025798679           21 
 3838000   0.63577589   -6.2116167    1225.0765  0.026599716  0.025790974           17 
 3839000   0.63752269   -6.2010618    1226.8293  0.026630836  0.025783264           19 
 3840000   0.64379149    -6.234199    1228.6562  0.026663545  0.025775577           12 
 3841000   0.62384911   -6.2048998    1227.1515  0.026623958   0.02576793           14 
 3842000   0.64924237   -6.1830858    1227.7048   0.02662903  0.025760283            9 
 3843000    0.6403403    -6.198075    1226.8051   0.02660259  0.025752608           34 
 3844000   0.64287631   -6.2208122    1223.5537  0.026525184  0.025744924           31 
 3845000   0.63912217    -6.201863     1227.066  0.026594409  0.025737269           22 
 3846000    0.6395606   -6.2385021    1226.8843  0.026583556  0.025729633           19 
 3847000   0.63819162   -6.2157606    1223.9673  0.026513459  0.025721972            6 
 3848000   0.63754809    -6.212473    1227.1288  0.026575035  0.025714312           18 
 3849000   0.63961609   -6.2413148     1222.312  0.026463842  0.025706646           11 
 3850000   0.63604913   -6.2072906    1225.4475  0.026524837  0.025698959           11 
 3851000   0.62663007   -6.2070234     1226.365  0.026537804  0.025691268           14 
 3852000   0.62539988   -6.2199055    1223.8512  0.026476532  0.025683613           10 
 3853000   0.63338054   -6.2216546    1225.9813  0.026515731  0.025675964            6 
 3854000    0.6140314   -6.2263901    1225.4095  0.026496487  0.025668312           10 
 3855000   0.62611475   -6.2107751    1226.3278  0.026509465  0.025660685           18 
 3856000   0.61801917   -6.2024279    1223.6126   0.02644391  0.025653073            7 
 3857000   0.62943955   -6.2030085    1226.4706  0.026498803  0.025645413           14 
 3858000     0.635984   -6.2336164    1226.1138  0.026484228  0.025637758           17 
 3859000   0.64336565    -6.211104    1228.8352  0.026536131  0.025630109           27 
 3860000   0.63668606   -6.2087314    1228.2176  0.026515924  0.025622504           21 
 3861000   0.62239923   -6.2245563    1228.3421  0.026511744  0.025614901           26 
 3862000   0.63283396    -6.214194    1228.4902  0.026508073    0.0256073           16 
 3863000   0.63839549   -6.1917614    1229.2461  0.026517519  0.025599686            8 
 3864000   0.63663598   -6.2138182    1226.0128  0.026440925  0.025592104            8 
 3865000     0.642392   -6.2226679    1227.0351  0.026456126  0.025584522           15 
 3866000    0.6235649   -6.2041443    1225.2166  0.026410083  0.025576948           33 
 3867000   0.64217137   -6.1990146    1227.9592  0.026462356  0.025569365            9 
 3868000   0.64076377   -6.2009275    1225.1351  0.026394672  0.025561793           13 
 3869000   0.62430758   -6.2058163    1226.7032  0.026421625  0.025554214           21 
 3870000   0.64697111   -6.2234411    1225.1517  0.026381388  0.025546623            9 
 3871000   0.62604383   -6.2225018    1227.1825  0.026418292  0.025539027           13 
 3872000   0.62957451   -6.2078005    1227.5576  0.026419542  0.025531454           12 
 3873000   0.64043505   -6.2464336     1223.186  0.026318659  0.025523865           14 
 3874000   0.63913872   -6.2014714    1226.2346  0.026377443  0.025516272           16 
 3875000   0.62881958   -6.2176827    1228.7323   0.02642435  0.025508659           21 
 3876000   0.63419489   -6.2413556    1227.1481  0.026383474  0.025501036           13 
 3877000   0.62650814   -6.2376988    1224.5255  0.026320297  0.025493424           16 
 3878000   0.63010996   -6.2536774    1224.2087  0.026306703    0.0254858           17 
 3879000   0.64794503   -6.2344396    1227.7188  0.026375329  0.025478183           13 
 3880000   0.62328936    -6.220914    1226.2307   0.02633657  0.025470602           33 
 3881000    0.6446738   -6.2441905    1226.0012  0.026324856  0.025462986           19 
 3882000   0.61336835   -6.2342509    1228.7672  0.026377451  0.025455399           11 
 3883000   0.62554558   -6.2219131    1227.5391  0.026344302  0.025447845           16 
 3884000   0.64121675   -6.2309505    1228.4841  0.026357796  0.025440303           16 
 3885000      0.63798   -6.2227853    1224.7242   0.02627036  0.025432747           12 
 3886000   0.61468518   -6.2422804    1227.7727  0.026328974  0.025425187           14 
 3887000    0.6208039   -6.2172503    1229.0954  0.026350557  0.025417634           70 
 3888000   0.63747798   -6.2319976    1226.8642  0.026295958  0.025410089           48 
 3889000   0.64062618    -6.221927    1223.9066   0.02622582  0.025402577           65 
 3890000   0.63210383   -6.2224102     1228.061  0.026308076  0.025395045           28 
 3891000   0.63454301    -6.252423    1229.3098   0.02632806  0.025387496           22 
 3892000   0.62099654   -6.2276864    1226.5604  0.026262428  0.025379907           25 
 3893000   0.62805587   -6.2304498    1226.9618  0.026264273  0.025372351           32 
 3894000   0.62585506   -6.2704411    1226.1958  0.026241136  0.025364761           18 
 3895000   0.62423511   -6.2396512    1226.7469   0.02624619  0.025357176           15 
 3896000   0.63836375   -6.2321158    1227.6781   0.02625937  0.025349603           30 
 3897000   0.63313729   -6.2400963    1223.2869  0.026158732  0.025342064           23 
 3898000   0.60973955   -6.2503184    1225.2276  0.026193509   0.02533453           43 
 3899000   0.63429444   -6.2548757    1227.1616  0.026228127  0.025326976           20 
 3900000    0.6289837   -6.2320617    1228.5554  0.026251183  0.025319454           12 
 3901000   0.63451319   -6.2436095    1227.9123  0.026230716  0.025311916           28 
 3902000    0.6356506   -6.2296122    1228.8652  0.026244344  0.025304388           18 
 3903000     0.618735   -6.2638082     1223.505  0.026123174  0.025296831           56 
 3904000   0.62292564   -6.2441148    1225.9673  0.026169042  0.025289232           79 
 3905000   0.61960256   -6.2613156    1223.3991  0.026107535  0.025281679           32 
 3906000   0.62003052   -6.2673638    1224.3884  0.026121957  0.025274109           15 
 3907000   0.62771681   -6.2285921    1226.7162  0.026164922  0.025266548           55 
 3908000   0.62682552   -6.2265443    1225.3325   0.02612872  0.025259017           20 
 3909000   0.62821092   -6.2456851    1226.0713  0.026137788  0.025251491           96 
 3910000    0.6224226   -6.2442028    1229.8334  0.026211284   0.02524397           31 
 3911000   0.62192973   -6.2609296    1225.7261  0.026117065  0.025236438           28 
 3912000   0.64164218   -6.2278786    1229.7991  0.026197153  0.025228918           19 
 3913000   0.62864283   -6.2603596     1226.068  0.026110998    0.0252214           49 
 3914000   0.63027975   -6.2724222    1225.0924  0.026083554  0.025213885           19 
 3915000   0.61066964    -6.263404    1226.7144  0.026111417  0.025206376           24 
 3916000    0.6376263   -6.2511179    1228.0887  0.026133995  0.025198875           35 
 3917000   0.60274089    -6.248894     1228.755  0.026141498  0.025191391           39 
 3918000   0.62093419   -6.2548486    1226.7797  0.026092813  0.025183911           19 
 3919000    0.6323007   -6.2574351     1225.128  0.026051034  0.025176434           14 
 3920000   0.62711953   -6.2291728    1225.4916  0.026052117  0.025168945           43 
 3921000   0.61366292   -6.2328469    1228.0813  0.026100511  0.025161443           15 
 3922000   0.61681751   -6.2555012    1227.0115  0.026071126  0.025153932           86 
 3923000   0.62653533   -6.2603031    1227.8533  0.026082362  0.025146418          101 
 3924000   0.62837321   -6.2458358    1227.4406  0.026066952  0.025138932           52 
 3925000   0.62606314   -6.2337949    1227.8045  0.026068036  0.025131439           67 
 3926000   0.63483988   -6.2518725    1225.7699  0.026018209  0.025123954           43 
 3927000   0.61984879   -6.2820913    1225.8053  0.026012335  0.025116443           67 
 3928000   0.63948641    -6.248397    1227.6434  0.026044708  0.025108912           51 
 3929000   0.62529255    -6.257684    1229.3397  0.026074058  0.025101407           56 
 3930000   0.62692579    -6.273845    1223.0355  0.025933747  0.025093883           48 
 3931000    0.6242837   -6.2685114     1228.408   0.02604104  0.025086387          120 
 3932000   0.62236418    -6.248745    1225.4517  0.025971765  0.025078891          115 
 3933000   0.61179753   -6.2620037     1223.972  0.025933807  0.025071417           82 
 3934000   0.61316763   -6.2630927    1226.0951  0.025972189  0.025063939           78 
 3935000   0.62387905   -6.2540135    1227.0464  0.025985735  0.025056459           84 
 3936000   0.62116698   -6.2519714    1226.6588  0.025970926   0.02504896           63 
 3937000   0.62714537   -6.2689773     1225.374  0.025937134  0.025041454           75 
 3938000    0.6226576   -6.2716603    1228.3068  0.025992611  0.025033953           64 
 3939000   0.61847554   -6.2615741    1227.9796   0.02597909  0.025026478           37 
 3940000   0.63470412   -6.2766261     1229.294  0.026000297  0.025019013           25 
 3941000   0.62888662   -6.2612225     1227.456  0.025954835  0.025011551           43 
 3942000   0.62160466   -6.2581055    1228.1651  0.025963239  0.025004102           31 
 3943000   0.62341277   -6.2472987    1230.2962  0.026001694  0.024996662           21 
 3944000    0.6131458   -6.2456054    1228.9578  0.025966824  0.024989225           17 
 3945000   0.61285734   -6.2462006    1225.8695  0.025895004   0.02498177           29 
 3946000   0.62833159   -6.2605864    1227.5337  0.025923588  0.024974343           25 
 3947000   0.62049964   -6.2631547    1228.4225  0.025935785  0.024966896           18 
 3948000   0.61321057    -6.253495    1226.5963  0.025890669  0.024959457           27 
 3949000   0.61825642   -6.2471939    1227.1637  0.025896086  0.024952005           25 
 3950000   0.61641158   -6.2527253    1228.5406  0.025918577  0.024944562           58 
 3951000   0.62307769    -6.294454    1225.6414   0.02585087  0.024937082           16 
 3952000   0.62003273   -6.2770643    1223.5314  0.025799836  0.024929611           55 
 3953000    0.6167214   -6.2818707    1227.2566   0.02587184  0.024922138           44 
 3954000   0.61570565    -6.290304    1224.6661  0.025810699  0.024914673           23 
 3955000   0.62483092   -6.2692683    1227.2768  0.025859183  0.024907184           34 
 3956000   0.60765677   -6.2631575    1228.6568  0.025881716   0.02489971           19 
 3957000    0.6220854   -6.2689338    1227.3112  0.025846838   0.02489227           26 
 3958000   0.61776496   -6.2676276    1230.7678  0.025913083  0.024884814           57 
 3959000   0.63296257   -6.2778536    1224.7716  0.025780323  0.024877363           28 
 3960000   0.62952452   -6.2655429    1226.7597   0.02581565  0.024869925           25 
 3961000   0.61779132   -6.2683448    1228.0803  0.025836916  0.024862523           26 
 3962000    0.6155011   -6.2433332    1229.6888  0.025864227  0.024855105           46 
 3963000   0.62565892   -6.2659388    1228.2042  0.025826482  0.024847686           49 
 3964000   0.61774688   -6.2940572    1224.9426    0.0257514   0.02484025           32 
 3965000   0.61990354   -6.2731485    1227.2786  0.025794002  0.024832801           64 
 3966000   0.62273477   -6.2517475      1226.74   0.02577618  0.024825418           34 
 3967000    0.6111004   -6.2775819    1227.8517  0.025793037  0.024818026           29 
 3968000   0.62279721    -6.275235    1227.1485  0.025771769  0.024810627           19 
 3969000   0.61388773   -6.2485624    1230.1273  0.025827817  0.024803242           19 
 3970000    0.6067852    -6.273946    1227.0312  0.025756322  0.024795856           85 
 3971000   0.61594487   -6.2674781    1227.4876  0.025759414  0.024788465           22 
 3972000   0.62172151   -6.2701048    1226.7574  0.025737608   0.02478108           31 
 3973000   0.62589327   -6.2559911    1226.5612  0.025727017  0.024773692           26 
 3974000   0.61732827   -6.2863785    1227.1053  0.025731952  0.024766301           74 
 3975000   0.60390357    -6.277092    1229.7798  0.025781548  0.024758933           16 
 3976000   0.62236421   -6.3011375    1226.6765  0.025710021  0.024751542           33 
 3977000   0.61179589   -6.2748012    1225.7791  0.025684751  0.024744141           42 
 3978000   0.62930469     -6.26958    1230.2022  0.025770952  0.024736759           17 
 3979000   0.61042839   -6.2787275    1227.5868    0.0257097  0.024729383           25 
 3980000   0.61887695   -6.2739416    1229.8939  0.025751546  0.024721997           73 
 3981000   0.61026478   -6.2711307    1226.3377  0.025670639  0.024714623           40 
 3982000   0.61436752    -6.305857    1225.4269   0.02564513  0.024707251           40 
 3983000   0.61341908   -6.3009654    1225.3369  0.025636808  0.024699863           24 
 3984000   0.61704318   -6.2812853    1226.7355  0.025659629  0.024692467           40 
 3985000   0.60531354   -6.2766158    1228.2994  0.025685892  0.024685087           40 
 3986000   0.60651981   -6.2686474    1228.9911  0.025693911  0.024677734           16 
 3987000   0.62550581   -6.2757027    1228.0285  0.025667347  0.024670377           21 
 3988000   0.59238342   -6.2796749    1228.1923  0.025664332  0.024663012           32 
 3989000   0.62257216   -6.2705133    1230.0006  0.025695676  0.024655656           20 
 3990000   0.61427652   -6.2815322    1229.6531  0.025681978  0.024648306           19 
 3991000   0.61225257   -6.2751162    1226.0603  0.025600524  0.024640963           19 
 3992000   0.60909414   -6.2614599    1227.6137  0.025626539  0.024633635           18 
 3993000    0.6064246   -6.2552215    1227.7955  0.025623915  0.024626295           18 
 3994000   0.61906194   -6.2608904    1229.5155  0.025653387  0.024618974           17 
 3995000   0.61467741   -6.2702426    1228.9647  0.025635477   0.02461165           16 
 3996000   0.60430774   -6.2825042    1225.7295  0.025561593   0.02460432           13 
 3997000   0.61178933   -6.2528083    1230.5028  0.025654716  0.024597009           41 
 3998000   0.61328867   -6.2780974    1231.7144  0.025673554  0.024589675           14 
 3999000   0.62342117   -6.2715803    1230.8111   0.02564831  0.024582341           19 
 4000000   0.60538882   -6.2520837    1225.8284  0.025538092   0.02457501           13 
 4001000   0.61780817   -6.2698229    1229.0414  0.025598629    0.0245677           48 
 4002000   0.60525759   -6.2484241    1229.6181  0.025604241  0.024560384           27 
 4003000   0.61094613   -6.2911331    1227.1852  0.025547197  0.024553063           18 
 4004000   0.61494096   -6.2999779    1224.7224  0.025489561  0.024545715           41 
 4005000   0.60744488   -6.2641493    1229.7099  0.025586972  0.024538373           42 
 4006000   0.60677335   -6.2618928     1227.293  0.025530308  0.024531054           52 
 4007000   0.60364613   -6.2912366    1226.8251  0.025514207  0.024523733           37 
 4008000   0.62023746   -6.2745847    1230.7447  0.025589336  0.024516411           37 
 4009000   0.60439754   -6.2779303    1228.1719  0.025529473   0.02450907           14 
 4010000   0.60743551   -6.2931608     1226.406  0.025486408  0.024501737           25 
 4011000   0.61118914   -6.2876113    1229.3912  0.025542075    0.0244944           30 
 4012000   0.61578213   -6.2930512    1230.5361  0.025559491  0.024487083           17 
 4013000   0.60491709   -6.2937173     1228.691  0.025514806  0.024479744           47 
 4014000   0.60562855   -6.2738845    1229.6381  0.025528113  0.024472405           24 
 4015000   0.62470108   -6.3028696     1229.948  0.025528186  0.024465081           16 
 4016000   0.61751729   -6.3162029    1227.8356  0.025477997  0.024457746           28 
 4017000     0.606579   -6.2983164    1226.3119  0.025440045  0.024450428           20 
 4018000   0.59856728   -6.2745592     1228.538  0.025479881  0.024443102           25 
 4019000   0.60905827   -6.2729833    1227.4195  0.025450351   0.02443581           52 
 4020000   0.60644412   -6.2499236    1226.7911  0.025430994  0.024428507           24 
 4021000   0.61013759   -6.2549815    1227.3853  0.025436982  0.024421206           36 
 4022000   0.60642723   -6.2869231    1226.7571  0.025417642  0.024413924           37 
 4023000   0.60391515   -6.2621468    1227.7873  0.025432665  0.024406622           19 
 4024000   0.61700128    -6.277727    1228.2888  0.025436729  0.024399327           15 
 4025000   0.62563035   -6.2665879     1231.097  0.025488551   0.02439204           14 
 4026000   0.60056386   -6.3166273    1227.1305  0.025400118   0.02438472           22 
 4027000   0.60376304   -6.2850008    1226.7239  0.025385397  0.024377396           17 
 4028000   0.59590715   -6.2884598    1226.5179  0.025374832  0.024370075           20 
 4029000   0.60220498   -6.2829232     1226.996  0.025378422  0.024362762           59 
 4030000   0.60346386   -6.2778898    1228.7034  0.025407432  0.024355472           18 
 4031000   0.61357389   -6.2442273    1229.7756  0.025423295  0.024348187           15 
 4032000   0.62330587    -6.294381    1224.2827  0.025303462  0.024340894           23 
 4033000    0.6023949    -6.281996    1225.6252  0.025324929  0.024333577           34 
 4034000   0.59942211   -6.3078195    1226.9889  0.025346822  0.024326254           14 
 4035000     0.602092   -6.2920394    1225.3537  0.025306767  0.024318957           14 
 4036000   0.60196428   -6.2909282    1226.2112  0.025318203  0.024311649           23 
 4037000   0.59798244   -6.2876401    1226.5199  0.025318304  0.024304355           26 
 4038000   0.58958048   -6.2875185    1229.4462  0.025372425  0.024297059           54 
 4039000   0.59847636   -6.2880046    1228.3958  0.025344471  0.024289778           34 
 4040000   0.60570511   -6.3002377    1223.1392   0.02522977  0.024282471           30 
 4041000   0.60243791   -6.2968212    1226.0118  0.025282764   0.02427517           34 
 4042000   0.61321444   -6.2992658    1226.1603   0.02527957  0.024267867           24 
 4043000   0.61810593   -6.3179148    1224.0471  0.025229762  0.024260588           22 
 4044000   0.60255655   -6.2722788    1227.9031  0.025302981  0.024253308           32 
 4045000   0.60691129   -6.2837317    1227.0606   0.02527937  0.024246055           25 
 4046000    0.6041826   -6.3071518    1228.4283  0.025301292  0.024238761           17 
 4047000   0.59943468   -6.2975348    1227.5395  0.025276738  0.024231471           39 
 4048000   0.59472749   -6.3139375     1229.021  0.025300993  0.024224194           29 
 4049000   0.60758304   -6.2865978    1228.0941  0.025275668   0.02421691           29 
 4050000   0.59831159   -6.2942152    1230.3328  0.025315489  0.024209646           25 
 4051000   0.60062417   -6.3045305       1226.8  0.025236566  0.024202366           40 
 4052000   0.60286546   -6.3004153     1225.526  0.025204137  0.024195098           17 
 4053000   0.60617501   -6.2967887     1228.174  0.025252364   0.02418783           12 
 4054000   0.60382828    -6.298785    1229.5926  0.025275296   0.02418055           31 
 4055000   0.59726025   -6.3067508    1226.9541   0.02521484  0.024173262           29 
 4056000     0.601766   -6.2984967    1227.0045  0.025209659  0.024165998           21 
 4057000   0.59549577   -6.3154101    1227.8091  0.025219972  0.024158716           39 
 4058000    0.5992245   -6.3050088    1229.7753  0.025254133  0.024151451           20 
 4059000   0.59549231   -6.2977217    1227.4066  0.025199282  0.024144199           21 
 4060000   0.61285998   -6.3071006    1226.7053   0.02517868  0.024136961           12 
 4061000   0.60324264   -6.2715385      1226.91   0.02517668  0.024129718           16 
 4062000   0.60857077   -6.2785102      1229.29  0.025219309  0.024122479           42 
 4063000   0.60389043   -6.2703283    1228.1842  0.025190421  0.024115253           54 
 4064000   0.59319655   -6.3072011    1224.7827  0.025114475   0.02410801           39 
 4065000   0.58170093   -6.3154283     1224.978    0.0251123  0.024100756           15 
 4066000   0.59926782   -6.2966273    1226.3044   0.02513331  0.024093484           20 
 4067000    0.5890377   -6.2968209    1225.2825   0.02510619  0.024086225           17 
 4068000   0.61351339   -6.3323874    1226.8216  0.025131547  0.024078966           12 
 4069000   0.59380614   -6.3031383    1227.5056  0.025139379  0.024071736           12 
 4070000   0.59963802   -6.2954494    1226.4577  0.025111747  0.024064505           16 
 4071000   0.59562495   -6.2993322    1228.8415  0.025154374   0.02405727           15 
 4072000   0.60816711   -6.3200463    1228.6955  0.025145208  0.024050021            7 
 4073000   0.58925827   -6.3261829    1224.8066  0.025059469  0.024042758           20 
 4074000   0.62656934   -6.3119797    1226.6842  0.025091724  0.024035516           27 
 4075000   0.60497445   -6.3057106    1229.3408  0.025139895  0.024028291           17 
 4076000   0.59636253   -6.3164204    1227.0427  0.025086742  0.024021056           20 
 4077000   0.59536141   -6.3237299    1226.6522  0.025072606  0.024013835           14 
 4078000   0.59116139   -6.3230592     1225.388  0.025040624    0.0240066           19 
 4079000   0.61387986   -6.3045083     1229.053  0.025109361  0.023999379           18 
 4080000   0.58586026   -6.3027915    1229.1383  0.025104949  0.023992178           20 
 4081000   0.59018924   -6.3149465    1225.1491  0.025017339  0.023984972           12 
 4082000    0.5983103   -6.3163725    1226.7128  0.025043132  0.023977751           28 
 4083000   0.59128107   -6.3087158    1230.0397  0.025104901  0.023970534           15 
 4084000   0.59534599   -6.3115039    1227.3816  0.025044516  0.023963325           57 
 4085000   0.60514687   -6.3127495    1226.1303  0.025012858  0.023956136           20 
 4086000   0.60352884    -6.317568     1228.037  0.025045624  0.023948893           29 
 4087000   0.60554575   -6.3224016    1229.7274  0.025073962  0.023941659           74 
 4088000   0.59504343   -6.3267548    1226.9164  0.025010527  0.023934422           96 
 4089000   0.57674141   -6.3220368    1227.6833   0.02502004  0.023927188           99 
 4090000   0.60725146   -6.3393256    1227.3869  0.025007883  0.023919973           68 
 4091000   0.60861023    -6.295772    1228.1723  0.025017769  0.023912768           66 
 4092000   0.59925599   -6.3117739    1226.1469  0.024970408  0.023905585           45 
 4093000   0.59544198    -6.331539    1228.1868  0.025005838  0.023898373           33 
 4094000   0.59505239   -6.3308165    1225.0981  0.024936861  0.023891163           66 
 4095000   0.58976142   -6.3112477    1225.2428  0.024933716  0.023883993           26 
 4096000   0.59501688   -6.3209008    1227.7327  0.024978286  0.023876845           37 
 4097000   0.60156187   -6.3019548    1229.1663  0.025001348  0.023869667           18 
 4098000   0.59512007   -6.3109309    1229.0123  0.024992116  0.023862507           29 
 4099000   0.60400393    -6.305003    1228.2897  0.024971327  0.023855352           20 
 4100000   0.58901884   -6.2966482    1229.9896  0.024999788  0.023848204           46 
 4101000   0.58196675    -6.306277    1228.3314  0.024959998  0.023841078           51 
 4102000   0.59281926   -6.3373766    1229.8901  0.024985577  0.023833947           16 
 4103000   0.60588752   -6.3199564    1230.6102  0.024994113  0.023826821           23 
 4104000   0.59496683   -6.3271082    1227.8606  0.024932192   0.02381967           16 
 4105000   0.60151772   -6.2988724     1228.207   0.02493315  0.023812521           17 
 4106000   0.60607863   -6.3366965    1227.8515  0.024919863  0.023805359           27 
 4107000   0.59602287   -6.3247651    1225.1114  0.024858198  0.023798193           19 
 4108000   0.60319963   -6.3277921    1225.6183   0.02486243  0.023791032           14 
 4109000   0.59340984   -6.3247095    1226.9932  0.024884262   0.02378386           21 
 4110000   0.60139311   -6.3331822    1226.5413  0.024869046  0.023776709           18 
 4111000   0.59418401   -6.3229709    1230.5418   0.02494409  0.023769572           14 
 4112000   0.60146702   -6.3494811    1227.0129  0.024866506  0.023762402           29 
 4113000   0.60438435   -6.3543322    1227.3219  0.024866721  0.023755238           37 
 4114000   0.60279715   -6.3266163    1227.1764  0.024857731  0.023748064           14 
 4115000   0.59094769   -6.3205132    1226.4153  0.024836277  0.023740925           12 
 4116000   0.59055899   -6.3117157    1227.6723  0.024855691   0.02373381           31 
 4117000   0.60449593   -6.3289894    1226.5294   0.02482652  0.023726705           41 
 4118000   0.58785881   -6.3351735    1228.2855  0.024856028  0.023719595           57 
 4119000    0.5910187   -6.3309851    1226.7232  0.024818386  0.023712471           65 
 4120000   0.59883232   -6.3181074    1227.6037  0.024830172  0.023705367           22 
 4121000   0.59381993   -6.3207139    1227.9099  0.024830339  0.023698279           30 
 4122000   0.59474212   -6.3238016    1229.4481  0.024855411   0.02369117           50 
 4123000   0.57802744   -6.2984933     1229.943  0.024859386  0.023684084           33 
 4124000   0.58115657   -6.3362767    1228.4212  0.024822608  0.023676992           33 
 4125000   0.57882958   -6.3336442    1227.6422  0.024800853  0.023669909           25 
 4126000   0.58409117   -6.3481982    1229.2491  0.024827296  0.023662805           31 
 4127000   0.57987693   -6.3364235    1227.2814  0.024781549    0.0236557           54 
 4128000   0.59684661   -6.3297703    1230.4275  0.024839057  0.023648605           17 
 4129000   0.59662628   -6.3179246     1229.143  0.024807117  0.023641535           39 
 4130000   0.59293396   -6.3330013    1228.8562  0.024795323  0.023634445           77 
 4131000   0.59620168   -6.3409797    1225.6839  0.024725327  0.023627353           20 
 4132000   0.58742653   -6.3272291    1226.6065   0.02473795  0.023620286           20 
 4133000   0.59015169   -6.3314935    1228.6382   0.02477293  0.023613211           29 
 4134000   0.57127596   -6.3317451    1231.3525  0.024821652  0.023606137           42 
 4135000   0.57363456   -6.3441509    1227.7861  0.024743775  0.023599025           34 
 4136000   0.58478936   -6.3405957    1227.0178  0.024722313   0.02359192           21 
 4137000   0.58701914   -6.3420672    1229.1858  0.024760008  0.023584822           39 
 4138000   0.58234565   -6.3487401    1227.6943  0.024723986  0.023577728           33 
 4139000   0.58612872   -6.3396184    1227.7303  0.024718738  0.023570631           28 
 4140000   0.59311621   -6.3438119    1227.0037  0.024698141  0.023563523           38 
 4141000   0.59046031   -6.3519476    1228.9427  0.024731199  0.023556431           33 
 4142000   0.58696979   -6.3400404    1227.9654  0.024705564  0.023549355           46 
 4143000   0.58917175    -6.354833    1227.4149  0.024688528  0.023542275           55 
 4144000   0.58842184   -6.3597309     1227.378   0.02468183  0.023535171           41 
 4145000   0.58929331   -6.3361772     1228.522  0.024698873   0.02352808           44 
 4146000   0.57521467   -6.3382817     1227.418  0.024670727  0.023520994           31 
 4147000   0.58692939   -6.3602438    1227.0767   0.02465792  0.023513887           20 
 4148000   0.58232924   -6.3451445     1229.211  0.024694852  0.023506802           22 
 4149000   0.59046415   -6.3513145    1225.4463  0.024613286  0.023499728           17 
 4150000   0.59524205   -6.3321148    1229.5051  0.024688857  0.023492638           30 
 4151000   0.58511871   -6.3665902    1224.9337  0.024591137  0.023485565           25 
 4152000   0.59855721   -6.3472483    1228.8454  0.024663725  0.023478478           45 
 4153000   0.59990732    -6.354949    1231.3831  0.024708708  0.023471419           42 
 4154000   0.58714713    -6.354599     1227.433  0.024623516  0.023464357           31 
 4155000   0.59663137   -6.3545638    1226.2871  0.024594608    0.0234573           46 
 4156000   0.57709579   -6.3376623    1227.6799  0.024616616  0.023450234           66 
 4157000   0.59310019   -6.3579173    1227.4444  0.024605973  0.023443164           63 
 4158000   0.58975032   -6.3550169    1227.1081  0.024593317   0.02343608           36 
 4159000   0.59190456   -6.3553169    1228.4188  0.024613665  0.023428999           98 
 4160000   0.57973531   -6.3623749     1226.732  0.024573959  0.023421931           67 
 4161000   0.58462623   -6.3488866    1227.2836  0.024579101  0.023414878           68 
 4162000   0.57607812   -6.3519493    1226.5677  0.024558859  0.023407824           40 
 4163000   0.58220711    -6.330652    1229.8623   0.02461891  0.023400781           76 
 4164000   0.59478459    -6.361598    1227.1458  0.024558634  0.023393745          119 
 4165000   0.57512924   -6.3470125    1228.3004  0.024575839  0.023386711           41 
 4166000   0.59327025   -6.3570431    1228.1669  0.024567268  0.023379686           33 
 4167000   0.56888405   -6.3610123    1227.6128  0.024550291  0.023372633           49 
 4168000   0.57330799   -6.3625378    1226.5054  0.024522261  0.023365585           67 
 4169000   0.57243127   -6.3640631    1227.1556  0.024529376  0.023358533           22 
 4170000   0.57888011     -6.33106    1227.2331  0.024525043  0.023351487           61 
 4171000   0.59392095   -6.3359427    1226.8634  0.024511775  0.023344446           54 
 4172000   0.58640483   -6.3594925    1228.9008  0.024546597  0.023337412           62 
 4173000   0.57809702   -6.3555598    1225.2624  0.024468057  0.023330394           29 
 4174000   0.57812882   -6.3568733    1227.2348  0.024501574  0.023323369           41 
 4175000   0.58231292   -6.3515983     1229.159  0.024534112  0.023316344           25 
 4176000   0.58737788   -6.3402658    1223.4115  0.024413543  0.023309304           29 
 4177000    0.5891184   -6.3609845    1224.6751  0.024432908  0.023302254           29 
 4178000   0.58640122   -6.3438468    1226.2871  0.024459212  0.023295209           30 
 4179000   0.58347257   -6.3611732     1227.678  0.024481097  0.023288184           31 
 4180000   0.58049634   -6.3629004    1226.1952  0.024445678  0.023281164           36 
 4181000   0.57592815    -6.352259    1225.9386  0.024434716  0.023274137           22 
 4182000   0.56678885   -6.3735172    1228.5714  0.024481337  0.023267111           44 
 4183000   0.57979618    -6.359752    1226.5434  0.024435083  0.023260083           27 
 4184000   0.59232335   -6.3545271    1227.1293  0.024440911  0.023253055           18 
 4185000   0.58106784   -6.3692177    1226.6862  0.024426248  0.023246034           52 
 4186000   0.57415286   -6.3450913    1228.8211  0.024462915  0.023239025           49 
 4187000   0.58571975   -6.3586945      1228.33  0.024447297  0.023232005           25 
 4188000   0.58168803   -6.3750533    1227.5006  0.024424956  0.023224991           34 
 4189000   0.57339583   -6.3852924    1226.6692  0.024402586  0.023217963           44 
 4190000   0.57937992   -6.3830023    1225.9717  0.024382889  0.023210936           58 
 4191000   0.57114563   -6.3531831    1225.8884  0.024375415  0.023203905           53 
 4192000   0.58046316   -6.3873424    1226.4348  0.024380464  0.023196888           36 
 4193000   0.57305531   -6.3605704    1227.3336  0.024392511  0.023189868           30 
 4194000   0.58376646   -6.3855984    1226.9475  0.024379024  0.023182864           49 
 4195000   0.58260031   -6.3576624     1227.211  0.024378446  0.023175874           16 
 4196000   0.58019715   -6.3735082    1227.0754  0.024369944  0.023168866           19 
 4197000   0.57947508   -6.3883161    1225.4708  0.024332277  0.023161845           32 
 4198000   0.58047105   -6.3733763    1225.7896   0.02433281  0.023154817           32 
 4199000   0.58191068   -6.3687419    1226.6598  0.024344284  0.023147799           46 
 4200000   0.57504113   -6.3781506    1223.2638  0.024271108  0.023140796           34 
 4201000   0.57279592    -6.366839    1225.8643  0.024316914  0.023133777           33 
 4202000   0.59182696   -6.3523683    1227.1099  0.024335831  0.023126801           38 
 4203000   0.57947787   -6.3539488    1225.5865  0.024299835  0.023119816           51 
 4204000   0.56918187   -6.3714807    1226.7464  0.024317048  0.023112835           35 
 4205000   0.57889233   -6.3550489    1225.0857  0.024278353  0.023105861           38 
 4206000   0.58661394   -6.3335409     1228.054  0.024331392  0.023098905           26 
 4207000   0.57984256   -6.3606183    1229.0895  0.024346121  0.023091946           41 
 4208000   0.57349002   -6.3738513    1225.8077  0.024275343  0.023084986           17 
 4209000   0.57855075   -6.3427976    1229.9019  0.024350636  0.023078025           39 
 4210000   0.56522612   -6.3706083    1225.0323  0.024248462   0.02307108           33 
 4211000   0.57622414   -6.3451167    1226.2634  0.024267066  0.023064122           21 
 4212000   0.57621879   -6.3653965    1226.5005  0.024265996  0.023057164           33 
 4213000   0.58395349   -6.3527565    1226.3139  0.024256546  0.023050187           34 
 4214000   0.57342063    -6.381568    1226.3329  0.024251164  0.023043207           42 
 4215000   0.57999771   -6.3664046    1226.5492  0.024249688  0.023036248           26 
 4216000   0.56400591   -6.3561869    1224.6398  0.024206194  0.023029278           36 
 4217000   0.57178348   -6.3738869    1226.4738  0.024236696    0.0230223           17 
 4218000   0.58002063   -6.3697809     1227.006  0.024241465  0.023015318           26 
 4219000   0.57866492   -6.3712842    1226.2204  0.024220202  0.023008351           34 
 4220000   0.58359928   -6.3675168    1224.4084  0.024178681  0.023001376           30 
 4221000   0.58298063   -6.3812094    1226.9907  0.024223934  0.022994428           34 
 4222000   0.58425638   -6.3611626    1227.0439  0.024219246    0.0229875           22 
 4223000   0.57607669   -6.3811138    1223.3011  0.024139654  0.022980539           28 
 4224000   0.58203939   -6.3843721    1225.4038  0.024175421  0.022973577           31 
 4225000   0.56822076   -6.3581944    1226.8263  0.024197758  0.022966602           17 
 4226000   0.56483667   -6.3773389    1225.9777  0.024175299  0.022959645           22 
 4227000   0.57073551   -6.3717799     1227.113   0.02419196  0.022952688           26 
 4228000   0.57313719   -6.3848945    1225.5626   0.02415568  0.022945729           26 
 4229000   0.57787286   -6.3369974    1225.8444  0.024155522  0.022938777           28 
 4230000   0.56872988   -6.3872405    1225.5667   0.02414434  0.022931853           47 
 4231000   0.57018168   -6.3741755    1225.7233  0.024141717  0.022924913           27 
 4232000   0.57420621   -6.3700731    1225.4765  0.024131154  0.022917973           52 
 4233000   0.57033333   -6.3792489    1222.6051  0.024068925  0.022911014           61 
 4234000   0.57383728   -6.3959986    1223.7846  0.024086455  0.022904051           57 
 4235000   0.58341057   -6.3841938    1224.0014  0.024085034  0.022897082           68 
 4236000   0.56193304   -6.3790499    1225.0058  0.024099107  0.022890141           40 
 4237000   0.57389749    -6.388649     1226.785  0.024128412  0.022883192           32 
 4238000   0.56651209   -6.3847579    1227.1355  0.024129611  0.022876232           33 
 4239000   0.58100299   -6.3790122    1224.0022  0.024062323  0.022869301           35 
 4240000    0.5763692   -6.3634978    1225.1102  0.024078423   0.02286235           41 
 4241000   0.56700773   -6.4051461      1223.62  0.024043465  0.022855394           56 
 4242000   0.58788731   -6.3769375    1225.3041  0.024070881  0.022848448           47 
 4243000   0.56841412   -6.3834167    1226.1328  0.024081483  0.022841503           79 
 4244000   0.57425369   -6.3728371    1225.7519  0.024068329  0.022834565           76 
 4245000    0.5638568   -6.3703256    1223.7048  0.024022473   0.02282762           82 
 4246000   0.56943514   -6.3923414    1224.5945  0.024034277  0.022820682           65 
 4247000   0.58266235   -6.3920825     1223.656  0.024010204  0.022813768           49 
 4248000   0.56361338   -6.3854776    1224.1141  0.024013538  0.022806836           48 
 4249000   0.58494682   -6.3750774    1224.9218  0.024023727  0.022799914           14 
 4250000   0.57620081   -6.3877487    1226.5888  0.024050761   0.02279299           86 
 4251000    0.5707698   -6.3770047     1223.665  0.023987787  0.022786054          121 
 4252000   0.57312082   -6.3873525    1224.7954    0.0240043  0.022779131           47 
 4253000   0.56311993   -6.3943287    1224.8516  0.023999757    0.0227722          178 
 4254000   0.58053666   -6.4001676    1223.3009  0.023963739  0.022765293           53 
 4255000   0.57091555   -6.3916283    1225.4376  0.023999952  0.022758384           81 
 4256000   0.56516342   -6.3880956    1225.7595  0.024000617  0.022751488           43 
 4257000   0.56735237   -6.4139685    1225.6651  0.023993131  0.022744579          127 
 4258000   0.56664012   -6.4077551    1220.0879  0.023878346  0.022737653          130 
 4259000   0.57120993    -6.399386    1223.5113  0.023939722  0.022730728          143 
 4260000   0.57364694   -6.4097614    1221.5746  0.023896217  0.022723818          145 
 4261000   0.57064223    -6.391248    1223.0203  0.023918882  0.022716913          128 
 4262000   0.56741712   -6.4032019    1224.5047  0.023942294  0.022710005          134 
 4263000   0.56957102   -6.3931707    1224.9723  0.023945818    0.0227031          108 
 4264000   0.56504917   -6.3902032    1226.2852  0.023965862  0.022696206           91 
 4265000   0.57323405   -6.3966381    1223.8218  0.023912111  0.022689298          117 
 4266000   0.57224445   -6.4002994    1224.5437  0.023920607  0.022682403          113 
 4267000   0.55427212   -6.4146489    1226.4981   0.02395317   0.02267549          145 
 4268000   0.55552404   -6.4072365     1226.361   0.02394488  0.022668585           78 
 4269000   0.55554845   -6.3906558    1225.2868  0.023918303  0.022661688          108 
 4270000   0.56379119   -6.4098411    1226.1436  0.023929423  0.022654801           54 
 4271000   0.56804145   -6.4043598    1225.5188  0.023911629  0.022647914          215 
 4272000   0.57622929   -6.3759577    1225.6965  0.023909498  0.022641027          214 
 4273000   0.55876591   -6.3860358    1226.0883  0.023911543  0.022634159          114 
 4274000   0.57850555   -6.3863497     1227.709  0.023937548  0.022627306          102 
 4275000   0.57522376   -6.4068209    1225.6086  0.023891006  0.022620451          144 
 4276000   0.56110827   -6.4082356    1225.7942  0.023889036  0.022613594          122 
 4277000   0.55293507   -6.3861854    1226.2207  0.023891761  0.022606736          127 
 4278000   0.55859201   -6.3851959    1223.9834  0.023842593  0.022599884          107 
 4279000   0.57142846    -6.405952    1226.9854  0.023895485  0.022593018           61 
 4280000   0.56910687   -6.3838523    1225.8271   0.02386735  0.022586175           66 
 4281000   0.57224256   -6.3782774    1225.0449  0.023846548  0.022579334           93 
 4282000   0.55870771   -6.3953748    1225.8914  0.023857453  0.022572489           74 
 4283000    0.5696011    -6.395707    1225.6369  0.023846931  0.022565646          148 
 4284000   0.57498593   -6.4149154    1225.6457  0.023841536  0.022558811           56 
 4285000   0.57363183   -6.3985202    1224.7603  0.023818754  0.022551952           72 
 4286000   0.56309257   -6.4074352    1224.3902     0.023806  0.022545115           88 
 4287000   0.55948401   -6.4060721    1223.5665  0.023784435  0.022538258           77 
 4288000   0.56410883   -6.4146223    1224.5131  0.023797286  0.022531395          192 
 4289000   0.56133825   -6.4016847    1224.9951  0.023801101  0.022524534           55 
 4290000   0.57166064   -6.3987658    1224.2017  0.023780141  0.022517672          121 
 4291000   0.57490291   -6.4034369    1223.7193  0.023765231  0.022510824           96 
 4292000   0.56113109   -6.3857364    1223.0791  0.023747264  0.022503973           99 
 4293000   0.56134108   -6.4216717    1224.6772  0.023772753  0.022497129           98 
 4294000   0.56317847   -6.4005654    1224.4003  0.023761845  0.022490284          173 
 4295000   0.55527091   -6.4108577    1223.0176  0.023729485  0.022483427           86 
 4296000   0.56291932   -6.4114695    1224.8331  0.023759176  0.022476578           67 
 4297000   0.56813614   -6.4122275    1226.0937  0.023778095  0.022469739           72 
 4298000   0.56255127   -6.4010666     1223.577  0.023723766  0.022462899           99 
 4299000   0.55066138    -6.419599    1222.3636  0.023694728  0.022456039           85 
 4300000   0.55397503   -6.4135728    1224.4696  0.023730031  0.022449181           77 
 4301000   0.56653933   -6.4239754    1222.6319  0.023688907  0.022442315          103 
 4302000   0.55997209   -6.4044958    1224.3653  0.023716979  0.022435464          140 
 4303000   0.56190205   -6.4245102    1225.0743  0.023725197  0.022428618          127 
 4304000    0.5747074   -6.4066917    1224.5141  0.023708839  0.022421779           53 
 4305000   0.57092613   -6.4116531    1226.2497  0.023736929  0.022414935           64 
 4306000   0.56539965   -6.4231609    1223.9292  0.023686507  0.022408109           82 
 4307000   0.56408865    -6.427281    1226.1403  0.023723789  0.022401283           49 
 4308000   0.55819694   -6.4087983    1223.9306  0.023675538  0.022394461           62 
 4309000   0.56071141   -6.4319287    1223.6497  0.023664611  0.022387619           38 
 4310000   0.57538252   -6.4354698    1225.6869  0.023698509  0.022380795           72 
 4311000   0.56399789    -6.401993    1225.7701   0.02369462  0.022373982          108 
 4312000   0.55761879   -6.4400197    1221.6449  0.023609402  0.022367144           89 
 4313000   0.56246261   -6.4275382    1225.5672  0.023679713  0.022360303           60 
 4314000   0.56225645   -6.4203381    1223.3264  0.023630938  0.022353476           85 
 4315000   0.56566149   -6.4211587    1221.4286  0.023588809  0.022346633           49 
 4316000   0.55684276   -6.4216005    1222.7142  0.023608167    0.0223398           77 
 4317000   0.57264787   -6.4337452    1222.4632  0.023597853  0.022332964           30 
 4318000   0.57404614   -6.4308645    1223.1581    0.0236058  0.022326129           55 
 4319000   0.56777055   -6.4288481    1222.6292  0.023590129  0.022319314          120 
 4320000   0.55596962   -6.4296436    1224.1353  0.023613722   0.02231251           26 
 4321000   0.54203049   -6.4141182    1226.3369  0.023650715  0.022305693           28 
 4322000   0.56386395   -6.4258733    1223.7133  0.023594657  0.022298869           58 
 4323000   0.55644512   -6.4175868    1221.9518  0.023555244  0.022292066           42 
 4324000   0.55750702   -6.4248176    1226.1462  0.023630631  0.022285273           83 
 4325000   0.56268951   -6.4315144    1225.1495  0.023605964   0.02227847           59 
 4326000   0.56474951   -6.4178661    1225.5767  0.023608735  0.022271697           34 
 4327000   0.55985918   -6.4278707    1226.2671  0.023616577  0.022264914           99 
 4328000   0.55593434   -6.4266414    1224.6764   0.02358049  0.022258122           90 
 4329000   0.55220449   -6.4330223    1224.9598    0.0235805   0.02225133           49 
 4330000   0.55475375   -6.4314355    1224.1697  0.023559848  0.022244513           68 
 4331000   0.56161904   -6.4125298    1222.9212  0.023530385  0.022237715          100 
 4332000    0.5500903    -6.418021    1222.9884  0.023526247  0.022230929          156 
 4333000   0.55656544   -6.4396898    1224.9003  0.023557586  0.022224136          174 
 4334000   0.56896735   -6.4338209    1221.6993  0.023490603  0.022217342           63 
 4335000   0.56107965   -6.4241379    1224.3716  0.023536555  0.022210565          123 
 4336000   0.55785614   -6.4077493    1224.1144  0.023526183  0.022203794           62 
 4337000   0.55926585   -6.4143031    1226.8587  0.023573491  0.022197034           52 
 4338000   0.57020583   -6.3977079     1224.037   0.02351385   0.02219029           37 
 4339000   0.55764392   -6.4043434    1223.6006   0.02350005  0.022183553           32 
 4340000   0.56058883   -6.4289916    1224.8579  0.023518777  0.022176796           42 
 4341000   0.56360163   -6.4169259    1223.8587  0.023494177  0.022170042           53 
 4342000   0.57089495   -6.4209903    1224.7959  0.023506753  0.022163288           48 
 4343000   0.56485802   -6.4322945    1225.7124  0.023518928  0.022156535           41 
 4344000   0.57012679   -6.4361644      1227.31   0.02354416  0.022149794           98 
 4345000   0.55760471   -6.4295261     1224.042  0.023476064  0.022143049          100 
 4346000   0.54521717   -6.4112636    1223.5928  0.023462049   0.02213632          104 
 4347000   0.55276152   -6.4187958    1223.2632  0.023450333   0.02212959          129 
 4348000   0.56133511   -6.4379971    1223.5049  0.023449573  0.022122868           49 
 4349000   0.56612432   -6.4433655    1222.7886  0.023430455  0.022116135          161 
 4350000   0.55331509   -6.4239004    1224.3693   0.02345535  0.022109401           58 
 4351000   0.55473769   -6.4464918    1225.6957  0.023475363  0.022102681           90 
 4352000   0.55865084   -6.4246142    1223.8728  0.023435064  0.022095946           65 
 4353000   0.56023578   -6.4405648    1223.3563  0.023419793   0.02208918           51 
 4354000   0.55535917   -6.4338426    1223.1891  0.023411213  0.022082442          165 
 4355000   0.55962293   -6.4338997     1222.632  0.023395178  0.022075699           94 
 4356000   0.55206466   -6.4206544    1225.5766   0.02344614  0.022068978           64 
 4357000   0.56112939   -6.4200956    1225.0904  0.023431458  0.022062251          127 
 4358000   0.55844514   -6.4289129    1225.7685  0.023439048  0.022055528          147 
 4359000   0.56023981    -6.437827    1221.8563   0.02335888  0.022048819          172 
 4360000   0.53288718   -6.4336969    1220.0576  0.023319145  0.022042098           57 
 4361000   0.54749898   -6.4384963    1220.2611  0.023317685   0.02203538           76 
 4362000   0.55935604   -6.4351436    1225.2624  0.023407886  0.022028661           73 
 4363000   0.55191484   -6.4256418    1225.2042   0.02340141   0.02202194          265 
 4364000   0.55842091   -6.4224859    1225.0398  0.023392908  0.022015236           84 
 4365000   0.55839977    -6.433064    1224.5896  0.023378955  0.022008526          129 
 4366000   0.55765485   -6.4462847    1223.8785  0.023360026  0.022001824           39 
 4367000   0.55629042   -6.4303389    1222.6488   0.02333121  0.021995125           67 
 4368000   0.55494894   -6.4359962    1223.0552  0.023333623  0.021988416           97 
 4369000   0.54324586   -6.4140463    1223.6007  0.023338687   0.02198172          169 
 4370000   0.56108041   -6.4368809     1223.553  0.023332437  0.021975018          240 
 4371000   0.55299451   -6.4553425    1224.3399  0.023342102  0.021968313          127 
 4372000   0.54830815   -6.4535367    1222.9036  0.023309386  0.021961618          153 
 4373000   0.55689613   -6.4436673    1224.2041  0.023328839  0.021954918          133 
 4374000   0.55478174    -6.429608    1224.9141  0.023337032  0.021948236           61 
 4375000   0.54314804   -6.4300567    1224.0573  0.023315378  0.021941547           51 
 4376000   0.53246288   -6.4419485    1223.3014  0.023295655  0.021934869          121 
 4377000   0.55448344   -6.4518446    1224.0326  0.023304253  0.021928177          105 
 4378000   0.55414077   -6.4590528    1219.7337  0.023217103  0.021921465          234 
 4379000   0.54332813   -6.4552971    1221.3528  0.023242613  0.021914747           56 
 4380000   0.54133957   -6.4590013    1221.7771  0.023245379  0.021908043          132 
 4381000   0.53507385   -6.4370569    1222.2578  0.023249217  0.021901339           99 
 4382000   0.54822642   -6.4638651    1223.4228  0.023266065   0.02189465          157 
 4383000   0.55523734    -6.453885    1224.1825  0.023275201  0.021887976           41 
 4384000   0.55648038   -6.4532936    1222.7038  0.023241785   0.02188131           53 
 4385000   0.55548137   -6.4362059    1223.2833  0.023247498  0.021874631           52 
 4386000   0.54130797   -6.4378055    1222.3513   0.02322449   0.02186797           43 
 4387000   0.54261892   -6.4271009    1222.0022  0.023212563  0.021861299           67 
 4388000   0.54156378   -6.4533357    1223.3047  0.023232009  0.021854629          137 
 4389000    0.5544736    -6.453626    1224.6384  0.023252039  0.021847959          164 
 4390000   0.55607421   -6.4552203    1221.5765  0.023188619   0.02184128          110 
 4391000   0.55221219   -6.4444126    1223.7264  0.023224141  0.021834614          206 
 4392000   0.55108986   -6.4517386    1220.1599  0.023151182  0.021827954           66 
 4393000   0.54811919   -6.4567868    1219.8538  0.023140105  0.021821288           78 
 4394000   0.55384554   -6.4329685    1222.9827   0.02319418  0.021814624          233 
 4395000   0.55018289   -6.4506493     1223.134  0.023191772  0.021807963          128 
 4396000   0.55477036   -6.4328918    1221.4101  0.023153815  0.021801314           56 
 4397000   0.55205472   -6.4215495    1223.8565  0.023194916  0.021794666          115 
 4398000   0.54666942   -6.4449576    1223.3698   0.02318042  0.021788024           54 
 4399000   0.55511479   -6.4547173    1223.9297  0.023185757    0.0217814           47 
 4400000    0.5433802   -6.4532717    1221.4994  0.023134459  0.021774775           43 
 4401000   0.54562611   -6.4469571    1224.2045  0.023180422  0.021768151           46 
 4402000   0.55118203   -6.4492752    1224.4199  0.023179234  0.021761521           41 
 4403000   0.54643184   -6.4530222    1225.5178   0.02319475  0.021754897           97 
 4404000   0.55582952   -6.4325265    1223.9342  0.023159518  0.021748278           45 
 4405000   0.55192177   -6.4375137    1223.8282  0.023152254  0.021741656           64 
 4406000   0.53726603   -6.4554997    1222.2113  0.023116419  0.021735051           56 
 4407000   0.55254147   -6.4396638    1224.2698  0.023150099  0.021728419           36 
 4408000   0.55379832   -6.4679915    1219.2838  0.023050587    0.0217218           61 
 4409000    0.5372862   -6.4555213    1223.4712  0.023124502  0.021715173           47 
 4410000   0.54787869   -6.4210049    1223.3522  0.023117011  0.021708558           65 
 4411000   0.55569559   -6.4271672    1223.6431  0.023117266  0.021701942           84 
 4412000   0.54812363   -6.4494813     1222.004  0.023081067  0.021695324          101 
 4413000   0.54641873   -6.4566504    1220.9273  0.023055505  0.021688712           54 
 4414000    0.5549838   -6.4576227    1223.6081  0.023100894  0.021682092           41 
 4415000   0.53951509   -6.4652407    1221.5332  0.023056497  0.021675467           47 
 4416000   0.54741624   -6.4626116    1222.6578  0.023072498  0.021668855           57 
 4417000    0.5492102   -6.4486488    1223.8812  0.023090355  0.021662258           61 
 4418000   0.54810261   -6.4549545    1224.6545  0.023099714  0.021655648           54 
 4419000   0.55140673   -6.4510896    1223.4719  0.023072186  0.021649063           87 
 4420000   0.55420858   -6.4715264    1222.1821  0.023042648  0.021642479           70 
 4421000   0.55522572   -6.4577362    1224.9815  0.023090205  0.021635883           91 
 4422000   0.52591955   -6.4512017    1224.7065    0.0230798  0.021629304           81 
 4423000   0.55389557   -6.4734728     1222.882  0.023040206   0.02162271          130 
 4424000   0.55827051   -6.4527792    1222.1916  0.023021994  0.021616117          200 
 4425000   0.55983917   -6.4615119    1222.9914  0.023031853  0.021609513           66 
 4426000   0.53762515   -6.4774719    1219.2671  0.022956527  0.021602902          160 
 4427000   0.53997868   -6.4828988     1223.279  0.023026862   0.02159629          104 
 4428000   0.54529306   -6.4546944     1222.821  0.023013042  0.021589696           55 
 4429000    0.5456376   -6.4592363    1223.9358  0.023028821  0.021583123           44 
 4430000   0.54180103   -6.4754488    1222.4335  0.022995363  0.021576545          146 
 4431000    0.5340476   -6.4576384     1222.165  0.022985124  0.021569963           80 
 4432000   0.53549103   -6.4692797    1224.2444  0.023019035  0.021563385          117 
 4433000   0.55183196   -6.4446741    1224.5434  0.023019463  0.021556808          131 
 4434000   0.53559498     -6.46798    1222.5067  0.022975995  0.021550228          100 
 4435000   0.54300637   -6.4840356    1220.1684  0.022926877   0.02154364          163 
 4436000   0.53937485   -6.4762949     1223.109   0.02297695  0.021537067           87 
 4437000   0.55865523   -6.4501105    1223.3733  0.022976736  0.021530488          110 
 4438000   0.54258047   -6.4603573    1219.6466  0.022901582  0.021523909          153 
 4439000   0.52391953   -6.4812903    1222.1508  0.022943433  0.021517319          256 
 4440000   0.54160267   -6.4448978    1222.0768  0.022936877  0.021510735          221 
 4441000    0.5472754   -6.4857649    1222.3546  0.022936925   0.02150415          218 
 4442000   0.54371992   -6.4791267    1219.9923  0.022887444  0.021497571          197 
 4443000     0.541049   -6.4671009    1219.7774  0.022878262  0.021490981           74 
 4444000   0.54107241   -6.4767772    1222.1749   0.02291807    0.0214844          301 
 4445000   0.55240939   -6.4532182    1223.3588   0.02293511  0.021477825          175 
 4446000   0.54024956   -6.4742766    1220.5517  0.022877336  0.021471243          150 
 4447000   0.54218638   -6.4713188    1221.7468  0.022894587  0.021464653          359 
 4448000   0.52728829   -6.4858749    1221.3181  0.022881409  0.021458077          155 
 4449000   0.53901443   -6.4492737    1221.5027  0.022879724   0.02145151          153 
 4450000   0.53628158   -6.4619156    1222.2236  0.022888083  0.021444946          151 
 4451000   0.55026342   -6.4891944    1218.6859  0.022816706  0.021438387          249 
 4452000   0.53552127   -6.4767167    1219.6225  0.022829112  0.021431809          159 
 4453000   0.54271695   -6.4908434    1220.0529   0.02283204  0.021425233          169 
 4454000   0.52790951   -6.4807417    1219.9212   0.02282445  0.021418653          159 
 4455000   0.53831836   -6.4809489    1220.7101  0.022834084  0.021412087          169 
 4456000   0.54356968   -6.4714002    1221.5157  0.022844025   0.02140552          336 
 4457000   0.54965455   -6.4893546    1221.7611  0.022843488  0.021398955          182 
 4458000   0.54168034   -6.4976709    1220.4083  0.022813075  0.021392378          274 
 4459000   0.53247725   -6.5067864    1221.6556  0.022831269  0.021385804           91 
 4460000   0.53434422   -6.4919765    1220.1068  0.022797212  0.021379238          168 
 4461000   0.52715184   -6.5031921    1220.5316  0.022800038  0.021372659          194 
 4462000   0.55018494   -6.5002692    1221.4654  0.022812367  0.021366078           97 
 4463000   0.54490669    -6.484226    1220.1723  0.022783112  0.021359502          114 
 4464000   0.54098209   -6.4989726    1218.2339  0.022741822  0.021352949           70 
 4465000   0.53912397   -6.4979357    1218.9525   0.02275014  0.021346379          154 
 4466000   0.53318871    -6.485644    1220.1187  0.022766806  0.021339818          215 
 4467000   0.53732763   -6.4778288    1222.2026  0.022800585  0.021333271           91 
 4468000    0.5361551   -6.4782159    1218.7584  0.022731244  0.021326723          105 
 4469000   0.55093982   -6.4921507    1219.1881  0.022734171  0.021320167          117 
 4470000   0.53921993   -6.4881385    1220.2676  0.022749209  0.021313616           71 
 4471000   0.53538065   -6.5090547    1217.5189  0.022692889  0.021307071           76 
 4472000   0.52243918   -6.4801923    1220.0058  0.022734156  0.021300538          143 
 4473000   0.53109652   -6.4841872    1217.5194  0.022682751  0.021294008           58 
 4474000   0.53168465   -6.4855427     1220.018  0.022724221  0.021287485           63 
 4475000   0.53596658   -6.4793356      1220.44  0.022727001  0.021280975          227 
 4476000   0.53539056   -6.4752809     1220.578  0.022724494  0.021274446           99 
 4477000   0.54471746   -6.4769051    1220.2314  0.022712967  0.021267922          114 
 4478000   0.53081373   -6.4799126    1221.9824  0.022740479  0.021261401          121 
 4479000   0.52667316   -6.4798066    1220.4411  0.022706726  0.021254872          158 
 4480000   0.52625153     -6.48908    1219.4706  0.022683605  0.021248323          167 
 4481000   0.52594305   -6.5230922    1215.8952  0.022612052  0.021241771          168 
 4482000    0.5268593   -6.4992977     1219.253  0.022669437   0.02123521          151 
 4483000   0.53401997   -6.5106912    1221.3279   0.02270295  0.021228671          302 
 4484000   0.53243639    -6.507328    1218.8895   0.02265257   0.02122213          312 
 4485000   0.54075272   -6.4880146    1219.8529   0.02266542  0.021215592          269 
 4486000   0.53840388   -6.4987951    1217.9717  0.022625423  0.021209058          165 
 4487000   0.52711365   -6.4945408      1220.49  0.022667149  0.021202534          291 
 4488000   0.53743429     -6.48458    1220.9239  0.022670155  0.021196017          180 
 4489000   0.54467627   -6.4801515    1221.7761  0.022680926  0.021189502          278 
 4490000   0.54886169   -6.4864345    1219.6015  0.022635514  0.021182987          113 
 4491000    0.5352113   -6.4922464    1219.5039  0.022628663  0.021176484          107 
 4492000   0.52470422   -6.5064976    1219.3269  0.022620343  0.021169961          146 
 4493000   0.53173657   -6.4903271     1219.776  0.022623637  0.021163454          167 
 4494000   0.53630998   -6.4865393    1219.0836  0.022605763  0.021156952          205 
 4495000    0.5364688   -6.5023695    1219.4084  0.022606756  0.021150453          148 
 4496000   0.52002968   -6.4790737    1219.6569  0.022606333  0.021143961          111 
 4497000   0.54362794   -6.4892344    1215.8322  0.022530431  0.021137459           94 
 4498000   0.51940334   -6.4951837    1218.3287  0.022571675  0.021130958          178 
 4499000   0.53942398   -6.4675341    1222.9395  0.022652062  0.021124456          133 
 4500000   0.53656937   -6.4988981    1219.7153   0.02258732   0.02111797           95 
 4501000   0.52003679   -6.4890794    1222.0699  0.022625896  0.021111485          203 
 4502000   0.52695285   -6.4826599    1220.2232  0.022586687  0.021105003          132 
 4503000    0.5390533   -6.4703284    1218.9478  0.022558069  0.021098537           73 
 4504000   0.52672438   -6.4896944    1218.9752  0.022553568  0.021092072          237 
 4505000   0.52186647   -6.5085142    1220.1934  0.022571095   0.02108559          174 
 4506000    0.5231904   -6.4947562    1217.4913  0.022516114  0.021079104          150 
 4507000   0.53511035   -6.4892926    1218.8554   0.02253634  0.021072631          165 
 4508000   0.52005523   -6.4932675    1219.9248  0.022551109  0.021066152          175 
 4509000   0.53624223   -6.5010718    1220.5788  0.022558195  0.021059689          133 
 4510000    0.5186438   -6.4970637     1221.861  0.022576885  0.021053219          175 
 4511000   0.52251744   -6.5137206    1219.5372  0.022528952  0.021046744          102 
 4512000   0.52482831   -6.4992598    1220.5389  0.022542458  0.021040275          169 
 4513000   0.52794067   -6.4950041    1220.8077  0.022542427  0.021033807          104 
 4514000   0.52616961   -6.4946831     1218.836  0.022501033  0.021027339          137 
 4515000   0.52530808   -6.4675484    1220.1474  0.022520254  0.021020883           84 
 4516000   0.53788077   -6.5056334    1218.8915  0.022492093  0.021014427          279 
 4517000   0.53276432   -6.4901705    1222.3138  0.022550251  0.021007974          200 
 4518000   0.53181971   -6.5056415    1219.6153  0.022495486  0.021001514          374 
 4519000   0.53337821   -6.4966533     1219.283   0.02248438  0.020995053          232 
 4520000   0.52254951   -6.4955376    1219.2601  0.022478985  0.020988582          197 
 4521000   0.53490321   -6.5038023    1220.7279  0.022501067  0.020982111          149 
 4522000    0.5324369   -6.5225751     1218.931  0.022462977  0.020975645          207 
 4523000   0.53360723   -6.5281075    1220.0819  0.022479216   0.02096917          172 
 4524000   0.52213465   -6.5179748    1217.8404  0.022432957  0.020962687          146 
 4525000   0.53540806   -6.5125808    1218.9398  0.022448246  0.020956219          131 
 4526000   0.52188971   -6.5170209     1217.905  0.022424235  0.020949751          134 
 4527000   0.52257061   -6.5160357    1217.6602  0.022414774   0.02094328          163 
 4528000   0.52890767   -6.5125933    1216.2308  0.022383516  0.020936795          269 
 4529000    0.5442859   -6.5056672    1218.2917  0.022416495  0.020930323           91 
 4530000   0.52975212   -6.5163284    1217.7796  0.022402126  0.020923852          133 
 4531000   0.53121982   -6.5264862    1216.4498  0.022372726  0.020917365          119 
 4532000   0.52665506   -6.5315388    1216.2925  0.022364895  0.020910882          176 
 4533000   0.53456507   -6.5177029     1214.811  0.022332727  0.020904397          183 
 4534000   0.52768107   -6.5192357    1216.7194  0.022362877  0.020897922          312 
 4535000   0.53770993   -6.5233864    1216.4826  0.022353594  0.020891444          118 
 4536000   0.52405089   -6.4953806    1218.2404   0.02238096  0.020884982          131 
 4537000   0.52923551     -6.53119    1218.8516  0.022387252  0.020878529          303 
 4538000   0.52958257   -6.5284321    1216.3251  0.022335924  0.020872058          158 
 4539000    0.5142764   -6.5167944    1218.2051  0.022365519  0.020865585          331 
 4540000   0.52658671   -6.5381779    1217.9212  0.022355382  0.020859126          268 
 4541000   0.52063066   -6.5055704    1219.1086  0.022372249  0.020852672          367 
 4542000   0.52078761   -6.5083999    1218.4544  0.022355322  0.020846216          222 
 4543000   0.52812858   -6.5078102    1216.6161  0.022316679  0.020839763          166 
 4544000   0.52645735    -6.519239     1217.086  0.022320386  0.020833325          187 
 4545000   0.52853135   -6.5187481    1216.2031  0.022299286  0.020826883          229 
 4546000   0.52840982   -6.5128342    1214.0555  0.022255014  0.020820435          305 
 4547000   0.51444022   -6.5345525    1215.6543   0.02227942  0.020813989           98 
 4548000   0.52264263   -6.5284299    1218.5326  0.022327261  0.020807536          130 
 4549000   0.51334715   -6.5183514    1218.7666  0.022326639  0.020801097          109 
 4550000   0.51617457   -6.5183712    1215.3074  0.022258378  0.020794658          107 
 4551000   0.52547134   -6.5161899    1216.7472   0.02227985  0.020788226           88 
 4552000   0.52311756    -6.521631    1214.0842  0.022226204  0.020781786          295 
 4553000   0.53594882   -6.5420783    1218.6915  0.022305651  0.020775347          108 
 4554000    0.5260961   -6.5335669    1215.6208  0.022244562  0.020768919          136 
 4555000   0.52750745   -6.5245013    1216.1971  0.022250222  0.020762477          114 
 4556000   0.51874383   -6.5384905    1217.4406  0.022268082  0.020756036          126 
 4557000   0.51844299   -6.5403769    1215.5891  0.022229338  0.020749599          301 
 4558000    0.5221628   -6.5332052    1215.6698  0.022225935  0.020743158          165 
 4559000   0.51824854   -6.5094887    1215.3032  0.022214359  0.020736717          224 
 4560000   0.52839639   -6.5306086    1215.6895  0.022216548  0.020730284          204 
 4561000   0.52297028    -6.536946    1215.8892  0.022215326  0.020723851          168 
 4562000   0.51939674   -6.5203271    1217.3306  0.022236786  0.020717417          318 
 4563000   0.52088254   -6.5398603    1215.9795  0.022207237  0.020710986          421 
 4564000   0.51971756   -6.5320411    1217.0961   0.02222276  0.020704544          349 
 4565000   0.51426133   -6.5275942    1215.8954  0.022195973  0.020698113          288 
 4566000   0.51342236   -6.5439912    1215.1589  0.022177669  0.020691689          236 
 4567000   0.51884795   -6.5257649    1217.8452   0.02222183  0.020685267          362 
 4568000    0.5245377   -6.5316618    1215.6298   0.02217655  0.020678841          298 
 4569000   0.52194778   -6.5319452    1215.6666  0.022172368  0.020672429          371 
 4570000   0.52210836   -6.5317095    1216.5491  0.022183608  0.020666032          332 
 4571000   0.51758739   -6.5292207    1217.2852  0.022192175  0.020659627          237 
 4572000   0.51086733   -6.5145902    1218.0887  0.022201967   0.02065323          330 
 4573000   0.51273456   -6.5123013    1216.5165  0.022168461  0.020646834          357 
 4574000   0.51941318   -6.5354829    1216.6746  0.022166496  0.020640433          432 
 4575000    0.5227773   -6.5086076    1219.2199  0.022208013  0.020634047          201 
 4576000    0.5162241   -6.5361378    1216.4375  0.022152489  0.020627665          309 
 4577000   0.50808712    -6.524701    1215.2765  0.022126511  0.020621278          273 
 4578000   0.51303306   -6.5256585    1214.9577  0.022115875   0.02061489          423 
 4579000    0.5228426    -6.548615    1213.9209  0.022092176  0.020608493          491 
 4580000    0.5167741   -6.5296787    1218.6356  0.022173137  0.020602104          500 
 4581000   0.51895745   -6.5323409    1216.2646  0.022125165  0.020595735          390 
 4582000   0.51963421   -6.5306233    1217.5777  0.022144219  0.020589351          394 
 4583000   0.53089825    -6.559134    1217.5455  0.022138802  0.020582976          359 
 4584000   0.52302678    -6.537559    1213.9396   0.02206842  0.020576595          401 
 4585000   0.52012697   -6.5306379    1216.9109  0.022117611  0.020570211          430 
 4586000   0.51954957   -6.5231281    1217.9518  0.022131701   0.02056383          480 
 4587000    0.5244831   -6.5427388    1213.9841  0.022054794  0.020557456          490 
 4588000    0.5162029   -6.5331478    1216.9689  0.022104201   0.02055108          418 
 4589000   0.51697934   -6.5482013    1216.5787  0.022092299  0.020544707          526 
 4590000   0.52149614   -6.5265973     1217.192   0.02209862  0.020538355          189 
 4591000   0.51641236   -6.5524661    1214.6281  0.022047268  0.020531984          391 
 4592000   0.52502294   -6.5279749    1218.9903  0.022121631  0.020525628          202 
 4593000   0.51733594   -6.5276842    1214.4921  0.022035201   0.02051926          343 
 4594000   0.51895937   -6.5441304    1215.4526  0.022047826  0.020512899          329 
 4595000   0.50667302   -6.5429394    1218.0722  0.022090536  0.020506546          262 
 4596000   0.50857108   -6.5458651    1217.2175  0.022070234  0.020500187          324 
 4597000   0.51359092   -6.5333826    1215.4539  0.022033462   0.02049383          354 
 4598000   0.52005116   -6.5431215    1216.1889  0.022041991  0.020487477          380 
 4599000    0.5220215   -6.5450929    1216.8545  0.022049259   0.02048113          401 
 4600000   0.51583911   -6.5349232    1217.5907  0.022057802  0.020474788          491 
 4601000   0.51305889   -6.5424744    1214.1684  0.021991023  0.020468441          510 
 4602000   0.52150718   -6.5286851    1215.3933  0.022008425  0.020462104          485 
 4603000   0.51376015   -6.5425984    1215.5461  0.022006411  0.020455775          457 
 4604000   0.53016865   -6.5257492    1215.8589  0.022007293  0.020449446          538 
 4605000   0.51802364   -6.5426118    1216.7287  0.022018253  0.020443116          605 
 4606000   0.51185199   -6.5309864    1216.5463  0.022010174  0.020436791          410 
 4607000   0.51414173   -6.5395373    1216.1636  0.021998473  0.020430469          467 
 4608000     0.510685   -6.5472754    1216.8161    0.0220055  0.020424145          496 
 4609000    0.5147562    -6.553561     1214.986  0.021967637  0.020417821          621 
 4610000   0.51674265   -6.5241236    1213.1124  0.021929003  0.020411505          527 
 4611000   0.52155063    -6.530225    1216.6831  0.021988778  0.020405193          507 
 4612000    0.5282752   -6.5419095    1214.0975  0.021937292  0.020398877          563 
 4613000   0.50643148   -6.5256594    1215.6212  0.021960061  0.020392573          559 
 4614000   0.50401665   -6.5358101    1215.4505  0.021952219  0.020386255          492 
 4615000   0.51806752    -6.534372    1216.5472  0.021967267  0.020379952          437 
 4616000   0.51403759   -6.5355677    1215.7788  0.021948635   0.02037364          598 
 4617000   0.51720673   -6.5601413    1215.9728  0.021947383  0.020367326          429 
 4618000   0.52577678   -6.5754414    1215.5505   0.02193501  0.020361009          524 
 4619000   0.51076376   -6.5358281    1217.6623   0.02196836  0.020354693          222 
 4620000   0.50675358   -6.5521801    1214.8506  0.021912889  0.020348379          419 
 4621000   0.50723724   -6.5472842    1216.3607  0.021935381  0.020342074          510 
 4622000   0.50465963   -6.5423518    1213.8629  0.021885599  0.020335772          589 
 4623000   0.50086587    -6.560584    1213.4802  0.021873967  0.020329465          581 
 4624000   0.51947705   -6.5548691    1215.9289  0.021913366  0.020323164          533 
 4625000      0.51117   -6.5505223    1217.1536  0.021930696  0.020316868          522 
 4626000   0.50478477   -6.5481333    1216.2959  0.021910504  0.020310569          575 
 4627000   0.51087844    -6.549966    1214.4315  0.021872191  0.020304269          584 
 4628000   0.50730602   -6.5441414    1215.3365  0.021883759  0.020297983          539 
 4629000   0.50905282   -6.5513305    1213.5015  0.021845998  0.020291679          577 
 4630000   0.52342391   -6.5671481    1213.6206  0.021843424  0.020285374          600 
 4631000   0.50312743   -6.5489484    1212.7526  0.021823087  0.020279074          506 
 4632000    0.5091753    -6.556103    1213.3471  0.021829072  0.020272781          475 
 4633000   0.50719801   -6.5528926    1214.3935  0.021843181  0.020266494          643 
 4634000   0.52279374   -6.5698093    1216.6796  0.021879579  0.020260201          460 
 4635000   0.50748359   -6.5570224    1214.3418  0.021832826  0.020253905          569 
 4636000   0.50562992   -6.5520119    1215.3287  0.021845857  0.020247607          587 
 4637000   0.50650987   -6.5622012    1213.7512  0.021812796  0.020241318          554 
 4638000   0.51348716   -6.5495228    1212.9215  0.021793184  0.020235028          567 
 4639000   0.51881528   -6.5758275    1214.2101  0.021811635  0.020228742          646 
 4640000    0.5128121   -6.5728064    1213.9134  0.021801606  0.020222454          627 
 4641000   0.50228393   -6.5577511    1214.5973  0.021809187  0.020216173          323 
 4642000   0.50120444   -6.5703347     1215.037  0.021812384  0.020209894          591 
 4643000   0.51270325   -6.5681362    1213.1535  0.021773881  0.020203615          620 
 4644000   0.50718474   -6.5683214    1214.1822  0.021787651  0.020197355          578 
 4645000   0.52243778   -6.5583764    1213.6013  0.021772539  0.020191082          487 
 4646000   0.51977903   -6.5590867    1213.9764  0.021774579  0.020184814          607 
 4647000   0.50631131    -6.575476    1212.6761  0.021746577  0.020178544          536 
 4648000   0.50739838   -6.5531478    1213.8215  0.021762434  0.020172275          534 
 4649000   0.49724517   -6.5709284      1213.75  0.021756471  0.020166001          509 
 4650000    0.5221267   -6.5527642    1212.4833  0.021729091  0.020159717          498 
 4651000   0.51540082   -6.5615775    1211.5666  0.021707994  0.020153448          643 
 4652000   0.50928801   -6.5596557     1213.453   0.02173712  0.020147181          616 
 4653000   0.49820949   -6.5775076     1211.603  0.021699316    0.0201409          606 
 4654000   0.50934328   -6.5523773    1213.1674  0.021722665  0.020134638          688 
 4655000   0.50456316   -6.5672879    1212.4009  0.021704277  0.020128376          527 
 4656000   0.51094833   -6.5798864    1210.8424  0.021671722  0.020122125          605 
 4657000    0.5032486   -6.5705755    1215.1586  0.021744303  0.020115872          585 
 4658000   0.50471627   -6.5720044    1212.7989  0.021697418  0.020109619          539 
 4659000    0.5072299   -6.5593139    1213.7484  0.021709745  0.020103379          647 
 4660000   0.49983724   -6.5687162    1214.3357  0.021715588  0.020097131          453 
 4661000   0.51222399   -6.5595441    1214.2372  0.021709168  0.020090878          490 
 4662000   0.50810045   -6.5682776    1215.5744  0.021728414  0.020084636          434 
 4663000   0.50176465   -6.5763419    1216.1479  0.021734003  0.020078388          432 
 4664000   0.51119554   -6.5770662    1211.7112  0.021650071  0.020072145          543 
 4665000   0.50434561    -6.568237    1213.5074  0.021677516  0.020065911          484 
 4666000   0.50109568   -6.5709971    1212.5809  0.021656325  0.020059666          565 
 4667000   0.50714435   -6.5487712    1213.6248  0.021670324  0.020053433          523 
 4668000   0.49628446   -6.5740527    1213.1647  0.021657467   0.02004719          591 
 4669000   0.50531789   -6.5782376    1212.9964  0.021649826  0.020040951          571 
 4670000   0.50434227   -6.5937173    1213.5799  0.021655601  0.020034717          619 
 4671000   0.51145526   -6.5796243     1211.943  0.021621761  0.020028462          628 
 4672000   0.50312001   -6.5728337     1210.916  0.021598816  0.020022229          451 
 4673000   0.51261308   -6.5820378    1211.9524  0.021612675  0.020015992          531 
 4674000   0.49444662   -6.5771044    1212.9149  0.021625211  0.020009752          548 
 4675000   0.51114285    -6.564238    1212.7673  0.021617956  0.020003529          618 
 4676000   0.49716316   -6.5675665    1212.8584  0.021614956  0.019997289          654 
 4677000   0.50086766   -6.5866504    1213.7876  0.021626891   0.01999105          701 
 4678000   0.51099559   -6.5836406    1209.1704  0.021540017  0.019984819          720 
 4679000   0.51216343    -6.574395    1212.4071  0.021593059  0.019978585          761 
 4680000   0.50985794   -6.5961955    1212.4867  0.021589863  0.019972353          684 
 4681000   0.50251732      -6.5832     1212.452  0.021584632  0.019966125          711 
 4682000   0.49886728   -6.5652958    1213.1993  0.021593323  0.019959899          571 
 4683000   0.50040524   -6.5905793    1212.7777  0.021581211   0.01995367          702 
 4684000   0.49488705   -6.5899741     1212.396  0.021569813  0.019947446          687 
 4685000   0.49352234   -6.5675042    1212.8011  0.021572414  0.019941228          707 
 4686000   0.49360922   -6.5742902    1213.2142  0.021575156  0.019935012          741 
 4687000   0.49622882   -6.5887844    1211.2043  0.021534818  0.019928807          767 
 4688000   0.51121171   -6.5788312    1213.3024   0.02156752  0.019922597          737 
 4689000    0.5046662    -6.565619    1213.0909  0.021559162  0.019916398          830 
 4690000   0.50378152   -6.5770588    1209.8864  0.021497626  0.019910197          681 
 4691000   0.48910933   -6.5823928    1211.8241  0.021527466  0.019903999          752 
 4692000   0.49793196   -6.5758289    1210.2476  0.021494877  0.019897804          722 
 4693000   0.49170614   -6.5855171    1209.9308  0.021484672   0.01989161          745 
 4694000   0.49635282   -6.5853442    1210.8547  0.021496498  0.019885414          729 
 4695000   0.50067696   -6.5627139    1213.4927  0.021538741  0.019879221          781 
 4696000   0.50329903   -6.5876661    1213.3452  0.021531537   0.01987303          670 
 4697000   0.49729576   -6.5924756    1213.6633  0.021532597  0.019866843          758 
 4698000   0.50427973   -6.5698543    1211.4718   0.02148914  0.019860663          738 
 4699000   0.50326039   -6.5779019    1212.6381  0.021505252  0.019854483          654 
 4700000   0.50589997   -6.5672277    1212.3534  0.021495628  0.019848297          641 
 4701000   0.48794381   -6.5785295    1211.7532  0.021480416  0.019842119          757 
 4702000   0.49569971   -6.5859811    1211.4498  0.021470471  0.019835943          675 
 4703000   0.50316603   -6.5894692     1210.695   0.02145253  0.019829773          759 
 4704000   0.50551879   -6.5859609    1213.4271  0.021496371  0.019823598          712 
 4705000   0.49839886   -6.5829487    1210.6531  0.021442669  0.019817431          662 
 4706000   0.50038815   -6.5925886    1210.7745  0.021440262  0.019811253          674 
 4707000    0.5008965   -6.5940251    1212.3037   0.02146278  0.019805076          693 
 4708000   0.49006562   -6.5946861    1211.3094  0.021440622  0.019798906          644 
 4709000   0.49761224   -6.5958174    1212.8112  0.021462645  0.019792742          729 
 4710000   0.49118436    -6.594233    1213.0467  0.021462255  0.019786587          773 
 4711000   0.49400067   -6.5944211    1213.2043  0.021460488  0.019780434          704 
 4712000   0.48265946   -6.5775113    1213.5007  0.021461176   0.01977428          801 
 4713000   0.49144923   -6.5842379    1212.7253  0.021442911  0.019768119          701 
 4714000   0.48980576   -6.5804056    1211.7992  0.021421991  0.019761959          709 
 4715000    0.4897147   -6.5904118    1211.3147  0.021408884   0.01975581          719 
 4716000   0.49555905   -6.6032289    1214.1539  0.021454514  0.019749655          784 
 4717000   0.49245354   -6.5834836    1212.6189  0.021422848  0.019743506          673 
 4718000   0.49732256   -6.5938398     1210.688  0.021384202  0.019737353          695 
 4719000   0.50023829   -6.5828524    1210.2289  0.021371563  0.019731212          787 
 4720000   0.48982962   -6.5801858    1211.7725  0.021394288  0.019725074          818 
 4721000   0.50658258   -6.5993035    1212.0262  0.021394234  0.019718949          787 
 4722000   0.49894461   -6.5970481    1210.1268  0.021356183  0.019712814          730 
 4723000   0.50465196   -6.5813677     1212.701  0.021397082  0.019706674          663 
 4724000   0.47485269   -6.5827171    1213.8924  0.021413569  0.019700548          730 
 4725000   0.49843033   -6.5883381    1211.1504  0.021360678  0.019694423          716 
 4726000   0.48881719   -6.5940669    1213.3122  0.021394276  0.019688292          729 
 4727000   0.49962596   -6.5822492    1213.0884  0.021385805  0.019682172          656 
 4728000   0.49601439   -6.5785235    1211.5374  0.021353945  0.019676062          725 
 4729000   0.48953181   -6.5967707    1212.8837  0.021373153  0.019669941          655 
 4730000   0.48159587    -6.602194    1210.4903  0.021326468  0.019663816          797 
 4731000   0.50329382   -6.5990964    1210.2269   0.02131732  0.019657689          717 
 4732000   0.49828694   -6.6010691    1211.1489  0.021329052  0.019651576          674 
 4733000   0.49409322   -6.5998924    1211.5332  0.021331311  0.019645462          740 
 4734000   0.49494252   -6.5894603    1210.4582  0.021307882  0.019639359          710 
 4735000   0.48641615   -6.5679192     1212.751  0.021343734  0.019633251          658 
 4736000   0.49323137   -6.5809092    1214.5915  0.021371612  0.019627164          633 
 4737000   0.48994109   -6.5854739    1210.3404  0.021292317  0.019621065          687 
 4738000   0.49740321   -6.5997864    1212.4934  0.021325689  0.019614967          657 
 4739000   0.48997146   -6.6050952    1212.9949  0.021330008  0.019608871          725 
 4740000   0.49529293   -6.5864937    1214.0554  0.021344153  0.019602777          689 
 4741000   0.48832652    -6.584498    1212.2881  0.021308587  0.019596681          557 
 4742000   0.49277547   -6.6054323    1210.8964  0.021279637  0.019590593          706 
 4743000    0.4855889   -6.5847923    1213.3664  0.021318547  0.019584504          639 
 4744000   0.49375309   -6.5975448    1212.3146  0.021295577  0.019578415          800 
 4745000   0.49148673   -6.5855532     1211.496  0.021276713  0.019572324          633 
 4746000   0.48830844   -6.5703852    1212.1131  0.021283064  0.019566231          690 
 4747000   0.49632889   -6.6081283    1210.7524  0.021254693  0.019560142          711 
 4748000   0.49322673   -6.5959349    1209.8257  0.021233953  0.019554055          722 
 4749000   0.49485063   -6.5796284    1211.8054   0.02126422  0.019547977          786 
 4750000   0.49456567   -6.6072312    1211.4783  0.021254006  0.019541897          769 
 4751000   0.50269274   -6.6042377    1211.9451  0.021257719  0.019535825          780 
 4752000   0.48905786   -6.6064407    1212.6521  0.021265645  0.019529747          713 
 4753000   0.48470251   -6.5924992    1210.9404  0.021231159  0.019523668          845 
 4754000   0.50394439   -6.5947575    1213.5906  0.021273149  0.019517592          764 
 4755000   0.47942058   -6.5784387    1211.4056  0.021230383  0.019511514          691 
 4756000   0.49317943   -6.5986359    1213.3799  0.021260511  0.019505442          715 
 4757000    0.4945061   -6.6047997    1210.0394  0.021197523  0.019499368          779 
 4758000   0.48056136   -6.6069071    1210.1124  0.021194346  0.019493293          767 
 4759000   0.49861775   -6.5970042    1211.6926  0.021217564  0.019487219          706 
 4760000   0.48057461   -6.6022464    1211.3779  0.021207596  0.019481153          662 
 4761000   0.49809846   -6.6028987    1208.5011  0.021152789   0.01947508          687 
 4762000   0.48832027   -6.5981551    1208.1827  0.021142775  0.019469017          833 
 4763000   0.48299962   -6.5934709    1209.6847  0.021164614  0.019462957          742 
 4764000   0.49443386   -6.6064457     1210.452  0.021173594  0.019456891          750 
 4765000   0.48419495   -6.5939012    1209.4034  0.021150811  0.019450829          707 
 4766000    0.4884786   -6.5902828     1208.119  0.021123915  0.019444765          771 
 4767000   0.49003973   -6.6045565    1212.2464  0.021191637  0.019438715          746 
 4768000   0.48656275   -6.6151601    1211.3041  0.021170723  0.019432664          731 
 4769000   0.49253388   -6.6155142    1206.6205  0.021084443   0.01942661          783 
 4770000   0.49585758   -6.5959695    1209.1031  0.021123394  0.019420559          778 
 4771000    0.4879182   -6.5921064    1210.4273  0.021142096   0.01941451          814 
 4772000   0.49387643   -6.6121707    1208.3384  0.021101187  0.019408458          857 
 4773000   0.49145074   -6.6091197    1208.0645  0.021091985  0.019402408          904 
 4774000   0.47806369   -6.6129371    1207.9276  0.021085177  0.019396359          853 
 4775000   0.49101138   -6.6186579    1209.5707  0.021109436  0.019390308          832 
 4776000   0.49973503   -6.5945169    1208.6847  0.021089557  0.019384263          835 
 4777000   0.49296951   -6.6040478    1209.1246  0.021092816  0.019378222          847 
 4778000   0.48105347   -6.6070991    1208.9712  0.021085727  0.019372186          801 
 4779000   0.49023453   -6.6005097     1210.512  0.021108181  0.019366155          807 
 4780000   0.49209394   -6.6185157     1210.222   0.02109871  0.019360124          892 
 4781000   0.49117085   -6.6076904    1209.6599    0.0210845  0.019354093          783 
 4782000   0.48655377   -6.5870885     1209.046  0.021069392  0.019348062          790 
 4783000   0.49156976   -6.6011252    1211.0443  0.021099804  0.019342036          829 
 4784000   0.48400894   -6.5998933    1207.9636  0.021041729  0.019336003          834 
 4785000   0.48334704   -6.6022479    1211.0232  0.021090617  0.019329974          823 
 4786000   0.48695146   -6.6270484    1211.0873  0.021087326  0.019323944          911 
 4787000   0.48398793    -6.623812    1212.1146  0.021100804  0.019317914          795 
 4788000   0.47428499   -6.6062404    1209.6262  0.021053087  0.019311894          791 
 4789000   0.49253755   -6.6125706    1207.8008  0.021016927   0.01930588          791 
 4790000    0.4893302   -6.6025619    1208.8475  0.021030751  0.019299859          826 
 4791000   0.48782069   -6.5972056    1208.1673   0.02101453  0.019293844          856 
 4792000   0.47799034   -6.6153301    1208.7685  0.021020598  0.019287832          763 
 4793000   0.48601576   -6.6112533    1211.7966  0.021068861  0.019281821          825 
 4794000   0.48592395   -6.6098551    1209.0646  0.021016976  0.019275808          927 
 4795000    0.4900894   -6.6098202     1211.473  0.021054449  0.019269799          846 
 4796000   0.48175682   -6.6307217    1210.9149  0.021040361  0.019263804          875 
 4797000   0.47959734   -6.6051563    1209.1889  0.021005991  0.019257803          829 
 4798000   0.47220938   -6.6186841    1210.2708  0.021020404  0.019251803          937 
 4799000   0.48369846    -6.620564    1208.6354  0.020987626  0.019245799          991 
 4800000   0.48561308   -6.6084701     1211.673  0.021035989  0.019239803         1009 
 4801000   0.49279731   -6.6263678    1208.3872  0.020974575  0.019233805          882 
 4802000   0.48151301   -6.6161679    1209.5777  0.020990867   0.01922781          903 
 4803000   0.47702175   -6.6162912     1211.911  0.021026979  0.019221824          879 
 4804000   0.47895331   -6.6139904    1209.0829  0.020973544  0.019215843          732 
 4805000   0.49126054   -6.6274763     1209.342  0.020973673  0.019209863          884 
 4806000   0.47783013   -6.6243697    1210.2398  0.020984876  0.019203875          964 
 4807000   0.48953351    -6.612983    1210.0512  0.020977242  0.019197898          934 
 4808000      0.48439   -6.6121522    1209.9522  0.020971162  0.019191922          904 
 4809000   0.48678505   -6.6265144     1209.059  0.020951324  0.019185952          911 
 4810000   0.48495968    -6.625559    1210.4806  0.020971598  0.019179974          901 
 4811000   0.49259022   -6.6296246    1208.4899  0.020932757  0.019174001          981 
 4812000    0.4882932   -6.6151079    1209.6465  0.020948436  0.019168038          853 
 4813000   0.47298648   -6.6406246    1207.0714  0.020899498  0.019162069          921 
 4814000   0.48291981   -6.6239956    1208.9302  0.020927334  0.019156092          938 
 4815000   0.49255494   -6.6275233    1208.1676  0.020909788   0.01915013          945 
 4816000   0.47240125   -6.6005863    1210.3125  0.020942561  0.019144176          921 
 4817000   0.48635459   -6.6066144    1210.1553  0.020935494   0.01913822          867 
 4818000   0.48293404   -6.6212131    1209.1241  0.020913312  0.019132271          825 
 4819000   0.48860804   -6.6305338     1207.985  0.020889274  0.019126329          881 
 4820000   0.47710471   -6.6184455    1208.3263  0.020890842  0.019120382          980 
 4821000   0.47952705   -6.6137365     1208.558  0.020890514  0.019114432          866 
 4822000   0.47791567   -6.6114513     1208.756  0.020889604  0.019108489          871 
 4823000   0.48361493   -6.6286439    1209.8778  0.020904655  0.019102542          823 
 4824000   0.48603549   -6.6451221    1207.0513  0.020851494   0.01909659          807 
 4825000   0.48495753   -6.6199972    1209.9702  0.020897585  0.019090643          879 
 4826000   0.48250986   -6.6369704    1208.1689  0.020862151  0.019084699          895 
 4827000   0.48232846   -6.6268637    1207.2982  0.020842798  0.019078752          882 
 4828000   0.47986294    -6.630805    1209.7962  0.020881596  0.019072813          889 
 4829000   0.47942075   -6.6143642    1209.0256  0.020863975  0.019066879          814 
 4830000   0.48558763   -6.6194891    1208.1239  0.020844097  0.019060947          870 
 4831000     0.476522   -6.6180259    1209.5073  0.020863647  0.019055019          829 
 4832000   0.48244587   -6.6347021    1210.2953  0.020872919  0.019049089          938 
 4833000   0.46806581    -6.630154    1208.1823  0.020832167  0.019043164          897 
 4834000   0.48529247   -6.6395645    1209.3044    0.0208472  0.019037233          835 
 4835000   0.47803434   -6.6482103    1209.3005  0.020842821  0.019031305          895 
 4836000   0.47364245    -6.626117    1211.2128  0.020871463  0.019025381          915 
 4837000   0.46890471   -6.6353721    1209.8988   0.02084451  0.019019467         1035 
 4838000   0.47231304   -6.6109151    1209.4827  0.020833035  0.019013555          969 
 4839000   0.47471252   -6.6196243    1206.3986  0.020775618  0.019007642          963 
 4840000   0.47964712   -6.6302797    1208.4771  0.020807113  0.019001729          896 
 4841000   0.47828024   -6.6385546    1209.3862  0.020818465  0.018995821          871 
 4842000   0.47833717   -6.6294383     1207.952  0.020789481  0.018989908          895 
 4843000   0.47442588   -6.6332109    1208.8328  0.020800345  0.018984005          958 
 4844000    0.4805493   -6.6121166    1206.1981  0.020750725  0.018978094          947 
 4845000   0.47121339   -6.6312695    1207.5586  0.020769842  0.018972189         1012 
 4846000   0.48442032   -6.6410874    1209.0051   0.02079043  0.018966291          959 
 4847000   0.46612091   -6.6376344    1206.9257   0.02075039  0.018960391          986 
 4848000   0.46119007   -6.6258869    1208.5209  0.020773531  0.018954497          950 
 4849000   0.48350913   -6.6313486    1208.0004  0.020760301  0.018948598          965 
 4850000   0.47897256   -6.6408722    1207.7227   0.02075125    0.0189427         1000 
 4851000   0.46421243   -6.6462507    1209.5971  0.020779171  0.018936805         1017 
 4852000   0.47412471    -6.637649    1207.5904  0.020740423  0.018930902          922 
 4853000   0.47458109    -6.654594    1208.5121  0.020751977  0.018925014         1005 
 4854000   0.47225399   -6.6330903    1209.7777   0.02076943  0.018919129         1064 
 4855000   0.48124725   -6.6374404    1207.5729  0.020727307  0.018913243          991 
 4856000   0.47481103   -6.6497817    1207.7522  0.020726115   0.01890736          959 
 4857000   0.46566211   -6.6211983    1208.3932  0.020732846  0.018901473          996 
 4858000   0.48299795   -6.6485002    1209.1904  0.020742253  0.018895598         1036 
 4859000   0.47039881   -6.6312323    1207.1559  0.020703092  0.018889727          955 
 4860000   0.47432631   -6.6296218    1208.9704  0.020729945  0.018883855          984 
 4861000   0.48285587   -6.6411852    1208.9286  0.020724964  0.018877986          923 
 4862000    0.4643786   -6.6467125    1208.2715  0.020709438  0.018872115         1040 
 4863000   0.47495541   -6.6443939    1207.2995  0.020688524  0.018866257         1027 
 4864000   0.46529215   -6.6428374     1207.047  0.020679944  0.018860392         1008 
 4865000   0.47220503   -6.6329115    1208.1798  0.020695098  0.018854525          972 
 4866000   0.47936502   -6.6349304    1208.6036  0.020698102  0.018848666          905 
 4867000   0.47916575   -6.6459268    1208.3888  0.020690172  0.018842811         1036 
 4868000   0.47502677   -6.6384145     1208.494  0.020687723   0.01883696         1004 
 4869000   0.47933075   -6.6346226    1207.1093  0.020659774  0.018831106          971 
 4870000   0.47592096   -6.6321303    1207.8696  0.020668541  0.018825251          996 
 4871000   0.47944546   -6.6253903    1208.6353  0.020677399  0.018819396          995 
 4872000   0.47079134   -6.6347018     1207.502  0.020653769  0.018813553          985 
 4873000   0.47429296   -6.6403856    1208.2757  0.020662762  0.018807713         1038 
 4874000   0.47088314   -6.6447985    1207.5986  0.020646946  0.018801873          999 
 4875000   0.46496195   -6.6197773    1209.9858  0.020683519   0.01879603         1036 
 4876000   0.48476175   -6.6539245    1207.1662  0.020631088  0.018790186         1039 
 4877000   0.47705874      -6.6471     1207.528  0.020633039  0.018784346         1082 
 4878000    0.4759539   -6.6375598    1206.9782  0.020619417  0.018778498         1043 
 4879000   0.46896735   -6.6503142    1207.6745  0.020627084  0.018772663         1087 
 4880000   0.47438249   -6.6447917    1208.3256  0.020633976  0.018766829         1087 
 4881000   0.47909281   -6.6345501    1209.2319  0.020645222     0.018761          927 
 4882000   0.46012048   -6.6423374    1208.0442  0.020620719  0.018755171         1013 
 4883000   0.47130482   -6.6466299    1208.4042  0.020622639  0.018749341         1011 
 4884000   0.47673454   -6.6515287    1206.7264   0.02058979  0.018743517          939 
 4885000   0.47324777   -6.6459657    1205.8914   0.02057133  0.018737692          998 
 4886000   0.46868926    -6.646643    1208.8906  0.020618273  0.018731869         1083 
 4887000   0.47565934   -6.6528422    1207.1077  0.020583652  0.018726039         1082 
 4888000   0.48252045   -6.6468744    1208.0823  0.020596057  0.018720207         1078 
 4889000   0.46362943   -6.6522583     1206.665  0.020567685  0.018714379         1038 
 4890000   0.47260638   -6.6458796    1206.8779  0.020567108  0.018708558         1061 
 4891000    0.4734459   -6.6576487    1206.9241   0.02056369  0.018702731         1077 
 4892000   0.47338752   -6.6582737    1206.5434  0.020553002  0.018696907         1116 
 4893000   0.46504941   -6.6474598    1206.8393   0.02055384  0.018691084         1049 
 4894000   0.47201256   -6.6303268    1206.9069  0.020550792  0.018685265         1149 
 4895000   0.47219538   -6.6467223    1207.6045  0.020558469  0.018679453          916 
 4896000   0.47294688   -6.6472261    1207.6138  0.020554429  0.018673642          950 
 4897000     0.476084    -6.644307     1208.497  0.020565261  0.018667836         1170 
 4898000   0.47050709    -6.642437    1208.3677  0.020558862  0.018662035          985 
 4899000   0.47542982   -6.6465317    1207.5773  0.020541221  0.018656232          982 
 4900000   0.46149845    -6.645011    1207.3319  0.020532856  0.018650437         1085 
 4901000   0.46689558   -6.6602368    1207.6238  0.020533629  0.018644635         1073 
 4902000   0.47715549   -6.6551565    1207.8219  0.020532808  0.018638837         1010 
 4903000   0.46134615   -6.6478862    1206.8686  0.020512418   0.01863304         1045 
 4904000   0.46387825   -6.6565909    1207.4534  0.020518172  0.018627247          944 
 4905000   0.46015044   -6.6535545     1204.914  0.020470846  0.018621456          974 
 4906000   0.47395761   -6.6429335    1206.7377   0.02049765  0.018615673         1119 
 4907000   0.46587327   -6.6649603    1206.3376  0.020486679  0.018609886         1020 
 4908000   0.46348643   -6.6586664    1205.7918  0.020473238  0.018604102          969 
 4909000   0.47216254   -6.6651317    1204.8864  0.020453698  0.018598325         1005 
 4910000   0.46332136   -6.6655615    1206.3272  0.020473986  0.018592545         1025 
 4911000   0.47324803   -6.6395605     1206.734  0.020476718  0.018586766         1013 
 4912000   0.45776054   -6.6506059    1204.5563  0.020435605  0.018580997         1066 
 4913000   0.46495727   -6.6607773    1205.7528   0.02045174  0.018575227          997 
 4914000   0.46312158   -6.6393159    1206.3832  0.020458268  0.018569452         1021 
 4915000   0.46158132   -6.6548564    1205.6143  0.020441069  0.018563687         1020 
 4916000   0.46739967   -6.6656243    1206.0185  0.020443764  0.018557921         1076 
 4917000   0.45990987   -6.6683308    1205.2894  0.020427249  0.018552148          995 
 4918000   0.46296855   -6.6501679    1206.4072  0.020442036  0.018546378         1017 
 4919000    0.4757984   -6.6660029    1208.1002  0.020466562  0.018540619         1142 
 4920000   0.47388233    -6.644816    1207.3647  0.020449944  0.018534862         1112 
 4921000   0.46993463   -6.6553425    1209.5906  0.020483483  0.018529106          999 
 4922000   0.46546296   -6.6603627     1205.038  0.020402242  0.018523353          985 
 4923000   0.46990245   -6.6671435    1206.5324  0.020423393  0.018517604         1022 
 4924000   0.46364886   -6.6747712    1208.4307  0.020451372  0.018511856         1015 
 4925000    0.4598907   -6.6453758    1207.7696  0.020436033  0.018506111          895 
 4926000   0.46270602   -6.6603978    1207.8756  0.020433678  0.018500376         1065 
 4927000    0.4677154   -6.6581622    1207.7606  0.020427586  0.018494635         1063 
 4928000   0.46206372   -6.6660446    1205.8147  0.020390535  0.018488896         1019 
 4929000   0.46297314   -6.6515718     1207.416  0.020413471  0.018483159          961 
 4930000   0.46299133   -6.6610292     1207.798  0.020415788  0.018477427          958 
 4931000   0.46944114   -6.6446481    1206.9384   0.02039712  0.018471691         1042 
 4932000   0.47049948   -6.6671321    1206.9871  0.020393807  0.018465958         1173 
 4933000   0.46518855   -6.6624956    1206.8108  0.020386695  0.018460221         1108 
 4934000   0.45404935   -6.6608491    1205.9355   0.02036778  0.018454489         1085 
 4935000   0.47552497    -6.663809    1205.9443    0.0203638  0.018448758         1139 
 4936000   0.46241947   -6.6544015    1206.5526  0.020369945  0.018443028         1074 
 4937000   0.45810893   -6.6724348     1207.831  0.020387398  0.018437298         1127 
 4938000   0.45673454   -6.6870511    1205.2137  0.020339099   0.01843157         1128 
 4939000    0.4618476   -6.6676993    1203.0752    0.0202989   0.01842584         1150 
 4940000   0.46265459   -6.6703494    1206.6848  0.020355681  0.018420115         1101 
 4941000    0.4599547   -6.6775912    1205.6871  0.020334735   0.01841439         1036 
 4942000   0.45889865   -6.6717368    1205.1001  0.020320721  0.018408669         1117 
 4943000   0.46240291   -6.6502382    1205.9299  0.020330601  0.018402958         1083 
 4944000   0.45926818   -6.6758936    1206.8179  0.020341457  0.018397237         1066 
 4945000   0.45564788   -6.6463892    1206.1851  0.020326679  0.018391527         1100 
 4946000   0.46154168   -6.6651116    1205.7701  0.020315577  0.018385802         1068 
 4947000    0.4562872   -6.6705448    1204.4977  0.020290036  0.018380086         1002 
 4948000    0.4534789   -6.6691319     1207.645  0.020338941  0.018374377         1126 
 4949000   0.45430402   -6.6651228    1206.3821  0.020313567  0.018368663         1064 
 4950000   0.45785899   -6.6692939    1205.8628  0.020300721  0.018362953         1098 
 4951000   0.46004038   -6.6628714    1207.8365  0.020329841  0.018357257         1037 
 4952000   0.46170217   -6.6633881    1207.9429  0.020327526  0.018351557         1076 
 4953000   0.46514179   -6.6639316     1208.107  0.020326183   0.01834586         1055 
 4954000   0.45804551   -6.6641285    1204.9291  0.020268623  0.018340167         1050 
 4955000   0.46264107   -6.6719538    1207.3675  0.020305542  0.018334473         1078 
 4956000   0.45376008    -6.677119    1204.3992  0.020251534  0.018328784         1098 
 4957000    0.4614285    -6.667433    1206.5869  0.020284226  0.018323091         1062 
 4958000   0.45833141    -6.668888    1208.0153  0.020304143  0.018317408         1131 
 4959000   0.45683872   -6.6686207    1203.6401  0.020226525  0.018311718         1108 
 4960000   0.45588767    -6.658251    1206.9312  0.020277741  0.018306046         1140 
 4961000    0.4587726   -6.6663559    1204.8231  0.020238243  0.018300365         1110 
 4962000   0.46286997   -6.6717776    1205.6302   0.02024772  0.018294682         1027 
 4963000   0.45604093   -6.6666282    1205.0199  0.020233392  0.018288999         1150 
 4964000   0.46860722   -6.6577238    1204.5386  0.020221236  0.018283319         1058 
 4965000   0.45115828   -6.6460704    1205.5467  0.020234084   0.01827765         1080 
 4966000   0.46171932   -6.6868408    1205.5716  0.020230426  0.018271977         1080 
 4967000    0.4548655   -6.6692614    1206.2568  0.020237849  0.018266306         1018 
 4968000   0.45907229   -6.6804809    1205.8403   0.02022679  0.018260637         1066 
 4969000   0.45509798   -6.6809042    1202.9402  0.020174083  0.018254971         1029 
 4970000   0.46114904   -6.6776561    1204.4326  0.020195046  0.018249303         1123 
 4971000    0.4657399   -6.6814144    1203.6986  0.020178679  0.018243644         1075 
 4972000   0.45485444   -6.6714506    1203.6476  0.020173767  0.018237989         1033 
 4973000   0.45620152   -6.6592843    1205.0891  0.020193865  0.018232335         1063 
 4974000   0.46253974   -6.6795431    1203.6678  0.020165993  0.018226679         1138 
 4975000    0.4536501   -6.6768798    1207.7804  0.020230828  0.018221028         1117 
 4976000   0.44847414   -6.6522394    1205.4233  0.020187287   0.01821539          992 
 4977000   0.44866873   -6.6744983    1204.6216  0.020169809  0.018209745         1023 
 4978000   0.45116164   -6.6714406    1206.8446  0.020202969  0.018204104         1045 
 4979000   0.46142508   -6.6880411    1204.7274  0.020163476  0.018198464         1045 
 4980000   0.45872588   -6.6750703    1202.9317  0.020129379  0.018192824         1055 
 4981000   0.45077409   -6.6710927    1206.0806  0.020178019  0.018187182         1052 
 4982000   0.46597815   -6.6684027    1205.9681  0.020172088  0.018181545         1022 
 4983000   0.44990336   -6.6707477    1205.9307  0.020167414  0.018175903          986 
 4984000   0.46162772   -6.6884979    1207.5255  0.020190033  0.018170263         1038 
 4985000   0.45330838   -6.6885033    1205.6528  0.020154677  0.018164635         1045 
 4986000   0.45421284   -6.6709774    1206.4837  0.020164522  0.018159006          937 
 4987000   0.45661052   -6.6813092    1207.8352  0.020183063   0.01815338         1106 
 4988000   0.44576347   -6.6837638    1205.6824   0.02014305  0.018147748         1017 
 4989000   0.45582333   -6.6799447    1205.2665  0.020132065  0.018142122         1093 
 4990000   0.45259797   -6.6819519    1206.5448  0.020149379  0.018136491         1083 
 4991000   0.44870726   -6.6775416    1204.3777  0.020109159  0.018130869         1091 
 4992000   0.46132394   -6.6753736    1205.5762  0.020125137  0.018125253         1141 
 4993000   0.46093762   -6.6854468    1202.9391  0.020077092   0.01811963         1105 
 4994000   0.45263893   -6.6673979    1203.5891   0.02008392  0.018114014         1108 
 4995000   0.45507011    -6.677542    1205.6818  0.020114811    0.0181084         1015 
 4996000   0.46279667   -6.6857129    1207.1033  0.020134496  0.018102789         1080 
 4997000   0.45017183     -6.67165    1206.5503  0.020121245  0.018097178         1037 
 4998000   0.44793546   -6.6793521    1204.6559  0.020085633  0.018091568         1020 
 4999000   0.44175471   -6.6813885    1204.5151  0.020079267  0.018085962          978 
 5000000   0.44694923   -6.6753368    1205.4672  0.020091119  0.018080356         1034 
 5001000   0.46072065    -6.682179    1203.1097  0.020047818  0.018074758          981 
 5002000   0.45895638   -6.6662695    1205.2878  0.020080098  0.018069157         1040 
 5003000   0.45486365   -6.6656874    1205.8805  0.020085957  0.018063564         1016 
 5004000   0.44975414   -6.6935904    1204.9885  0.020067088  0.018057971         1031 
 5005000   0.44245197   -6.6807561    1205.4988  0.020071576  0.018052383          967 
 5006000   0.45410723   -6.6890734      1205.93  0.020074743  0.018046794          959 
 5007000   0.44815254    -6.676161    1205.6943  0.020066811  0.018041207          923 
 5008000   0.43603234   -6.6758508     1205.682  0.020062599  0.018035621          938 
 5009000   0.45148141   -6.6833495    1205.3916  0.020053763  0.018030039          978 
 5010000   0.44737514   -6.6877767     1205.674  0.020054458  0.018024453          975 
 5011000   0.45056873   -6.6806718    1204.0342  0.020023186  0.018018871          916 
 5012000   0.45168856   -6.6682643    1204.3947  0.020025185  0.018013292         1042 
Loop time of 13052.2 on 48 procs for 5000000 steps with 4000 atoms

Performance: 66195.745 tau/day, 383.077 timesteps/s
99.4% CPU use with 48 MPI tasks x no OpenMP threads

MPI task timing breakdown:
Section |  min time  |  avg time  |  max time  |%varavg| %total
---------------------------------------------------------------
Pair    | 940.36     | 1007.1     | 1076.4     | 109.6 |  7.72
Neigh   | 89.173     | 92.133     | 95.632     |  17.0 |  0.71
Comm    | 834.9      | 895.69     | 964.78     | 118.2 |  6.86
Output  | 15.105     | 15.11      | 15.212     |   0.4 |  0.12
Modify  | 10894      | 10922      | 10955      |  13.3 | 83.68
Other   |            | 120.3      |            |       |  0.92

Nlocal:        83.3333 ave          95 max          78 min
Histogram: 4 7 14 8 10 4 0 0 0 1
Nghost:        2390.58 ave        2414 max        2370 min
Histogram: 3 2 7 5 10 8 4 7 1 1
Neighs:        16475.1 ave       20251 max       14072 min
Histogram: 3 7 9 5 9 5 8 1 0 1
FullNghs:      32949.4 ave       37789 max       30965 min
Histogram: 4 11 10 13 5 4 0 0 0 1

Total # of neighbors = 1581573
Ave neighs/atom = 395.39325
Neighbor list builds = 268314
Dangerous builds = 1

#clear
#
#next RN
#
#jump SELF
Total wall time: 3:37:35
