
units lj                  # Use reduced LJ style units
atom_style atomic         # Uncharged point particles
atom_modify map hash      # Needed for indexing of clusters etc
                          # Used to be able to find where atoms are in relation to each other.

lattice fcc 1.0 spacing 1 1 1
Lattice spacing in x,y,z = 1.5874011 1.5874011 1.5874011
region box block 0 10 0 10 0 10 units lattice
create_box 2 box
Created orthogonal box = (0.0000000 0.0000000 0.0000000) to (15.874011 15.874011 15.874011)
  3 by 4 by 4 MPI processor grid
create_atoms 1 box
Created 4000 atoms
  using lattice units in orthogonal box = (0.0000000 0.0000000 0.0000000) to (15.874011 15.874011 15.874011)
  create_atoms CPU = 0.003 seconds
set type 1 type/fraction 2 0.07 78393
Setting atom values ...
  309 settings made for type/fraction
mass 1 1.0
mass 2 1.0
pair_style lj/cut  3.5
pair_modify tail  yes
pair_coeff 1  1  1.0  1.0   # Intearaction between 1 and 1 set with epsilon = 1 and sigma = 1
pair_coeff 1  2  1.5  0.8
pair_coeff 2  2  0.5  0.88

write_data data.0
System init for write_data ...
Neighbor list info ...
  update every 1 steps, delay 10 steps, check yes
  max neighbors/atom: 2000, page size: 100000
  master list distance cutoff = 3.8
  ghost atom cutoff = 3.8
  binsize = 1.9, bins = 9 9 9
  1 neighbor lists, perpetual/occasional/extra = 1 0 0
  (1) pair lj/cut, perpetual
      attributes: half, newton on
      pair build: half/bin/atomonly/newton
      stencil: half/bin/3d
      bin: standard
WARNING: Not all mixed pair coeffs generated from mixing. Use write_data with 'pair ij' option to store all pair coeffs. (../write_data.cpp:312)


#############################
#   M E L T   S Y S T E M   #
#############################

velocity all create 2.4 6229865 mom yes dist gaussian # Assign velocities
                                                    # Temperature 2.4, random number seed, zero linear momentum
                                                                                # Gaussian distribution

timestep 0.002   # simulation timestep
thermo 1000       # output thermodynamic data every 1000 steps bf 100

# Define a fix  in this case with index 1 applied to all
# particles in the simulation. This fix is for simulations
# in the anisotropic NPT ensemble. Note that we use the MTK
# correction.
fix 1 all npt temp 2.4 2.4 0.1 iso 5.68 5.68 0.5 mtk yes tchain 5 pchain 5 # Use NPT ensemble
                                                                         # Set temperature and pressure and damping
                                                                         # Numbers of thermostats in chain and in barostat
run 10000          # run for 10000 steps
Per MPI rank memory allocation (min/avg/max) = 3.642 | 3.644 | 3.648 Mbytes
Step Temp E_pair E_mol TotEng Press Volume 
       0          2.4   -7.8774228            0   -4.2783228   -2.8368304         4000 
    1000    2.4173309   -4.5473337            0  -0.92224384    5.5938424     4960.625 
    2000    2.3975586     -4.54503            0  -0.94959123    5.9766152    4903.5838 
    3000    2.3977539   -4.5258939            0  -0.93016218    5.6851741    4950.6201 
    4000     2.453718    -4.579257            0  -0.89960008    5.9392072    4902.0521 
    5000    2.3834814   -4.5507066            0  -0.97637826    5.5199542    4954.1926 
    6000    2.4577935   -4.5093318            0  -0.82356315     5.878384    4952.8686 
    7000    2.3563941    -4.564522            0   -1.0308145    5.5299446    4949.4822 
    8000    2.3951362   -4.4917098            0  -0.89990369    5.6745977    4984.4977 
    9000    2.3998464   -4.5482989            0  -0.94942918    5.7941488    4923.1811 
   10000    2.3718421   -4.5099609            0  -0.95308724    5.5551189    4972.8499 
Loop time of 2.13006 on 48 procs for 10000 steps with 4000 atoms

Performance: 811245.802 tau/day, 4694.710 timesteps/s
99.6% CPU use with 48 MPI tasks x no OpenMP threads

MPI task timing breakdown:
Section |  min time  |  avg time  |  max time  |%varavg| %total
---------------------------------------------------------------
Pair    | 0.88084    | 0.9383     | 0.9919     |   2.8 | 44.05
Neigh   | 0.18874    | 0.19469    | 0.1998     |   0.6 |  9.14
Comm    | 0.66278    | 0.73021    | 0.78606    |   3.6 | 34.28
Output  | 0.00026234 | 0.00026779 | 0.00032596 |   0.0 |  0.01
Modify  | 0.2218     | 0.25226    | 0.27893    |   3.2 | 11.84
Other   |            | 0.01433    |            |       |  0.67

Nlocal:        83.3333 ave          95 max          73 min
Histogram: 2 2 6 4 10 15 3 3 2 1
Nghost:        1422.85 ave        1441 max        1400 min
Histogram: 1 3 3 8 6 5 7 6 4 5
Neighs:        7650.88 ave        8963 max        6563 min
Histogram: 1 6 4 9 13 3 5 4 2 1

Total # of neighbors = 367242
Ave neighs/atom = 91.810500
Neighbor list builds = 903
Dangerous builds = 210

# Equilibrate just above the melting temperature to avoid step fn in T

fix 1 all npt temp 1.25 1.25 0.1 iso 5.68 5.68 0.5 mtk yes tchain 5 pchain 5
run 2000
Per MPI rank memory allocation (min/avg/max) = 3.643 | 3.645 | 3.649 Mbytes
Step Temp E_pair E_mol TotEng Press Volume 
   10000    2.3718421   -4.5099609            0  -0.95308724    5.5551189    4972.8499 
   11000    1.2587108   -6.0394452            0   -4.1518511    5.8101928     4098.084 
   12000     1.217872   -6.1109761            0   -4.2846248    5.6979472    4074.0681 
Loop time of 0.468546 on 48 procs for 2000 steps with 4000 atoms

Performance: 737600.277 tau/day, 4268.520 timesteps/s
99.6% CPU use with 48 MPI tasks x no OpenMP threads

MPI task timing breakdown:
Section |  min time  |  avg time  |  max time  |%varavg| %total
---------------------------------------------------------------
Pair    | 0.20012    | 0.2193     | 0.23582    |   1.6 | 46.81
Neigh   | 0.031637   | 0.033134   | 0.03546    |   0.5 |  7.07
Comm    | 0.14745    | 0.16216    | 0.17809    |   2.0 | 34.61
Output  | 5.1145e-05 | 5.2599e-05 | 6.5552e-05 |   0.0 |  0.01
Modify  | 0.044385   | 0.049505   | 0.054464   |   1.2 | 10.57
Other   |            | 0.004395   |            |       |  0.94

Nlocal:        83.3333 ave          93 max          72 min
Histogram: 1 0 4 5 7 15 9 5 1 1
Nghost:        1611.04 ave        1635 max        1593 min
Histogram: 4 4 6 5 10 8 8 2 0 1
Neighs:        9373.85 ave       10339 max        7922 min
Histogram: 1 0 3 4 7 7 11 8 3 4

Total # of neighbors = 449945
Ave neighs/atom = 112.48625
Neighbor list builds = 144
Dangerous builds = 14

#############################
# L I N E A R  Q U E N C H  #
#############################

# Define solid atoms. This closely follows ten Wolde  Ruiz-Montero and Frenkel  Faraday Discuss  1996  104  93-110
# Compute components of the per-atom q6 vector
compute q6 all orientorder/atom degrees 1 6 components 6 nnn NULL cutoff 1.3 # compute the Q6 parameter.
                                                                             # Use all neighbours within 1.3 unit cell.

# get number of connections
compute coord_number all coord/atom orientorder q6 0.5

# An atom is solid if it has 8 or more connections (of a possible 14)
variable is_solid atom c_coord_number>=8
group solid dynamic all var is_solid    # Must be dynamic to update
dynamic group solid defined

# do clustering
compute cluster solid cluster/atom 1.3 # Create a cluster where all atoms within are solid and max 1.3 units from another member

# define chunks one chunk per cluster
compute clus_chunks solid chunk/atom c_cluster nchunk every compress yes  # Says which atoms are in which chunk

# count the size of each chunk
compute size_chunks solid property/chunk clus_chunks count


# Find the maximum entry in the vector of chunk sizes
variable max_n equal max(c_size_chunks)


# Thermo style which includes this variable
# thermo_style custom step temp pe vol v_max_n

thermo ${N}  # Print the thermo information every 100 steps
thermo 1000  

# Reset the npt fix at a lower temperature (below freezing)
fix 1  all npt temp  ${temp} ${temp}  0.1  iso  5.68  5.68  0.5  mtk yes tchain  5  pchain  5
fix 1  all npt temp  0.45 ${temp}  0.1  iso  5.68  5.68  0.5  mtk yes tchain  5  pchain  5
fix 1  all npt temp  0.45 0.45  0.1  iso  5.68  5.68  0.5  mtk yes tchain  5  pchain  5

dump dmp2 all dcd ${N} traj.dcd
dump dmp2 all dcd 1000 traj.dcd


compute msd all msd com yes
variable twopoint equal c_msd[4]/6/(step*dt+1.0e-6)
fix 9 all vector 10 c_msd[4]
variable fit equal slope(f_9)/6/(10*dt)
thermo_style custom step temp pe c_msd[4] v_twopoint v_fit v_max_n

fix 1 all npt temp 1.25 ${temp} 0.1 iso 5.68 5.68 0.5 mtk yes tchain 5 pchain 5
fix 1 all npt temp 1.25 0.45 0.1 iso 5.68 5.68 0.5 mtk yes tchain 5 pchain 5
run 500000 # 5000000  # Run for this many steps
Neighbor list info ...
  update every 1 steps, delay 10 steps, check yes
  max neighbors/atom: 2000, page size: 100000
  master list distance cutoff = 3.8
  ghost atom cutoff = 3.8
  binsize = 1.9, bins = 9 9 9
  4 neighbor lists, perpetual/occasional/extra = 1 3 0
  (1) pair lj/cut, perpetual
      attributes: half, newton on
      pair build: half/bin/atomonly/newton
      stencil: half/bin/3d
      bin: standard
  (2) compute orientorder/atom, occasional
      attributes: full, newton on
      pair build: full/bin/atomonly
      stencil: full/bin/3d
      bin: standard
  (3) compute coord/atom, occasional
      attributes: full, newton on
      pair build: full/bin/atomonly
      stencil: full/bin/3d
      bin: standard
  (4) compute cluster/atom, occasional
      attributes: full, newton on
      pair build: full/bin/atomonly
      stencil: full/bin/3d
      bin: standard
Per MPI rank memory allocation (min/avg/max) = 9.742 | 9.746 | 9.751 Mbytes
Step Temp PotEng c_msd[4] v_twopoint v_fit v_max_n 
   12000     1.217872   -6.1109761  4.10326e-30 2.849486e-32 8.3333333e+20            3 
   13000    1.2928639   -6.1370942   0.56359703 0.0036128014  0.046139811            3 
   14000    1.2481807   -6.1059491    1.1023897 0.0065618435  0.044659836            5 
   15000    1.2265566   -6.1490057    1.6848556 0.0093603086  0.046203878            2 
   16000    1.2518293   -6.1145043    2.2646016    0.0117948  0.047137167            4 
   17000    1.2824679   -6.1255427    2.8198609  0.013822847  0.047264157            1 
   18000    1.2285638    -6.093071    3.3843899  0.015668471  0.046996791            3 
   19000      1.23003   -6.1600737    3.9495764  0.017322703  0.047170782            1 
   20000    1.2399549   -6.1441373    4.4983071  0.018742946  0.047169484            2 
   21000    1.2221911   -6.1603495     5.015722  0.019903658  0.046822015            2 
   22000    1.2491938   -6.1258422    5.6023042  0.021220849  0.046729485            3 
   23000     1.233499   -6.1449716    6.1982088  0.022457278  0.046743014            3 
   24000    1.2287527   -6.1191362     6.753676  0.023450263  0.046822633            5 
   25000    1.1981037   -6.1297022    7.3339648  0.024446549  0.046874456            5 
   26000     1.232642   -6.1374161    7.7843959  0.024949986  0.046849011            3 
   27000    1.2369852   -6.1692734    8.2508146  0.025465477  0.046610578            3 
   28000    1.2350903   -6.1431703    8.8302282  0.026280441  0.046347146            2 
   29000    1.2000474   -6.1397072    9.2749647  0.026652197  0.046100558            1 
   30000    1.2385291   -6.1480891    9.8989881  0.027497189  0.045909235            5 
   31000    1.2487681   -6.2046411    10.496734  0.028217027  0.045841074            3 
   32000    1.2291034   -6.1788678    11.107965  0.028926991  0.045864718            1 
   33000    1.2037342   -6.1458076    11.682813  0.029502053   0.04592754            3 
   34000    1.2204694   -6.1802708    12.130402  0.029731378  0.045931602            2 
   35000    1.1934904   -6.1760804    12.599922  0.029999814  0.045878724            3 
   36000    1.1946883   -6.1702471    13.120321  0.030371114  0.045773158            2 
   37000     1.195138     -6.14409    13.634889  0.030709208  0.045629332            2 
   38000    1.1855656   -6.1489396    14.179953  0.031096387  0.045537235            2 
   39000    1.2210928   -6.2374464    14.612331  0.031222929  0.045435886            2 
   40000    1.1515882   -6.2124821    15.178622  0.031622128  0.045330568            3 
   41000     1.165306   -6.1700707    15.698862  0.031908255  0.045213359            7 
   42000    1.2077167   -6.1896664    16.112022  0.031968297  0.045106019            3 
   43000    1.1885426   -6.1901027    16.558692  0.032090488  0.044947051            2 
   44000    1.1826035   -6.1431452    16.860089  0.031931986  0.044732812            3 
   45000    1.2070069   -6.2125968    17.450095  0.032314991  0.044517039            2 
   46000    1.1927311     -6.18159    17.926362  0.032475292  0.044339185            2 
   47000    1.1780808   -6.1705872    18.581586  0.032946075  0.044199608            4 
   48000    1.1945349   -6.1799438    18.911059    0.0328317  0.044059516            3 
   49000     1.198912   -6.2509892    19.262446  0.032759261  0.043884517            3 
   50000     1.205711   -6.2329263    19.917004  0.033195006  0.043728286            2 
   51000    1.2052316   -6.2026656    20.348827  0.033249716  0.043565375            3 
   52000     1.190791   -6.2089477    20.803538  0.033339004  0.043449357            5 
   53000    1.1709181   -6.1876579    21.306446    0.0335007  0.043299779            2 
   54000    1.1668541   -6.2672288    21.692177  0.033475581  0.043154625            2 
   55000    1.1814539   -6.2311754    22.251134  0.033713839  0.043023394            4 
   56000    1.1751792   -6.2387822    22.605671  0.033639391  0.042892186            2 
   57000    1.1822585   -6.2300393    23.050584  0.033699684  0.042756676            2 
   58000    1.1767696    -6.222234    23.567527  0.033861389  0.042633399            2 
   59000    1.1707757   -6.2368802     23.89609  0.033751539  0.042495698            3 
   60000    1.1659961   -6.2424001    24.392196   0.03387805  0.042372087            3 
   61000     1.176921   -6.2469472    24.878663  0.033987244  0.042262741            3 
   62000    1.1630301   -6.2680693    25.263248  0.033955978  0.042142983            3 
   63000    1.1666772   -6.2440014     25.65364  0.033933386  0.042011409            2 
   64000    1.1457306   -6.2487318    26.062112  0.033935041  0.041879066            3 
   65000    1.1621583   -6.2443711    26.618206  0.034125905  0.041753506            3 
   66000    1.1314068   -6.2761824    27.090711  0.034205443  0.041647721            2 
   67000    1.1724975   -6.2912793    27.525747  0.034236003  0.041540905            3 
   68000    1.1684751   -6.2961447    27.804518  0.034074164   0.04143476            2 
   69000    1.1602517   -6.2939424    28.354013  0.034243977  0.041318096            3 
   70000    1.1652058   -6.2656879    28.600907  0.034048699  0.041201619            4 
   71000    1.1377094   -6.3133401    28.884757  0.033902297  0.041063122            8 
   72000    1.1543718   -6.2536216    29.641073  0.034306797  0.040933389            4 
   73000    1.1595028    -6.232447     29.87671  0.034105834  0.040813301            6 
   74000    1.1441518   -6.2675339    30.204428  0.034013996  0.040687157            7 
   75000    1.1427492   -6.2675203    30.711114   0.03412346  0.040560385            4 
   76000    1.1356624   -6.3145691    31.101914  0.034102975  0.040445367            4 
   77000    1.1607159   -6.3102571    31.604002  0.034203465  0.040336414            3 
   78000    1.1535306   -6.2648541    32.314138  0.034523652   0.04025325            3 
   79000    1.1409692   -6.2907194    32.671839  0.034463965  0.040171259            6 
   80000    1.1292497   -6.2788969    33.161719  0.034543457  0.040096292            6 
   81000    1.1406095   -6.3032161    33.825338   0.03479973  0.040034892            2 
   82000    1.1719478    -6.276725    34.432087  0.034991958  0.039993347            2 
   83000    1.1371444   -6.3089913    34.996282  0.035136829  0.039972401            2 
   84000    1.1529992   -6.3070074    35.542226  0.035260145  0.039958398            2 
   85000    1.1222906   -6.3267685     35.90153  0.035197579  0.039943056            7 
   86000    1.1195068   -6.2766936    36.362873  0.035235342  0.039919802            2 
   87000    1.1743283   -6.3408106     36.58123  0.035039492  0.039895432            3 
   88000    1.1272714   -6.3172924    36.905671  0.034948552  0.039852184            2 
   89000    1.1514694   -6.2959039    37.311994  0.034936324  0.039804762            5 
   90000    1.1307456   -6.2921947      37.4784  0.034702222   0.03973976            2 
   91000     1.127031   -6.3655645    37.842195  0.034654024  0.039661274            3 
   92000    1.1212291   -6.3294897    38.160329  0.034565516  0.039579742            3 
   93000     1.112343   -6.3165548    38.579297  0.034569262  0.039497122            4 
   94000    1.1314201    -6.322012    39.247734   0.03479409   0.03942624            5 
   95000     1.128949   -6.3468781    39.485263  0.034636195  0.039356848            2 
   96000    1.1192692   -6.3428597     39.81301  0.034559905  0.039284636            3 
   97000     1.111873   -6.3603484     40.00907  0.034372053  0.039200228            4 
   98000    1.1015564   -6.3696837    40.534893  0.034468446  0.039115326            3 
   99000    1.1262482   -6.3246915    41.050592   0.03455437  0.039034507            3 
  100000    1.1176976   -6.3856293    41.213222  0.034344352  0.038953703            2 
  101000    1.1059921   -6.3706867    41.557915  0.034288709  0.038860943            4 
  102000     1.119799   -6.3436705    41.818779  0.034165669  0.038771123            3 
  103000     1.087886   -6.3307988    42.223093  0.034161078  0.038674733            4 
  104000    1.0919337   -6.3748795    42.535392  0.034082846  0.038575291            2 
  105000    1.0931456    -6.368992     42.91448  0.034059111  0.038473832            4 
  106000    1.1255279   -6.3441928    43.319356  0.034056098    0.0383762            3 
  107000    1.1035301   -6.3658492    43.474382  0.033858553  0.038275095           11 
  108000     1.092787   -6.3903991    44.044758  0.033985153  0.038181051            4 
  109000    1.0843154   -6.3409422    44.470533  0.033998879  0.038089783            5 
  110000    1.0887583   -6.4114399     44.72637  0.033883614  0.037998755            3 
  111000    1.0994734   -6.3666931    45.217159  0.033946816  0.037911531            3 
  112000    1.0678674   -6.3616319    45.540397  0.033884223  0.037826328            4 
  113000    1.1119774   -6.3983538    45.889856  0.033842076  0.037739226            2 
  114000    1.0734976   -6.3663656    46.297264  0.033843029  0.037651924            1 
  115000     1.100255   -6.3856691    46.625594  0.033786662  0.037566572            4 
  116000    1.0779579   -6.3999061    46.853598  0.033659194  0.037480426            4 
  117000    1.1086276   -6.3998604    47.384649   0.03374975  0.037394313            2 
  118000    1.0577932   -6.4130738    47.812897   0.03376617  0.037314918            2 
  119000    1.0708281   -6.4132899    48.327693  0.033842922  0.037238418            5 
  120000    1.0742872   -6.4061595    48.876896  0.033942289  0.037170558            4 
  121000    1.0913732   -6.4292196    49.052166  0.033782483  0.037104885            3 
  122000    1.0670248    -6.412597     49.48976  0.033804481  0.037037481            4 
  123000     1.075269   -6.4212216    49.815732  0.033750496  0.036969542            3 
  124000    1.0693308    -6.449877    49.986744  0.033593242  0.036900343            5 
  125000    1.0767649   -6.4506185    50.167668  0.033445112  0.036828185            3 
  126000    1.0787537   -6.3817054    50.939958  0.033690448  0.036755398            3 
  127000    1.0772229   -6.4330547    51.307356  0.033666244  0.036688231            5 
  128000      1.04915   -6.4404318    51.863369  0.033765214  0.036625369            4 
  129000    1.0576628   -6.4527745    52.017467  0.033603015  0.036565731            4 
  130000    1.0538069    -6.447531    52.301992  0.033526918  0.036505882            5 
  131000    1.0679952   -6.4337993    52.642669  0.033487703  0.036444029            3 
  132000    1.0616304   -6.4480872    53.011759  0.033467019  0.036382036            6 
  133000    1.0423258   -6.4382591    53.471265  0.033503299  0.036321067            3 
  134000    1.0708337   -6.4300724    53.919733  0.033532172  0.036264534            3 
  135000     1.067844   -6.4843603    54.310442  0.033524964   0.03620644            4 
  136000    1.0448451   -6.4850436    54.536808  0.033417161  0.036149709            7 
  137000    1.0610958   -6.5095416    54.930795  0.033412892  0.036091912            4 
  138000    1.0539748   -6.4798202    55.037358  0.033235119  0.036029549            2 
  139000    1.0499949   -6.4457129    55.359078  0.033188895  0.035960825            3 
  140000    1.0284731    -6.482389    55.425587   0.03299142  0.035888305            2 
  141000    1.0140341   -6.4530889    55.929462  0.033055238  0.035815549            6 
  142000    1.0015282   -6.4613024    56.227021  0.032997078  0.035745872            4 
  143000    1.0491944   -6.4769713    56.613652  0.032991638    0.0356767            4 
  144000    1.0462975   -6.5040898    56.858763  0.032904376  0.035606455            5 
  145000    1.0327024   -6.4885696    56.957889  0.032734419  0.035537019            6 
  146000    1.0227258   -6.5108195    57.692779  0.032929668  0.035468904            7 
  147000    1.0181816   -6.4917394    57.835975  0.032786834  0.035398123            6 
  148000    1.0390498   -6.4800392    57.990751   0.03265245  0.035328597            2 
  149000    1.0200511   -6.5358724    58.071053  0.032478217  0.035253105           10 
  150000    1.0391314   -6.5269351     58.49329  0.032496272  0.035177702            7 
  151000    1.0256054   -6.5264519    58.912973  0.032512678  0.035103732            2 
  152000   0.98199905   -6.5336816    59.334686  0.032529981  0.035031246           10 
  153000     1.030841   -6.5192004     59.48054  0.032396808  0.034957817            7 
  154000    1.0101861   -6.5284983    59.532766    0.0322147  0.034882911            5 
  155000    1.0311659   -6.5466493     59.80711   0.03215436  0.034806465            4 
  156000    1.0283808   -6.5406951    60.145474  0.032128992  0.034730653            3 
  157000    1.0264578    -6.504453    60.537146  0.032132243  0.034654726            5 
  158000    1.0037832   -6.5544741    60.865934  0.032102286   0.03457962            5 
  159000   0.99792525     -6.55545    61.177526  0.032063693   0.03450518            2 
  160000    1.0157631   -6.5541991    61.305222  0.031929803  0.034429796            9 
  161000    1.0214862   -6.5473596    61.782378  0.031978456  0.034354019            4 
  162000    1.0148989   -6.5186635    62.092161  0.031940412  0.034277722            2 
  163000   0.98847837   -6.5585282    62.217606  0.031808592  0.034201501            2 
  164000    1.0027461   -6.5656992    62.232945  0.031622431  0.034123476            4 
  165000   0.98732174    -6.536378    62.614323  0.031623396  0.034045751            4 
  166000   0.98991887   -6.5392703    62.912539    0.0315826  0.033968743            6 
  167000   0.99580142   -6.5455359    63.174586  0.031524244  0.033892227            4 
  168000    1.0085844   -6.5486242    63.498898  0.031497469  0.033814389            4 
  169000    1.0099684   -6.5691846    63.581737  0.031351941  0.033734388            5 
  170000     1.008747   -6.5472585    63.794253  0.031271693  0.033653634           13 
  171000     1.002986   -6.5581615    64.145464  0.031259973  0.033572399            6 
  172000   0.99579375   -6.5553057    64.228465  0.031118442  0.033491698            3 
  173000   0.99160492   -6.5534847    64.496018  0.031067446  0.033410386            7 
  174000   0.96426149   -6.5772966    64.889408  0.031077302  0.033329246            4 
  175000   0.98272521   -6.6060511    64.826347  0.030869689  0.033247349            7 
  176000    1.0097361   -6.5993367    65.244511  0.030892287  0.033163763            5 
  177000    1.0001688   -6.5735779    65.598687  0.030884504  0.033082355            5 
  178000   0.97305551   -6.5968324    65.857343  0.030832089  0.033001846            8 
  179000   0.96794612   -6.6048373    65.981286  0.030717544  0.032920399            6 
  180000   0.98442448   -6.5941482    66.088375   0.03059647  0.032838823            3 
  181000   0.98718061   -6.6009983    66.264018  0.030508296  0.032756527            8 
  182000    0.9675508   -6.6131806    66.635649  0.030510828  0.032672488            5 
  183000   0.97745115   -6.6497505    66.801076  0.030419433  0.032589647            4 
  184000   0.99378104   -6.6144325     66.88929  0.030294062  0.032507114            5 
  185000    0.9809737   -6.6054753    67.346196  0.030336124  0.032424058            6 
  186000   0.98657034   -6.6075814    67.575665  0.030275836  0.032342279            5 
  187000   0.94932221   -6.6066344    67.418023  0.030043682  0.032258635            5 
  188000   0.94174881   -6.6132358    67.801841  0.030054008  0.032173402            4 
  189000   0.96310521   -6.6104276    67.788077  0.029888923  0.032087323            3 
  190000   0.99153984   -6.6624575    68.118888  0.029876705  0.032000387            5 
  191000    0.9611378    -6.641722    68.136465  0.029727951  0.031913853            5 
  192000   0.95261538   -6.6336083      68.4524  0.029710243   0.03182847            5 
  193000   0.95263545    -6.626832    68.606865  0.029622999  0.031743875            4 
  194000   0.95207416   -6.6255971    68.869234  0.029583004  0.031657918            6 
  195000   0.93006467   -6.6331998    69.233752  0.029587073  0.031572955            2 
  196000   0.95580342   -6.6534314    69.230006  0.029434526  0.031488114            4 
  197000   0.93875924   -6.6513971    69.552517  0.029421538  0.031403443            8 
  198000   0.95237044   -6.6414178    69.771833  0.029365249  0.031320455            3 
  199000   0.95679803   -6.6418305    70.061922  0.029339163  0.031237623            7 
  200000   0.95920925   -6.6738109     70.00728    0.0291697  0.031155238            4 
  201000   0.93810823    -6.686702    70.534222  0.029243044  0.031072434            6 
  202000   0.93110596   -6.6359768    70.741423  0.029183755  0.030990168            4 
  203000   0.94128411   -6.6423637    70.952845  0.029126784  0.030908409            5 
  204000   0.96273222   -6.6809336    71.024739  0.029013374  0.030826531            3 
  205000   0.94372436   -6.6912547    71.285337  0.028977779  0.030744224            9 
  206000   0.93460251   -6.6653513    71.416985  0.028890366    0.0306628            7 
  207000   0.91090419   -6.6706215    71.612628   0.02882956  0.030581668            7 
  208000   0.95082388   -6.6720131    71.828495  0.028777442  0.030501123            2 
  209000   0.93125529   -6.6796378    72.051763  0.028728773  0.030421029            6 
  210000   0.92768512    -6.681022    72.350757  0.028710618   0.03034152            6 
  211000   0.92382247    -6.680427      72.2146  0.028520774   0.03026169            7 
  212000   0.93405752   -6.6893251    72.776055   0.02860694   0.03018267            4 
  213000   0.92626953   -6.6763699    72.757917  0.028465539  0.030103557            4 
  214000   0.94361676   -6.7028268    73.211901  0.028509307  0.030025786            3 
  215000   0.92315749   -6.6984573    73.391057  0.028446146  0.029947799            5 
  216000   0.92191456    -6.733716    73.384159   0.02831179  0.029870539            7 
  217000   0.92550699   -6.7248122    73.874558  0.028369646  0.029794001            7 
  218000   0.91180116   -6.7731193    73.743976  0.028189593   0.02971662            4 
  219000   0.91218841   -6.6813043    74.229812  0.028245743   0.02964027            6 
  220000    0.9336198   -6.7314243    74.479795  0.028212044  0.029565987            6 
  221000   0.91284461   -6.7201521    74.617416   0.02813628  0.029491782           10 
  222000   0.92679891    -6.735841    74.693218  0.028037994  0.029417464            6 
  223000   0.91476237   -6.7243957    74.923677  0.027998384  0.029343307            3 
  224000   0.90628897   -6.7498951    74.989541  0.027897895   0.02926984           14 
  225000   0.90901816   -6.7464601    75.187113  0.027847079  0.029195612            6 
  226000   0.90960572   -6.7542587    75.340295  0.027780345  0.029120569            4 
  227000   0.90356393   -6.7760938    75.161415  0.027592296  0.029044907            8 
  228000   0.90777546    -6.732823    75.479153   0.02758741   0.02896814            4 
  229000   0.90650118   -6.7263485     75.78625  0.027578694   0.02889272            4 
  230000   0.90268485   -6.7398829     75.96678  0.027524196  0.028817379            6 
  231000   0.88528395   -6.7399609    76.009045   0.02742029   0.02874216            6 
  232000   0.88481506   -6.7571583    76.230063  0.027381488   0.02866699            5 
  233000   0.89947793   -6.7701135    76.178833  0.027245648  0.028590105           12 
  234000   0.88123738   -6.7834337    76.201472  0.027137276  0.028513938            8 
  235000   0.87958633   -6.7508185    76.604459  0.027164702  0.028438349            8 
  236000   0.87865798   -6.7506289    76.610448  0.027051712  0.028364559            6 
  237000   0.89822101   -6.7591064    77.048212  0.027091495  0.028291638           10 
  238000   0.87874251   -6.7401394    77.232512  0.027042196  0.028217882           11 
  239000   0.87216058   -6.7977542    77.030427  0.026858587  0.028143055            7 
  240000   0.88136998    -6.791165    77.390691  0.026871768  0.028067686            5 
  241000   0.89000179   -6.7611794    77.536237  0.026810593  0.027991569            5 
  242000   0.87700461   -6.7993749     77.46307  0.026674611  0.027916009           12 
  243000    0.8791193   -6.7652431    77.773935  0.026671446  0.027841471           13 
  244000   0.86317858   -6.7787389    77.836385  0.026583465  0.027766678            8 
  245000   0.86970137   -6.8020689    78.031991  0.026541493  0.027691662            4 
  246000   0.87154622   -6.7995363    78.185593  0.026485634  0.027616668            7 
  247000   0.87465005   -6.7871291    78.494656  0.026482677  0.027542468            6 
  248000   0.86727461   -6.7715399     78.55798  0.026397171  0.027469482            5 
  249000   0.87441004   -6.7932805    78.880418  0.026399069  0.027397139            5 
  250000   0.87987511   -6.8335564    78.826212  0.026275404  0.027324465            8 
  251000    0.8597118   -6.8102218    78.592703  0.026093195  0.027251586           13 
  252000   0.86317033   -6.8132804    79.096243  0.026156165  0.027178982            6 
  253000   0.86653366    -6.847485    79.389868  0.026149495   0.02710652            7 
  254000   0.85054603   -6.8215426    79.234996  0.025995734  0.027033525           14 
  255000   0.85099585   -6.8217793    79.511385  0.025984113  0.026960938            8 
  256000   0.85722795   -6.8498127    79.415022  0.025851244  0.026887539            5 
  257000    0.8614509   -6.8499237    79.762162  0.025863217  0.026814552           13 
  258000   0.84551101   -6.8703683    79.834148  0.025786223  0.026742215           15 
  259000   0.86838792   -6.8607774    79.924639  0.025715778  0.026670869            7 
  260000   0.84828779   -6.8310135    80.112319  0.025677025  0.026599608            5 
  261000   0.84516838   -6.8258883    80.580378   0.02572809  0.026529674           16 
  262000   0.83234246   -6.8616875    80.336778   0.02555241  0.026459672            6 
  263000   0.83729622   -6.8552398    80.262992  0.025431873  0.026389334            5 
  264000   0.86252096   -6.8614693    80.820097  0.025511394  0.026319401           13 
  265000   0.85552017   -6.8600363    80.913271  0.025444425  0.026249857            9 
  266000   0.83523305   -6.8247868    80.859459  0.025331911  0.026180779            6 
  267000   0.84788214   -6.8787261    81.195947  0.025342056  0.026111986            9 
  268000   0.84856424   -6.8631178    81.350191  0.025295457  0.026043715           13 
  269000   0.84112655   -6.8953194    81.388903  0.025213415  0.025975469            7 
  270000   0.84046037   -6.8857995    81.529467  0.025163416  0.025906766           10 
  271000   0.82159495   -6.8699287    81.499022    0.0250612   0.02583833           10 
  272000   0.82147103   -6.9025533    81.691688  0.025028091  0.025768948           13 
  273000   0.82278479   -6.8786579    81.786309  0.024965296  0.025699565            6 
  274000   0.84081188   -6.8981737    81.828653   0.02488706   0.02563039           15 
  275000   0.81699079   -6.8801781    81.875959  0.024810897  0.025561235           17 
  276000   0.80820232   -6.8811953    81.874254  0.024720487  0.025492137            6 
  277000   0.82810622    -6.887805    82.035102  0.024679634  0.025422122           12 
  278000   0.81560652   -6.9058911    82.069056  0.024601036  0.025352232            4 
  279000   0.82988353   -6.8934036    82.343908  0.024594955  0.025283115           13 
  280000   0.82912112   -6.8850429    82.496385  0.024552496  0.025214774            6 
  281000   0.80829742   -6.9049629    82.653849  0.024511818  0.025146729            9 
  282000   0.81529052   -6.8858398    82.673603  0.024430734  0.025078783            8 
  283000   0.81743665   -6.9271546    82.796146  0.024380491  0.025010651            9 
  284000   0.80405359   -6.9111614    82.961053  0.024343032  0.024942778           13 
  285000   0.81969974   -6.9179952    82.914987  0.024244148  0.024874996           15 
  286000   0.80127495   -6.9225821    83.004893  0.024185575  0.024807144           10 
  287000   0.79199233   -6.9140131    82.924584  0.024077986  0.024739531           17 
  288000   0.81153322    -6.956453    83.126502  0.024052807  0.024671951           19 
  289000   0.78513207   -6.9246918    82.959381   0.02392139  0.024604276            8 
  290000   0.78283377   -6.9391167    83.119445  0.023884898  0.024536055           10 
  291000   0.79616281   -6.9419078    83.137177  0.023807897  0.024467374           18 
  292000   0.80783633   -6.9514498    83.130728  0.023724523  0.024398896           12 
  293000   0.83017849    -6.950494    83.243534  0.023675635  0.024329802           16 
  294000   0.80458462   -6.9479155    83.385881  0.023635454  0.024261093           16 
  295000   0.80222272   -6.9900582    83.663434  0.023633738  0.024192986           17 
  296000   0.77961873   -6.9616225    83.628489  0.023544056  0.024125396            7 
  297000   0.79385773    -6.962784    83.618972  0.023462113  0.024057099            6 
  298000   0.79332142   -6.9558953    83.814728  0.023438123  0.023989329            6 
  299000   0.79920507   -6.9635808    83.957186  0.023399439  0.023922113           10 
  300000   0.77273337   -6.9573238    84.208372  0.023391214  0.023855251            7 
  301000   0.79273138   -6.9602174    84.033112  0.023264981  0.023788871           10 
  302000    0.7900497   -6.9784453    83.876025  0.023144598  0.023722321           13 
  303000   0.76603987   -6.9818228     84.28798  0.023181513   0.02365576            8 
  304000   0.76864557   -7.0037954    84.355389  0.023123736  0.023589621           24 
  305000   0.78663231   -7.0027736    84.659362  0.023130973  0.023523758           10 
  306000   0.76089405   -6.9870551    84.694699  0.023065005  0.023458686            6 
  307000   0.77714473   -7.0120809    84.788971  0.023015464  0.023394147            8 
  308000   0.78401244   -6.9950235    85.021467  0.023003644  0.023329614            5 
  309000   0.76329151   -7.0011486    84.894633  0.022894993  0.023265224           12 
  310000   0.77631777   -6.9920208    84.979162  0.022843861  0.023201653           13 
  311000   0.76691902   -6.9879809    85.232059  0.022838172  0.023137953           11 
  312000   0.76877346   -7.0375543    85.251358  0.022770128  0.023074713            4 
  313000   0.77200216   -7.0149009    85.141442  0.022668115  0.023011397            5 
  314000   0.76791221   -7.0233795    85.347901  0.022650717   0.02294841           14 
  315000   0.77563104   -7.0074074    85.436549  0.022602262  0.022885454           12 
  316000   0.77659643   -7.0066804    85.414866  0.022525017  0.022822475            6 
  317000   0.74394121   -7.0194835    85.535346  0.022485632  0.022760103           13 
  318000   0.75036827   -7.0486758    85.559392  0.022421224  0.022697935           16 
  319000   0.76307703   -7.0867781    85.642871  0.022372746  0.022635079            8 
  320000   0.74506298   -7.0391305    85.618296  0.022296431   0.02257248           10 
  321000   0.76964173   -7.0206693    85.807809   0.02227617   0.02250982           17 
  322000   0.74913002   -7.0264795    85.819181  0.022209933  0.022447128           37 
  323000    0.7440286   -7.0641274    85.758594   0.02212554  0.022383707           17 
  324000   0.76670838    -7.060599     85.78581  0.022064251  0.022320309           10 
  325000   0.74930469   -7.0719574    85.717394  0.021978819  0.022257341           20 
  326000   0.75654751   -7.0801091    85.989266  0.021980896  0.022194904           14 
  327000   0.74390123   -7.0839998    86.104137   0.02194295  0.022132599           20 
  328000   0.74406734      -7.0636    86.124348  0.021881186  0.022070363           17 
  329000   0.74060373   -7.0879834     86.12278   0.02181428  0.022008512           23 
  330000   0.75617648   -7.0448174    86.211852   0.02177067  0.021946328           31 
  331000   0.74392658   -7.0870334    86.303636  0.021728005  0.021884185           25 
  332000   0.73726736   -7.0670669    86.398202  0.021686296  0.021822232           10 
  333000    0.7355833   -7.0559898    86.412438  0.021624734   0.02176059           22 
  334000   0.75026843   -7.0843724    86.385388  0.021553241  0.021699631           17 
  335000   0.73371801   -7.0913828    86.529208  0.021524679  0.021638823           14 
  336000   0.74312836   -7.0900955    86.671976  0.021496026  0.021578216           15 
  337000   0.71963262   -7.0699133    86.862453   0.02147934  0.021517923           19 
  338000   0.74049886   -7.1003646     86.82124  0.021405631  0.021457736           15 
  339000   0.72142023   -7.0869156    86.647932  0.021299885  0.021397212           18 
  340000   0.71509476   -7.0993281    86.697802  0.021249461  0.021336714           37 
  341000   0.70708118   -7.0920235    86.756764  0.021201555  0.021276059           31 
  342000   0.71073134   -7.0974344    86.701487  0.021126093  0.021215401           13 
  343000   0.74077094   -7.0989996    86.778828  0.021083291  0.021155161           10 
  344000   0.71486192   -7.1123252    86.986135  0.021072223  0.021095387           10 
  345000   0.71439032   -7.1182116    86.918787  0.020994876  0.021035513           13 
  346000   0.71565153   -7.1156278    86.860058  0.020920053  0.020975543           19 
  347000   0.71571132   -7.1304843    86.666131  0.020813192  0.020915249           21 
  348000   0.71308935   -7.1441394     86.79156   0.02078342    0.0208551           31 
  349000   0.71135854   -7.1314387    86.887356  0.020746742   0.02079512           58 
  350000    0.7148203   -7.1311815    87.181253  0.020757441  0.020735516           31 
  351000   0.72002746   -7.1429441    87.116499  0.020682929  0.020676004           24 
  352000    0.7009091    -7.172582    86.882311  0.020568729  0.020616343           30 
  353000   0.70335484   -7.1387607    87.279297  0.020604178  0.020556834           17 
  354000   0.70402847   -7.1592343    87.177226  0.020521946  0.020497522           45 
  355000   0.71172591   -7.1651491     87.41833  0.020520735  0.020438215           43 
  356000   0.68749198   -7.1488583    87.300115   0.02043542  0.020379427           31 
  357000   0.68967072   -7.1384762    87.238555  0.020363808  0.020320734           46 
  358000   0.68326283   -7.1726516    87.474009  0.020361734  0.020262101           48 
  359000   0.70004291   -7.1748688    87.304461  0.020265659  0.020203587           25 
  360000   0.69349122    -7.153826    87.494362  0.020253325  0.020145335           46 
  361000    0.6868264   -7.1706948    87.370399  0.020168605   0.02008711           30 
  362000   0.69575862   -7.1702894    87.378869  0.020114841  0.020028968           14 
  363000   0.68044746    -7.188547     87.56244   0.02010157  0.019971192           51 
  364000   0.69252343    -7.179657    87.373425  0.020003073  0.019913595           22 
  365000   0.68360466   -7.1794949    87.592611  0.019998313   0.01985618           17 
  366000   0.69056424   -7.1954258    87.477084  0.019917369  0.019798671           13 
  367000   0.66577909   -7.1919119    87.590774  0.019888913  0.019741451           35 
  368000   0.67634857   -7.1852359    87.646591  0.019847507  0.019683889           10 
  369000   0.67376233   -7.2062172    87.502065  0.019761081  0.019626332           29 
  370000   0.68554447   -7.2000053    87.379582  0.019680086  0.019568698           29 
  371000    0.6861943   -7.1902904    87.388497  0.019629042  0.019510837           11 
  372000    0.6791105    -7.210884    87.290844    0.0195544  0.019453191           34 
  373000   0.66861956    -7.224702    87.442633  0.019535888  0.019395701           38 
  374000   0.68693245   -7.2214883    87.513116  0.019499357  0.019338349           45 
  375000   0.66732461   -7.2031638    87.427664   0.01942837  0.019280969           33 
  376000   0.65727036   -7.2218064    87.697371  0.019436474  0.019223823           39 
  377000   0.65274109   -7.2157487    87.483036  0.019337541  0.019166594           20 
  378000   0.66992935   -7.2131122    87.506589  0.019291576   0.01910946           44 
  379000   0.66525728   -7.2553372    87.576552  0.019256058  0.019052462           41 
  380000   0.65012002   -7.2581396    87.372782  0.019160698  0.018995491           19 
  381000   0.64983931   -7.2178688    87.495391  0.019137225  0.018938323           23 
  382000   0.66441269   -7.2365408     87.54982  0.019099001  0.018881664           17 
  383000   0.65142072   -7.2421777    87.511232  0.019040738  0.018825091           27 
  384000   0.63085465   -7.2254534    87.552277   0.01900006  0.018768482           15 
  385000   0.65007564   -7.2040401    87.474517  0.018933878  0.018712127           19 
  386000   0.65834481   -7.2374253    87.522238  0.018895129  0.018655868           16 
  387000   0.66011863   -7.2502039    87.534188  0.018848878  0.018599816           31 
  388000   0.65028148   -7.2673536    87.376107  0.018766346  0.018543947           11 
  389000   0.64572751   -7.2511461    87.663422  0.018779653  0.018488073           17 
  390000   0.64278924   -7.2650328    87.630278  0.018724418  0.018432454           25 
  391000    0.6548031   -7.2730745    87.486891   0.01864597  0.018376833           15 
  392000   0.62292083   -7.2500304    87.768878   0.01865835  0.018321118           21 
  393000   0.62526841   -7.2739561    87.516957  0.018557455  0.018265658           14 
  394000   0.63965419   -7.3088751    87.765048  0.018562827  0.018210277           11 
  395000   0.64204119   -7.2850812    87.558784  0.018472317   0.01815527           19 
  396000    0.6333623   -7.3087113    87.536545   0.01842099  0.018100278           27 
  397000   0.64575352   -7.3071766    87.643125  0.018396962  0.018045417           36 
  398000   0.63063847   -7.3058015    87.656169  0.018353469  0.017990848           26 
  399000   0.62718788    -7.327091    87.704956   0.01831766  0.017936293           38 
  400000   0.62696977   -7.3374911    87.489997  0.018227083  0.017881855           37 
  401000   0.63863977   -7.2893182    87.540489  0.018192121  0.017827698           44 
  402000    0.6244021   -7.3166974    87.623555  0.018164087  0.017773506           42 
  403000   0.64438231   -7.3269758    87.606555  0.018115499  0.017719593           39 
  404000   0.63700446   -7.3402245     87.62501  0.018074466  0.017665824           31 
  405000     0.622161   -7.3510398    87.611054  0.018026966    0.0176121           35 
  406000   0.61815696   -7.3436895    87.636533  0.017987794  0.017558304           27 
  407000   0.61917235    -7.331334    87.650286  0.017946414  0.017504641           23 
  408000    0.6292347   -7.3262708    87.644864   0.01790132    0.0174512           32 
  409000   0.61759086   -7.3327757     87.63608  0.017855762  0.017397847           17 
  410000   0.60653961   -7.3387879     87.54585  0.017793872  0.017344864           39 
  411000   0.60775099   -7.3222953    87.489134  0.017739078  0.017291889           29 
  412000    0.6016119   -7.3272689    87.673299  0.017733273   0.01723918           28 
  413000   0.62158892   -7.3523572    87.598179  0.017675177   0.01718663           45 
  414000   0.60811073   -7.3427812    87.515983  0.017615939  0.017134158           70 
  415000   0.61368471   -7.3533588    87.530838  0.017576473  0.017081892           50 
  416000   0.60800527   -7.3616812    87.659991  0.017560094    0.0170298           83 
  417000   0.58939013   -7.3616581    87.573361  0.017500672  0.016977823           92 
  418000   0.58391505   -7.3791413    87.643658  0.017472818  0.016925912           36 
  419000   0.59335682   -7.3755157    87.641917  0.017430771  0.016874259           44 
  420000   0.59769495   -7.3776285    87.633566  0.017387612  0.016822866           42 
  421000   0.59979876   -7.3645518    87.643506  0.017348279  0.016771628           76 
  422000   0.60375928   -7.3775343    87.647716  0.017308001  0.016720551           88 
  423000   0.60288347   -7.3704007    87.809733  0.017299002  0.016669788           57 
  424000   0.59110643   -7.3818584    87.687814   0.01723424  0.016618993          116 
  425000   0.59746557   -7.3818399    87.753729  0.017206613  0.016568329           68 
  426000    0.5921232   -7.3672107    87.680386  0.017151875  0.016517919           80 
  427000   0.57201489   -7.3939244    87.729037  0.017121202  0.016467563          101 
  428000   0.58323049   -7.3880277    87.665445  0.017068817  0.016417321          131 
  429000   0.59081732   -7.3850614    87.897622   0.01707413  0.016367351          216 
  430000    0.5798194   -7.3868324    87.706778  0.016997438   0.01631748          150 
  431000   0.58425278    -7.386803    87.682078  0.016953225  0.016267755          146 
  432000   0.58865438    -7.402998    87.719974  0.016921291  0.016218409          198 
  433000   0.56970575   -7.4159476    87.683953   0.01687528  0.016169063          251 
  434000   0.57268137   -7.4107976    87.714267  0.016842217  0.016119963          252 
  435000   0.57518014   -7.4135496    87.589355   0.01677957  0.016070842          263 
  436000   0.56982163   -7.3945182    87.442799  0.016713073  0.016021868          125 
  437000   0.56509494   -7.4180846    87.864012  0.016755151  0.015973088          231 
  438000    0.5677088   -7.4408114    87.561807    0.0166594  0.015924352          237 
  439000   0.57617134   -7.4295272    87.664074  0.016640864  0.015875835          266 
  440000   0.57389205   -7.4201707    87.588321  0.016588697  0.015827333          129 
  441000   0.56923056    -7.432079    87.481076  0.016530816  0.015778974          194 
  442000   0.55635244   -7.4449748    87.411705  0.016480337  0.015730738          260 
  443000   0.56357066   -7.4401399    87.539947  0.016467259  0.015682664          209 
  444000    0.5620658   -7.4463565    87.508404   0.01642425  0.015634584          269 
  445000   0.55875927   -7.4467917    87.463481  0.016378929  0.015586629          245 
  446000   0.56745095   -7.4455792    87.537502  0.016356035   0.01553891          180 
  447000   0.55440967   -7.4533019     87.44085  0.016301426  0.015491306          190 
  448000   0.54615888    -7.453724    87.541637  0.016283787  0.015443805          232 
  449000     0.564207   -7.4539612    87.512626  0.016242135  0.015396528          330 
  450000   0.55082853    -7.449613    87.461639    0.0161966  0.015349393          280 
  451000    0.5563116   -7.4651626    87.439643  0.016156623  0.015302328          353 
  452000   0.54459582   -7.4625011    87.334536    0.0161015  0.015255408          305 
  453000   0.54443528   -7.4696079    87.306572  0.016060812  0.015208583          232 
  454000   0.53203507   -7.4645083    87.426642  0.016047475   0.01516191          292 
  455000   0.53734668   -7.4752562     87.45942  0.016018209  0.015115288          294 
  456000   0.54663064   -7.4708568    87.371399  0.015966995  0.015068728          244 
  457000   0.53575431   -7.4858532    87.330905  0.015924673  0.015022317          368 
  458000   0.53610265   -7.4711305    87.371508   0.01589729  0.014976114          333 
  459000   0.54350012   -7.4857359    87.305266  0.015850629  0.014930007          352 
  460000   0.53166874   -7.4903733    87.253352  0.015806767  0.014883983          373 
  461000   0.52623861   -7.5018932     87.32742  0.015785868  0.014838123          387 
  462000   0.52284738   -7.4979254    87.145279  0.015718845   0.01479236          285 
  463000    0.5272217   -7.5001532    87.264442  0.015706343    0.0147468          352 
  464000   0.53355293    -7.499889    87.150717  0.015652068  0.014701364          369 
  465000   0.52003046   -7.5045537    87.300064  0.015645173  0.014656253          284 
  466000   0.51974147   -7.5127791    87.032515  0.015563754  0.014611165          377 
  467000    0.5245882   -7.5113633    87.396708  0.015595415  0.014566145          357 
  468000   0.52639554   -7.5153262    87.299627  0.015544805   0.01452133          311 
  469000   0.53060443   -7.5176621    87.296701  0.015511141  0.014476701          386 
  470000   0.52544404   -7.5124981    87.187098  0.015458705  0.014432168          363 
  471000   0.51314154   -7.5136058    87.175421  0.015423818   0.01438781          335 
  472000   0.52557866   -7.5132108    87.256376  0.015405434  0.014343651          419 
  473000   0.51439194   -7.5260109    87.116596  0.015348238  0.014299573          268 
  474000    0.5161494    -7.517644    87.189968  0.015328757  0.014255775          395 
  475000   0.51807198    -7.522367    87.239164  0.015305116   0.01421215          414 
  476000   0.49724248   -7.5401012    87.301567  0.015283888  0.014168637          399 
  477000   0.51553793   -7.5412602    87.171146  0.015229061   0.01412521          393 
  478000   0.50888697   -7.5438552    87.140648  0.015191884  0.014081951          428 
  479000   0.49938337    -7.542943    87.084269   0.01515036  0.014038916          445 
  480000   0.50372797   -7.5438045     87.23158  0.015144371  0.013995973          463 
  481000   0.49678029   -7.5299241    87.159025  0.015100316  0.013953206          420 
  482000   0.49557537   -7.5383594    87.160957  0.015069322  0.013910495          408 
  483000   0.48712815    -7.534067    87.040985  0.015017423  0.013867948          463 
  484000   0.48647463   -7.5522043    87.203035  0.015014297  0.013825514          451 
  485000   0.49321791   -7.5517305    86.964616  0.014942374  0.013783299          476 
  486000   0.49375688    -7.565797    87.013897  0.014920078  0.013741073          466 
  487000    0.4943804   -7.5748208    86.888581  0.014867998  0.013699023          405 
  488000   0.50354257   -7.5586134    86.996135  0.014855897  0.013657083          386 
  489000   0.49328074   -7.5568095    87.011614  0.014828155  0.013615334          459 
  490000   0.48197328   -7.5711253    86.891419  0.014777452  0.013573667          487 
  491000   0.48988783   -7.5773126    87.106159  0.014783802  0.013532173          439 
  492000   0.48411433   -7.5729956    87.041298  0.014742767  0.013490873          466 
  493000   0.47111036   -7.5788873    86.985474  0.014703427  0.013449715          462 
  494000   0.47215328   -7.5697986     86.98738  0.014673984  0.013408652          468 
  495000   0.48773895   -7.5934186    86.854642  0.014621994  0.013367798          464 
  496000   0.47488207   -7.5758433    86.840378  0.014590117  0.013326979          458 
  497000   0.47554328   -7.5756886    87.014046   0.01458988  0.013286495          452 
  498000   0.47021479   -7.5764099    86.966972  0.014552706  0.013246111          404 
  499000   0.46252984   -7.5875725     87.03448  0.014534816  0.013205847          474 
  500000   0.47248145   -7.5865553    87.015938  0.014502656  0.013165714          452 
  501000   0.46644209   -7.5978259    86.991239  0.014469601  0.013125792          377 
  502000   0.45781823   -7.5946292    86.896901  0.014425116  0.013085928          442 
  503000   0.45713615   -7.6034185    86.804971  0.014381208  0.013046229          424 
  504000    0.4586159   -7.6064386    86.911012  0.014370207  0.013006593          498 
  505000   0.46853102   -7.5994768    86.861541  0.014333588  0.012967143          387 
  506000   0.45968797    -7.607965    86.915734  0.014314185  0.012927909          376 
  507000   0.45544524   -7.6050294    86.788981  0.014265118  0.012888827          470 
  508000   0.46017536   -7.6156339    86.941348  0.014262032  0.012849843          386 
  509000   0.45263794   -7.6235298    86.819847   0.01421412  0.012810956          557 
  510000   0.44398691   -7.6183114    86.920926  0.014202766  0.012772267          489 
  511000   0.44597447   -7.6160447     86.97459  0.014183723  0.012733693          536 
  512000   0.44677984   -7.6168052    86.764286  0.014121791  0.012695261          483 
Loop time of 1077.46 on 48 procs for 500000 steps with 4000 atoms

Performance: 80188.240 tau/day, 464.052 timesteps/s
99.4% CPU use with 48 MPI tasks x no OpenMP threads

MPI task timing breakdown:
Section |  min time  |  avg time  |  max time  |%varavg| %total
---------------------------------------------------------------
Pair    | 67.147     | 71.4       | 78.291     |  30.9 |  6.63
Neigh   | 6.5734     | 6.8277     | 7.0896     |   4.1 |  0.63
Comm    | 57.97      | 66.086     | 71.125     |  34.6 |  6.13
Output  | 0.83143    | 0.83192    | 0.84123    |   0.1 |  0.08
Modify  | 913.37     | 919.18     | 924.95     |   8.4 | 85.31
Other   |            | 13.14      |            |       |  1.22

Nlocal:        83.3333 ave          90 max          74 min
Histogram: 2 1 1 4 6 12 9 4 5 4
Nghost:        1780.67 ave        1803 max        1764 min
Histogram: 1 6 8 7 7 9 6 3 0 1
Neighs:        10887.6 ave       12130 max        9477 min
Histogram: 2 0 2 8 10 10 5 7 2 2
FullNghs:      21777.3 ave       23829 max       19244 min
Histogram: 2 1 1 5 12 9 6 8 0 4

Total # of neighbors = 1045309
Ave neighs/atom = 261.32725
Neighbor list builds = 26986
Dangerous builds = 0

#clear
#
#next RN
#
#jump SELF
Total wall time: 0:18:00
