
units lj                  # Use reduced LJ style units
atom_style atomic         # Uncharged point particles
atom_modify map hash      # Needed for indexing of clusters etc
                          # Used to be able to find where atoms are in relation to each other.

lattice fcc 1.0 spacing 1 1 1
Lattice spacing in x,y,z = 1.5874011 1.5874011 1.5874011
region box block 0 10 0 10 0 10 units lattice
create_box 2 box
Created orthogonal box = (0.0000000 0.0000000 0.0000000) to (15.874011 15.874011 15.874011)
  3 by 4 by 4 MPI processor grid
create_atoms 1 box
Created 4000 atoms
  using lattice units in orthogonal box = (0.0000000 0.0000000 0.0000000) to (15.874011 15.874011 15.874011)
  create_atoms CPU = 0.003 seconds
set type 1 type/fraction 2 0.98 78393
Setting atom values ...
  3920 settings made for type/fraction
mass 1 1.0
mass 2 1.0
pair_style lj/cut  3.5
pair_modify tail  yes
pair_coeff 1  1  1.0  1.0   # Intearaction between 1 and 1 set with epsilon = 1 and sigma = 1
pair_coeff 1  2  1.5  0.8
pair_coeff 2  2  0.5  0.88

write_data data.0
System init for write_data ...
Neighbor list info ...
  update every 1 steps, delay 10 steps, check yes
  max neighbors/atom: 2000, page size: 100000
  master list distance cutoff = 3.8
  ghost atom cutoff = 3.8
  binsize = 1.9, bins = 9 9 9
  1 neighbor lists, perpetual/occasional/extra = 1 0 0
  (1) pair lj/cut, perpetual
      attributes: half, newton on
      pair build: half/bin/atomonly/newton
      stencil: half/bin/3d
      bin: standard
WARNING: Not all mixed pair coeffs generated from mixing. Use write_data with 'pair ij' option to store all pair coeffs. (../write_data.cpp:312)


#############################
#   M E L T   S Y S T E M   #
#############################

velocity all create 2.4 1741580 mom yes dist gaussian # Assign velocities
                                                    # Temperature 2.4, random number seed, zero linear momentum
                                                                                # Gaussian distribution

timestep 0.002   # simulation timestep
thermo 1000       # output thermodynamic data every 1000 steps bf 100

# Define a fix  in this case with index 1 applied to all
# particles in the simulation. This fix is for simulations
# in the anisotropic NPT ensemble. Note that we use the MTK
# correction.
fix 1 all npt temp 2.4 2.4 0.1 iso 5.68 5.68 0.5 mtk yes tchain 5 pchain 5 # Use NPT ensemble
                                                                         # Set temperature and pressure and damping
                                                                         # Numbers of thermostats in chain and in barostat
run 10000          # run for 10000 steps
Per MPI rank memory allocation (min/avg/max) = 3.642 | 3.644 | 3.648 Mbytes
Step Temp E_pair E_mol TotEng Press Volume 
       0          2.4   -2.7962588            0   0.80284124   -1.8826162         4000 
    1000    2.3950198   -1.5738581            0    2.0177735     5.542924     4254.195 
    2000      2.40428    -1.567336            0    2.0381825    5.7756886    4200.7902 
    3000    2.3723791   -1.6199211            0     1.937758    5.4708404     4222.673 
    4000    2.3916946   -1.6194805            0    1.9671646    5.3047587    4247.9222 
    5000     2.423564   -1.5464185            0    2.0880187    5.8481101    4227.7854 
    6000    2.4429764   -1.5835461            0    2.0800023     5.741284    4209.6402 
    7000    2.4312246   -1.5660649            0    2.0798604     5.811205    4216.5347 
    8000    2.4268979   -1.5596166            0    2.0798202    6.0832019    4162.7913 
    9000     2.409254   -1.6207201            0    1.9922574    5.5633226    4203.1897 
   10000    2.4692015   -1.5766511            0    2.1262253    5.7913916    4200.0828 
Loop time of 2.56269 on 48 procs for 10000 steps with 4000 atoms

Performance: 674290.522 tau/day, 3902.144 timesteps/s
99.6% CPU use with 48 MPI tasks x no OpenMP threads

MPI task timing breakdown:
Section |  min time  |  avg time  |  max time  |%varavg| %total
---------------------------------------------------------------
Pair    | 1.0501     | 1.1069     | 1.1998     |   3.1 | 43.19
Neigh   | 0.20486    | 0.21293    | 0.23278    |   1.4 |  8.31
Comm    | 0.79653    | 0.90501    | 1.0265     |   5.2 | 35.31
Output  | 0.0002507  | 0.00026012 | 0.00033342 |   0.0 |  0.01
Modify  | 0.26609    | 0.32281    | 0.3914     |   5.8 | 12.60
Other   |            | 0.01477    |            |       |  0.58

Nlocal:        83.3333 ave          95 max          71 min
Histogram: 1 0 6 4 10 11 9 4 1 2
Nghost:        1593.79 ave        1617 max        1569 min
Histogram: 4 1 3 7 5 11 4 6 5 2
Neighs:        9082.44 ave       10551 max        7737 min
Histogram: 1 3 5 8 10 7 9 2 1 2

Total # of neighbors = 435957
Ave neighs/atom = 108.98925
Neighbor list builds = 912
Dangerous builds = 239

# Equilibrate just above the melting temperature to avoid step fn in T

fix 1 all npt temp 1.25 1.25 0.1 iso 5.68 5.68 0.5 mtk yes tchain 5 pchain 5
run 2000
Per MPI rank memory allocation (min/avg/max) = 3.643 | 3.645 | 3.649 Mbytes
Step Temp E_pair E_mol TotEng Press Volume 
   10000    2.4692015   -1.5766511            0    2.1262253    5.7913916    4200.0828 
   11000     1.246599   -2.4331612            0   -0.5637302    5.4311065    3316.4055 
   12000    1.2829068   -2.4271363            0  -0.50325718      5.68795     3303.782 
Loop time of 0.577989 on 48 procs for 2000 steps with 4000 atoms

Performance: 597935.610 tau/day, 3460.276 timesteps/s
99.7% CPU use with 48 MPI tasks x no OpenMP threads

MPI task timing breakdown:
Section |  min time  |  avg time  |  max time  |%varavg| %total
---------------------------------------------------------------
Pair    | 0.26058    | 0.27641    | 0.29433    |   1.5 | 47.82
Neigh   | 0.038249   | 0.040135   | 0.043063   |   0.5 |  6.94
Comm    | 0.19111    | 0.21164    | 0.23177    |   2.0 | 36.62
Output  | 5.153e-05  | 5.5057e-05 | 0.00016125 |   0.0 |  0.01
Modify  | 0.042472   | 0.045115   | 0.049391   |   0.9 |  7.81
Other   |            | 0.004635   |            |       |  0.80

Nlocal:        83.3333 ave          92 max          76 min
Histogram: 1 3 5 11 5 13 5 2 1 2
Nghost:        1864.77 ave        1888 max        1838 min
Histogram: 2 1 5 5 6 11 4 5 6 3
Neighs:        11551.8 ave       12866 max       10142 min
Histogram: 4 1 5 5 7 7 6 6 5 2

Total # of neighbors = 554487
Ave neighs/atom = 138.62175
Neighbor list builds = 143
Dangerous builds = 11

#############################
# L I N E A R  Q U E N C H  #
#############################

# Define solid atoms. This closely follows ten Wolde  Ruiz-Montero and Frenkel  Faraday Discuss  1996  104  93-110
# Compute components of the per-atom q6 vector
compute q6 all orientorder/atom degrees 1 6 components 6 nnn NULL cutoff 1.3 # compute the Q6 parameter.
                                                                             # Use all neighbours within 1.3 unit cell.

# get number of connections
compute coord_number all coord/atom orientorder q6 0.5

# An atom is solid if it has 8 or more connections (of a possible 14)
variable is_solid atom c_coord_number>=8
group solid dynamic all var is_solid    # Must be dynamic to update
dynamic group solid defined

# do clustering
compute cluster solid cluster/atom 1.3 # Create a cluster where all atoms within are solid and max 1.3 units from another member

# define chunks one chunk per cluster
compute clus_chunks solid chunk/atom c_cluster nchunk every compress yes  # Says which atoms are in which chunk

# count the size of each chunk
compute size_chunks solid property/chunk clus_chunks count


# Find the maximum entry in the vector of chunk sizes
variable max_n equal max(c_size_chunks)


# Thermo style which includes this variable
# thermo_style custom step temp pe vol v_max_n

thermo ${N}  # Print the thermo information every 100 steps
thermo 1000  

# Reset the npt fix at a lower temperature (below freezing)
fix 1  all npt temp  ${temp} ${temp}  0.1  iso  5.68  5.68  0.5  mtk yes tchain  5  pchain  5
fix 1  all npt temp  0.45 ${temp}  0.1  iso  5.68  5.68  0.5  mtk yes tchain  5  pchain  5
fix 1  all npt temp  0.45 0.45  0.1  iso  5.68  5.68  0.5  mtk yes tchain  5  pchain  5

dump dmp2 all dcd ${N} traj.dcd
dump dmp2 all dcd 1000 traj.dcd


compute msd all msd com yes
variable twopoint equal c_msd[4]/6/(step*dt+1.0e-6)
fix 9 all vector 10 c_msd[4]
variable fit equal slope(f_9)/6/(10*dt)
thermo_style custom step temp pe c_msd[4] v_twopoint v_fit v_max_n

fix 1 all npt temp 1.25 ${temp} 0.1 iso 5.68 5.68 0.5 mtk yes tchain 5 pchain 5
fix 1 all npt temp 1.25 0.45 0.1 iso 5.68 5.68 0.5 mtk yes tchain 5 pchain 5
run 2000000 # 5000000  # Run for this many steps
Neighbor list info ...
  update every 1 steps, delay 10 steps, check yes
  max neighbors/atom: 2000, page size: 100000
  master list distance cutoff = 3.8
  ghost atom cutoff = 3.8
  binsize = 1.9, bins = 8 8 8
  4 neighbor lists, perpetual/occasional/extra = 1 3 0
  (1) pair lj/cut, perpetual
      attributes: half, newton on
      pair build: half/bin/atomonly/newton
      stencil: half/bin/3d
      bin: standard
  (2) compute orientorder/atom, occasional
      attributes: full, newton on
      pair build: full/bin/atomonly
      stencil: full/bin/3d
      bin: standard
  (3) compute coord/atom, occasional
      attributes: full, newton on
      pair build: full/bin/atomonly
      stencil: full/bin/3d
      bin: standard
  (4) compute cluster/atom, occasional
      attributes: full, newton on
      pair build: full/bin/atomonly
      stencil: full/bin/3d
      bin: standard
Per MPI rank memory allocation (min/avg/max) = 9.810 | 9.816 | 9.821 Mbytes
Step Temp PotEng c_msd[4] v_twopoint v_fit v_max_n 
   12000    1.2829068   -2.4271363 7.2476596e-31 5.0330967e-33 8.3333333e+20            1 
   13000    1.2526999   -2.4264709    1.1522293 0.0073860848  0.097585793            1 
   14000    1.2684775   -2.4513585    2.4340218  0.014488224   0.10296454            1 
   15000     1.230469   -2.4318843    3.7314619  0.020730343   0.10562602            1 
   16000    1.2736848   -2.4418542    5.0124246  0.026106377   0.10612389            3 
   17000    1.2419641   -2.4226436    6.3038122  0.030901039   0.10673799            1 
   18000    1.2693667     -2.44673    7.6465099  0.035400508   0.10767305            2 
   19000    1.2185679   -2.4086303    8.8878211   0.03898167   0.10770207            2 
   20000    1.2372545   -2.4317535    10.128732   0.04220305   0.10751523            1 
   21000    1.2411999   -2.4522194    11.346732  0.045026714   0.10692121            1 
   22000    1.2570102   -2.4177821    12.858073  0.048704821   0.10684731            2 
   23000     1.238418   -2.4345224    14.141819  0.051238473   0.10729091            2 
   24000    1.2395531   -2.4522764    15.507587  0.053845786   0.10787667            2 
   25000    1.2362539   -2.4497692    16.918102  0.056393674   0.10852454            1 
   26000    1.2565627   -2.4398959    18.359766  0.058845402    0.1089577            3 
   27000    1.2451875   -2.4478297    19.475352  0.060109111   0.10918124            3 
   28000    1.2470852   -2.4547825    20.809735  0.061933735   0.10939298            1 
   29000    1.2439539   -2.4333513    22.061199  0.063394249   0.10950015            2 
   30000    1.2208121   -2.4518609    23.531432  0.065365088   0.10955316            4 
   31000    1.2574522   -2.4558036    24.812175  0.066699393   0.10958019            1 
   32000    1.2490488   -2.4402978     26.07968  0.067915831   0.10961365            2 
   33000    1.2316074   -2.4463638    27.640405  0.069799002   0.10973656            2 
   34000    1.2572709   -2.4406987    28.842361   0.07069206    0.1099032            2 
   35000     1.235099   -2.4507847    30.046968    0.0715404   0.10999282            1 
   36000    1.2406918   -2.4614803    31.535737  0.072999391     0.110017            1 
   37000    1.2384874   -2.4666251     32.57719  0.073372048   0.10995737            1 
   38000    1.2248585   -2.4621858     33.58746  0.073656709   0.10983361            1 
   39000    1.2442416   -2.4357517    35.397376  0.075635418   0.10978808            1 
   40000    1.2585776   -2.4636885    36.886434  0.076846737   0.10987777            2 
   41000    1.2254654   -2.4644814    38.009504  0.077255089   0.10993291            1 
   42000     1.221042   -2.4534953    39.508251  0.078389385   0.11003163            1 
   43000    1.1985826   -2.4422881    41.328823  0.080094618   0.11018448            3 
   44000    1.2570932   -2.4664294    42.365734  0.080238131   0.11034167            2 
   45000    1.2362199   -2.4311122    43.478949  0.080516571   0.11040841            2 
   46000    1.2113843   -2.4262801    44.608477  0.080812458    0.1103635            1 
   47000    1.2396906   -2.4556728    45.539201  0.080743263   0.11019899            3 
   48000     1.234207   -2.4393546    46.839831   0.08131915   0.11001533            2 
   49000    1.2254775   -2.4351697    48.370237  0.082262307   0.10983289            1 
   50000     1.240246   -2.4628767    49.495831  0.082493051   0.10969468            2 
   51000    1.2314494   -2.4314221    50.825501  0.083048204   0.10961425            2 
   52000     1.237639   -2.4791483    52.113947  0.083515939   0.10953674            1 
   53000    1.2361731   -2.4433073    53.553517  0.084203643   0.10952515            1 
   54000    1.2319295   -2.4945352    54.847112  0.084640605   0.10948601            2 
   55000    1.2300509   -2.4456636    55.959239  0.084786725   0.10944642            1 
   56000    1.2399664    -2.455546     57.67878  0.085831517   0.10941719            2 
   57000    1.2434059   -2.4596868    59.151718   0.08647912   0.10947736            2 
   58000    1.2292943   -2.4372359    60.736284  0.087264775   0.10955979            1 
   59000    1.2250605   -2.4405498    61.766759  0.087241184   0.10965936            2 
   60000    1.2189979   -2.4703895    63.843107  0.088670981   0.10977445            2 
   61000    1.2212208   -2.4728533    65.162834  0.089020264   0.10992283            1 
   62000    1.2434284   -2.4503003    66.130881  0.088885593   0.11004427            2 
   63000    1.2268397   -2.4671316    67.114141  0.088775318   0.11011088            1 
   64000    1.2265055   -2.4348882    68.528045  0.089229225   0.11015871            1 
   65000    1.2369115   -2.4711704    69.852433  0.089554401   0.11017453            1 
   66000     1.230929   -2.4270746    71.403528  0.090155969   0.11017989            1 
   67000    1.2330284    -2.443321    72.368617  0.090010717   0.11018303            1 
   68000    1.2294414   -2.4701697    73.897233  0.090560334   0.11016967            1 
   69000    1.2327312   -2.4843155    75.025459  0.090610457   0.11018283            2 
   70000    1.2121576   -2.4463752    76.402943  0.090955883   0.11022281            1 
   71000    1.2231452   -2.4507635    78.334389  0.091941771   0.11025387            4 
   72000    1.2441077   -2.4937011    79.261215  0.091737517   0.11029994            2 
   73000    1.2094758   -2.4564728    81.334041  0.092847078   0.11034589            2 
   74000    1.2045195   -2.4768988    81.769245  0.092082483    0.1103888            1 
   75000    1.2441016   -2.4800753     83.44533  0.092717033   0.11045368            2 
   76000    1.2137929   -2.4619716    84.792341  0.092974058   0.11052221            1 
   77000    1.1983558   -2.4686615    86.150845  0.093236844   0.11053143            1 
   78000    1.2115135     -2.46883    86.920148  0.092863406   0.11052992            1 
   79000    1.2210736   -2.4464579    88.798975  0.093669804   0.11053204            2 
   80000    1.2153166   -2.4293552    89.672234  0.093408576   0.11054397            2 
   81000    1.2336907   -2.4702328    90.672267  0.093284225   0.11053469            2 
   82000     1.230806    -2.468299    91.985809  0.093481512   0.11050956            1 
   83000    1.2049647   -2.4674532    93.509212  0.093884751   0.11047421            1 
   84000    1.2083059   -2.4318417    94.575135  0.093824538   0.11043507            2 
   85000    1.2253623   -2.4603614    95.812845  0.093934162   0.11039821            3 
   86000    1.2322888    -2.493622    96.767059   0.09376653   0.11033263            2 
   87000    1.2406376   -2.4879321    98.313419  0.094169941    0.1102609            1 
   88000    1.2092014   -2.4759263    98.810065  0.093570137   0.11017962            1 
   89000    1.2096885   -2.4880756    100.31834  0.093931025   0.11010197            1 
   90000     1.207783   -2.4623321    102.00563  0.094449655   0.11003961            1 
   91000    1.2151364   -2.4835215    103.70527  0.094968195   0.10998951            3 
   92000    1.2057455   -2.4662207    104.56716   0.09471663   0.10994259            4 
   93000    1.2035437   -2.4598226     105.8231  0.094823568   0.10991938            1 
   94000    1.1976204   -2.4900809    106.94055  0.094805451   0.10987479            1 
   95000    1.1885851   -2.4778017    109.05702  0.095664052   0.10985741            1 
   96000    1.2009229    -2.474087     109.9671  0.095457548   0.10984523            1 
   97000    1.2264994   -2.4713825    111.65767  0.095925835   0.10984211            1 
   98000    1.2275701   -2.4808319     112.3677  0.095550761    0.1098164            3 
   99000    1.2230893   -2.4782696    114.39292  0.096290334   0.10979213            1 
  100000    1.2150006   -2.4405406    115.19505  0.095995872   0.10977487            2 
  101000    1.2080085   -2.4590493    116.09453  0.095787564   0.10974043            1 
  102000    1.2352825   -2.4920458    118.24967   0.09660921   0.10972528            1 
  103000    1.1980746   -2.4989063    119.06236  0.096328774   0.10972098            1 
  104000    1.2130995   -2.4805293    120.46855  0.096529289   0.10970491            1 
  105000    1.2417668   -2.4614725    122.13024  0.096928758   0.10970048            2 
  106000     1.205868   -2.4875598    123.24451  0.096890339   0.10968646            1 
  107000    1.2002135   -2.4800476     124.5238  0.096981149    0.1096829            1 
  108000    1.2425909   -2.4615249    126.21672  0.097389445   0.10966582            1 
  109000    1.2209125   -2.4796985    126.47008  0.096689663   0.10964657            1 
  110000    1.1967104   -2.4875159    128.11228  0.097054755   0.10960526            1 
  111000    1.2193326    -2.499388    128.49743  0.096469543   0.10954541            2 
  112000    1.2270862   -2.4492229    129.92787  0.096672519   0.10948165            1 
  113000    1.1989959   -2.4579903    131.56434  0.097023846   0.10942777            1 
  114000    1.2325068   -2.4860551    132.41918  0.096797647   0.10937528            2 
  115000    1.2101522   -2.4963093    133.74735  0.096918373   0.10931955            3 
  116000    1.2056797   -2.4835987    134.77762  0.096823004   0.10925499            1 
  117000    1.1876629   -2.4836233    135.82918  0.096744432   0.10917563            1 
  118000    1.2257888   -2.4761209    137.48058  0.097090807   0.10910348            1 
  119000     1.202887    -2.483903    138.83205   0.09722132   0.10903519            2 
  120000    1.2156505   -2.4817419    139.53056  0.096896219   0.10895063            1 
  121000    1.1929008   -2.4879892    139.83714  0.096306573   0.10885204            2 
  122000     1.217466    -2.494899    141.79864  0.096856997   0.10874947            2 
  123000    1.2177478   -2.4848676    141.93183  0.096159779   0.10864943            3 
  124000    1.2130445   -2.5012094    143.52772    0.0964568   0.10854424            2 
  125000    1.2207222   -2.4575808    144.33314  0.096222092   0.10845132            1 
  126000    1.2004782   -2.5128623    145.55527  0.096266713    0.1083433            2 
  127000    1.2091643   -2.4871233    146.09668  0.095863966   0.10822815            2 
  128000    1.2130299   -2.4778639    148.50894  0.096685508   0.10810793            2 
  129000     1.200471   -2.5096118    148.74324  0.096087362   0.10799133            1 
  130000    1.1837818   -2.5027009     150.1177  0.096229293   0.10787604            1 
  131000    1.2213741   -2.5105536    151.21985   0.09619583    0.1077552            2 
  132000    1.1958243   -2.4624366    152.93578  0.096550369   0.10764864            2 
  133000    1.2166374   -2.4937901    153.02358  0.095879435   0.10752997            2 
  134000    1.2086619   -2.4502626    155.41985  0.096654138   0.10741477            1 
  135000    1.2124287   -2.5026842    155.22626  0.095818681   0.10729091            1 
  136000    1.2061953   -2.5174864    155.82609  0.095481674   0.10715628            2 
  137000    1.1854489   -2.4999601    157.32908  0.095698952     0.107017            1 
  138000    1.1833327   -2.4784869    159.52609  0.096332177   0.10689367            2 
  139000    1.2051077   -2.4902288    160.93802  0.096485622   0.10678563            1 
  140000    1.2156412   -2.4989994    162.38382  0.096657033   0.10668411            1 
  141000    1.2016019   -2.4965361    163.31964  0.096524608   0.10660085            2 
  142000    1.2011984   -2.5017508    164.43959  0.096502107   0.10653288            1 
  143000    1.2116448   -2.4873068    166.33486  0.096931735   0.10645425            1 
  144000    1.2111556   -2.4792278    168.16085  0.097315304   0.10638272            1 
  145000    1.1778064   -2.4946066    169.01868  0.097137171   0.10632375            2 
  146000    1.1813707   -2.4694906    171.26092  0.097751665   0.10626868            1 
  147000    1.1999831   -2.4953936    172.42463  0.097746388   0.10622217            1 
  148000    1.2020935   -2.5053658    173.10627  0.097469746    0.1061853            3 
  149000    1.1881419   -2.4959557    175.29884  0.098041858   0.10614977            2 
  150000    1.2113662   -2.5063056    176.09553  0.097830849   0.10610959            1 
  151000    1.1884963   -2.4848175    176.79358  0.097568199   0.10606902            2 
  152000    1.1853731   -2.5110361    178.17055  0.097681224   0.10603874            2 
  153000    1.2223021   -2.4913092    179.38654  0.097705088    0.1060047            1 
  154000    1.1700739   -2.4866372    181.09627  0.097995815     0.105971            1 
  155000    1.1874745   -2.4602325    183.45059  0.098629349    0.1059454            2 
  156000    1.2125895   -2.4929766    183.64194  0.098099328   0.10591902            1 
  157000    1.1835425   -2.5307046    184.10367  0.097719571   0.10589627            1 
  158000    1.2021131   -2.4774379    185.96173   0.09808108   0.10588104            2 
  159000    1.1758157   -2.5030811    187.87333  0.098466107   0.10586726            1 
  160000    1.1993786    -2.486333    189.54111  0.098719329   0.10585707            1 
  161000    1.2032309   -2.5156388    190.64862  0.098679412   0.10584003            1 
  162000    1.1985692   -2.4822175    191.26678  0.098388262   0.10581479            1 
  163000    1.2049913   -2.4824695    191.66939  0.097990484   0.10578238            1 
  164000     1.206386   -2.4981751    193.40997  0.098277425   0.10574765            2 
  165000    1.1649006   -2.5327998    193.57653  0.097765924   0.10571826            1 
  166000    1.1938022   -2.5173727    195.92976  0.098358315   0.10569326            2 
  167000    1.2025474   -2.5094286     197.1372  0.098371857   0.10566992            2 
  168000    1.1786802   -2.4819715    198.60993   0.09851683   0.10564863            1 
  169000    1.1810143   -2.5106444     199.4151  0.098330919   0.10562309            2 
  170000    1.2034387     -2.49078    200.70707  0.098385816   0.10558977            1 
  171000    1.1765426   -2.4815596    201.75305    0.0983202   0.10555995            3 
  172000    1.2001837   -2.4925438    202.82193  0.098266441   0.10552334            1 
  173000    1.1794955   -2.4868639    205.46229  0.098970272   0.10549223            2 
  174000    1.2091112   -2.4901996    205.69671  0.098513748   0.10546304            1 
  175000    1.1715039   -2.4984323     206.0148  0.098102288   0.10543302            1 
  176000    1.1742821   -2.5067462    209.00842  0.098962319   0.10539719            2 
  177000    1.1646338   -2.5287378    208.26269  0.098052116   0.10535733            1 
  178000    1.1837868   -2.4818008    209.62669  0.098139837   0.10532414            2 
  179000    1.1713566   -2.5349711    210.65956  0.098072421   0.10529016            1 
  180000    1.1671893   -2.5062295    212.35382  0.098311954   0.10525485            1 
  181000    1.1613149    -2.500955    212.65184  0.097906003   0.10521592            2 
  182000    1.1757266    -2.530516    214.63804  0.098277492   0.10517445            1 
  183000    1.1788489    -2.486663    216.18393  0.098444412   0.10513311            2 
  184000    1.1768984   -2.5332439    216.91354  0.098239829   0.10509343            1 
  185000    1.1756592   -2.4855286    217.62138  0.098027648    0.1050497            2 
  186000    1.1603527   -2.4882934    219.47446  0.098330849   0.10500863            3 
  187000    1.2007378   -2.5378072    219.13894  0.097655497   0.10496115            4 
  188000    1.1968706   -2.5082805    221.22821   0.09806215   0.10491862            2 
  189000    1.1830133   -2.4831496    222.85399  0.098260138   0.10487321            1 
  190000    1.1839271   -2.4965017    223.11918  0.097859291   0.10483568            1 
  191000    1.1790739   -2.5119881    225.31471  0.098304848   0.10479294            2 
  192000    1.1871005   -2.5158595    226.09056  0.098129582    0.1047498            3 
  193000    1.1563902    -2.516582    226.97898  0.098004742   0.10470397            2 
  194000    1.1634045   -2.4825209    226.69428   0.09737727   0.10466451            1 
  195000    1.2155071   -2.5253998    229.53342  0.098091205   0.10462457            1 
  196000    1.1494604   -2.5187842    230.77678  0.098119377   0.10459199            1 
  197000    1.1894744   -2.5203424    231.94769  0.098116618   0.10455582            1 
  198000    1.1876144   -2.5074543    232.65473  0.097918656   0.10452115            3 
  199000    1.1612697   -2.5425622    233.81009  0.097910422   0.10448316            2 
  200000    1.1640348   -2.5150385    234.38646  0.097661026   0.10444532            1 
  201000    1.1825749   -2.5426701    236.66505  0.098119839   0.10440377            1 
  202000     1.166142   -2.5103167    238.13207  0.098239303   0.10436227            1 
  203000    1.1798811   -2.5188881    238.18759  0.097778156   0.10431253            1 
  204000    1.1619724   -2.5226085     238.4396  0.097401797    0.1042662            2 
  205000    1.1715864   -2.5062903    241.72623  0.098262694   0.10422183            1 
  206000    1.1796446   -2.5203981    242.56729  0.098125926   0.10418277            2 
  207000    1.1784196   -2.5047839    243.08603  0.097860719   0.10414143            1 
  208000    1.1939894   -2.5110495    244.85468  0.098098829   0.10409637            1 
  209000    1.1577744   -2.4967125    244.93674  0.097662177   0.10404505            1 
  210000    1.1724845   -2.5200047    245.60316  0.097461572   0.10399336            1 
  211000    1.1629662    -2.508418    247.27836  0.097661278    0.1039409            1 
  212000    1.1736749   -2.5399909    247.93706  0.097459536   0.10389234            1 
  213000    1.1655312   -2.5104736    250.56108  0.098028592   0.10384502            2 
  214000    1.1694021   -2.5461487    250.83847  0.097678531   0.10380437            2 
  215000    1.1777456    -2.504618    252.33829  0.097805539   0.10376109            1 
  216000    1.1837129   -2.4897976    253.70705  0.097880806   0.10371702            1 
  217000    1.1754793   -2.5360613    254.36098  0.097680868   0.10367013            2 
  218000    1.1708747   -2.5397975    254.83508  0.097414023   0.10362243            1 
  219000    1.1626846   -2.5036768    255.09074   0.09706649   0.10357009            1 
  220000    1.1698749   -2.5426208    259.04263  0.098122207   0.10352529            4 
  221000    1.1245468   -2.5309543    258.50978  0.097477292   0.10348242            1 
  222000    1.1556905   -2.5003416    260.99926  0.097972695   0.10344251            3 
  223000    1.1697659   -2.5237876    261.80762  0.097835435   0.10340564            3 
  224000     1.180247   -2.5343383    263.70829  0.098105764   0.10336549            2 
  225000    1.1832862   -2.5329933    263.05915  0.097429314   0.10332412            1 
  226000    1.1793048   -2.4925674    264.41115  0.097496736   0.10328515            5 
  227000    1.1702253   -2.5133122    266.24153   0.09773918   0.10323707            1 
  228000    1.1788153   -2.5021908    267.05085  0.097606306   0.10319391            1 
  229000    1.1766646   -2.5218907    267.09668  0.097196754   0.10314543            2 
  230000    1.1702075   -2.4993778    269.40566  0.097610748   0.10309647            1 
  231000    1.1593749   -2.5400367    268.50404  0.096862931   0.10304748            2 
  232000    1.1444933   -2.5242998    269.95554  0.096966789   0.10299396            2 
  233000    1.1665697   -2.5045218    271.46515  0.097090539    0.1029405            2 
  234000    1.1465224   -2.5219669    272.56091  0.097065851   0.10288542            2 
  235000    1.1771396   -2.5269986    273.88492  0.097122311   0.10283704            1 
  236000    1.1685602     -2.53268     274.5494  0.096945411    0.1027889            2 
  237000    1.1502975   -2.5225099    277.13412   0.09744519   0.10274436            2 
  238000    1.1701665   -2.5320188    277.71778  0.097240118    0.1027025            2 
  239000    1.1398769   -2.5498727    279.32399  0.097393301   0.10265986            1 
  240000     1.168807   -2.5381629    280.12775  0.097266581   0.10261913            1 
  241000    1.1603519   -2.5190241    281.57801  0.097364455   0.10257614            3 
  242000    1.1543404   -2.5118895    283.67758  0.097685118   0.10253884            2 
  243000    1.1532795   -2.5454732    284.09892  0.097427612    0.1025011            1 
  244000     1.162137   -2.5366313     286.2081  0.097748668   0.10246433            2 
  245000    1.1451993    -2.543153    285.48388   0.09710336   0.10243076            2 
  246000    1.1298949   -2.5300767    289.64008  0.098116558   0.10238883            1 
  247000    1.1643711   -2.5115916    288.17255  0.097224208   0.10235357            1 
  248000    1.1572498   -2.5296415    288.50776  0.096944811   0.10231171            1 
  249000    1.1502249   -2.5250295    290.06757    0.0970775   0.10227169            5 
  250000    1.1399811   -2.5458165    292.17252   0.09739084   0.10223526            5 
  251000    1.1722986   -2.5425173    293.89464  0.097574582   0.10220396            2 
  252000    1.1401629   -2.5472828    295.04413  0.097567502   0.10217115            2 
  253000    1.1359039   -2.5416093    295.31668  0.097271635   0.10213906            4 
  254000    1.1473457   -2.5273144    298.00435  0.097770457   0.10210861            3 
  255000    1.1485752   -2.5459096     300.5005  0.098202777   0.10208755            1 
  256000    1.1563094   -2.5011919    301.32116  0.098086315   0.10206483            2 
  257000    1.1446309   -2.5305944    301.32204  0.097704941   0.10204218            2 
  258000    1.1498478   -2.5545584    304.42125  0.098327277   0.10202542            2 
  259000    1.1447455   -2.5458491    303.02202  0.097497434   0.10200133            1 
  260000    1.1661896   -2.5222458    305.65047  0.097964896   0.10197882            4 
  261000    1.1520164    -2.531034    307.50112  0.098180433   0.10196129            1 
  262000    1.1465466   -2.5230378    310.40758  0.098730146   0.10194398            1 
  263000    1.1288824   -2.5345533    310.17628  0.098281457   0.10193055            1 
  264000    1.1538715   -2.5390984    310.77403  0.098097862   0.10191419            2 
  265000    1.1456831   -2.5413764    311.66759  0.098008675   0.10190038            1 
  266000     1.141629     -2.53443     314.5926  0.098556578   0.10188686            1 
  267000     1.159677   -2.5359613    312.86764  0.097649076   0.10186543            3 
  268000    1.1249867   -2.5542869    314.46063  0.097780047    0.1018438            4 
  269000    1.1384095   -2.5397588    314.54724  0.097443383   0.10181599            1 
  270000     1.132392   -2.5631924     316.6926  0.097744628   0.10178794            4 
  271000    1.1592017   -2.5337848    317.12586  0.097517177    0.1017598            4 
  272000    1.1162327   -2.5249619    318.45136  0.097564756   0.10172773            2 
  273000    1.1231895   -2.5600396     320.2816  0.097766057   0.10169685            2 
  274000    1.1294506    -2.535972    319.54026  0.097183778   0.10166345            2 
  275000    1.1447309   -2.5774225    320.05386  0.096986018   0.10162449            2 
  276000    1.1701138   -2.5517275    323.12963  0.097563294   0.10158732            2 
  277000    1.1621494   -2.5559638    323.18903  0.097228949   0.10155021            2 
  278000    1.1184683   -2.5389498    322.86313  0.096781512   0.10151462            1 
  279000    1.1516589   -2.5620539    323.81236  0.096718149   0.10147869            1 
  280000    1.1390087   -2.5714121    325.25323  0.096801556    0.1014429            1 
  281000    1.1477872   -2.5157467    327.73908   0.09719427   0.10140571            2 
  282000    1.1389992   -2.5679681    329.03628  0.097232943   0.10136878            1 
  283000    1.1137529   -2.5530742    329.35507  0.096983236    0.1013315            1 
  284000    1.1342644    -2.526862    332.59011  0.097590996   0.10129622            4 
  285000    1.1662614   -2.5447796    331.27592  0.096864305   0.10125911            1 
  286000    1.1328838    -2.573477    332.76727  0.096960161   0.10122281            2 
  287000    1.1685474   -2.5363551    334.86734  0.097232095   0.10118231            1 
  288000    1.1237712   -2.5360874    336.39898  0.097337668   0.10114546            3 
  289000    1.1431317   -2.5011106    337.11495  0.097207308   0.10110428            3 
  290000    1.1178104   -2.5750998    336.40917  0.096669302   0.10106317            3 
  291000    1.1302968   -2.5684386    335.83839  0.096173651   0.10101598            2 
  292000    1.1419286   -2.5547876    337.17861  0.096226772   0.10096823            5 
  293000    1.1546428   -2.5513038    339.14419  0.096457391   0.10092159            1 
  294000    1.1303029   -2.5792246    339.09275  0.096114726   0.10087368            1 
  295000    1.1487935   -2.5341743    341.30513  0.096413878   0.10082953            2 
  296000    1.1367756   -2.5794573    342.00965  0.096286501   0.10078801            1 
  297000     1.130849   -2.5698012    344.00374  0.096521811   0.10074611            1 
  298000    1.1430212   -2.5729132    343.89377  0.096167161   0.10070434            1 
  299000    1.1421914   -2.5731027    344.58078  0.096037007   0.10066156            2 
  300000    1.1322471   -2.5734495    344.46738  0.095685383   0.10061695            1 
  301000    1.1299023   -2.5447969    345.95667  0.095779808   0.10057101            1 
  302000    1.1231751       -2.544    349.61103  0.096471034   0.10052806            1 
  303000    1.1647873   -2.5754623     350.6387  0.096435286   0.10048319            3 
  304000    1.1291719   -2.5721905    351.47552  0.096347456   0.10044145            3 
  305000    1.1412929   -2.5525117    352.15664  0.096217661   0.10039701            2 
  306000     1.134999   -2.5477571    353.02726  0.096140321   0.10035342            2 
  307000    1.1322984   -2.5722942     354.2668  0.096163627   0.10030923            3 
  308000    1.1452331   -2.5749922    355.69448  0.096237684    0.1002651            2 
  309000    1.1398796   -2.5529587    355.22896   0.09580069   0.10021847            3 
  310000     1.145097    -2.582347    355.41877  0.095542679   0.10017394            3 
  311000     1.127435   -2.5519924    359.90666  0.096438012   0.10013029            2 
  312000    1.1336326    -2.555131    358.71254  0.095809972   0.10008921            3 
  313000    1.1239775   -2.5568299    360.92436  0.096092747   0.10004686            1 
  314000    1.1287395   -2.5668888    361.96794  0.096063679   0.10000664            1 
  315000    1.1217227   -2.5808969    363.90502  0.096271168  0.099965085            1 
  316000    1.1278321   -2.5371883     363.2429  0.095791905    0.0999203            2 
  317000    1.1250947   -2.5596374    363.97436  0.095682009  0.099878578            1 
  318000    1.1175849   -2.5523294    363.22601  0.095185012  0.099828782            2 
  319000     1.141069   -2.5854408    363.53727  0.094967939  0.099779149            3 
  320000    1.1165878   -2.5678165    367.58375  0.095724935  0.099729868            1 
  321000    1.1604635   -2.6172859    365.30765  0.094835837  0.099679122            1 
  322000    1.1157741    -2.591926    368.62886  0.095400843  0.099625881            1 
  323000    1.1291457   -2.5765364    369.19213  0.095250806  0.099573285            1 
  324000    1.1078143   -2.5567428    370.84769  0.095382637   0.09952176            1 
  325000    1.1349521   -2.5684657    371.94665  0.095370935  0.099473208            2 
  326000    1.1265693   -2.5857551    372.78825  0.095293519  0.099421326            2 
  327000    1.1237241   -2.5795713    372.04005  0.094811429  0.099367889            1 
  328000    1.1193668   -2.5572681    374.72632  0.095204858  0.099318036            2 
  329000    1.0993798   -2.5826343     375.4743  0.095104939   0.09926783            2 
  330000    1.1015845    -2.555919    377.68199   0.09537424  0.099217233            3 
  331000    1.1343923   -2.5650175     379.5617  0.095559341  0.099166775            3 
  332000    1.1180181   -2.5793916    378.05469  0.094893244  0.099119061            1 
  333000    1.1380623   -2.5851958    379.63572  0.095003934   0.09907484            2 
  334000    1.1151389   -2.5869199    381.18342  0.095105644  0.099031206            4 
  335000    1.1290495   -2.5576381    383.15544  0.095312297   0.09898677            2 
  336000    1.1217784   -2.5711467    385.46673  0.095601869  0.098945073            1 
  337000    1.1252981   -2.5641613    383.42174  0.094812498  0.098905966            3 
  338000    1.1149344   -2.5871563    386.17189  0.095210032  0.098865381            1 
  339000    1.1283126   -2.5762886    387.01126  0.095135511  0.098819555            3 
  340000    1.1396886   -2.5734885    387.21167  0.094904821  0.098775435            2 
  341000    1.1143723    -2.581292    388.67945  0.094985203    0.0987311            2 
  342000    1.1221028   -2.5846486    388.85191  0.094749491  0.098685074            1 
  343000    1.0980412   -2.5572267    389.85668  0.094717367  0.098639566            2 
  344000    1.1067382   -2.6021512     390.7145   0.09464983  0.098595424            1 
  345000    1.0900384   -2.5710739    392.17359   0.09472792  0.098552617            2 
  346000    1.1258718   -2.5729893    395.07049  0.095151853  0.098513339            1 
  347000    1.1280289   -2.5879644     397.9627  0.095572215  0.098478945            2 
  348000    1.0867071   -2.5440463    398.08133  0.095325988  0.098438018            3 
  349000     1.142399   -2.5594968    398.00004  0.095033438  0.098396744            3 
  350000    1.1162067   -2.5836879    397.89205  0.094736202  0.098355199            2 
  351000    1.1107732   -2.5697524    397.80456  0.094445526   0.09831385            2 
  352000    1.1120457   -2.5875537    399.08989  0.094481509  0.098271615            2 
  353000    1.1024342   -2.5726389    400.67273  0.094587518  0.098226948            2 
  354000    1.0969466   -2.5864671     402.3148  0.094706874  0.098182105            2 
  355000    1.1178825   -2.6001471    402.31244   0.09443954  0.098135279            4 
  356000    1.1002115   -2.5643477     402.1662  0.094140029  0.098085527            2 
  357000    1.1001997   -2.6037629    403.01844  0.094075265  0.098038115            5 
  358000    1.0978968   -2.6108444    403.79366  0.093992938  0.097988835            2 
  359000     1.118455   -2.5650267    407.03792  0.094484196  0.097941932            2 
  360000    1.1007763   -2.5943016    408.10224  0.094468111  0.097896779            2 
  361000    1.0900764    -2.582253    408.46209  0.094289494  0.097850729            1 
  362000    1.0877828   -2.5855775    409.56757  0.094283511   0.09780789            1 
  363000    1.0926199   -2.5791296    409.97519  0.094117354  0.097763234            5 
  364000    1.1040317     -2.60328    413.19892  0.094596822   0.09771909            1 
  365000    1.1228459    -2.555438    414.63294  0.094665054  0.097677426            2 
  366000    1.0914685   -2.5561882    414.64172  0.094408406  0.097637405            1 
  367000    1.1263325   -2.5717462    415.72656  0.094397492  0.097598735            2 
  368000    1.1214107   -2.6229468    416.44593  0.094303878  0.097559952            5 
  369000    1.1144055   -2.5866872    418.71165  0.094559994  0.097521005            1 
  370000    1.1243486   -2.5793049    418.05939   0.09415752  0.097485232            3 
  371000    1.1115133   -2.5804291    422.36866  0.094871666  0.097448677            1 
  372000    1.1131007   -2.5858913    422.35842  0.094614341  0.097412925            3 
  373000    1.1217234    -2.584112    423.76982   0.09467601  0.097374902            3 
  374000    1.1159702   -2.5896454    424.28724  0.094538156  0.097339837            4 
  375000    1.0943121   -2.6073691     425.6738  0.094594178  0.097304377            1 
  376000    1.0895789   -2.5430445    425.01748  0.094197136  0.097269948            2 
  377000    1.1222702   -2.6112519    425.07068  0.093959036  0.097232171            4 
  378000    1.0944993   -2.5973038    425.77539  0.093865826  0.097191626            1 
  379000    1.1003645   -2.5798432    428.40825  0.094197065   0.09714799            4 
  380000    1.1176713   -2.6119046    427.25488  0.093696245  0.097105462            1 
  381000    1.0865962   -2.5968467    426.97388  0.093388861  0.097061991            1 
  382000    1.0823137   -2.5784848    428.95283  0.093576098  0.097016095            1 
  383000    1.1238007   -2.5992813    430.07736   0.09357645  0.096972901            1 
  384000    1.0995143   -2.5884572    432.73599  0.093909719  0.096930473            2 
  385000    1.1054265   -2.6067431    432.69194  0.093656264  0.096890004            3 
  386000    1.1171137   -2.5988321    433.67064  0.093624923  0.096848962            2 
  387000    1.1084292   -2.5950777    435.57127  0.093792262  0.096809562            2 
  388000    1.0986851   -2.6109629    436.03656  0.093650463   0.09677061            3 
  389000    1.0687214   -2.5872777    437.42575  0.093707315  0.096730101            1 
  390000    1.0877048   -2.5640455    439.10289  0.093825405  0.096689387            1 
  391000    1.1058559   -2.6115411    437.13462  0.093165945  0.096647338            1 
  392000    1.1045488   -2.5939015    439.55864  0.093443588  0.096606112            1 
  393000    1.1019403   -2.5647945     444.8881    0.0943359   0.09656579            2 
  394000    1.0721456   -2.6040371    442.21536  0.093531167  0.096527949            1 
  395000    1.1035562   -2.5856644    446.09274  0.094112393  0.096491224            4 
  396000     1.113335   -2.5858952    444.52582  0.093544996  0.096454809            4 
  397000    1.0907214   -2.6236667    444.53825  0.093311974  0.096414219            1 
  398000    1.1151858   -2.6090417    446.21385  0.093428361  0.096376376            1 
  399000    1.1004273   -2.5946766    447.31173  0.093423502  0.096336842            1 
  400000    1.0863502   -2.5940826    448.70533  0.093480277  0.096299111            3 
  401000    1.0969365   -2.6030658    450.75197   0.09367248  0.096264704            2 
  402000    1.0560075   -2.6023684    452.97974  0.093901273  0.096231053       -1e+20 
  403000     1.114453   -2.5885439    451.14075  0.093287997  0.096195611            4 
  404000    1.0535682   -2.6040246    452.21763  0.093279213  0.096158392            2 
  405000    1.1046153   -2.6072199     452.4485  0.093096398  0.096119557            1 
  406000    1.0930145   -2.5908802    454.23827  0.093234456  0.096081365            1 
  407000     1.126386   -2.5866232    456.53449  0.093475531  0.096042724            1 
  408000    1.1157128    -2.596232    455.75834  0.093087897  0.096004433            3 
  409000    1.1083725   -2.5900739    455.78103  0.092864921  0.095968357            2 
  410000    1.0830011   -2.5985601    459.40864  0.093375741   0.09593079            1 
  411000    1.1018898   -2.5861111    460.17794   0.09330453  0.095892496            2 
  412000    1.0852717   -2.5924103    459.21084  0.092882451   0.09585507            2 
  413000    1.0895839   -2.5914491    462.12676  0.093245916  0.095815977            2 
  414000    1.0854301   -2.6024556    463.93177  0.093384011  0.095779202            3 
  415000    1.0797213   -2.6098879    461.99306  0.092769691  0.095741321            3 
  416000    1.0766135   -2.6116815    461.59111  0.092466169  0.095702629            3 
  417000    1.0947959   -2.5880213    469.53611  0.093832157  0.095664886            2 
  418000    1.0916169   -2.5990387    468.59651  0.093420357  0.095628815            2 
  419000    1.0780636   -2.6019824    467.62681  0.093004536  0.095591173            1 
  420000     1.106282   -2.5945557    469.63852  0.093182247  0.095555508            2 
  421000    1.0831368   -2.6028374    470.16068  0.093064267  0.095519335            2 
  422000    1.0939312   -2.6088383    472.22207  0.093250803  0.095484349            1 
  423000     1.104133   -2.6136438    474.20538  0.093421075   0.09545152            4 
  424000    1.0675871   -2.6133235     476.3439  0.093621049  0.095418179            2 
  425000    1.0773747   -2.6225501    475.71928  0.093278289  0.095383401            1 
  426000    1.0823541   -2.6257101    477.02883    0.0933155  0.095349674            2 
  427000    1.0861274   -2.6348353    475.94004  0.092884473  0.095314852            2 
  428000    1.0973217   -2.6055266    478.34328  0.093135374   0.09528335            4 
  429000    1.0635267   -2.6247736    477.87763  0.092827823  0.095250902            3 
  430000    1.0639779   -2.5963065    480.24122  0.093070003  0.095219505            2 
  431000    1.0893038   -2.6415592    477.80418  0.092382866  0.095186321            1 
  432000    1.0842803     -2.59977      483.831  0.093331597  0.095152631            1 
  433000    1.0827631   -2.6052137    482.52171  0.092864071  0.095119749            2 
  434000    1.0721927   -2.6019479    482.52417  0.092650571  0.095085436            3 
  435000    1.0931036   -2.5845701    485.59681  0.093026209  0.095053353            3 
  436000    1.0886289   -2.6427991    482.49786  0.092220539  0.095018876            2 
  437000     1.105627   -2.5910238    486.91461  0.092851757  0.094985375            1 
  438000    1.0779324   -2.6433547    485.43306  0.092357888  0.094951862            1 
  439000    1.0711653   -2.6041689    486.05994  0.092266503  0.094916163            2 
  440000    1.0951868   -2.6227165    487.31054  0.092293662  0.094882169            1 
  441000    1.0479065   -2.5959955    490.32847  0.092654662  0.094845616            2 
  442000    1.0874139    -2.639726    488.36622  0.092075079  0.094809451            2 
  443000     1.068622   -2.5931348    492.32716  0.092612332  0.094773411            1 
  444000    1.0703634   -2.6090475    494.34147  0.092781807  0.094737704            2 
  445000    1.1019648   -2.6372794    492.75589  0.092276383  0.094699651            1 
  446000    1.1022004    -2.625577    493.67221  0.092240696  0.094664209            1 
  447000     1.074245   -2.6346806     494.9935  0.092280668  0.094626946            3 
  448000    1.0694916   -2.6186208    496.74712  0.092400877  0.094592449            2 
  449000    1.0652721   -2.6077413    496.26392  0.092105405  0.094555123            1 
  450000    1.0833399   -2.6255285    497.65929  0.092159128  0.094518883            2 
  451000      1.08295   -2.6577104    498.37234  0.092086538  0.094482571            3 
  452000    1.0701272    -2.607188    500.43905  0.092263836  0.094447585            2 
  453000    1.0649921   -2.6338771    498.91399  0.091779615  0.094412282            2 
  454000    1.0704953   -2.5968095    503.73033  0.092461515  0.094377918            3 
  455000    1.0652287   -2.6531591    502.49333  0.092031745  0.094342363            1 
  456000    1.0723526   -2.6220865    504.57322  0.092210018  0.094305877            2 
  457000    1.0672615   -2.5975298    504.63521   0.09201955  0.094269108            1 
  458000     1.095267     -2.64884    505.83166  0.092036329  0.094232106            2 
  459000     1.060868   -2.6414249     505.0747  0.091698384  0.094194793            3 
  460000    1.0672218    -2.638743    507.27155  0.091897019  0.094158678            1 
  461000    1.0729872   -2.6564284    506.85376  0.091622155  0.094123329            2 
  462000     1.049276   -2.6286878    510.75636   0.09212777  0.094087365            2 
  463000    1.1072677   -2.6584024    509.09653  0.091630045  0.094051618            2 
  464000    1.0793392   -2.6346795     509.5322  0.091510812  0.094015047            3 
  465000    1.0590622   -2.6341595    511.03468  0.091583276  0.093978679            2 
  466000    1.0737328   -2.6071827    513.31142  0.091793888  0.093943683            2 
  467000    1.0711704   -2.6228581    515.52273  0.091991922  0.093908041            2 
  468000     1.075143    -2.642549     515.1313  0.091725659  0.093873254            2 
  469000    1.0679956   -2.6151695    514.59584  0.091434939  0.093836009            3 
  470000    1.0585715   -2.6354096    516.17129  0.091519733  0.093796931            2 
  471000    1.0662638   -2.6393869    515.84337  0.091267405  0.093757989            5 
  472000    1.0884039   -2.6494758     515.7736  0.091061723  0.093716888            2 
  473000    1.0858218   -2.6357896    517.69814  0.091208271  0.093676114            5 
  474000    1.0735115   -2.6088603    519.02931  0.091249879  0.093634929            1 
  475000    1.0768226    -2.635436    519.26312  0.091098793  0.093594236            2 
  476000    1.0468311   -2.6391509    518.17044  0.090716114  0.093551696            2 
  477000    1.0584061   -2.6093338    521.93333  0.091183321  0.093509449            2 
  478000    1.0636264   -2.6181034    521.18623  0.090862312   0.09346671            2 
  479000    1.0756502   -2.6683511    521.44433  0.090717525  0.093424131            1 
  480000     1.095454   -2.6474397    523.38912  0.090866166  0.093382532            4 
  481000    1.0589207   -2.6471329    525.69978  0.091077578  0.093342424            4 
  482000    1.0789455   -2.6332896    526.48649  0.091024635  0.093301758            1 
  483000    1.0323777   -2.6435731    525.62997  0.090688401  0.093260972            1 
  484000    1.0800601   -2.6632052    525.60891  0.090497402  0.093219441            3 
  485000    1.0599505   -2.6432875    528.43475  0.090796348  0.093178331            2 
  486000    1.0279523   -2.6382392    530.02478  0.090882164  0.093139361            4 
  487000     1.062488   -2.6612994    529.20536  0.090555332  0.093100354            1 
  488000    1.0486471   -2.6340494    527.36999   0.09005635   0.09306008            2 
  489000    1.0510526   -2.6169343    531.46637  0.090570274  0.093020106            1 
  490000     1.060177   -2.6395092    533.61701  0.090751192  0.092981011            1 
  491000     1.034282   -2.6353202    533.59608   0.09056281  0.092939618            2 
  492000    1.0409891   -2.6509144    533.68526  0.090393846  0.092897773            2 
  493000     1.048269   -2.6118056    534.71957  0.090385323   0.09285449            2 
  494000    1.0803582   -2.6433004    532.53083  0.089833137   0.09281124            2 
  495000    1.0460084   -2.6681975    534.15496  0.089925077  0.092765217            2 
  496000    1.0453485    -2.646174    536.13106  0.090075783   0.09271933            2 
  497000    1.0386038   -2.6109724    538.21263  0.090243566  0.092675615            2 
  498000    1.0671181   -2.6278926    538.80716  0.090161841  0.092631777            4 
  499000    1.0525369   -2.6412548    539.94259  0.090170773  0.092587558            3 
  500000    1.0297492   -2.6509523    538.44613  0.089741021  0.092542694            2 
  501000    1.0632195   -2.6525527     541.2203  0.090023337   0.09250046            2 
  502000    1.0548718    -2.656551     539.9792  0.089637981  0.092457446            1 
  503000    1.0571377   -2.6209351     542.7956  0.089926375  0.092412342            2 
  504000    1.0731143    -2.644019     542.9802  0.089778472  0.092366808            3 
  505000     1.046078   -2.6274759    542.40776  0.089506232  0.092320619            1 
  506000    1.0608446   -2.6332531    541.98652  0.089259967   0.09227449            6 
  507000    1.0424749   -2.6248445    543.50837  0.089334051  0.092225938            1 
  508000    1.0283446   -2.6584363    544.73077  0.089358722  0.092177795            1 
  509000    1.0458897   -2.6535425    546.32429  0.089444056  0.092131098            1 
  510000    1.0641166   -2.6357404    545.07989  0.089065341  0.092083217            2 
  511000    1.0644761   -2.6648598    547.60317   0.08930254  0.092036437            2 
  512000    1.0522113    -2.643619    548.45263  0.089266379  0.091989082            1 
  513000    1.0332857   -2.6396217     549.5932  0.089277648  0.091944917            2 
  514000    1.0658245   -2.6637135     548.9594  0.089001199  0.091898589            2 
  515000    1.0593119   -2.6315284    554.27781  0.089688966  0.091853876            3 
  516000    1.0416139   -2.6621488    553.54783  0.089397259  0.091811315            6 
  517000    1.0832877   -2.6483336    555.90763  0.089604712  0.091769297            2 
  518000    1.0553426   -2.6756195    556.01989  0.089449789  0.091728589            3 
  519000    1.0607878   -2.6518457    558.42381  0.089663424  0.091689798            3 
  520000    1.0397088   -2.6570704    558.18658  0.089452977  0.091650563            2 
  521000    1.0463801   -2.6467158     561.4134  0.089797409  0.091613835            3 
  522000    1.0431764   -2.6560989    561.91551  0.089705541  0.091577644            2 
  523000    1.0426681   -2.6685493    562.80067  0.089675059  0.091540617            1 
  524000    1.0165823     -2.66711    563.25591  0.089576322  0.091502381            4 
  525000    1.0354341   -2.6482549    564.98693  0.089680466  0.091464392            1 
  526000    1.0428327   -2.6497614    567.29926  0.089876308  0.091430076            3 
  527000    1.0505772   -2.6666877    565.74448  0.089459911  0.091393695            2 
  528000    1.0392322   -2.6641474    566.13732   0.08935248  0.091357682            2 
  529000    1.0474443   -2.6500078     566.2662  0.089203874  0.091322874            1 
  530000    1.0415197   -2.6741833    569.02879  0.089469936  0.091285639            2 
  531000    1.0494803   -2.6629059    569.07243  0.089308292  0.091247644            3 
  532000    1.0490299   -2.6662804    568.73413  0.089087426  0.091212216            3 
  533000    1.0500744    -2.683195    571.18194  0.089302992  0.091175448            2 
  534000    1.0429185   -2.6681002     571.9028  0.089248253  0.091140219            4 
  535000    1.0483442   -2.6856985    574.53343  0.089491189  0.091106157            4 
  536000    1.0561446   -2.6633687    576.31717  0.089601549  0.091069522            2 
  537000    1.0452629   -2.6527166    575.08913  0.089244124   0.09103202            2 
  538000    1.0456622    -2.648938    575.75105   0.08918077  0.090996081            1 
  539000    1.0338355   -2.6608697    575.17369  0.088926049  0.090958927            2 
  540000    1.0411514   -2.6696389    578.35664  0.089252567  0.090920488            3 
  541000     1.032124   -2.6726927    576.85693  0.088856582   0.09088159            2 
  542000    1.0574636   -2.6619953    579.15446  0.089045888  0.090843283            4 
  543000    1.0358334   -2.6806622    578.44724  0.088773363  0.090803252            2 
  544000    1.0319349    -2.671787    577.17844  0.088415815   0.09076215            5 
  545000    1.0387207    -2.712029     579.6502  0.088631529  0.090722648            2 
  546000    1.0426577   -2.7006939    579.48518  0.088444015  0.090682496            3 
  547000     1.040388   -2.6700402    583.40041  0.088878795  0.090640726            2 
  548000    1.0091231   -2.6770109    581.84762  0.088480478  0.090597456            2 
  549000    1.0393339   -2.6639104    582.04447  0.088349191  0.090554325            1 
  550000     1.025905   -2.6707271    581.18656   0.08805857  0.090511103            5 
  551000    1.0260255   -2.6697341    582.51947  0.088100343    0.0904691            2 
  552000    1.0322155    -2.670519    582.09899  0.087877263  0.090425946            2 
  553000    1.0158107   -2.6708296    586.41608  0.088368909  0.090382841            2 
  554000    1.0338975   -2.6742752    586.96554  0.088292049  0.090340037            3 
  555000    1.0292409   -2.6754354    585.28526   0.08788067    0.0902968            1 
  556000    1.0478839   -2.6632529    586.70799   0.08793585  0.090253772            2 
  557000    1.0326722   -2.6875275    586.48163   0.08774411   0.09020905            2 
  558000    1.0363355   -2.6833048    585.98097  0.087512092  0.090164405            1 
  559000    1.0443556   -2.6741335    589.45222  0.087873021  0.090120119            4 
  560000    1.0200295   -2.6772757      588.921  0.087637054  0.090076763            2 
  561000    1.0500627   -2.6868053    590.89923  0.087774692  0.090033313            2 
  562000    1.0207035   -2.6751168    590.95071  0.087626143  0.089990735            2 
  563000    1.0339794   -2.6707785    591.30988  0.087523664  0.089948423            1 
  564000    1.0333962   -2.6463403    595.97576  0.088057884  0.089905956            1 
  565000    1.0603524   -2.6625221    592.49324  0.087388384    0.0898638            2 
  566000    1.0465112   -2.6874649    595.00206  0.087603365  0.089821851            2 
  567000    1.0377097   -2.6677372    595.64999  0.087544091  0.089779048            2 
  568000    1.0308038   -2.7038604    597.51788  0.087664008   0.08973707            3 
  569000    1.0211739   -2.6618907    598.51105  0.087655396   0.08969703            2 
  570000    1.0328461   -2.6703181     598.8419  0.087549985  0.089655539            3 
  571000    1.0316791   -2.6606372     601.6886  0.087812114  0.089614246            1 
  572000    1.0130373    -2.688635     602.5832  0.087788927  0.089574512            2 
  573000     1.017443   -2.6722979    603.29302   0.08773895  0.089534591            2 
  574000   0.98947562    -2.682495    604.09747  0.087702885   0.08949443            3 
  575000    1.0222107   -2.6956568    604.27115   0.08757553  0.089454488            5 
  576000    1.0362064   -2.6720281    604.79597  0.087499417  0.089414204            3 
  577000    1.0361836   -2.6614805    606.61349  0.087610268  0.089372585            2 
  578000    1.0139675   -2.6658734    602.65526  0.086888014  0.089331098            2 
  579000    1.0226935   -2.6697236    606.85691  0.087342676    0.0892895            2 
  580000    1.0001126   -2.6846726    606.10124  0.087083512  0.089247233            5 
  581000    1.0234279   -2.6899311    606.83687  0.087039138  0.089206354            1 
  582000    1.0083667   -2.6796535    609.22949  0.087232172  0.089165216            2 
  583000    1.0250926   -2.6890014    609.48456  0.087119005  0.089125021            4 
  584000    1.0066977   -2.6860095    612.62356  0.087417746  0.089085196            2 
  585000    1.0361758   -2.6856097    611.76804  0.087146444  0.089045537            2 
  586000    1.0373404   -2.7071184    612.08448   0.08704273  0.089004321            3 
  587000    1.0121679   -2.6945582    612.25773  0.086919042  0.088963243            2 
  588000    1.0143645   -2.6682173    613.67938  0.086972701  0.088922339            2 
  589000    1.0340941   -2.6899585    613.57534  0.086810319   0.08887886            2 
  590000    1.0010336   -2.6982467    615.25671  0.086900665  0.088837305            1 
  591000    1.0202594   -2.7092644     611.9653  0.086289523   0.08879499            2 
  592000    1.0127422   -2.6749776    615.67756  0.086666323   0.08875185            1 
  593000    1.0281908   -2.6844417    617.46226  0.086770975  0.088709845            2 
  594000    1.0296722   -2.6840336    619.73709  0.086944035  0.088668684            1 
  595000    1.0144669   -2.6984573    618.46224  0.086619362  0.088627377            2 
  596000    1.0074715   -2.6760273    620.69078  0.086785623  0.088587264            3 
  597000    1.0170673   -2.6788101    620.86272  0.086664255  0.088545595            2 
  598000    1.0222262   -2.7077411    622.09328  0.086690814  0.088503659            1 
  599000    1.0022974   -2.7088146    620.42977  0.086314659  0.088462043            2 
  600000    1.0113192   -2.6828679     625.3497  0.086854125  0.088420533            2 
  601000    1.0258252   -2.7004059    623.54627  0.086459549  0.088381196            2 
  602000    1.0114144   -2.7102122     627.4432  0.086855371  0.088342311            2 
  603000    1.0230386   -2.6665904    627.79716  0.086760249  0.088303943            2 
  604000    1.0152089   -2.7052328     626.6331  0.086456001   0.08826441            3 
  605000    1.0113442   -2.6878931    627.11124  0.086378959  0.088223787            3 
  606000     1.028686   -2.7136768    627.91676  0.086347189  0.088183297            2 
  607000    1.0298747   -2.6843293    629.81899  0.086466089  0.088142396            2 
  608000    1.0252947   -2.6852349    633.07679  0.086770394  0.088102389            2 
  609000    0.9905682    -2.669044    629.07467  0.086080278   0.08806299            2 
  610000    1.0100261   -2.6819107    632.51425   0.08640905  0.088021191            2 
  611000   0.99149108    -2.709972    630.33498  0.085970401  0.087980425            2 
  612000    1.0172453   -2.7021852    631.98227  0.086054231  0.087939545            2 
  613000   0.99076483   -2.6975295     635.0281  0.086327909  0.087898824            2 
  614000    1.0096032   -2.7153156    633.85612  0.086028247  0.087858466            2 
  615000    1.0324367   -2.7109428    637.59079  0.086394417   0.08781997            1 
  616000   0.97893734   -2.7351625    637.85056  0.086289307  0.087780941            2 
  617000    1.0045018   -2.6828712     637.2086   0.08606275  0.087742384            5 
  618000   0.99781918   -2.7142619    637.10306  0.085909258  0.087701974            2 
  619000     1.013486   -2.6925069    641.19005  0.086320685  0.087662423            3 
  620000    0.9931508    -2.673856    639.28536  0.085925452  0.087623269            3 
  621000   0.99077864   -2.7025325    639.29151   0.08578791    0.0875836            3 
  622000    1.0305416   -2.6955765    641.50861  0.085947027  0.087542482            3 
  623000   0.99176656    -2.697369    640.12569  0.085624088   0.08750143            1 
  624000   0.99281856   -2.7118328     640.4801  0.085534202  0.087461656            4 
  625000   0.98931697   -2.7004162    643.98307  0.085864409  0.087422004            2 
  626000   0.99548073   -2.7005927    644.03238   0.08573381  0.087382648            2 
  627000   0.99470261   -2.7088657    643.27377  0.085496248  0.087342413            3 
  628000   0.99893218   -2.7147783    645.44943   0.08564881  0.087301374            1 
  629000   0.98929327   -2.6919785    646.75322  0.085685376   0.08726033            2 
  630000   0.98647231   -2.7016702    644.60939  0.085265793  0.087219858            3 
  631000    1.0054618   -2.7177944     648.2785  0.085615228  0.087178129            1 
  632000    1.0128264     -2.70705    646.27056     0.085215  0.087135941            2 
  633000    1.0289273   -2.7092927    648.78472  0.085411364  0.087094738            1 
  634000   0.99491865   -2.7034013    649.51301  0.085372372  0.087053266            3 
  635000    1.0104719    -2.699796    647.42711  0.084964187  0.087012747            2 
  636000    1.0247365    -2.711993    652.96134  0.085555732  0.086972939            2 
  637000    1.0108752    -2.715183    652.71014  0.085388558  0.086933192            4 
  638000    1.0335373   -2.6891994    652.50167   0.08522749  0.086893736            3 
  639000    1.0137231   -2.7270115    654.58393  0.085365667    0.0868535            2 
  640000    1.0120171   -2.7017681    653.63654  0.085108924  0.086813953            1 
  641000   0.97526654   -2.7264013    654.93656  0.085145158  0.086774024            1 
  642000   0.98894596   -2.7160237    656.39433  0.085201756  0.086734873            2 
  643000   0.99307329   -2.7211835    658.57411   0.08535175  0.086695925            3 
  644000   0.99625727   -2.7149292    655.38972  0.084807158  0.086656783            2 
  645000   0.97543953   -2.7231875    656.76075   0.08485281  0.086617299            2 
  646000    1.0168401   -2.6971162    658.21628  0.084909221   0.08657792            3 
  647000    0.9907518   -2.6878218    661.74807  0.085232879  0.086538434            2 
  648000   0.99047638    -2.724727    657.27046  0.084525522  0.086498698            3 
  649000   0.97798403    -2.707767    662.12566  0.085018703  0.086458431            2 
  650000    1.0107442   -2.6941839    660.95689  0.084738063  0.086418252            2 
  651000   0.97093681   -2.6950151    663.17351  0.084891642  0.086377634            3 
  652000    1.0003751   -2.6967347    663.14747  0.084758112  0.086337669            2 
  653000   0.98194224   -2.7275883    663.16725  0.084630839   0.08629876            5 
  654000   0.99102273   -2.7588598    664.31444   0.08464761  0.086259987            1 
  655000    1.0046901   -2.7125187    668.24618  0.085018598  0.086221195            2 
  656000   0.97846094   -2.7184964    668.83367  0.084963627  0.086182009            2 
  657000    1.0073088   -2.7375206     665.9174  0.084464409  0.086142788            3 
  658000   0.97861299   -2.7302115    668.37815  0.084647689  0.086103449            2 
  659000   0.99723473   -2.7070343    668.67534  0.084556821  0.086064501            3 
  660000    1.0099861   -2.7281892    666.84318  0.084197372  0.086024542            2 
  661000    1.0073511   -2.7150349    671.02917  0.084597727  0.085985385            2 
  662000    0.9971868   -2.7472718    673.79429  0.084818013  0.085946306            3 
  663000    1.0158084   -2.7332227    671.38234   0.08438692   0.08590755            2 
  664000   0.98653657    -2.723051    674.29011  0.084624763  0.085869453            2 
  665000   0.97256302   -2.7402614    675.77881  0.084684061  0.085832448            2 
  666000   0.98001809   -2.7326163     678.7824  0.084932732  0.085796082            1 
  667000   0.98996424   -2.7291707    674.73082  0.084299203  0.085760855            1 
  668000   0.96348886   -2.7377978    676.87832  0.084440908  0.085724203            3 
  669000   0.98456916   -2.7109294    682.13798  0.084969853  0.085687626            3 
  670000   0.99534338   -2.7125463    680.84933  0.084682753  0.085652779            3 
  671000   0.98788741    -2.740965    681.68049  0.084659772   0.08561692            3 
  672000   0.98574197   -2.7077205    682.33525  0.084614986  0.085581914            2 
  673000   0.99201103   -2.7239219    682.54636  0.084515399  0.085547547            3 
  674000   0.97781854   -2.7098598     684.6396  0.084648813  0.085513594            2 
  675000   0.97885835   -2.7430518    685.93305  0.084683092  0.085479959            2 
  676000   0.99740642   -2.7088274    685.04136    0.0844479   0.08544527            3 
  677000   0.96023532   -2.7218587    687.35589  0.084608061  0.085411397            2 
  678000    1.0032713   -2.7138431    689.82126   0.08478629  0.085378552            2 
  679000   0.98696118    -2.730367    689.91173  0.084672524   0.08534481            3 
  680000   0.96785117   -2.7615584    686.96696  0.084187128  0.085310504            2 
  681000   0.96910926   -2.7275997    688.92521  0.084303133  0.085274417            2 
  682000    1.0022623   -2.7376045    689.09159  0.084199853  0.085239415            3 
  683000   0.98960991   -2.7321794    688.93879  0.084057929  0.085203931            4 
  684000     0.962014   -2.7162706    695.64283  0.084751807  0.085169255            3 
  685000    1.0058506   -2.7280792    693.89387  0.084415313  0.085135253            2 
  686000   0.98454427   -2.7379112    691.13282  0.083956853  0.085100857            4 
  687000   0.98538945   -2.7171312    693.76896   0.08415441  0.085066524            2 
  688000   0.96809827   -2.7256886    694.58381  0.084130791   0.08503226            4 
  689000   0.97213085   -2.7534817    696.72801  0.084268022  0.084997671            2 
  690000   0.95617995   -2.7276634    695.82697  0.084037074  0.084964273            4 
  691000   0.99022847   -2.7463266    697.11765  0.084071111  0.084930866            3 
  692000   0.97692233   -2.7291572    696.98199  0.083933284  0.084896923            1 
  693000   0.95796588   -2.7233199    698.66012  0.084013963  0.084863744            3 
  694000   0.96244813   -2.7114255    700.77056  0.084146321  0.084830852            2 
  695000   0.97770834   -2.7657341    699.10965  0.083826097  0.084796597            1 
  696000   0.98054149   -2.7358381      703.628  0.084246647  0.084762037            3 
  697000   0.95694385    -2.708311    703.40761  0.084099427  0.084728458            2 
  698000    1.0026046   -2.7387051    702.51285  0.083872117  0.084694357            2 
  699000   0.95196017   -2.7321292    703.62179  0.083884334  0.084660384            6 
  700000   0.98736181   -2.7438192    704.41791  0.083859275    0.0846258            2 
  701000   0.96870126   -2.7418546    704.44046  0.083742328  0.084591158            2 
  702000   0.97513351   -2.7375268    706.34892  0.083849587  0.084557524            3 
  703000   0.95971397   -2.7106967    707.06006  0.083814611   0.08452429            2 
  704000   0.99163166   -2.7721778    706.37355  0.083614293  0.084489965            2 
  705000   0.94476607   -2.7289851    710.80664  0.084019698  0.084456926            3 
  706000    0.9863373   -2.7434947     706.3151  0.083370527  0.084422435            1 
  707000    0.9716194   -2.7228798    709.82082   0.08366582  0.084387764            2 
  708000   0.98737725   -2.7379521    708.16132  0.083352321  0.084352027            1 
  709000   0.97656779   -2.7264187    707.46553  0.083152977  0.084316062            4 
  710000   0.95973891   -2.7696384    709.83593  0.083314077  0.084280264            2 
  711000   0.95373664    -2.756145    706.59868  0.082817473  0.084243971            3 
  712000   0.96207703   -2.7524408     708.7954  0.082958263  0.084206856            3 
  713000   0.97515195   -2.7574067    709.04018  0.082870521  0.084169791            3 
  714000    0.9623835   -2.7503813    711.32742  0.083021408  0.084132302            2 
  715000   0.96360613   -2.7334966    712.49032   0.08304083  0.084095596            2 
  716000   0.95551627    -2.742062     709.4491  0.082570892  0.084058172            3 
  717000   0.95464296    -2.756543    713.76173  0.082956965  0.084020423            3 
  718000   0.96300682   -2.7679607    715.06072  0.082992191  0.083984209            2 
  719000   0.97521357   -2.7498122    714.91798   0.08286022  0.083947363            2 
  720000   0.99087519   -2.7510948    719.12349  0.083231885  0.083910903            2 
  721000   0.96808908   -2.7651598    717.82885  0.082966812  0.083875464            2 
  722000    0.9569182   -2.7567031    716.59754   0.08270978  0.083840255            2 
  723000   0.95900479   -2.7688755    717.46879  0.082695804   0.08380485            2 
  724000   0.97578826   -2.7683238    716.04213  0.082417372  0.083769007            2 
  725000   0.96059669   -2.7673069    722.44824  0.083040027  0.083733277            1 
  726000   0.95940781   -2.7679508    722.43199  0.082923782  0.083699513            5 
  727000   0.96315356   -2.7539005     722.3129  0.082796068  0.083665454            1 
  728000   0.96473575   -2.7657205    722.93173  0.082753174  0.083630045            3 
  729000   0.95475898   -2.7392788    723.56291  0.082711809  0.083594498            4 
  730000   0.97620836   -2.7657642     723.0894  0.082544452  0.083558774            3 
  731000   0.96314412   -2.7485584    724.65308   0.08260979  0.083523189            2 
  732000    0.9704411   -2.7707983    727.49549  0.082820525  0.083488048            3 
  733000   0.97537051   -2.7687772    727.43989  0.082701215  0.083454355            2 
  734000   0.95621536     -2.73813    727.81259  0.082630857  0.083419041            1 
  735000   0.97659331   -2.7535875    725.88638  0.082300043  0.083383739            5 
  736000   0.95643415   -2.7764276    729.41387  0.082587621  0.083349039            2 
  737000   0.96308767   -2.7803166    726.61654  0.082159265  0.083314149            2 
  738000   0.95268511   -2.7399003    730.87404  0.082528685  0.083278229            4 
  739000   0.97631344   -2.7682634    731.34409  0.082470015   0.08324303            2 
  740000   0.94397679    -2.778463    727.35208  0.081909018  0.083207427            5 
  741000   0.95969363   -2.7535535    733.43484  0.082482551   0.08317216            2 
  742000   0.95721234   -2.7646282    730.97904  0.082095579  0.083136951            2 
  743000   0.96043489   -2.7469619    732.13595  0.082114844  0.083100889            2 
  744000   0.95882484   -2.7442057    729.66513  0.081727725  0.083065073            4 
  745000    0.9511824   -2.7765822    734.53218  0.082162436  0.083029945            3 
  746000   0.96710018    -2.769849    732.68884  0.081846386  0.082994548            2 
  747000   0.95618929   -2.7478466    733.09407  0.081782025  0.082958793            4 
  748000   0.95875179    -2.770059    735.05746  0.081891428  0.082922801            3 
  749000   0.96073685    -2.743488    736.84596  0.081981082  0.082887036            3 
  750000   0.95290794   -2.7777742    735.70965  0.081745517  0.082851646            3 
  751000    0.9468144   -2.7533369    738.22593  0.081915882  0.082815694            3 
  752000   0.95434846   -2.7622092    740.23939  0.082030074  0.082779358            2 
  753000    0.9638298   -2.7817857    740.25429  0.081922785  0.082743437            2 
  754000    0.9578671   -2.7606275     737.7294  0.081535079  0.082707309            2 
  755000   0.96236099    -2.777986    738.86701   0.08155265  0.082671046            3 
  756000    0.9423423   -2.7309164    744.68251  0.082085814  0.082635867            1 
  757000   0.94058914   -2.7700217    740.55804  0.081523342  0.082600307            2 
  758000   0.94500009   -2.7669453    742.58435   0.08163856  0.082565362            2 
  759000   0.95600928    -2.774471      749.849  0.082328613  0.082530677            5 
  760000   0.96015528   -2.7519926    744.60909  0.081645734  0.082496391            3 
  761000    0.9459029   -2.7801328    743.80979  0.081450919  0.082461795            3 
  762000   0.95341875   -2.7593106    743.32549  0.081291064  0.082425866            2 
  763000   0.95713587    -2.764568     748.5473  0.081754839  0.082390759            1 
  764000   0.95609049   -2.7787492    747.52908  0.081536767  0.082355344            6 
  765000   0.94101813   -2.7751189    749.27858   0.08162076  0.082319985            1 
  766000   0.95527895   -2.7672455    749.75707  0.081566261  0.082285666            4 
  767000   0.95641279   -2.7768423    750.49915  0.081540542  0.082250716            4 
  768000   0.93840812   -2.7837405    750.95976  0.081484349  0.082216331            4 
  769000   0.95753444   -2.8036083    747.87781  0.081044409  0.082181854            2 
  770000     0.963314   -2.7775266     748.1874  0.080972662  0.082146154            1 
  771000   0.92310928   -2.7799901    750.59953  0.081128353  0.082111066            2 
  772000    0.9482781    -2.757202    754.18848  0.081410673  0.082076917            3 
  773000   0.95498152   -2.7871708    757.79475  0.081694129  0.082043254            2 
  774000   0.95611913   -2.7766877     758.4798  0.081662338  0.082009559            2 
  775000   0.94930723   -2.7674306    755.61042  0.081248432   0.08197685            3 
  776000   0.93660374   -2.7760269    757.02702  0.081295857  0.081944154            2 
  777000   0.92922574   -2.7889533    759.59743  0.081466906   0.08191118            4 
  778000   0.94134055   -2.7726827     757.9286   0.08118344  0.081878022            4 
  779000   0.92071006   -2.7750531    758.65695   0.08115714  0.081844338            2 
  780000   0.95063959   -2.7861785    758.01424  0.080984428   0.08181112            3 
  781000   0.93610047   -2.7790583    763.07373  0.081420586  0.081777058            1 
  782000    0.9338623   -2.7835004     762.1974  0.081223082  0.081744099            3 
  783000   0.92014185    -2.766885    760.06203  0.080892085  0.081709816            2 
  784000   0.95623151   -2.7763404    762.72303   0.08107175  0.081676126            2 
  785000   0.91447761   -2.8014742    762.43985  0.080938413  0.081642151            2 
  786000   0.93913472   -2.8185944    762.91847  0.080886182  0.081607741            3 
  787000   0.94403633   -2.7994974    762.57976  0.080747539  0.081572791            3 
  788000   0.93054005   -2.7878019    764.48883  0.080846957  0.081538777            2 
  789000   0.92693169   -2.7910784    765.21014  0.080820674  0.081503691            5 
  790000   0.93498527   -2.7912021    765.24655  0.080722209  0.081469164            1 
  791000   0.93130799   -2.7984886    764.28286  0.080518633   0.08143524            3 
  792000   0.92668457   -2.7693034    767.71259   0.08077784  0.081401195            2 
  793000   0.93605922   -2.7890774    766.95116  0.080595961  0.081367979            3 
  794000   0.94842825   -2.7927416     768.7209  0.080680195  0.081334964            2 
  795000   0.95219952   -2.7738262    772.38946  0.080963256  0.081302349            3 
  796000   0.94245642   -2.8108996    765.37952  0.080127671  0.081268366            3 
  797000   0.93109471   -2.7989246    772.37554  0.080758631  0.081234575            2 
  798000     0.953633   -2.7916733    769.68313  0.080376267  0.081201844            2 
  799000   0.92923815    -2.774805    771.64097  0.080479867  0.081168235            2 
  800000   0.94892965    -2.777941    773.31076  0.080553205  0.081134986            1 
  801000   0.95404756   -2.8140907    774.45241  0.080571412  0.081101866            7 
  802000   0.91829265   -2.7910912    772.66537  0.080285263  0.081068324            5 
  803000   0.94892552    -2.792473    773.66797  0.080289329  0.081035209            2 
  804000   0.93553662   -2.7853521    780.78113  0.080926734  0.081002416            4 
  805000   0.94310189   -2.8039022     777.8239  0.080520072  0.080969546            3 
  806000   0.92468602   -2.7813414    778.28174  0.080467508  0.080937568            3 
  807000   0.93636461   -2.7899265    779.87603  0.080532428   0.08090527            6 
  808000   0.92633891   -2.7999699    780.50353  0.080497476  0.080873841            2 
  809000   0.93909675   -2.7936187    781.34917  0.080485081  0.080840861            3 
  810000    0.9261661   -2.8072992    780.88275  0.080337732  0.080808226            5 
  811000   0.97413466   -2.7990373    780.45909  0.080195139  0.080775132            3 
  812000   0.93022751   -2.7815017    782.39047  0.080294589  0.080742028            3 
  813000   0.92991214   -2.8064241    782.00226  0.080156033  0.080708719            3 
  814000   0.91478839   -2.8032646    781.37186  0.079993024  0.080674795            6 
  815000   0.93163546   -2.7826994    784.63089  0.080228107  0.080642251            4 
  816000   0.92677684    -2.807513    782.91501  0.079954556  0.080609085            3 
  817000   0.93674354   -2.7996272    784.73772  0.080042607  0.080575636            3 
  818000   0.92020049    -2.832288     782.4275  0.079709403  0.080541454            4 
  819000   0.91671854   -2.8091923    785.74172    0.0799493  0.080508009            2 
  820000   0.94617442    -2.795728    788.65674  0.080148043  0.080475247            4 
  821000   0.91521098   -2.7917628    786.79496  0.079861445  0.080441607            5 
  822000   0.92323066   -2.7912071    787.96349  0.079882754  0.080408561            2 
  823000   0.90767808   -2.8219854    787.33884  0.079722442  0.080375196            4 
  824000    0.9405541   -2.8061736    792.01045  0.080098144  0.080342521            2 
  825000   0.93871769   -2.7958492    790.42822  0.079841235  0.080310662            3 
  826000   0.93003682   -2.8010706     790.4141   0.07974315   0.08027749            2 
  827000      0.94569   -2.8039136     788.4487   0.07944868  0.080244075            4 
  828000   0.92958394   -2.8091261    792.63424  0.079773978  0.080210928            4 
  829000   0.93436161   -2.8132218    789.80593  0.079393439  0.080177665            4 
  830000     0.905965   -2.8101874    792.02013  0.079520094  0.080144278            7 
  831000   0.92383621   -2.8013038    794.43871  0.079666938  0.080111054            3 
  832000   0.93290092   -2.7965386    792.26317  0.079353282  0.080078663            3 
  833000   0.92254275   -2.8144702    793.92666  0.079424436  0.080045885            3 
  834000   0.92638373   -2.8139719    794.73972  0.079410444  0.080012378            5 
  835000   0.92026585    -2.810917    796.78754  0.079519715  0.079978686            3 
  836000    0.9044861    -2.832121    794.92327  0.079238763  0.079945415            1 
  837000    0.9389238   -2.7971663    796.09538  0.079260791  0.079912034            8 
  838000   0.88168844   -2.8023211    799.15071  0.079470039  0.079878937            3 
  839000   0.91207097   -2.7977273    805.32699  0.079988775  0.079847516            2 
  840000   0.89287409   -2.7705563    801.95402   0.07955893  0.079815491            3 
  841000   0.92378956   -2.8375693    802.73847   0.07954206  0.079783742            2 
  842000   0.93700241   -2.8207836    802.45272  0.079419311  0.079752606            3 
  843000   0.91208172   -2.8078045    802.49885  0.079329661  0.079720927            2 
  844000   0.90191253   -2.8031255    801.63357  0.079150234  0.079688977            2 
  845000   0.91794533   -2.7920183    808.25696  0.079709759  0.079656751            2 
  846000   0.90955224   -2.8346663    805.31632  0.079325879  0.079623948            4 
  847000   0.92715771   -2.7995838    804.22864   0.07912521   0.07959133            2 
  848000   0.92268514   -2.8305534    804.82128  0.079090142  0.079559108            2 
  849000   0.92999339   -2.7965995    803.33172  0.078850778  0.079526056            5 
  850000     0.924412   -2.8088477    807.84326   0.07920032  0.079493154            3 
  851000   0.90215578    -2.830713    804.27474  0.078757808   0.07945929            3 
  852000   0.91073471   -2.8067844    805.58257  0.078793287  0.079425826            1 
  853000   0.90088382   -2.8061679     807.5716  0.078895233  0.079392483            3 
  854000   0.90978343   -2.8301672    807.67198  0.078812644  0.079359109            5 
  855000   0.91954954   -2.8306973    807.41362  0.078695284  0.079325665            2 
  856000   0.91353191   -2.8625821    808.63019  0.078721786  0.079292632            3 
  857000   0.90745868   -2.8192518    808.90192  0.078656351  0.079259815            3 
  858000   0.91771694   -2.8340214    811.53096  0.078820023  0.079227456            2 
  859000   0.92777899   -2.8348622    808.59613  0.078443552  0.079194728            3 
  860000   0.91329976   -2.8165973    813.03363  0.078782328  0.079161477            2 
  861000   0.90949924   -2.8081915    812.70561   0.07865908  0.079128757            6 
  862000   0.90356539   -2.8279382    813.07611  0.078603646   0.07909588            3 
  863000   0.91505224   -2.8086686    813.63973  0.078566988   0.07906368            8 
  864000   0.89156736   -2.8094119    815.32192  0.078638302  0.079031428            2 
  865000    0.9111719   -2.8456957    810.89706  0.078121104  0.078998807            2 
  866000   0.89792574   -2.8365441    816.64499  0.078584006  0.078966033            4 
  867000   0.90822243   -2.8281467    816.95843  0.078523493  0.078933409            3 
  868000   0.91533137   -2.7974385    816.01409  0.078342366  0.078900615            2 
  869000   0.90841683   -2.8363583    820.67313  0.078698996  0.078868782            4 
  870000   0.92232596   -2.8392099    817.87784  0.078340789  0.078836233            2 
  871000   0.91713947    -2.837264    818.69461  0.078328991  0.078803431            2 
  872000   0.91270073   -2.8283208    818.53695  0.078224097  0.078770475            2 
  873000    0.9064188   -2.8351808    820.86148  0.078356384  0.078737414            3 
  874000   0.89399285   -2.8342859     821.4839  0.078326077  0.078704611            3 
  875000   0.91834556   -2.8423538    820.17714  0.078112109  0.078671462            2 
  876000   0.92060789   -2.8219972    824.02898  0.078389362  0.078638426            4 
  877000   0.88814555   -2.8180281    824.51488   0.07834615  0.078605886            6 
  878000    0.8817107   -2.8321588    822.51358  0.078066968   0.07857313            2 
  879000   0.91969756   -2.8495859    821.14352  0.077848267  0.078539971            3 
  880000    0.8872981   -2.8267549    823.38211  0.077971791  0.078506078            3 
  881000   0.91338172   -2.8433552     825.3018   0.07806487   0.07847297            2 
  882000   0.91573663   -2.8121984    827.63904  0.078197188  0.078440377            1 
  883000   0.90637396   -2.8444272    824.91316  0.077851374  0.078407133            2 
  884000   0.90982155   -2.8047429    828.65978  0.078116495  0.078374037            3 
  885000   0.89564596   -2.8322067     826.9475  0.077866996  0.078340933            3 
  886000   0.89588585   -2.8492159     827.0993  0.077793388  0.078307179            2 
  887000   0.90290982   -2.8353701    828.09937   0.07779964  0.078273653            3 
  888000   0.89679129    -2.840072    830.58777  0.077945549  0.078239634            2 
  889000   0.90779421   -2.8482072    828.37593  0.077650537  0.078205924            4 
  890000   0.88487238   -2.8389092    827.32115  0.077464527  0.078171745            2 
  891000   0.90806628    -2.820879     832.6444  0.077875458   0.07813811            2 
  892000   0.89202284   -2.8274823    831.18578  0.077651885  0.078104968            1 
  893000    0.8909534   -2.8542271    829.81576  0.077437081  0.078071406            3 
  894000   0.90200138   -2.8141166    830.55266  0.077419152  0.078037572            4 
  895000    0.8968294   -2.8540808    832.75016  0.077537259  0.078003791            2 
  896000   0.90782126      -2.8159    834.77991  0.077639501  0.077970786            3 
  897000   0.89350848   -2.8413396    837.02708  0.077761713  0.077937827            2 
  898000     0.913762   -2.8151433    835.65586  0.077547871  0.077905786            2 
  899000   0.89673778   -2.8638128    837.21921  0.077606527  0.077872754            3 
  900000   0.89992621   -2.8436935    838.02077  0.077594516  0.077840273            1 
  901000   0.90089343   -2.8356451    839.77846  0.077670964  0.077807373            2 
  902000   0.87508661   -2.8238226    837.19933  0.077346576  0.077774438            4 
  903000    0.8891425   -2.8612286    837.84103   0.07732014  0.077741956            1 
  904000   0.87755555   -2.8124442    839.24416  0.077363952  0.077709227            4 
  905000   0.89284548   -2.8280789    838.53756  0.077213403  0.077676217            2 
  906000   0.90259401   -2.8317911    842.73654  0.077514399  0.077643419            2 
  907000   0.88549888   -2.8517046    838.30131  0.077021436  0.077610517            3 
  908000   0.87795808   -2.8756158     838.6837  0.076971705   0.07757751            2 
  909000    0.8914148   -2.8406719    840.24047  0.077029746  0.077544351            2 
  910000   0.90355322   -2.8647305    838.95465  0.076827349  0.077511086            2 
  911000   0.88898584   -2.8495015    839.88016  0.076827677  0.077476847            4 
  912000   0.90001377   -2.8708204    841.48523  0.076890098  0.077443107            4 
  913000   0.88236597   -2.8483306    841.21253  0.076780991  0.077409361            1 
  914000   0.89154448    -2.861399    842.07571  0.076775685  0.077376304            4 
  915000   0.89074653   -2.8337261    846.27802  0.077074501  0.077343564            2 
  916000   0.87737973   -2.8445863    844.34286  0.076814307  0.077310057            4 
  917000   0.89227715   -2.8449539    844.54377  0.076748798  0.077277695            2 
  918000   0.88825184   -2.8478046    847.97243  0.076976437  0.077244449            3 
  919000    0.8866923   -2.8410247     847.1317   0.07681644  0.077211709            2 
  920000   0.92168188   -2.8449297    850.62504  0.077049369  0.077178731            2 
  921000   0.88146237    -2.863879    849.25381   0.07684164  0.077145611            3 
  922000   0.87636984   -2.8594535    846.20162  0.076482431  0.077113084            4 
  923000   0.88670678   -2.8521676    849.94325  0.076737383  0.077079838            2 
  924000   0.87278163   -2.8297414    850.43281  0.076698486  0.077047375            4 
  925000   0.89013275   -2.8533822    848.76281  0.076465118  0.077014506            2 
  926000   0.87985923   -2.8726924    851.49556   0.07662847  0.076981727            3 
  927000   0.87018643   -2.8490115    849.21376  0.076340684  0.076949176            4 
  928000   0.87949071   -2.8276333    854.63544   0.07674528  0.076916635            3 
  929000   0.89045917   -2.8539451    853.15606  0.076529966  0.076883917            3 
  930000   0.88559876   -2.8645891    855.43459  0.076651845  0.076851967            2 
  931000   0.89262115   -2.8668608    857.61783  0.076764933   0.07682014            2 
  932000   0.88138258   -2.8524867    855.17125   0.07646381  0.076787765            4 
  933000    0.8714084   -2.8302302    856.71793  0.076520001   0.07675569           15 
  934000   0.88371826   -2.8510797    856.99518   0.07646281  0.076722898            7 
  935000    0.8706786   -2.8642374    858.03225  0.076473463  0.076690458            3 
  936000    0.8977692   -2.8593679    856.05775  0.076215968  0.076658152            2 
  937000    0.8734372   -2.8758329    855.83699  0.076114993  0.076626132           11 
  938000   0.86995485   -2.8638178     856.5127  0.076093879   0.07659326            2 
  939000   0.88578468   -2.8578173    858.89806  0.076224534   0.07656037            3 
  940000   0.89207843   -2.8600395    857.39618  0.076010299  0.076527947            2 
  941000   0.86992202   -2.8625941    857.42687  0.075932242  0.076495652            4 
  942000   0.87227379   -2.8658249    861.70083  0.076229727  0.076463684            4 
  943000   0.86592253   -2.8703268    864.82031  0.076424559  0.076431632            1 
  944000   0.87628085   -2.8658267    864.21387  0.076290067  0.076399183            1 
  945000   0.87454407   -2.8841253    860.52408  0.075883958  0.076366478            3 
  946000   0.89772389   -2.8596333    861.69204  0.075906628  0.076333787            2 
  947000   0.86020776    -2.861658     862.6998  0.075915153  0.076301526            1 
  948000   0.89432099   -2.8749592    867.76356  0.076280201  0.076269594            2 
  949000   0.86654078   -2.8544513    865.44723   0.07599642  0.076237216            3 
  950000   0.86723058   -2.8927436    864.58852  0.075841099  0.076204802            4 
  951000    0.8735599   -2.8547781    864.96413  0.075794263  0.076172339            4 
  952000   0.89683414   -2.8517174    866.05393  0.075810043  0.076140097            3 
  953000   0.89506247   -2.8965215    864.98491  0.075637016  0.076106924            7 
  954000   0.87681521   -2.8686292     870.3003  0.076022039  0.076074051            2 
  955000   0.88104155    -2.863351    866.23492   0.07558769  0.076040749            5 
  956000   0.86816375   -2.8738613    866.92806  0.075569043  0.076007075            4 
  957000   0.87389518    -2.893121    868.98417   0.07566912  0.075974389            4 
  958000   0.85329112   -2.8577006    868.07919  0.075511412  0.075941413            3 
  959000   0.87518963   -2.9093739    868.84721   0.07549941  0.075908056            2 
  960000   0.85672192    -2.879688    870.75117  0.075586039  0.075875205            2 
  961000   0.87613968   -2.8662289    870.30454  0.075468656  0.075843123            6 
  962000   0.86603639   -2.8683419    872.11282  0.075546848    0.0758109            5 
  963000   0.86800281   -2.8788128    872.43875  0.075496603  0.075778234            2 
  964000   0.85368983   -2.8711299    871.77595  0.075360991  0.075745645            6 
  965000   0.86674737   -2.8776287    871.93554  0.075296679  0.075712872            2 
  966000   0.86346786   -2.8382689    875.38981  0.075516719  0.075680283            5 
  967000   0.90047413   -2.8623374    874.31804  0.075346263  0.075647319            5 
  968000   0.85984568   -2.8826742    874.63374  0.075295604  0.075614113            3 
  969000   0.87833303    -2.891746    874.19445  0.075180121  0.075581342            2 
  970000   0.86762001   -2.8725207    878.52464  0.075474626  0.075548732            2 
  971000   0.87499794   -2.8622018    879.86641   0.07551205   0.07551678            2 
  972000   0.86376359   -2.8748734    878.90145  0.075351634  0.075484676            4 
  973000   0.86374288   -2.9058332    877.67928  0.075169517  0.075451941            3 
  974000    0.8687299   -2.8863092    880.66998  0.075348218  0.075420582            2 
  975000   0.85263656   -2.8732719    884.44936  0.075593962  0.075389038            4 
  976000   0.86285399   -2.8659576    881.83036  0.075292893  0.075357948            3 
  977000   0.87703177    -2.900643    880.25716  0.075081641  0.075326768            2 
  978000   0.85964685   -2.8391694     886.9447  0.075574702  0.075295746            7 
  979000   0.85717277   -2.8879592     881.7435  0.075054775  0.075265021            2 
  980000   0.87749122   -2.8974079    884.10067  0.075178628   0.07523361            4 
  981000    0.8658458   -2.8656799    883.06301  0.075013847  0.075202431            3 
  982000   0.88153817   -2.8964651    886.35795   0.07521707  0.075171052            4 
  983000    0.8519622   -2.8747709    882.37188  0.074802635  0.075139497            5 
  984000   0.86782713   -2.8760511    887.39153  0.075151722  0.075107593            5 
  985000   0.86740161   -2.8907472    884.13126  0.074799599  0.075076255            8 
  986000   0.85237685   -2.9158032    884.94037  0.074792121  0.075044527            5 
  987000   0.85525625   -2.8813816    885.75248  0.074784911   0.07501295            3 
  988000   0.84361975   -2.8661006     882.9694  0.074474477  0.074981682            3 
  989000   0.84382059   -2.8752831    889.35647   0.07493735  0.074950888            4 
  990000   0.86835829   -2.8738451    889.55745  0.074878573  0.074920027            3 
  991000   0.85253565   -2.8802932    890.40625  0.074874391  0.074889426            2 
  992000   0.86450787   -2.8921905    889.25117  0.074701879  0.074858593            4 
  993000    0.8608906    -2.904331     886.9014  0.074429456  0.074826801            4 
  994000   0.86295803   -2.8956571    887.92275  0.074440204  0.074795351            3 
  995000   0.86358186   -2.8860497    892.42706  0.074742635  0.074764314            3 
  996000   0.83929174   -2.8701459    895.52246  0.074926578  0.074733398            6 
  997000   0.84144249   -2.8756233    892.02325  0.074558947  0.074702604            3 
  998000   0.84310322   -2.8866533    891.48537  0.074439326  0.074671409            2 
  999000   0.85832319   -2.9046472    893.12433  0.074501529  0.074639814            3 
 1000000   0.85119312    -2.900732    892.15614  0.074346345  0.074607868            4 
 1001000   0.85664447   -2.8866594    893.55562  0.074388579  0.074576698            3 
 1002000   0.85410063   -2.9187835    894.44913   0.07438865  0.074545093            6 
 1003000    0.8583047   -2.9020002    893.34552  0.074222792  0.074513579            3 
 1004000   0.84466237   -2.8849051    899.33445  0.074645954    0.0744827            5 
 1005000   0.86392495   -2.9121118    900.09436   0.07463469  0.074452086            5 
 1006000   0.85545434   -2.8840951     900.6428  0.074605931  0.074421331            2 
 1007000   0.85839031   -2.8909938    897.21631  0.074248288   0.07439063            5 
 1008000   0.85116999   -2.8820401    899.58749  0.074370659  0.074359983            1 
 1009000   0.86066847   -2.9145536    902.05861  0.074501042  0.074328452            3 
 1010000   0.85462902   -2.8884045    898.07154  0.074098312  0.074297466            3 
 1011000   0.85544331    -2.895251    902.12749  0.074359338   0.07426621            3 
 1012000   0.84477855   -2.9062262    903.51379  0.074400016  0.074235523            1 
 1013000   0.85354817   -2.8820513     902.0947  0.074209831  0.074204778            2 
 1014000   0.85010951   -2.9045815    898.98388   0.07388099  0.074173469            3 
 1015000   0.85065672   -2.9229778    903.85436  0.074208075   0.07414207            3 
 1016000   0.84308438   -2.8971342    904.59163  0.074195507  0.074111011            3 
 1017000   0.84442066   -2.8956768    904.91969  0.074149434  0.074079902            5 
 1018000   0.84146923   -2.8908802    903.79398  0.073984445  0.074048936            4 
 1019000   0.83668277   -2.9100603     905.2201  0.074028468  0.074017597            3 
 1020000   0.83381472   -2.9275558    905.15771  0.073950793  0.073986509            2 
 1021000    0.8570541    -2.887543    904.06593  0.073789253  0.073955276            6 
 1022000   0.82450005   -2.9098258    905.74889   0.07385428  0.073924047            3 
 1023000   0.83026887   -2.9108833    904.88084  0.073711375  0.073892335            2 
 1024000   0.84548351   -2.9128697    904.97389  0.073646964  0.073861278            2 
 1025000   0.84209319   -2.8873864    907.96591  0.073818366  0.073830027            4 
 1026000   0.85012289   -2.8990244    905.33844  0.073533011  0.073798704            6 
 1027000    0.8485211   -2.9013473     909.8792   0.07382986  0.073767441            4 
 1028000    0.8395623   -2.9215236    910.78348  0.073831345  0.073735638            4 
 1029000   0.83581263   -2.8989561    910.16254  0.073709308  0.073703916            7 
 1030000   0.84959317   -2.8974876    906.51204  0.073342398  0.073671881            4 
 1031000   0.84048856   -2.8916663    908.01312   0.07339259  0.073639798            3 
 1032000   0.83035888    -2.901852    909.90241  0.073474031  0.073608525            2 
 1033000   0.83001965   -2.9026702    907.59732  0.073216951  0.073576936            4 
 1034000    0.8518698   -2.8777528    909.88407  0.073330438  0.073544573            2 
 1035000   0.83905037   -2.9268945    912.37722  0.073460324  0.073512465            3 
 1036000   0.86489429   -2.8988906    913.55235   0.07348394  0.073480337            5 
 1037000   0.81720489   -2.9169219    910.26037  0.073148535  0.073448135            8 
 1038000   0.83929788   -2.8977763    910.54195   0.07310067  0.073415755           12 
 1039000   0.83180564   -2.8872096    911.30792  0.073091748  0.073382894            2 
 1040000   0.86463815   -2.9274309    908.89023  0.072827743  0.073349942            2 
 1041000   0.83394342   -2.9021568    912.82434  0.073072714  0.073316699           11 
 1042000   0.82534304   -2.9140904    911.29069  0.072879934  0.073283155            2 
 1043000   0.84100154   -2.9215808    908.37047   0.07257674  0.073249639            4 
 1044000   0.82945044   -2.9295033    912.17161  0.072810633  0.073216398            2 
 1045000   0.83869062   -2.9319024    909.95759  0.072564401  0.073182826            3 
 1046000   0.84469746   -2.9252642    911.65117  0.072629953  0.073148949            5 
 1047000   0.81801312   -2.9236496    911.76435  0.072569592  0.073114398            2 
 1048000   0.83475805    -2.909779    910.65488  0.072412124  0.073079548            2 
 1049000   0.84609215   -2.9142214    911.69932  0.072426066  0.073044918            5 
 1050000   0.84625272   -2.9336397    909.25632    0.0721632  0.073009708            6 
 1051000   0.82671073    -2.931753    912.86691  0.072380821  0.072974671            3 
 1052000   0.83801722    -2.923377    915.00901  0.072481702  0.072939543            1 
 1053000   0.83706296   -2.9058055    913.07324  0.072259674  0.072904986            4 
 1054000   0.83522289   -2.9056396    916.69564  0.072477518  0.072870061            8 
 1055000   0.85120822   -2.9261914    912.89991  0.072108998  0.072835189            2 
 1056000   0.83092645   -2.9286663    914.35409  0.072155468  0.072799984            4 
 1057000   0.83597951   -2.9373814    912.64586  0.071952527  0.072764571            7 
 1058000   0.84015366   -2.9231614    911.40251  0.071786587  0.072729725            4 
 1059000   0.83341308   -2.9325186    915.38715  0.072032354  0.072694941            3 
 1060000   0.82551109   -2.9257126    915.28819  0.071956619  0.072659999            2 
 1061000   0.83420933   -2.9347558    917.93333  0.072096554  0.072625211            2 
 1062000    0.8224062   -2.9259495    913.25249   0.07166137  0.072589776            7 
 1063000   0.82230173   -2.9242293    913.78825  0.071635956   0.07255413            4 
 1064000   0.83911709   -2.9213904     917.8026  0.071883036  0.072518637            2 
 1065000   0.80184779   -2.9242848    919.25001  0.071928795  0.072483162            3 
 1066000   0.84338571   -2.9187862    916.58097  0.071652671  0.072447422           10 
 1067000   0.84657794   -2.9271565    917.87299  0.071686425  0.072412067            5 
 1068000   0.83610715   -2.9302818     916.3011  0.071496653  0.072377148            4 
 1069000   0.82983446   -2.9503118    916.59638  0.071452789  0.072341861            7 
 1070000   0.83493093    -2.928646    917.37242   0.07144645  0.072306552            4 
 1071000   0.83513657   -2.9381612    922.22645  0.071757427  0.072271228            3 
 1072000   0.82907003   -2.9509891    917.00481  0.071284578  0.072235877            4 
 1073000   0.83219515   -2.9294724    920.93344  0.071523256  0.072200542            4 
 1074000   0.82438213   -2.9178119    919.11027  0.071315198  0.072165535            3 
 1075000   0.82637679   -2.9388972     922.1972  0.071488155   0.07213061            5 
 1076000   0.83092419   -2.9410343     920.3933  0.071282009  0.072095823            4 
 1077000   0.84222828   -2.9432228    923.36946  0.071446105   0.07206107            8 
 1078000    0.8167385   -2.9453801    923.67779  0.071403664  0.072026722            2 
 1079000   0.81766971   -2.9438562    925.44172   0.07147372  0.071992403            4 
 1080000   0.82857192   -2.9376352    927.54865  0.071570112  0.071958206            2 
 1081000   0.82166068   -2.9695458    927.14555   0.07147283  0.071923813            3 
 1082000   0.83091597   -2.9400866      929.128  0.071559458  0.071889521            2 
 1083000   0.82509662   -2.9457123    925.38461  0.071205341  0.071855656           10 
 1084000   0.82197112   -2.9156083    932.04239  0.071651475   0.07182208            1 
 1085000    0.8212797   -2.9239249    929.86983  0.071418574  0.071787941            4 
 1086000   0.83733929   -2.9157108    929.87751    0.0713534  0.071753855            3 
 1087000   0.82753799   -2.9387871    924.90662  0.070906671  0.071719155            2 
 1088000    0.8144006   -2.9558744    927.58384  0.071046556  0.071684232            4 
 1089000   0.83103149   -2.9251345    928.12355  0.071022616  0.071649265            4 
 1090000   0.80886216   -2.9310378    926.49201  0.070832722  0.071614433            6 
 1091000   0.82601053   -2.9441705    930.88938   0.07110368  0.071579701            2 
 1092000   0.81455303    -2.935105    926.85526  0.070730713  0.071545033            5 
 1093000   0.80751611   -2.9510655    931.62263  0.071029478  0.071509948            8 
 1094000    0.8130158   -2.9313442    926.26833  0.070556698  0.071474571            3 
 1095000   0.80349186   -2.9408026     927.3502  0.070574597  0.071438988            4 
 1096000   0.81911114   -2.9285459    932.43793  0.070897044  0.071403878            8 
 1097000   0.80151601   -2.9294169    927.42584  0.070451674  0.071368845            1 
 1098000   0.80160833   -2.9357423    931.92955  0.070729322  0.071333376            6 
 1099000   0.80473506   -2.9539132     932.7134  0.070724401  0.071298155            4 
 1100000   0.81727465   -2.9660448    929.81642  0.070440638   0.07126315            3 
 1101000   0.83398926   -2.9360665    931.79918  0.070526732  0.071227797            3 
 1102000   0.81061657   -2.9454954    930.95156  0.070398636  0.071192397            2 
 1103000   0.81239293     -2.94532    931.28294  0.070359847  0.071157139            4 
 1104000   0.79151319   -2.9478439    933.85205   0.07049004  0.071122128            4 
 1105000   0.80193017   -2.9479554    935.63446  0.070560669  0.071086642            2 
 1106000   0.81209593   -2.9525159    934.90362  0.070441803  0.071051167            3 
 1107000    0.8286808   -2.9487498    932.96745  0.070232419  0.071016216            5 
 1108000    0.8261526   -2.9401774    933.48294  0.070207803  0.070980608            5 
 1109000   0.80810568   -2.9333042    933.30567  0.070131174  0.070944804            2 
 1110000   0.80314148    -2.941576    933.54325  0.070085829  0.070909008            5 
 1111000   0.79473194   -2.9303064    937.72339  0.070336287  0.070873278            4 
 1112000   0.80799157   -2.9418419    931.79436  0.069828714  0.070837481            3 
 1113000   0.80924885   -2.9505275    934.86289  0.069995724  0.070801881            3 
 1114000   0.79814384   -2.9491699    936.62689  0.070064848  0.070766347            8 
 1115000   0.81266943   -2.9606468    936.97895  0.070028322  0.070730928            2 
 1116000   0.80842124   -2.9567464    936.17808  0.069905771  0.070695256            3 
 1117000   0.80532939   -2.9586836    934.46179  0.069715144  0.070659423            7 
 1118000   0.81116968   -2.9428083    937.48364  0.069878029   0.07062361            4 
 1119000   0.82443379   -2.9584576     935.3694  0.069658132  0.070587962            6 
 1120000   0.80897017   -2.9342647    938.58546  0.069835228  0.070551912            3 
 1121000   0.79950564   -2.9650501     934.8091  0.069492202  0.070515857            3 
 1122000   0.80623391   -3.0025727    934.97889  0.069442876  0.070479669            4 
 1123000    0.8111496   -2.9621286    935.14024  0.069393013  0.070443079            5 
 1124000   0.79657495   -2.9498496     937.3506  0.069495151  0.070407353            5 
 1125000   0.78682343   -2.9690925    936.44509  0.069366303  0.070371108            5 
 1126000   0.81556892   -2.9654182    937.31999  0.069369449  0.070334821            4 
 1127000   0.80464055   -2.9708751    936.09914  0.069217623  0.070298831            4 
 1128000   0.79333367   -2.9653033    943.10353  0.069673724  0.070262961            3 
 1129000   0.79091763   -2.9568154    939.70183  0.069360926  0.070226936            5 
 1130000   0.80446477   -2.9607666    943.88667  0.069608162  0.070191099            4 
 1131000   0.81418433   -2.9762762     942.8846  0.069472782  0.070155807            3 
 1132000   0.79087592   -2.9519142    941.54294  0.069312643  0.070119971            3 
 1133000    0.8193946   -2.9643136    941.90319  0.069277964  0.070084557            2 
 1134000   0.80016444   -2.9724294    941.61296  0.069195544  0.070048651            6 
 1135000   0.78235841   -2.9804604    942.24936  0.069181304  0.070012533            5 
 1136000   0.82213135   -2.9691003    943.26874  0.069195183  0.069977028            6 
 1137000   0.79649633   -2.9565886       943.88  0.069179126  0.069941818            6 
 1138000   0.81070233   -2.9922479    946.19836  0.069288105  0.069906508            5 
 1139000   0.79590431   -2.9562099    943.73498  0.069047043  0.069870821            3 
 1140000   0.78961289   -2.9807062    945.95165  0.069148513  0.069835455            3 
 1141000   0.80471533   -2.9844055    943.36155   0.06889874  0.069800454            4 
 1142000   0.80370157   -2.9977625    947.66402  0.069152366  0.069764792            3 
 1143000    0.8069365   -2.9381318    948.92294  0.069183649  0.069729454            3 
 1144000   0.79272109   -2.9669245    945.93943  0.068905844  0.069694248            2 
 1145000    0.7880534   -2.9709637    944.23718  0.068721774  0.069658926            2 
 1146000   0.79291424   -2.9710363    947.65686  0.068910475  0.069623746            6 
 1147000   0.80180661   -2.9786024     949.0528  0.068951816   0.06958835            5 
 1148000   0.81153716   -2.9475804    949.48482  0.068923114  0.069552802            3 
 1149000   0.78626029    -2.974208    948.94737  0.068824149  0.069517267            3 
 1150000   0.78643097   -2.9565631    950.71221  0.068892189  0.069482138            4 
 1151000   0.80565129   -2.9645556     953.2413  0.069015443  0.069446999            5 
 1152000   0.79808519    -2.938348     948.1503  0.068587261  0.069411923            2 
 1153000   0.79129652   -2.9936799    950.26894    0.0686809  0.069377109           10 
 1154000   0.80208024    -2.963493    954.37328   0.06891777  0.069342411            3 
 1155000   0.78726622   -2.9674683    954.36445  0.068857464  0.069307822            4 
 1156000   0.80160153   -2.9680163    956.53383  0.068954284  0.069273136            3 
 1157000   0.79639915   -2.9544885    952.66645  0.068616137  0.069238824            4 
 1158000   0.79956986    -2.994948    954.09429  0.068659635  0.069204347            6 
 1159000   0.78234242   -2.9680815    952.73895  0.068502945  0.069169996            3 
 1160000   0.79409723   -2.9892581    954.42714  0.068565168  0.069135321            2 
 1161000    0.7929043   -2.9881431    958.20374  0.068777185  0.069100671            6 
 1162000   0.79362906   -2.9846397    956.58483  0.068601895  0.069066396            6 
 1163000   0.79705555   -2.9892151    958.24101   0.06866158   0.06903234            1 
 1164000   0.81730424   -2.9909712    957.48137  0.068548208  0.068998322            2 
 1165000   0.76761981   -3.0004857    961.58572  0.068782956  0.068964562            3 
 1166000   0.78006121   -2.9733918    959.10041  0.068546341   0.06893049            6 
 1167000   0.80358174   -2.9791363    961.09101   0.06862975  0.068896537            4 
 1168000   0.77785726   -2.9993985    960.97985   0.06856306  0.068862504            4 
 1169000    0.8059922   -2.9904402    959.13565  0.068372943  0.068828378            2 
 1170000   0.77574839    -2.975832    960.36736  0.068402234  0.068794491            6 
 1171000   0.77896993   -2.9971007    960.54046  0.068356138  0.068760071            3 
 1172000   0.78933366   -2.9738842    960.07286  0.068264566  0.068726376            5 
 1173000   0.77519359    -2.987843    960.10644  0.068208755  0.068692205            4 
 1174000    0.7845099    -2.985884    962.65467  0.068331536   0.06865853            4 
 1175000   0.77918535   -2.9651985    965.06673  0.068444449  0.068624874            2 
 1176000   0.79089149   -2.9952901    961.46348  0.068130915  0.068590753            2 
 1177000   0.79196053   -2.9527077    962.91731  0.068175963  0.068557189            3 
 1178000   0.79041149   -2.9771493    963.88448  0.068186508  0.068523451            6 
 1179000   0.77827766   -2.9719788    963.68394    0.0681145  0.068489995            5 
 1180000   0.76855508   -3.0009364    966.33406  0.068243931  0.068456341            4 
 1181000   0.79213852   -2.9628804    964.33612  0.068045168  0.068423358            3 
 1182000   0.77714726   -2.9798867    967.45831  0.068207721  0.068390585            3 
 1183000     0.793573   -2.9831006    964.92317  0.067971483  0.068357713            8 
 1184000   0.79243197   -3.0117274    964.33899  0.067872958  0.068323953            3 
 1185000   0.77917104   -3.0155089    962.51251  0.067687237  0.068290128            2 
 1186000   0.78805876   -2.9866286    967.24331  0.067962571  0.068256379            4 
 1187000   0.77685767   -3.0018354    968.65189  0.068004205  0.068223217            7 
 1188000   0.75243828   -2.9836471    965.48428  0.067724767  0.068190079            5 
 1189000   0.79006349   -2.9879344    970.42716  0.068014239  0.068157056            7 
 1190000   0.77379699   -3.0016711    968.23349  0.067803466   0.06812357            6 
 1191000   0.78716146    -3.008197     972.9671  0.068077743  0.068090134            3 
 1192000   0.77814738   -3.0281879    967.26255  0.067621823  0.068056823            6 
 1193000   0.77339364   -2.9779063     971.6758  0.067873414  0.068023759            3 
 1194000   0.77896647   -3.0001586    967.71038  0.067539809  0.067990468            4 
 1195000   0.76638289   -3.0017065    971.32803  0.067735567  0.067957685            5 
 1196000   0.78445837   -3.0114891    972.98637   0.06779448  0.067924803            3 
 1197000   0.77734493   -3.0104751    970.34392  0.067553879  0.067891677            6 
 1198000   0.77018475   -3.0335584    971.32653  0.067565841  0.067858857            4 
 1199000   0.77151852   -3.0048588    971.68324  0.067534281  0.067826114            5 
 1200000   0.77762304   -3.0196742    972.83307  0.067557852  0.067792958            2 
 1201000   0.79127409   -3.0109724    971.36386  0.067399657  0.067759918            3 
 1202000   0.77402136   -2.9912752     975.1018  0.067602732  0.067726799            5 
 1203000    0.7713169    -2.974164    976.70241  0.067657413  0.067693557            6 
 1204000   0.78912102   -2.9663484    973.41681   0.06737381  0.067660299            7 
 1205000   0.77858087   -2.9996235    973.66065  0.067334761  0.067626813            2 
 1206000   0.76115855   -3.0107181    971.91971  0.067158631  0.067593445            5 
 1207000   0.76508564   -3.0053179    975.74517  0.067367107   0.06756002            6 
 1208000   0.79283317   -3.0090719    975.53879  0.067297102  0.067526336            4 
 1209000    0.7877527   -3.0010828    973.82775  0.067123501  0.067492905            5 
 1210000   0.76897611   -2.9935875    976.79184  0.067272165  0.067459327            7 
 1211000   0.78071468   -3.0166041    976.04936  0.067165521  0.067426024            2 
 1212000   0.77342304   -2.9860618    975.14422   0.06704787  0.067392056            4 
 1213000   0.78561138   -3.0230438    976.40661  0.067079322   0.06735883            4 
 1214000   0.76657978   -3.0021692    982.31385  0.067429561  0.067325555            3 
 1215000   0.78576599   -3.0367041    971.49208   0.06663183  0.067292224            5 
 1216000   0.77911046   -3.0027131    980.02545  0.067161832  0.067258755           12 
 1217000   0.76462018   -3.0271596    975.22599  0.066778006  0.067224889            4 
 1218000   0.78107926   -3.0336419    979.73641  0.067031774  0.067191401            3 
 1219000   0.75842194   -3.0114692    981.22676  0.067078668  0.067158296            8 
 1220000   0.75961141   -3.0066258    981.18099  0.067020559  0.067125363            2 
 1221000   0.77152507   -3.0035344    982.53294   0.06705794  0.067092539            5 
 1222000   0.75213194   -3.0336853    979.18289  0.066774611  0.067059406            5 
 1223000   0.77879573   -2.9857843     984.1758  0.067060221  0.067026489            4 
 1224000   0.77719897   -3.0036274    980.08464  0.066726896  0.066993682            5 
 1225000   0.75696353   -3.0137306    983.58598  0.066910611  0.066960754            2 
 1226000   0.75724419   -3.0252907    980.90467  0.066673781  0.066927601            3 
 1227000   0.76767252   -3.0130707    981.35093  0.066649751  0.066894823            2 
 1228000   0.76336492   -3.0212735    983.95374  0.066772105  0.066862062            4 
 1229000   0.74548937   -3.0503356    981.03888   0.06652013  0.066828871            4 
 1230000   0.75859111   -3.0195524    982.09117  0.066537342  0.066795824            6 
 1231000   0.76207376   -3.0402647    983.41915  0.066573189  0.066762353            7 
 1232000   0.75552445   -3.0074702    984.90874  0.066619909  0.066729449            6 
 1233000   0.74847286   -3.0157378    981.20657  0.066315664  0.066696244            6 
 1234000   0.77029045     -3.01852    984.29057  0.066470189  0.066663228            4 
 1235000   0.76487095   -3.0276044    981.83645  0.066250773  0.066630372            3 
 1236000   0.76342455   -3.0176673    987.66884  0.066590402  0.066597256           11 
 1237000   0.75074354   -3.0107779    983.34595  0.066245348  0.066563879            6 
 1238000   0.76145921   -3.0052324    984.93827  0.066299022  0.066530559            5 
 1239000   0.77282318   -3.0274863    984.83421  0.066238513  0.066497679            4 
 1240000   0.74636705   -3.0166039    987.51543  0.066365284  0.066464549            4 
 1241000   0.75372326   -3.0395421    989.27619  0.066430042  0.066431251            3 
 1242000    0.7413867   -3.0240934    985.53182  0.066125323  0.066397987            6 
 1243000   0.75307194   -3.0107137    988.44407  0.066267369  0.066364507            4 
 1244000   0.75652087   -3.0303968    985.32762  0.066005334  0.066331272            4 
 1245000   0.75675758   -3.0462034    990.55004  0.066301877  0.066297832            4 
 1246000   0.73766629   -3.0253778    985.75453  0.065927938  0.066264637            6 
 1247000   0.74103447   -3.0160692     986.5261   0.06592663  0.066231429            5 
 1248000   0.75411542   -3.0399509    989.09985  0.066045663  0.066198205            2 
 1249000    0.7482213   -3.0267884    987.46593  0.065883769  0.066165214            3 
 1250000   0.75592003   -3.0222041    989.70413  0.065980276  0.066132314            4 
 1251000   0.75678764   -3.0108373    989.74485  0.065930246  0.066099423            6 
 1252000   0.76506447   -3.0118524    990.48499   0.06592685  0.066066732            4 
 1253000   0.73346029   -3.0546546    992.97903  0.066040106  0.066033897            4 
 1254000   0.74084988   -3.0447794    991.06471  0.065860228  0.066000794            5 
 1255000   0.76692273   -3.0213651    993.74952  0.065986024  0.065967872            3 
 1256000    0.7527269   -3.0424264    992.14946  0.065827326  0.065935104            7 
 1257000   0.75314653   -3.0502137    992.50601  0.065798595  0.065902149            4 
 1258000   0.74426849   -3.0491998    994.06801  0.065849762  0.065869359            4 
 1259000   0.77183586   -3.0415268    996.23683  0.065941013  0.065836826            5 
 1260000   0.74795808   -3.0119305    993.01768  0.065675773  0.065804225            3 
 1261000   0.75632354   -3.0333884    990.20786  0.065438003  0.065771264            4 
 1262000   0.75145044   -3.0478892    994.33443  0.065658639  0.065738646            7 
 1263000   0.74038118   -3.0281805    996.48775   0.06574873  0.065706102            7 
 1264000   0.75725605   -3.0274195     998.3241  0.065817781  0.065673775            9 
 1265000   0.73569507   -3.0333414    994.28733  0.065499824  0.065641452            3 
 1266000   0.74711366   -3.0465354    994.88639  0.065487519  0.065608561            3 
 1267000   0.73321072   -3.0281523    989.89885  0.065107791  0.065575721            5 
 1268000    0.7575053   -3.0383992    996.08478  0.065462985  0.065542807            6 
 1269000   0.75334148   -3.0608856     996.0593  0.065409726  0.065509966            4 
 1270000   0.74443587   -3.0237896    995.40428  0.065315242  0.065477257            3 
 1271000   0.72954342   -3.0454865    995.89705  0.065296161  0.065444836            2 
 1272000    0.7453737   -3.0499885    998.47037  0.065413415  0.065412187            4 
 1273000   0.74481692    -3.028937    997.68373  0.065310535   0.06537967            5 
 1274000     0.738078   -3.0261594    1001.2345  0.065491532  0.065347092            5 
 1275000   0.74788689   -3.0335102    1001.4067  0.065451418  0.065314655            3 
 1276000   0.75287735   -3.0369887    998.18475  0.065189704  0.065282033            4 
 1277000   0.74435236   -3.0403308    998.71859  0.065173492  0.065249591            4 
 1278000   0.74377778   -3.0529007    997.25948  0.065027353  0.065217321            8 
 1279000   0.73680403   -3.0429142    1001.4455  0.065249249  0.065184916            4 
 1280000   0.75068915   -3.0615723    1000.5662  0.065141031  0.065152407            7 
 1281000   0.74859709    -3.019585    1005.1902  0.065390986  0.065120185            5 
 1282000   0.73970874   -3.0545193     998.4514  0.064901937   0.06508792            8 
 1283000   0.73647193   -3.0610204    1002.2724  0.065099529  0.065055161            3 
 1284000   0.74163189   -3.0487448    1002.6264  0.065071806  0.065022945            5 
 1285000   0.74125111   -3.0491918    998.54442  0.064756447  0.064990498            3 
 1286000   0.73046217   -3.0453909    1001.3893  0.064890445  0.064958162            4 
 1287000     0.743366   -3.0515867    1004.5199   0.06504273  0.064926228            6 
 1288000   0.74744647   -3.0492804    1001.8551  0.064819817  0.064894055            3 
 1289000   0.73760883   -3.0645046    1004.0439  0.064911033  0.064862007            3 
 1290000   0.72180803    -3.048203    1003.1284  0.064801575  0.064829267            5 
 1291000   0.73359912   -3.0683076    1005.9249  0.064931893  0.064797057            4 
 1292000   0.74436248   -3.0666469    1000.9076  0.064558026  0.064764531            3 
 1293000   0.73799361   -3.0750518    1004.7832  0.064757873  0.064732008            5 
 1294000    0.7365679    -3.042522    1002.0117   0.06452935  0.064700219            3 
 1295000   0.74967827   -3.0687957    1004.4414  0.064635869  0.064667875            4 
 1296000   0.72334278   -3.0664792    1004.3786  0.064581959  0.064635334            8 
 1297000   0.72554739   -3.0511242    1007.4498  0.064729491  0.064603061            3 
 1298000   0.74251301   -3.0603957    1000.1901  0.064213537  0.064570851            9 
 1299000   0.73335883   -3.0937803    1004.6004  0.064447035  0.064538496            3 
 1300000   0.73798622    -3.059768    1008.2302   0.06463014  0.064505989            4 
 1301000   0.74337942   -3.0525525    1006.4282  0.064465041  0.064473811            4 
 1302000    0.7255176   -3.0720028    1006.5926   0.06442605  0.064441869            3 
 1303000    0.7414496   -3.0480831    1011.3727  0.064682319  0.064409753            5 
 1304000   0.73808534   -3.0757923    1007.3447  0.064375302  0.064377988            5 
 1305000   0.74222334   -3.0564981    1008.1038  0.064374444  0.064346256            4 
 1306000   0.73237084   -3.0733391    1009.2974  0.064401312  0.064314461            6 
 1307000    0.7342186   -3.0350003    1010.2652  0.064413748  0.064282619            4 
 1308000   0.73392256   -3.0376808    1006.9631  0.064154119  0.064250582            6 
 1309000   0.74075839   -3.0612356    1011.6092  0.064400888  0.064218624            6 
 1310000   0.73174634   -3.0553652    1012.4651  0.064406178  0.064186502            3 
 1311000   0.73251988   -3.0547641    1010.2492  0.064216194  0.064154334            2 
 1312000   0.73852859   -3.0707194    1011.7355  0.064261654  0.064122493            4 
 1313000    0.7327365   -3.0634785    1009.7553  0.064087033  0.064090471            7 
 1314000   0.71672442   -3.0752191    1009.1183  0.063997863    0.0640579            5 
 1315000   0.72109484   -3.0760418    1008.3727  0.063901948  0.064025636            5 
 1316000   0.71032274   -3.0767278    1010.1617   0.06396667  0.063992978            4 
 1317000   0.72858546   -3.0763273    1007.0979  0.063724239  0.063960562            5 
 1318000   0.72386632   -3.0686918    1014.2765  0.064129776  0.063928353            5 
 1319000    0.7343503   -3.0565763    1015.1712  0.064137679  0.063896104            4 
 1320000   0.72113075   -3.0699199    1012.5636  0.063924471  0.063864174            7 
 1321000   0.72607394    -3.062607    1012.4486  0.063868824  0.063832381            4 
 1322000   0.71088446   -3.0456872    1014.4348  0.063945711  0.063800709            5 
 1323000   0.72001798   -3.0795127    1013.3006  0.063825938   0.06376901            5 
 1324000   0.73399595    -3.084005    1011.1682  0.063643519  0.063737024            6 
 1325000   0.73187194   -3.0629987    1013.4356  0.063738088  0.063704762            5 
 1326000   0.73599671   -3.0808244    1014.3445  0.063747139  0.063672646            5 
 1327000   0.70042067   -3.0860924    1017.9856  0.063927757   0.06364069            6 
 1328000   0.73385864   -3.0723328    1015.3058  0.063711457  0.063608563            4 
 1329000   0.75103039    -3.081634    1013.5049  0.063550594  0.063576289            2 
 1330000   0.71319684   -3.0863338    1015.5293  0.063629655  0.063544146            3 
 1331000   0.72897754   -3.0670115    1014.1116  0.063493087  0.063512331            2 
 1332000   0.71833304   -3.0708184    1014.2639  0.063454947  0.063480048            5 
 1333000   0.71508869   -3.0892048    1018.0341  0.063643041  0.063447764            3 
 1334000   0.72164603   -3.0541947     1016.199  0.063480696  0.063415795            5 
 1335000   0.70430033   -3.0965139    1014.9374  0.063354395  0.063383299            3 
 1336000   0.72859053   -3.0723228    1018.4062  0.063523341   0.06335087            3 
 1337000   0.73065004   -3.0839893    1016.7198  0.063370721  0.063318645            5 
 1338000   0.70858313   -3.0708431    1019.4892  0.063495839  0.063286613            4 
 1339000   0.71454985   -3.0706522    1017.0772  0.063298309  0.063254441            2 
 1340000   0.72291273   -3.0864904    1014.6457  0.063099854  0.063221966            3 
 1341000   0.71339225   -3.0787793    1014.4199   0.06303877  0.063189667            3 
 1342000   0.70078765   -3.0655526    1018.0768  0.063218876  0.063157387            4 
 1343000   0.70442995   -3.0708042    1018.0108  0.063167708  0.063124858            7 
 1344000   0.72542543   -3.0938741    1015.2688  0.062950694  0.063092196            5 
 1345000   0.72077319    -3.077801    1017.3192  0.063030929  0.063059762            4 
 1346000   0.71656104   -3.0842561     1018.867  0.063079931  0.063027037            4 
 1347000   0.71739193   -3.1008448    1016.4278  0.062882196  0.062994573            5 
 1348000   0.72364402    -3.079609    1020.4531  0.063084388  0.062962405            5 
 1349000   0.71906919   -3.0902918    1018.4726  0.062915285  0.062930006            4 
 1350000   0.72205503   -3.0670661    1017.7274  0.062822681  0.062897683            5 
 1351000   0.72756354   -3.0891518     1018.155  0.062802554  0.062865613            3 
 1352000   0.71848908   -3.0727881    1018.2695  0.062763157  0.062833263            6 
 1353000   0.70338485    -3.075211     1016.798  0.062626138  0.062801078            3 
 1354000    0.7279948   -3.0759291     1018.809  0.062703653  0.062768797            4 
 1355000   0.72464076   -3.0884236    1019.2166  0.062682449  0.062737128            4 
 1356000   0.70968312    -3.083838    1021.3043  0.062764523  0.062704954            3 
 1357000   0.70487661   -3.0980763    1020.6169  0.062676056  0.062672875            6 
 1358000     0.713189   -3.1046216    1017.6796  0.062449654  0.062640485            6 
 1359000   0.73231275   -3.0767153    1020.3203  0.062565631  0.062608107            9 
 1360000   0.70937216   -3.0945791    1021.1563   0.06257085  0.062575826            8 
 1361000   0.72895546   -3.1026101    1022.3649  0.062598881  0.062543445            5 
 1362000   0.70618376   -3.0791812    1022.0684  0.062534777  0.062511489            6 
 1363000   0.72179146   -3.1180375    1023.3149  0.062565105  0.062479623            4 
 1364000   0.71177106   -3.1062479    1023.2178  0.062513306  0.062447605            7 
 1365000   0.70923564   -3.0994464    1021.1437  0.062340884  0.062415603            4 
 1366000   0.70605811   -3.0886055    1022.5545  0.062381316  0.062383715            4 
 1367000   0.71221756   -3.1035485    1025.0411  0.062487265  0.062351581            8 
 1368000   0.71165764    -3.100603    1026.0095  0.062500581  0.062319577            4 
 1369000   0.70588911   -3.0996024    1026.1886  0.062465826   0.06228806            2 
 1370000   0.71995737   -3.1121897    1022.7903  0.062213521  0.062256237            2 
 1371000    0.6988528   -3.0885176    1025.3398  0.062323108  0.062224644            3 
 1372000   0.68678438   -3.1023042    1026.0456  0.062320554  0.062192963            3 
 1373000   0.70761295    -3.100149    1026.5663  0.062306769   0.06216109            6 
 1374000   0.71046283   -3.0903327    1027.9648   0.06234624    0.0621291            2 
 1375000   0.72789109   -3.0979181    1028.1194  0.062310269  0.062097492            4 
 1376000   0.72387474   -3.0997928    1026.1476  0.062145565  0.062066002           10 
 1377000   0.70331725   -3.1042979    1028.1821  0.062223559  0.062034138            4 
 1378000   0.71490627   -3.1133553    1026.4996   0.06207666   0.06200215            8 
 1379000   0.68640801   -3.1222846    1029.1969  0.062194637  0.061970413            3 
 1380000   0.69915383   -3.1117914    1032.1448  0.062327587  0.061938742            8 
 1381000   0.70864038   -3.1100129    1031.5936  0.062249193   0.06190742            4 
 1382000    0.6975833    -3.125428    1027.3068   0.06194566  0.061876176            5 
 1383000   0.68746898   -3.1118949    1029.8463  0.062053885   0.06184493            3 
 1384000   0.68981431   -3.1108278    1031.2466  0.062093368  0.061813762            7 
 1385000   0.71242581   -3.0998007    1033.0377  0.062156299  0.061782672            4 
 1386000   0.68399817   -3.1100033    1032.2891  0.062066445  0.061751499            3 
 1387000   0.68878879   -3.0988444    1034.6417  0.062163044  0.061720538            7 
 1388000   0.68873888   -3.1125633    1032.4946  0.061989348  0.061689062            5 
 1389000   0.70482743   -3.1381696    1030.3422  0.061815588  0.061657865            4 
 1390000   0.68996655   -3.1094519    1034.8807  0.062043207  0.061626574           10 
 1391000   0.69171602   -3.1196172    1032.4688  0.061854111  0.061595218            5 
 1392000   0.70210103    -3.105707    1031.9571   0.06177904  0.061563899            6 
 1393000    0.7089384   -3.1434895    1034.0945  0.061862556  0.061532434            2 
 1394000    0.6920246    -3.136003    1035.1012  0.061878357  0.061501104            5 
 1395000   0.71363515   -3.1239971    1031.4889  0.061618216  0.061470099            2 
 1396000   0.68522956   -3.1236044    1031.1329  0.061552824  0.061438739           10 
 1397000   0.68226482   -3.0991457    1034.5992  0.061715533  0.061407636            4 
 1398000   0.70673702   -3.1101016    1035.6862  0.061736183  0.061376421            4 
 1399000   0.68528187   -3.1075917    1034.4901  0.061620809  0.061344913           19 
 1400000   0.68468894   -3.1403152    1033.0173  0.061489125   0.06131334            4 
 1401000   0.69961588   -3.1227054    1032.8834  0.061437269  0.061281792            7 
 1402000   0.68034862   -3.1149112    1034.9188  0.061514434  0.061250107            6 
 1403000   0.69639629   -3.1182918     1034.976  0.061473981  0.061218716            6 
 1404000   0.70279695   -3.1101379    1036.9715  0.061548642  0.061187401            4 
 1405000   0.68950058   -3.1191975    1036.5647  0.061480703  0.061156007            6 
 1406000   0.68197695   -3.1241254      1033.17  0.061235775  0.061124592           11 
 1407000   0.69372019   -3.1148439    1036.4086   0.06138407  0.061093208            8 
 1408000   0.69494144   -3.1317705    1034.4084  0.061222089  0.061061899            7 
 1409000   0.69842714   -3.1202201    1038.2176  0.061403929   0.06103056            8 
 1410000   0.69550273   -3.1247903    1036.3614  0.061250676  0.060999077            6 
 1411000    0.6941819   -3.1239621    1036.5024  0.061215592   0.06096767            4 
 1412000   0.69681249   -3.1389217    1034.1646  0.061034269   0.06093619           15 
 1413000    0.6975223   -3.1414957    1037.0364  0.061160438  0.060904451            3 
 1414000   0.67644587   -3.1318544    1036.1893  0.061067264  0.060872782            4 
 1415000   0.68287423   -3.1293881    1032.1799  0.060787982  0.060841522           10 
 1416000    0.7003553   -3.1250742     1039.472    0.0611742  0.060810235            4 
 1417000   0.67980801    -3.120356    1037.1987  0.060997334  0.060778845            7 
 1418000   0.67950186   -3.1355311     1043.312   0.06131359  0.060747559            4 
 1419000   0.68464859   -3.1297783    1036.4246  0.060865905  0.060716428            5 
 1420000   0.70659862   -3.1241833    1040.3243  0.061051897   0.06068501            5 
 1421000   0.67854342   -3.1214524    1039.5134  0.060961377  0.060653739            4 
 1422000   0.68117688   -3.0995886    1039.0782  0.060893002  0.060622299            4 
 1423000   0.67816295   -3.1445352    1038.9218  0.060841049  0.060590854            5 
 1424000   0.69144398   -3.1271554    1040.9405  0.060916459  0.060559725            7 
 1425000   0.69024133   -3.1499597    1038.8064  0.060748913  0.060528702            5 
 1426000   0.69110492   -3.1336756    1040.7077  0.060817421  0.060497404            4 
 1427000   0.68086535   -3.1419011    1040.0826  0.060738297  0.060466181            7 
 1428000   0.67976625   -3.1323335     1038.485  0.060602534   0.06043459            7 
 1429000   0.69088355    -3.144076     1042.294  0.060782251  0.060403275            4 
 1430000    0.6793651   -3.1417765    1039.7837  0.060593455  0.060372052            3 
 1431000   0.69174139   -3.1300109    1042.2581  0.060695205  0.060340642            4 
 1432000   0.67683149   -3.1411791    1039.7034  0.060504153  0.060309487           11 
 1433000   0.67394847   -3.1516228    1042.8076   0.06064245  0.060278091            6 
 1434000   0.70049953   -3.1256364    1040.8357  0.060485571  0.060246837            7 
 1435000   0.68820839   -3.1456248    1044.0672  0.060631079  0.060215648            4 
 1436000   0.68633716   -3.1304222    1043.6299  0.060563479  0.060184362           10 
 1437000   0.67518499   -3.1321164    1040.4034  0.060334228  0.060153058           10 
 1438000     0.672177   -3.1614646    1040.8071  0.060315665   0.06012169            5 
 1439000   0.69367285   -3.1437809    1041.9448  0.060339635   0.06009049            5 
 1440000   0.67693118   -3.1587506    1042.1232  0.060308056  0.060059329            8 
 1441000   0.68289502   -3.1376551    1043.5365  0.060347933  0.060027954            7 
 1442000   0.67990818   -3.1427875    1044.1997   0.06034441  0.059996607            5 
 1443000   0.68955064   -3.1488577    1042.6306  0.060211979  0.059965117            5 
 1444000   0.66762978   -3.1398246    1042.4679  0.060160888  0.059934036            3 
 1445000   0.66440011   -3.1705528    1043.3524  0.060170267  0.059902555            8 
 1446000   0.68979118   -3.1544528     1044.029  0.060167649  0.059871258            9 
 1447000   0.67647722    -3.161034    1039.9801  0.059892888  0.059840256           14 
 1448000   0.66044785   -3.1382166    1042.0697  0.059971781  0.059808779            7 
 1449000   0.66868709    -3.161232    1043.8653  0.060033662  0.059777327            7 
 1450000   0.68575892   -3.1592447     1042.243  0.059899025  0.059745804            6 
 1451000   0.66211289   -3.1340188    1044.7724  0.060003011  0.059714482            8 
 1452000   0.67266036   -3.1633129    1044.0347  0.059919348  0.059683275            9 
 1453000   0.68414834   -3.1525941    1046.4874  0.060018779   0.05965196            9 
 1454000   0.65810185   -3.1800635    1045.6336  0.059928563  0.059620615            4 
 1455000   0.68274888   -3.1459694    1043.8942  0.059787757  0.059589274            4 
 1456000   0.66762334   -3.1490776    1046.7932  0.059912616  0.059558231            5 
 1457000   0.64994325   -3.1584932    1044.6784  0.059750536  0.059527032            9 
 1458000   0.66488134   -3.1606919    1046.5106  0.059814279  0.059495803            3 
 1459000   0.67220043   -3.1567593     1045.273  0.059702596  0.059464661            5 
 1460000   0.66157004   -3.1616169    1047.2899  0.059776823  0.059433519            6 
 1461000   0.66640602   -3.1481163    1046.0847  0.059667161    0.0594023            5 
 1462000   0.67346196   -3.1498602    1046.9407  0.059675145  0.059371323            8 
 1463000   0.67310121     -3.16108    1048.2392  0.059708319  0.059340215            9 
 1464000   0.66438016   -3.1709175    1046.6597  0.059577624  0.059309078            5 
 1465000   0.65838645   -3.1624618    1052.3454  0.059860377  0.059277993            5 
 1466000   0.65804716   -3.1605904    1047.6967  0.059555293  0.059246979            4 
 1467000   0.66805801    -3.165424    1052.1173  0.059765811  0.059215917            4 
 1468000   0.67325228   -3.1487985    1052.6871  0.059757445  0.059185059            4 
 1469000   0.65113636    -3.165825    1049.2449  0.059521493  0.059154284            6 
 1470000     0.662191   -3.1592176    1046.1956  0.059308143  0.059123271            6 
 1471000   0.67454782   -3.1489576     1050.956  0.059537505  0.059092404            7 
 1472000   0.66633958    -3.173779    1045.3968  0.059182335  0.059061291            4 
 1473000   0.66994385    -3.172568    1046.4649  0.059202584  0.059030029            5 
 1474000   0.65891724   -3.1634207    1047.4429  0.059217715  0.058998685            7 
 1475000   0.67799404     -3.14333    1048.9242  0.059261253  0.058967545            5 
 1476000   0.67033085    -3.177115    1049.8811  0.059275131  0.058936506            9 
 1477000   0.66535503   -3.1711167    1049.6217  0.059220364  0.058905585            7 
 1478000   0.66106251   -3.1572443    1050.1554  0.059210386  0.058874556            6 
 1479000   0.66756148   -3.1490649    1052.7231  0.059315029  0.058843715            5 
 1480000    0.6606626   -3.1811106     1046.343  0.058915708   0.05881251           12 
 1481000   0.65919633    -3.177149    1050.4911  0.059109337  0.058781201            3 
 1482000   0.66300891   -3.1931019    1048.9339   0.05898189  0.058750042            8 
 1483000   0.67229088   -3.1769373     1051.746  0.059100136  0.058718865            6 
 1484000   0.65162122   -3.1709816    1052.2996  0.059091395   0.05868781           12 
 1485000   0.66127027   -3.1466306    1052.1935  0.059045651  0.058656774            6 
 1486000   0.67043721   -3.1561376    1058.2469  0.059345385  0.058625933           10 
 1487000   0.65337099   -3.1634556    1047.3686  0.058695841     0.058595            9 
 1488000     0.660277   -3.1595962    1048.7271  0.058732475  0.058563899           11 
 1489000   0.65299702   -3.1783556    1051.0478  0.058822912  0.058532877            4 
 1490000   0.65849328   -3.1724775    1053.1261   0.05889967  0.058501885            3 
 1491000   0.65490522   -3.1591551    1051.0176  0.058742321  0.058470795            7 
 1492000    0.6386499   -3.1716174     1054.687    0.0589079  0.058439766           10 
 1493000   0.65078931   -3.1820338    1053.1717  0.058783865  0.058409014            4 
 1494000   0.65847005    -3.179927    1052.8344  0.058725705  0.058377828           11 
 1495000   0.64513544   -3.1886472    1053.5556   0.05872662  0.058346611            7 
 1496000   0.66291583   -3.1869439    1055.6002  0.058801258  0.058315465            7 
 1497000    0.6565592   -3.1948988    1056.1058  0.058790126  0.058284606            9 
 1498000   0.66232761   -3.1941986    1053.0772  0.058582396   0.05825361            3 
 1499000   0.63666314   -3.1905678    1055.0062  0.058650557  0.058222825            8 
 1500000   0.66163172   -3.1798519    1054.4906  0.058582809  0.058191731           12 
 1501000    0.6588986    -3.170334    1053.6347  0.058496265  0.058160933            4 
 1502000   0.66170505   -3.1827441     1051.822  0.058356748  0.058130031            8 
 1503000   0.64200506   -3.1806866    1052.9627  0.058381164  0.058099115            8 
 1504000   0.64782551   -3.1968086    1058.0579   0.05862466  0.058068231            6 
 1505000   0.64691363   -3.1871864    1054.9074  0.058411261  0.058037237            7 
 1506000   0.67238398   -3.1740996    1054.3416  0.058341168  0.058006403           12 
 1507000   0.65386654   -3.1911171    1055.5716  0.058370472  0.057975395           10 
 1508000    0.6503967   -3.1715889    1057.4206  0.058433941  0.057944624           15 
 1509000   0.66414059   -3.1862017    1055.0159  0.058262419  0.057913854            4 
 1510000   0.66032811   -3.1932653    1056.8518  0.058325153  0.057883029            4 
 1511000   0.65600239   -3.2034311    1056.7373   0.05828024  0.057852362           14 
 1512000   0.64785745   -3.1982317    1056.4349  0.058225026  0.057821506            3 
 1513000   0.65596438   -3.1998526    1058.7925  0.058316398  0.057791163            5 
 1514000    0.6417963    -3.176159    1059.0745  0.058293398  0.057760701           11 
 1515000   0.64929506    -3.205856    1060.0242  0.058307159  0.057730302            4 
 1516000   0.65652287   -3.1809654    1058.1818  0.058167427  0.057700006            4 
 1517000   0.63233189   -3.1704119    1057.9997  0.058119079  0.057669674            6 
 1518000   0.64461096   -3.1830676    1058.4489  0.058105452  0.057639535            4 
 1519000   0.64724458   -3.2015443    1056.9473  0.057984819   0.05760918            7 
 1520000    0.6329373   -3.1761262    1062.0132  0.058224409  0.057578897            5 
 1521000   0.64100295   -3.1815748     1059.689   0.05805879  0.057548813            7 
 1522000   0.63612318   -3.2110803    1062.5796  0.058178908  0.057518737            6 
 1523000   0.63434584   -3.2041224    1059.8081  0.057989064  0.057488364           11 
 1524000   0.65729965   -3.1881127    1058.7165  0.057891319  0.057458179            6 
 1525000     0.653468   -3.1981142    1063.1596  0.058096154  0.057427889            7 
 1526000   0.64681973   -3.1895776    1058.8317   0.05782174  0.057397848            6 
 1527000   0.64654861   -3.2020939     1063.387   0.05803247  0.057367451           10 
 1528000   0.63965561   -3.2129204    1058.5438  0.057730357  0.057337006            8 
 1529000   0.63374392   -3.2121204    1059.2538  0.057731295  0.057306458            6 
 1530000   0.63201324   -3.1939678    1059.5437  0.057709353  0.057276118            4 
 1531000   0.63465468   -3.2009723    1062.1971  0.057816085  0.057245683            4 
 1532000   0.64015502   -3.2113159    1064.4677  0.057901853  0.057215326            9 
 1533000   0.63993204   -3.2023412    1061.4328  0.057699111  0.057184854            5 
 1534000   0.64512189   -3.2000055    1061.7793   0.05768032   0.05715451            9 
 1535000    0.6357398   -3.2046477    1061.4993  0.057627539  0.057124258           13 
 1536000   0.63700126   -3.2141001    1063.5647  0.057702077  0.057094107            8 
 1537000   0.64741125   -3.2020917    1061.4878  0.057551931  0.057063942            5 
 1538000   0.63330459   -3.2039776    1064.5614  0.057681048  0.057033722            5 
 1539000    0.6442487   -3.2310116    1059.5558  0.057372527  0.057003442            4 
 1540000   0.64530854   -3.2022804    1064.1348  0.057583054  0.056973215            6 
 1541000   0.63163624   -3.2025477    1062.5302  0.057458914  0.056943067           10 
 1542000   0.63171498   -3.2237614    1061.0558  0.057341972  0.056912661           14 
 1543000   0.63072207   -3.2264578    1060.7149  0.057286394  0.056882447            9 
 1544000   0.63879035   -3.2100533    1064.0023  0.057426719  0.056852132            5 
 1545000   0.63078282   -3.1928421     1065.065  0.057446873  0.056822072            4 
 1546000   0.64205313   -3.2108472    1063.5889  0.057330147  0.056791834            7 
 1547000   0.61999345   -3.1990416    1066.9203  0.057472544  0.056761775            3 
 1548000   0.63442919   -3.2001294    1063.1957   0.05723491  0.056731687            7 
 1549000   0.63741844   -3.2224085    1065.5052  0.057322208  0.056701483            3 
 1550000   0.62926664   -3.2067859    1065.5704  0.057288733  0.056671655            5 
 1551000   0.61976896   -3.1970511    1063.5553  0.057143523  0.056641773            8 
 1552000   0.63548585   -3.2190902    1066.1814  0.057247711  0.056611667            6 
 1553000   0.65280439   -3.2189958    1065.9505  0.057198461   0.05658181            8 
 1554000   0.64135415   -3.2058309    1062.5791  0.056980861  0.056551704           18 
 1555000   0.63223352   -3.2180133    1064.5377  0.057049177  0.056521511            5 
 1556000   0.62011965    -3.177688    1066.8485  0.057136276   0.05649158            9 
 1557000   0.63723896   -3.2272292    1065.0337  0.057002443   0.05646137            6 
 1558000   0.62631133   -3.1889773    1068.4504   0.05714861  0.056431285            8 
 1559000   0.63178305   -3.2239857    1066.1339  0.056988126  0.056401197           11 
 1560000   0.62582437   -3.2323734    1065.5458   0.05692018  0.056371316           10 
 1561000   0.63040931   -3.2090121    1069.0372  0.057070105  0.056341538            7 
 1562000   0.62335805   -3.2320014    1061.6808  0.056641101  0.056311317            7 
 1563000   0.62345947   -3.2172337    1063.1781  0.056684692  0.056281135            6 
 1564000    0.6206433    -3.221968     1066.542  0.056827683  0.056251086           12 
 1565000   0.61931506   -3.2439391    1066.1869  0.056772467  0.056221028            7 
 1566000   0.62632712   -3.2237534    1062.6616  0.056548615  0.056190891            6 
 1567000   0.63113532   -3.2304728    1067.4315  0.056766193   0.05616069           15 
 1568000   0.63525484   -3.2104704    1066.1104  0.056659781  0.056130506            4 
 1569000   0.61431712   -3.2052421    1067.5279  0.056698955  0.056100554            3 
 1570000   0.62749011   -3.2308689    1064.9714  0.056527144  0.056070651            7 
 1571000   0.61786362   -3.2185018    1068.5836  0.056682772  0.056040789            4 
 1572000   0.62178119   -3.2453062    1069.4688  0.056693641  0.056010945           10 
 1573000   0.62885262   -3.2284415    1068.7583  0.056619957  0.055981128            7 
 1574000   0.62330633   -3.2248244    1068.3231  0.056560943  0.055951674           13 
 1575000   0.62827807   -3.2268653    1066.7754  0.056443141  0.055922051            6 
 1576000   0.61213927   -3.2359873    1068.6726  0.056507646  0.055892291            6 
 1577000   0.63651263   -3.2175044    1069.8038  0.056531591  0.055862625            6 
 1578000   0.62761105     -3.23115    1068.5918  0.056431762  0.055833149            8 
 1579000   0.62253156   -3.2414207    1069.6746  0.056453166   0.05580349           12 
 1580000   0.62024098   -3.2185526    1070.9679   0.05648565  0.055773814           12 
 1581000   0.62092095   -3.2344373    1071.4545   0.05647557  0.055744324            9 
 1582000    0.6142743   -3.2253653    1068.2926  0.056273315  0.055714755            5 
 1583000    0.6304489    -3.230017    1074.3021  0.056554122  0.055685296           13 
 1584000    0.6243396   -3.2342877    1070.2294  0.056304155   0.05565577            4 
 1585000   0.61506405   -3.2070832    1071.6607  0.056343885   0.05562621            5 
 1586000   0.63100083    -3.242384    1069.6211  0.056201192   0.05559677           25 
 1587000    0.6192236   -3.2336048    1070.5995  0.056217157  0.055567121            6 
 1588000   0.62100285   -3.2277919    1069.5651  0.056127474  0.055537674            4 
 1589000    0.6242277   -3.2438853    1069.9703  0.056113398  0.055508348            6 
 1590000   0.61054005   -3.2243699    1072.6652  0.056219351  0.055478833            4 
 1591000   0.62153979   -3.2352862    1070.7884   0.05608571   0.05544931            7 
 1592000   0.62199222   -3.2541507    1070.6831  0.056044968   0.05541967            8 
 1593000   0.62856122   -3.2566033    1071.7201  0.056064038  0.055389946            5 
 1594000   0.61250241   -3.2501779     1071.057  0.055994199  0.055360343            5 
 1595000   0.60406032   -3.2310477    1072.4691  0.056032869  0.055330749            3 
 1596000   0.62624406   -3.2564795     1073.544  0.056053887  0.055301231           10 
 1597000   0.59962147   -3.2395959    1071.2505  0.055899107  0.055271663           11 
 1598000   0.60800236   -3.2240739    1071.8751  0.055896701  0.055242107            5 
 1599000   0.61838283   -3.2521921    1070.5579  0.055793096  0.055212516            9 
 1600000   0.60777153   -3.2361839    1072.8549  0.055877861  0.055183234           10 
 1601000   0.63695911    -3.258502    1070.3787  0.055714068  0.055153701            3 
 1602000    0.6182321   -3.2475289    1073.1425  0.055823058  0.055124249            5 
 1603000   0.62808089   -3.2331853    1074.5477  0.055861284  0.055094816            9 
 1604000   0.60677883   -3.2482532    1072.5348  0.055721885   0.05506551            7 
 1605000   0.62603163   -3.2343232    1074.7509  0.055802227  0.055036046            6 
 1606000   0.61227548    -3.232554    1074.9211  0.055776315  0.055006533            8 
 1607000   0.60826912   -3.2474669    1076.7982  0.055838946  0.054977014            9 
 1608000    0.6202875   -3.2584404    1074.0404  0.055661296   0.05494755            8 
 1609000   0.60708158   -3.2436428    1073.4332  0.055595257  0.054918139           10 
 1610000   0.60879939   -3.2674931    1074.2392  0.055602445  0.054888652           15 
 1611000   0.61178415   -3.2358983    1073.2632  0.055517441  0.054859243            4 
 1612000      0.62652   -3.2529008    1073.4091  0.055490544  0.054829789            4 
 1613000     0.610287   -3.2486422    1076.9334  0.055638219  0.054800295            4 
 1614000   0.60044663   -3.2533592    1075.7279  0.055541505  0.054771013           11 
 1615000   0.61964868   -3.2782311    1074.4675  0.055442078  0.054741371            6 
 1616000    0.6191636    -3.253497    1077.3232  0.055555035  0.054712055            5 
 1617000   0.60667803   -3.2545356    1077.8008   0.05554529   0.05468281            5 
 1618000   0.60060072   -3.2539514    1074.0693  0.055318772  0.054653413            5 
 1619000   0.61378452   -3.2478047    1073.0182  0.055230503  0.054624122           10 
 1620000   0.59727494   -3.2464525    1076.1445  0.055357229  0.054594666           10 
 1621000   0.60628216   -3.2590592    1073.6403  0.055194342  0.054565285            6 
 1622000    0.5917983   -3.2577203    1074.3338  0.055195943  0.054535973            5 
 1623000   0.60830546   -3.2644932    1076.5286  0.055274623  0.054506652            5 
 1624000   0.60029759   -3.2707421      1077.07  0.055268369  0.054477307            6 
 1625000   0.60323345   -3.2656928     1080.504  0.055410462  0.054448054            3 
 1626000   0.60330438   -3.2788214    1077.0339  0.055198538  0.054418936            5 
 1627000   0.60604785   -3.2488386    1076.6217  0.055143499   0.05438971           12 
 1628000   0.59789319   -3.2625665    1078.2254  0.055191718  0.054360516           14 
 1629000   0.60491237   -3.2392741    1077.4905   0.05512024  0.054331174            5 
 1630000   0.59659467   -3.2704021    1076.9997  0.055061335  0.054301866            6 
 1631000   0.59712446   -3.2621674    1078.2991  0.055093965  0.054272477           13 
 1632000   0.60060381   -3.2589295    1076.7499  0.054981101  0.054243375            5 
 1633000   0.59598813   -3.2518533    1077.2142  0.054971127  0.054214273            5 
 1634000   0.60386279    -3.270117    1075.0978  0.054829551  0.054184993            8 
 1635000   0.59915045    -3.263474    1075.1733  0.054799861  0.054155816           13 
 1636000   0.60331959   -3.2734602    1076.9404  0.054856378   0.05412661           17 
 1637000   0.60036319   -3.2627478    1076.7456  0.054812951  0.054097426            4 
 1638000   0.61150989   -3.2672759     1075.959  0.054739467  0.054068154            7 
 1639000   0.60065335   -3.2656661    1081.9507  0.055010715  0.054038814            5 
 1640000   0.60478878   -3.2600442     1078.342  0.054793802  0.054009846            7 
 1641000   0.60894239   -3.2701276     1078.556   0.05477128  0.053980658            8 
 1642000   0.60123302    -3.264991    1078.6107    0.0547407  0.053951482            8 
 1643000   0.60173583   -3.2722303    1079.6734   0.05476128  0.053922327            9 
 1644000   0.59678833   -3.2797763    1078.4644  0.054666689  0.053893187           13 
 1645000   0.60654107   -3.2611391    1078.9065  0.054655851   0.05386384            6 
 1646000   0.59454019   -3.2858132    1075.7895  0.054464838  0.053834529           11 
 1647000    0.5865063   -3.2733021    1079.3636  0.054612608  0.053805385            7 
 1648000   0.60335427   -3.2764708    1079.9091  0.054607052  0.053776029            7 
 1649000    0.5914366   -3.2628175    1080.8807  0.054623037  0.053746948            3 
 1650000   0.60093071   -3.2882827    1079.1511  0.054502583  0.053717802            8 
 1651000   0.59670989   -3.2753482    1078.2211  0.054422626  0.053688652            9 
 1652000   0.58451009    -3.261036    1079.7034  0.054464459  0.053659571            8 
 1653000   0.59546132   -3.2668717    1081.1576   0.05450482  0.053630457            9 
 1654000   0.58181815   -3.2838466    1078.5806   0.05434203  0.053601225           12 
 1655000   0.59205355   -3.2827857    1079.4163  0.054351276  0.053571795            6 
 1656000   0.56875689   -3.2675192    1076.6532  0.054179406  0.053542629            8 
 1657000   0.58857108   -3.2731939     1081.323  0.054381562  0.053513376            5 
 1658000   0.58288608     -3.26666    1078.3552  0.054199596  0.053484182           14 
 1659000   0.59823952   -3.3047528    1077.1226  0.054105015  0.053454815            6 
 1660000   0.56165163   -3.2748581    1080.8826  0.054261177   0.05342555            7 
 1661000   0.59840652   -3.2902433    1078.4753  0.054107732  0.053396323            6 
 1662000   0.59492051   -3.2711842    1079.9524   0.05414924  0.053367217           14 
 1663000   0.58772883    -3.300571     1077.487  0.053993134  0.053338106            6 
 1664000   0.59153823   -3.2882096    1080.6481  0.054118994  0.053308859            3 
 1665000   0.59052967   -3.2787335    1079.4802  0.054028039  0.053279751           15 
 1666000   0.58864174   -3.2780331    1079.1388  0.053978531  0.053250775            5 
 1667000   0.59088058   -3.2775211    1082.1331  0.054095836  0.053221767           11 
 1668000   0.58395369   -3.3066513    1081.5668  0.054035111  0.053192678            7 
 1669000   0.58298153   -3.3087219    1078.1195  0.053830612  0.053163406           10 
 1670000   0.59000121   -3.2985048    1079.0538  0.053844999  0.053134108            9 
 1671000   0.57969066   -3.2865669      1076.84  0.053702376  0.053104773           21 
 1672000   0.59611038   -3.2856517     1082.709   0.05396277  0.053075598           15 
 1673000   0.59326784   -3.2886222    1082.1741   0.05390387  0.053046387            6 
 1674000   0.57543319   -3.2837634     1083.828  0.053954003  0.053017377            9 
 1675000   0.57764598   -3.3187787    1082.3834  0.053849922  0.052988369           11 
 1676000   0.59494385   -3.2995278    1081.7167  0.053784641  0.052959142            9 
 1677000   0.59895762   -3.2916744    1079.6604  0.053650385  0.052930207           13 
 1678000   0.58354923    -3.317346    1081.7793  0.053723646  0.052901213            7 
 1679000     0.585526   -3.2968837    1080.5965   0.05363294  0.052872149            8 
 1680000    0.5782109   -3.2791917    1083.2777  0.053734012   0.05284321            8 
 1681000   0.57209432   -3.2915357    1082.4185  0.053659453  0.052814408           21 
 1682000   0.60014089   -3.3143866    1078.9098  0.053453716  0.052785493           19 
 1683000   0.58284828   -3.2988154    1081.0164  0.053526261  0.052756494           15 
 1684000   0.58309612   -3.3039165    1082.5889  0.053572295  0.052727559            5 
 1685000   0.57865664   -3.2966844    1081.5857  0.053490883  0.052698567            7 
 1686000   0.57657297   -3.2954074    1083.2877  0.053543281  0.052669656            8 
 1687000   0.57553529   -3.3221316    1082.0482  0.053450316  0.052640784           12 
 1688000   0.57487802    -3.305595    1080.7985  0.053356957  0.052611667            7 
 1689000   0.58971489   -3.3213372    1081.7293  0.053371288  0.052582606           15 
 1690000   0.57191686   -3.2781462    1082.1031  0.053358142  0.052553474            7 
 1691000    0.5908553   -3.2886171    1079.3052  0.053188703   0.05252438            9 
 1692000   0.57576163   -3.3073822    1081.3479  0.053257877   0.05249526            7 
 1693000   0.57340332   -3.2972443     1082.556  0.053285885  0.052466015            5 
 1694000   0.58470567   -3.3276373    1079.0518  0.053082046  0.052436774            8 
 1695000   0.56357272   -3.3032329     1082.667  0.053228468  0.052407543            6 
 1696000   0.57016106   -3.3140812    1080.0458  0.053068289  0.052378295            9 
 1697000   0.57028298   -3.2966913    1081.1459  0.053091037  0.052349288           10 
 1698000   0.57730631   -3.3141711    1082.8364  0.053142737  0.052320167            5 
 1699000   0.58004736   -3.3103433    1080.4439   0.05299411  0.052290912           10 
 1700000   0.58243712   -3.3155485    1084.2237  0.053148219  0.052261815            8 
 1701000   0.55744538   -3.3017384    1085.1719  0.053163426  0.052232912            9 
 1702000   0.57495674   -3.3083905    1082.0436  0.052979023  0.052203943           13 
 1703000   0.57268235   -3.2907897    1082.2136  0.052956236  0.052174959           12 
 1704000    0.5702896    -3.322106     1081.751  0.052902535  0.052145839           12 
 1705000   0.57089429   -3.3263995    1082.0427  0.052885765  0.052116555           10 
 1706000   0.56897928    -3.338044    1082.3751  0.052871001  0.052087376            6 
 1707000   0.57340302   -3.2926884    1085.1341  0.052974719  0.052058381           11 
 1708000   0.56869255   -3.2937992    1082.6526   0.05282263  0.052029498            7 
 1709000   0.56715568   -3.3182719    1081.8788  0.052753987  0.052000491           18 
 1710000   0.57748264   -3.3184604     1081.433  0.052701412  0.051971283            9 
 1711000   0.56700716     -3.32517    1083.3281  0.052762912  0.051942127           18 
 1712000   0.56003803    -3.343796    1080.3494    0.0525871  0.051912849            8 
 1713000   0.56989939   -3.2988903    1084.4511   0.05275594   0.05188374           11 
 1714000   0.59732596   -3.3066686    1083.3062  0.052669496  0.051854783           11 
 1715000   0.56792766   -3.3297342    1083.1525  0.052631316  0.051825818            7 
 1716000   0.56655135   -3.3049024    1083.3272   0.05260913  0.051796703            7 
 1717000   0.56568188   -3.3147731    1082.2262  0.052525054  0.051767509           14 
 1718000   0.57402214   -3.3260493    1082.1141  0.052489041  0.051738088            7 
 1719000   0.56521134   -3.3316766     1081.046  0.052406729  0.051708826            9 
 1720000   0.57630989    -3.307893    1083.5981  0.052499908  0.051679783           15 
 1721000   0.56195076   -3.3199766    1082.9357   0.05243733  0.051650854           12 
 1722000   0.55603569   -3.3039669    1085.1396  0.052513529  0.051621756            5 
 1723000   0.58027663   -3.3397389    1083.3802   0.05239796  0.051592676           13 
 1724000   0.56587178   -3.3262387    1082.2373   0.05231232  0.051563467           12 
 1725000   0.55070883   -3.3330457    1083.9253  0.052363539  0.051534487           13 
 1726000   0.56467198   -3.3273267    1085.0652  0.052388239  0.051505585            5 
 1727000   0.57148274   -3.3244415    1085.2521  0.052366921  0.051476548            9 
 1728000   0.57102569   -3.3191472    1083.1938  0.052237356  0.051447612           11 
 1729000   0.57782915   -3.3190913    1085.3274  0.052309978  0.051418696            7 
 1730000   0.57046384   -3.3171845    1083.5458   0.05219392  0.051389696           17 
 1731000   0.57097876   -3.3243742    1084.0736  0.052189178  0.051360702            7 
 1732000   0.57611012   -3.3343453    1082.0804  0.052063147  0.051331582           10 
 1733000   0.57016229   -3.3251053    1084.6173  0.052155094  0.051302554           15 
 1734000   0.56706961    -3.309884    1083.2874  0.052061102  0.051273378           15 
 1735000   0.56482785   -3.3312881    1080.7165  0.051907612  0.051244306           25 
 1736000   0.55120624   -3.3414128    1080.3386  0.051859573   0.05121512            8 
 1737000   0.55807918    -3.323183    1082.9534  0.051955162  0.051185998           14 
 1738000   0.55864772   -3.3142948    1087.8008   0.05215769  0.051157049           11 
 1739000   0.56528301   -3.3422453    1082.2119  0.051859875  0.051128103            9 
 1740000   0.55900996   -3.3343253    1083.6288  0.051897929  0.051099193           14 
 1741000   0.56254297   -3.3361263    1082.6786  0.051822641  0.051070175           13 
 1742000   0.54634131   -3.3388714    1084.2199  0.051866622  0.051040968            7 
 1743000   0.55853783    -3.337173    1083.7896  0.051816295  0.051011889           10 
 1744000   0.55442177   -3.3435701    1084.5524  0.051823031  0.050982935           10 
 1745000   0.55730327   -3.3419118    1082.3962  0.051690362   0.05095397           12 
 1746000   0.56767314   -3.3444003    1084.6415  0.051767923  0.050924988           14 
 1747000   0.54213292    -3.346567    1085.6967  0.051788622  0.050896045            8 
 1748000    0.5614614   -3.3312722    1086.2586  0.051785784  0.050867223           10 
 1749000   0.55065257   -3.3465827     1085.869  0.051737614  0.050838347           17 
 1750000   0.55893156   -3.3432695    1083.1999  0.051580946  0.050809456           11 
 1751000   0.56533603   -3.3472313    1082.8061  0.051532748  0.050780596           18 
 1752000   0.56352347    -3.331863    1086.8203  0.051694269  0.050751708           11 
 1753000   0.54617655   -3.3373258    1085.8004  0.051616297  0.050722893           13 
 1754000   0.56513273   -3.3363513    1085.5216  0.051573624  0.050694013            4 
 1755000   0.55032547   -3.3441106    1085.2224  0.051530029  0.050665064            9 
 1756000   0.54116765   -3.3262317    1083.2792  0.051408465  0.050636202           24 
 1757000   0.55500402   -3.3441058    1087.9977  0.051603003   0.05060743            8 
 1758000   0.55108518   -3.3326633    1088.4075  0.051593072  0.050578521            9 
 1759000    0.5423178   -3.3450736    1084.5839  0.051382597  0.050549485           17 
 1760000   0.55328275   -3.3420544    1086.0224  0.051421517  0.050520543            9 
 1761000   0.55304199   -3.3515119    1086.4073  0.051410531  0.050491674            7 
 1762000   0.54338134   -3.3551706    1080.9431  0.051122926  0.050462802           11 
 1763000    0.5520975   -3.3345322    1086.5786  0.051360303  0.050433821           11 
 1764000   0.52858963   -3.3433785    1084.8428  0.051249185  0.050404931            8 
 1765000    0.5564289   -3.3513287    1084.1351  0.051186739  0.050376024           22 
 1766000   0.55643648   -3.3475653    1081.7764  0.051046453  0.050347054           11 
 1767000   0.54413584   -3.3566276    1082.5158  0.051052432  0.050318105            8 
 1768000   0.54524744   -3.3703972    1087.5001   0.05125849  0.050289263            8 
 1769000    0.5514069   -3.3479692    1085.6843  0.051143975  0.050260454           11 
 1770000   0.54321666   -3.3258683    1090.0075  0.051318619  0.050231581            7 
 1771000   0.53457218   -3.3616671     1083.368  0.050977227  0.050202895            9 
 1772000   0.54412525   -3.3688808    1084.0876  0.050982299  0.050174152            8 
 1773000   0.54260117   -3.3472705    1086.1528  0.051050612  0.050145533           22 
 1774000   0.55567691   -3.3486341    1086.2141  0.051024714  0.050116881           19 
 1775000   0.55660639   -3.3588461    1084.7737  0.050928341  0.050088187            7 
 1776000    0.5441622    -3.350642    1084.6884  0.050895665  0.050059379           15 
 1777000   0.53613905   -3.3639673    1083.3742  0.050805391  0.050030635           13 
 1778000   0.55267201   -3.3355468    1086.4492  0.050920939  0.050002015            7 
 1779000   0.55008588   -3.3712956    1085.8986  0.050866525  0.049973372           24 
 1780000   0.54148413   -3.3960996    1084.6831  0.050781043  0.049944477           10 
 1781000   0.55243404   -3.3499688    1086.8661  0.050854675  0.049915625            7 
 1782000   0.53643305    -3.350546    1082.1252  0.050604432  0.049886952           12 
 1783000   0.54175026   -3.3627419    1086.4117  0.050776393  0.049858397            8 
 1784000   0.53561726   -3.3771875    1085.3964  0.050700503  0.049829651            6 
 1785000   0.53571595    -3.347185    1084.0487  0.050609185  0.049801021            9 
 1786000   0.54340924   -3.3564847     1083.433  0.050552118  0.049772324           19 
 1787000   0.54132808   -3.3673366    1083.8596  0.050543724  0.049743381            8 
 1788000   0.54219868   -3.3724111    1085.7994  0.050605864   0.04971449           11 
 1789000   0.54433512   -3.3665383    1082.4916  0.050423494  0.049685428           17 
 1790000   0.53313204   -3.3462995    1082.9842   0.05041826  0.049656594            9 
 1791000   0.53994074   -3.3483059     1083.255  0.050402709  0.049627723           11 
 1792000   0.53369747   -3.3690273    1085.7647  0.050491289  0.049599188           10 
 1793000    0.5475121   -3.3967417    1082.8321   0.05032683  0.049570485            7 
 1794000   0.52861435   -3.3674244    1084.5648  0.050379264  0.049541647            8 
 1795000   0.53172047   -3.3867616    1085.3757  0.050388843  0.049512843           16 
 1796000   0.53737118   -3.4005517    1083.6119  0.050278947  0.049484015           11 
 1797000   0.54507851   -3.3706551    1083.3517  0.050238904  0.049455252           34 
 1798000   0.53936354   -3.3943968    1085.7023  0.050319905  0.049426519           18 
 1799000   0.53437576   -3.3658929    1085.5066  0.050282871  0.049397851           19 
 1800000   0.54412493   -3.3652961    1087.0718  0.050327396  0.049369224           12 
 1801000   0.52882089   -3.3776565    1081.8109   0.05005603  0.049340644           13 
 1802000   0.53437912   -3.3624103    1088.7225  0.050347879  0.049312061           10 
 1803000     0.520918   -3.3850136    1088.1235  0.050292269  0.049283605           19 
 1804000    0.5373421   -3.3903764    1084.2361  0.050084816  0.049255077            7 
 1805000   0.53440646   -3.3941916    1088.1873  0.050239487    0.0492265           17 
 1806000   0.52938597   -3.3664058    1087.7536  0.050191657  0.049197981           11 
 1807000   0.53685761   -3.3858135    1085.8926  0.050078056  0.049169494           16 
 1808000    0.5297393   -3.3887648    1084.2695  0.049975547   0.04914082            8 
 1809000   0.52611677   -3.4087733    1085.3763  0.049998908  0.049112264           11 
 1810000   0.53586344   -3.3913298    1086.9646  0.050044411  0.049083631           10 
 1811000   0.53204837   -3.3972603    1085.0252  0.049927535  0.049055068           14 
 1812000   0.53339083   -3.3761804    1085.8578  0.049938274  0.049026381            6 
 1813000   0.51599778   -3.4153091    1082.4832  0.049755619  0.048997744           13 
 1814000   0.53671989   -3.3834525    1087.1309    0.0499417  0.048968918           13 
 1815000    0.5178542   -3.3860142    1084.9032  0.049811901   0.04894033           18 
 1816000   0.54802176     -3.37539    1086.3603  0.049851337  0.048911836           11 
 1817000   0.52988643   -3.3969223     1087.351  0.049869335  0.048883331           27 
 1818000   0.54365524   -3.3914278     1086.692  0.049811699  0.048854754           12 
 1819000   0.52919777   -3.3697195    1085.0353  0.049708417  0.048826046            8 
 1820000   0.52076675   -3.3806637    1083.9791  0.049632745  0.048797265           18 
 1821000   0.52100243   -3.3968284    1083.0598  0.049563418  0.048768564            9 
 1822000   0.53001811   -3.3982579    1082.9345  0.049530486  0.048739659           19 
 1823000   0.53415107   -3.3948557    1083.5894  0.049533251   0.04871085           26 
 1824000   0.52245535   -3.4116345    1085.6675  0.049601036  0.048682018           10 
 1825000   0.52428007   -3.3940122    1083.1354  0.049458236  0.048653173           13 
 1826000    0.5143476   -3.3913875    1086.6965  0.049593668  0.048624509            5 
 1827000   0.52412372   -3.3885346    1083.5314  0.049422158  0.048595822           18 
 1828000   0.52158687   -3.3962223    1084.9325  0.049458994  0.048567314            9 
 1829000   0.52216972   -3.4093218    1083.1604   0.04935121  0.048538718           11 
 1830000   0.51390586   -3.4127976    1086.4222  0.049472778  0.048510032           16 
 1831000   0.52325112   -3.4169025      1084.43  0.049355089  0.048481397           28 
 1832000   0.53235851   -3.4253145    1084.5223  0.049332344   0.04845274           14 
 1833000   0.52037773   -3.3904375    1087.2537  0.049429612  0.048424135           18 
 1834000   0.51983458   -3.3971135    1083.9165  0.049251024  0.048395822           13 
 1835000   0.51993618   -3.3909231    1084.7907  0.049263885  0.048367433           10 
 1836000   0.52738461   -3.3999328    1083.7017  0.049187622   0.04833883           13 
 1837000   0.50913719   -3.3920033    1082.2713  0.049095958    0.0483102           26 
 1838000   0.52731565   -3.3949633    1086.4608  0.049259195  0.048281621           17 
 1839000    0.5203159   -3.4037004    1085.4192  0.049185207  0.048253026           18 
 1840000   0.52520782   -3.4002132    1084.9705  0.049138156  0.048224457           21 
 1841000   0.51866179   -3.4210217    1085.0228  0.049113834  0.048195867           11 
 1842000   0.51233207   -3.4029069    1083.4121  0.049014301  0.048167347            7 
 1843000   0.51929436   -3.4161604     1084.361  0.049030611  0.048138847            5 
 1844000   0.50777783   -3.3949265    1085.1808  0.049041071  0.048110344           13 
 1845000   0.51772857   -3.4033032    1086.1537  0.049058432   0.04808182            9 
 1846000   0.51713674   -3.4157882    1083.2561   0.04890105  0.048053285           14 
 1847000   0.51714469    -3.423543    1086.3248  0.049013029  0.048024823           10 
 1848000   0.51449657   -3.3928667    1088.1426  0.049068479  0.047996437           23 
 1849000    0.5134017   -3.4076963    1087.1183  0.048995777  0.047968149           30 
 1850000   0.51847759   -3.4253083    1083.8598  0.048822513  0.047939742            9 
 1851000   0.51408263   -3.4365999     1086.787  0.048927923  0.047911497           15 
 1852000   0.51839897   -3.4251268    1085.8407  0.048858922  0.047883257           14 
 1853000   0.50653791   -3.4167992    1083.8677  0.048743825  0.047854886           13 
 1854000   0.52314914   -3.4138146    1085.2852  0.048781248  0.047826663           15 
 1855000   0.51798636   -3.4360321     1086.828  0.048824257  0.047798471           13 
 1856000   0.50590034   -3.4274356    1086.6319  0.048789148  0.047770202           17 
 1857000    0.4952165   -3.4269707    1088.4587  0.048844853  0.047742094           10 
 1858000   0.51185865   -3.4057432    1090.3196  0.048902027   0.04771404            8 
 1859000   0.51484993   -3.4155655    1085.4354  0.048656776  0.047686051           16 
 1860000   0.51144488   -3.4118382    1085.2361  0.048621687  0.047657934           13 
 1861000   0.50779994   -3.4214086    1084.6929  0.048571236  0.047629722            8 
 1862000   0.50713137   -3.4132844     1086.889  0.048643438  0.047601552           14 
 1863000   0.50971557   -3.4081123    1087.6219   0.04865011   0.04757358           23 
 1864000   0.51424868   -3.4247053    1089.2409  0.048696391   0.04754559           31 
 1865000   0.50021054   -3.4271322    1085.6028   0.04850772  0.047517632           17 
 1866000   0.51571244   -3.4307238    1086.2361  0.048510009  0.047489607           17 
 1867000   0.50701315   -3.4327223    1088.0479  0.048564893  0.047461547           13 
 1868000   0.50850992    -3.408495    1090.0263  0.048627153  0.047433572           14 
 1869000   0.50877825   -3.4150731    1087.0853  0.048470005  0.047405652           19 
 1870000   0.50548363   -3.4113153    1087.2253  0.048450326  0.047377912           19 
 1871000   0.50817938   -3.4442593    1087.2812  0.048426919  0.047350097            9 
 1872000   0.51423655   -3.4222188    1087.7699  0.048422803  0.047322297           12 
 1873000   0.50322748   -3.4178472    1086.9955  0.048362496  0.047294473           11 
 1874000   0.50684824   -3.4164241    1086.4982  0.048314575  0.047266704           14 
 1875000   0.49989062   -3.4310119    1086.9391  0.048308404    0.0472389           14 
 1876000   0.50969819   -3.4289656    1086.9462  0.048282968  0.047211127           22 
 1877000   0.51023573   -3.4285306    1088.5189  0.048327067  0.047183338           19 
 1878000   0.50569827   -3.4218548    1086.7929  0.048224747  0.047155495           22 
 1879000     0.506049   -3.4124441    1087.7526  0.048241644  0.047127661           22 
 1880000   0.50019044   -3.4198126    1089.9693  0.048314241  0.047099976           13 
 1881000   0.51823316   -3.4248907    1088.5532  0.048225818  0.047072266            9 
 1882000    0.5091149   -3.4260437    1088.0591  0.048178316  0.047044511            6 
 1883000    0.5012014   -3.4313208    1086.8583  0.048099588  0.047016812           13 
 1884000   0.51109091   -3.4415018    1088.0354  0.048126124   0.04698898           15 
 1885000   0.49962219   -3.4426544      1084.74  0.047954906  0.046961191           11 
 1886000   0.49237674   -3.4507281    1088.1925  0.048082032  0.046933346           36 
 1887000   0.50944219   -3.4489425    1087.4053  0.048021786   0.04690561           15 
 1888000   0.51721201   -3.4346025    1089.1382  0.048072838  0.046877868           13 
 1889000    0.4904815   -3.4505855    1087.4352  0.047972261  0.046850178           19 
 1890000   0.48458925   -3.4607749    1084.8791  0.047834177   0.04682243           36 
 1891000   0.49427603   -3.4471163    1086.1763  0.047866044   0.04679454           26 
 1892000   0.50153269   -3.4352476    1087.2123  0.047886377  0.046766739           19 
 1893000     0.499906   -3.4544361    1086.8623  0.047845671  0.046739023           12 
 1894000   0.50209164   -3.4455545    1090.2881  0.047971141  0.046711417           11 
 1895000   0.49873022   -3.4371459    1087.0371  0.047802865  0.046683735           13 
 1896000   0.50093428   -3.4524852    1086.0317  0.047733462  0.046656142           12 
 1897000   0.49020029   -3.4444145    1086.0187  0.047707727  0.046628569           12 
 1898000    0.4938644   -3.4539728    1089.8343  0.047850119     0.046601            9 
 1899000   0.49547599   -3.4478924    1089.8069  0.047823717  0.046573352           15 
 1900000    0.4901284   -3.4449225    1088.0196  0.047720157  0.046545753           12 
 1901000   0.49492843   -3.4297792    1086.5198  0.047629309  0.046518111            7 
 1902000   0.49081015   -3.4515876    1087.3081  0.047638806  0.046490555            8 
 1903000   0.50683057    -3.471665    1089.1942  0.047696366  0.046462974           20 
 1904000   0.50141227   -3.4597082    1085.6687  0.047517013  0.046435242           20 
 1905000   0.49334439   -3.4566424    1087.2821  0.047562648  0.046407557           11 
 1906000   0.48623828   -3.4350296    1090.3974  0.047673898   0.04638006           12 
 1907000   0.49116518   -3.4626642    1086.9441  0.047497993  0.046352477           18 
 1908000   0.50135606   -3.4522174    1089.9343  0.047603699  0.046325032           17 
 1909000   0.49546625   -3.4482418    1086.5814  0.047432399    0.0462976           28 
 1910000   0.48406068   -3.4450029    1090.1869  0.047564875  0.046270124           26 
 1911000   0.49753749   -3.4612684    1087.8182  0.047436692   0.04624261           48 
 1912000   0.49574416   -3.4626837     1088.233  0.047429959  0.046215074           17 
 1913000   0.49026903   -3.4571444      1088.05  0.047397194   0.04618754           28 
 1914000   0.49535774   -3.4559502     1088.385  0.047387018  0.046160014           11 
 1915000   0.48686948   -3.4585194    1084.9168  0.047211349  0.046132527           14 
 1916000   0.48803001   -3.4571794    1085.1819  0.047198239  0.046105066           22 
 1917000   0.48714846   -3.4619337    1086.4967  0.047230771  0.046077521           12 
 1918000   0.48577116   -3.4595448    1088.6163   0.04729824  0.046049938           13 
 1919000   0.49884456   -3.4705515    1089.1826  0.047298187  0.046022433           13 
 1920000    0.4705327   -3.4760818    1088.4894  0.047243463  0.045994908           12 
 1921000   0.48742377   -3.4379808    1088.1655  0.047204819  0.045967495           11 
 1922000   0.49010902    -3.456288     1086.329  0.047100631  0.045940028           20 
 1923000   0.48634655   -3.4658321    1085.5494  0.047042356  0.045912521           13 
 1924000   0.49164506   -3.4631417    1086.5321  0.047060468  0.045885063           10 
 1925000   0.48811599   -3.4689629    1088.2949  0.047112335  0.045857597           15 
 1926000    0.4793145   -3.4807515    1088.9243  0.047115106  0.045830189           36 
 1927000   0.48894138   -3.4741003     1085.375  0.046937163  0.045802704           30 
 1928000   0.47996175   -3.4728625    1086.7373  0.046971703  0.045775156           37 
 1929000   0.47885647   -3.4721194    1091.1358  0.047137367  0.045747747           28 
 1930000   0.48523666   -3.4784421    1087.4937  0.046955686  0.045720293           15 
 1931000   0.48065316   -3.4720884    1087.5697  0.046934648  0.045692851           10 
 1932000   0.49474683   -3.4588569    1088.2384  0.046939201   0.04566539           31 
 1933000   0.47565148   -3.4756213    1089.6793  0.046977036  0.045638073           14 
 1934000   0.48204703   -3.4688544    1086.7925  0.046828358  0.045610796            8 
 1935000    0.4761045   -3.4830203    1087.8404  0.046849287  0.045583505           10 
 1936000   0.47564453   -3.4715142    1088.5274  0.046854659  0.045556203           30 
 1937000   0.48109272   -3.4726646    1086.9566  0.046762888    0.0455289           12 
 1938000   0.48555811   -3.4884894     1086.118    0.0467027  0.045501588           25 
 1939000   0.48629754   -3.4882977    1087.4171  0.046734447  0.045474217           25 
 1940000   0.48151255   -3.5042244    1085.5214  0.046628927  0.045446874           16 
 1941000   0.47854267   -3.4944679    1089.1568  0.046760981  0.045419568           11 
 1942000   0.48252987   -3.4758039    1087.4596  0.046664075  0.045392297           28 
 1943000   0.47959473   -3.4637465    1084.7908  0.046525594   0.04536499           18 
 1944000   0.47103867   -3.4878587    1087.8589  0.046633183  0.045337752           20 
 1945000   0.47305161   -3.4895242    1088.1332  0.046620958  0.045310475           37 
 1946000   0.47810695   -3.4827494    1086.5795  0.046530468  0.045283191           15 
 1947000   0.47158786   -3.4787201    1087.4409   0.04654344  0.045255878           23 
 1948000   0.47355163   -3.4775712    1085.5256  0.046437613  0.045228543           12 
 1949000   0.48032801   -3.4696216    1089.1236  0.046567623  0.045201357           14 
 1950000   0.47942734   -3.4757951    1090.0835  0.046584765  0.045174136           30 
 1951000    0.4616661   -3.4912947    1088.0384  0.046473536  0.045147034           30 
 1952000   0.48521008   -3.5054095    1087.2698  0.046416912  0.045119845           23 
 1953000   0.47796963   -3.4755299    1086.9753   0.04638058   0.04509264           20 
 1954000    0.4685555   -3.4967538      1088.11  0.046405239  0.045065532           13 
 1955000   0.46574809   -3.4849616    1088.0418  0.046378592  0.045038397           16 
 1956000   0.47303514   -3.4738349    1086.8291  0.046303218  0.045011232           18 
 1957000     0.484225   -3.4722583    1087.9887  0.046328934  0.044984265           12 
 1958000   0.47242063    -3.494184    1090.7234  0.046421663  0.044957231           25 
 1959000    0.4601584   -3.4816883    1087.8577  0.046276062  0.044930134           23 
 1960000   0.47137596   -3.5019404    1088.0178  0.046259259  0.044903003           13 
 1961000   0.46919505   -3.4754522    1088.6408  0.046262146  0.044876059           32 
 1962000   0.46454061    -3.493903    1088.0557  0.046213715  0.044849121           21 
 1963000   0.47514276   -3.5006532    1085.7192  0.046090985  0.044822099           22 
 1964000   0.45488976   -3.4991068    1089.1693  0.046213903  0.044795144           12 
 1965000   0.46951388   -3.4912695    1088.1579  0.046147494  0.044768255           18 
 1966000   0.47490137   -3.4888303    1088.2369  0.046127371  0.044741357           35 
 1967000   0.47040002   -3.5024144    1085.1721  0.045974078  0.044714409           27 
 1968000   0.47102485   -3.4759285    1087.3317  0.046042162  0.044687497           18 
 1969000   0.46806496   -3.4966266    1087.7216  0.046035278  0.044660666           38 
 1970000   0.47037352   -3.4984103    1085.9806  0.045938267  0.044633834           29 
 1971000   0.47327886   -3.4946472    1086.5263  0.045938031   0.04460693           40 
 1972000   0.47242155    -3.501885    1083.9635  0.045806435  0.044580024           19 
 1973000   0.47117594   -3.4972077    1086.5089  0.045890731   0.04455311           10 
 1974000   0.47575128   -3.5026852     1087.233  0.045898049  0.044526239           20 
 1975000   0.46899929   -3.4956144    1087.4995  0.045886055  0.044499447           24 
 1976000   0.46876277   -3.5237675    1090.2274  0.045977875  0.044472608           14 
 1977000   0.46198369   -3.5039527    1087.2837  0.045830538  0.044445751           38 
 1978000   0.45560921   -3.5077002    1084.9218  0.045707861  0.044418857           32 
 1979000   0.46527783   -3.4966401    1086.3364  0.045744332  0.044391961           27 
 1980000   0.45596765   -3.5090022    1086.4171  0.045724625  0.044365177           29 
 1981000   0.46444732   -3.4995444    1087.1814  0.045733696  0.044338505           28 
 1982000   0.46566839    -3.510826    1087.8418  0.045738387  0.044311812           52 
 1983000   0.45008866    -3.507907    1086.2655  0.045649078  0.044285108           27 
 1984000   0.46717711   -3.5241726     1087.596  0.045681954  0.044258394           26 
 1985000   0.47915142   -3.5208009    1086.4321  0.045610081  0.044231799           58 
 1986000   0.46160703   -3.5171233    1088.1606  0.045659641  0.044205135           43 
 1987000    0.4488401   -3.5028059    1088.1887  0.045637842  0.044178486           34 
 1988000   0.46267281   -3.4845019    1087.5161  0.045586689  0.044151942           29 
 1989000    0.4650249   -3.5055331    1086.0939  0.045504187  0.044125251           33 
 1990000   0.45491693   -3.4909156      1087.77  0.045551507  0.044098733           15 
 1991000   0.45943621   -3.5122486    1088.5191  0.045559984   0.04407216           49 
 1992000   0.45660163   -3.5139617    1089.6797  0.045585664  0.044045579           15 
 1993000   0.45631447   -3.5178848    1086.4076  0.045425976  0.044019029           19 
 1994000   0.46822902   -3.5064461     1088.324  0.045483284  0.043992528           34 
 1995000   0.45237775   -3.4991893    1085.5147  0.045343135  0.043965964           50 
 1996000   0.45624111   -3.4984962    1085.9405  0.045338198  0.043939305           75 
 1997000    0.4511976   -3.5038184    1087.3412  0.045373944  0.043912791           68 
 1998000   0.45770295   -3.5071096    1086.2947  0.045307588  0.043886368           23 
 1999000   0.46354443   -3.4960239    1085.7157  0.045260785  0.043859909           19 
 2000000   0.45204969   -3.5107733    1087.4895  0.045312062   0.04383349           28 
 2001000   0.45107922   -3.5156685    1089.9867  0.045393417  0.043807101           26 
 2002000   0.45294289   -3.5423144    1088.1872  0.045295836  0.043780673           23 
 2003000    0.4506161   -3.5066816    1089.0738  0.045310111  0.043754213           25 
 2004000   0.44526089    -3.506109    1087.2727  0.045212604  0.043727792           33 
 2005000   0.44912397   -3.5185065    1088.5867  0.045244668  0.043701373           12 
 2006000   0.44409029    -3.516528    1086.5744  0.045138518  0.043674949           19 
 2007000   0.44922478   -3.5275049    1088.4922  0.045195656  0.043648507           33 
 2008000   0.45396657   -3.5357556    1087.8543  0.045146674  0.043622003           20 
 2009000   0.45751998   -3.5303362     1085.559  0.045028995  0.043595613           21 
 2010000   0.44075156   -3.5312702     1085.335  0.044997304  0.043569169           21 
 2011000   0.45764431   -3.5332658    1086.3145  0.045015519  0.043542698           18 
 2012000   0.45489521   -3.5393406     1086.446  0.044998591  0.043516246           28 
Loop time of 4820.57 on 48 procs for 2000000 steps with 4000 atoms

Performance: 71692.776 tau/day, 414.889 timesteps/s
99.4% CPU use with 48 MPI tasks x no OpenMP threads

MPI task timing breakdown:
Section |  min time  |  avg time  |  max time  |%varavg| %total
---------------------------------------------------------------
Pair    | 311.12     | 330.46     | 353.44     |  53.9 |  6.86
Neigh   | 32.306     | 33.808     | 38.718     |  17.5 |  0.70
Comm    | 305.64     | 328.56     | 349.25     |  59.4 |  6.82
Output  | 4.1131     | 4.1149     | 4.1494     |   0.2 |  0.09
Modify  | 4075.3     | 4080.6     | 4087       |   4.2 | 84.65
Other   |            | 43.04      |            |       |  0.89

Nlocal:        83.3333 ave          89 max          77 min
Histogram: 4 3 5 3 3 9 7 7 4 3
Nghost:        2180.12 ave        2195 max        2161 min
Histogram: 2 3 3 4 4 12 4 7 3 6
Neighs:        14415.1 ave       15926 max       12767 min
Histogram: 1 4 3 5 9 12 5 3 2 4
FullNghs:      28830.9 ave       30852 max       26375 min
Histogram: 3 2 6 4 4 2 11 8 4 4

Total # of neighbors = 1383884
Ave neighs/atom = 345.97100
Neighbor list builds = 108592
Dangerous builds = 0

#clear
#
#next RN
#
#jump SELF
Total wall time: 1:20:23
