
units lj                  # Use reduced LJ style units
atom_style atomic         # Uncharged point particles
atom_modify map hash      # Needed for indexing of clusters etc
                          # Used to be able to find where atoms are in relation to each other.

lattice fcc 1.0 spacing 1 1 1
Lattice spacing in x,y,z = 1.5874011 1.5874011 1.5874011
region box block 0 10 0 10 0 10 units lattice
create_box 2 box
Created orthogonal box = (0.0000000 0.0000000 0.0000000) to (15.874011 15.874011 15.874011)
  3 by 4 by 4 MPI processor grid
create_atoms 1 box
Created 4000 atoms
  using lattice units in orthogonal box = (0.0000000 0.0000000 0.0000000) to (15.874011 15.874011 15.874011)
  create_atoms CPU = 0.003 seconds
set type 1 type/fraction 2 0.68 78393
Setting atom values ...
  2740 settings made for type/fraction
mass 1 1.0
mass 2 1.0
pair_style lj/cut  3.5
pair_modify tail  yes
pair_coeff 1  1  1.0  1.0   # Intearaction between 1 and 1 set with epsilon = 1 and sigma = 1
pair_coeff 1  2  1.5  0.8
pair_coeff 2  2  0.5  0.88

write_data data.0
System init for write_data ...
Neighbor list info ...
  update every 1 steps, delay 10 steps, check yes
  max neighbors/atom: 2000, page size: 100000
  master list distance cutoff = 3.8
  ghost atom cutoff = 3.8
  binsize = 1.9, bins = 9 9 9
  1 neighbor lists, perpetual/occasional/extra = 1 0 0
  (1) pair lj/cut, perpetual
      attributes: half, newton on
      pair build: half/bin/atomonly/newton
      stencil: half/bin/3d
      bin: standard
WARNING: Not all mixed pair coeffs generated from mixing. Use write_data with 'pair ij' option to store all pair coeffs. (../write_data.cpp:312)


#############################
#   M E L T   S Y S T E M   #
#############################

velocity all create 2.4 3143649 mom yes dist gaussian # Assign velocities
                                                    # Temperature 2.4, random number seed, zero linear momentum
                                                                                # Gaussian distribution

timestep 0.002   # simulation timestep
thermo 1000       # output thermodynamic data every 1000 steps bf 100

# Define a fix  in this case with index 1 applied to all
# particles in the simulation. This fix is for simulations
# in the anisotropic NPT ensemble. Note that we use the MTK
# correction.
fix 1 all npt temp 2.4 2.4 0.1 iso 5.68 5.68 0.5 mtk yes tchain 5 pchain 5 # Use NPT ensemble
                                                                         # Set temperature and pressure and damping
                                                                         # Numbers of thermostats in chain and in barostat
run 10000          # run for 10000 steps
Per MPI rank memory allocation (min/avg/max) = 3.642 | 3.644 | 3.648 Mbytes
Step Temp E_pair E_mol TotEng Press Volume 
       0          2.4   -4.2819815            0  -0.68288149   -3.8317514         4000 
    1000    2.3997601   -3.9728563            0  -0.37411604    5.7823121    3612.1456 
    2000    2.3923884   -3.9004976            0  -0.31281216    5.8131387    3658.5452 
    3000    2.3871112   -3.9138592            0  -0.33408753    5.5110707    3671.0275 
    4000    2.4292326   -3.9530523            0  -0.31011446    5.6081945    3639.0385 
    5000    2.4449948   -3.9579453            0  -0.29137005    5.6879517     3642.262 
    6000    2.3415166   -3.8649488            0  -0.35355198    5.8269538    3661.1591 
    7000    2.4443907   -3.9371479            0  -0.27147856    5.5156404    3663.3148 
    8000    2.4399769   -3.9262946            0  -0.26724436    5.8534443    3629.3979 
    9000    2.3488357   -3.9140022            0  -0.39162944    5.8206326    3644.6848 
   10000    2.3702884   -3.9424541            0   -0.3879104    5.5869195    3638.0247 
Loop time of 2.70527 on 48 procs for 10000 steps with 4000 atoms

Performance: 638752.741 tau/day, 3696.486 timesteps/s
99.6% CPU use with 48 MPI tasks x no OpenMP threads

MPI task timing breakdown:
Section |  min time  |  avg time  |  max time  |%varavg| %total
---------------------------------------------------------------
Pair    | 1.1942     | 1.2702     | 1.4361     |   3.8 | 46.95
Neigh   | 0.21577    | 0.2238     | 0.25355    |   1.4 |  8.27
Comm    | 0.74825    | 0.93267    | 1.0191     |   5.4 | 34.48
Output  | 0.00024591 | 0.00025094 | 0.00031703 |   0.0 |  0.01
Modify  | 0.22134    | 0.26272    | 0.36384    |   7.7 |  9.71
Other   |            | 0.01567    |            |       |  0.58

Nlocal:        83.3333 ave          95 max          71 min
Histogram: 1 2 4 6 7 11 10 5 0 2
Nghost:        1751.75 ave        1795 max        1704 min
Histogram: 2 2 3 6 7 10 10 3 3 2
Neighs:        10486.5 ave       11976 max        8858 min
Histogram: 2 2 4 6 7 11 7 4 2 3

Total # of neighbors = 503354
Ave neighs/atom = 125.83850
Neighbor list builds = 904
Dangerous builds = 192

# Equilibrate just above the melting temperature to avoid step fn in T

fix 1 all npt temp 1.25 1.25 0.1 iso 5.68 5.68 0.5 mtk yes tchain 5 pchain 5
run 2000
Per MPI rank memory allocation (min/avg/max) = 3.644 | 3.646 | 3.649 Mbytes
Step Temp E_pair E_mol TotEng Press Volume 
   10000    2.3702884   -3.9424541            0   -0.3879104    5.5869195    3638.0247 
   11000    1.2298712   -5.7572986            0   -3.9129529    5.9130624    2785.6213 
   12000    1.2492661   -5.8369422            0   -3.9635115    5.6323177    2766.7312 
Loop time of 0.66384 on 48 procs for 2000 steps with 4000 atoms

Performance: 520607.729 tau/day, 3012.776 timesteps/s
99.6% CPU use with 48 MPI tasks x no OpenMP threads

MPI task timing breakdown:
Section |  min time  |  avg time  |  max time  |%varavg| %total
---------------------------------------------------------------
Pair    | 0.30245    | 0.32475    | 0.35208    |   2.1 | 48.92
Neigh   | 0.042107   | 0.044367   | 0.047332   |   0.6 |  6.68
Comm    | 0.21287    | 0.24499    | 0.27076    |   2.8 | 36.90
Output  | 5.2089e-05 | 5.3522e-05 | 6.9773e-05 |   0.0 |  0.01
Modify  | 0.041578   | 0.044821   | 0.047597   |   0.8 |  6.75
Other   |            | 0.004857   |            |       |  0.73

Nlocal:        83.3333 ave          94 max          73 min
Histogram: 1 1 4 10 10 7 11 3 0 1
Nghost:        2112.00 ave        2133 max        2088 min
Histogram: 1 1 3 12 4 11 3 5 4 4
Neighs:        13795.4 ave       15200 max       11591 min
Histogram: 1 1 2 5 7 6 6 9 5 6

Total # of neighbors = 662179
Ave neighs/atom = 165.54475
Neighbor list builds = 145
Dangerous builds = 20

#############################
# L I N E A R  Q U E N C H  #
#############################

# Define solid atoms. This closely follows ten Wolde  Ruiz-Montero and Frenkel  Faraday Discuss  1996  104  93-110
# Compute components of the per-atom q6 vector
compute q6 all orientorder/atom degrees 1 6 components 6 nnn NULL cutoff 1.3 # compute the Q6 parameter.
                                                                             # Use all neighbours within 1.3 unit cell.

# get number of connections
compute coord_number all coord/atom orientorder q6 0.5

# An atom is solid if it has 8 or more connections (of a possible 14)
variable is_solid atom c_coord_number>=8
group solid dynamic all var is_solid    # Must be dynamic to update
dynamic group solid defined

# do clustering
compute cluster solid cluster/atom 1.3 # Create a cluster where all atoms within are solid and max 1.3 units from another member

# define chunks one chunk per cluster
compute clus_chunks solid chunk/atom c_cluster nchunk every compress yes  # Says which atoms are in which chunk

# count the size of each chunk
compute size_chunks solid property/chunk clus_chunks count


# Find the maximum entry in the vector of chunk sizes
variable max_n equal max(c_size_chunks)


# Thermo style which includes this variable
# thermo_style custom step temp pe vol v_max_n

thermo ${N}  # Print the thermo information every 100 steps
thermo 1000  

# Reset the npt fix at a lower temperature (below freezing)
fix 1  all npt temp  ${temp} ${temp}  0.1  iso  5.68  5.68  0.5  mtk yes tchain  5  pchain  5
fix 1  all npt temp  0.45 ${temp}  0.1  iso  5.68  5.68  0.5  mtk yes tchain  5  pchain  5
fix 1  all npt temp  0.45 0.45  0.1  iso  5.68  5.68  0.5  mtk yes tchain  5  pchain  5

dump dmp2 all dcd ${N} traj.dcd
dump dmp2 all dcd 1000 traj.dcd


compute msd all msd com yes
variable twopoint equal c_msd[4]/6/(step*dt+1.0e-6)
fix 9 all vector 10 c_msd[4]
variable fit equal slope(f_9)/6/(10*dt)
thermo_style custom step temp pe c_msd[4] v_twopoint v_fit v_max_n

fix 1 all npt temp 1.25 ${temp} 0.1 iso 5.68 5.68 0.5 mtk yes tchain 5 pchain 5
fix 1 all npt temp 1.25 0.45 0.1 iso 5.68 5.68 0.5 mtk yes tchain 5 pchain 5
run 5000000 # 5000000  # Run for this many steps
Neighbor list info ...
  update every 1 steps, delay 10 steps, check yes
  max neighbors/atom: 2000, page size: 100000
  master list distance cutoff = 3.8
  ghost atom cutoff = 3.8
  binsize = 1.9, bins = 8 8 8
  4 neighbor lists, perpetual/occasional/extra = 1 3 0
  (1) pair lj/cut, perpetual
      attributes: half, newton on
      pair build: half/bin/atomonly/newton
      stencil: half/bin/3d
      bin: standard
  (2) compute orientorder/atom, occasional
      attributes: full, newton on
      pair build: full/bin/atomonly
      stencil: full/bin/3d
      bin: standard
  (3) compute coord/atom, occasional
      attributes: full, newton on
      pair build: full/bin/atomonly
      stencil: full/bin/3d
      bin: standard
  (4) compute cluster/atom, occasional
      attributes: full, newton on
      pair build: full/bin/atomonly
      stencil: full/bin/3d
      bin: standard
Per MPI rank memory allocation (min/avg/max) = 9.846 | 9.851 | 9.854 Mbytes
Step Temp PotEng c_msd[4] v_twopoint v_fit v_max_n 
   12000    1.2492661   -5.8369422 8.3500927e-31 5.7986752e-33 8.3333333e+20            3 
   13000    1.2513083   -5.8407667   0.57983432 0.0037168865  0.047764271            1 
   14000    1.1948513   -5.8569609    1.1460327 0.0068216232  0.047744385            2 
   15000    1.2394103   -5.8728263    1.7459085 0.0096994911  0.048183417            2 
   16000    1.2532962    -5.865552    2.3247095  0.012107862  0.048860491            4 
   17000    1.2232708   -5.8404906    2.8573847  0.014006787  0.048225926            3 
   18000    1.2658632   -5.8777118    3.4165934  0.015817562   0.04759727            1 
   19000    1.2331646   -5.8676021    3.9620056  0.017377217  0.047329544            1 
   20000    1.2379708   -5.8642077    4.5421584   0.01892566  0.046968288            1 
   21000    1.2512114   -5.8418315    5.1606163  0.020478636  0.046992076            1 
   22000    1.2402483   -5.8342526    5.7847256  0.021911839  0.047185448            2 
   23000    1.2542442   -5.7997211    6.3469986  0.022996371  0.047466248            1 
   24000    1.2263632   -5.8508233    6.8032464  0.023622383  0.047358222            4 
   25000    1.2626264   -5.8913066    7.4529099  0.024843033  0.047373619            1 
   26000    1.2239995   -5.8200079    8.0902028  0.025930137  0.047575337            1 
   27000    1.2466379   -5.8838077    8.6250688  0.026620582   0.04771268            3 
   28000    1.2472983   -5.8937218    9.1981754  0.027375522  0.047729508            6 
   29000     1.237887   -5.8727763    9.7718336  0.028079981  0.047802177            3 
   30000    1.2742733   -5.8573743    10.291262  0.028586839  0.047873699            5 
   31000    1.2608768   -5.8634783    10.863494  0.029202941  0.047852901            1 
   32000    1.2409888   -5.8787849    11.523254  0.030008474  0.047884813            1 
   33000    1.2676824   -5.8455437    12.052518   0.03043565  0.047893791            3 
   34000    1.2681326    -5.900611    12.453281  0.030522748   0.04781407            2 
   35000    1.2609429   -5.8951333    13.048081  0.031066859  0.047728482            4 
   36000     1.254114   -5.8700644    13.718608  0.031756037  0.047678296            1 
   37000     1.233443    -5.841644    14.237512  0.032066469  0.047601388            4 
   38000    1.2728265   -5.8401038    14.792924  0.032440621  0.047518088            1 
   39000    1.2474702   -5.8459657    15.327057  0.032750122  0.047455679            4 
   40000    1.2467341   -5.8083875    15.971633  0.033274234  0.047390918            2 
   41000    1.2504396   -5.9105386    16.392843  0.033318787  0.047333117            3 
   42000    1.2644794   -5.8693656    16.894956  0.033521737  0.047253017            2 
   43000     1.235365   -5.8278602    17.493033  0.033901226  0.047155317            1 
   44000    1.2675005   -5.8481659    17.985464  0.034063379  0.047084881            3 
   45000    1.2441083   -5.8621835    18.481297  0.034224625  0.046983526            2 
   46000    1.2444524   -5.8608587    19.052137   0.03451474  0.046912635            2 
   47000    1.2388436   -5.8574091    19.829346  0.035158414   0.04689093            5 
   48000     1.215782   -5.9141795    20.196436  0.035063256  0.046871743            5 
   49000    1.2310727   -5.8624355     20.87083  0.035494609  0.046834012            2 
   50000    1.2672953   -5.8594454    21.616046  0.036026743  0.046856494            2 
   51000    1.2609286   -5.8987109     21.99277  0.035935899  0.046871609            2 
   52000    1.2340805    -5.896527    22.411058  0.035915156  0.046829887            3 
   53000    1.2314914   -5.9010695    22.945745  0.036078214  0.046783481            4 
   54000    1.2669852    -5.919429    23.448445  0.036185871   0.04673622            2 
   55000    1.2217209   -5.8488177    24.252451  0.036746137  0.046697234            3 
   56000    1.2717239   -5.8579515    24.783728  0.036880547  0.046710053            2 
   57000    1.2596884   -5.8609975     25.41191  0.037151914  0.046711169            1 
   58000    1.2461394   -5.8797261    26.054488  0.037434609  0.046747515            2 
   59000    1.2394772   -5.8745552    26.620393  0.037599424  0.046787572            2 
   60000    1.2425597   -5.8950647    27.175066  0.037743147  0.046829186            1 
   61000    1.2509906   -5.8614531     28.00655  0.038260314   0.04687445            2 
   62000    1.2520451   -5.9033281    28.340697  0.038092334   0.04692113            2 
   63000    1.2502808   -5.8491001    28.877912  0.038198296  0.046953174            2 
   64000    1.2232505   -5.8900595    29.325122  0.038183753  0.046951528            2 
   65000    1.2425244   -5.8612337    29.934393  0.038377427  0.046934436            2 
   66000    1.2300082   -5.8717161    30.239452  0.038181126  0.046892146            2 
   67000    1.2238285   -5.8839801    30.883545  0.038412369  0.046841528            2 
   68000     1.249241    -5.916778    31.249971  0.038296533  0.046791537            4 
   69000    1.2430846   -5.8509409    31.867114  0.038486852  0.046754988            1 
   70000    1.2290061   -5.9177419    32.238327  0.038378961  0.046710688            3 
   71000    1.2627088   -5.8922499    32.724867  0.038409468   0.04666635            2 
   72000    1.2343886   -5.9097433    33.260913  0.038496427  0.046608259            4 
   73000    1.2564485   -5.8922717    33.665973  0.038431476  0.046544158            1 
   74000    1.2367909   -5.8424261    34.240962  0.038559641  0.046486102            1 
   75000    1.2387362   -5.9052018    34.568517  0.038409463  0.046413618            3 
   76000    1.2423145   -5.8805434    35.303975  0.038710498  0.046335887            4 
   77000    1.2351927   -5.8946998    35.817902  0.038763963  0.046272301            2 
   78000    1.2453417   -5.8548894     36.62707  0.039131485  0.046223886            2 
   79000    1.2377408   -5.9226322    37.018261  0.039048798  0.046192021            1 
   80000    1.2448381   -5.9168277    37.477301  0.039038855   0.04616058            1 
   81000     1.223349   -5.9246282     38.07279  0.039169536  0.046127271            3 
   82000     1.238699     -5.87954    38.838186  0.039469701  0.046095237            3 
   83000    1.2488439   -5.8671001    39.283992  0.039441759  0.046065224            3 
   84000    1.2185376   -5.9085362    39.908612  0.039591877  0.046041359            2 
   85000    1.2431118   -5.9014023    40.539637  0.039744742  0.046027403            3 
   86000    1.2393318   -5.9252536    40.852059  0.039585328  0.046002254            3 
   87000    1.2154286   -5.8662065    41.480746  0.039732515   0.04598639            1 
   88000    1.2290669   -5.8762687    41.935411  0.039711564  0.045969062            2 
   89000    1.2333695   -5.9009192     42.47682  0.039772303  0.045943385            1 
   90000    1.2504696   -5.8861326    43.303583   0.04009591  0.045930555            3 
   91000     1.237876     -5.89325    43.602876  0.039929374  0.045901874            2 
   92000     1.223016     -5.90701    44.143486  0.039985041  0.045877897            2 
   93000    1.2299606   -5.8809435     44.86204   0.04019896  0.045861198            2 
   94000    1.2454902   -5.9309499    45.092089  0.039975256  0.045845144            2 
   95000    1.2238473   -5.9078291    45.289423  0.039727564  0.045809802            1 
   96000    1.2526165   -5.8816742    46.110443  0.040026426  0.045772444            2 
   97000    1.2230632   -5.9278925     46.35577  0.039824545  0.045734243            2 
   98000    1.2289223   -5.8988801    47.039256  0.039999367  0.045697105            3 
   99000     1.256966   -5.9044653    47.756081  0.040198722  0.045663698            5 
  100000    1.2418998   -5.8856543    48.279661  0.040233051  0.045635904            6 
  101000    1.2379494   -5.8979893      48.8576  0.040311551   0.04562571            2 
  102000    1.2429863   -5.9183783    49.512017  0.040450994  0.045606853            1 
  103000    1.2304701   -5.9263455    49.887064  0.040361702  0.045591305            2 
  104000    1.2594192    -5.878808    50.300447  0.040304845  0.045564519            2 
  105000    1.2146486   -5.8648607    51.151794  0.040596662  0.045538537            6 
  106000    1.2344124   -5.9011929    51.511051  0.040496109  0.045511654            2 
  107000    1.2678151   -5.9132346    51.932651   0.04044599   0.04548321            4 
  108000    1.2311463   -5.9166443     52.40128  0.040433087  0.045453522            2 
  109000    1.2010156   -5.9109831    53.079067  0.040580326  0.045432434            1 
  110000    1.2220691   -5.9259199    53.693733  0.040677071  0.045413242            4 
  111000     1.211222   -5.8836167    54.231453  0.040714304  0.045410666            2 
  112000    1.2350771   -5.9453187    54.812456  0.040783077  0.045409377            2 
  113000    1.2162835   -5.8795953    55.570886  0.040981479  0.045402801            3 
  114000    1.2491589   -5.8697576    56.231694  0.041105039  0.045412172            2 
  115000    1.2238093   -5.9078438    56.598888  0.041013687  0.045422073            3 
  116000    1.2306545   -5.9177918    57.348005  0.041198279  0.045425907            2 
  117000    1.2338215   -5.9270293    57.575667   0.04100831  0.045430336            2 
  118000    1.2134134   -5.9168216    58.092405  0.041025709  0.045419545            3 
  119000    1.2532641    -5.924319    58.527693  0.040985779  0.045408007            2 
  120000    1.2437005   -5.8692058    59.075232  0.041024467  0.045397746            1 
  121000    1.2402532   -5.8676251    59.613234  0.041055946  0.045388314            2 
  122000    1.2678074   -5.9240528    60.284625  0.041178023  0.045380175            3 
  123000    1.2008217   -5.9626795    60.626538   0.04107489  0.045372081            2 
  124000    1.2383989   -5.9022036    61.316556  0.041207363  0.045360463            1 
  125000    1.2392655   -5.9298116    61.620378  0.041080252  0.045345348            1 
  126000    1.2412543   -5.8964664    61.947747  0.040970732  0.045329333            4 
  127000    1.1801758   -5.9094603    62.587499  0.041067912  0.045316353            5 
  128000    1.2685206   -5.8685077    63.147603  0.041111721  0.045297767            2 
  129000    1.2256591   -5.9353165    63.441161  0.040982662  0.045276929            3 
  130000    1.2601394    -5.889912     64.28241  0.041206673  0.045259359            2 
  131000    1.2186219   -5.8903084    64.846209  0.041250769  0.045238361            1 
  132000    1.2303244   -5.9502023    65.100092  0.041098543  0.045219538            2 
  133000    1.2337099   -5.9303422    65.757728  0.041201584  0.045197109            3 
  134000     1.221845   -5.9135617    66.239648  0.041193811  0.045177064            9 
  135000    1.2421717   -5.9066038    66.885466  0.041287325   0.04516366            2 
  136000     1.220224   -5.9170362    67.537161  0.041383064  0.045156852            2 
  137000    1.2500625   -5.8979813    67.958002  0.041336984  0.045148504            1 
  138000    1.2241061   -5.9260486    68.728247  0.041502565  0.045140676            3 
  139000    1.2276699   -5.8894564     69.40941  0.041612356  0.045135667            2 
  140000    1.2307997   -5.8607987     69.95862  0.041642036  0.045129352            1 
  141000    1.2541475   -5.8852335    70.639953  0.041749381  0.045126239            2 
  142000    1.2612636   -5.9315803    70.827117   0.04156521  0.045124152            3 
  143000    1.2452032     -5.92308    71.248823  0.041520293  0.045118979            2 
  144000    1.2128279   -5.9579165    72.156368  0.041757157  0.045117255            3 
  145000    1.2631188   -5.9542034    72.585061  0.041715552  0.045122228            2 
  146000    1.2204539   -5.9226174     73.32836  0.041854086  0.045128808            1 
  147000    1.2233845   -5.9178419    74.139775  0.042029351  0.045135031            3 
  148000    1.2429204   -5.8859777    74.965789  0.042210466   0.04514055            1 
  149000    1.2198235   -5.9369976    75.193727  0.042054657  0.045147677            1 
  150000    1.2423235   -5.9267319    75.945726   0.04219207  0.045157689            1 
  151000    1.2292651   -5.8936887    76.431875  0.042180946  0.045171463            2 
  152000    1.2510389   -5.9240367    76.929515  0.042176269  0.045179096            2 
  153000    1.2211386   -5.8807836    77.159116  0.042025662  0.045185247            4 
  154000    1.2486419   -5.8831747    77.584635  0.041983028  0.045184171            4 
  155000    1.2210387   -5.9280074     78.27622  0.042083989  0.045184267            2 
  156000       1.1981   -5.9090903    78.733512    0.0420585  0.045187489            2 
  157000    1.2259519   -5.9006213    79.691024  0.042298845   0.04519535            2 
  158000    1.2180206   -5.9391684    79.811616  0.042094734  0.045197408            3 
  159000    1.2525983   -5.9212173    80.294652  0.042083151  0.045195191            2 
  160000    1.2410143   -5.9724627    80.268043  0.041806272  0.045195117            2 
  161000    1.2195817   -5.9146161    80.721747  0.041781442  0.045188827            1 
  162000    1.2239246   -5.8912693    81.856425  0.042107214  0.045178444            3 
  163000    1.2160189   -5.9458204    82.065076   0.04195556  0.045170478            3 
  164000    1.2223695   -5.9408987    82.130998   0.04173323  0.045158183            3 
  165000    1.2233049   -5.9068385    82.929534  0.041883603   0.04514343            2 
  166000    1.2335428    -5.896967    83.443037  0.041889075  0.045127945            2 
  167000    1.2289926   -5.9319876    83.686956  0.041759958  0.045111634            2 
  168000    1.2185558   -5.9424251    83.854341  0.041594415  0.045089197            4 
  169000    1.2403711   -5.9424362     84.42416   0.04162927  0.045066604            3 
  170000    1.2194432   -5.9205112    84.987004  0.041660296   0.04504697            5 
  171000    1.1852704   -5.9233738      85.7005  0.041764376  0.045024809            2 
  172000    1.1945805   -5.9075557    86.258302  0.041791813  0.045006318            1 
  173000    1.2250464     -5.91743     87.02091  0.041917586  0.044986169            4 
  174000    1.2284203   -5.9015314    87.382443  0.041849829  0.044967288            2 
  175000    1.2069119   -5.9238211    87.684975   0.04175475  0.044950001            2 
  176000    1.2354904    -5.942376    87.904842   0.04162161  0.044929059            2 
  177000    1.2191377    -5.942628    88.159945  0.041506565  0.044903987            2 
  178000    1.2146042   -5.9099804    88.995326  0.041664478  0.044878709            2 
  179000    1.2543177   -5.9024419    89.486832  0.041660536  0.044854591            3 
  180000    1.2152414   -5.9504334    89.742843  0.041547613  0.044830598            3 
  181000    1.2209354   -5.9261784    89.934466  0.041406292  0.044800581            4 
  182000    1.2289002   -5.9279701    90.586801  0.041477473  0.044771769            2 
  183000    1.2160666   -5.9344208    90.837103  0.041364801  0.044742908            4 
  184000    1.1950921   -5.9283605     91.66521  0.041515041  0.044715866            3 
  185000    1.1855752   -5.9581147    92.242339  0.041550603  0.044690543            2 
  186000    1.2232344   -5.9344432    92.652568  0.041511007  0.044666818            4 
  187000    1.2171357   -5.9394398    93.324164  0.041588308  0.044645233            1 
  188000    1.2321895     -5.94526    93.957986  0.041648043  0.044625566            4 
  189000     1.195749    -5.887991    94.600572  0.041711011  0.044605457            3 
  190000    1.2345908   -5.9348866    94.801737  0.041579709  0.044583899            1 
  191000    1.2175162   -5.9329097    95.508239  0.041670261  0.044563246            2 
  192000    1.2411002   -5.9238421     95.90725  0.041626411  0.044542872            2 
  193000    1.2293916   -5.9334625    96.159615  0.041519695  0.044520402            1 
  194000    1.2305074   -5.9254926    96.926382  0.041635044  0.044496658            2 
  195000    1.2069687   -5.9126155    97.816579  0.041801957  0.044478146            6 
  196000    1.2240002   -5.9581389    98.355638  0.041817873  0.044464848            2 
  197000    1.2201433   -5.9393448    98.744049  0.041769902  0.044450206            1 
  198000    1.2135912   -5.8929533    99.487105  0.041871677  0.044435311            2 
  199000    1.2170953   -5.9074679     99.67757  0.041741026  0.044418171            2 
  200000    1.2024559   -5.9516211    99.826482  0.041594367  0.044399539            5 
  201000    1.2176207   -5.9065282    100.69208  0.041746302  0.044380076            2 
  202000     1.232043   -5.9221112    100.82239  0.041593396  0.044361234            5 
  203000     1.213397    -5.924212    101.09252  0.041499392   0.04433892            4 
  204000    1.2244579   -5.9396166     101.6516  0.041524345  0.044314952            2 
  205000    1.2036043   -5.9432509    102.10584  0.041506439  0.044292811            4 
  206000    1.2038716   -5.9166145    103.16749  0.041734421  0.044274563            3 
  207000    1.2232749   -5.9431861    103.79042  0.041783582  0.044260341            3 
  208000    1.2182518   -5.9269577    104.18777  0.041741895  0.044247248            2 
  209000    1.2377346   -5.9555797    105.04161   0.04188262  0.044233542            3 
  210000    1.2168659   -5.9493741    105.38967  0.041821299   0.04422179            4 
  211000    1.2510286   -5.9127766    106.62647  0.042111559  0.044211404            2 
  212000     1.199878     -5.93946    106.67777  0.041933085  0.044202979            1 
  213000    1.2321502   -5.9526831    106.89393  0.041820787  0.044193591            3 
  214000    1.2294887   -5.9430056     107.8224  0.041986915  0.044184155            2 
  215000    1.2120354   -5.9492552    108.82927  0.042181889   0.04417745            5 
  216000    1.2036574   -5.9699477    108.61405   0.04190357  0.044170487            2 
  217000      1.20419   -5.9069014    109.74071  0.042143129  0.044163881            1 
  218000    1.2181044   -5.9705638    109.68343  0.041927915  0.044157608            2 
  219000    1.2347974   -5.9547954    109.87349  0.041808788  0.044147876            3 
  220000    1.2143012   -5.9294195    110.79002  0.041965916  0.044138294            2 
  221000    1.1816307   -5.9043444    111.60752  0.042084284  0.044129012            5 
  222000     1.216166   -5.8998294    112.19817   0.04211643  0.044120956            1 
  223000    1.2217096   -5.9688673    112.15745  0.041912349  0.044112746            6 
  224000    1.2044329   -5.9038421    112.91708   0.04200784  0.044104543            3 
  225000    1.2056464   -5.9617289    113.22727  0.041936024  0.044093968            2 
  226000    1.2015077   -5.9335487    114.30128   0.04214649  0.044087224            4 
  227000    1.2408349   -5.9215255    114.91199  0.042185017  0.044081644            2 
  228000    1.2205026   -5.9236874     115.2968  0.042140642  0.044078136            3 
  229000    1.2309044   -5.9837125    115.53088  0.042041804  0.044074347            3 
  230000    1.2395281   -5.9510624    116.13424  0.042077621  0.044069506            3 
  231000    1.2118447   -5.9397319    117.15211  0.042262666  0.044065189            2 
  232000    1.2274663   -5.9209695    117.76351   0.04230011  0.044063051            1 
  233000     1.204834   -5.9886399    117.57144  0.042049872  0.044059738            6 
  234000    1.2081603   -5.9199591    118.99771    0.0423781  0.044057339            2 
  235000    1.2152401   -5.9554853    118.91889  0.042169818  0.044056215            2 
  236000    1.2324419   -5.9360674    119.35674  0.042145742  0.044054031            2 
  237000     1.202592   -5.9427058    119.75598  0.042108291  0.044051108            2 
  238000    1.2223034   -5.9430621    120.57983   0.04221983  0.044047486            2 
  239000    1.1900339   -5.9419794    120.98178  0.042183327  0.044042591            2 
  240000    1.2393862   -5.9782199    120.92042  0.041986257  0.044037629            2 
  241000    1.2256755   -5.9294129    121.45691  0.041997547  0.044030539            2 
  242000    1.2356416   -5.9590778    122.34915  0.042131249  0.044023563            4 
  243000    1.2468094   -5.9246701    122.44941  0.041992254  0.044017007            3 
  244000     1.212354   -5.9631276     122.4048  0.041804919  0.044007576            3 
  245000    1.1853902   -5.9570942    122.93535  0.041814743  0.043995271            2 
  246000    1.1919088   -5.9370121    124.08453  0.042034056  0.043983804            4 
  247000    1.2301301   -5.9347966    124.17117  0.041893108  0.043970852            1 
  248000    1.2217053   -5.9840482    124.41601  0.041806453  0.043957398            3 
  249000    1.2029972   -5.9633014    125.14216  0.041881579  0.043944402            1 
  250000     1.211073   -5.9546747    125.82449  0.041941495  0.043934481            1 
  251000    1.1911448   -5.9533407    126.86019  0.042118258   0.04392862            2 
  252000    1.2090725   -5.9934504    126.93499  0.041975856  0.043920586            2 
  253000    1.2289746   -5.9538757    127.60095  0.042029299  0.043911918            2 
  254000    1.2119647   -5.9361493    128.04864  0.042010709  0.043902743            4 
  255000    1.2217846   -5.9478079    128.29134  0.041925274  0.043892976            2 
  256000    1.2467963   -5.9450085    129.02533  0.042000434  0.043884449            1 
  257000    1.2258332   -5.9490008    129.64854  0.042039087  0.043879064            3 
  258000    1.2082101   -5.9318324    130.44812  0.042134406  0.043873745            3 
  259000    1.2235312   -6.0268879     130.2456  0.041906564  0.043866577            6 
  260000    1.2164334    -5.958164    131.41156  0.042119089  0.043860308            2 
  261000     1.192314   -5.9447261    131.70142  0.042050261  0.043854235            4 
  262000    1.2351948   -5.9541472    131.90939  0.041955914  0.043847085            1 
  263000     1.218468   -5.9663543    132.73209  0.042057063  0.043838332            2 
  264000    1.2048035   -5.9245018    133.46763  0.042129933  0.043831591            2 
  265000    1.1885066    -5.962304    133.71358  0.042048295  0.043822822            2 
  266000    1.2012758   -5.9611467    133.76498  0.041906323  0.043812939            2 
  267000    1.1653542   -5.9714681    134.54711  0.041993479  0.043805208            1 
  268000     1.235776   -5.9333785    135.32272  0.042077959  0.043798767            2 
  269000    1.1961443   -6.0086965    135.08291  0.041847245  0.043788403            2 
  270000    1.2130609   -6.0074773    136.00716  0.041977519   0.04377812            4 
  271000    1.2107815   -5.9846516    136.47376    0.0419661  0.043768932            4 
  272000    1.1860574    -5.959446    137.13399  0.042014089  0.043759532            2 
  273000    1.1959766   -5.9509131    137.92441  0.042101468  0.043752865            3 
  274000    1.2179114   -5.9496519    137.70385  0.041880733  0.043746383            3 
  275000    1.2121561   -5.9571367    139.02926  0.042130079  0.043736987            1 
  276000    1.2075433   -5.9315561    138.92646  0.041946395  0.043728291            2 
  277000    1.2158521   -6.0013621    138.58824  0.041693212  0.043718736            3 
  278000    1.1898896    -5.947139    140.07541   0.04198903  0.043709394            2 
  279000    1.2191005   -5.9824545    139.56795  0.041686963  0.043699292            1 
  280000    1.1811411   -5.9791428    140.05392  0.041682713  0.043687845            1 
  281000    1.2168337   -5.9843743    141.01067  0.041818111  0.043674831            5 
  282000    1.2235756   -5.9688627     141.8181  0.041908422  0.043663805            4 
  283000    1.2318686   -5.9718577    142.48228  0.041955913  0.043651725            2 
  284000    1.2146911   -5.9245326    142.70719  0.041874177  0.043639869            5 
  285000    1.2215817   -5.9385253    143.21014   0.04187431  0.043627067            3 
  286000    1.2054483   -5.9395449    143.26469  0.041743791  0.043613063            3 
  287000    1.2414366   -5.9509619    143.83808  0.041764832  0.043602108            3 
  288000    1.2378288   -5.9912356    143.98143  0.041661294  0.043588587            6 
  289000    1.2147523   -5.9769432    145.03455  0.041820804  0.043575663            2 
  290000    1.1981822   -5.9457097    145.71253  0.041871418  0.043564974            2 
  291000    1.2169486   -5.9501046    146.28628  0.041891832  0.043554293            1 
  292000     1.196483    -5.991862    146.39336  0.041778926  0.043545128            2 
  293000    1.2124557   -6.0279572    146.50644  0.041668497   0.04353353            5 
  294000    1.1906287    -5.951966    147.43897  0.041791092  0.043522325            1 
  295000    1.1910021   -5.9414674    147.93478  0.041789485  0.043510216            1 
  296000    1.1973802   -5.9611879    148.07907  0.041688928   0.04349815            1 
  297000    1.1918119   -5.9354008    149.38933  0.041916199  0.043486072            2 
  298000    1.1953976   -5.8943442    150.08458   0.04196996  0.043475178            2 
  299000    1.2273267   -5.9355914    151.02477   0.04209163  0.043466014            3 
  300000    1.2155084   -5.9876563    150.66852  0.041852366  0.043457079            3 
  301000    1.2263069   -5.9746732    151.13377   0.04184213  0.043446216            3 
  302000    1.2277349   -5.9528133    151.37129   0.04176912  0.043435252            3 
  303000    1.2020862   -5.9831832      151.327  0.041619088   0.04342409            2 
  304000    1.1721817   -5.9611413    152.31899  0.041754108   0.04341373            3 
  305000    1.2230045    -6.001361    152.23597  0.041594526  0.043402288            3 
  306000    1.2344522   -5.9258122    153.51967  0.041808189   0.04339159            2 
  307000    1.1890009   -5.9515427    153.68186  0.041716033  0.043381546            2 
  308000    1.1997048    -5.936393    154.43377  0.041784029  0.043370238            3 
  309000    1.1954118   -6.0014958    154.35504  0.041627574  0.043356774            5 
  310000    1.2154022   -5.9962882    154.52699  0.041539513  0.043344657            3 
  311000    1.1839102    -5.938909     155.1887  0.041583253  0.043330831            2 
  312000    1.1976494   -5.9701688    155.77878  0.041607579  0.043318476            5 
  313000    1.1988635   -5.9774722    155.25938  0.041336362  0.043303576            3 
  314000    1.2101653   -5.9638939    156.46899   0.04152574  0.043286629            3 
  315000    1.2097826   -5.9644312    156.18307  0.041318273  0.043269861            2 
  316000    1.2115612   -5.9784134    156.83197  0.041358642  0.043252391            2 
  317000    1.1944091   -5.9570524    157.04998  0.041285483   0.04323351            6 
  318000    1.1821584   -5.9678838    157.21859   0.04119984   0.04321502            2 
  319000    1.1687021   -5.9599456    157.80329  0.041223429  0.043196033            2 
  320000    1.1812712   -5.9423659    158.39616  0.041248999  0.043176419            4 
  321000    1.2014238   -5.9787046     158.4858  0.041143769  0.043156673            2 
  322000    1.2037476   -5.9382016    159.56494  0.041295274  0.043137147            2 
  323000    1.2062927   -5.9634967    159.62926  0.041184019  0.043120399            1 
  324000    1.1734718   -5.9848235    160.80902  0.041360344  0.043103797            2 
  325000    1.1918594   -5.9786915    160.62314   0.04118542   0.04308656            4 
  326000     1.191847   -5.9511604    161.80283  0.041360642  0.043068533            2 
  327000    1.2095709    -5.988159    161.61678  0.041186743   0.04305169            2 
  328000    1.1891158   -5.9714942    162.34671  0.041246623  0.043032985            1 
  329000    1.2073236   -5.9572623    161.95777  0.041022739  0.043013323            3 
  330000    1.2056774   -6.0079553    161.74186  0.040843903  0.042992693            2 
  331000    1.1979481   -5.9911773    163.12838  0.041069581  0.042971309            2 
  332000    1.1987297   -5.9647416    163.66033  0.041079401  0.042952356            2 
  333000    1.1771359   -5.9727377    163.98432  0.041037118  0.042934945            6 
  334000    1.1639931   -5.9651823     165.6062  0.041318911  0.042916665            4 
  335000    1.1959737   -6.0179708    164.49688  0.040919621  0.042898109            6 
  336000    1.1726034   -6.0385468    164.01167  0.040677498  0.042877519            4 
  337000    1.1986841   -5.9900007    165.19791  0.040850127  0.042856202            5 
  338000    1.2070721   -5.9680941    166.11344   0.04095499  0.042834051            3 
  339000    1.1920843   -5.9959154    165.74613  0.040743888  0.042810754            2 
  340000      1.18573   -5.9787292    166.42089  0.040789433  0.042788441            1 
  341000    1.1872771   -6.0080689    166.88242  0.040782605  0.042766919            2 
  342000    1.2110885   -5.9930849    167.23463  0.040749179  0.042745601            2 
  343000    1.1728948   -5.9176518    168.36539    0.0409051  0.042724057            3 
  344000    1.1851346   -5.9668532    168.54323  0.040829271  0.042703812            7 
  345000    1.1931704   -5.9669884    169.05774  0.040835202  0.042683726            2 
  346000    1.1801684    -5.973644    169.33253  0.040783364  0.042662813            6 
  347000    1.2037602   -6.0212963    169.77364  0.040771767   0.04264255            1 
  348000    1.1844126   -5.9776185    170.57372  0.040846197  0.042623187            4 
  349000    1.1901746    -5.987827    170.61294  0.040738524  0.042603117            3 
  350000    1.2021182   -6.0104155    171.38765  0.040806584  0.042583738            1 
  351000     1.192157   -5.9751035    172.18991  0.040880795  0.042564379            5 
  352000    1.1989718   -5.9964541    172.39592  0.040813428  0.042545391            4 
  353000    1.2311324   -5.9874514    172.92175  0.040821944  0.042527627            3 
  354000    1.1928803   -5.9625137    173.18906  0.040769554  0.042509052            2 
  355000    1.1538432   -6.0432216    173.56618  0.040743234  0.042489529            3 
  356000    1.1810887   -6.0093744    174.05782  0.040743872  0.042469373            5 
  357000    1.1995358   -5.9706929    174.96624  0.040841792   0.04245047            8 
  358000    1.2004377   -6.0002283    174.81926  0.040693496  0.042431794            1 
  359000    1.2088312   -5.9934782    175.39301  0.040713326  0.042412704            3 
  360000    1.1860671   -6.0028437    175.92053  0.040722344  0.042394464            4 
  361000    1.1930628    -5.981756    176.79037  0.040810334  0.042375964            2 
  362000     1.221537   -6.0167375    176.92582  0.040728779  0.042358198            3 
  363000    1.2270923   -5.9901475     177.1639  0.040671234  0.042340422            2 
  364000     1.178617   -5.9644292    178.42683  0.040848633  0.042323288            2 
  365000    1.1959219   -5.9804815    178.82792  0.040828293  0.042307145            3 
  366000    1.1537213   -5.9910411    178.50891  0.040644105  0.042291093            2 
  367000    1.2150201   -5.9903952    179.94113  0.040858568  0.042274923            3 
  368000    1.1805075   -5.9705933    180.06915  0.040776529  0.042259788            4 
  369000    1.2040618   -5.9543116    181.06819  0.040891642  0.042244116            7 
  370000     1.187185   -6.0007353    181.38782  0.040853113  0.042229044            3 
  371000    1.1783985   -5.9739788    182.48461  0.040989356  0.042215082            3 
  372000     1.184984   -5.9973475    182.63242   0.04091228  0.042201765            2 
  373000    1.2090153   -5.9952985    182.74609  0.040827991  0.042188204            2 
  374000      1.19249   -5.9499903    183.96274  0.040989914  0.042175256            6 
  375000    1.2102621   -5.9534021    183.95697  0.040879326  0.042162596            4 
  376000    1.1923493   -5.9833626    184.24197  0.040833769  0.042149429            2 
  377000    1.1700357   -6.0060448    185.02273  0.040898039  0.042136902            1 
  378000    1.1868218   -5.9986981    185.58492  0.040913784    0.0421266            4 
  379000    1.2029012   -6.0192176    186.33805  0.040971426  0.042116333            4 
  380000    1.1818169   -6.0301324    186.60847   0.04092291  0.042106731            3 
  381000    1.1985361   -5.9941409     187.3569    0.0409792  0.042094903            4 
  382000    1.2034495   -5.9482883    188.36517  0.041091879  0.042084186            3 
  383000    1.1873578    -6.019379    188.71795  0.041061348  0.042074156            3 
  384000    1.1806403     -5.97907    189.00542  0.041016802  0.042064582            9 
  385000    1.2063897   -5.9969863    189.29663  0.040973296  0.042053695            2 
  386000     1.219996   -6.0245326    189.70984  0.040956356  0.042044662            4 
  387000    1.2033813   -6.0540722    190.24573  0.040965919  0.042036095            4 
  388000    1.2027028   -5.9720263    191.57218  0.041145228  0.042028343            3 
  389000     1.179095   -6.0103989    192.05231  0.041142311  0.042021422            2 
  390000    1.1909499     -5.97726    193.23868  0.041290317  0.042016159            4 
  391000    1.1798716   -6.0084844    193.53662  0.041248215  0.042011312            3 
  392000    1.1939547   -6.0115031    194.24125  0.041292782  0.042005325            3 
  393000    1.1889001   -6.0161238    194.99955  0.041348505  0.042001301            3 
  394000    1.1989915   -6.0202818    195.23532  0.041293427  0.041999111            1 
  395000    1.1952246   -5.9639938    196.92644  0.041545663  0.041995764            2 
  396000    1.2112345   -5.9821942    197.18239   0.04149461  0.041992802            4 
  397000    1.1624852   -5.9931772    197.16195    0.0413858  0.041990191            3 
  398000    1.1989131   -6.0211187    197.80558  0.041416578  0.041987716            2 
  399000    1.1673286   -5.9988223    197.84758   0.04132155  0.041984738            1 
  400000    1.2119791   -5.9556996    198.84698  0.041426454   0.04198137            2 
  401000    1.1983633   -5.9936505    198.64978  0.041282166  0.041976392            1 
  402000    1.2068378   -5.9983566    199.12501  0.041277987  0.041972361            3 
  403000     1.186068   -6.0456716      198.524  0.041051281  0.041968057            1 
  404000    1.1914258   -6.0353089    199.79787  0.041212431   0.04196223            3 
  405000    1.1726933   -6.0175561    199.79534  0.041110153  0.041957045            2 
  406000    1.1784221   -5.9591814    201.47587  0.041353831  0.041952903            1 
  407000    1.2133135    -6.051237     200.5027   0.04105297  0.041947549            3 
  408000    1.1961296   -6.0215936    202.38118  0.041336024  0.041941258            5 
  409000     1.196318   -5.9832237    202.05564  0.041168632  0.041936167            3 
  410000    1.2145728   -5.9940218    203.30719  0.041322599  0.041931561            2 
  411000    1.1608361   -6.0189156    203.13227  0.041186591   0.04192714            3 
  412000    1.1788471   -6.0182761    203.30505  0.041121572   0.04192183            2 
  413000    1.1951555   -5.9974873    204.22112  0.041206845  0.041916116            2 
  414000    1.2132234   -5.9732823    204.49147  0.041161728  0.041910651            2 
  415000     1.173836   -5.9856577    205.65836   0.04129686  0.041905177            3 
  416000    1.1749219   -6.0236884    205.43488   0.04115282  0.041900091            2 
  417000    1.1776584   -6.0085792    205.93833  0.041154741  0.041895393            3 
  418000    1.2018074   -6.0701548    206.10212   0.04108894  0.041890722            2 
  419000    1.1770708   -5.9849141    207.45399  0.041259743  0.041886368            2 
  420000    1.1721257   -6.0674541    206.68835  0.041009594  0.041882364            3 
  421000    1.1787775   -5.9876776    208.53937  0.041278576  0.041876756            4 
  422000    1.2146463    -6.010045    208.42537  0.041158248  0.041872119            1 
  423000    1.1766377   -6.0526653    208.70314  0.041115669  0.041868456            2 
  424000    1.1673155   -5.9963436    209.92116   0.04125809  0.041863619            1 
  425000    1.1809384   -6.0177072    210.17751  0.041211276  0.041860113            2 
  426000    1.1803695   -6.0118436    210.79762  0.041235842  0.041855545            5 
  427000    1.1980994   -5.9823469    212.27728  0.041428041  0.041851648            2 
  428000    1.1870665   -5.9912935    212.41553  0.041358163  0.041847728            2 
  429000     1.184649   -6.0314228    212.02892  0.041186659  0.041843644            2 
  430000    1.1913801   -6.0166257    212.15719  0.041115734  0.041839283            2 
  431000     1.186489   -6.0265922    212.76484  0.041137826  0.041834662            4 
  432000    1.1995057   -6.0395204    213.72998  0.041228777  0.041830148            4 
  433000    1.1950551   -6.0725532    213.79839  0.041146727  0.041826648            3 
  434000    1.1795501   -5.9650381    215.97355  0.041469576  0.041823515            4 
  435000    1.1833571   -5.9902453    215.77499  0.041336205  0.041820009            3 
  436000    1.1858841   -6.0095685    215.46818  0.041182756  0.041816014            4 
  437000    1.1814874   -6.0162978    215.92204  0.041175064  0.041811668            2 
  438000    1.1581354   -6.0156758    216.06633  0.041108511  0.041806698            5 
  439000    1.1995601   -6.0198657    216.94084  0.041180873   0.04180075            4 
  440000    1.1897979   -6.0194395    216.34361  0.040974168  0.041795436            5 
  441000    1.1805129    -6.048253    216.29882  0.040872792  0.041789117            2 
  442000    1.1841009   -6.0119887    217.89616  0.041081479   0.04178412            4 
  443000    1.1749193   -6.0709963     218.1773   0.04104163  0.041779345            3 
  444000    1.1665881   -6.0131409    218.42424  0.040995541  0.041774359            3 
  445000     1.203386   -6.0467444    219.17697  0.041044376  0.041769532            3 
  446000    1.1784627   -6.0310343    219.42814  0.040999278  0.041764326            1 
  447000    1.1768891   -5.9724909    221.36885   0.04126936  0.041759214            1 
  448000    1.1930534   -6.0154532    220.54818  0.041024588  0.041753641            4 
  449000     1.170452   -6.0202841    220.03983   0.04083887  0.041747021            6 
  450000     1.183813   -6.0361763    221.55321  0.041028372  0.041740818            3 
  451000    1.1795497   -6.0206712    221.37815  0.040905053  0.041733451            5 
  452000    1.1614756   -6.0112901     222.1238  0.040952029  0.041725607            6 
  453000    1.1667692   -5.9875598    222.29523  0.040893162  0.041718435            3 
  454000    1.1625429   -5.9728365    223.12855  0.040956048  0.041710322            3 
  455000    1.1635374    -5.996116    222.62764  0.040774293  0.041701731            1 
  456000    1.1922881   -6.0338758    223.12449  0.040775674  0.041692578            2 
  457000    1.1625414     -5.96911    224.55632  0.040947543  0.041684019            2 
  458000    1.1540512    -6.023917    224.41561  0.040832534  0.041676691            2 
  459000    1.1798583   -6.0660711    224.88391  0.040828596   0.04167003            1 
  460000    1.1779708   -6.0176008    225.52591  0.040856143  0.041663054            2 
  461000      1.17146   -6.0312599      226.109  0.040872922  0.041656257            2 
  462000    1.1973547   -6.0680631    226.19486  0.040799939  0.041649399            3 
  463000    1.1877591   -6.0148877     226.8576  0.040831101  0.041642754            4 
  464000    1.1913342   -6.0195838      227.462  0.040851652  0.041635157            3 
  465000    1.1974418   -6.0357023    227.01214  0.040683179  0.041627674            4 
  466000    1.1333043   -6.0166366      228.037  0.040779149  0.041619159            3 
  467000    1.1661968   -6.0074396    228.93409  0.040851907  0.041610793            3 
  468000    1.1939843   -6.0475251    228.55883  0.040697797  0.041603076            2 
  469000    1.1696871   -6.0320438     229.7411   0.04082109  0.041595284            3 
  470000    1.1535166    -6.022478    230.28147  0.040830047  0.041588435            1 
  471000    1.1867157   -6.0554322    230.31852  0.040749915   0.04158205            1 
  472000     1.148626   -6.0586034     232.0659  0.040972088  0.041575835            4 
  473000    1.1418062   -6.0051648    232.43449  0.040950403   0.04156949            3 
  474000    1.1933958   -6.0214459    232.27389  0.040835775  0.041563392            2 
  475000    1.1873736   -6.0535864    232.67926  0.040820923  0.041557435            1 
  476000    1.1830874   -6.0361268     233.8141  0.040933841  0.041551411            3 
  477000    1.1725887   -6.0427443    233.13967  0.040730201  0.041545302            5 
  478000    1.1661125   -6.0497222    234.20612  0.040830913   0.04153967            1 
  479000    1.1632649   -6.0477295    235.17658  0.040914506  0.041533866            6 
  480000     1.171314   -6.0212366    235.76029  0.040930606  0.041528573            6 
  481000    1.1742154   -6.0775377     235.9627  0.040880579  0.041523309            2 
  482000    1.1744216   -5.9789962    236.73113  0.040928619  0.041517481            4 
  483000    1.1555512   -6.0084044    237.26638  0.040936229  0.041512135            3 
  484000    1.1752567   -6.0156806    237.14102  0.040830066  0.041505951            1 
  485000     1.174156   -6.0082534    238.99773  0.041064902  0.041500641            2 
  486000    1.1678177   -6.0465619    238.46128  0.040888423   0.04149466            4 
  487000    1.1835545   -6.0677496    238.07772   0.04073883  0.041488427            4 
  488000    1.1850514   -6.0824132    239.18996  0.040845281  0.041482309            3 
  489000    1.1739288   -6.0472766    239.64805  0.040839817  0.041476137            2 
  490000    1.1827141    -6.042779    240.03227  0.040821815  0.041470293            4 
  491000    1.1832897   -6.0379008    241.16579  0.040931058  0.041465019            4 
  492000    1.1700934   -6.0367641     241.4184   0.04089065   0.04145899            4 
  493000    1.1983988    -6.077356    240.95719  0.040729748  0.041453666            5 
  494000    1.1755187   -6.0142175    242.40072   0.04089081   0.04144783            7 
  495000    1.1861449   -5.9833758    243.38053  0.040973153  0.041443135            4 
  496000    1.1844551   -6.0499196    243.02998   0.04083165  0.041437374            3 
  497000    1.1800773     -6.06864    242.33767  0.040633412  0.041431321            3 
  498000    1.1755326   -6.0487608    243.06889  0.040674179  0.041424703            3 
  499000    1.1579683   -6.0829127    243.62706  0.040685882  0.041418355            1 
  500000    1.1651693   -6.0455415    244.02235  0.040670391  0.041410756            3 
  501000    1.1668601    -6.055195    245.30053  0.040801819  0.041403664            2 
  502000    1.1835042    -6.038708    244.60091    0.0406044  0.041396483            3 
  503000    1.2082121   -6.0455007    246.41696  0.040824546  0.041389495            2 
  504000    1.1704663   -6.0749908     244.7087  0.040461094  0.041382095            3 
  505000    1.1605329   -6.0661202    246.36158  0.040653726  0.041375473            3 
  506000    1.1802354   -6.0613876    247.00848  0.040679921  0.041368471            3 
  507000    1.1637803   -6.0529346    246.72986  0.040553889  0.041361849            4 
  508000    1.1559475   -6.0080141    248.89124  0.040828616  0.041355992            2 
  509000    1.1933478   -6.0459401    248.73507  0.040722834  0.041349939            2 
  510000    1.1388625   -6.0525862    248.72525  0.040641381  0.041343185            2 
  511000    1.1943521   -6.0228782    249.11395  0.040625237   0.04133609            4 
  512000    1.1720585   -6.0284875    249.82173  0.040661089  0.041328666            3 
  513000    1.1810659    -6.066843    249.68642  0.040559848  0.041321082            1 
  514000    1.1850207   -6.0468114    249.97025  0.040526954  0.041313212            2 
  515000    1.1651573   -6.0713732    249.75777  0.040413878  0.041305244            1 
  516000    1.1702588   -6.0613258    250.90704  0.040521163  0.041296304            3 
  517000    1.1895254   -6.0701117    250.83014   0.04043039  0.041287816            3 
  518000    1.1853947    -6.039781    252.32487  0.040592804  0.041279824            2 
  519000    1.1647987   -6.0460209    252.50334  0.040543247  0.041272978            4 
  520000    1.1533898   -6.0549159    253.68423  0.040654523  0.041265388            6 
  521000     1.146804   -5.9891323    254.28728  0.040672949  0.041259042            7 
  522000    1.1727429   -6.0364183    253.67827  0.040497808  0.041251865            1 
  523000     1.141186    -6.066752    253.94843  0.040463421  0.041244742            4 
  524000    1.1613032   -6.0858119    255.12196  0.040572831  0.041237118            2 
  525000    1.1798465   -6.0482794     256.1405  0.040657222  0.041230277            3 
  526000    1.1506947   -6.0475295    256.61231  0.040654675  0.041223823            4 
  527000    1.1677202   -6.0756523    256.89055  0.040621529  0.041217151            2 
  528000    1.1916019    -6.037995    257.45309  0.040633379  0.041210986            4 
  529000    1.1465256   -6.0189671    258.23506  0.040679751  0.041205034            5 
  530000    1.1583837   -6.0349402    259.11136   0.04074078  0.041199062            4 
  531000    1.1737876   -6.0579712    258.48144  0.040565198  0.041192964            2 
  532000    1.1650152   -6.0134808    260.11214  0.040744383  0.041187593            1 
  533000    1.1720242   -6.0465342    259.02599  0.040498123   0.04118181            2 
  534000    1.1493837   -6.0368599    260.81825  0.040701975  0.041174676            2 
  535000    1.1844718   -6.0640206    260.55953  0.040585596   0.04116834            5 
  536000    1.1404053   -6.0134245    261.53058   0.04066085  0.041162384            2 
  537000    1.1540401   -6.0128819    262.41309  0.040722082  0.041156896            3 
  538000    1.1696704   -6.0325423    264.00833  0.040893484  0.041152197            5 
  539000    1.1717715   -6.0067233    263.59959  0.040754421  0.041147655            2 
  540000    1.1867747   -6.0222925     264.9401  0.040885818  0.041143706            2 
  541000    1.1262405   -6.0299622    265.16863  0.040845445  0.041139343            3 
  542000    1.1449188   -6.0135888     264.9557  0.040737347  0.041134741            6 
  543000    1.1632702   -6.0241993    265.31996  0.040718225   0.04113007            4 
  544000    1.1535094   -6.0498932    265.57786  0.040682883  0.041124899            8 
  545000    1.1438678   -6.0715733    265.52714   0.04060048  0.041118551            3 
  546000    1.1422611   -6.0309425    266.84459  0.040727197  0.041112394            4 
  547000    1.1675134    -5.983578    267.12958  0.040696158   0.04110694            2 
  548000    1.1731489   -6.0329923    267.19686  0.040632126  0.041101643            5 
  549000    1.1786151   -6.0487053    268.01829    0.0406828  0.041096262            6 
  550000    1.2139688   -6.0345209    267.22137  0.040488087  0.041090038            3 
  551000    1.1697649   -6.0602532    267.58822  0.040470087  0.041084292            3 
  552000    1.1630122   -6.0944131     267.5859  0.040396422  0.041076963            2 
  553000    1.1734733   -6.0528718    269.09406  0.040550642  0.041069892            2 
  554000    1.1802038    -6.043559    269.89547  0.040597994  0.041062809            2 
  555000    1.1671599   -6.0776864    268.83769   0.04036602  0.041056291            2 
  556000    1.1801242   -6.0299395    270.51962  0.040545506   0.04104966            4 
  557000      1.17753   -6.0216615    270.81388  0.040516739  0.041043499            3 
  558000    1.1638833   -6.0971149    270.34003  0.040373362  0.041036613            1 
  559000    1.1749441   -6.0315582    271.44565  0.040465958  0.041030324            2 
  560000    1.1499725   -6.0469734    271.19985  0.040357121  0.041023097            4 
  561000    1.1443314   -6.0497821    272.43185  0.040468189   0.04101595            1 
  562000    1.1734971   -6.0733191      272.151  0.040354537  0.041008574            6 
  563000    1.1734668   -6.0350271    272.41707  0.040322242  0.041001362            3 
  564000    1.1529663    -6.060011    272.61543  0.040280057  0.040994595            2 
  565000    1.1550625   -6.0430768    273.22176  0.040298195  0.040987531            3 
  566000    1.1705484   -6.0742872    274.47837   0.04041201  0.040981273            3 
  567000    1.1611612   -6.0598237    274.89199  0.040401527  0.040973895            4 
  568000    1.1738606   -6.0941093    275.05944  0.040354965  0.040967028            4 
  569000    1.1501115   -6.0735307    275.68665    0.0403759  0.040960505            2 
  570000    1.1628254   -6.0587377    275.33564  0.040253748  0.040954218            3 
  571000    1.1801622   -6.0758265    276.09855  0.040294593  0.040947903            3 
  572000    1.1602595   -6.0960002    276.09643  0.040223839  0.040941157            4 
  573000    1.1634992   -6.0692521    277.98535  0.040428352  0.040934588            4 
  574000    1.1518012   -6.0804388    277.11665  0.040231802  0.040928284            2 
  575000    1.1575652   -6.0774121    278.42283  0.040351135  0.040921651            2 
  576000    1.1810164   -6.0612625    278.79738  0.040335269    0.0409156            2 
  577000    1.1353345   -6.0580911     280.3275  0.040486351  0.040910367            5 
  578000    1.1498999   -6.0552928    280.49399   0.04044031  0.040904598            8 
  579000    1.1639879   -6.0592702    280.09004  0.040312325  0.040898597            3 
  580000    1.1512584   -6.0695298     280.7654  0.040339856  0.040892345            2 
  581000    1.1660759   -6.0735531    281.14659  0.040325099  0.040886075            6 
  582000    1.1531258   -6.0399936    281.83455  0.040354317  0.040879857            2 
  583000    1.1760165   -6.0173654    281.14157  0.040186044  0.040874089            4 
  584000    1.1842828   -6.1026498    282.43561  0.040301884  0.040866885            3 
  585000     1.160261   -6.0322386    282.30405  0.040214252  0.040860634            4 
  586000    1.1490231   -6.0456894    284.32425  0.040432914  0.040854479            3 
  587000     1.129151   -6.0938347    283.39409  0.040231984  0.040848337            2 
  588000    1.1715126   -6.0685821    285.00552  0.040391938  0.040842125            4 
  589000     1.171707    -6.053912    285.36528  0.040374261  0.040836053            2 
  590000    1.1446082   -6.0411459     286.5208   0.04046904  0.040830506            3 
  591000     1.161965   -6.0683261    286.10184  0.040341489  0.040824989            4 
  592000    1.1496181   -6.0326891    287.53119  0.040474549   0.04081941            2 
  593000    1.1365142   -6.0790073     286.6505  0.040282533  0.040814064            2 
  594000    1.1412496    -6.034735    287.65659  0.040355863  0.040808552            2 
  595000    1.1532811    -6.093364    287.73194  0.040298592    0.0408022            3 
  596000    1.1547861   -6.0680886    287.54214  0.040204438  0.040795258            5 
  597000    1.1301722   -6.0497649    289.46167  0.040405035  0.040789001            4 
  598000    1.1784992   -6.0973565    289.89844  0.040398334  0.040782881            2 
  599000    1.1637264   -6.0644395    289.25374  0.040241199  0.040776699            2 
  600000    1.1729017   -6.0974377    289.63729  0.040227401  0.040769756            2 
  601000    1.1804009   -6.0568133    289.84787  0.040189666  0.040763067            5 
  602000    1.1456604   -6.0754613    289.86118  0.040124748  0.040755879            1 
  603000    1.1385479   -6.0653588    290.11049   0.04009266  0.040748627            1 
  604000    1.1330523   -6.0838864    291.06977  0.040158633  0.040741498            3 
  605000    1.1442614   -6.0875687     290.7423  0.040047149  0.040734255            3 
  606000    1.1417978    -6.070008     293.4177  0.040348968   0.04072875            2 
  607000    1.1375301   -6.0844468    293.76938  0.040330777  0.040722871            3 
  608000    1.1458461   -6.0815934    292.30876  0.040064249  0.040716864            4 
  609000    1.1697259    -6.078261    292.92879  0.040083304  0.040709841            2 
  610000    1.1382032   -6.0641046    293.13632  0.040045945  0.040703014            5 
  611000    1.1718691   -6.0986327    295.01988    0.0402373  0.040696434            3 
  612000    1.1492192   -6.0788488    294.95406   0.04016259  0.040690438            3 
  613000    1.1687779   -6.1037835    294.88492  0.040087673  0.040683849            2 
  614000    1.1618625   -6.0942149    296.49482  0.040240882  0.040677844            7 
  615000    1.1722181   -6.1178724    295.50257  0.040040999  0.040670895            2 
  616000    1.1493788   -6.0854687    295.76954  0.040012113  0.040663113            2 
  617000    1.1647587    -6.057732    296.79411  0.040085644  0.040656199            3 
  618000    1.1652799    -6.067803     296.9553  0.040042517   0.04064942            1 
  619000    1.1481647   -6.0763611    297.35185  0.040031213  0.040642423            2 
  620000    1.1559586   -6.0981003    297.73972  0.040018779  0.040635121            4 
  621000     1.154937   -6.0800639    298.34072  0.040034986  0.040628041            5 
  622000    1.1472192    -6.117795    298.34341  0.039970982  0.040620732            2 
  623000    1.1449062   -6.0519431    300.36848  0.040177699  0.040613189            4 
  624000    1.1462099   -6.0721807    299.71232  0.040025684  0.040606029            3 
  625000    1.1493613   -6.1000661     300.0563  0.040007507  0.040599678            3 
  626000    1.1316737   -6.1016528     300.6711   0.04002544  0.040592997            3 
  627000    1.1491315   -6.0789816     301.7305  0.040102405   0.04058597            4 
  628000    1.1592421   -6.0986012    300.62436  0.039891768  0.040578748            2 
  629000    1.1426655   -6.1205601    301.20991  0.039905923  0.040572022            3 
  630000    1.1357209   -6.0841281    301.21379  0.039843094  0.040564974            3 
  631000    1.1441615   -6.0923225    301.92093   0.03987334  0.040558066            3 
  632000    1.1860531   -6.0952356    303.03535  0.039957193  0.040550807            2 
  633000    1.1600931    -6.093999    303.53125  0.039959354  0.040543415            5 
  634000    1.1459519   -6.1005083    303.40759  0.039880072  0.040536049            4 
  635000    1.1541606   -6.0502492    304.60966   0.03997502  0.040528519            1 
  636000    1.1598734   -6.0628161    303.83087  0.039810125  0.040520618            3 
  637000    1.1682755   -6.1096518    304.93398  0.039891939  0.040512977            4 
  638000    1.1620685   -6.0831868    305.04228  0.039843558  0.040505506            2 
  639000    1.1433899   -6.1051104    305.87798  0.039890191  0.040497308            2 
  640000    1.1590814   -6.0915903    306.10053   0.03985684  0.040489485            5 
  641000    1.1340608   -6.1005591    306.23741  0.039812456  0.040481784            4 
  642000    1.1371625   -6.1095281    307.06526  0.039857899  0.040474142            3 
  643000    1.1585697   -6.0743989    307.68552  0.039876299  0.040465995            3 
  644000    1.1577233   -6.0982684    306.39978  0.039648005  0.040458303            4 
  645000    1.1386533   -6.0787919    307.26643  0.039698505  0.040450367            4 
  646000     1.130278   -6.0634424    310.02201   0.03999252   0.04044315            4 
  647000    1.1307576   -6.1238243    309.28152  0.039835332  0.040435928            2 
  648000    1.1410078    -6.087225    310.51591  0.039932601  0.040428248            5 
  649000     1.141506    -6.114964    309.63149   0.03975751  0.040420476            1 
  650000    1.1523932   -6.1402069    310.21387  0.039771009  0.040412404            3 
  651000     1.127297   -6.0484304    310.13158  0.039699383  0.040404601            4 
  652000    1.1545039   -6.0678659     311.1627  0.039770284  0.040396186            1 
  653000    1.1314092   -6.0919297    311.39197  0.039738639  0.040387502            2 
  654000    1.1613445   -6.0693006    311.74289   0.03972259  0.040379748            4 
  655000    1.1424181   -6.0387551    313.02665  0.039825274  0.040372756            2 
  656000    1.1486081   -6.0770452    314.32295  0.039929236  0.040365237            4 
  657000    1.1369736   -6.0836457    313.23872  0.039730939   0.04035767            3 
  658000    1.1531242   -6.1019964    314.44759  0.039823657  0.040350169            3 
  659000     1.136992   -6.1409354    313.60043  0.039656099  0.040342861            3 
  660000    1.1453646   -6.1078401    315.18482  0.039796063  0.040335709            5 
  661000    1.1478659   -6.0798875    316.57576  0.039911215  0.040328846            2 
  662000    1.1504505   -6.1105768    315.67231  0.039737198  0.040321995            2 
  663000    1.1329124   -6.0974655    316.49572  0.039780759  0.040314873            4 
  664000    1.1465947   -6.0769823    317.42113  0.039836989   0.04030765            1 
  665000    1.1674044   -6.1320224    316.30899  0.039637718  0.040300654            2 
  666000    1.1199254   -6.1110341    318.14122   0.03980746  0.040293382            2 
  667000     1.154686   -6.1198787    318.57474  0.039801942  0.040286261            9 
  668000     1.162027   -6.1000573    319.23246  0.039824409  0.040279419            3 
  669000    1.1347448   -6.1421695    317.72812  0.039577494  0.040272537            3 
  670000    1.1460985   -6.0790097    319.96045  0.039796076  0.040264948            2 
  671000    1.1374024   -6.1032329    319.67909  0.039701824  0.040257523            3 
  672000    1.1414861    -6.060565    320.51306  0.039746163      0.04025            2 
  673000     1.144997   -6.0688154    320.96367  0.039742901   0.04024264            3 
  674000    1.1352631   -6.0757603    322.50597  0.039874625  0.040236008            1 
  675000    1.1700439   -6.0556056     322.6904  0.039838321  0.040229255            2 
  676000     1.149367   -6.1185861    321.53392  0.039636824  0.040222198            5 
  677000    1.1526214   -6.1082969    323.04357  0.039764103  0.040214705            3 
  678000    1.1377432   -6.1103522    322.47301  0.039635326  0.040207919            3 
  679000    1.1158518   -6.1379128    323.37744  0.039687953  0.040200498            4 
  680000    1.1374655   -6.1314608    323.12445  0.039598585  0.040193064            2 
  681000     1.139718      -6.1104    323.54084  0.039591391  0.040186047            2 
  682000    1.1612927   -6.1346325    323.50463  0.039528914     0.040179            3 
  683000    1.1454021   -6.0984325    324.49935  0.039592405  0.040171321            3 
  684000    1.1352609   -6.1455095     324.2552  0.039504776   0.04016374            2 
  685000    1.1376626   -6.0954295    325.97584  0.039656428  0.040155998            4 
  686000     1.173828   -6.1263289     325.5228  0.039543586  0.040148402            1 
  687000    1.1386043   -6.0894202      326.268  0.039576419  0.040140587            7 
  688000    1.1337048   -6.1408948    325.71974  0.039452487  0.040132633            2 
  689000    1.1474071   -6.1324003    325.87724  0.039414277  0.040124546            2 
  690000    1.1380611   -6.1273606    326.56039  0.039439661  0.040116786            3 
  691000    1.1300843   -6.1282476    328.68607  0.039638937  0.040108959            2 
  692000    1.1438231   -6.1330626    327.92609  0.039490136  0.040101476            2 
  693000    1.1251848   -6.1391262    328.21863  0.039468329  0.040094007            2 
  694000    1.1442421   -6.1599018    328.51039  0.039446493  0.040087028            4 
  695000    1.1616786   -6.1299108    330.34027  0.039609145  0.040080109            3 
  696000    1.1274682   -6.0500762    332.26252   0.03978239  0.040073078            7 
  697000    1.0993537   -6.0850865    331.45153  0.039628352  0.040066071            4 
  698000    1.1325521   -6.1322638    331.06543  0.039525481  0.040059411            2 
  699000    1.1327472   -6.1195056    331.58738  0.039531161  0.040051953            4 
  700000    1.1441901   -6.0728254    332.32275  0.039562233   0.04004549            2 
  701000    1.1198046   -6.1122886    331.81661  0.039445626  0.040038526            4 
  702000    1.1305962    -6.099628    333.04556  0.039535323  0.040031086            4 
  703000    1.1349105   -6.1051771    333.58939   0.03954355  0.040023549            4 
  704000    1.1287015    -6.113752    332.68276  0.039380062  0.040015503            3 
  705000    1.1346933   -6.0890714    333.73732  0.039448856  0.040007844            4 
  706000    1.1581397   -6.1025538    334.28584  0.039457724   0.04000033            2 
  707000      1.13717   -6.1051014    335.54234  0.039550016  0.039992661            3 
  708000    1.1294743   -6.1110936    335.18393  0.039451969  0.039984568            3 
  709000    1.1379613   -6.1232674    334.88892  0.039361651  0.039976765            3 
  710000    1.1272159    -6.114189     334.8471  0.039301303  0.039969011            4 
  711000    1.1669984   -6.1191841    335.70496  0.039346573  0.039960899            6 
  712000    1.1152158   -6.1435661    336.20419  0.039349741  0.039953466            2 
  713000    1.1507059   -6.1192465    337.49548  0.039445475  0.039946238            2 
  714000    1.1268717   -6.1131368    337.94345  0.039442513  0.039938372            5 
  715000    1.1424109   -6.0944873     339.2559  0.039540315  0.039930839            2 
  716000    1.1186477   -6.0881606    339.20296  0.039478929  0.039923684            3 
  717000    1.1415828   -6.1243722    338.97785  0.039397704  0.039916338            1 
  718000    1.1219629   -6.1031477     339.7068  0.039427437  0.039909106            3 
  719000     1.134001   -6.0842819     340.6889  0.039486428  0.039902361            2 
  720000    1.1205194   -6.1135943    340.47988  0.039407394  0.039895274            2 
  721000    1.1128536   -6.1260899    341.08162  0.039422287  0.039887885            8 
  722000    1.1449904   -6.1552483     340.4971  0.039300219  0.039880582            2 
  723000    1.1721048   -6.1126056     342.5097  0.039477835  0.039873438            3 
  724000    1.1136668   -6.0943692     343.6748  0.039557413  0.039866276            6 
  725000    1.1360495   -6.1585168    341.68857  0.039274548  0.039858642            4 
  726000    1.1243671    -6.149514    340.72975  0.039110394  0.039850749            3 
  727000    1.1611486   -6.1226251    342.90594  0.039306046  0.039843052            4 
  728000    1.1226376   -6.1339723    343.08387  0.039272421  0.039835579            5 
  729000    1.1113543   -6.1184605    343.47608  0.039263384  0.039827802            2 
  730000    1.1453482   -6.0998427    343.89059  0.039256917  0.039820274            4 
  731000    1.1285943   -6.0919439    345.46019  0.039382146   0.03981323            6 
  732000    1.1469643   -6.1332697    346.03049   0.03939327  0.039806069            2 
  733000    1.1274858   -6.1512783    345.40156  0.039268026  0.039798798            3 
  734000     1.138495    -6.111134    347.67539  0.039472683  0.039792212            2 
  735000    1.1389621   -6.0773013    347.76776  0.039429451  0.039785854            3 
  736000    1.1522533   -6.1317776    347.44991   0.03933989  0.039778818            2 
  737000    1.1436807    -6.171294    347.09762  0.039246678  0.039771607            3 
  738000    1.1352897   -6.1455639    348.08341  0.039304811  0.039764716            3 
  739000    1.1331603   -6.0929548    349.19331  0.039376783  0.039758217            4 
  740000    1.1240397   -6.1402605    348.61698  0.039258669  0.039750968            3 
  741000    1.1584424   -6.1592353     350.0313  0.039364743  0.039743623            2 
  742000    1.1280221    -6.125491    348.34521  0.039122328  0.039735745            2 
  743000    1.1304013   -6.1110266    350.06173  0.039262195  0.039728538            4 
  744000    1.1043259   -6.1088408    351.25099  0.039342629  0.039721133            2 
  745000    1.1377727   -6.0898435    352.46476  0.039425588  0.039714081            7 
  746000     1.148963    -6.109775    351.93914  0.039314023  0.039707608            1 
  747000    1.1164564   -6.1114409    351.81741  0.039247814  0.039700808            6 
  748000    1.1365417   -6.1503448    351.33335  0.039141416  0.039693273            2 
  749000    1.1222566   -6.0960239    352.59644  0.039229689  0.039685954            3 
  750000    1.1584457   -6.1277849    351.66857  0.039074286  0.039678672            4 
  751000    1.1262662   -6.0925248    353.24465  0.039197143  0.039671425            3 
  752000    1.1322942   -6.1451557    352.78178  0.039093726  0.039664384            4 
  753000    1.1574755    -6.155036    352.81791  0.039045807  0.039656937            6 
  754000    1.1375562   -6.1326351    353.28472  0.039045615  0.039649077            7 
  755000    1.1161691   -6.1430243    354.17691  0.039092374  0.039641066            4 
  756000    1.1393572    -6.127626    352.59478  0.038866268  0.039632442            2 
  757000    1.1128353   -6.1422213    353.79728    0.0389473  0.039623652            2 
  758000    1.1169429   -6.1175599    354.35424   0.03895715  0.039614745            3 
  759000    1.1104198   -6.1303232    355.43683  0.039024685  0.039606475            8 
  760000    1.1352087   -6.1115086    355.06512  0.038932579  0.039598396            3 
  761000    1.1280409   -6.1193559     355.8485  0.038967203  0.039589854            4 
  762000     1.134634   -6.1163355    356.21977  0.038956668  0.039581039            2 
  763000    1.1241533   -6.1167587    357.75145  0.039072897  0.039572509            2 
  764000    1.1300653   -6.1264009    356.74051  0.038911487  0.039563417            4 
  765000     1.109442   -6.1593755    355.01676  0.038672849  0.039554643            8 
  766000    1.1014201   -6.1280513    357.40809  0.038882516  0.039545864            5 
  767000    1.1439133   -6.1238275    359.40305  0.039048571  0.039537446            4 
  768000    1.1207878   -6.0795137    358.82111  0.038934582  0.039528827            5 
  769000    1.1391939    -6.144413    358.71151  0.038872075  0.039520823            2 
  770000    1.1570539   -6.1785183    359.56432  0.038913887  0.039511925            5 
  771000    1.1009925   -6.1087994    360.42469  0.038956408  0.039503221            4 
  772000     1.125443   -6.1174036    361.44851  0.039016463  0.039494735            2 
  773000    1.1175434   -6.1465795    360.88972  0.038905749  0.039486511            4 
  774000     1.132593   -6.1697653    360.29584  0.038791541   0.03947842            4 
  775000    1.1254015   -6.1330904    360.82933  0.038798853  0.039469815            4 
  776000    1.1373679   -6.1538551    361.96376  0.038870678  0.039461336            5 
  777000    1.1206526   -6.1065098    363.92745  0.039031258  0.039452791            8 
  778000    1.1112599   -6.1439792    363.04049  0.038886085  0.039444876            3 
  779000    1.1249341   -6.1196698    364.58753  0.039001661  0.039437014            6 
  780000    1.1332546   -6.1490843    363.08825  0.038791479  0.039428839            5 
  781000    1.1247708   -6.1513729    364.25184  0.038865967  0.039420031            4 
  782000    1.1243662    -6.197917    363.53168  0.038739523  0.039411305            3 
  783000    1.1384038   -6.1390424    364.49148  0.038792197  0.039402684            5 
  784000    1.1284688   -6.1227028    365.67637  0.038868662  0.039394271            3 
  785000    1.1189812   -6.1540772    366.66093  0.038923666  0.039386049            3 
  786000    1.1169427   -6.1497653    366.37729  0.038844072   0.03937776            3 
  787000     1.110861   -6.0982704    367.18274  0.038880002  0.039369767            4 
  788000    1.1264686   -6.1682324    367.00738  0.038812117  0.039362266            2 
  789000    1.1334456   -6.1374895    367.84196  0.038851073  0.039354638            3 
  790000     1.110311   -6.1529873    368.73127  0.038895704  0.039346895            4 
  791000    1.1207022   -6.1602812     368.8651  0.038860629  0.039339482            3 
  792000    1.1303167   -6.1368779     369.2769  0.038854893  0.039332236            3 
  793000    1.1074746   -6.1287819    370.40763  0.038924719  0.039325389            3 
  794000    1.1201285   -6.1690377     369.5518  0.038785873  0.039317737            3 
  795000    1.1256253   -6.1475765    370.06768  0.038791162   0.03930987            3 
  796000    1.1297949   -6.1583293    371.49701  0.038892066  0.039302214            3 
  797000    1.1264905   -6.1795131    369.37729  0.038621633  0.039294634            8 
  798000    1.0819314   -6.1757061    371.69462  0.038815227    0.0392874            2 
  799000    1.1268779   -6.1440035     372.1676  0.038815978  0.039280248            1 
  800000    1.1206469   -6.1584164    372.55925  0.038808255  0.039273215            2 
  801000    1.1206627   -6.1569677    373.00441  0.038806118  0.039266235            4 
  802000     1.105996   -6.2084352    373.93498  0.038854424  0.039258986            3 
  803000    1.1310014   -6.1770767    373.55066  0.038766154   0.03925152            4 
  804000    1.1296987   -6.1913354    373.52856  0.038715647  0.039244451            1 
  805000    1.1084356    -6.170472    375.30122  0.038851058  0.039237004            2 
  806000    1.1062885   -6.1656505    375.98336  0.038873383  0.039229505            4 
  807000    1.1218631   -6.1826365    374.77326  0.038700254  0.039221812            2 
  808000    1.1168858   -6.1391977    375.57759  0.038735313  0.039214596            1 
  809000    1.1187768   -6.1430174    375.73826  0.038703983  0.039207364            4 
  810000    1.1080455   -6.1479707     377.4282  0.038830062  0.039199941            3 
  811000    1.1293386   -6.1543038    376.85386  0.038723167  0.039192796            3 
  812000    1.1183949   -6.1274658    379.35064  0.038931716  0.039185521            3 
  813000    1.1016331   -6.1380137    378.37644  0.038783973  0.039178497            1 
  814000    1.1259105    -6.147399     378.7325  0.038772779   0.03917071            4 
  815000    1.1342509   -6.1691804    378.73381  0.038725338  0.039163124            3 
  816000    1.1226116   -6.1588294    378.36364  0.038640078  0.039155573            7 
  817000    1.1284458    -6.183315    379.78993  0.038738263  0.039148517            3 
  818000    1.1014251   -6.1300273    380.74614  0.038788319  0.039140707            4 
  819000    1.1441276   -6.1523675    380.68629  0.038734868  0.039133431            4 
  820000    1.1194529   -6.1543281    381.12934  0.038732656  0.039125689            2 
  821000    1.1342318   -6.1879436    379.72289  0.038542721  0.039118004            4 
  822000    1.1258883   -6.1628394    381.45285  0.038671214  0.039110677            1 
  823000    1.0965716   -6.1491968    382.57847  0.038738201  0.039103425            3 
  824000    1.1110096    -6.171545    382.11226   0.03864404  0.039095876            1 
  825000    1.0978501   -6.1796938    382.63809  0.038650312  0.039088645            3 
  826000    1.1302361   -6.1955105    383.64559  0.038705164   0.03908159            2 
  827000    1.1137322   -6.1752798      384.229  0.038717151  0.039074875            2 
  828000    1.1063853   -6.1992136    385.15737  0.038763826  0.039067825            2 
  829000    1.1131945   -6.1177971     386.4954  0.038851568   0.03906109            3 
  830000    1.1190436    -6.124879     385.6801  0.038722902  0.039054963            6 
  831000    1.1160812   -6.1711242    385.76458  0.038684775   0.03904805            4 
  832000    1.1442899   -6.1632497    385.92159  0.038654006  0.039041111            5 
  833000    1.1286301   -6.1528987    387.92077    0.0388076  0.039034541            5 
  834000    1.0861102   -6.1717917    386.22681  0.038591808  0.039027895            4 
  835000    1.1057838   -6.1784795    386.71005  0.038593818  0.039021058            3 
  836000    1.1195303   -6.1244009    388.66047  0.038742072  0.039014507            5 
  837000    1.1219127   -6.1793326    387.73647   0.03860379  0.039007621            3 
  838000    1.1172313   -6.1700385    386.74749  0.038459376  0.039000113            5 
  839000    1.1297682   -6.1225246    388.75737  0.038613167  0.038992374            3 
  840000    1.1423051   -6.2030493    388.22394  0.038514279  0.038984771            4 
  841000     1.118271   -6.1491902    388.98655  0.038544049  0.038977107            4 
  842000    1.1437853   -6.1687498    390.24788  0.038623108  0.038969661            3 
  843000    1.0979884   -6.1806581    388.00505   0.03835558  0.038961862            6 
  844000    1.1019479   -6.1411846    390.21179   0.03852802  0.038953971            3 
  845000    1.1014219   -6.1799578    390.34654  0.038495714  0.038946134            2 
  846000     1.097276   -6.1857109    390.66685  0.038481763  0.038938369            4 
  847000    1.1152673   -6.1832463    389.49147  0.038320687  0.038930286            5 
  848000    1.1266218   -6.1764507    390.74687  0.038398867  0.038922474            2 
  849000    1.1309638   -6.1906577    390.77185   0.03835609  0.038914493            3 
  850000    1.0878627   -6.1430775    391.56008  0.038388243  0.038906626            2 
  851000    1.1261577    -6.176953    391.38472  0.038325962  0.038898387            3 
  852000    1.1279926   -6.1641787    392.32589  0.038373033  0.038890176            4 
  853000    1.1182338   -6.1687886     392.8517  0.038379416  0.038882264            3 
  854000    1.1107767   -6.1664981    394.37458  0.038483077  0.038874576            4 
  855000    1.1333994   -6.1539192    393.64647  0.038367103  0.038866733            6 
  856000    1.0988413    -6.172583    394.29079  0.038385007  0.038858963            5 
  857000    1.1024104   -6.1743583    395.70406  0.038477641   0.03885069            3 
  858000    1.1341594   -6.1355313    396.57557  0.038517441  0.038842856            4 
  859000    1.1140758   -6.1537813    395.84279  0.038401512  0.038835125            3 
  860000    1.1106616   -6.1595666    396.46044  0.038416709  0.038827328            3 
  861000    1.0972296   -6.1707456    397.39791  0.038462825  0.038819757            4 
  862000    1.1021231   -6.1944908    396.76133  0.038356663  0.038812011            4 
  863000    1.1012111   -6.1571476    398.59951  0.038489717  0.038804692            3 
  864000    1.1077757   -6.1378174    399.21577  0.038504608  0.038797613            2 
  865000    1.1137857   -6.1779904    399.47539  0.038485105  0.038790347            7 
  866000    1.1216599   -6.1633186    397.93157  0.038292106  0.038782514            4 
  867000    1.1282263   -6.1812695    397.25464  0.038182876  0.038774932            1 
  868000    1.1057335   -6.1994687     399.9458  0.038397254  0.038767337            6 
  869000    1.1209793   -6.1484623    401.22135  0.038475388  0.038759875            4 
  870000    1.1167649   -6.1732332    400.83419  0.038394079  0.038752602            3 
  871000    1.1197643   -6.1815963    400.25561  0.038294643  0.038744929            3 
  872000    1.1145209   -6.2103897     400.0766   0.03823362   0.03873719            4 
  873000    1.1285577   -6.2101983    400.98313  0.038276358  0.038729322            5 
  874000    1.1172841   -6.1385271    402.07158  0.038336344  0.038721614            3 
  875000    1.1164623   -6.1585765    401.03052  0.038193383  0.038713854            2 
  876000    1.1199247   -6.1711764    401.47214  0.038191794  0.038705531            4 
  877000    1.1270228    -6.211915    400.39545  0.038045938  0.038696963            4 
  878000    1.1090797   -6.1354426    404.01081  0.038345749  0.038689021            4 
  879000    1.0861705     -6.13932     402.9581  0.038202323  0.038680923            3 
  880000    1.0971196   -6.1509501    403.62708  0.038222261  0.038672843            3 
  881000    1.1215497   -6.1599383    403.23609  0.038141892  0.038665072            2 
  882000    1.1225027   -6.1854266    403.02769  0.038078958   0.03865762            2 
  883000    1.1036506   -6.1655572    405.13673  0.038234875  0.038649652            1 
  884000    1.1118769   -6.1401546    406.48123  0.038318366  0.038642325            4 
  885000    1.1032617   -6.1710436     406.2835   0.03825645  0.038634865            3 
  886000    1.1335517   -6.2143242     406.1629  0.038201928  0.038627374            3 
  887000    1.1357363   -6.1792969    407.16262  0.038252783  0.038619441            2 
  888000    1.1255624   -6.1656954    406.73121  0.038169221  0.038611603            2 
  889000    1.0808573   -6.1968047    406.82736  0.038135298  0.038603991            4 
  890000    1.1203572   -6.1918094    406.24943  0.038038336  0.038595984            4 
  891000    1.1099513   -6.1812042    406.76666  0.038044019  0.038588124            3 
  892000    1.1120119   -6.1770621    408.31045  0.038145595  0.038580527            8 
  893000    1.1389763    -6.223297    407.23021  0.038002073  0.038572794           13 
  894000    1.1077489   -6.1600114    409.50187  0.038171315  0.038564951            6 
  895000     1.117234   -6.1491065    410.70262  0.038240468  0.038557164            3 
  896000    1.1327433   -6.2009628    408.95732  0.038035465  0.038549169            3 
  897000    1.0921564   -6.1952817    409.05645  0.038002272  0.038540862            2 
  898000    1.1098857    -6.179797    409.78628   0.03802768  0.038532578            3 
  899000    1.1174991   -6.1974664    410.39488  0.038041795   0.03852458            2 
  900000     1.131204   -6.1865719    411.52042  0.038103742  0.038516444            4 
  901000    1.1144982   -6.1727732    411.48625  0.038058291  0.038508421            2 
  902000    1.1333151   -6.1963112    411.44073  0.038011893  0.038500687            2 
  903000    1.1311081   -6.1263886    413.50454  0.038160256  0.038492933            2 
  904000    1.1073618   -6.1669057    412.96045  0.038067888  0.038485472            4 
  905000    1.1086177   -6.2256893    411.64357  0.037904564   0.03847726            3 
  906000    1.1008681   -6.1895189    415.27618  0.038196853  0.038469412            2 
  907000    1.0982284   -6.1562172    416.43434  0.038261149   0.03846186            4 
  908000    1.1005959    -6.173508    413.38834  0.037939459  0.038453848            2 
  909000    1.1005511   -6.1700347      415.175  0.038061514   0.03844556            5 
  910000    1.0951782   -6.1639479    415.03134  0.038006533  0.038437756            5 
  911000    1.1103212   -6.2171059    414.66847   0.03793162  0.038429525            4 
  912000    1.1176929   -6.2157228    414.03823  0.037832441  0.038421342            3 
  913000    1.0943407   -6.1888164    415.32098  0.037908085  0.038412828            4 
  914000    1.1228154    -6.173981    415.78971  0.037909347   0.03840449            5 
  915000    1.1063882   -6.1925973     416.0496  0.037891585  0.038396305            2 
  916000    1.0953107   -6.1561348    419.77599  0.038189227  0.038388399            5 
  917000    1.1033977   -6.1915602    416.69998  0.037868046  0.038380255            4 
  918000    1.1057712   -6.1972265    417.45029  0.037894907  0.038372368            1 
  919000    1.1245325   -6.1555587    419.03403  0.037997282  0.038364435            3 
  920000    1.1029504   -6.1830085     419.3885  0.037988089  0.038356437            5 
  921000    1.1023569   -6.2161428    417.08539  0.037738454  0.038348327            2 
  922000    1.1072741   -6.1979727    418.45692  0.037821486  0.038339906            4 
  923000     1.115017   -6.1576676    419.59901  0.037883623  0.038331599            1 
  924000     1.100439   -6.1905902    419.53733  0.037837061  0.038323492            2 
  925000    1.0865594   -6.1713149    420.38833  0.037872822  0.038315336            2 
  926000    1.1145989    -6.222434    419.44375  0.037746918  0.038307086            3 
  927000    1.0884085    -6.174244    421.65971  0.037905404  0.038299135            5 
  928000    1.1012677   -6.2102582    420.66192  0.037774957  0.038291034            1 
  929000    1.0925525   -6.1865197    423.53227  0.037991771  0.038283045            3 
  930000     1.129454   -6.2120521    422.19243  0.037830863  0.038274671            3 
  931000    1.0954168   -6.2151646     422.9582  0.037858772  0.038266453            5 
  932000    1.1044811    -6.214497    421.98515  0.037731148  0.038257859            3 
  933000    1.1023667   -6.2146576    422.31886  0.037720512  0.038249485            3 
  934000    1.0918156   -6.1895269     423.8496  0.037816702   0.03824114            3 
  935000    1.0939486   -6.2197751    423.35676  0.037732331   0.03823268            4 
  936000    1.0973042   -6.1891576     421.9809  0.037569524  0.038224116            2 
  937000    1.1129252   -6.1941842    423.15018   0.03763342  0.038215653            1 
  938000    1.0977899   -6.2104219    424.11679  0.037679175  0.038207077            3 
  939000    1.1064854    -6.184055      424.486  0.037671814  0.038198311            8 
  940000    1.1143772   -6.2083938    425.34518  0.037707906  0.038189745            1 
  941000    1.1228596   -6.1849327    424.90519  0.037628869  0.038180858            2 
  942000     1.087963   -6.1750654    426.47438  0.037727741  0.038171872            2 
  943000    1.1129441   -6.2173089    424.63611  0.037525284  0.038163271            5 
  944000    1.1187113   -6.2168421    426.90062  0.037685436  0.038154762            7 
  945000    1.0857146   -6.2059014    427.04784   0.03765854  0.038146555            4 
  946000    1.1019666   -6.2255302    427.84679  0.037689111  0.038138231            4 
  947000    1.0858171   -6.1973482    428.70697  0.037725006  0.038129828            2 
  948000    1.1094786   -6.2004793    427.55771  0.037584187  0.038121922            8 
  949000    1.0787709   -6.2053141    428.75263  0.037649511  0.038113789            8 
  950000    1.0864832    -6.245355    428.14137   0.03755626  0.038105341            3 
  951000    1.0851092   -6.2116078    428.40362  0.037539749   0.03809631            3 
  952000    1.1086824   -6.1939861    429.78388  0.037621138  0.038087544            3 
  953000     1.088849   -6.2142908     430.0195  0.037602265  0.038079211            2 
  954000    1.0816566   -6.2257531    428.57385   0.03743657  0.038070809            2 
  955000    1.0970975   -6.1894463     431.0343  0.037612068   0.03806239            3 
  956000    1.0978184   -6.2596404    429.38159   0.03742866  0.038053649            3 
  957000    1.1001402   -6.2604541    429.82935   0.03742854  0.038044752            3 
  958000    1.1015593   -6.2227056    431.98266  0.037576779   0.03803575            3 
  959000    1.0821774   -6.2137516    432.29689  0.037564902  0.038026824            2 
  960000    1.0998661   -6.2116267     430.1658  0.037340781   0.03801813            2 
  961000    1.0801084    -6.191738    431.58011  0.037424567   0.03800862            2 
  962000    1.1164164    -6.197137    431.36556  0.037367079  0.037999388            3 
  963000    1.1241197   -6.2210039     432.6067  0.037435678  0.037990181            3 
  964000    1.1008168   -6.2372706    431.62719  0.037312171  0.037980908            4 
  965000     1.106709   -6.2103434    432.65917  0.037362623  0.037971922            5 
  966000    1.1069816   -6.2160713    432.37951  0.037299819  0.037962883            2 
  967000    1.0861689   -6.2023332    432.96723  0.037311895   0.03795331            5 
  968000     1.086037   -6.1838129    434.09421  0.037370369  0.037944043            3 
  969000    1.1135903   -6.2042582    435.76018  0.037475076  0.037935075            2 
  970000    1.1163816   -6.2107737    434.51247   0.03732925  0.037926478            4 
  971000    1.1042333    -6.235604    435.47345  0.037373279  0.037917397            6 
  972000    1.1062279   -6.2234367    434.76402  0.037274008   0.03790839            4 
  973000    1.1012693   -6.2017119    437.35392  0.037457512  0.037899339            4 
  974000    1.0943746   -6.2109169    436.31627  0.037330276  0.037890603            2 
  975000    1.1068249    -6.213754    437.21081  0.037368445  0.037881754            3 
  976000    1.0796696   -6.2231368    436.75284  0.037291055   0.03787321            5 
  977000    1.0734906   -6.1818103    438.30351  0.037385151  0.037864249            2 
  978000    1.0974293   -6.2395726    435.10926   0.03707475  0.037854987            5 
  979000    1.1031216   -6.2566095    436.26613  0.037135353  0.037845435            3 
  980000    1.0983704   -6.1808933    438.77179  0.037310526  0.037836401            4 
  981000    1.0964793   -6.2249281    438.15296  0.037219925  0.037827642            2 
  982000    1.1002806   -6.2182197    439.38057  0.037286199  0.037818548            6 
  983000    1.0973851   -6.2134144    438.67171  0.037188175  0.037809598            3 
  984000     1.103017   -6.1815027    439.92871  0.037256835  0.037800481            5 
  985000    1.0910746   -6.2106998    439.18195  0.037155833  0.037791424            3 
  986000     1.085949   -6.2373532    439.66927  0.037159337  0.037782334            3 
  987000     1.094858   -6.2393418    438.97103  0.037062735  0.037772843            2 
  988000    1.1179226   -6.2111061    440.86021  0.037184566  0.037763741            5 
  989000    1.0750015   -6.2227009    442.20635  0.037260394  0.037754799            3 
  990000    1.1126531   -6.1883381    442.97739  0.037287659  0.037745704            3 
  991000    1.0892109   -6.1921995    442.33956  0.037196398  0.037736934            5 
  992000    1.0668254    -6.220445    442.34516  0.037159372  0.037727753            8 
  993000     1.084186   -6.1824623    443.91349  0.037253566  0.037718792            4 
  994000    1.0599181   -6.2532347    441.77817   0.03703707  0.037709706            4 
  995000    1.0812319    -6.234348    443.48979  0.037143198  0.037700258            6 
  996000    1.0754215   -6.2056258    444.08761  0.037155924  0.037691117            5 
  997000    1.0714046   -6.1779391    445.60726  0.037245675  0.037682445            3 
  998000    1.0996881   -6.2405033    445.65696  0.037212505  0.037673268            3 
  999000    1.0816297   -6.2398301    444.32689  0.037064305  0.037664326            3 
 1000000    1.0689459   -6.2389013    445.55607  0.037129673  0.037654979            3 
 1001000    1.0723421   -6.2180329    445.94742   0.03712516  0.037646065            3 
 1002000    1.1250011   -6.2169024    444.64806  0.036980045  0.037636731            2 
 1003000    1.0947235   -6.2266538    445.29819  0.036997191  0.037627453            4 
 1004000    1.1179402   -6.2622111    444.72997  0.036913178   0.03761809            6 
 1005000    1.0912107   -6.2115953    446.33739  0.037009734  0.037608655            4 
 1006000    1.0776834   -6.2205124    447.38978  0.037060121  0.037599421            3 
 1007000    1.1032859   -6.2123933    447.17676   0.03700569   0.03759027            3 
 1008000    1.0687452   -6.2426365    446.89766  0.036945905  0.037580993            3 
 1009000    1.0750381   -6.2330964    449.32015  0.037109362  0.037572206            4 
 1010000    1.1041177   -6.2300153    448.14181  0.036975397  0.037562974            5 
 1011000    1.1004545   -6.2512107    449.73174  0.037069876  0.037553811            4 
 1012000    1.0700333   -6.2187086      451.993   0.03721945  0.037545125            1 
 1013000    1.0618055   -6.2471396    450.27751  0.037041585  0.037536514            6 
 1014000     1.085663    -6.216682    450.11242  0.036991488  0.037527573            4 
 1015000    1.0885125   -6.2062286    451.93555  0.037104725  0.037518874            2 
 1016000    1.1146134   -6.2393008    450.15623  0.036922263  0.037510023            3 
 1017000     1.086619   -6.2406261    451.42534  0.036989949   0.03750128            5 
 1018000    1.0723416   -6.2892714    451.61263  0.036968945  0.037492201            4 
 1019000    1.0661809   -6.2432105    452.40322  0.036997319  0.037483341            4 
 1020000    1.1066195   -6.2064162     453.1821  0.037024681  0.037474814            4 
 1021000    1.0975621   -6.2248749    453.15582  0.036986273  0.037466332            5 
 1022000    1.0916812    -6.200769    452.05293  0.036860154  0.037457516            2 
 1023000    1.0994449   -6.2454583    453.15147  0.036913609   0.03744855            6 
 1024000    1.0751719   -6.2207242    453.41173  0.036898741  0.037439812            2 
 1025000    1.0741636   -6.2583451    452.87702   0.03681927  0.037430924            2 
 1026000    1.0936666   -6.2632985    453.63944  0.036845309  0.037422069            4 
 1027000    1.0846165   -6.2505181    455.99398  0.037000485   0.03741298            2 
 1028000    1.0802775   -6.2729605    453.54006  0.036765569  0.037403559            5 
 1029000    1.0907611   -6.2132915    458.27198  0.037113053  0.037394774            2 
 1030000    1.0966435   -6.2066553    457.07287  0.036980005   0.03738577            3 
 1031000    1.1011251   -6.2829604    455.46835  0.036814448  0.037376763            4 
 1032000    1.1049479    -6.250676    453.80539  0.036644492  0.037367654            4 
 1033000    1.1080248    -6.213311    457.31547   0.03689218  0.037358444            3 
 1034000    1.0792915   -6.2374652    458.13302   0.03692239  0.037349663            2 
 1035000     1.084479   -6.2148302    455.70443  0.036691178  0.037340478            6 
 1036000    1.0711649     -6.27604    457.70998  0.036817083  0.037331563            8 
 1037000    1.1062194   -6.2674961    457.01691  0.036725884  0.037322537            7 
 1038000    1.1014776   -6.2660123    458.04296  0.036772877  0.037313475            6 
 1039000     1.087789   -6.2195734    459.84926  0.036882359  0.037304418            4 
 1040000    1.0922169   -6.2797452    459.56466  0.036824091  0.037295493            3 
 1041000     1.088269   -6.2272537    458.91642  0.036736825  0.037286667            3 
 1042000    1.1082336   -6.2780655      458.075  0.036634277  0.037277861            4 
 1043000    1.0809151   -6.2340582    460.09218  0.036760321  0.037269041            3 
 1044000    1.1173456   -6.2546927    458.11138     0.036567  0.037260047            2 
 1045000    1.0915163   -6.2785998    460.09002  0.036689794  0.037251098            3 
 1046000    1.1003148   -6.2423654    461.45557  0.036763509  0.037242422            3 
 1047000    1.0860602   -6.2746638    461.91844  0.036765237  0.037233656            3 
 1048000    1.0715252   -6.2533298    463.01182  0.036817098  0.037224981            4 
 1049000    1.0772575   -6.2567268     461.9855  0.036700468   0.03721666            4 
 1050000    1.1003457   -6.2709342    461.53949  0.036630118  0.037207985            2 
 1051000    1.0967827     -6.26679    462.73148  0.036689778  0.037199616            5 
 1052000    1.0942392   -6.2711519    463.97082  0.036753075  0.037190908            5 
 1053000    1.1044812   -6.2480792    463.80313  0.036704901  0.037182228            5 
 1054000    1.0654457   -6.2570058    464.07256  0.036691379  0.037173567            8 
 1055000    1.0969038   -6.2351076    464.29739   0.03667436  0.037165008            2 
 1056000    1.0634163   -6.2651936    464.14186  0.036627356  0.037156173            5 
 1057000    1.0925952   -6.2740963    463.73398  0.036560547  0.037147257            6 
 1058000    1.1056389   -6.2732525    464.55532  0.036590683  0.037138166            3 
 1059000    1.1004614   -6.2257259    465.90771  0.036662552  0.037129395            3 
 1060000    1.0672416   -6.2402895    466.75731  0.036694757  0.037120664            3 
 1061000    1.0724475   -6.2787954    465.38033  0.036552021  0.037112018            2 
 1062000    1.0712496   -6.2203993    466.75425  0.036625412  0.037103291            4 
 1063000    1.0928398   -6.2649576    466.35166  0.036559396  0.037094431            4 
 1064000    1.0733294   -6.2335555    468.62297  0.036702927  0.037085624            2 
 1065000    1.1003482   -6.2381045    467.24617  0.036560733  0.037076998            2 
 1066000    1.0916417    -6.222524     468.1032  0.036593433   0.03706832            8 
 1067000    1.0723431   -6.2962948    467.06763  0.036478259  0.037059509            5 
 1068000    1.0758857   -6.2551923    467.10821  0.036447269  0.037050417            5 
 1069000     1.102369   -6.3029254    465.45756    0.0362845  0.037041012            5 
 1070000    1.0777623   -6.2494782    467.67963  0.036423647  0.037031655            3 
 1071000    1.0734783   -6.2536222    467.45887  0.036372461  0.037022532            4 
 1072000    1.0686864   -6.2850646    467.14116  0.036313834  0.037013283            3 
 1073000    1.0811066   -6.2721024    467.33286  0.036294879   0.03700359            5 
 1074000    1.1001331   -6.2873461    468.85508  0.036379196  0.036994203            5 
 1075000    1.1057771   -6.2522659    470.31211  0.036458303  0.036984937            2 
 1076000    1.0945905   -6.2748955    469.28613   0.03634496  0.036975605            2 
 1077000    1.0742449    -6.261724    472.00919  0.036521912  0.036966385            2 
 1078000    1.0531122   -6.2677183    471.09301  0.036417209  0.036957228            4 
 1079000    1.0674861   -6.2197964    473.72066  0.036586396   0.03694826            2 
 1080000    1.0827111   -6.2466307    471.28296  0.036364426  0.036939185            4 
 1081000    1.0822859   -6.2602976    472.19132  0.036400811    0.0369297            2 
 1082000    1.0867837   -6.2894906    471.59149  0.036320972  0.036920133            4 
 1083000    1.0671881   -6.2627772    472.27511  0.036340036  0.036910918            4 
 1084000    1.0856716   -6.2576348    473.89898  0.036431349  0.036901751            4 
 1085000    1.0575891   -6.2487071    474.95555  0.036478921  0.036892614            4 
 1086000    1.0816762   -6.2252125    473.69689  0.036348748  0.036883325            2 
 1087000    1.0835557   -6.2685839     472.1426  0.036196152  0.036873886            3 
 1088000    1.0721365   -6.2312059     476.1216  0.036467647  0.036864665            5 
 1089000    1.0872976   -6.2924696    474.42919  0.036304652  0.036855229            8 
 1090000    1.0896661   -6.3058278    474.52066  0.036278338  0.036845543            5 
 1091000    1.0615638   -6.2941454    474.18356  0.036219337  0.036835889            6 
 1092000    1.0916712   -6.2274944    474.70395  0.036225881  0.036826374            3 
 1093000    1.0639929   -6.2908013    474.57281   0.03618274  0.036817203            4 
 1094000    1.0562548   -6.2880033     475.2805  0.036203573  0.036807454            2 
 1095000    1.0777404   -6.2259185    476.99237   0.03630079  0.036798228            2 
 1096000    1.0859879   -6.2742417    476.44466  0.036226024  0.036788871            2 
 1097000    1.0851353   -6.2873634    476.09532  0.036166463  0.036779414            5 
 1098000    1.0810161   -6.3033465    476.43996  0.036159681  0.036770184            3 
 1099000     1.076901   -6.2515035    476.04872  0.036097112  0.036760911            4 
 1100000    1.0801086   -6.2835481    477.01547  0.036137536  0.036751979            3 
 1101000    1.0754068   -6.2386317    480.02999  0.036332878   0.03674275            7 
 1102000    1.0957443   -6.2780453    478.98596  0.036220959  0.036733738            2 
 1103000    1.0743234   -6.2521333    480.29836  0.036287274  0.036724686            8 
 1104000    1.0897514   -6.2531511    480.55363  0.036273674  0.036715789            5 
 1105000    1.0599035   -6.2841205     480.8342  0.036262006  0.036706892            6 
 1106000    1.1168027   -6.2622723    480.58212  0.036210226  0.036698059            4 
 1107000    1.0675355   -6.3037553    480.56906  0.036176533  0.036689162            2 
 1108000    1.0834964   -6.2635249    481.24696  0.036194868  0.036680099            5 
 1109000    1.0691754    -6.293736    480.28574  0.036090001   0.03667094            2 
 1110000    1.0828932   -6.2509665    480.87983  0.036102089  0.036661708            3 
 1111000    1.0579698   -6.2533957    480.84227  0.036066777  0.036652391            6 
 1112000    1.0701775   -6.2300134    483.55283  0.036237472  0.036643263            2 
 1113000     1.085966   -6.3136321    480.77359  0.035996825  0.036634295            6 
 1114000    1.0666763   -6.2773355    484.14092  0.036216406   0.03662503            3 
 1115000    1.0881806   -6.2686964    483.75504  0.036155085  0.036615957            4 
 1116000    1.0762334   -6.3029186    482.67014  0.036041677  0.036606624            2 
 1117000    1.0817671   -6.2983922     484.5374  0.036148717  0.036597485            2 
 1118000    1.0929008   -6.2764356    484.48362  0.036112375  0.036588591            2 
 1119000    1.0656704   -6.2586208    484.69526  0.036095864  0.036579575            4 
 1120000     1.084899    -6.269228     483.3716  0.035965149  0.036570646            3 
 1121000    1.0840999   -6.2756019    485.86188  0.036118189  0.036561927            2 
 1122000     1.074642   -6.2905553    483.40108   0.03590323  0.036552839            2 
 1123000    1.0671951   -6.2789107    485.51176  0.036027884  0.036543585            3 
 1124000     1.092559   -6.3097295    483.56159  0.035851245   0.03653391            2 
 1125000    1.0765469   -6.2555748    487.02712  0.036076083  0.036524363            4 
 1126000    1.0731105   -6.3124292    485.35616  0.035920379  0.036514689            2 
 1127000    1.0780242   -6.2891615     484.4115  0.035818656  0.036505038            4 
 1128000    1.1066162   -6.2420794    487.67998  0.036028367  0.036495635            4 
 1129000    1.0600666    -6.311064    484.79474  0.035783491   0.03648605            8 
 1130000    1.0598723   -6.3135118    485.60494  0.035811574   0.03647646            3 
 1131000     1.063389   -6.2423582    487.91056  0.035949791  0.036466995            6 
 1132000    1.0730603   -6.2442693    487.72464  0.035904346  0.036457387            3 
 1133000    1.0982777   -6.2555544    487.81231  0.035879105  0.036448217            3 
 1134000    1.0661894   -6.2670914    487.37587  0.035815393  0.036438624            3 
 1135000    1.0551445   -6.2381221    488.31427  0.035852736  0.036429006            4 
 1136000    1.0801026   -6.2622561     487.7953  0.035783106  0.036419166            3 
 1137000     1.092092   -6.2585447      489.544    0.0358798  0.036409204            3 
 1138000    1.0729458   -6.3014912    488.76415  0.035791165  0.036399347            5 
 1139000    1.0734445   -6.3224899    489.52851  0.035815665  0.036389605            3 
 1140000     1.086505   -6.3036315    489.01365  0.035746612  0.036379722            4 
 1141000     1.045529   -6.3112217    488.79158  0.035699063  0.036369813            4 
 1142000    1.0695385   -6.3009627    491.64616  0.035876106  0.036360495            4 
 1143000     1.098751   -6.3050236    489.67373  0.035700914  0.036350895            5 
 1144000    1.0566058   -6.3038255    490.79535  0.035751409  0.036341401            3 
 1145000      1.07721   -6.3416012     490.9758  0.035733319  0.036331733            2 
 1146000    1.0774945   -6.2762074    491.67496  0.035752978  0.036322297            3 
 1147000     1.077525   -6.2913323    493.03138  0.035820356   0.03631299            2 
 1148000    1.0377017   -6.2835778    492.51143  0.035751411  0.036303433            2 
 1149000    1.0733005   -6.2907904    490.58202  0.035580361  0.036293853            2 
 1150000    1.0934009   -6.3004131    491.56041   0.03562032  0.036284289            4 
 1151000    1.0615906   -6.3446333    490.83649   0.03553696  0.036274669            5 
 1152000    1.0703404   -6.2940498    493.22053  0.035678569  0.036265112            3 
 1153000    1.0723502   -6.2923182    494.11786  0.035712479  0.036255363            5 
 1154000    1.0756513   -6.2861852     494.5265  0.035711041  0.036245716            5 
 1155000    1.0494214   -6.2970728    493.55349   0.03560992  0.036236122            4 
 1156000    1.0817274   -6.3069074    493.75529  0.035593663  0.036226263            5 
 1157000    1.0451649   -6.2817145    494.55776  0.035620697  0.036216569            3 
 1158000    1.0654468   -6.3071724    496.00775  0.035694283  0.036207169            6 
 1159000    1.0511107   -6.2704133    494.79398  0.035576214  0.036197593            2 
 1160000    1.0641355   -6.2720116     495.0443  0.035563527  0.036187849            8 
 1161000     1.084566   -6.3196909    494.73034   0.03551036  0.036178058            1 
 1162000    1.0506836   -6.3046552    496.56102  0.035611088  0.036168422            4 
 1163000    1.0713468   -6.2823493    497.21757  0.035627513  0.036158538            4 
 1164000    1.0788911   -6.2754042    497.24476  0.035598852  0.036148653            2 
 1165000    1.0561048   -6.2762608    497.64304  0.035596784  0.036138678            3 
 1166000    1.0722103   -6.2673475    497.86799  0.035582332  0.036128791            5 
 1167000    1.0463083   -6.2675026     498.4428  0.035592888  0.036119124            4 
 1168000    1.0656788   -6.3009072    498.76156  0.035585157  0.036109368            3 
 1169000      1.07936   -6.3116964     496.7358  0.035410308  0.036099306            3 
 1170000     1.058016   -6.2876939     498.9013  0.035534281  0.036089221            3 
 1171000    1.0554882   -6.2853707    499.73026  0.035562928    0.0360795            4 
 1172000    1.0579625   -6.2832001    499.42083  0.035510582  0.036069833            4 
 1173000     1.053865   -6.3321461    498.08103  0.035385126  0.036059837            3 
 1174000    1.0607833   -6.3132012    497.82296  0.035336667  0.036049857            3 
 1175000    1.0599002    -6.323075    499.08815  0.035396322  0.036039959            3 
 1176000    1.0772381   -6.2865874    499.40596  0.035388745  0.036029948            6 
 1177000    1.0719323   -6.2973622    500.49737  0.035435951  0.036020164            3 
 1178000    1.0762572   -6.2887743    501.76952  0.035495863  0.036010494            2 
 1179000    1.0388344   -6.2922933     501.2009  0.035425566  0.036000952            3 
 1180000    1.0436132   -6.2918309    501.46427  0.035414144  0.035991338            2 
 1181000    1.0376785   -6.2839158    502.02944  0.035424036  0.035981531            3 
 1182000    1.0698535     -6.31983    502.10125  0.035399129  0.035972042            2 
 1183000    1.0443117   -6.3021687     503.1194  0.035440927  0.035962369            2 
 1184000    1.0566067   -6.3087346     503.0947  0.035409255  0.035952768            5 
 1185000    1.0369686   -6.3429921    502.70398  0.035351897  0.035943323            4 
 1186000    1.0597716    -6.334286    502.31353  0.035294655   0.03593362            3 
 1187000    1.0412119   -6.3385512    504.67482  0.035430695  0.035923996            8 
 1188000    1.0476619   -6.2949752    504.65802  0.035399693  0.035914272            4 
 1189000    1.0881164   -6.3021876    504.20502  0.035338171  0.035904592            4 
 1190000    1.0987417   -6.2998476    504.43188  0.035324361  0.035895113            4 
 1191000    1.0684182   -6.3100889     505.7379  0.035386083  0.035885573            5 
 1192000    1.0514867   -6.3054048    505.20837  0.035319377  0.035875905            3 
 1193000    1.0658723   -6.3323926    505.66431   0.03532162  0.035866045            4 
 1194000     1.056096   -6.3126145    505.21796  0.035260885  0.035856003            3 
 1195000    1.0507755    -6.292268    505.39826  0.035243951  0.035846201            9 
 1196000    1.0765461   -6.3319736    504.62714  0.035160754  0.035835915            2 
 1197000    1.0447316   -6.2880005    507.26407  0.035314959  0.035826096            4 
 1198000    1.0451348    -6.296564     506.9153   0.03526122  0.035816322            3 
 1199000    1.0472304   -6.3257676    506.73485   0.03521927   0.03580656            7 
 1200000    1.0866884   -6.3189362    506.50628  0.035174047   0.03579677            4 
 1201000    1.0441666    -6.300835    507.48626  0.035212757  0.035786762            2 
 1202000    1.0827465   -6.2942307    509.27131  0.035307218  0.035777047            4 
 1203000    1.0835336   -6.3281264    507.67508  0.035167295  0.035767377            4 
 1204000    1.0604702   -6.3466267    507.02807  0.035093305  0.035757726            3 
 1205000    1.0456043   -6.3270415    507.86271  0.035121902    0.0357483            3 
 1206000    1.0632185   -6.3047858    507.91531  0.035096414  0.035738881            4 
 1207000    1.0698915   -6.2763114    509.26153  0.035160282  0.035729238            5 
 1208000    1.0511437   -6.3076524    510.49621   0.03521635  0.035719616            3 
 1209000    1.0765213   -6.3223841    510.76445  0.035205711  0.035709722            5 
 1210000    1.0550872   -6.2892921    509.25052   0.03507235  0.035700035            4 
 1211000    1.0776298   -6.3290981    511.89633  0.035225456   0.03569054            4 
 1212000    1.0577583   -6.3347994    511.59869  0.035175928  0.035681004            2 
 1213000    1.0719549    -6.282713    512.98656  0.035242276  0.035671646            2 
 1214000    1.0699304   -6.2887731    512.96377  0.035211681  0.035662397            2 
 1215000    1.0596898   -6.3203968    512.53137  0.035153043  0.035652797            2 
 1216000     1.068476   -6.3249718    512.49151  0.035121403  0.035643086            7 
 1217000    1.0563312   -6.3068186    512.20663  0.035073037  0.035633555            4 
 1218000    1.0280976   -6.2862453    513.16759  0.035109989  0.035624124            6 
 1219000    1.0413144   -6.3001655    512.24606  0.035018188  0.035614514            7 
 1220000    1.0494171   -6.2909171    513.99781   0.03510914  0.035604711            5 
 1221000    1.0671464   -6.3034829    515.58266  0.035188552  0.035595095            3 
 1222000    1.0448106   -6.2884676    513.78201  0.035036962  0.035585656            2 
 1223000     1.034456   -6.3579258    514.95483  0.035088228     0.035576            4 
 1224000    1.0627593   -6.2945354    514.99472  0.035062277  0.035566276            3 
 1225000    1.0447778   -6.3130732    515.25336  0.035051249  0.035556685            4 
 1226000    1.0489177   -6.2980603    515.96911   0.03507131  0.035547244            2 
 1227000    1.0455872   -6.3199921    515.67942  0.035023052  0.035537538            3 
 1228000    1.0440245   -6.3414244    516.25103  0.035033322  0.035527818            5 
 1229000    1.0476684   -6.3531123    514.83844  0.034909034  0.035517764            3 
 1230000    1.0608536   -6.3717605    512.82577  0.034744293  0.035507867            4 
 1231000    1.0745748   -6.3361861     516.3291  0.034953229  0.035498045            6 
 1232000    1.0347894   -6.3218189    515.23777   0.03485104  0.035488223            2 
 1233000    1.0856009   -6.3072691    515.74173  0.034856835   0.03547855            4 
 1234000    1.0363803   -6.3162329    517.93264  0.034976542  0.035468779            6 
 1235000    1.0575522   -6.3300363    517.47906  0.034917616  0.035459262            3 
 1236000     1.047532   -6.3244212    516.83206  0.034845743  0.035449512            4 
 1237000    1.0569364   -6.3430955    518.64681  0.034939828  0.035439725            5 
 1238000    1.0516088   -6.3589975    517.71194  0.034848676      0.03543            3 
 1239000    1.0400821    -6.295769    520.15757   0.03498504  0.035420304            6 
 1240000    1.0514865   -6.3420716    517.86926  0.034803042  0.035410555            6 
 1241000    1.0448207   -6.2988923    519.86657  0.034909117  0.035400625            4 
 1242000    1.0475355   -6.3178892    517.22526  0.034703788  0.035390797            6 
 1243000    1.0531464   -6.2853701    521.18507  0.034941343  0.035380744            3 
 1244000    1.0617016   -6.3117567    519.68164  0.034812543  0.035370915            2 
 1245000    1.0429311   -6.2875704    520.46274  0.034836863  0.035361068            3 
 1246000    1.0548813    -6.301577    520.29466  0.034797663  0.035351339            3 
 1247000    1.0513077   -6.3156723    520.36586  0.034774516  0.035341851            3 
 1248000    1.0635022   -6.3103219    519.87714  0.034714018  0.035332167            4 
 1249000    1.0472806   -6.2860054    522.81727   0.03488239  0.035322237            4 
 1250000    1.0419393    -6.352718     521.8652  0.034791013  0.035312463            3 
 1251000    1.0565907   -6.3831429    521.18559  0.034717932   0.03530253            3 
 1252000    1.0586761   -6.3883546    519.40551  0.034571719  0.035292596            2 
 1253000    1.0312375   -6.3655743    519.30143  0.034537206  0.035282464            6 
 1254000    1.0557248    -6.305987    522.55025  0.034725562  0.035272365            5 
 1255000    1.0289811   -6.3062537    523.26783   0.03474554  0.035262693            2 
 1256000    1.0552172   -6.3641439    521.02401  0.034569003   0.03525281            2 
 1257000    1.0448177   -6.2909883    524.12144  0.034746847  0.035243161            3 
 1258000    1.0489523   -6.3435908    523.92705   0.03470635  0.035233643            4 
 1259000    1.0403465   -6.3511362    524.09222  0.034689716  0.035223985            4 
 1260000    1.0754914   -6.3581792    524.94677  0.034718702  0.035214236            5 
 1261000    1.0524483   -6.3046579    525.69776  0.034740798    0.0352047            8 
 1262000    1.0439632   -6.3379124    524.42974  0.034629539  0.035194904            3 
 1263000    1.0293074   -6.3488964    524.56039  0.034610741  0.035185033            7 
 1264000      1.06525   -6.3332026    525.43271   0.03464087  0.035175144            4 
 1265000    1.0475079   -6.3154434    527.69506   0.03476252  0.035165411            2 
 1266000    1.0546443   -6.3359615    525.55088  0.034593923  0.035156042            3 
 1267000    1.0597207   -6.3420765    527.25667  0.034678812  0.035146575            3 
 1268000    1.0553602   -6.3714096    525.33195  0.034524971  0.035136757            3 
 1269000     1.052683   -6.3354939    525.81332  0.034529375  0.035126993            3 
 1270000    1.0359009   -6.3194862    529.93713  0.034772777  0.035117703            3 
 1271000    1.0415493   -6.3654927    527.70353  0.034598972  0.035108422            5 
 1272000    1.0472027   -6.3191633    528.07035  0.034595804  0.035099089            2 
 1273000    1.0459269   -6.3323721    527.72191  0.034545817  0.035089787            2 
 1274000    1.0681213   -6.3683997    527.27502   0.03448947  0.035080392            2 
 1275000    1.0288857   -6.3497289    528.83295  0.034564245  0.035070958            6 
 1276000    1.0665401   -6.2974925    531.46569  0.034709097  0.035061795            2 
 1277000    1.0509402   -6.3022111    531.12722  0.034659829    0.0350528            2 
 1278000    1.0409766   -6.3441294    530.65583  0.034601971  0.035043542            4 
 1279000    1.0409441   -6.3360736    531.64772  0.034639544  0.035034216            9 
 1280000    1.0534305   -6.2754581    534.34153   0.03478786  0.035025141            5 
 1281000    1.0408024   -6.3515699     530.7039  0.034524063  0.035015915            4 
 1282000    1.0483629   -6.3121015    532.35257  0.034604301  0.035006476            4 
 1283000    1.0323321   -6.3665182    530.29952   0.03444398  0.034996852            3 
 1284000    1.0492255   -6.3505629    533.01368  0.034593308  0.034987239            5 
 1285000    1.0544652   -6.3295501    531.30365  0.034455489  0.034977634            9 
 1286000    1.0271536   -6.3550719    531.80173  0.034460972  0.034968221            6 
 1287000    1.0500874     -6.34793    531.94252  0.034443313  0.034958669            5 
 1288000    1.0186343   -6.3173206    532.28245  0.034438564  0.034949142            3 
 1289000    1.0314188   -6.3426399    533.27149  0.034475788  0.034939645            4 
 1290000    1.0643257   -6.3046541    533.77474  0.034481573   0.03493016            3 
 1291000    1.0607056   -6.3118036    535.92543  0.034593689  0.034920861            4 
 1292000    1.0394332   -6.3337053    536.27321  0.034589345  0.034911745            3 
 1293000    1.0350203    -6.346941    534.53374  0.034450486  0.034902461            2 
 1294000    1.0420566    -6.341589    534.66957   0.03443261  0.034893084            3 
 1295000    1.0391569    -6.329498    534.91776  0.034421992  0.034883884            6 
 1296000     1.042659   -6.3146073    535.41028  0.034427101  0.034874567            2 
 1297000    1.0581899   -6.3175669    536.79281  0.034489387  0.034865163            3 
 1298000    1.0264664   -6.3520325    535.71514  0.034393628  0.034856089            3 
 1299000    1.0429132   -6.3443064    536.18332  0.034397185  0.034846711            3 
 1300000    1.0401996   -6.3451522     534.9086  0.034289013  0.034837419            7 
 1301000    1.0512053   -6.3514067    537.16526  0.034407204  0.034827961            2 
 1302000    1.0361998    -6.355051    535.56811  0.034278553   0.03481859            2 
 1303000    1.0450581   -6.3103483    537.08002   0.03434894  0.034809305            3 
 1304000    1.0658513   -6.3501514    536.66403  0.034296014  0.034800022            3 
 1305000    1.0523933   -6.3634864    536.29374  0.034246088  0.034790668            4 
 1306000    1.0467576   -6.3931153    535.85448  0.034191837  0.034780948            4 
 1307000    1.0392624   -6.2877644    542.01014  0.034558157  0.034771816            4 
 1308000    1.0491277   -6.3453321    537.77993  0.034262228  0.034762486            3 
 1309000    1.0341636   -6.3699241    536.69172  0.034166776  0.034753143            3 
 1310000    1.0395472   -6.3749912    539.30248  0.034306774  0.034743888            5 
 1311000    1.0415342   -6.3522264    541.17607  0.034399699  0.034734364            3 
 1312000    1.0335741   -6.3528142    540.95059  0.034359158  0.034724864            5 
 1313000     1.037854   -6.3418397    539.91493  0.034267259   0.03471564           11 
 1314000    1.0223895   -6.3484853    539.77885   0.03423255  0.034706492            4 
 1315000    1.0328818   -6.3437141    541.42581  0.034310888  0.034696961            4 
 1316000     1.028965   -6.3396705    540.20904  0.034207766  0.034687585            4 
 1317000    1.0603494   -6.4095788    539.53984  0.034139448  0.034678225            3 
 1318000    1.0405459    -6.324604    540.83484  0.034195425  0.034668856            3 
 1319000    1.0285895   -6.3517393    541.79399  0.034230098  0.034659576            2 
 1320000    1.0118152    -6.334206    541.86989  0.034208958  0.034650257            3 
 1321000    1.0447293   -6.3332355    541.90655  0.034185374  0.034641004            5 
 1322000     1.038301   -6.3566545    542.32162   0.03418568  0.034631736            9 
 1323000    1.0603843   -6.3515628    543.60866  0.034240908  0.034622393            7 
 1324000    1.0337034   -6.4052966    542.44013  0.034141498  0.034612875            4 
 1325000    1.0524576   -6.3928809    542.45974  0.034116965  0.034603376            7 
 1326000    1.0393905   -6.3637217     544.0363  0.034190316  0.034594074            3 
 1327000    1.0240143    -6.369655    543.85198  0.034152975  0.034584753            4 
 1328000     1.050876   -6.3869873    543.52681  0.034106853  0.034575292            3 
 1329000    1.0143014   -6.4034708    543.12512  0.034056002  0.034565705            4 
 1330000    1.0550391   -6.3374397    545.10127  0.034154215  0.034556348            3 
 1331000    1.0206016   -6.3622253    545.25104  0.034137931  0.034547056            7 
 1332000    1.0419866   -6.3691905    545.91078  0.034153577  0.034537702            3 
 1333000    1.0288783   -6.3383345    545.45501  0.034099463  0.034528181           10 
 1334000    1.0424314   -6.3431476    545.13197  0.034053721  0.034518764            3 
 1335000    1.0530172   -6.3216964    546.54297  0.034116291  0.034509359            3 
 1336000    1.0335751   -6.3320564    547.65742  0.034160268  0.034500091            5 
 1337000    1.0288467   -6.3532166    546.28291  0.034049047   0.03449071            3 
 1338000    1.0090939   -6.3562687    546.79587  0.034055548  0.034481367            2 
 1339000    1.0407903    -6.286862    549.25095  0.034182907  0.034472128            3 
 1340000    1.0180413   -6.3562121    548.10024  0.034085836  0.034463008            7 
 1341000    1.0372665   -6.3185998    547.99215  0.034053701  0.034453763            5 
 1342000    1.0331827   -6.3538624    548.55927  0.034063541   0.03444446            4 
 1343000    1.0564301   -6.4212381    548.32257   0.03402349   0.03443513            3 
 1344000    1.0461115   -6.3865786    550.57092  0.034137582  0.034425823            4 
 1345000     1.053117   -6.3505412    550.59653  0.034113787  0.034416554            3 
 1346000    1.0496814   -6.3549265    551.65571  0.034154019  0.034407599            4 
 1347000    1.0431465   -6.3603429    549.74013  0.034010154  0.034398514            8 
 1348000      1.02658   -6.3718267    550.65388  0.034041412   0.03438925            7 
 1349000    1.0364389   -6.3509321    551.09043  0.034043145  0.034380107            5 
 1350000    1.0567889   -6.3643371    550.91212  0.034006921  0.034371223            7 
 1351000    1.0367158   -6.4005541     548.9264  0.033859265  0.034362079            4 
 1352000    1.0395964   -6.3190107    553.00257  0.034085464  0.034352543            4 
 1353000     1.017241   -6.3418833    552.53431  0.034031431  0.034343275            4 
 1354000    1.0513981   -6.3504985    549.99974  0.033850304  0.034333733            3 
 1355000    1.0442043   -6.3737863    550.55472  0.033859454  0.034324429            3 
 1356000    1.0363324   -6.3465325    552.46398  0.033951818  0.034315085            3 
 1357000    1.0264169    -6.355377    551.23648  0.033851417  0.034305783            4 
 1358000    1.0366433   -6.3882696    552.08878  0.033878791  0.034296456            3 
 1359000    1.0337553   -6.4047329    550.95151  0.033784125  0.034286804            3 
 1360000    1.0278273   -6.4075977    551.73457  0.033807266  0.034277215            9 
 1361000    1.0501338   -6.3983584     551.7013  0.033780388  0.034267603            5 
 1362000    1.0226751   -6.3725183    552.86781  0.033826958  0.034257934            6 
 1363000    1.0782687   -6.4040242    552.51428  0.033780526  0.034248325            3 
 1364000    1.0349168   -6.3907608    553.92576  0.033841994  0.034238616            4 
 1365000   0.99779961   -6.3921816    553.74828  0.033806366  0.034229167            7 
 1366000    1.0371643    -6.392289    553.50208  0.033766598  0.034219797            3 
 1367000    1.0163801   -6.3530438    554.26418  0.033788355  0.034210471            3 
 1368000    1.0399545   -6.3910526    553.89619   0.03374124  0.034201195            2 
 1369000    1.0262104   -6.3954743    552.93315  0.033657971    0.0341917            5 
 1370000     1.038671   -6.4008706    553.44029  0.033664251  0.034182092            4 
 1371000    1.0413147   -6.3693954    554.85137  0.033725466  0.034172823            3 
 1372000    1.0361248   -6.3816333    555.64324  0.033748982  0.034163188            8 
 1373000    1.0300473   -6.3825609    555.51105  0.033716379  0.034153672            5 
 1374000    1.0345625   -6.3940355    556.30708  0.033740119  0.034144214            2 
 1375000    1.0362693   -6.4000113    555.26441  0.033652389  0.034134768            6 
 1376000    1.0507422   -6.3312975     557.0211   0.03373432  0.034125559            6 
 1377000    1.0238773   -6.3503405    557.38844  0.033732053  0.034116024            3 
 1378000   0.99431099   -6.3701678    556.79967  0.033671968  0.034106527            3 
 1379000    1.0280905   -6.3720563     556.7908  0.033647015  0.034097142            5 
 1380000    1.0337504   -6.3850105    557.88899  0.033688948  0.034087762            4 
 1381000    1.0066957   -6.3800791    558.14126  0.033679777  0.034078524            3 
 1382000    1.0372454    -6.352033    558.17585  0.033657492  0.034069086            4 
 1383000    1.0309845   -6.3695486      559.224  0.033696312  0.034059981            8 
 1384000    1.0440586   -6.3746854     556.4316  0.033503829  0.034050589            5 
 1385000    1.0341367   -6.4068651    559.36667  0.033656237  0.034041323            4 
 1386000    1.0363977   -6.3971061    558.95651  0.033607294  0.034032057            3 
 1387000    1.0346065    -6.397179    558.99625  0.033585451  0.034022793            4 
 1388000    1.0174748   -6.4044916      558.513   0.03353224  0.034013317            5 
 1389000     1.025388    -6.388033    560.61018   0.03363392   0.03400386            7 
 1390000      1.00721   -6.3892203    559.41147  0.033537858  0.033994515            6 
 1391000    1.0174123   -6.3820705    560.91094  0.033603579  0.033985202            4 
 1392000      1.01846   -6.3915649    561.35633  0.033606102  0.033975971            3 
 1393000    1.0196353   -6.3543653    561.10194  0.033566759  0.033966796            7 
 1394000    1.0159172   -6.3717986    562.25455  0.033611583  0.033957346            3 
 1395000    1.0199456   -6.3938126    562.76315   0.03361787  0.033948189            3 
 1396000    1.0275763   -6.3672947    563.37346  0.033630221  0.033939245            3 
 1397000    1.0701174   -6.3777033    563.63123  0.033621524  0.033930389            5 
 1398000    1.0265559   -6.3835602    563.16226   0.03356952  0.033921349            3 
 1399000    1.0257395    -6.347405    563.09841  0.033541721  0.033912328            3 
 1400000    1.0063143   -6.3885453    563.86874  0.033563616  0.033903289            3 
 1401000    1.0318304   -6.3783992    563.04132  0.033490443  0.033893987            3 
 1402000    1.0200339   -6.3863354    565.30314  0.033600995  0.033884699            3 
 1403000    1.0474657   -6.3881024    564.64321  0.033537848  0.033875464            4 
 1404000    1.0119671   -6.3627186    564.11051  0.033482342  0.033866162            5 
 1405000    1.0185268    -6.366883    564.08465  0.033456978   0.03385701            3 
 1406000    1.0304576    -6.361444    564.14169  0.033436563  0.033847696            6 
 1407000    1.0350747   -6.4273027    562.71654   0.03332839  0.033838259            4 
 1408000    1.0265772   -6.4151832    564.33883  0.033400736  0.033828828            4 
 1409000    1.0215531   -6.3741097    567.44572  0.033560783  0.033819654            8 
 1410000    1.0146984   -6.4084798    565.52824  0.033423655  0.033810438            8 
 1411000     1.021753   -6.4097782    565.26038  0.033384147  0.033801193            4 
 1412000    1.0136132    -6.457517    564.60236  0.033321669  0.033791708            5 
 1413000    1.0304184   -6.3881977    567.44162  0.033465535  0.033782426            5 
 1414000    1.0275088   -6.3947105    565.58715  0.033332576   0.03377319            4 
 1415000     1.037204   -6.3982023    567.10645  0.033398495  0.033764126            5 
 1416000    1.0458965   -6.3879997    567.60062  0.033403991  0.033755063            5 
 1417000    1.0329403    -6.392502    568.13797  0.033412019  0.033745837            2 
 1418000    1.0248773   -6.3684832    569.18289  0.033449864  0.033736595            4 
 1419000     1.046825   -6.3672583    569.97061  0.033472552  0.033727655            4 
 1420000    1.0066628    -6.396198    568.71234  0.033375137  0.033718614            3 
 1421000    1.0056695   -6.4016446    569.41758  0.033393008   0.03370946            3 
 1422000     1.022487   -6.3550398    571.52318  0.033492919  0.033700648            3 
 1423000    1.0318317   -6.4117344    570.07139  0.033384363  0.033691591            6 
 1424000    1.0256098   -6.3856027    569.71448  0.033340033    0.0336825            2 
 1425000    1.0184299   -6.3903871    570.34428  0.033353467  0.033673487            3 
 1426000    1.0538198    -6.388287    571.83235  0.033417038   0.03366438            4 
 1427000    1.0196108   -6.4180263    569.76485  0.033272883  0.033655371            4 
 1428000    1.0337181   -6.4081841    569.51616   0.03323507  0.033646053            4 
 1429000    1.0279309   -6.4170061    570.04322  0.033242548  0.033636722            4 
 1430000    1.0245646   -6.4101312    570.43867  0.033242346  0.033627351            6 
 1431000    1.0216916   -6.3736269    571.82189  0.033299667  0.033618095            3 
 1432000    1.0079901   -6.3822798      572.067  0.033290677  0.033608808            3 
 1433000    1.0173825   -6.4016751    571.66031  0.033243796  0.033599617            3 
 1434000    1.0371904    -6.433215    572.22309  0.033253317  0.033590475            4 
 1435000    1.0204497   -6.4317551    571.99789  0.033217067   0.03358136            4 
 1436000    1.0305999   -6.3835772    573.63935  0.033289191  0.033572282            7 
 1437000    1.0512534   -6.3890929    573.77619  0.033273961  0.033563194            5 
 1438000    1.0288303    -6.381769     574.4158  0.033287889  0.033554256            3 
 1439000    1.0088455    -6.382769     574.4696  0.033267871  0.033545405            3 
 1440000    1.0264393   -6.3867653    576.13506  0.033341149  0.033536624            5 
 1441000    1.0073121   -6.4040093    575.70286  0.033293018  0.033527802            2 
 1442000    1.0093624   -6.3806363    574.43756  0.033196808  0.033519194            4 
 1443000    1.0324626   -6.3866194    575.96981   0.03326229  0.033510472            4 
 1444000   0.99335177   -6.4092046    575.40908  0.033206895  0.033501421            3 
 1445000   0.99625907   -6.4094342    574.14667  0.033111111  0.033492266            7 
 1446000    1.0149864   -6.3830265    578.02439  0.033311687  0.033483299            4 
 1447000    1.0315127   -6.4024939    576.15813  0.033181187  0.033474338            2 
 1448000    1.0216353   -6.4176747    577.03404  0.033208681  0.033465322            4 
 1449000    1.0023103   -6.4104873    576.80437  0.033172554   0.03345627            4 
 1450000    1.0153849   -6.4323468    574.68356  0.033027791  0.033447203            9 
 1451000    1.0074095   -6.4242143    576.24326  0.033094605  0.033438082            7 
 1452000    1.0210117   -6.4009717    578.34335  0.033192341  0.033429135            3 
 1453000    1.0078454    -6.430583     575.8842  0.033028458  0.033420023            7 
 1454000    1.0240953   -6.4313596    576.54602  0.033043674    0.0334109            5 
 1455000    1.0252592   -6.4248355    576.73331   0.03303169  0.033401861            3 
 1456000    1.0389456   -6.4262216    575.53941  0.032940671  0.033392454            3 
 1457000    1.0432341   -6.4235068    577.85897   0.03305073  0.033383152            8 
 1458000    1.0223692   -6.3995397    578.67174  0.033074516  0.033374078            3 
 1459000     1.029941   -6.4272002    577.16655  0.032965876  0.033365091            2 
 1460000    1.0301567   -6.4208401    578.59758  0.033024976  0.033355841            4 
 1461000   0.99517036   -6.4361155    579.38197  0.033047112  0.033346546            2 
 1462000    1.0036454   -6.4221623    578.54015  0.032976525  0.033337389            6 
 1463000     1.012517     -6.42933      578.925  0.032975906  0.033328325            3 
 1464000    1.0188489   -6.4038863    579.34613  0.032977353  0.033319385            3 
 1465000     1.016639   -6.4610534    577.01955    0.0328225  0.033310292            5 
 1466000    1.0078734   -6.4640426    577.08588  0.032803881  0.033301081            3 
 1467000    1.0175372   -6.4145505    579.76422  0.032933664  0.033291858            4 
 1468000    1.0413696   -6.4235562    580.63837  0.032960852  0.033282729            4 
 1469000    1.0298389   -6.4142025    580.51438  0.032931381  0.033273469            3 
 1470000   0.99082502   -6.3889683     581.7619  0.032979699  0.033264305            3 
 1471000    1.0098109   -6.4198423    581.97127  0.032969141  0.033255165            2 
 1472000   0.99415196   -6.4310096    581.07308  0.032895894  0.033246082            6 
 1473000    1.0023909   -6.4375966    578.29124  0.032716182  0.033236938            4 
 1474000    1.0217095   -6.4145301    581.66716  0.032884846  0.033227774            5 
 1475000    1.0011494   -6.3827468    582.62691  0.032916775  0.033218735            3 
 1476000   0.98238035   -6.3973206    584.05515   0.03297511  0.033209752            2 
 1477000    1.0359886   -6.4025562    584.25363  0.032963982  0.033200904            7 
 1478000    1.0086776   -6.4095078    584.23715  0.032940751  0.033192362            2 
 1479000    1.0058584   -6.4332772    583.94238  0.032901869  0.033183424           11 
 1480000    1.0079263   -6.4464209    585.02534  0.032940616  0.033174412            4 
 1481000    1.0246131   -6.4390176    584.40643  0.032883549  0.033165406            2 
 1482000    1.0230692   -6.4246919    583.84934  0.032830035  0.033156403            2 
 1483000    1.0202136   -6.4246144    584.59159  0.032849606  0.033147428            2 
 1484000    1.0093659    -6.354895    586.78869  0.032950847  0.033138498            1 
 1485000    1.0148551     -6.38209    584.68593  0.032810658  0.033129655            4 
 1486000    1.0253895   -6.3812538    585.82848  0.032852651  0.033120724            3 
 1487000   0.99840139   -6.3966835    585.49541  0.032811893  0.033111782            4 
 1488000    1.0102266   -6.4106832    588.43903  0.032954695  0.033103084            5 
 1489000   0.99874101   -6.3869427    585.72095  0.032780443   0.03309413            5 
 1490000     1.013563   -6.4563584    584.81573  0.032707815  0.033085043            3 
 1491000    1.0340799   -6.4330772    584.67803  0.032678182  0.033075979            5 
 1492000     1.030663   -6.3926122    587.81501  0.032831491  0.033066884            3 
 1493000    1.0156956     -6.42717     586.6414  0.032743994  0.033057938            3 
 1494000    1.0270948   -6.4581327    585.12341  0.032637406  0.033048818            4 
 1495000     1.021335   -6.4218214     586.4282  0.032688305  0.033039592            4 
 1496000    1.0073869   -6.3956036    588.85551  0.032801666  0.033030576            2 
 1497000    1.0058915   -6.3870635    587.27919  0.032692006  0.033021313            5 
 1498000    1.0028153    -6.437328    586.82655  0.032645002  0.033011901            7 
 1499000    1.0028252   -6.4284979    588.69211  0.032726935   0.03300259            3 
 1500000   0.99950005   -6.4549783     586.1022  0.032561233  0.032993313            4 
 1501000    1.0365831   -6.4237759    589.38856  0.032721994  0.032983996            4 
 1502000    1.0270852   -6.4360027    588.78507  0.032666726  0.032974777           11 
 1503000    1.0077977   -6.4423513     588.2256  0.032613972  0.032965542            5 
 1504000     1.006472   -6.4743661    586.88093  0.032517782  0.032956232            5 
 1505000    1.0183566   -6.3946969    591.26233  0.032738778  0.032947068            3 
 1506000   0.98832233   -6.4138688     588.4626  0.032562118  0.032938005            3 
 1507000    1.0287452   -6.3878651    589.94224  0.032622331  0.032928888            2 
 1508000    1.0169485   -6.3915379    590.41377  0.032626756  0.032919549            2 
 1509000    1.0147572    -6.419805    589.96184  0.032580177  0.032910425            2 
 1510000    1.0041596   -6.4404565    590.54773  0.032590934  0.032901224            6 
 1511000    1.0114076   -6.4501132    590.06054  0.032542496  0.032891832            5 
 1512000    1.0016068   -6.4014141    590.36339  0.032537665  0.032882464            1 
 1513000    1.0117629   -6.4228957    591.21901  0.032563285  0.032873043            6 
 1514000   0.99064721   -6.4294525    589.30851   0.03243662  0.032863685            2 
 1515000    1.0180026    -6.464579     590.1057   0.03245906  0.032854305            5 
 1516000   0.99045824   -6.4205445    589.78431  0.032419982  0.032844772            3 
 1517000   0.99913805   -6.4156059    592.72416  0.032560105  0.032835538            3 
 1518000   0.99795368   -6.3889269    594.73344  0.032648959   0.03282646            3 
 1519000    1.0065315    -6.414653    591.86579  0.032470144   0.03281718            2 
 1520000    1.0018959   -6.4054256    591.74166  0.032441977  0.032808108            2 
 1521000    1.0102698   -6.4141322    595.10807  0.032605088  0.032799018            3 
 1522000    1.0154907   -6.4142626    593.80899  0.032512538  0.032789944            3 
 1523000    1.0268766   -6.5023432    590.77102  0.032324963  0.032780657            4 
 1524000     1.017872    -6.386177      594.459  0.032505413  0.032771331            3 
 1525000   0.98702046   -6.4566689     593.0792  0.032408699  0.032762263            5 
 1526000    1.0067184   -6.4858217    593.11864  0.032389615  0.032753183            4 
 1527000    1.0259227   -6.4589706    595.14075  0.032478757  0.032743898            2 
 1528000   0.99393722   -6.4466857    595.42499  0.032473003   0.03273479            9 
 1529000    1.0242053   -6.4660542    593.37913  0.032340262  0.032725676            3 
 1530000    1.0005634   -6.4787366    592.63858   0.03227879  0.032716432            3 
 1531000    1.0018729    -6.435613    594.22007  0.032343788  0.032707216            5 
 1532000   0.96192099   -6.4522059    596.06148  0.032422839  0.032698151            4 
 1533000    1.0217169   -6.4526732    594.47411    0.0323154  0.032688819            4 
 1534000    1.0066368   -6.4411375    595.60639  0.032355845  0.032679453            4 
 1535000     1.010455   -6.4320149    593.64443  0.032228254  0.032670072            4 
 1536000    1.0361424   -6.4292076    595.35917  0.032300302  0.032660817           17 
 1537000    1.0006789   -6.4714185     595.9193  0.032309656  0.032651632            2 
 1538000   0.99890189   -6.4400656    596.32756  0.032310769  0.032642418            3 
 1539000    1.0178304   -6.4564046    594.78021  0.032205989  0.032633028           13 
 1540000    1.0047199   -6.4335401    596.01401   0.03225184  0.032623714            6 
 1541000   0.99201153   -6.4090026    599.53507  0.032421321  0.032614517            2 
 1542000   0.99870691   -6.4429852    597.56276  0.032293707  0.032605308            3 
 1543000    1.0117542   -6.4474967    597.45844  0.032267144  0.032595984            3 
 1544000    1.0187528   -6.4601156    597.66292  0.032257282  0.032586546            2 
 1545000    1.0333035   -6.4709429    597.44957  0.032224896  0.032577127            3 
 1546000   0.99390118   -6.4312299    598.37727  0.032254057  0.032567734            3 
 1547000    1.0045248   -6.4716129    598.40539  0.032234722  0.032558389            5 
 1548000   0.99306952   -6.4686401    597.14503   0.03214605     0.032549            4 
 1549000    1.0160613   -6.4498396    597.56536   0.03214791   0.03253968            3 
 1550000    1.0166027   -6.4571039    599.61879  0.032237569  0.032530466            2 
 1551000   0.98950296   -6.4213266    599.24311  0.032196599  0.032521259            3 
 1552000    0.9882449   -6.4197821     600.7268   0.03225552  0.032512089            4 
 1553000   0.99669415   -6.4242641    599.18624  0.032152084  0.032502943            5 
 1554000    1.0134499   -6.4713727    598.29292   0.03208349  0.032493702            5 
 1555000   0.99813563   -6.4115803     600.6988   0.03219179  0.032484467            2 
 1556000    1.0134861   -6.4622232    600.64893   0.03216843  0.032475292            3 
 1557000   0.98628453   -6.4483834     600.6059  0.032145467  0.032466226            4 
 1558000    1.0029377   -6.4402004    603.48265  0.032278704  0.032457196            3 
 1559000    1.0041148   -6.4257048     602.5871   0.03221013   0.03244824            2 
 1560000   0.98403822   -6.4541011    602.85374  0.032203725  0.032439169            3 
 1561000     1.005884   -6.4739234     602.0887  0.032142254  0.032430102            9 
 1562000    1.0091921   -6.4858883    600.24549   0.03202334  0.032421068            4 
 1563000   0.99276806   -6.4169933    604.56835  0.032233331  0.032412007            4 
 1564000     1.002574    -6.463452    603.31687   0.03214604  0.032402924            2 
 1565000   0.99152273   -6.4599927    602.02589  0.032056757   0.03239367            3 
 1566000    1.0008873   -6.4000084    604.70712  0.032178966  0.032384643            4 
 1567000    1.0204989   -6.4544469    604.12201  0.032127314  0.032375681            4 
 1568000     1.006363   -6.4297528    604.70182  0.032137639  0.032366721            5 
 1569000   0.99270325   -6.4330497    603.29238  0.032042297  0.032357626            6 
 1570000   0.98335514   -6.4895126    605.17498  0.032121814  0.032348648            3 
 1571000    1.0065774   -6.4829228    604.77809  0.032080315  0.032339866            3 
 1572000     1.023122   -6.4746185     603.3916  0.031986408   0.03233082            5 
 1573000    1.0117501     -6.47989    603.71353  0.031983128  0.032321849            6 
 1574000   0.98234175   -6.4760403    604.37383  0.031997767  0.032312842            5 
 1575000    1.0359409   -6.4375137    604.30538   0.03197383  0.032303784            6 
 1576000   0.99836483   -6.4650469    605.15217  0.031998317  0.032294803            4 
 1577000    1.0086606   -6.4524624    606.00797  0.032023249  0.032285807           14 
 1578000    1.0149853   -6.4698425    603.98406  0.031896074  0.032276692            7 
 1579000   0.95980653   -6.4582044    607.63798  0.032068713  0.032267494            4 
 1580000    1.0013697   -6.4509365    607.82791  0.032058434  0.032258517            7 
 1581000    1.0298326   -6.4393583    607.84807  0.032039219    0.0322496            5 
 1582000   0.98872374   -6.4488664    604.62982  0.031849443  0.032240438            4 
 1583000   0.98584152   -6.4705963    605.14233  0.031856303  0.032231322            3 
 1584000   0.99913297   -6.4722548    605.96354  0.031879395  0.032222341            5 
 1585000   0.99921207   -6.4595048    606.65013   0.03189538  0.032213276            7 
 1586000    1.0041832   -6.4739679    607.44126  0.031916838  0.032204127            5 
 1587000   0.99075079   -6.4587591    606.85706   0.03186605  0.032195007            5 
 1588000    0.9887887   -6.4098333     609.7408  0.031997313  0.032186127            3 
 1589000   0.99741696   -6.4708222    606.95962   0.03183132  0.032177208            5 
 1590000   0.98988433   -6.4528099    608.77548  0.031906472  0.032168223            5 
 1591000    1.0232833   -6.4734492    607.12138  0.031799779   0.03215921            3 
 1592000    1.0022072   -6.5018838    607.51638  0.031800481  0.032150015            5 
 1593000    0.9763439   -6.4937987    608.02629  0.031807192  0.032140723            2 
 1594000    1.0153007   -6.4498049    609.16026  0.031846521  0.032131482            9 
 1595000   0.99601972   -6.4320694    611.34035  0.031940457  0.032122445            3 
 1596000    1.0103569   -6.4316596    611.11815  0.031908842  0.032113517            3 
 1597000    1.0045463   -6.4726327    609.42928  0.031800735  0.032104439            4 
 1598000    1.0028103   -6.4641007    609.80211  0.031800277  0.032095378            5 
 1599000   0.97739798   -6.4519796    610.19391  0.031800808  0.032086285            6 
 1600000   0.99314333   -6.4727862    610.18005  0.031780211  0.032077281            3 
 1601000   0.99505951   -6.4552056    610.05357  0.031753777  0.032068173            3 
 1602000   0.97842486   -6.4532128    611.30754  0.031799186  0.032059103            3 
 1603000   0.98929928   -6.4739929    609.54573  0.031687759  0.032049818            4 
 1604000   0.97995683   -6.4757191    609.27639   0.03165401  0.032040592            4 
 1605000   0.98640736   -6.4691961    611.10518  0.031729241  0.032031305            3 
 1606000   0.99533505   -6.4589662    611.05749   0.03170701  0.032021947            4 
 1607000   0.98992712   -6.4309495    613.02309  0.031789208  0.032012742            6 
 1608000   0.99418488   -6.4763943    610.78573  0.031653489  0.032003569            3 
 1609000   0.99583994   -6.4854839    609.23482  0.031553492  0.031994194            3 
 1610000   0.98019441   -6.5048903    610.67286  0.031608326  0.031984871            6 
 1611000    1.0040336   -6.4708076    612.21146  0.031668294  0.031975474            9 
 1612000     1.005786   -6.4804432     611.6954   0.03162197  0.031966152            6 
 1613000   0.96951135   -6.4850402    612.00515  0.031618369  0.031956857            4 
 1614000   0.98868318   -6.4851961    612.31197   0.03161462  0.031947609            3 
 1615000   0.97565942    -6.439292     613.4596  0.031654262  0.031938284           10 
 1616000    1.0034261   -6.4969797    612.58267  0.031589453  0.031929154            2 
 1617000    1.0010529   -6.4600966    614.67574  0.031677785  0.031920103            5 
 1618000    1.0207263   -6.5032098    611.76763  0.031508427  0.031911051            2 
 1619000   0.99476953   -6.4767948    614.79819  0.031644955  0.031901881            4 
 1620000   0.97562981   -6.4796102    614.17379  0.031593302  0.031892814            3 
 1621000    0.9898646   -6.4974562    614.55271  0.031593292  0.031883718            6 
 1622000   0.99547472   -6.4785011    615.43051  0.031618913  0.031874677            2 
 1623000   0.96856175   -6.4609985    615.63144  0.031609747  0.031865554            5 
 1624000   0.97860283   -6.4728504    614.78287   0.03154674  0.031856352            4 
 1625000   0.99280446   -6.4910367    614.63171  0.031519575  0.031847185            4 
 1626000    1.0152452   -6.4686162    615.10523  0.031524458  0.031838004            4 
 1627000   0.99330908   -6.4855054    616.21166  0.031561753   0.03182882            4 
 1628000   0.99354641   -6.4895186    616.32176  0.031548001  0.031819681            5 
 1629000    1.0232798   -6.5267372    615.59263  0.031491336  0.031810583            3 
 1630000   0.99810767   -6.4654533     616.7284  0.031530082    0.0318014            3 
 1631000   0.98920663    -6.482413    615.40734  0.031443253  0.031792391            3 
 1632000   0.97778443   -6.4317336    619.26028  0.031620725  0.031783457            5 
 1633000    1.0065348   -6.4576934    616.52419  0.031461737  0.031774619            5 
 1634000   0.98752982   -6.4892051    618.21886   0.03152891  0.031765563            6 
 1635000   0.98217643   -6.4895188    616.56769  0.031425468  0.031756463            2 
 1636000   0.97927749    -6.464422    617.86798  0.031472493  0.031747255            5 
 1637000   0.97099471   -6.4781859    616.56459  0.031386916  0.031738116            6 
 1638000   0.99673316   -6.5177187    617.78385  0.031429785  0.031728965            5 
 1639000    1.0017694   -6.5019079    617.24462  0.031383192  0.031719859            2 
 1640000   0.99146676   -6.4598511    621.45778  0.031578139  0.031710823            3 
 1641000   0.99417609   -6.4808611    619.60416  0.031464765  0.031701887            5 
 1642000    0.9877038   -6.4824775    618.93509  0.031411647   0.03169288            7 
 1643000   0.99061607   -6.4636187    619.78267  0.031435518    0.0316839            3 
 1644000    1.0063503   -6.4753746    620.44743  0.031450093  0.031674939            8 
 1645000    0.9917561   -6.4764921    619.70802  0.031393517  0.031665837            4 
 1646000   0.97469753   -6.4728291    619.87689  0.031382994  0.031656818            3 
 1647000   0.99498539    -6.445234    621.63147  0.031452716  0.031647801            9 
 1648000   0.98273447   -6.4438841    622.99481  0.031502569  0.031638902            8 
 1649000   0.97524123   -6.4822467    623.07526  0.031487531  0.031630057           10 
 1650000   0.98350191   -6.4628589    622.33317  0.031430968  0.031621176            3 
 1651000   0.99698957   -6.4533562    623.60474  0.031476113  0.031612391            5 
 1652000   0.97475272   -6.4775127    622.44312  0.031398462  0.031603434            6 
 1653000    1.0012299   -6.4832512    622.37067  0.031375815  0.031594579            6 
 1654000   0.97649437   -6.4605458    622.36369  0.031356494  0.031585665            4 
 1655000   0.99049432   -6.4881223    622.54114  0.031346483  0.031576777            7 
 1656000   0.99502309   -6.4979965    622.31361  0.031316104  0.031567992            6 
 1657000   0.97523254   -6.4680128    624.08044  0.031386061  0.031559249            5 
 1658000   0.98904431   -6.4835884    622.84062  0.031304816  0.031550393            9 
 1659000   0.97003194   -6.5394421    620.47427  0.031167082  0.031541347            3 
 1660000   0.98279974   -6.4940337    623.40858  0.031295611  0.031532284            5 
 1661000   0.97672001   -6.5270838    622.65421  0.031238923  0.031523266            6 
 1662000    0.9773515   -6.4830918    624.21502  0.031298386  0.031514151            6 
 1663000   0.98736595   -6.5166593    622.75218  0.031206263  0.031505021            5 
 1664000    1.0028459   -6.5456526    623.12603  0.031206232  0.031495974            4 
 1665000   0.99286013   -6.4924357    625.38204  0.031300402  0.031487095            3 
 1666000    0.9743518   -6.4808744    625.51873  0.031288452  0.031478171            8 
 1667000   0.96866372   -6.5120768    625.27153  0.031257325  0.031469254            7 
 1668000   0.96149606   -6.5117162    624.97259   0.03122365  0.031460248           11 
 1669000   0.96676776   -6.5090812    626.59842   0.03128612  0.031451314            5 
 1670000   0.98315348   -6.5016229    624.57302  0.031166318  0.031442412            4 
 1671000   0.98464239   -6.5271508    626.07472  0.031222558  0.031433474            3 
 1672000   0.96193225   -6.5014748    627.75018  0.031287389  0.031424728            3 
 1673000   0.98086088   -6.4876961    627.35358  0.031248933  0.031416051            5 
 1674000     0.966531   -6.5111463    626.23657   0.03117466  0.031407365            4 
 1675000   0.97126015   -6.4925772    626.75232  0.031181707  0.031398625            7 
 1676000   0.99540735   -6.5110104    627.66331  0.031208398  0.031389875            2 
 1677000   0.98689863   -6.4654208    627.60634  0.031186958  0.031381078            5 
 1678000   0.97343326   -6.4893535     630.7233  0.031323168   0.03137226            5 
 1679000   0.99035018   -6.5265818    626.47608  0.031093711  0.031363413            2 
 1680000   0.96919269    -6.489748    627.03946  0.031103148  0.031354638            6 
 1681000   0.99196695   -6.5146796    626.49359  0.031057584   0.03134568            4 
 1682000   0.99257526   -6.5078504    628.66147  0.031146525  0.031336687            6 
 1683000    0.9773582   -6.4854542    630.35937   0.03121209  0.031327877            3 
 1684000   0.98831789    -6.518784    627.91032  0.031072363  0.031319106            6 
 1685000    0.9876039   -6.5095497    631.25351  0.031219264   0.03131008            7 
 1686000   0.99379267   -6.5005541    628.78801  0.031078885  0.031301126            3 
 1687000     0.989231    -6.527687    627.00319  0.030972297  0.031292312            6 
 1688000   0.98731729   -6.4709714     631.1689  0.031159602  0.031283469            5 
 1689000    1.0024968    -6.516652    629.63161  0.031065306  0.031274638            6 
 1690000   0.98755041   -6.5085061    630.30404  0.031080081   0.03126585            6 
 1691000   0.98118635   -6.5280364     629.9485   0.03104418  0.031257209            9 
 1692000    0.9759343   -6.4883528    631.26127  0.031090488  0.031248471            3 
 1693000    0.9730864   -6.4971055    632.75224  0.031145513  0.031239876            3 
 1694000    0.9695485   -6.5196667    630.15546  0.030999383  0.031231309            9 
 1695000   0.97256609   -6.4829501    633.42907  0.031142039  0.031222675            5 
 1696000   0.99938192   -6.4896162    632.57625  0.031081773  0.031214068            2 
 1697000   0.97132577   -6.5224517    632.62651  0.031065926  0.031205448            5 
 1698000   0.97135473   -6.5216508    632.67042  0.031049785  0.031196867            9 
 1699000   0.95145849   -6.5296056    632.08987  0.031003035  0.031188191            5 
 1700000   0.97897879   -6.5548251    631.83839   0.03097247  0.031179351            4 
 1701000   0.97353182   -6.5006382    633.94182   0.03105731  0.031170653            5 
 1702000    0.9807017   -6.4687724    634.09842   0.03104673  0.031162074            3 
 1703000   0.96073128    -6.506236    631.86801  0.030919358  0.031153562            3 
 1704000   0.98114408   -6.4852778    634.62949  0.031036262  0.031144823            3 
 1705000   0.98221553   -6.4957829     634.1516  0.030994702  0.031136379            6 
 1706000   0.97259158   -6.5291857    633.65332  0.030952194  0.031127742            8 
 1707000   0.97555766    -6.521837    634.33828  0.030967501  0.031119172            2 
 1708000   0.97796711    -6.490401    635.65572  0.031013648  0.031110582            4 
 1709000   0.96120288   -6.4915958    635.46849  0.030986371  0.031102069            4 
 1710000   0.98231299   -6.5122303     635.2454  0.030957378  0.031093472            7 
 1711000    0.9672411   -6.4895977    634.62503   0.03090907  0.031084832            4 
 1712000   0.97903081   -6.4836722    634.64099  0.030891793  0.031076257            3 
 1713000   0.94971509   -6.5214071    634.45794  0.030864854  0.031067478            5 
 1714000   0.97107311   -6.4820633     637.4603  0.030992819  0.031058721            2 
 1715000   0.98436637   -6.4854515    635.44831  0.030876983  0.031050061            3 
 1716000   0.96481987     -6.53175    634.24796  0.030800697  0.031041324            3 
 1717000   0.95988849   -6.5335683    634.60676  0.030800173  0.031032417            5 
 1718000    0.9914691   -6.5164518    635.81541  0.030840872  0.031023586            5 
 1719000   0.97791642   -6.4634279    638.27942   0.03094238  0.031014871            4 
 1720000   0.97933614   -6.4989182    635.66595  0.030797769  0.031006323            6 
 1721000   0.97980264   -6.5142813    636.94195   0.03084166  0.030997739            7 
 1722000   0.97671308    -6.507029    639.33663  0.030939636  0.030989111            5 
 1723000   0.97532085   -6.5430933    639.07579  0.030909063  0.030980568            5 
 1724000   0.96481238   -6.5189372    638.26092  0.030851746  0.030972166            9 
 1725000   0.96202767   -6.4985726    639.37278  0.030887574  0.030963739            4 
 1726000    0.9866387   -6.4874845    640.10698  0.030905126  0.030955164            6 
 1727000   0.98308966   -6.4874953    641.93358   0.03097537   0.03094663            4 
 1728000   0.96097045   -6.5662711    638.12923  0.030773979  0.030938083            5 
 1729000   0.97606726   -6.5426901    638.34168   0.03076642  0.030929363            4 
 1730000   0.97704388   -6.5454696    641.50878  0.030901194  0.030920723            4 
 1731000   0.96000244   -6.5121938     641.5585  0.030885735  0.030912265            8 
 1732000   0.98206063   -6.5325835    640.85643  0.030834124  0.030903726            4 
 1733000   0.98434349   -6.5129946    642.45457   0.03089318  0.030895272            2 
 1734000   0.98880801   -6.5425442    641.34883  0.030822224  0.030886859            3 
 1735000   0.95743573   -6.5343542    640.93344  0.030784507  0.030878476            4 
 1736000    0.9796904   -6.5131844    642.03774  0.030819784  0.030870136            5 
 1737000   0.99327486   -6.5379069    641.52121   0.03077726  0.030861743            5 
 1738000   0.96256164   -6.5225196    640.54948  0.030712959  0.030853307            4 
 1739000   0.99369916   -6.5240034    642.65452  0.030796172  0.030844764            9 
 1740000   0.97894176   -6.5599701    643.33113  0.030810878  0.030836493            4 
 1741000   0.97649967   -6.4994412    644.20952  0.030835225  0.030827985            3 
 1742000   0.96444735   -6.5333228    643.66799  0.030791618   0.03081965            4 
 1743000   0.96512752   -6.5454809     641.3871  0.030664902  0.030811067            5 
 1744000   0.97814136   -6.5523695    642.84177  0.030716828  0.030802508            5 
 1745000   0.96966359   -6.5389781    643.16081  0.030714461  0.030793895            4 
 1746000   0.98418203   -6.5443225    642.47283  0.030664034  0.030785358           11 
 1747000   0.96053574   -6.5592833     642.1976  0.030633353  0.030776819            3 
 1748000   0.95876541   -6.5354057    642.53502  0.030631913  0.030768245            3 
 1749000   0.97637025   -6.4945024    645.66554  0.030763557  0.030759853            4 
 1750000   0.98275993   -6.5192982    645.08081  0.030718134  0.030751509            6 
 1751000   0.95511631   -6.4959331    644.24233  0.030660686  0.030743244            6 
 1752000   0.97113727   -6.5636114    643.17632  0.030592481  0.030734798           16 
 1753000   0.98329764   -6.5642746    643.66078   0.03059806  0.030726447            6 
 1754000   0.96931931   -6.5220449     645.6704  0.030676093  0.030717831            4 
 1755000   0.97116189   -6.5362788    645.06134  0.030629693  0.030709388            4 
 1756000   0.96607341   -6.5455097    644.30473  0.030576344  0.030700912            6 
 1757000   0.97954002    -6.538067     641.7465  0.030437607  0.030692538            7 
 1758000   0.96876415   -6.5480525    643.21266  0.030489792  0.030683946            5 
 1759000    0.9462178   -6.5840558    642.70531  0.030448423  0.030675273            4 
 1760000    0.9716603   -6.5560984    644.98273  0.030538955  0.030666522            7 
 1761000   0.95983954   -6.5619833    643.65772  0.030458912  0.030657824            5 
 1762000   0.96603207   -6.4926912    647.75542  0.030635425  0.030649258            4 
 1763000    0.9585163   -6.5236567    646.47432  0.030557493  0.030640692            6 
 1764000   0.95977894   -6.5326425    644.95148   0.03046823  0.030632101            8 
 1765000   0.97941057   -6.5531187    646.19848  0.030509843  0.030623504            5 
 1766000   0.98140373   -6.5629336    644.89442  0.030431031  0.030614777            6 
 1767000     1.002672   -6.5649008    645.73982  0.030453679  0.030606106            4 
 1768000   0.98440265   -6.5539762    645.86484  0.030442347  0.030597439            8 
 1769000   0.97018187   -6.5204533    645.49681  0.030407802  0.030588749            3 
 1770000   0.95746442   -6.5561749    646.33476  0.030430074   0.03058007            4 
 1771000   0.94942102   -6.5895411    646.85595  0.030437416  0.030571399            7 
 1772000   0.96361228   -6.5779259    644.31042  0.030300527   0.03056272            3 
 1773000   0.98930055   -6.5205041    647.96263  0.030455096  0.030554091            5 
 1774000   0.94900021   -6.5675156    647.65365  0.030423415  0.030545446            6 
 1775000   0.98509514   -6.5696934    647.87471  0.030416653  0.030536788            4 
 1776000    0.9482996    -6.555807    647.10943  0.030363618   0.03052809            3 
 1777000   0.98510244   -6.5501527    648.14251  0.030394978  0.030519326            3 
 1778000   0.98083222   -6.5421702    647.63579  0.030354133  0.030510691            3 
 1779000   0.96255543   -6.5597071    648.62194  0.030383265  0.030502059            5 
 1780000   0.96369391   -6.5812871    648.78601  0.030373877  0.030493459            7 
 1781000   0.98011501   -6.5477924    648.64492  0.030350221  0.030484627            3 
 1782000   0.95129973   -6.5578092    648.15974    0.0303105  0.030475906            6 
 1783000   0.97878333   -6.5628784    647.85181  0.030279109  0.030467246           11 
 1784000   0.96241372   -6.5121627     649.5753  0.030342643  0.030458655            2 
 1785000   0.97411681   -6.5454231    648.81433  0.030290118  0.030450057            2 
 1786000   0.96726489   -6.5421189    649.12538  0.030287672   0.03044143            5 
 1787000   0.95664216     -6.56091    648.54148  0.030243494  0.030432778            8 
 1788000   0.94936831   -6.5543899    648.84114  0.030240545  0.030424103            4 
 1789000   0.95593731   -6.5662664    651.56888  0.030350703  0.030415405           10 
 1790000   0.95555407    -6.521621    649.67265  0.030245468  0.030406807            3 
 1791000   0.96544254   -6.5739427    650.77549  0.030279895  0.030398166            4 
 1792000   0.96682114   -6.5596504    649.01362  0.030181065  0.030389508            6 
 1793000   0.98020606   -6.5302987    650.57831  0.030236954  0.030380899            8 
 1794000   0.97956958   -6.5801867    648.44287  0.030120906  0.030372281            6 
 1795000   0.96459754   -6.5636531    650.97731  0.030221788  0.030363581            4 
 1796000   0.95450414   -6.5194183    652.14038  0.030258926   0.03035498            4 
 1797000   0.97316183   -6.5705725    652.77529  0.030271531   0.03034648            6 
 1798000   0.98145506   -6.5394871    653.47055  0.030286918  0.030337968            5 
 1799000   0.95449958   -6.5457769    653.40686  0.030267132   0.03032945           12 
 1800000    0.9335405   -6.5150809    652.86813  0.030225377  0.030320941            5 
 1801000   0.95982176   -6.5345973    652.58575  0.030195528  0.030312587            3 
 1802000   0.96772369   -6.5557265    652.89032  0.030192856  0.030304039            7 
 1803000   0.98293508   -6.5590582    654.48712  0.030249913  0.030295476            9 
 1804000   0.96073346   -6.5446092    653.50348  0.030187707  0.030286947            4 
 1805000   0.96482087   -6.5274178    655.14508  0.030246772  0.030278354            5 
 1806000   0.97043731   -6.5114232    652.79134  0.030121416  0.030269828            4 
 1807000   0.96312998   -6.5699142    652.41142  0.030087227  0.030261111            7 
 1808000   0.97221235   -6.5837314    652.79216  0.030088134  0.030252285            4 
 1809000   0.97022183   -6.5727467    651.66017  0.030019355  0.030243571            3 
 1810000   0.97946103   -6.5334168     655.0221  0.030157555  0.030234855            3 
 1811000   0.96452904   -6.5450269    653.42361  0.030067348  0.030226223            4 
 1812000   0.97508771   -6.5514144    655.33893   0.03013884  0.030217689           10 
 1813000   0.96927214    -6.537019    655.20354  0.030115993   0.03020905            3 
 1814000   0.95138186   -6.5506274    653.60747  0.030026069  0.030200408            6 
 1815000    0.9534008   -6.5301555    657.35968  0.030181803  0.030191846            2 
 1816000    0.9747538   -6.5625029    653.65247  0.029995066  0.030183108            6 
 1817000   0.96639974   -6.5776464    653.18723   0.02995722  0.030174556            3 
 1818000   0.96615129   -6.5384187    654.21183  0.029987708  0.030165868            6 
 1819000   0.95783508    -6.529215    656.76937   0.03008839   0.03015727            6 
 1820000   0.96382895   -6.5401531     657.9452  0.030125696  0.030148771            5 
 1821000    0.9570651   -6.5769378    655.26789  0.029986632  0.030140377            3 
 1822000   0.97819809   -6.5598474    657.68437  0.030080697  0.030131999            4 
 1823000   0.95144284   -6.5727675     655.8922  0.029982273   0.03012355            3 
 1824000   0.96389143   -6.5587588    659.32216   0.03012254  0.030114997            3 
 1825000   0.94961946   -6.5331097    658.44163  0.030065828  0.030106496            2 
 1826000   0.93518628   -6.5837272    656.81263   0.02997502  0.030098077            4 
 1827000   0.95306568   -6.5468915    657.50851  0.029990353  0.030089582            4 
 1828000   0.96253186   -6.5619027    658.70995  0.030028718  0.030081272            4 
 1829000   0.94806164   -6.5839561    655.48735  0.029865471  0.030072779            5 
 1830000   0.94925543   -6.5832098    659.08296  0.030012885  0.030064372            4 
 1831000   0.95857977   -6.5768179    658.77551  0.029982501  0.030055965            4 
 1832000   0.95306652   -6.5570318      659.807  0.030013055  0.030047656            3 
 1833000   0.96862178   -6.5620773    659.60039  0.029987288  0.030039251            4 
 1834000   0.96293775    -6.591495    660.83642    0.0300271  0.030030898            5 
 1835000   0.94529779   -6.5848321    660.46138  0.029993705  0.030022628            4 
 1836000   0.95552287   -6.5326673    662.60304  0.030074575  0.030014509            2 
 1837000   0.95410747   -6.5799155    661.50131  0.030008225  0.030006441            6 
 1838000   0.95082688   -6.5422855    660.22156  0.029933876  0.029998267            6 
 1839000   0.96307069   -6.5792208    660.51402  0.029930851  0.029990102           10 
 1840000   0.94808018   -6.5752059    661.23103  0.029947058  0.029981942            4 
 1841000   0.96915885   -6.5511864     663.7412  0.030044414   0.02997361            7 
 1842000   0.95783189   -6.5896927    662.44088  0.029969276  0.029965467            5 
 1843000   0.93769665   -6.5311613    662.64431  0.029962213   0.02995716            3 
 1844000   0.97628714   -6.5643069    662.81714  0.029953775  0.029948896            5 
 1845000   0.95967639   -6.5531086    662.07365  0.029903959  0.029940583            9 
 1846000    0.9455698   -6.5745445    663.15285  0.029936478  0.029932267            4 
 1847000    0.9646657   -6.6090148    661.12236  0.029828657  0.029923957            8 
 1848000   0.94064231   -6.5734537     662.0632  0.029854942   0.02991558            3 
 1849000    0.9529934   -6.5876184     661.5184  0.029814242  0.029907378            6 
 1850000   0.96359224   -6.5814611     662.4694  0.029840964  0.029899193            4 
 1851000   0.96974989   -6.5949426    664.54469  0.029918273  0.029890944            3 
 1852000   0.94124056   -6.5670499    666.31206  0.029981644  0.029882536            6 
 1853000   0.95480919   -6.5053347     666.6309  0.029979803   0.02987433            3 
 1854000   0.94871657   -6.5447913    664.57636  0.029871285    0.0298661            6 
 1855000   0.96520242   -6.5445187    665.07347  0.029877515  0.029857848            3 
 1856000   0.95469116   -6.5830861    667.03316  0.029949406  0.029849645            6 
 1857000   0.96199497   -6.6282997    663.16123  0.029759524  0.029841336            4 
 1858000   0.96279198   -6.5867565     663.8363  0.029773784  0.029832998            9 
 1859000    0.9638775   -6.5886634    664.21898  0.029774923  0.029824675            4 
 1860000   0.96587889   -6.6150715    665.07043  0.029797062  0.029816439            4 
 1861000   0.95105895   -6.5871289     662.8047  0.029679594  0.029808138            2 
 1862000   0.98104242   -6.5671217    665.96797  0.029805226   0.02979984            2 
 1863000   0.95776847    -6.544774    666.67918   0.02982104  0.029791623            4 
 1864000   0.94551872   -6.5543138    664.88135  0.029724667  0.029783237            8 
 1865000   0.96447978   -6.5764204     665.5418   0.02973824  0.029774954            3 
 1866000   0.96688135   -6.5610722    666.78977  0.029778036  0.029766677            9 
 1867000   0.95397692    -6.534976    666.67998  0.029757185  0.029758499            4 
 1868000    0.9311677   -6.5540004    669.35993   0.02986081  0.029750329            4 
 1869000   0.93913566   -6.5590175    667.74037  0.029772622  0.029742186            4 
 1870000   0.93764372   -6.6117156    666.97604   0.02972264  0.029734003            3 
 1871000   0.96040607   -6.5847949    667.67506  0.029737888  0.029725774            5 
 1872000   0.94318289   -6.5773539    667.92678  0.029733208  0.029717548            4 
 1873000     0.946053   -6.5792652    668.36014  0.029736614   0.02970938           11 
 1874000   0.96951579   -6.5507739    669.66514  0.029778777   0.02970129            3 
 1875000   0.96635501   -6.5647689    670.57874    0.0298035  0.029693184            5 
 1876000   0.94729334   -6.5689551    669.54882  0.029741863  0.029685144            5 
 1877000   0.95592639   -6.6197493    669.50301  0.029723984  0.029676979            5 
 1878000    0.9679367   -6.5551024    669.14349  0.029692203  0.029668831            4 
 1879000   0.95655747   -6.6082944    669.31699  0.029684095  0.029660622            5 
 1880000   0.93086218   -6.5585471    669.65346  0.029683221  0.029652467            6 
 1881000   0.95337672   -6.5422402     671.0595  0.029729732   0.02964443            6 
 1882000   0.96263865   -6.5844665    669.85252   0.02966049  0.029636348            3 
 1883000   0.97325795   -6.5742147    669.44491    0.0296267  0.029628146            5 
 1884000   0.95232771   -6.6068515    668.73505  0.029579576  0.029619897            3 
 1885000   0.95463071   -6.5837837    669.24578  0.029586463  0.029611459            7 
 1886000   0.93834245   -6.6243909    667.77777  0.029505911  0.029603032            4 
 1887000   0.97206702   -6.5814363    669.24311  0.029554986   0.02959464            8 
 1888000   0.96711489   -6.5759058    671.78437    0.0296515  0.029586479            5 
 1889000   0.93857952   -6.5924966    669.45515  0.029533049  0.029578331            3 
 1890000   0.94152696   -6.5622499    671.14905   0.02959211  0.029570086            4 
 1891000    0.9614997   -6.5974891    670.40275  0.029543572  0.029561859            7 
 1892000   0.92867023    -6.598116    671.02874  0.029555529  0.029553681            5 
 1893000   0.94489702   -6.5669685    671.49774  0.029560563  0.029545435            3 
 1894000   0.94115911   -6.5993637    671.20457  0.029532056  0.029537189            4 
 1895000    0.9379915   -6.6055008    671.08784  0.029511339  0.029528834            6 
 1896000   0.92623292   -6.6201291    670.15965  0.029454978  0.029520505            6 
 1897000   0.94406081   -6.5763466    671.26356  0.029487944  0.029512185            9 
 1898000   0.91836003    -6.560183    672.85633   0.02954234  0.029504034            8 
 1899000    0.9581507   -6.5691413    672.65758  0.029518061  0.029495876            2 
 1900000   0.94403605   -6.5895263    671.84969  0.029467092  0.029487693            7 
 1901000    0.9171875   -6.5851481    673.54707  0.029525998   0.02947945            5 
 1902000   0.94956947   -6.5920564    674.65562  0.029559044  0.029471367            4 
 1903000   0.95040437   -6.5683082    674.33015  0.029529259  0.029463167            3 
 1904000   0.94348802   -6.5828553    672.99461  0.029455296  0.029455057            3 
 1905000   0.94463852   -6.6095458    672.23651  0.029406671  0.029446898            3 
 1906000   0.91948096   -6.6469403    672.84529   0.02941786  0.029438583           11 
 1907000   0.96016414   -6.5604837    672.73281  0.029397518  0.029430293            5 
 1908000   0.95854238   -6.5992558    673.27587  0.029405829  0.029422031            3 
 1909000   0.95130011   -6.6231778    673.61072  0.029405043  0.029413782            8 
 1910000   0.93931722   -6.6157983     673.4107  0.029380921   0.02940545            5 
 1911000   0.96232584   -6.5469874    676.68107  0.029508158  0.029397192            2 
 1912000   0.93427398    -6.595899    674.51137  0.029398159  0.029389085            4 
 1913000   0.94134715   -6.6322524    673.30084  0.029330059  0.029380861            5 
 1914000   0.94829793   -6.6083075    674.07649  0.029348506  0.029372523            6 
 1915000   0.94396133   -6.5856567    676.07167  0.029420003  0.029364269            3 
 1916000   0.95105034   -6.6026227    675.26234  0.029369448  0.029355998            4 
 1917000   0.94278861    -6.548041    676.82624  0.029422111  0.029347925            4 
 1918000    0.9388652   -6.6233084    676.48917  0.029392126  0.029339883            9 
 1919000   0.94757992   -6.5865067    678.01735  0.029443171  0.029331668            4 
 1920000    0.9426977   -6.5903783    677.30702  0.029397006   0.02932357            4 
 1921000   0.96647392   -6.5828822    679.02887  0.029456397   0.02931554            7 
 1922000   0.93848142   -6.5732218    679.76558  0.029473013  0.029307543            7 
 1923000   0.93017069   -6.5754492    678.48915  0.029402372  0.029299572            3 
 1924000   0.93077853   -6.6165447    675.81582  0.029271302  0.029291491            7 
 1925000   0.95119417   -6.6172659    674.73343   0.02920924  0.029283269            4 
 1926000   0.93987668   -6.6302869    678.09537  0.029339537  0.029275182            4 
 1927000   0.95740316   -6.5838096     676.9439  0.029274515   0.02926694            4 
 1928000   0.94922145   -6.6215327    677.18152  0.029269602  0.029258771            1 
 1929000   0.91899053   -6.5815049    676.90201  0.029242354  0.029250619            6 
 1930000   0.92813393    -6.573782    678.97401  0.029316667  0.029242302           13 
 1931000   0.94567805   -6.6279187    676.34716  0.029188122  0.029234053            9 
 1932000   0.96590645    -6.600544    678.28669  0.029256672  0.029225833            8 
 1933000   0.93285192   -6.5970765    679.00581  0.029272539  0.029217687            7 
 1934000   0.95666427   -6.6303957    676.04664  0.029129897  0.029209482            6 
 1935000   0.93498136   -6.6169648    678.14673  0.029205286  0.029201175            8 
 1936000   0.93865123    -6.614128    677.58809  0.029166154  0.029192844            8 
 1937000   0.94500576   -6.6234604    677.32533  0.029139792  0.029184554           10 
 1938000   0.93589532   -6.6083424    676.96858  0.029109416  0.029176279            5 
 1939000    0.9461716   -6.5775631    678.58364  0.029163815  0.029167901           14 
 1940000   0.93549125   -6.6264758    676.39769  0.029054884  0.029159491            4 
 1941000   0.91527427   -6.5712805    680.65882  0.029222859  0.029151163            4 
 1942000   0.93834947   -6.6039172    675.93474  0.029005095  0.029142766            4 
 1943000   0.94407046   -6.5971237    677.89483  0.029074233   0.02913426            5 
 1944000   0.93384892   -6.6354308    677.14618  0.029027185  0.029125722            5 
 1945000   0.92847062   -6.6155869     678.7835  0.029082412  0.029117218            3 
 1946000    0.9077265   -6.6495971    676.31057   0.02896157  0.029108677            6 
 1947000   0.92488357    -6.589541    676.81176  0.028968146  0.029100109            6 
 1948000    0.9371536    -6.615527    678.51055  0.029025947  0.029091607            5 
 1949000   0.94885051   -6.6232738      676.748  0.028935694  0.029083144            5 
 1950000   0.94197048     -6.64223    678.15657   0.02898105  0.029074672            3 
 1951000   0.94414499   -6.6405245    677.92805  0.028956435  0.029066038            3 
 1952000   0.93695327   -6.6163808    679.48961  0.029008266  0.029057574            3 
 1953000   0.95565112   -6.6171697     677.6187  0.028913582  0.029049037           11 
 1954000   0.95658668   -6.6048788    679.81994  0.028992662   0.02904062            8 
 1955000   0.94027974   -6.6314452    678.74856  0.028932164  0.029032168            6 
 1956000   0.95071179   -6.5855917    682.00783   0.02905623  0.029023827            2 
 1957000   0.93307801   -6.6000587    681.76788  0.029031165  0.029015518            8 
 1958000   0.94155752   -6.5981526    679.60997  0.028924497  0.029007162            3 
 1959000   0.94859233   -6.6580728    677.94859  0.028839059  0.028998854            4 
 1960000   0.92976575     -6.66992    679.00435  0.028869233  0.028990298            4 
 1961000   0.94897342   -6.6193144     679.9013  0.028892627  0.028981713            8 
 1962000    0.9419316   -6.6397938    681.24772  0.028935088  0.028973125            4 
 1963000   0.94635013   -6.6271651    680.08142  0.028870836  0.028964688            5 
 1964000    0.9503903   -6.6686462    679.08368  0.028813802  0.028956191            4 
 1965000   0.93810714   -6.6288445    679.14195  0.028801609   0.02894767            3 
 1966000   0.92960684   -6.6300616    680.51948  0.028845349  0.028939241            4 
 1967000    0.9458054   -6.5862929    682.88821  0.028931037    0.0289308           10 
 1968000   0.93944291   -6.6247579    680.90523  0.028832369  0.028922441            5 
 1969000   0.93147317   -6.6023948    682.86101    0.0289005  0.028914044            5 
 1970000   0.93160934   -6.5811901    682.95853  0.028889955  0.028905715            7 
 1971000   0.94336425    -6.602418    685.54603  0.028984696  0.028897463            4 
 1972000   0.94485387   -6.5999318    684.11435  0.028909498  0.028889189            5 
 1973000   0.95025804   -6.6043572    684.35167  0.028904869  0.028880887            7 
 1974000   0.94775099   -6.6132379    682.16997  0.028798124  0.028872559            8 
 1975000   0.92766944   -6.5981886    682.23288  0.028786198  0.028864194            6 
 1976000   0.91794206   -6.6224113    684.33169  0.028860142  0.028855898            4 
 1977000   0.92086017   -6.5707687    686.50711  0.028937241  0.028847587            9 
 1978000   0.92395936   -6.6016705    685.13088  0.028864631  0.028839332            4 
 1979000   0.95463515   -6.6080077    684.47775  0.028822543  0.028831053            6 
 1980000   0.92474858   -6.6205472    682.79703  0.028737249  0.028822532            5 
 1981000   0.93191774   -6.6212448    683.96817  0.028772008  0.028813994            2 
 1982000   0.93515246   -6.6522441    683.33978   0.02873107  0.028805572            5 
 1983000   0.92194938   -6.6310635    684.13811  0.028750131  0.028797115            4 
 1984000   0.94647806   -6.6475236    683.27849  0.028699533  0.028788749            5 
 1985000   0.92606116   -6.6436469    685.39747  0.028774033  0.028780399            4 
 1986000   0.92417943   -6.6407564    684.32891  0.028714708  0.028771853            4 
 1987000   0.93209616   -6.6397001    683.92068  0.028683135  0.028763392            8 
 1988000   0.95169134   -6.6597375    681.45623  0.028565402  0.028754898            8 
 1989000    0.9340485   -6.6066361     684.0463  0.028659557  0.028746339            5 
 1990000   0.93448475   -6.6081416    685.80458  0.028718785   0.02873791            4 
 1991000   0.94170614   -6.6010394    687.74841   0.02878572  0.028729552            3 
 1992000   0.95412306   -6.6329791    685.72972  0.028686819  0.028721187            6 
 1993000   0.93379213   -6.6532239    684.82361  0.028634538  0.028712715            9 
 1994000   0.93868489   -6.6317442    686.44415  0.028687903  0.028704248            9 
 1995000   0.90995965   -6.6531708    684.10228  0.028575701  0.028695726            6 
 1996000   0.94203658   -6.6580284    685.26719   0.02861002  0.028687189            5 
 1997000   0.93326176   -6.6567239    685.94087  0.028623805  0.028678646            3 
 1998000   0.93592625   -6.6536231    684.09808  0.028532619   0.02867014            4 
 1999000   0.92466355    -6.641452    685.13875  0.028561729  0.028661703            6 
 2000000   0.93572149   -6.6371237    685.66805  0.028569502   0.02865324            4 
 2001000   0.93113813   -6.6036479    685.57918  0.028551523  0.028644793            6 
 2002000   0.91790588   -6.6169965    685.53032  0.028535228  0.028636343            6 
 2003000   0.93973222   -6.6401748    685.29564  0.028511218   0.02862787            8 
 2004000   0.92609503   -6.6298513    687.41916  0.028585294  0.028619493            4 
 2005000   0.95581345   -6.6033573    688.52196  0.028616873   0.02861115            4 
 2006000   0.94114996   -6.6427199    687.32028  0.028552687  0.028602671            5 
 2007000   0.92664136   -6.6090171    688.37428  0.028582224  0.028594214            6 
 2008000   0.93374382   -6.6192021    687.21002  0.028519672   0.02858585            8 
 2009000   0.94404758   -6.6715964    687.61813  0.028522405  0.028577321            4 
 2010000   0.92532006   -6.6326045    687.50255  0.028503422  0.028568843            6 
 2011000   0.95250531   -6.6746174     685.9087  0.028423201  0.028560404           15 
 2012000   0.94603383   -6.6846974    685.83191  0.028405894  0.028551834            8 
 2013000   0.94096517   -6.6523586    688.34921  0.028495993  0.028543288            6 
 2014000   0.92152715   -6.6568303    690.00006  0.028550151   0.02853484            4 
 2015000   0.92471517   -6.6642449     687.0479  0.028413892  0.028526399            6 
 2016000   0.93110686   -6.6768931    686.79581  0.028389377  0.028517937            5 
 2017000   0.92353558   -6.6718054    689.87816  0.028502651  0.028509505            9 
 2018000   0.89769699   -6.6359353    691.74839  0.028565758  0.028501215            4 
 2019000   0.91231299   -6.6133826    691.42157   0.02853812  0.028492908            5 
 2020000   0.91846501   -6.6502038    690.32442   0.02847873  0.028484591            5 
 2021000   0.92801989   -6.6317177    691.43831  0.028510569  0.028476201            6 
 2022000    0.9478035   -6.6884502    687.62665  0.028339377  0.028467847            5 
 2023000   0.94126422   -6.6529616    690.97732  0.028463393  0.028459501            2 
 2024000   0.93865563   -6.6938352    689.51975  0.028389318  0.028451178            5 
 2025000   0.90795034   -6.6188409    691.44268  0.028454431  0.028442946            3 
 2026000   0.92596522   -6.6599299    688.93589  0.028337277  0.028434674            5 
 2027000   0.92978052   -6.6417151    690.82884   0.02840112  0.028426353            9 
 2028000   0.90456654   -6.6741125    689.77847  0.028343954  0.028418012            2 
 2029000    0.9201056   -6.6076727    692.22734  0.028430563  0.028409647            3 
 2030000   0.92848941   -6.6282169     691.4541  0.028384815  0.028401323            7 
 2031000    0.9397819   -6.6431638    691.59702  0.028376704  0.028392901            6 
 2032000   0.92044644   -6.6832764    688.24197  0.028225147  0.028384479            8 
 2033000   0.91330096   -6.6517802    690.96055  0.028322699  0.028376096            5 
 2034000   0.92469934   -6.6466386    691.89027  0.028346864  0.028367635            5 
 2035000   0.92639691   -6.6275292    691.95557  0.028335609   0.02835925            8 
 2036000    0.9225863   -6.6714638    693.31356  0.028377274  0.028350912            8 
 2037000   0.93678003   -6.6612689    692.28832  0.028321401  0.028342495            3 
 2038000   0.91630656   -6.6314085    691.95065  0.028293697    0.0283341           12 
 2039000   0.92747301   -6.6464124    691.20946  0.028249528  0.028325733            7 
 2040000   0.91785906   -6.6445086    693.03533  0.028310267  0.028317285           10 
 2041000   0.93175406   -6.6724248    693.30731  0.028307501  0.028308848            3 
 2042000   0.92717748    -6.650551    692.62804  0.028265917  0.028300494            3 
 2043000    0.9316377   -6.6237476    693.69448  0.028295582    0.0282921            5 
 2044000   0.92325235   -6.6479571    695.13794  0.028340588  0.028283684            6 
 2045000    0.9187894   -6.6498895    693.34636  0.028253723  0.028275257            3 
 2046000   0.93410413   -6.6533167    693.91873  0.028263226  0.028266821            5 
 2047000   0.91794624   -6.6576103    693.80729  0.028244882   0.02825849            8 
 2048000   0.92231783   -6.7099584    691.33584  0.028130527  0.028249941            5 
 2049000   0.90198007   -6.6889935    693.91365  0.028221638  0.028241371            5 
 2050000   0.91348219   -6.6483744     692.5838  0.028153813  0.028232976            3 
 2051000   0.93177732   -6.6519035     692.4583  0.028134987  0.028224532            4 
 2052000    0.9327544   -6.6452118    693.88305  0.028179136    0.0282161            7 
 2053000   0.91314609    -6.652629    692.41324  0.028105749  0.028207698            9 
 2054000   0.90911532   -6.6690583    693.32728   0.02812915  0.028199257            5 
 2055000   0.91839123   -6.6806458    693.58973  0.028126104  0.028190804            9 
 2056000   0.91654379    -6.635335    696.37705  0.028225399  0.028182332            8 
 2057000   0.91223458   -6.6413632    693.02078  0.028075708  0.028173918            6 
 2058000   0.92317951   -6.6484995    693.47803  0.028080581  0.028165467            6 
 2059000   0.93755571   -6.6557918    694.29441  0.028099984  0.028157094            6 
 2060000   0.91387435   -6.6431681    694.73985  0.028104363  0.028148688            5 
 2061000   0.93200872   -6.6636086    694.52639  0.028082096  0.028140324            5 
 2062000   0.92260667   -6.6913719    692.55222  0.027988693   0.02813199            2 
 2063000   0.93706934   -6.6855746     695.0633  0.028076559  0.028123656            4 
 2064000   0.91249592   -6.6454371     696.2454  0.028110683  0.028115331            5 
 2065000   0.90809976   -6.6818436     695.8684  0.028081856  0.028107005            6 
 2066000   0.92601944    -6.624219    697.14349  0.028119695  0.028098612            3 
 2067000    0.9288665   -6.6469809    697.89204   0.02813627  0.028090447            9 
 2068000   0.92469946   -6.6595868    696.10875  0.028050804  0.028082153            5 
 2069000    0.9364145   -6.6419067    696.87993  0.028068307  0.028073855            4 
 2070000   0.90491816   -6.6660579    697.40318  0.028075812  0.028065641            5 
 2071000   0.90110178   -6.6724355    699.66274  0.028153177  0.028057422            8 
 2072000   0.92677407    -6.675128    698.64768  0.028098764   0.02804922            5 
 2073000   0.92999832   -6.6788614    698.28761  0.028070735  0.028041037            5 
 2074000   0.91456683   -6.6822563     697.5684  0.028028303  0.028032844           17 
 2075000   0.91420231   -6.7027539    697.88023  0.028027319    0.0280245            4 
 2076000   0.90497757   -6.6760807    696.52953  0.027959599   0.02801631            5 
 2077000   0.92815186   -6.6688001    699.08378  0.028048619   0.02800812            5 
 2078000   0.91926745   -6.6726289     701.1339  0.028117336  0.027999955            5 
 2079000   0.93517158   -6.6583592    700.79228  0.028090119  0.027991749            6 
 2080000   0.92270634   -6.6451398    699.79996  0.028036857  0.027983602            4 
 2081000   0.89876747   -6.6683449    698.07371  0.027954257  0.027975339            8 
 2082000   0.90126208   -6.6633639     695.9328  0.027855139  0.027967106           12 
 2083000   0.90523262   -6.6723515    699.83913  0.027998045  0.027958779            9 
 2084000   0.92972471   -6.6495975    700.42663  0.028008102  0.027950595            4 
 2085000   0.92111835   -6.6657579    699.89265  0.027973327  0.027942441            6 
 2086000   0.90806366   -6.6983477    700.66591  0.027990808  0.027934333            6 
 2087000   0.92128788   -6.6746124    699.38447  0.027926229  0.027926183           13 
 2088000    0.9060657   -6.6917081    700.54945  0.027959349  0.027917951            4 
 2089000   0.89473003   -6.6349286    700.74189  0.027953642   0.02790979            6 
 2090000   0.90626509    -6.677709    701.56361  0.027973031  0.027901485            5 
 2091000   0.92699651   -6.6418692    702.37738  0.027992084  0.027893316            3 
 2092000   0.94179845   -6.6655688    703.16598  0.028010117  0.027885323            8 
 2093000   0.92860957   -6.6691189    703.49407  0.028009797   0.02787723            8 
 2094000   0.91699868   -6.6616719    702.46921  0.027955636  0.027869083            5 
 2095000   0.92628343   -6.6635279    701.17638  0.027890866  0.027860976            5 
 2096000   0.92306494   -6.6757954    701.04941  0.027872511   0.02785289           11 
 2097000   0.93459526    -6.684406    701.43089  0.027874379  0.027844738            3 
 2098000   0.90646164   -6.6432995    703.13918  0.027928947  0.027836641            5 
 2099000   0.93293058   -6.6951691    702.10897  0.027874741  0.027828539            4 
 2100000   0.93262351   -6.6795614    702.56148  0.027879424  0.027820407            3 
 2101000   0.93363984   -6.6719942    705.31912  0.027975532  0.027812403            9 
 2102000   0.91922811   -6.6529755    702.99914  0.027870248  0.027804358            5 
 2103000    0.9129023   -6.7047092    702.06745  0.027820077  0.027796311            3 
 2104000   0.92611545   -6.6591877    705.93694  0.027960113  0.027788184            7 
 2105000   0.93018041   -6.6972579    704.47137  0.027888811  0.027780106            7 
 2106000   0.89834306   -6.6538933    704.41725  0.027873427  0.027772082            4 
 2107000   0.91676394   -6.6707641    704.82964  0.027876509  0.027764122            5 
 2108000   0.89217195   -6.7161783    704.16443  0.027836987  0.027756131            7 
 2109000   0.90552999   -6.6819861    704.29914  0.027829111    0.0277481           14 
 2110000   0.90894613   -6.7153469    704.40592  0.027820139  0.027740072            6 
 2111000   0.90598867   -6.7025107    703.30985  0.027763692  0.027732124            3 
 2112000   0.90976925   -6.6827136    705.00562  0.027817457   0.02772411            7 
 2113000   0.93113832   -6.6754944    708.35882  0.027936536  0.027716152           10 
 2114000   0.92027075   -6.6630009    706.99554  0.027869581  0.027708186           12 
 2115000   0.93669378   -6.6479135    706.48554   0.02783631  0.027700259            3 
 2116000   0.92328591   -6.6376692    705.41946   0.02778117  0.027692358            3 
 2117000     0.910928   -6.6668273    706.72262  0.027819344  0.027684447            7 
 2118000   0.92635651   -6.6394306     707.7271  0.027845731  0.027676671            8 
 2119000   0.92600038   -6.6650726    708.52079  0.027863803  0.027668869            7 
 2120000   0.90854675   -6.6329068    709.61468  0.027893659   0.02766101            4 
 2121000   0.90034398     -6.66609    707.72137   0.02780612  0.027653192           12 
 2122000   0.91168028   -6.7040123    705.39656  0.027701718  0.027645303           11 
 2123000   0.91694302   -6.6960339    706.63085  0.027737119  0.027637361            6 
 2124000   0.89618516    -6.710457    705.62696  0.027684673  0.027629525            7 
 2125000   0.93326027   -6.6744858    708.57045  0.027787077  0.027621653            5 
 2126000   0.92545353   -6.6665735    708.60182  0.027775236  0.027613745            5 
 2127000   0.91076581   -6.6618993    709.25421  0.027787737  0.027605836            4 
 2128000    0.8994306   -6.6934004    706.59342  0.027670482  0.027597983            6 
 2129000   0.90016439   -6.6795916    710.34766  0.027804433  0.027590091            9 
 2130000   0.91741353   -6.6928105    707.57683  0.027682975   0.02758221            4 
 2131000   0.90855537   -6.6721377    706.79019  0.027639222  0.027574301           14 
 2132000   0.91152113   -6.6853157    709.21062  0.027720865  0.027566373            8 
 2133000   0.90950562   -6.7233233     706.1712  0.027589123  0.027558423            5 
 2134000   0.91818631   -6.6807158    707.91877  0.027644438   0.02755043            7 
 2135000   0.92019479    -6.691835    706.94946  0.027593656  0.027542454           13 
 2136000   0.89141707   -6.6826681    706.93517   0.02758018  0.027534482            4 
 2137000   0.91699627   -6.6993625    707.61203  0.027593668  0.027526508            3 
 2138000   0.91263839   -6.6676898    711.20869   0.02772095  0.027518562            3 
 2139000   0.89538562   -6.6944966    710.82168  0.027692912  0.027510672            4 
 2140000    0.9226542   -6.6531394    710.54818  0.027669322  0.027502797            3 
 2141000   0.89385307   -6.7337371    707.33641  0.027531388  0.027494761            4 
 2142000   0.91070891   -6.6811305    709.73164   0.02761172  0.027486707            3 
 2143000   0.91129575   -6.7106388    709.51687  0.027590484  0.027478716            3 
 2144000   0.92864981   -6.6576662    711.25263   0.02764508  0.027470704            5 
 2145000   0.90768918   -6.6826425    708.86389   0.02753939  0.027462748            5 
 2146000   0.90965977   -6.7091554     708.2214  0.027501608  0.027454695            6 
 2147000   0.90116431   -6.6815012    709.01245  0.027519502  0.027446622            3 
 2148000   0.91775772   -6.7166952    709.02812  0.027507298   0.02743852            2 
 2149000   0.89445285   -6.6974542    709.76551  0.027523092  0.027430502            3 
 2150000   0.90977745   -6.6895961    709.14523  0.027486249   0.02742247            6 
 2151000   0.89624483   -6.7070948    708.97652  0.027466935  0.027414427           14 
 2152000   0.89679247     -6.69662    709.22102  0.027463639  0.027406332            5 
 2153000   0.90218526   -6.7073772     711.3795  0.027534429  0.027398326            5 
 2154000   0.91734125   -6.7306942    708.72249  0.027418852  0.027390234            6 
 2155000    0.9127503   -6.6897341    710.04607  0.027457311  0.027382195            7 
 2156000   0.91426303   -6.6954302     711.1611  0.027487674  0.027374191            5 
 2157000   0.91028096   -6.6647834    711.39508   0.02748397  0.027366253            4 
 2158000   0.90457825   -6.7261448    710.13292  0.027422495  0.027358303            3 
 2159000   0.90178209   -6.6796648    711.90505  0.027478194  0.027350334            7 
 2160000   0.91255942   -6.6802276    711.45859  0.027448248  0.027342361            8 
 2161000   0.89363531   -6.7132807    709.04372  0.027342423  0.027334268            4 
 2162000   0.90374301   -6.7172223    709.87854  0.027361954  0.027326107            5 
 2163000   0.91598001   -6.7267586    709.10259  0.027319409  0.027317956            4 
 2164000   0.90913029   -6.7178706     710.9408  0.027377573  0.027309883            4 
 2165000   0.91931093   -6.6911449    711.94997  0.027403771  0.027301891            9 
 2166000    0.8967062   -6.6982707    711.78637  0.027384825  0.027293868            5 
 2167000   0.90098567   -6.6810973    711.03829   0.02734342  0.027285925            6 
 2168000   0.90795339   -6.6755367    714.41341   0.02746054   0.02727791            8 
 2169000   0.91293349   -6.7044626    712.86013  0.027388202  0.027269857            5 
 2170000   0.89626798   -6.7034391    710.34554  0.027279015  0.027261799            6 
 2171000   0.92421168   -6.7013437    710.59226   0.02727592  0.027253705            4 
 2172000   0.90099831   -6.7153494    711.24574  0.027288434  0.027245586            4 
 2173000   0.90293069    -6.687833    713.95266  0.027379685  0.027237487            6 
 2174000   0.88894946   -6.6727542    715.25071  0.027416847  0.027229452            8 
 2175000   0.86805654   -6.6956077    711.55238  0.027262543  0.027221492            2 
 2176000   0.88243216   -6.7296809    712.63089  0.027291318  0.027213428            8 
 2177000    0.9185267   -6.7111295    712.63583   0.02727897  0.027205379            3 
 2178000   0.91273054    -6.675033    715.16888  0.027363364  0.027197494            5 
 2179000   0.92095628   -6.6918693    713.80509   0.02729865  0.027189498            8 
 2180000   0.87875924   -6.7185731     711.9863  0.027216602  0.027181473            3 
 2181000   0.91614771   -6.6919793    715.95365   0.02735571  0.027173504            6 
 2182000   0.91268786   -6.7301065    713.19008  0.027237629  0.027165541            6 
 2183000   0.90473007   -6.6914001    715.34781  0.027307521  0.027157629            3 
 2184000   0.90702635   -6.6945362    715.93931  0.027317587   0.02714985            3 
 2185000   0.89708836   -6.6740527    713.68027  0.027218927  0.027141998            4 
 2186000   0.88662972    -6.723545    714.18931  0.027225881   0.02713405            8 
 2187000   0.89693061   -6.7029494    717.45487  0.027337863   0.02712616            4 
 2188000   0.91240435   -6.7039618    715.65512  0.027256822  0.027118253            8 
 2189000   0.91460978     -6.71602    714.91361  0.027216142  0.027110327            6 
 2190000   0.90481372    -6.702417    716.41571  0.027260872  0.027102531            4 
 2191000   0.90730897   -6.6970635    714.64168  0.027180955   0.02709469            4 
 2192000   0.90759957   -6.7154707    716.07352   0.02722299   0.02708685            4 
 2193000   0.90013822   -6.7086956    715.32404  0.027182096  0.027079073            5 
 2194000   0.91921505   -6.7045617    714.80288  0.027149912  0.027071203            3 
 2195000   0.90963849   -6.6863639    717.79421  0.027251109  0.027063382            4 
 2196000   0.88948668   -6.6873413    720.06145  0.027324736  0.027055658            5 
 2197000     0.904769   -6.7067475    719.86239  0.027304749  0.027047964            5 
 2198000   0.88834242   -6.6749578    719.21394  0.027267741  0.027040287            4 
 2199000   0.90382914   -6.7257192    717.02808  0.027172506  0.027032598            3 
 2200000   0.91018283    -6.699004    718.71866  0.027224192  0.027024992            6 
 2201000   0.88848018    -6.715185    717.86223  0.027179397  0.027017337            5 
 2202000   0.89465597   -6.7423275    717.81547  0.027165284  0.027009626            4 
 2203000   0.91571655   -6.6906554    719.62257  0.027221311  0.027001945            7 
 2204000   0.90886638   -6.7278025    719.49228  0.027204034  0.026994293            4 
 2205000   0.90598227   -6.6936791    720.44494    0.0272277  0.026986609           11 
 2206000   0.90653321   -6.7088896    721.93126  0.027271504  0.026979036            5 
 2207000   0.89852331   -6.7403205    720.95813  0.027222403  0.026971335            8 
 2208000   0.88241706    -6.718042    721.68269   0.02723742  0.026963652            3 
 2209000   0.89282412   -6.7056553    719.67934  0.027149515  0.026955926            8 
 2210000   0.89819859   -6.6895226    720.81987  0.027180236  0.026948267            8 
 2211000   0.88912173   -6.7557601    718.72362  0.027088935   0.02694062            4 
 2212000   0.90273491   -6.7516219    718.99167  0.027086787  0.026932924           11 
 2213000   0.91389598   -6.7405986    721.29557  0.027161303  0.026925247            6 
 2214000   0.90426302   -6.7558279    720.65037  0.027124751  0.026917516            8 
 2215000   0.86931832    -6.758027    721.28792   0.02713649  0.026909746            7 
 2216000   0.91604051    -6.765472    718.59951  0.027023146  0.026902027            9 
 2217000   0.89460798   -6.7623267    717.60254  0.026973483  0.026894245            6 
 2218000   0.89047641   -6.7419564    720.62395   0.02707484  0.026886483            6 
 2219000   0.90962822   -6.7309198    721.62516  0.027100239  0.026878707            3 
 2220000   0.86849182   -6.7521556    720.33193  0.027039487   0.02687089           10 
 2221000   0.90013037     -6.73141    718.91877   0.02697429  0.026863132            6 
 2222000    0.9102894   -6.7293853    720.17687  0.027009334  0.026855411            7 
 2223000   0.88907151   -6.7638954    719.84705   0.02698482  0.026847598            6 
 2224000   0.90161645   -6.7495506     720.7137   0.02700516  0.026839708            6 
 2225000    0.8947399   -6.7321885    721.56432  0.027024881  0.026831857           10 
 2226000   0.89188778   -6.7605921    721.08514  0.026994802  0.026824053            8 
 2227000   0.88802315    -6.764417    720.66584   0.02696699  0.026816244            7 
 2228000   0.89833828   -6.7520766    720.89716  0.026963538   0.02680844            7 
 2229000   0.90921441   -6.7616768    722.68866  0.027018419  0.026800654            3 
 2230000    0.8908736   -6.7512902    720.79194  0.026935424  0.026792874            8 
 2231000   0.89278392    -6.721795    723.56984  0.027027112  0.026785108            5 
 2232000   0.89261828   -6.7712407     721.3988  0.026933945  0.026777407            6 
 2233000   0.90484206   -6.7403496      721.639  0.026930848   0.02676963            4 
 2234000   0.88634875   -6.7378173    722.65849  0.026956822  0.026761923            6 
 2235000   0.90657027   -6.7319071    722.95351  0.026955761  0.026754229            4 
 2236000   0.89912747   -6.7548678    722.78186  0.026937308  0.026746563            4 
 2237000   0.88773547   -6.7673867    723.23667  0.026942209  0.026738816            8 
 2238000   0.87446472   -6.7584607    722.08901  0.026887437   0.02673104            4 
 2239000   0.88874839   -6.7085993    723.68414  0.026934798   0.02672327            5 
 2240000   0.90823816   -6.7406654    723.64697   0.02692139  0.026715529            9 
 2241000   0.87554009   -6.7219519    723.16117  0.026891312  0.026707853           14 
 2242000   0.88766418   -6.6992157    725.52742   0.02696727  0.026700054            7 
 2243000   0.91424672   -6.7431846    724.20144  0.026905983  0.026692363            5 
 2244000   0.88618095   -6.7442088    727.31974  0.027009794  0.026684672            2 
 2245000   0.88480056   -6.7368637    725.33828  0.026924212  0.026677034            5 
 2246000   0.89596701   -6.7574832    723.80323   0.02685527   0.02666931            8 
 2247000   0.88798436   -6.7449745    726.47903  0.026942554  0.026661601            6 
 2248000   0.87616309   -6.7053535    726.49551   0.02693118  0.026653929            9 
 2249000   0.90180378   -6.7169339    726.14154   0.02690609  0.026646359            8 
 2250000   0.89118925   -6.7375194    724.94367  0.026849766  0.026638784            8 
 2251000    0.8954994   -6.7587986    725.16144    0.0268459  0.026631049            7 
 2252000    0.8735711    -6.727438    725.51303  0.026846989  0.026623373           11 
 2253000   0.88652672   -6.7292435    726.13753  0.026858172  0.026615798            3 
 2254000   0.91552528   -6.7096411    726.87078  0.026873365  0.026608193            4 
 2255000   0.88177897   -6.7499341    726.42238  0.026844877  0.026600653            4 
 2256000   0.90287526   -6.7474747    724.92782  0.026777771   0.02659316            5 
 2257000   0.89323887   -6.7437792    725.64617   0.02679243  0.026585558            3 
 2258000   0.90125316   -6.7503538    725.82768  0.026787263  0.026577989            3 
 2259000   0.89492426   -6.7295981    728.25921  0.026865103  0.026570543            5 
 2260000   0.89435812   -6.7455747    728.89891  0.026876803  0.026563104            6 
 2261000   0.89367084   -6.7594983    726.64249  0.026781752  0.026555503            6 
 2262000   0.89224306   -6.7560013    727.03482  0.026784366  0.026548033            3 
 2263000   0.87908598   -6.7563051    728.55407  0.026828475  0.026540556           10 
 2264000   0.88902577   -6.7331061    729.45893  0.026849931  0.026533075            4 
 2265000   0.87971644    -6.769842    726.38922  0.026725137  0.026525565            8 
 2266000   0.90159638    -6.736529    728.48408  0.026790382  0.026518086            6 
 2267000   0.90849687   -6.7517342    730.48427  0.026852091  0.026510586            3 
 2268000   0.88505959   -6.7227048    730.21667  0.026830418  0.026503134            6 
 2269000   0.88324265    -6.717235    727.42132  0.026715929  0.026495752           13 
 2270000   0.90625423   -6.7336624    728.31289   0.02673689  0.026488265            4 
 2271000   0.89803886   -6.7175877    732.13279  0.026865287  0.026480756            5 
 2272000   0.88976231   -6.7498816    727.75715  0.026692971  0.026473307            3 
 2273000   0.89151543   -6.7178997    731.02383  0.026800991  0.026465811            4 
 2274000   0.87954885   -6.7785252    728.37439  0.026692113  0.026458375            5 
 2275000      0.91092   -6.7314896     731.9915  0.026812876  0.026451013            4 
 2276000   0.86878694   -6.7786254    730.67235  0.026752796  0.026443601            9 
 2277000   0.87931588   -6.7258283    733.50441  0.026844694  0.026436196            5 
 2278000   0.88081877   -6.7606797    731.48302  0.026758963  0.026428777            9 
 2279000   0.90649377   -6.7551545    730.45961    0.0267098  0.026421306            5 
 2280000   0.89670132   -6.7666935    728.91173  0.026641511  0.026413757           11 
 2281000   0.90441615   -6.7409889    730.06298   0.02667189  0.026406283           20 
 2282000   0.87723859    -6.736517    729.91411  0.026654766  0.026398767            8 
 2283000   0.90312174   -6.7506725    729.24279  0.026618586  0.026391195           14 
 2284000   0.86954991   -6.7596646    730.03995  0.026636017  0.026383646            5 
 2285000   0.88740036     -6.77059    728.66073   0.02657406  0.026376076            4 
 2286000   0.88280832   -6.7417035    729.27356  0.026584775  0.026368472           12 
 2287000   0.88476917   -6.7912809    729.79797  0.026592259  0.026360852            9 
 2288000   0.88222504   -6.7550377    731.63259  0.026647457  0.026353187            5 
 2289000   0.89141414   -6.7474201    732.36574  0.026662507  0.026345598            3 
 2290000   0.88724165   -6.7731711    729.33359  0.026540524  0.026337989            7 
 2291000   0.88482167   -6.7817753     730.4155  0.026568293  0.026330363            5 
 2292000   0.87846038   -6.7323492    731.53571   0.02659743  0.026322876            9 
 2293000    0.8997724   -6.7382469    730.61952  0.026552534  0.026315374           20 
 2294000    0.8960174   -6.7709027    731.82157  0.026584626  0.026307831            4 
 2295000   0.88913995   -6.7953063    730.02413  0.026507775  0.026300292            8 
 2296000   0.89444947   -6.8147931    729.42652   0.02647454  0.026292611            5 
 2297000    0.8851976   -6.7979579    731.10696  0.026523979  0.026284957            7 
 2298000   0.88315344   -6.7747297    731.73586  0.026535243  0.026277337            5 
 2299000    0.8851947   -6.7577419    732.64564  0.026556678  0.026269799           12 
 2300000   0.87017685   -6.7827936    732.24159  0.026530492  0.026262219            5 
 2301000   0.89221111   -6.8007151    730.69428  0.026462925  0.026254572            4 
 2302000   0.86937362   -6.7731046    732.21414  0.026506449  0.026246944            5 
 2303000   0.87513887   -6.7479783    733.46002  0.026540021  0.026239392            5 
 2304000   0.88608979   -6.7520528    730.90511  0.026436093  0.026231797           10 
 2305000   0.87494888   -6.7810658    731.84472  0.026458595  0.026224195            5 
 2306000   0.87616702   -6.7817064    732.38587  0.026466676  0.026216586            3 
 2307000   0.88064205   -6.8133985    730.76617  0.026396697  0.026208962           12 
 2308000   0.88315345   -6.7827442    732.11556  0.026433982  0.026201428            5 
 2309000    0.8772525    -6.772065    732.30519  0.026429377  0.026193918            9 
 2310000   0.87964605   -6.7660792    732.07703  0.026409705  0.026186364            8 
 2311000   0.90380825   -6.7667695    735.32456  0.026515382  0.026178789           12 
 2312000   0.88675911   -6.7815264    734.60793  0.026478083  0.026171196            8 
 2313000   0.86384619   -6.7719832    733.80581  0.026437736  0.026163684           10 
 2314000   0.86464345   -6.7553652    733.21744  0.026405122  0.026156178            8 
 2315000   0.89825745   -6.7459042    733.59226  0.026407209  0.026148553            8 
 2316000   0.89829248   -6.7422873    733.23912    0.0263831  0.026141023            6 
 2317000   0.87997533   -6.7911848    731.96805  0.026325998  0.026133465            3 
 2318000   0.88529264   -6.7741193     734.9472  0.026421743  0.026125854            7 
 2319000    0.8812702   -6.7889394    733.17605  0.026346703  0.026118339            6 
 2320000   0.88186634   -6.8063857    731.59988  0.026278731  0.026110758            4 
 2321000   0.87671081   -6.7777962    733.42211  0.026332835  0.026103097            4 
 2322000   0.89927383   -6.7919984    733.06342  0.026308621  0.026095442            9 
 2323000   0.88394565   -6.7848497    733.12133  0.026299373  0.026087842            4 
 2324000   0.87262066   -6.7965082    733.31124  0.026294866  0.026080218           10 
 2325000    0.8638853   -6.7968859    733.67413  0.026296564  0.026072632            4 
 2326000   0.87283602   -6.7800281    733.87089  0.026292308   0.02606497            8 
 2327000   0.86829039   -6.7650322    736.05599   0.02635926  0.026057407           12 
 2328000   0.89466895   -6.7831315     733.2413  0.026247183  0.026049846            7 
 2329000   0.88582249   -6.7731868     735.8118  0.026327887  0.026042293            3 
 2330000   0.87494888   -6.8172869    734.02091  0.026252536   0.02603467            8 
 2331000   0.88535147   -6.7589636    736.19087   0.02631885  0.026027092            8 
 2332000    0.8588855   -6.7491094     736.1481  0.026306036  0.026019593            8 
 2333000   0.87123267   -6.7689559    736.04041  0.026290914  0.026012027            8 
 2334000   0.86627758   -6.7749364    734.72765  0.026232778   0.02600446           10 
 2335000   0.86455363   -6.7476008    736.59103  0.026288045  0.025996952           10 
 2336000   0.85886563   -6.8169891     735.2816   0.02623008   0.02598943            5 
 2337000   0.87053186     -6.77826    737.08335  0.026283103  0.025981839            6 
 2338000   0.88348958   -6.7769005     734.9739  0.026196674  0.025974321            6 
 2339000   0.88515317   -6.7891336    735.90541  0.026218662  0.025966818            6 
 2340000   0.87139755   -6.7601852    737.52824  0.026265251  0.025959274           14 
 2341000   0.87218251   -6.8018542    736.66704  0.026223375   0.02595181            6 
 2342000   0.86692617   -6.7684457    738.66918  0.026283418  0.025944368           18 
 2343000   0.87524089   -6.8167981    736.50989  0.026195401  0.025936896            5 
 2344000   0.89894357   -6.8040016    736.68601  0.026190487  0.025929389            5 
 2345000   0.87652956   -6.7949347    737.88166  0.026221807    0.0259219            6 
 2346000   0.87474638   -6.7928104    733.75836  0.026064165   0.02591437           11 
 2347000   0.88136884   -6.8046447    736.32297  0.026144119  0.025906858            9 
 2348000   0.86856233   -6.7960927     736.5535  0.026141166  0.025899346           13 
 2349000   0.89053839   -6.8078681    737.14894  0.026151162  0.025891803            7 
 2350000   0.86616517   -6.7833463    735.69479  0.026088468  0.025884302            6 
 2351000   0.86202621   -6.7721696    735.68848  0.026077147  0.025876758            5 
 2352000    0.8687788   -6.8046082    736.43856  0.026092636  0.025869279            8 
 2353000   0.88731479   -6.8125174     738.0069  0.026137091  0.025861746           25 
 2354000   0.85863728   -6.7852805    739.31579  0.026172324  0.025854201            6 
 2355000    0.8698152   -6.7855348    739.17787  0.026156329  0.025846699            4 
 2356000     0.859059   -6.7797213    737.75771  0.026094995  0.025839173            4 
 2357000   0.85387905   -6.7711267    740.08935  0.026166361   0.02583167           10 
 2358000   0.86931133    -6.828855    736.91593  0.026043113  0.025824164           11 
 2359000   0.87760732   -6.8124772    736.83857  0.026029341  0.025816549            4 
 2360000   0.87467235   -6.7858536    739.81202  0.026123306  0.025808974            5 
 2361000   0.87350505   -6.8290769    735.80732  0.025970892  0.025801322            7 
 2362000   0.86236101   -6.8014388     737.5485  0.026021327  0.025793654            6 
 2363000   0.88451327   -6.7950044    739.56439  0.026081407   0.02578601            7 
 2364000   0.87459392   -6.8094572    741.58727  0.026141683  0.025778504            5 
 2365000    0.8658408    -6.808039    738.21084  0.026011657  0.025770921            5 
 2366000   0.88103563   -6.7918032    739.04605  0.026030081  0.025763358            6 
 2367000    0.8630569   -6.7522344    739.83252  0.026046772  0.025755852            6 
 2368000   0.85067779   -6.7944805    739.32283  0.026017836  0.025748339            7 
 2369000   0.87641987   -6.8041711    737.69033  0.025949428  0.025740697            4 
 2370000   0.87411856   -6.8213285    737.80129   0.02594238  0.025733073            6 
 2371000   0.85808097   -6.7756197    738.74834  0.025964724  0.025725475            8 
 2372000   0.87274368   -6.8088922    737.73074  0.025918028  0.025717866            9 
 2373000   0.87031015   -6.7691361    740.92052  0.026019122  0.025710278            3 
 2374000   0.85497076   -6.8193466    737.66323  0.025893823   0.02570272            8 
 2375000    0.8703269   -6.8085039    738.57908  0.025915055   0.02569509            7 
 2376000   0.86578112   -6.8005777    739.40662  0.025933173  0.025687451            3 
 2377000   0.85446351   -6.7826863    738.60837  0.025894277  0.025679781            8 
 2378000   0.88951432    -6.785715     737.0048  0.025827194  0.025672134           17 
 2379000   0.87723857   -6.7696962    739.04927  0.025887953  0.025664473            3 
 2380000   0.87906903   -6.7805475    739.24736  0.025884011  0.025656779            6 
 2381000   0.88076336   -6.8054662    739.05474  0.025866398  0.025649062            7 
 2382000    0.8547247   -6.7894999    736.00682  0.025748909  0.025641363            5 
 2383000   0.86564705   -6.7964145    737.70933  0.025797641  0.025633632            7 
 2384000   0.86153832   -6.8206819    737.57003   0.02578195  0.025625893           11 
 2385000   0.88318189   -6.8177875    736.61214  0.025737671   0.02561821            7 
 2386000   0.86197882   -6.8135949    738.84444  0.025804849  0.025610521            7 
 2387000   0.88133218   -6.7614557    741.30646  0.025879991  0.025602957            7 
 2388000   0.89687538   -6.8116077     739.4071  0.025802872  0.025595367            8 
 2389000   0.85143249   -6.7912294    740.06501  0.025815021  0.025587717           11 
 2390000   0.86853305   -6.8113241    739.13099  0.025771652  0.025580099            6 
 2391000   0.86261913   -6.7968118    741.89391   0.02585717   0.02557255            5 
 2392000   0.86616538   -6.7794944    740.24615  0.025788954   0.02556497            6 
 2393000   0.88780046   -6.8112576    739.78869  0.025762247  0.025557338           10 
 2394000   0.88751189   -6.8117476    740.72031  0.025783915  0.025549685            7 
 2395000     0.872377   -6.8652384    738.46004  0.025694504  0.025542034            7 
 2396000   0.88606018   -6.8242037    740.52458  0.025755585  0.025534347            6 
 2397000   0.87704679   -6.8542897    741.88046  0.025791978  0.025526664            6 
 2398000   0.87604598   -6.8252886    739.92629  0.025713313  0.025519011            6 
 2399000   0.86403617   -6.8030053     740.9445  0.025737964  0.025511428            7 
 2400000   0.86044879   -6.8304181    739.85278  0.025689333  0.025503688           11 
 2401000   0.86911156   -6.7978661    740.35454  0.025696048  0.025496055           11 
 2402000   0.86505613   -6.7827468    739.08973   0.02564147  0.025488407            8 
 2403000   0.87493694   -6.8226454    741.85653  0.025726749  0.025480839            4 
 2404000    0.8791908   -6.8085422    742.01182   0.02572143    0.0254732            8 
 2405000   0.87517367   -6.8170939     740.9698  0.025674629  0.025465549           11 
 2406000   0.86433787    -6.812978    740.71639  0.025655181  0.025457967            6 
 2407000   0.87961988   -6.8029189    742.55962  0.025708338  0.025450313            4 
 2408000   0.88746059   -6.8193773    742.40676  0.025692371  0.025442748            7 
 2409000   0.87293569   -6.8320328    741.36117  0.025645536   0.02543511            5 
 2410000   0.87456504   -6.8132344    742.38798    0.0256704  0.025427454            8 
 2411000   0.87566859   -6.7923869    741.87097  0.025641883  0.025419825            7 
 2412000   0.87834151   -6.8185042    739.90292  0.025563257  0.025412208            6 
 2413000   0.87213656    -6.818825    740.90563  0.025587292  0.025404559           18 
 2414000   0.86069826   -6.8136181    741.47045  0.025596191  0.025396898            6 
 2415000   0.86215403   -6.7828302    743.05035  0.025640109  0.025389218            7 
 2416000   0.88011594   -6.8582265    740.63062  0.025546034   0.02538162            7 
 2417000   0.85976542   -6.8122432    742.59099  0.025603055  0.025373933            5 
 2418000   0.87016719   -6.8429913    741.27777  0.025547207  0.025366329           12 
 2419000    0.8706644   -6.8306629    741.74034  0.025552582  0.025358746            7 
 2420000   0.86595902   -6.7947101    743.33513   0.02559694  0.025351138            9 
 2421000   0.86759746   -6.8003521     743.8062  0.025602582  0.025343501            3 
 2422000   0.87998263   -6.7845342     743.7122  0.025588776  0.025335945           10 
 2423000   0.87081589     -6.82251    744.03629  0.025589362  0.025328296           17 
 2424000   0.85712901   -6.8397009    743.52899  0.025561365  0.025320658            9 
 2425000   0.85678246     -6.81572    742.99799  0.025532577  0.025313054            4 
 2426000   0.87198528   -6.7745198    746.42081  0.025639627  0.025305513           16 
 2427000   0.86125639   -6.8019505    744.66038  0.025568616  0.025298006            6 
 2428000   0.87131856   -6.8199611    742.81812  0.025494856  0.025290456            4 
 2429000   0.86106572    -6.797013    743.64307  0.025512662  0.025282857           12 
 2430000   0.85450974   -6.7813663     743.6958  0.025503971  0.025275248            9 
 2431000   0.85805394   -6.8241111    745.02516   0.02553905  0.025267662            7 
 2432000   0.88013788   -6.8455493    745.22118  0.025535265   0.02526004           10 
 2433000   0.87197581   -6.8174195    743.51753  0.025466418   0.02525249            5 
 2434000   0.84043081   -6.8057606    744.54402  0.025491099   0.02524491            4 
 2435000   0.85003383    -6.824298    743.66569  0.025450571  0.025237324            8 
 2436000   0.84932239   -6.8379204    742.57952  0.025402967  0.025229714            8 
 2437000   0.86608412   -6.8249173    744.25455   0.02544982  0.025222163            3 
 2438000   0.86576096   -6.8186506    746.28222   0.02550869    0.0252146           11 
 2439000   0.87715604   -6.8225756    741.84746  0.025346708  0.025207015           12 
 2440000   0.84883368   -6.8531665    744.20951  0.025416991  0.025199413           10 
 2441000   0.86216446   -6.7923157    745.66343  0.025456214  0.025191861            6 
 2442000   0.83669036   -6.7985938    746.52263   0.02547511  0.025184355           25 
 2443000   0.85412279   -6.8251939    745.78941  0.025439671  0.025176855            5 
 2444000   0.86379163   -6.8046943    744.60546  0.025388893  0.025169279            4 
 2445000   0.87428231   -6.8451075    743.36971  0.025336391  0.025161642           13 
 2446000   0.87209031   -6.8019519    746.13397  0.025420209  0.025154037           11 
 2447000   0.86852274   -6.8392497    743.90919  0.025334055  0.025146392            4 
 2448000   0.89158165   -6.8562814    743.88132  0.025322757  0.025138758            7 
 2449000   0.84127115   -6.8180209    746.77132  0.025410757  0.025131174            3 
 2450000   0.86867274   -6.8420661     744.9044  0.025336884  0.025123575            8 
 2451000   0.85654216   -6.8513849    743.55938  0.025280817  0.025115964            6 
 2452000   0.84942743   -6.8413116    744.25929  0.025294293  0.025108324            7 
 2453000   0.86123762   -6.8500242    743.84847  0.025270025  0.025100621           12 
 2454000   0.86587565   -6.8458342    745.44451  0.025313927  0.025092892           12 
 2455000    0.8869592   -6.8112115    747.98514  0.025389855  0.025085224            6 
 2456000   0.87381097   -6.8531058    746.53241  0.025330226  0.025077594            6 
 2457000   0.84610003   -6.8001711    747.57951   0.02535543  0.025070033            6 
 2458000    0.8697568   -6.8263193    745.13793  0.025262338  0.025062495            8 
 2459000   0.83615805   -6.8467629     745.6404  0.025269093  0.025054881            6 
 2460000   0.86127065   -6.8109819    746.48017  0.025287269  0.025047257            8 
 2461000   0.83611638   -6.8428454    747.07524  0.025297143  0.025039648           13 
 2462000    0.8608529   -6.8751307    743.93988  0.025180743  0.025032013            3 
 2463000   0.85833539   -6.8177655     745.3486  0.025218182  0.025024379            5 
 2464000   0.85295319   -6.8634205    744.24773  0.025170716  0.025016744           11 
 2465000   0.85465205   -6.8433658    746.54205  0.025238068  0.025009117            7 
 2466000   0.85945404   -6.8148465    746.25507  0.025218136  0.025001529            6 
 2467000   0.88553843   -6.8768887      746.515  0.025216694  0.024993935            6 
 2468000    0.8594717   -6.8582449    746.08212   0.02519186  0.024986333            7 
 2469000   0.86763634   -6.8528924    746.66935  0.025201477  0.024978707           12 
 2470000   0.86109035   -6.8569365    746.53267  0.025186662  0.024971125            4 
 2471000   0.84406197   -6.8369161    747.82514  0.025220057  0.024963582           13 
 2472000   0.84540159   -6.8427161    746.02736   0.02514925  0.024955973           16 
 2473000   0.83276446    -6.844668    746.06884  0.025140479   0.02494832            6 
 2474000   0.86717903   -6.9035214    744.97716  0.025093545  0.024940689            9 
 2475000    0.8434655   -6.8153597    747.98548  0.025184696  0.024933028            5 
 2476000   0.85027841   -6.8169524    748.68511  0.025198072  0.024925449            5 
 2477000   0.86756409   -6.8394421    747.82172  0.025158852  0.024917895            6 
 2478000   0.87522132   -6.8561486    747.64912  0.025142895  0.024910302            6 
 2479000   0.86802636   -6.8756621    749.53088  0.025196009  0.024902641            9 
 2480000     0.843024   -6.8524477    747.24112  0.025108909  0.024895055            8 
 2481000   0.86817601   -6.8613208    747.19268  0.025097161  0.024887423           12 
 2482000   0.84921665   -6.8525157    747.29421  0.025090458  0.024879811            9 
 2483000    0.8531237   -6.8712768    748.01228  0.025104453  0.024872269            6 
 2484000   0.87111093   -6.8207803    746.96655  0.025059264  0.024864755           11 
 2485000    0.8587971   -6.8566088    748.65811  0.025105906  0.024857275           10 
 2486000    0.8510194   -6.8479869    748.69606  0.025097079  0.024849824            9 
 2487000   0.84196339   -6.8464999     747.9586  0.025062277  0.024842332            6 
 2488000   0.83938877    -6.839976    750.40829  0.025134254  0.024834863            7 
 2489000   0.86591264   -6.8428244     747.1811  0.025016107  0.024827354            7 
 2490000   0.85418599    -6.892652    747.29519  0.025009879  0.024819822           10 
 2491000   0.85978869    -6.849209    750.67003   0.02511274  0.024812275            6 
 2492000   0.85379195   -6.8116868    751.37755  0.025126323  0.024804834            4 
 2493000   0.86560102   -6.7931831    752.40651  0.025150639  0.024797337            5 
 2494000   0.82868697   -6.8419163    751.57315  0.025112709  0.024789853            6 
 2495000   0.85407342   -6.8489811    748.84022  0.025011363  0.024782321            6 
 2496000   0.85505417   -6.8532884    747.34343   0.02495137  0.024774765            5 
 2497000   0.83797113   -6.8423151    749.86868  0.025025653  0.024767235           11 
 2498000   0.84341221   -6.8946757    749.76058  0.025012029  0.024759719           10 
 2499000   0.85016569   -6.8269512     749.0826  0.024979412  0.024752154            6 
 2500000   0.83946595   -6.8541046    750.62106  0.025020702   0.02474464            5 
 2501000   0.84557724   -6.8857913    748.19585   0.02492989  0.024737072            5 
 2502000    0.8557221   -6.8629876    751.79499  0.025039801  0.024729504            5 
 2503000   0.84255464   -6.8453498    750.05635  0.024971912  0.024721976           13 
 2504000   0.86092014     -6.85956    752.15708  0.025031852  0.024714483           10 
 2505000    0.8655822   -6.8706904    750.27453  0.024959232  0.024706936            8 
 2506000   0.84107961   -6.8319582    750.81258  0.024967165  0.024699412            6 
 2507000   0.82975734   -6.8706732    750.16228   0.02493559   0.02469188            9 
 2508000   0.85274493   -6.9056313    748.40183  0.024867153  0.024684307           19 
 2509000   0.83263889   -6.8916506    750.59898  0.024930217  0.024676711           21 
 2510000   0.85244727   -6.8633432    751.83193  0.024961219  0.024669205           11 
 2511000   0.84184246   -6.8709457    753.31513  0.025000502  0.024661719            6 
 2512000    0.8561011    -6.865113    751.08373  0.024916525  0.024654282            3 
 2513000   0.85665057   -6.8349033    753.94658  0.025001545  0.024646831            7 
 2514000   0.85577922   -6.8291145    754.43014  0.025007629  0.024639419            9 
 2515000    0.8550839   -6.8639437    751.41103  0.024897649  0.024631963           12 
 2516000   0.85344276   -6.8453922    752.57726   0.02492638  0.024624488           12 
 2517000   0.86071582     -6.86636     752.7698  0.024922851  0.024617025           16 
 2518000    0.8376134   -6.8638466    752.56439  0.024906155  0.024609504            6 
 2519000   0.85401557   -6.8546308    752.33612  0.024888716   0.02460202           10 
 2520000   0.83292396   -6.8485415    751.50956  0.024851507  0.024594489            6 
 2521000   0.84876862   -6.8645737    751.38359  0.024837485  0.024587021           10 
 2522000   0.84705237   -6.8559599    752.30765   0.02485817  0.024579562            7 
 2523000   0.82860192    -6.868185    753.11835  0.024875094  0.024572135            8 
 2524000   0.85481685   -6.8653144    752.74689  0.024852975  0.024564704            8 
 2525000   0.83501773   -6.8595667    751.94517  0.024816672   0.02455724            8 
 2526000   0.84449161    -6.882368     750.1029  0.024746071  0.024549754            4 
 2527000    0.8619849   -6.8548192    752.47522  0.024814511  0.024542257           15 
 2528000   0.84766962    -6.870455    752.98303  0.024821434  0.024534775            9 
 2529000   0.86809002   -6.8752047    752.79681  0.024805483  0.024527301            9 
 2530000   0.85216884   -6.8190413    752.93229  0.024800141  0.024519901           10 
 2531000   0.84980941    -6.854931    754.67431  0.024847699  0.024512498            7 
 2532000   0.87002957   -6.8327233     753.7364  0.024807017  0.024505073           11 
 2533000    0.8628196   -6.8650235    752.34709  0.024751516  0.024497637            9 
 2534000   0.82028328   -6.8382052    755.44212  0.024843532  0.024490226            5 
 2535000   0.85245151   -6.8597702    753.55263  0.024771618  0.024482791           14 
 2536000   0.84735525   -6.8619282    752.64878   0.02473215   0.02447528           10 
 2537000   0.83600949   -6.8627101    753.79596  0.024760083  0.024467799           16 
 2538000   0.83521603    -6.844222    753.40293  0.024737422  0.024460314            5 
 2539000   0.84299065   -6.8664649    750.98867   0.02464844    0.0244528            6 
 2540000   0.85790978   -6.9023766     752.6336  0.024692703  0.024445215           11 
 2541000   0.84421296   -6.8737619    752.29316  0.024671821   0.02443772            8 
 2542000   0.85230973    -6.864816    754.52781  0.024735373  0.024430238           20 
 2543000   0.84598326   -6.8670793    753.75602  0.024700354  0.024422729            7 
 2544000   0.84985027   -6.9043632    751.39898  0.024613436  0.024415203            4 
 2545000   0.84330285   -6.8932288    753.92787  0.024686571   0.02440768            7 
 2546000   0.85010201   -6.8833029    752.52358  0.024630911  0.024400121            9 
 2547000   0.84626034   -6.8833185    754.05253  0.024671265  0.024392589            4 
 2548000   0.82248931   -6.8622038    756.16898  0.024730801  0.024385114            8 
 2549000     0.858813   -6.8928726    753.68628  0.024639933   0.02437761           31 
 2550000   0.85112521   -6.9068458    752.65258  0.024596489  0.024370092            8 
 2551000   0.85165927    -6.888928    753.72776   0.02462197  0.024362616            4 
 2552000   0.84495702   -6.8755662    753.67878  0.024610723  0.024355131           16 
 2553000   0.84221293   -6.8875081    754.29243  0.024621113  0.024347598            6 
 2554000   0.86598496   -6.8521978    755.81664  0.024661206  0.024340079            6 
 2555000    0.8241031   -6.8823422    754.52941   0.02460957  0.024332618           17 
 2556000   0.84383728   -6.8931499    753.76109  0.024574892  0.024325127            9 
 2557000   0.84750994   -6.8937625    754.03766  0.024574295  0.024317597           10 
 2558000   0.83861073   -6.9024229    751.46062  0.024480734  0.024310071            6 
 2559000   0.85711836   -6.8595122    755.52419  0.024603497  0.024302605            6 
 2560000   0.84364613   -6.8915717    754.74706  0.024568589  0.024295174            5 
 2561000   0.83676121   -6.8822765     755.2718  0.024576071  0.024287745            9 
 2562000   0.84241167   -6.8921056    755.72088  0.024581085   0.02428033           25 
 2563000   0.83795859   -6.8498508    755.59482  0.024567396  0.024272966           21 
 2564000    0.8516239   -6.8900528    754.30111  0.024515767    0.0242655           13 
 2565000   0.83360048   -6.8776172    756.43307  0.024575473  0.024258062            7 
 2566000   0.85637949   -6.9060673    755.84502  0.024546799  0.024250659            8 
 2567000   0.85177798    -6.924871    754.96579  0.024508693  0.024243196            8 
 2568000   0.84222576   -6.8927152    752.98672  0.024434927  0.024235757           24 
 2569000   0.86074232   -6.9008453    754.47843  0.024473804  0.024228292            6 
 2570000   0.82860895   -6.8867449    756.79801  0.024539494  0.024220905            7 
 2571000   0.84446893   -6.8790639    755.08753  0.024474508   0.02421346            8 
 2572000   0.82329094   -6.8918749    756.34648  0.024505783  0.024206058            8 
 2573000   0.83891273   -6.8979284    754.15476  0.024425274  0.024198648           11 
 2574000    0.8380402   -6.8986063    756.95745  0.024506522  0.024191238           13 
 2575000   0.83232595   -6.8933489     756.4867   0.02448177  0.024183833            3 
 2576000   0.84540092   -6.8924851    757.03475  0.024489996  0.024176397            9 
 2577000   0.85441226   -6.8529096    757.91551  0.024508974  0.024169005            5 
 2578000   0.84293375   -6.9131039    757.19054  0.024476032  0.024161604            4 
 2579000   0.83029518    -6.895524    757.67602  0.024482229  0.024154213            8 
 2580000   0.83340827   -6.9112724    754.77891  0.024379164  0.024146743            5 
 2581000   0.82587952   -6.8894784    757.75419  0.024465782  0.024139314            9 
 2582000   0.84429404     -6.88657    758.40114  0.024477186  0.024131917           11 
 2583000    0.8234727    -6.883158    755.85004  0.024385406  0.024124487            6 
 2584000   0.80559104   -6.9226637    758.96568  0.024476447  0.024117019            6 
 2585000   0.84176212   -6.8854619    758.37555  0.024447955  0.024109595            4 
 2586000   0.84496725   -6.9081267     757.2519  0.024402291  0.024102179            9 
 2587000   0.85407538   -6.9174992     757.4292   0.02439857  0.024094726            9 
 2588000   0.83883469   -6.9178916    756.98107  0.024374712  0.024087289            6 
 2589000   0.84243284   -6.9036013    758.14377  0.024402722  0.024079876           13 
 2590000   0.84478094   -6.8851305    757.39193   0.02436911  0.024072479            8 
 2591000    0.8300726   -6.8907444    758.78863  0.024404626  0.024065109            4 
 2592000   0.84491468   -6.9082204    758.71452  0.024392828  0.024057705           14 
 2593000   0.83082275   -6.8930918    758.07088  0.024362736  0.024050346           12 
 2594000   0.84014224   -6.8919864     757.2931  0.024328357  0.024043022            6 
 2595000   0.82835215   -6.8785933    759.93836  0.024403929  0.024035772           11 
 2596000   0.83929136   -6.9095387    758.19394  0.024338532  0.024028498            7 
 2597000   0.81573033   -6.8754662    757.49319  0.024306674  0.024021204            5 
 2598000   0.82428857   -6.8963657    760.20815  0.024384403  0.024013911            8 
 2599000   0.83056036   -6.9427175    755.78047  0.024233053  0.024006595            7 
 2600000   0.83745529   -6.9356373    757.25823  0.024271097  0.023999213            7 
 2601000   0.81993647   -6.8961528    759.76691  0.024342141  0.023991861            7 
 2602000   0.86375548   -6.9245386    759.39705  0.024320941  0.023984528            6 
 2603000   0.84619637   -6.8868094    760.29519   0.02434035  0.023977225            9 
 2604000   0.85146414   -6.8773527    759.07283  0.024291885  0.023969914            8 
 2605000   0.81819765   -6.9145971    758.67054  0.024269691  0.023962647           11 
 2606000   0.82944713   -6.9171917    759.21932  0.024277927  0.023955319            9 
 2607000   0.81506053   -6.8968502    760.05485  0.024295322  0.023947988            6 
 2608000   0.81866873   -6.8749075    759.90974  0.024281369  0.023940673           13 
 2609000   0.82991747   -6.8771845    760.75854  0.024299174  0.023933422            5 
 2610000    0.8251557   -6.8874666    760.85983  0.024293098  0.023926109            8 
 2611000    0.8386992   -6.9105113    759.87181   0.02425226  0.023918779           14 
 2612000   0.84265773   -6.9386272    760.10594  0.024250445  0.023911444           11 
 2613000   0.84092895   -6.9387068    757.78246  0.024167064  0.023904095           16 
 2614000   0.82083185   -6.8927017    758.20527  0.024171298  0.023896723           18 
 2615000    0.8368062   -6.9053065    762.30981  0.024292856  0.023889367           20 
 2616000   0.82012118   -6.9198162    758.69715  0.024168487  0.023882099            6 
 2617000   0.84007174   -6.9417531    758.57379  0.024155324  0.023874787            7 
 2618000   0.83596249   -6.9382498    759.25332  0.024167727  0.023867432            6 
 2619000   0.82357078   -6.9432524    760.20526  0.024188789  0.023860053            9 
 2620000   0.83467146   -6.9053917    761.91726   0.02423401  0.023852728            6 
 2621000   0.84264724   -6.9076307    760.86578  0.024191332  0.023845378            5 
 2622000   0.82434909    -6.928514    759.34625  0.024133812  0.023838082            9 
 2623000   0.81858314   -6.9436855    760.91253  0.024174372  0.023830755            7 
 2624000   0.82607418   -6.9099194    759.64763  0.024124988  0.023823373           10 
 2625000   0.82309169   -6.9121157    760.26553  0.024135414  0.023816012            4 
 2626000   0.82143299   -6.9118684    763.59677  0.024231936  0.023808684           17 
 2627000   0.83156745   -6.8871299    761.19997  0.024146681  0.023801385            8 
 2628000   0.84041834    -6.914995    760.04285  0.024100801  0.023794061           11 
 2629000   0.83744425   -6.8801019    760.73899  0.024113699  0.023786724            6 
 2630000   0.82996876   -6.9264655    759.23235  0.024056792  0.023779377            3 
 2631000   0.83426019      -6.9238    759.50436  0.024056264  0.023772006           10 
 2632000   0.82966843   -6.9134657    760.85679  0.024089944  0.023764676            9 
 2633000   0.83761511   -6.9224301    761.09203   0.02408824  0.023757365            6 
 2634000   0.81738432   -6.8931748     762.9316  0.024137294  0.023750049            8 
 2635000   0.82378381   -6.9069414    761.24436  0.024074774  0.023742709            5 
 2636000   0.84785681   -6.9128174    760.46907  0.024041131  0.023735361            5 
 2637000   0.81410281   -6.9262488    759.84657  0.024012343  0.023727965            7 
 2638000   0.82051557   -6.9695839    759.37588  0.023988371  0.023720483            8 
 2639000   0.85613899   -6.9460021    759.01851  0.023967996     0.023713            7 
 2640000   0.83508097   -6.9196076    759.52992  0.023975061  0.023705575           15 
 2641000   0.83383917   -6.9420316    759.71692  0.023971883  0.023698177           15 
 2642000   0.82189175   -6.9359543    760.40484  0.023984508  0.023690761            7 
 2643000   0.83867001   -6.9335002    759.72239  0.023953916  0.023683372            9 
 2644000   0.83176745   -6.9619085    759.44066  0.023935976  0.023675944            9 
 2645000   0.82468076   -6.9293761    761.88485  0.024003934  0.023668538            9 
 2646000   0.82825934   -6.9137497    761.21244  0.023973685  0.023661144            4 
 2647000    0.8171317   -6.8916175    762.73549  0.024012577  0.023653798           12 
 2648000   0.83229154   -6.8952757    760.15398  0.023922268  0.023646471           22 
 2649000   0.83072231   -6.9141196    763.17536  0.024008285  0.023639112            9 
 2650000   0.81698339   -6.8724104    763.01181  0.023994082   0.02363185           13 
 2651000   0.81948116   -6.9414083    759.37779  0.023870797  0.023624578            6 
 2652000   0.82856909   -6.8949092    763.82668  0.024001593  0.023617295            9 
 2653000   0.84250047   -6.9243652    762.02596  0.023935983  0.023610008           10 
 2654000   0.81558527   -6.8875494    763.35915  0.023968825  0.023602721            6 
 2655000   0.83054538   -6.9329234    762.33318  0.023927595  0.023595424           17 
 2656000   0.81962778   -6.8996974    762.09675  0.023911168  0.023588128            6 
 2657000   0.83580801   -6.9048055    765.14393   0.02399774  0.023580909            7 
 2658000   0.81358066   -6.9245835    762.41573  0.023903177  0.023573584            5 
 2659000   0.83207231   -6.9556542    762.04254  0.023882492  0.023566181           11 
 2660000   0.82769079   -6.9640103    760.48387  0.023824682  0.023558753           12 
 2661000   0.82466346   -6.9197032    760.69158  0.023822234  0.023551386           11 
 2662000   0.83645032   -6.8839278    763.73825   0.02390866  0.023544058            8 
 2663000   0.82654402   -6.9207502    763.23586  0.023883961    0.0235367           22 
 2664000   0.84302811   -6.9218109    761.72137   0.02382762  0.023529352            8 
 2665000   0.84029703   -6.9235491    762.44195  0.023841212  0.023521987           14 
 2666000   0.82877217   -6.9313245    761.58803  0.023805577  0.023514656           36 
 2667000   0.83538838   -6.8887757    762.95028  0.023839216   0.02350735           31 
 2668000   0.81260094   -6.9325634    762.97004  0.023830898  0.023500092           55 
 2669000   0.81484948   -6.9249978    764.12718  0.023858098  0.023492787           21 
 2670000   0.80587257   -6.9480231     761.7789  0.023775871  0.023485494           12 
 2671000   0.83188955   -6.9440557    762.30574  0.023783406  0.023478124            6 
 2672000   0.81979697   -6.9415716    763.31778  0.023806068  0.023470791            9 
 2673000   0.83555344   -6.9520758    762.10136  0.023759239  0.023463444            9 
 2674000   0.82058019   -6.9268491    764.41108  0.023822335  0.023456099            9 
 2675000   0.81765835    -6.943473    762.56151   0.02375581  0.023448774           14 
 2676000   0.82462174   -6.9023306    763.53931  0.023777383  0.023441443            8 
 2677000   0.83380647   -6.9509901    763.58703  0.023769986  0.023434093            8 
 2678000   0.82442073   -6.9632546    760.95286  0.023679141  0.023426707           15 
 2679000   0.80496011   -6.9271149    762.91862  0.023731449   0.02341931            8 
 2680000   0.81414079   -6.9420681    764.52317  0.023772487  0.023412007            6 
 2681000   0.82588344   -6.9124003    764.76819  0.023771236  0.023404633           23 
 2682000   0.81748041   -6.9239732    762.78198  0.023700658  0.023397297            7 
 2683000   0.82135369   -6.9326378    764.00189  0.023729715  0.023389994            7 
 2684000   0.83551487   -6.9075799    763.81907  0.023715197  0.023382715            4 
 2685000    0.8251448   -6.9262786    763.86127  0.023707674  0.023375404            4 
 2686000   0.82738432   -6.9089892    762.16301  0.023646159  0.023368075            7 
 2687000   0.83051394   -6.9164508    764.48119  0.023709254  0.023360784           13 
 2688000   0.82435317   -6.9386684    764.69708  0.023707127   0.02335342            4 
 2689000   0.81988756   -6.9287532    764.14817    0.0236813   0.02334609            8 
 2690000   0.82241505   -6.9617972    762.83606  0.023631848   0.02333873           12 
 2691000   0.80763609   -6.9288555    763.28597  0.023636999  0.023331401            5 
 2692000   0.79492377    -6.957438    762.41501  0.023601257  0.023324028            6 
 2693000   0.81137443    -6.962732     762.1143  0.023583188  0.023316626           11 
 2694000   0.80776598    -6.918789    762.81331  0.023596056  0.023309213            8 
 2695000   0.82199661   -6.9224434    763.98636  0.023623573  0.023301894           14 
 2696000     0.830806   -6.9582541    763.03434  0.023585384  0.023294544            9 
 2697000   0.80541211   -6.9444278    763.12118  0.023579322  0.023287177            6 
 2698000   0.81963898   -6.9183941    767.50098  0.023705862   0.02327986           10 
 2699000   0.84281412   -6.9753459    764.30135  0.023598288  0.023272521           22 
 2700000   0.83106575   -6.9351613     764.3026  0.023589586  0.023265235           22 
 2701000   0.82075223   -6.9488543    763.14985  0.023545287  0.023257886            6 
 2702000   0.79807212   -6.9549744    763.29141  0.023540939  0.023250523            8 
 2703000   0.83272817   -6.9603936    763.62654  0.023542562  0.023243223            8 
 2704000   0.83308645   -6.9626524    763.63189   0.02353402   0.02323589           13 
 2705000   0.82203015   -6.9856238    763.11058   0.02350926   0.02322851            7 
 2706000   0.80641462   -6.9551799    766.28792  0.023598421  0.023221183           11 
 2707000   0.80486352   -6.9473134    764.09436  0.023522176  0.023213861            5 
 2708000   0.83101191   -6.9572007    765.91042  0.023569375  0.023206577            8 
 2709000   0.84085452   -6.9285609    766.57433  0.023581098  0.023199245            7 
 2710000   0.81652688   -6.9670428    764.29512   0.02350231  0.023191906            9 
 2711000    0.8379146   -6.9874335    764.19469  0.023490554  0.023184535            9 
 2712000   0.81805627   -6.9705929    763.03593  0.023446286  0.023177104            9 
 2713000   0.80344035   -6.9524012    764.18137  0.023472827  0.023169717            5 
 2714000   0.81498662   -6.9822269    763.85249  0.023454081  0.023162363            6 
 2715000   0.81632908    -6.960362    764.54944  0.023466834  0.023154995           11 
 2716000   0.81024187   -6.9615113    762.68434  0.023400968  0.023147633            4 
 2717000   0.80755952   -6.9681801    764.32005  0.023442524  0.023140312            8 
 2718000   0.83180106   -6.9479342    763.35187  0.023404215  0.023132986            9 
 2719000   0.82785099   -6.9305355    764.95773  0.023444824  0.023125678            9 
 2720000   0.82291309   -6.9663871    763.69917  0.023397646  0.023118404           11 
 2721000   0.82150622   -6.9548852    765.14451  0.023433312  0.023111104           13 
 2722000   0.80497211   -6.9458743    765.61685  0.023439164  0.023103774            6 
 2723000   0.81893828   -6.9470312    764.54175  0.023397654  0.023096475            5 
 2724000   0.82301017   -6.9478414    767.02483  0.023465028  0.023089179            5 
 2725000   0.81657448   -6.9511625       766.16  0.023429969  0.023081926            4 
 2726000   0.80701221   -6.9697333    766.55382  0.023433413  0.023074625           17 
 2727000   0.81400796   -6.9564059    765.81714  0.023402308  0.023067355           22 
 2728000    0.8050746   -6.9491406    764.84814  0.023364129  0.023060032           11 
 2729000   0.81043769   -6.9939184    765.01139  0.023360553  0.023052713           30 
 2730000   0.80848877   -6.9527063     764.6327  0.023340437  0.023045428            9 
 2731000   0.81677284   -6.9860114    764.36292  0.023323658  0.023038124            6 
 2732000    0.8278542    -6.953592    766.24029  0.023372386  0.023030796           10 
 2733000   0.81483514   -6.9351207    766.04407  0.023357851  0.023023547           13 
 2734000   0.80950579   -6.9256236    768.01761  0.023409461  0.023016308           11 
 2735000   0.81399716   -6.9584108     768.4691  0.023414659  0.023009027           30 
 2736000   0.81869161   -6.9835629     765.4981   0.02331561  0.023001767            6 
 2737000    0.8184508   -6.9356228    767.58089  0.023370506  0.022994497           16 
 2738000    0.8086542   -6.9891772    765.22339  0.023290218  0.022987218           21 
 2739000   0.82378713   -6.9722701    765.29373  0.023283855   0.02297995            9 
 2740000   0.81278674     -6.99132    766.77171  0.023320308  0.022972722            6 
 2741000   0.79039743   -6.9562705    768.50638  0.023364538  0.022965485            7 
 2742000   0.82425504   -6.9729191     768.2562  0.023348414  0.022958244            5 
 2743000   0.81170164   -6.9556824    768.58161  0.023349788  0.022951009           18 
 2744000   0.81248051    -6.961914    767.03757  0.023294387  0.022943757           12 
 2745000   0.81909183    -6.977062    768.43518   0.02332833  0.022936523            8 
 2746000   0.81432217     -6.94716    767.59328  0.023294285  0.022929287           12 
 2747000   0.80543654   -6.9614467    767.00662  0.023268008  0.022922089            7 
 2748000   0.82251336   -6.9633208    767.73198  0.023281538  0.022914888           18 
 2749000   0.80997487   -6.9393224    769.40754  0.023323861  0.022907702            5 
 2750000   0.81641766   -6.9748374     768.1183  0.023276312  0.022900486           12 
 2751000   0.80725729   -6.9571118    768.14359  0.023268617  0.022893283           12 
 2752000   0.80219471   -6.9786105    766.86534  0.023221455  0.022886083           20 
 2753000   0.81073844   -6.9708914    768.18227  0.023252884  0.022878888            6 
 2754000   0.79962164   -6.9598917    768.55197  0.023255627  0.022871677           28 
 2755000   0.83285452   -6.9769663    767.58521  0.023217944  0.022864478            8 
 2756000   0.79153749   -6.9933002      766.861  0.023187621  0.022857184           16 
 2757000   0.82296772   -6.9956426    767.26473  0.023191414  0.022849933           14 
 2758000   0.82056669   -6.9606497    768.78487  0.023228936  0.022842754           15 
 2759000    0.8223431   -6.9749784    767.90699  0.023194001  0.022835532           10 
 2760000   0.80506623   -6.9648017     767.3236  0.023167983  0.022828267           10 
 2761000   0.81037921   -6.9777431    769.64688  0.023229714  0.022821057           20 
 2762000   0.81052424   -6.9701476    768.62179  0.023190375  0.022813874            8 
 2763000   0.82272361   -6.9756017    768.97846  0.023192739  0.022806654           10 
 2764000   0.79901812   -7.0240422    766.03113  0.023095487  0.022799445           16 
 2765000   0.81455059    -6.987715    768.15396  0.023151114  0.022792208            6 
 2766000   0.81857889   -6.9744321    767.36434  0.023118954  0.022784951            9 
 2767000   0.79969948   -7.0106594     766.8115  0.023093949  0.022777689            9 
 2768000   0.79843755   -6.9910641     765.9464  0.023059562  0.022770417           24 
 2769000   0.79775395   -6.9910051    769.13106  0.023147077  0.022763168           13 
 2770000   0.79907147   -6.9789549    768.18991  0.023110406  0.022755965           14 
 2771000   0.81802153   -6.9994656    768.54287  0.023112681    0.0227488           10 
 2772000   0.81155446   -6.9779072    769.74914  0.023140607   0.02274163           11 
 2773000   0.79585693   -6.9981809     767.7398  0.023071878  0.022734423           10 
 2774000   0.79044387   -6.9668062    768.44053  0.023084611  0.022727216           12 
 2775000   0.79856761   -6.9924069    766.83759  0.023028156  0.022720017           18 
 2776000   0.79703603    -7.017488    767.97635  0.023054045  0.022712782           22 
 2777000   0.80611789   -7.0196916    769.37538  0.023087726   0.02270554           16 
 2778000   0.82360979   -7.0157799     767.4159  0.023020635    0.0226983           11 
 2779000   0.80228895   -6.9938105    769.20117  0.023065886  0.022691076           10 
 2780000   0.80174513   -6.9745031    768.44907  0.023035044   0.02268386           17 
 2781000    0.7910576   -6.9973075    767.79969  0.023007302  0.022676629           20 
 2782000   0.81722419   -6.9859129    769.52405  0.023050684  0.022669433           16 
 2783000   0.81117959   -7.0153872    767.90315  0.022993866  0.022662205           10 
 2784000   0.79049774   -6.9873993    770.12264  0.023052043  0.022655043            8 
 2785000   0.82331368   -6.9823871    770.53721   0.02305617  0.022647904           11 
 2786000   0.80838019   -6.9638163    770.35395  0.023042413  0.022640768           12 
 2787000   0.81116769    -6.976151    770.40198  0.023035581  0.022633609           15 
 2788000   0.78254901    -6.989939     769.8829  0.023011804  0.022626469           12 
 2789000   0.81856152   -6.9784209    768.49008  0.022961936  0.022619295           17 
 2790000     0.812372   -6.9883726    769.27405  0.022977122  0.022612084           15 
 2791000   0.79708684   -6.9788516    767.42893  0.022913798  0.022604872            8 
 2792000   0.79962346    -6.989945    768.38739  0.022934199  0.022597694           21 
 2793000   0.81136813   -6.9767976    770.41119   0.02298637  0.022590527            8 
 2794000   0.80504726    -6.978599    769.67203  0.022956097  0.022583371            5 
 2795000   0.80252206   -6.9798231     771.2265  0.022994231   0.02257623            5 
 2796000   0.79758656   -6.9962959    772.62598  0.023027717  0.022569097            7 
 2797000   0.81338579   -7.0016214    771.65943  0.022990687  0.022561942            9 
 2798000   0.80019982   -6.9713509    769.76243  0.022925972   0.02255477            9 
 2799000   0.81407825   -6.9789302    771.11462  0.022958039  0.022547596           13 
 2800000   0.80383706   -7.0308212    770.29388  0.022925413  0.022540434           10 
 2801000   0.81460535   -7.0203367     770.3706  0.022919511  0.022533266           13 
 2802000     0.795425   -6.9724588    771.37963  0.022941341  0.022526131           11 
 2803000   0.81081126   -6.9705796    771.71954  0.022943261  0.022519017           14 
 2804000    0.7919527   -6.9826686    770.46422  0.022897772  0.022511916           12 
 2805000   0.81211808   -6.9846424    771.41432  0.022917835  0.022504817           13 
 2806000   0.80085982   -6.9894824    772.06946  0.022929124  0.022497687            7 
 2807000   0.80251061    -7.005412    772.03559   0.02291995  0.022490538            9 
 2808000   0.79160845   -7.0037756    771.26077  0.022888793  0.022483412            6 
 2809000   0.80076503    -7.009464    769.49527  0.022828268  0.022476275           10 
 2810000   0.80609896   -6.9745033     772.5977   0.02291215   0.02246915           11 
 2811000   0.80649444   -7.0090645    771.63563  0.022875478  0.022461982           18 
 2812000   0.80569237   -7.0363942    769.45631  0.022802759  0.022454818           10 
 2813000   0.83088584   -6.9791722    771.58628  0.022857752  0.022447656            4 
 2814000   0.80396133   -7.0000088    771.06657  0.022834239  0.022440479           12 
 2815000   0.79434796   -6.9932629    769.48789  0.022779393   0.02243334           17 
 2816000   0.80202045   -7.0029848    771.99789  0.022845581  0.022426193           34 
 2817000   0.79572465    -7.021034    770.74344  0.022800362  0.022419076           13 
 2818000   0.79495462   -6.9839053    773.30942  0.022868152  0.022411959           16 
 2819000   0.79592778   -6.9723921    771.77189  0.022814588   0.02240489            9 
 2820000   0.78001427   -6.9745147    772.32807  0.022822934  0.022397822            7 
 2821000   0.78946168   -6.9897085    771.62745  0.022794147  0.022390739           21 
 2822000   0.80951862   -6.9971235    772.17485  0.022802234  0.022383675            7 
 2823000   0.80181409   -6.9788006    771.84885  0.022784533  0.022376594           11 
 2824000   0.80527925   -6.9630986     774.3178  0.022849321  0.022369567            6 
 2825000   0.81455938   -6.9953197    773.90982  0.022829198  0.022362549            6 
 2826000   0.79680763   -6.9794994    772.96699  0.022793318  0.022355524            9 
 2827000   0.80687535   -6.9560571    773.21527  0.022792574  0.022348474            6 
 2828000   0.80053703   -6.9996868    775.70791  0.022857965  0.022341458            7 
 2829000   0.80523216   -7.0073453      773.491  0.022784582    0.0223344           13 
 2830000   0.79821479   -6.9882178    773.79156  0.022785382  0.022327341           10 
 2831000   0.81168222   -7.0251377    770.86704  0.022691247  0.022320248           12 
 2832000   0.80097686   -7.0171014    774.85729   0.02280065  0.022313122            8 
 2833000   0.79677773   -6.9972841    773.92681  0.022765231  0.022306024           12 
 2834000    0.7885802   -7.0294139    774.36805  0.022770173  0.022298956           23 
 2835000   0.80638533   -7.0358746    772.69724  0.022713029  0.022291883           11 
 2836000   0.79098596   -7.0005285    775.35982  0.022783257  0.022284882            8 
 2837000   0.80213478   -6.9969467    772.15257  0.022681018  0.022277855           12 
 2838000   0.81292969   -7.0336237    772.14374  0.022672767  0.022270774            8 
 2839000   0.80297972   -7.0258354    770.80101  0.022625367  0.022263669           10 
 2840000   0.81249773   -7.0330388    771.58893   0.02264052  0.022256566            9 
 2841000    0.7850922   -7.0232022    771.10288  0.022618294  0.022249481           12 
 2842000   0.79414319   -6.9977737    774.30085  0.022704107  0.022242397           11 
 2843000    0.8062522   -7.0314404    773.08479  0.022660476  0.022235287           11 
 2844000   0.80344231   -7.0349934    772.72883  0.022642078   0.02222821           11 
 2845000   0.79243417   -7.0018573    776.45602  0.022743293  0.022221145           21 
 2846000   0.79635457   -7.0143189     774.0787  0.022665692  0.022214104           19 
 2847000   0.79979411   -6.9965874    773.74133  0.022647855  0.022207058           18 
 2848000   0.79645846   -7.0159995    772.05513  0.022590564  0.022199986           13 
 2849000   0.78960369   -7.0355157    773.28719  0.022618673   0.02219291           12 
 2850000   0.81778447   -7.0282088     773.1928  0.022607977  0.022185822            8 
 2851000   0.78382204   -7.0146687    774.21543  0.022629938  0.022178717           14 
 2852000   0.79174847   -7.0201956    773.31565  0.022595712  0.022171649           11 
 2853000   0.80164154   -7.0397814    774.56858  0.022624389   0.02216458           24 
 2854000   0.80885829   -7.0254011    770.86648  0.022508365  0.022157501           37 
 2855000   0.79113455   -7.0632335    770.79218  0.022498312  0.022150388           19 
 2856000   0.79908704   -7.0399464    772.64585  0.022544522  0.022143266           26 
 2857000   0.78445744   -7.0524028    771.69597  0.022508925   0.02213622           19 
 2858000   0.80305923   -7.0398754    772.12303  0.022513501   0.02212917            8 
 2859000   0.79370128   -7.0270015    774.21539  0.022566614  0.022122123           32 
 2860000   0.78646636   -7.0359201    773.14274  0.022527469  0.022115097           41 
 2861000   0.79439529   -6.9986584    775.62098   0.02259178  0.022108063           24 
 2862000   0.79948323   -7.0086914    775.26609  0.022573553  0.022101064            6 
 2863000   0.79172352   -6.9901366    776.03539   0.02258806  0.022094094           10 
 2864000   0.77527206   -7.0434971    773.80497  0.022515275  0.022087132           17 
 2865000   0.79449757   -7.0606443    773.50691  0.022498747  0.022080073           11 
 2866000   0.80512523    -7.057175    773.23404  0.022482962  0.022073032           10 
 2867000   0.79456293   -7.0633051    772.61891  0.022457241  0.022065978            9 
 2868000   0.77916613   -7.0496015    773.37367  0.022471341  0.022058921           17 
 2869000   0.79465079   -7.0111375    775.45911  0.022524082   0.02205189           10 
 2870000   0.78286699   -7.0365344    776.09601  0.022534727  0.022044899           10 
 2871000   0.78370481   -7.0244212    774.71239  0.022486717  0.022037897            9 
 2872000   0.80816438   -7.0327895    775.22232  0.022493684  0.022030891            9 
 2873000    0.8029784   -7.0442603    774.04037  0.022451571  0.022023868           15 
 2874000   0.78842872   -7.0490956    774.07331  0.022444715  0.022016839            6 
 2875000   0.78924379   -7.0592826    775.17765  0.022468917  0.022009832           14 
 2876000   0.79403942   -7.0667967    771.87744   0.02236548  0.022002822           12 
 2877000   0.79356747   -7.0426111    772.71104  0.022381852  0.021995771            5 
 2878000   0.78434663   -7.0417769    775.40731  0.022452146   0.02198871            9 
 2879000   0.77242502   -7.0672241    772.61709  0.022363584  0.021981657           13 
 2880000   0.78971012   -7.0302793    775.56209  0.022441033   0.02197464            7 
 2881000   0.78437839   -7.0409488    775.04852  0.022418388  0.021967686            6 
 2882000   0.78787648   -7.0216029    776.72231  0.022459007  0.021960698            7 
 2883000   0.79969682   -7.0298546    776.89333  0.022456161  0.021953746           23 
 2884000   0.76170425   -7.0669684    775.05071  0.022395132  0.021946772           16 
 2885000    0.8021651   -7.0329415    776.17161  0.022419746  0.021939804           14 
 2886000   0.78070899   -7.0527059    774.86021  0.022374111   0.02193285           10 
 2887000   0.79308406   -7.0311202    776.18022  0.022404463  0.021925903           12 
 2888000   0.79686328   -7.0462226    774.73601  0.022355032  0.021918917           14 
 2889000   0.77825401   -7.0036842    776.37258  0.022394502  0.021911986           13 
 2890000   0.78516959   -7.0302481    777.62754  0.022422939  0.021905068           11 
 2891000   0.80303463   -7.0256857    776.64065  0.022386736  0.021898156            8 
 2892000   0.79331857   -7.0141195    778.90634  0.022444281  0.021891233           15 
 2893000   0.79285135   -7.0124173    778.71103  0.022430897  0.021884354            7 
 2894000   0.80811339   -7.0296729    776.27551  0.022353015  0.021877489            4 
 2895000   0.77616199   -7.0272973    777.55449   0.02238211  0.021870595            7 
 2896000   0.78234844   -7.0347175     778.2708  0.022394993  0.021863735           12 
 2897000   0.77281717   -7.0328705    778.52062  0.022394449  0.021856838           12 
 2898000   0.79872343   -7.0762291    776.50015  0.022328622   0.02184996            8 
 2899000   0.79717268   -7.0624977    775.32056  0.022287012  0.021843061           10 
 2900000   0.77740475   -7.0624413    778.49996  0.022370689  0.021836124            7 
 2901000   0.81057692   -7.0864254    775.78289  0.022284927   0.02182922           16 
 2902000   0.78593222    -7.086345    775.34209   0.02226459  0.021822284            8 
 2903000   0.78432305   -7.0402188    777.13923  0.022308509  0.021815364            7 
 2904000   0.79307799    -7.044898    776.97158  0.022296016  0.021808482           25 
 2905000   0.78734073   -7.0393954    778.85383  0.022342336  0.021801601           15 
 2906000   0.78699004   -7.0324757    777.37637  0.022292279  0.021794719           14 
 2907000   0.78676544   -7.1027883     776.1055   0.02224818  0.021787808           16 
 2908000   0.78581334   -7.0440572    778.24769  0.022301917  0.021780889           10 
 2909000   0.79269681   -7.0651236    777.10149  0.022261416  0.021773993           17 
 2910000    0.7968116   -7.0447653     778.1138  0.022282755  0.021767115           21 
 2911000    0.7834845   -7.0360105    779.51204  0.022315128  0.021760247            6 
 2912000   0.79321206   -7.0626204    779.88081  0.022318018  0.021753375            6 
 2913000     0.771907   -7.0415925    778.25224  0.022263767  0.021746487           23 
 2914000   0.77099231   -7.0828174    777.93429  0.022247034  0.021739582            8 
 2915000   0.77999945   -7.0667554    776.47533  0.022197694  0.021732671           24 
 2916000   0.78388906   -7.0473853    779.04307  0.022263462  0.021725788           20 
 2917000   0.78700259   -7.0527068    777.53502  0.022212748  0.021718941            7 
 2918000   0.79147746   -7.0942544    777.28816  0.022198086  0.021712086           20 
 2919000   0.79786655   -7.0556432    781.76599  0.022318316  0.021705233           13 
 2920000   0.78215502   -7.0423425     778.3072  0.022211964  0.021698418           16 
 2921000   0.79361893   -7.0433711    778.37294  0.022206235   0.02169156           23 
 2922000   0.77543116   -7.0654958     778.2912  0.022196304  0.021684696           16 
 2923000   0.79959946   -7.0599186    779.55552  0.022224755  0.021677864           12 
 2924000   0.80386604   -7.0537141    778.39658  0.022184125  0.021671066            6 
 2925000   0.79186044   -7.0583252    779.12944   0.02219742  0.021664238           18 
 2926000   0.78143409    -7.020509    780.53574  0.022229886   0.02165739           12 
 2927000   0.77583005   -7.0679289     779.2445  0.022185528  0.021650546           13 
 2928000   0.80345823   -7.0465749    777.46314  0.022127252  0.021643673           23 
 2929000    0.7880781   -7.0705056    777.02917  0.022107351  0.021636808           15 
 2930000   0.78895596   -7.0611126    776.85815  0.022094942   0.02162989            9 
 2931000   0.79086336   -7.0235742    777.79899  0.022114153   0.02162303            8 
 2932000   0.77385703   -7.0806319    779.22837  0.022147237  0.021616193            6 
 2933000   0.78233112   -7.0694312    780.34254  0.022171342  0.021609331            7 
 2934000    0.7652662   -7.0842969    778.65734  0.022115921  0.021602514           10 
 2935000   0.77817706   -7.0519557    779.80187  0.022140882  0.021595706           21 
 2936000   0.79310546   -7.0090168    779.48179  0.022124256  0.021588904           23 
 2937000   0.77862969   -7.0283914    779.74559  0.022124208   0.02158211            7 
 2938000   0.79028015   -7.0320132    780.69244  0.022143534   0.02157534            6 
 2939000   0.78615374   -7.0046482    781.51637  0.022159362  0.021568549            9 
 2940000   0.76667168   -7.0583952    779.81475  0.022103593  0.021561757            7 
 2941000   0.77134275   -7.0360033    780.98259  0.022129168  0.021554963            9 
 2942000    0.7851159   -7.0599867    779.80634  0.022088328  0.021548146           10 
 2943000   0.77011296   -7.0576075     780.5947  0.022103146  0.021541301            6 
 2944000    0.7665314   -7.0391771    780.33396  0.022088257  0.021534489            9 
 2945000   0.77551884   -7.0438215    781.24275  0.022106473  0.021527694           10 
 2946000   0.77088771   -7.0528254    781.74013  0.022113038  0.021520928           13 
 2947000    0.7825774   -7.0483545    782.05575   0.02211446  0.021514152            7 
 2948000   0.78980615   -7.0612274    778.29107  0.022000539  0.021507373           10 
 2949000   0.77992766   -7.0223722    783.24221  0.022132989  0.021500664           12 
 2950000    0.7764367   -7.0672843    780.23092  0.022040421    0.0214939            8 
 2951000    0.7921957   -7.0317298    780.42899  0.022038546  0.021487154           19 
 2952000   0.78556333   -7.0506364    781.83592  0.022070797  0.021480387           12 
 2953000   0.78299551    -7.059394    781.34139  0.022049368  0.021473609           11 
 2954000   0.77376006    -7.054218    780.94995  0.022030861  0.021466802           12 
 2955000   0.75509319   -7.0531566    782.38361  0.022063836  0.021459985            8 
 2956000   0.78917827   -7.0596251    780.05658   0.02199077  0.021453232           12 
 2957000   0.76965828   -7.0517464     781.2904  0.022018104  0.021446476            9 
 2958000   0.79148289   -7.0803851     779.9231   0.02197214  0.021439742            7 
 2959000   0.78611433   -7.0274135    782.54383  0.022038522  0.021433001            7 
 2960000   0.76544832    -7.083144    780.76184  0.021980908  0.021426263           15 
 2961000   0.76356394   -7.0632587    781.09922  0.021982979  0.021419506            7 
 2962000    0.7887401   -7.0454098    781.81769  0.021995771  0.021412747           18 
 2963000    0.7848799   -7.0749832    780.24086     0.021944  0.021406006            7 
 2964000   0.77816355   -7.0303969    781.35579  0.021967943   0.02139928            9 
 2965000   0.77125723   -7.0636873    781.05358   0.02195204  0.021392548            9 
 2966000   0.77787398   -7.0325343    782.37532  0.021981775  0.021385834           11 
 2967000   0.77377508   -7.0570565    781.18753  0.021941005  0.021379095           42 
 2968000   0.79464644   -7.0582253    782.03565  0.021957425  0.021372402           14 
 2969000   0.76505824   -7.0412544    780.45665   0.02190571  0.021365724            8 
 2970000   0.77201305   -7.0403232    781.44182  0.021925977  0.021359042            5 
 2971000   0.78639938   -7.0534843    783.87785  0.021986925  0.021352346           14 
 2972000   0.76688397   -7.0275315     781.6277  0.021916434  0.021345619            9 
 2973000   0.77896875   -7.0529853     782.8529  0.021943405  0.021338898           10 
 2974000   0.77174203   -7.0713081    783.51685   0.02195463  0.021332181           15 
 2975000     0.772803   -7.0550824    782.33018  0.021914011  0.021325462           23 
 2976000   0.73873138   -7.0705065    781.10367  0.021872302  0.021318728           13 
 2977000   0.77320016   -7.0598875    782.87005  0.021914401  0.021311974            7 
 2978000   0.78497807   -7.0971713    782.26861  0.021890212  0.021305201           16 
 2979000   0.79133626   -7.1006681    780.27451  0.021827081  0.021298442           12 
 2980000   0.76170218   -7.1096812     779.9308  0.021810145  0.021291675           11 
 2981000   0.77270982    -7.093534     782.1755  0.021865579  0.021284927           12 
 2982000   0.76564333   -7.1036977    783.02251  0.021881917   0.02127821           20 
 2983000   0.79289751   -7.1000147     779.7617  0.021783487  0.021271475           18 
 2984000   0.76095959   -7.1110391    779.63454  0.021772636  0.021264654           14 
 2985000   0.79089527   -7.0837737    781.94535  0.021829853  0.021257882            7 
 2986000   0.76623186   -7.0626877    781.80142  0.021818526  0.021251132           11 
 2987000   0.76528377   -7.0995931     779.9697  0.021760119  0.021244344           23 
 2988000   0.78119197    -7.078305    781.65631  0.021799875  0.021237569           25 
 2989000   0.76679167   -7.0665419    782.55397  0.021817608  0.021230819           15 
 2990000   0.76835464   -7.1115781    782.56558  0.021810635  0.021224048           16 
 2991000    0.7656751   -7.0963466    782.25835  0.021794783  0.021217287           54 
 2992000   0.75286581    -7.080111    782.04119   0.02178145  0.021210547           14 
 2993000   0.77708412    -7.091659      782.766  0.021794353  0.021203816           11 
 2994000   0.77219318   -7.1030712    782.57866   0.02178186  0.021197098           18 
 2995000   0.76030224    -7.093247    782.08403  0.021760824  0.021190359           22 
 2996000   0.76081931   -7.0885314     780.9648   0.02172243  0.021183597           18 
 2997000   0.77145864   -7.1016985    781.28993  0.021724222  0.021176871           13 
 2998000   0.76101384      -7.0887    782.00626  0.021736887  0.021170143           16 
 2999000   0.78244362   -7.1280921    782.09922  0.021732222  0.021163344           11 
 3000000   0.77585847   -7.1084345    782.19842  0.021727734  0.021156588           10 
 3001000   0.76966357   -7.0907131    782.07953  0.021717192  0.021149877           14 
 3002000   0.76703296   -7.0908672    781.33136  0.021689189  0.021143205           21 
 3003000   0.78733994   -7.0852984     782.1373  0.021704332  0.021136453           16 
 3004000   0.76547545   -7.0684133    781.86374  0.021689518  0.021129753            9 
 3005000   0.76849401   -7.0853284    780.54666  0.021645775  0.021123027           11 
 3006000   0.77525203   -7.1037851     783.0776  0.021708738  0.021116338           20 
 3007000   0.76682712   -7.0671101    784.36409  0.021737171  0.021109648           31 
 3008000   0.77891069   -7.0670436    781.29589  0.021644944  0.021102973           15 
 3009000     0.770607   -7.0794447    783.10632   0.02168789  0.021096286           11 
 3010000   0.77430852   -7.0906948     780.6412  0.021612436  0.021089601           19 
 3011000   0.77025981   -7.1091481    782.02767  0.021643631  0.021082892           12 
 3012000    0.7707694   -7.0491246    784.77846  0.021712551  0.021076196           11 
 3013000   0.77286197   -7.0732306    783.01839  0.021656665  0.021069503           12 
 3014000   0.78502285    -7.088237    782.21549  0.021627281  0.021062828            7 
 3015000   0.77522708   -7.0915151    782.44047  0.021626326  0.021056143           24 
 3016000   0.78640382   -7.0552941    784.17249  0.021667012  0.021049503           11 
 3017000   0.77664785   -7.0935137     781.4427   0.02158443  0.021042817            9 
 3018000   0.76152573   -7.1104189    783.41914  0.021631852  0.021036124           11 
 3019000   0.77670955   -7.0838951    783.29461  0.021621249  0.021029415           12 
 3020000   0.76158067   -7.0927977     782.4079  0.021589622   0.02102271            6 
 3021000   0.77280483   -7.0931218    782.67804  0.021589927   0.02101599            5 
 3022000   0.76726948   -7.0912359    782.29431  0.021572201  0.021009262           15 
 3023000   0.78382277    -7.061558    782.66103  0.021575175  0.021002552            8 
 3024000   0.76155432   -7.0712612    783.54533  0.021592409   0.02099587           11 
 3025000   0.75691539   -7.0698517    784.22054  0.021603872  0.020989199           45 
 3026000    0.7804328     -7.08777    781.24505   0.02151479  0.020982484           12 
 3027000   0.76161716    -7.116632    782.48917  0.021541933  0.020975779           27 
 3028000   0.77472209   -7.1082524    782.33196  0.021530492  0.020969057            5 
 3029000   0.76077995   -7.1083812    781.60935  0.021503504  0.020962317           14 
 3030000   0.77214115   -7.0954745    783.96976  0.021561324  0.020955569           15 
 3031000    0.7732534   -7.1287441    783.39016  0.021538276  0.020948854           19 
 3032000   0.74692951   -7.1212215    781.68931  0.021484425   0.02094212           11 
 3033000   0.76874178    -7.101964    782.81746  0.021508338  0.020935388           11 
 3034000   0.77290063   -7.0904507    782.93716  0.021504536  0.020928671           14 
 3035000   0.78283876   -7.0893149    781.36449  0.021454269  0.020921991           15 
 3036000   0.75827849    -7.078702    783.44038  0.021504183  0.020915349           25 
 3037000   0.77862549   -7.0838516     783.4849  0.021498323  0.020908694           20 
 3038000   0.78961462   -7.0913834    782.56561  0.021466031  0.020902012           12 
 3039000   0.76326858    -7.072584    782.22359  0.021449588  0.020895337           19 
 3040000   0.75817426   -7.0681677    783.37085  0.021473982  0.020888676           17 
 3041000    0.7721423   -7.0813731    785.22347  0.021517688  0.020882018           12 
 3042000   0.76652067   -7.0964647    783.34485  0.021459151  0.020875318            6 
 3043000   0.76597268   -7.0383659    784.66867  0.021488352  0.020868654            9 
 3044000   0.77384718   -7.1065449    783.07942  0.021437785  0.020861991           17 
 3045000   0.76912234   -7.1165829    782.45845  0.021413751  0.020855292            9 
 3046000   0.76301823   -7.0994173    783.72233  0.021441298  0.020848585            9 
 3047000   0.77362496   -7.1014477    783.60167  0.021430961  0.020841879           16 
 3048000   0.77391759   -7.1093024    783.07883  0.021409636  0.020835176           15 
 3049000   0.75869698   -7.0863797     783.9798  0.021427238  0.020828466            9 
 3050000   0.78866094   -7.0616656    784.94769  0.021446658  0.020821776           10 
 3051000   0.77195248   -7.1139705      783.803  0.021408363   0.02081512           22 
 3052000   0.76938516    -7.129646    783.12705  0.021382892  0.020808467           13 
 3053000   0.77759413   -7.1155998    782.02727  0.021345869  0.020801784           19 
 3054000   0.77715115   -7.1164087    784.03184  0.021393578  0.020795093           14 
 3055000   0.76249288   -7.1170628    783.97903  0.021385135   0.02078842           13 
 3056000   0.77777945   -7.1047448    784.15633  0.021382972  0.020781776           12 
 3057000   0.74137373   -7.1179323    781.96837  0.021316333  0.020775083           11 
 3058000    0.7660029   -7.1097397    785.25527  0.021398934  0.020768393           66 
 3059000   0.76758648   -7.1624732    782.58429  0.021319175    0.0207617           15 
 3060000   0.76377965   -7.1250027    783.01587  0.021323962  0.020754979           22 
 3061000   0.75860682   -7.1005057    783.65936  0.021334514  0.020748257           15 
 3062000    0.7609145   -7.0991348    783.29728  0.021317692  0.020741589           19 
 3063000   0.75778571   -7.1452709    783.14603  0.021306618  0.020734864           11 
 3064000   0.76254581   -7.1541752    779.99048   0.02121384  0.020728135           47 
 3065000    0.7757902    -7.151354    784.06268  0.021317637  0.020721414           15 
 3066000   0.75137962   -7.1259571    784.16378  0.021313432  0.020714719           17 
 3067000   0.76737965   -7.1375919     783.6124  0.021291501  0.020708016           24 
 3068000   0.74660173    -7.125193    784.27113  0.021302454  0.020701309           20 
 3069000   0.76064948   -7.1189573    784.44571  0.021300253  0.020694611           23 
 3070000   0.75652826   -7.1108132    784.94933  0.021306985  0.020687926           11 
 3071000   0.76509954   -7.0929446    785.87632  0.021325201  0.020681267           43 
 3072000    0.7801318   -7.1382589    785.01627  0.021294929  0.020674584           18 
 3073000    0.7552686   -7.1469488    782.24909  0.021212959  0.020667915           29 
 3074000   0.76145138      -7.1461    782.91023  0.021223981  0.020661188           31 
 3075000   0.77322362   -7.1412944    782.80528  0.021214235  0.020654477            9 
 3076000   0.76416314   -7.1524226     782.1026  0.021188302  0.020647775           12 
 3077000   0.76833352    -7.151676    782.22848  0.021184825   0.02064103           26 
 3078000    0.7527387   -7.1141858    784.81119  0.021247866  0.020634316           13 
 3079000   0.76163561   -7.1345666    783.75536  0.021212389  0.020627605           13 
 3080000   0.73550065   -7.1607829    783.54332  0.021199765  0.020620874           22 
 3081000   0.75017666   -7.1548603    782.19865  0.021156514  0.020614123           40 
 3082000   0.75379029    -7.174735    782.18037  0.021149155  0.020607393           19 
 3083000   0.75204535   -7.1530693     783.7176  0.021183847  0.020600679           19 
 3084000   0.77312033   -7.1487757    783.32348  0.021166328  0.020593976            8 
 3085000    0.7413831   -7.1761384    781.21459  0.021102501  0.020587279           24 
 3086000   0.74994649   -7.1430976    784.49264  0.021184182  0.020580609           12 
 3087000    0.7490646    -7.137431    784.47245  0.021176775  0.020573922           21 
 3088000   0.75244912   -7.1489197    782.68392  0.021121652  0.020567255           49 
 3089000   0.76706561   -7.1463285    783.10012  0.021126042  0.020560577           12 
 3090000   0.77296552   -7.1278027     785.1807  0.021175315  0.020553888           23 
 3091000   0.74939392   -7.1440774    783.51762  0.021123628  0.020547215           22 
 3092000   0.76164347   -7.1041862    783.30822  0.021111153  0.020540537           22 
 3093000   0.74514674    -7.098622    783.32075  0.021104665  0.020533859           40 
 3094000   0.77463669   -7.0960894    784.41173  0.021127228  0.020527206            6 
 3095000    0.7561659   -7.1368269    785.69393  0.021154925   0.02052059           11 
 3096000   0.75393605   -7.1375792    784.93455  0.021127653  0.020513959           17 
 3097000   0.75773581   -7.1087021    785.54033  0.021137131  0.020507332           14 
 3098000   0.75692784   -7.1667201    783.37952  0.021072184  0.020500695           14 
 3099000   0.74505853   -7.1442716    783.33171  0.021064099  0.020494043           19 
 3100000   0.75794367   -7.1192687    787.08231  0.021158127  0.020487413           12 
 3101000   0.74905568   -7.1382629    785.51037  0.021109061  0.020480799           23 
 3102000   0.74269319   -7.1388353    786.20041  0.021120793  0.020474189           13 
 3103000   0.76961317   -7.1297588    785.12978  0.021085234  0.020467568            6 
 3104000   0.74200245   -7.1297791    785.39998  0.021085695  0.020460936           24 
 3105000   0.75806084   -7.1621432    783.45696  0.021026757  0.020454297           12 
 3106000   0.75608647   -7.1362515     785.6755   0.02107951  0.020447654            9 
 3107000   0.75869492   -7.1190864     784.8076  0.021049447  0.020441044            9 
 3108000   0.76016864   -7.1397752    784.83568  0.021043428  0.020434414           15 
 3109000   0.75955053   -7.1535466    783.84435  0.021010088  0.020427803            8 
 3110000    0.7387433   -7.1438968    784.44885   0.02101953  0.020421186           10 
 3111000   0.76046249   -7.1333077    783.55088   0.02098872  0.020414584            6 
 3112000   0.75365803   -7.1551462    783.61804  0.020983774   0.02040798            7 
 3113000   0.74973696   -7.1644932    785.89267  0.021037923  0.020401357           12 
 3114000   0.73405599   -7.1491659    782.91894  0.020951588  0.020394705           18 
 3115000   0.76024374   -7.1355529    784.27924  0.020981253  0.020388076           30 
 3116000    0.7580592   -7.1350856    785.48245  0.021006698  0.020381484           10 
 3117000   0.75967179   -7.1255414    785.87369  0.021010419  0.020374887           11 
 3118000   0.75008657   -7.1697944     784.0908  0.020956029  0.020368278           11 
 3119000   0.75219974   -7.1579421    782.84156  0.020915933  0.020361662           10 
 3120000   0.75241097   -7.1485843    782.55086  0.020901465  0.020355019           11 
 3121000   0.73829935   -7.1505953    784.43197  0.020944995  0.020348378           23 
 3122000    0.7773981   -7.1464159    786.25282  0.020986889  0.020341753           40 
 3123000   0.75210931   -7.1682077    784.57483  0.020935394  0.020335107           12 
 3124000   0.75419128   -7.1427047      784.497  0.020926616  0.020328427           16 
 3125000   0.74017794   -7.1537736    784.25965  0.020913591  0.020321792           22 
 3126000   0.75899857   -7.1587644    784.99958  0.020926626  0.020315136           20 
 3127000    0.7572585   -7.1668876    782.75601  0.020860143   0.02030852           37 
 3128000   0.75211038   -7.1567882    784.93966  0.020911649  0.020301874           13 
 3129000   0.74905102   -7.1570917    782.79998  0.020847981  0.020295213           18 
 3130000    0.7601421   -7.1987978    783.34182  0.020855746  0.020288518           19 
 3131000   0.74680922   -7.1748261    783.22891   0.02084608  0.020281848           14 
 3132000   0.75919048    -7.153692    783.11305  0.020836341  0.020275169           25 
 3133000   0.75924273   -7.1691726    782.52462  0.020814039  0.020268516            9 
 3134000   0.74758156   -7.1889829    782.63193  0.020810251  0.020261859           20 
 3135000   0.73474959    -7.159882    784.54717  0.020854523  0.020255196           13 
 3136000   0.74169127   -7.1337955    783.78387   0.02082759  0.020248562           15 
 3137000    0.7565647   -7.1364945    785.15981  0.020857502  0.020241929            7 
 3138000   0.75193046     -7.14795    784.45144  0.020832044  0.020235316           16 
 3139000   0.75959464   -7.1527214    785.21211  0.020845601  0.020228698           13 
 3140000   0.74545186   -7.1611821     784.9628  0.020832346  0.020222066           17 
 3141000   0.74785257   -7.1414064    784.39782  0.020810724  0.020215435           13 
 3142000   0.75778593   -7.1576911    786.18662  0.020851544  0.020208802           17 
 3143000   0.72151115   -7.1389187     784.1301  0.020790383  0.020202167           33 
 3144000   0.74268328   -7.1896093    783.01533  0.020754223  0.020195505           14 
 3145000   0.76380665   -7.1506009    784.47714  0.020786358  0.020188834           24 
 3146000   0.74122796   -7.1480293    784.05242    0.0207685  0.020182213           23 
 3147000   0.75024757   -7.1466751    786.30348  0.020821509   0.02017561           15 
 3148000   0.75287373   -7.1418017    785.71408  0.020799293  0.020169003           25 
 3149000   0.75330213   -7.1357641    783.78193  0.020741556    0.0201624           30 
 3150000    0.7357478   -7.1495392     783.9135  0.020738452  0.020155827           22 
 3151000   0.74095033   -7.1748331    783.92967  0.020732298  0.020149209           26 
 3152000   0.75452816   -7.1337963    783.58165   0.02071652  0.020142579           21 
 3153000   0.75116428   -7.1756294    783.13034  0.020698021  0.020135934           22 
 3154000   0.75105522   -7.1438069    783.80288  0.020709229  0.020129301           19 
 3155000   0.74865551   -7.1627098    784.53724  0.020722061  0.020122681           18 
 3156000   0.72294455   -7.1546699    783.76787   0.02069518  0.020116033           10 
 3157000   0.75040606   -7.1817239     785.9653  0.020746629  0.020109398           16 
 3158000   0.73600842   -7.1613694    784.62907  0.020704799  0.020102762           19 
 3159000   0.73694699   -7.1292129    785.63879  0.020724881  0.020096158           38 
 3160000   0.73521809   -7.1650039    784.45744  0.020687169  0.020089552           15 
 3161000   0.74467439   -7.1700853    783.56677  0.020657144  0.020082946           13 
 3162000   0.75966971   -7.1457005     785.4614  0.020700543  0.020076358           10 
 3163000   0.74313766   -7.1772684    784.15762  0.020659649  0.020069765            6 
 3164000    0.7479084   -7.1560297    783.88598  0.020645965  0.020063168           18 
 3165000   0.76951713   -7.1432312    784.77981  0.020662975  0.020056594           10 
 3166000   0.74766912   -7.1947337    785.49693  0.020675324      0.02005           21 
 3167000   0.76060309   -7.1799901     784.4687   0.02064174  0.020043373           14 
 3168000   0.76310088   -7.2021376     782.1521  0.020574287  0.020036747            5 
 3169000   0.74327714   -7.1687784    784.26538  0.020623366  0.020030119            9 
 3170000   0.74139398   -7.1360249    785.13237  0.020639652  0.020023538           10 
 3171000   0.76866607   -7.1377495    786.06128  0.020657555  0.020016953           12 
 3172000   0.73241998   -7.1492481    784.44155   0.02060849  0.020010356           11 
 3173000   0.74003064   -7.1481502    785.82387  0.020638299  0.020003745           20 
 3174000   0.74536465   -7.1803101    783.68885  0.020575742  0.019997114           12 
 3175000   0.73173188   -7.1813696    783.05443   0.02055261  0.019990472           13 
 3176000   0.74394134    -7.153846    784.74904  0.020590602  0.019983867           21 
 3177000   0.74665018   -7.1645383     783.3007  0.020546131  0.019977234           12 
 3178000   0.73960987   -7.1935156    784.66686  0.020575489  0.019970637           17 
 3179000   0.74378521   -7.1744157      785.183  0.020582547  0.019964004           20 
 3180000   0.73681799   -7.1667577    784.05667  0.020546558  0.019957369           41 
 3181000   0.73630749   -7.1873825    786.30572  0.020599018  0.019950736           44 
 3182000   0.74505427   -7.1766587    784.63501   0.02054879  0.019944139            7 
 3183000   0.74472088   -7.1921642     784.1378  0.020529317  0.019937548           13 
 3184000    0.7339455   -7.1744628    784.67705  0.020536983  0.019930923           21 
 3185000   0.74566843   -7.1815911    784.65349  0.020529919   0.01992431           16 
 3186000   0.74301408   -7.1522729    785.41955  0.020543512  0.019917714           14 
 3187000   0.75647651   -7.2046882    784.47261  0.020512305  0.019911126           17 
 3188000   0.74868864   -7.1636086    784.17323  0.020498046  0.019904479           15 
 3189000   0.74039566   -7.1645388    785.40691  0.020523856  0.019897862           16 
 3190000    0.7405945   -7.1805236    783.54732  0.020468843  0.019891273           23 
 3191000   0.76455861   -7.2023814    785.39054  0.020510565   0.01988463           21 
 3192000   0.74253409   -7.1729335    784.60596  0.020483656   0.01987803           25 
 3193000   0.74273543   -7.1787478    784.86543  0.020484013  0.019871467           26 
 3194000   0.73567834   -7.1555902    787.28435   0.02054071  0.019864909           14 
 3195000   0.73887437   -7.2042255    783.22347  0.020428364  0.019858351           21 
 3196000   0.74511701   -7.1632168    785.93266  0.020492612  0.019851793           13 
 3197000   0.73135975   -7.1779291    786.53993  0.020502031  0.019845238           22 
 3198000   0.73232399   -7.1643758    785.63247  0.020471974  0.019838697           26 
 3199000   0.74548633   -7.1799755    783.80047  0.020417851  0.019832141            9 
 3200000   0.71716405   -7.2058271    784.47931  0.020429149  0.019825528           13 
 3201000     0.736293   -7.2109602     784.3772  0.020420108  0.019818929           29 
 3202000   0.74290383   -7.1861521    785.27806  0.020437176  0.019812334           20 
 3203000   0.73110763   -7.1548807    786.50879  0.020462816  0.019805753            9 
 3204000   0.74072249   -7.1762715    785.61568    0.0204332  0.019799172           22 
 3205000   0.74012638   -7.1798773    784.60965  0.020400667  0.019792585           39 
 3206000    0.7389952   -7.1853624    783.73612  0.020371598  0.019785976           27 
 3207000   0.75238968   -7.1910251    784.56145  0.020386692  0.019779383           12 
 3208000   0.75327405   -7.1684839    784.25043  0.020372258  0.019772823           19 
 3209000   0.73509677   -7.1459561    784.88395  0.020382361  0.019766292           10 
 3210000   0.72867429   -7.1699251    785.73298  0.020398052  0.019759754            7 
 3211000   0.73076985   -7.1696173    786.26567  0.020405524  0.019753224            7 
 3212000   0.74164757   -7.1812148    786.30996  0.020400321   0.01974669           30 
 3213000   0.72905564    -7.183589    784.98499  0.020359607  0.019740149           14 
 3214000   0.73854052   -7.1620399    786.61942   0.02039565  0.019733587           14 
 3215000   0.72237103   -7.1918088    784.91876  0.020345224   0.01972707           14 
 3216000   0.73798153   -7.2179377    784.77968  0.020335294  0.019720492           13 
 3217000   0.73304538   -7.1936127    784.30692  0.020316727  0.019713895            7 
 3218000   0.73569807   -7.2103262      781.983  0.020250233  0.019707293           11 
 3219000   0.72729883   -7.2102947     783.5151  0.020283605  0.019700668           45 
 3220000   0.73161799   -7.1920881    784.93499  0.020314052  0.019694015           17 
 3221000    0.7377537   -7.2237993    783.93455  0.020281862   0.01968737           22 
 3222000   0.74113705   -7.2278297     781.9464  0.020224146  0.019680712           23 
 3223000   0.73718636   -7.2168717    783.32204   0.02025344  0.019674093           32 
 3224000   0.72741892   -7.2172641    784.15735  0.020268749  0.019667485           50 
 3225000   0.72319661   -7.2028975    782.65755  0.020223709  0.019660883           20 
 3226000   0.75619185   -7.2050638    783.84704  0.020248167  0.019654276           33 
 3227000   0.74967401   -7.2047377    781.47452  0.020180625  0.019647668           23 
 3228000   0.75002737   -7.2183348    783.80207  0.020234461  0.019641048           19 
 3229000   0.72686874   -7.2333989    782.15913  0.020185794  0.019634411           25 
 3230000   0.73858624   -7.2421711    783.81078  0.020222156  0.019627786           21 
 3231000   0.75095668   -7.2414919    782.72633  0.020187928  0.019621174           19 
 3232000   0.75466143     -7.18659    783.21322  0.020194235  0.019614591           13 
 3233000    0.7135681   -7.2219399    783.60617  0.020198117  0.019608011           22 
 3234000   0.73385312   -7.1917291    784.63428  0.020218364  0.019601419           21 
 3235000   0.73399565    -7.204591    784.22005  0.020201444   0.01959483           35 
 3236000   0.73910847   -7.2102492    784.07741  0.020191528  0.019588261           12 
 3237000   0.74557678   -7.2257799    783.65728  0.020174474  0.019581677           64 
 3238000   0.72688244     -7.20453     783.7602  0.020170893  0.019575085           33 
 3239000   0.75441459   -7.1929382    785.11443  0.020199507  0.019568546           47 
 3240000   0.72765567   -7.1967504    782.82771  0.020134458  0.019561989           60 
 3241000   0.74456765   -7.2334069    785.18884  0.020188955  0.019555421           49 
 3242000   0.73449053   -7.1959751    784.15868  0.020156248  0.019548855           76 
 3243000    0.7314775   -7.2130309    783.79613  0.020140717  0.019542283           57 
 3244000   0.72215747   -7.1909008    785.78109  0.020185499  0.019535739           45 
 3245000   0.74208652     -7.19384    784.62224  0.020149518   0.01952919           53 
 3246000   0.72796076   -7.2144625    784.11552  0.020130302  0.019522645           40 
 3247000   0.73698573   -7.2222941     785.0659  0.020148493    0.0195161           57 
 3248000   0.73077686   -7.1954728    785.24577  0.020146905   0.01950954           31 
 3249000   0.73645873   -7.2113018    785.77264  0.020154218  0.019502967           76 
 3250000   0.75734122   -7.2175859    784.45313  0.020114183  0.019496403           68 
 3251000   0.72151297   -7.2064442     785.2225  0.020127717  0.019489825           82 
 3252000    0.7286902   -7.2356454    781.90756  0.020036582  0.019483264           76 
 3253000   0.71515756   -7.2217605    783.75175  0.020077666  0.019476671           68 
 3254000   0.74188099   -7.2276736    782.59675  0.020041916  0.019470097           60 
 3255000   0.73717173   -7.2311013    784.12931  0.020074995  0.019463511           30 
 3256000   0.71587122   -7.2380851     784.9936   0.02009095  0.019456928           16 
 3257000   0.73353856   -7.1991647    783.81081  0.020054519  0.019450361           33 
 3258000   0.73856281   -7.2185883    784.49525   0.02006587  0.019443797           30 
 3259000   0.72278611   -7.1970102    784.89693  0.020069984  0.019437224           71 
 3260000   0.73483827   -7.2459247    782.19822  0.019994842  0.019430629           38 
 3261000    0.7321422   -7.2232226    783.56918  0.020023745  0.019424031           49 
 3262000   0.72098173   -7.2568306    782.39469  0.019987602  0.019417433           12 
 3263000   0.71663525   -7.2333604    784.79596  0.020042802  0.019410867           44 
 3264000   0.72301248   -7.1977309    784.40258  0.020026618  0.019404302           30 
 3265000   0.74220764   -7.2273325     783.9986  0.020010174  0.019397753           25 
 3266000   0.73327692   -7.2136913    785.06401  0.020031231    0.0193912           12 
 3267000    0.7315171   -7.2142167    784.50584  0.020010862   0.01938466           53 
 3268000   0.72793471   -7.2418239    784.21482  0.019997318  0.019378118           72 
 3269000   0.74121286   -7.2393692    785.03342  0.020012068  0.019371563           63 
 3270000   0.73294874   -7.2280465    785.85388  0.020026857     0.019365           40 
 3271000   0.74640175    -7.267965    782.69569  0.019940275   0.01935844           73 
 3272000    0.7147425     -7.24384    783.22775  0.019947732  0.019351861           82 
 3273000   0.75017906   -7.2408402    785.07373  0.019988638  0.019345286           66 
 3274000   0.70899106   -7.2483364    784.50744  0.019968118  0.019338741           73 
 3275000   0.72845442   -7.2467138    783.85646  0.019945457  0.019332176          102 
 3276000   0.73692753   -7.2502675    783.55271  0.019931642  0.019325621          102 
 3277000   0.73917692   -7.2419677     784.1631  0.019941082  0.019319045           81 
 3278000   0.72041081   -7.2309801    783.04073  0.019906466  0.019312456          161 
 3279000   0.73087621   -7.2516647    782.33083  0.019882353  0.019305876          160 
 3280000   0.72512531   -7.2794856    784.50983  0.019931652  0.019299291           99 
 3281000    0.7287579   -7.2368338    783.63951  0.019903472  0.019292695          106 
 3282000   0.73670083   -7.2309054    783.33601  0.019889702  0.019286103          105 
 3283000   0.72726621   -7.2546419    782.60258  0.019865026  0.019279527          109 
 3284000   0.73357391   -7.2741512    781.81161  0.019838906   0.01927293          104 
 3285000   0.72297218   -7.2198045    782.95786  0.019861945   0.01926636           65 
 3286000   0.73627088   -7.2312461    783.20614  0.019862197  0.019259784          121 
 3287000   0.71606456   -7.2470861    781.83941  0.019821504  0.019253198           56 
 3288000   0.71595563   -7.2407479    783.62731  0.019860789  0.019246642           93 
 3289000   0.72206218   -7.2149541     783.9235  0.019862256  0.019240125           42 
 3290000   0.72339261   -7.2387069    782.85218  0.019829083  0.019233608          104 
 3291000   0.72432005   -7.2329865    784.89748  0.019874848  0.019227086           66 
 3292000   0.73403064   -7.2549823    784.66283   0.01986287  0.019220559           96 
 3293000   0.72954235   -7.2299995    784.83151  0.019861107  0.019214027           80 
 3294000   0.72994138   -7.2359513    782.99435    0.0198086  0.019207484           26 
 3295000   0.73764298    -7.245169    783.39124  0.019812626  0.019200938          119 
 3296000   0.72600646   -7.2650209    782.30385  0.019779122  0.019194391           99 
 3297000   0.72928995   -7.2323813    785.22522  0.019846962  0.019187829           94 
 3298000   0.74034265   -7.2628012    782.16934  0.019763729  0.019181281           73 
 3299000   0.71921177   -7.2442755    782.21234  0.019758824  0.019174725           69 
 3300000   0.73638065   -7.2878678     782.2559  0.019753937  0.019168153           78 
 3301000   0.72280919   -7.2569808     781.2879  0.019723516  0.019161571           35 
 3302000   0.71248725   -7.2581009    783.64304   0.01977698  0.019155013           43 
 3303000   0.72076249   -7.2655676     784.1097  0.019782766  0.019148464           63 
 3304000   0.72237936     -7.26391    783.23443  0.019754702  0.019141882           66 
 3305000   0.70900488   -7.2507818    783.76688   0.01976215  0.019135316          114 
 3306000   0.72780032   -7.2744295    782.54855  0.019725463  0.019128759           86 
 3307000   0.72157199   -7.2748134    783.80464   0.01975115   0.01912218           82 
 3308000   0.72448015   -7.2707509    781.41371  0.019684948   0.01911562           93 
 3309000   0.72683768    -7.272083    781.47779  0.019680613  0.019109056          102 
 3310000   0.72974729    -7.257304    783.11896  0.019715986  0.019102481           46 
 3311000   0.72429432   -7.2834419    783.29754  0.019714526  0.019095911           95 
 3312000   0.73280398   -7.2792905    781.50126  0.019663377  0.019089344          131 
 3313000   0.70296503   -7.2877661    782.82205  0.019690664  0.019082757          116 
 3314000   0.71786979   -7.2321022    784.96105   0.01973851  0.019076193          161 
 3315000    0.7117874    -7.231462    783.01569  0.019683652  0.019069642          113 
 3316000   0.71950935    -7.234079    783.54616  0.019691047  0.019063104           85 
 3317000   0.72202689   -7.2584975    783.24599   0.01967757  0.019056576          101 
 3318000   0.71796471   -7.2564359    783.11468  0.019668341  0.019050035          127 
 3319000   0.73010943   -7.2513163    781.77953  0.019628893  0.019043495           91 
 3320000   0.71916871   -7.2604183    783.01478  0.019653985   0.01903693          143 
 3321000   0.71876475   -7.2755437    783.77296  0.019667092  0.019030355          106 
 3322000   0.72800539    -7.288457    781.33168  0.019599932  0.019023778          117 
 3323000   0.72337161   -7.2449642    783.10075  0.019638398  0.019017226          100 
 3324000   0.70244682   -7.2633856    783.18015   0.01963448  0.019010706          138 
 3325000   0.69861608   -7.2679397    782.36089  0.019608042   0.01900416          102 
 3326000   0.72378807   -7.2588791    782.35414  0.019601978  0.018997617          130 
 3327000   0.72118172   -7.2417009    783.55832  0.019626248  0.018991086           85 
 3328000   0.71644441   -7.2340539    783.61451  0.019621758  0.018984571           99 
 3329000   0.71132668   -7.2445265    782.30432  0.019583066  0.018978058           82 
 3330000   0.72802902   -7.2397697    782.52082  0.019582603  0.018971543           80 
 3331000   0.72219675   -7.2515628    782.79116  0.019583488  0.018965022           54 
 3332000    0.7192357   -7.2478878    781.36582  0.019541962   0.01895849           96 
 3333000   0.72830011   -7.2748973     783.2369  0.019582881  0.018951976          138 
 3334000   0.70741186   -7.2637939    784.46707  0.019607755  0.018945486          111 
 3335000   0.72210157   -7.2378047    783.43955  0.019576201  0.018939006          123 
 3336000   0.71611286   -7.2513709     782.6737  0.019551201  0.018932513          134 
 3337000   0.73013613   -7.2544689    785.00238  0.019603496  0.018926031          147 
 3338000   0.70079174   -7.2661843    782.76005  0.019541643  0.018919563           98 
 3339000   0.70766349   -7.2725303    783.09593  0.019544173  0.018913065           76 
 3340000   0.73279539     -7.26603    783.54825  0.019549607  0.018906564          213 
 3341000   0.70455045   -7.2702526    785.39509  0.019589821  0.018900072          147 
 3342000   0.70850949   -7.2695654    784.46424  0.019560748  0.018893577          173 
 3343000   0.72516773   -7.2498926    784.61891  0.019558752  0.018887091          145 
 3344000    0.7258196   -7.2575885    784.50331  0.019550023  0.018880607          140 
 3345000    0.7224146   -7.2780537    782.89502  0.019504111  0.018874106          144 
 3346000   0.72998526   -7.2667588    783.81412  0.019521173  0.018867627          124 
 3347000   0.71993988   -7.2457504    782.88497  0.019492206  0.018861146          180 
 3348000   0.69644025   -7.2644915      783.005  0.019489372  0.018854683          146 
 3349000    0.7061635   -7.2639684     782.1409  0.019462051  0.018848197          193 
 3350000   0.71913657   -7.2832927    780.26484  0.019409573  0.018841699          191 
 3351000    0.7120291   -7.2876356    781.79135  0.019441743  0.018835192          184 
 3352000   0.71674598   -7.2659033    780.66654  0.019407979  0.018828671          211 
 3353000   0.70594091   -7.2831498    783.17796  0.019464608  0.018822162          136 
 3354000   0.71704254   -7.3037684    780.52931  0.019392996  0.018815647          209 
 3355000   0.71241197   -7.2906376    783.07474  0.019450441  0.018809098          264 
 3356000   0.73570025    -7.315046    781.93306  0.019416296  0.018802551          261 
 3357000   0.69863526   -7.2985627    782.92512  0.019435138  0.018796004          218 
 3358000   0.70579835   -7.2900705    781.30236   0.01938908  0.018789474          276 
 3359000   0.72120074   -7.3181946     778.0218   0.01930192   0.01878293          285 
 3360000   0.70078697   -7.3233461    779.87326  0.019342095  0.018776352          298 
 3361000   0.72651822   -7.3252005      781.399  0.019374169   0.01876978          317 
 3362000   0.70055242   -7.2980554    780.19414  0.019338542  0.018763221          293 
 3363000   0.70531264    -7.308665    782.95499  0.019401204  0.018756682          295 
 3364000   0.70920244    -7.315178    781.69879  0.019364318  0.018750106          430 
 3365000   0.70779817   -7.2831073     780.9234  0.019339361  0.018743568          397 
 3366000   0.71274264   -7.2841801    780.98393  0.019335114   0.01873705          351 
 3367000   0.70504936   -7.2876931    781.14325  0.019333315  0.018730502          327 
 3368000   0.71380143   -7.3081333    781.34796   0.01933264  0.018723957          260 
 3369000   0.72886289    -7.317166    783.37869  0.019377132  0.018717432          299 
 3370000   0.72858668   -7.3109645    780.64425  0.019303765  0.018710907          324 
 3371000   0.71036574   -7.3161632    781.90124  0.019329112  0.018704379          315 
 3372000   0.69743902   -7.3107481    781.18599  0.019305704   0.01869785          394 
 3373000   0.69083501   -7.2963663    781.11361  0.019298192  0.018691325          345 
 3374000   0.70097778   -7.3143176    780.93809  0.019288137  0.018684762          369 
 3375000   0.71976969   -7.3026363    782.74003  0.019326914  0.018678223          317 
 3376000   0.70739365   -7.3077101    780.67962   0.01927033   0.01867169          416 
 3377000   0.72186634   -7.2943823    781.08831  0.019274709  0.018665161          391 
 3378000   0.70748433   -7.3157058    780.84853  0.019263088  0.018658649          333 
 3379000   0.72015046   -7.3218897    780.43113  0.019247093  0.018652098          419 
 3380000    0.7355755   -7.3225932    780.95821  0.019254394  0.018645557          437 
 3381000   0.69685106   -7.3360635    780.73862  0.019243287  0.018638995          505 
 3382000   0.72617217     -7.29989    781.12994  0.019247239  0.018632442          430 
 3383000   0.70846649   -7.3114069    780.54646  0.019227177   0.01862589          471 
 3384000   0.71595876   -7.3338727       781.18  0.019237096  0.018619342          504 
 3385000   0.70233559    -7.343477    780.52953    0.0192154  0.018612782          393 
 3386000   0.72000871   -7.3246439    779.80757  0.019191956  0.018606254          443 
 3387000   0.70523107   -7.3103388    779.20933  0.019171571  0.018599715          463 
 3388000   0.70557237   -7.2902258    781.29269  0.019217156  0.018593194          508 
 3389000   0.71207112   -7.3023732    782.69273  0.019245912  0.018586683          393 
 3390000   0.70717558   -7.3077036    779.83702  0.019170035  0.018580162          521 
 3391000   0.70524849   -7.3096823    779.95569  0.019167298  0.018573624          538 
 3392000   0.70880717   -7.3337054    780.61654  0.019177883  0.018567086          510 
 3393000   0.72126395   -7.3343717    779.60172  0.019147306   0.01856056          474 
 3394000   0.70537379   -7.3308791    780.89336  0.019173379  0.018554025          433 
 3395000    0.6909249   -7.3322717    778.83024   0.01911709  0.018547482          450 
 3396000   0.70673495   -7.3162645    779.99673  0.019140085  0.018540925          471 
 3397000   0.70556824   -7.3166002    780.99391  0.019158913   0.01853438          445 
 3398000   0.70891141   -7.3291732    778.66242  0.019096096  0.018527831          441 
 3399000   0.70427335   -7.3389219    779.91723  0.019121242  0.018521258          457 
 3400000   0.70929167   -7.3385104    779.66615  0.019109464  0.018514722          543 
 3401000   0.71331225   -7.3255948    780.11441  0.019114829  0.018508181          471 
 3402000   0.72237849   -7.3386602    778.69108  0.019074346  0.018501644          487 
 3403000   0.70070312   -7.3174502    779.16814  0.019080423  0.018495072          424 
 3404000   0.70436891   -7.3448718    779.18031  0.019075115  0.018488517          489 
 3405000   0.71354491   -7.3389227    780.54875  0.019103004   0.01848194          428 
 3406000    0.7060604   -7.3659812     778.9006  0.019057071  0.018475376          551 
 3407000   0.70803109   -7.3573888    779.83293  0.019074282   0.01846881          647 
 3408000    0.7000574   -7.3200203    779.40659   0.01905826  0.018462235          545 
 3409000   0.71001314    -7.335677     778.5744  0.019032326  0.018455698          502 
 3410000   0.71110337   -7.3401599    777.58609  0.019002593  0.018449149          541 
 3411000   0.70248185   -7.3669698    778.04428  0.019008215  0.018442603          586 
 3412000   0.71340864   -7.3518643    781.11364   0.01907761  0.018436034          461 
 3413000   0.71027474   -7.3683418    778.94125  0.019018978   0.01842946          623 
 3414000   0.70694542   -7.3696143    778.93167  0.019013173  0.018422878          669 
 3415000   0.69480658   -7.3514454    779.22642  0.019014798  0.018416307          605 
 3416000   0.71218581   -7.3604605    778.43001  0.018989803  0.018409728          575 
 3417000   0.71591103   -7.3405744    778.93943  0.018996669  0.018403158          643 
 3418000   0.69615011    -7.374973    779.07662  0.018994456  0.018396597          656 
 3419000   0.69918587    -7.344626    777.55468  0.018951806  0.018390031          762 
 3420000   0.70427946   -7.3807012    777.87081  0.018953967  0.018383469          778 
 3421000    0.6968567   -7.3693344    777.88083  0.018948671   0.01837689          703 
 3422000   0.69429042   -7.3787513    779.19531  0.018975144  0.018370326          699 
 3423000   0.70253445   -7.3609012    777.56865  0.018929999  0.018363749          692 
 3424000   0.70207659   -7.3827269    777.43929  0.018921322  0.018357157          703 
 3425000   0.71673606   -7.3422876    777.65723    0.0189211  0.018350585          617 
 3426000   0.71702707   -7.3577037    779.50412  0.018960501  0.018344054          575 
 3427000    0.7026686   -7.3759416    776.23109  0.018875379   0.01833749          660 
 3428000   0.70188928   -7.3580084    780.04095  0.018962489  0.018330914          689 
 3429000   0.70211722   -7.3747147    778.28454  0.018914274  0.018324348          765 
 3430000   0.69762969   -7.3613103    778.12063  0.018904777  0.018317816          590 
 3431000   0.70549699   -7.3398119     778.9821  0.018920191  0.018311261          591 
 3432000    0.6917133   -7.3509265    779.73954   0.01893307  0.018304749          662 
 3433000   0.70349149   -7.3528905    779.47853  0.018921219  0.018298242          734 
 3434000   0.70694555   -7.3471354    778.70515  0.018896941  0.018291716          708 
 3435000   0.71400125   -7.3711551    777.98792   0.01887404   0.01828516          760 
 3436000   0.71766382   -7.3989107    777.31665  0.018852266  0.018278616          794 
 3437000   0.69757251   -7.4121341    776.15928   0.01881872  0.018272043          887 
 3438000   0.70955867   -7.3848468    777.69242  0.018850408  0.018265474          781 
 3439000   0.72306478   -7.3823038    778.76371  0.018870886  0.018258917          805 
 3440000   0.69480161   -7.3941659    776.65301  0.018814269  0.018252358          880 
 3441000   0.71030942   -7.4130749    776.70218  0.018809992  0.018245771          909 
 3442000   0.70340689   -7.3919332    777.48417   0.01882346  0.018239211          964 
 3443000   0.70005725   -7.3987565    775.46583  0.018769141  0.018232635          933 
 3444000   0.70560076   -7.3933188    777.60509  0.018815454  0.018226071          938 
 3445000   0.71149857   -7.3886393    777.19946   0.01880018  0.018219509          913 
 3446000   0.69725368   -7.4134793    776.26572  0.018772145  0.018212949          901 
 3447000   0.70630775   -7.3956818    778.84244  0.018828992  0.018206371         1009 
 3448000   0.67585446   -7.3966468    776.08775  0.018756955  0.018199789          979 
 3449000   0.67634231   -7.4175904     777.4356  0.018784082  0.018193199          950 
 3450000   0.70441628    -7.414192    776.11917   0.01874684  0.018186625         1040 
 3451000    0.6909049   -7.3974962    777.95786  0.018785808  0.018180039         1040 
 3452000   0.69426806   -7.4068196    774.94501  0.018707634  0.018173451         1059 
 3453000   0.69215547   -7.4268947    776.83738  0.018747886  0.018166855         1045 
 3454000   0.70905504   -7.4095075    776.35509  0.018730821  0.018160269         1029 
 3455000   0.70501717   -7.4139203    777.20807  0.018745974  0.018153688         1104 
 3456000   0.69237328   -7.4147212    775.84453  0.018707671  0.018147101         1125 
 3457000   0.68054394    -7.437368    774.57679    0.0186717  0.018140502         1188 
 3458000   0.68989447   -7.4309132    774.78948  0.018671426  0.018133906         1158 
 3459000   0.70213622   -7.4276853    776.46923  0.018706496  0.018127329         1149 
 3460000   0.68841199   -7.4493189    776.05056  0.018691006  0.018120748         1197 
 3461000   0.69572852   -7.4246839    776.24458  0.018690277  0.018114166         1270 
 3462000   0.70395502   -7.4392194    777.90463  0.018724837  0.018107572         1208 
 3463000   0.69385533   -7.4388366    776.95143  0.018696492  0.018100991         1291 
 3464000   0.69644853   -7.4387297    774.57151  0.018633841  0.018094398         1317 
 3465000   0.68206963   -7.4587482    775.12033  0.018641663   0.01808782         1328 
 3466000    0.6980954   -7.4330669    775.79392  0.018652479  0.018081234         1261 
 3467000   0.70596358   -7.4354881    775.79025  0.018647011  0.018074658         1287 
 3468000   0.69415563   -7.4481385    774.42273  0.018608774  0.018068054         1350 
 3469000   0.68273963   -7.4330564    775.00207  0.018617326   0.01806147         1335 
 3470000   0.69659634   -7.4523974     775.1889  0.018616448  0.018054887         1279 
 3471000   0.69499296   -7.4673513    774.58496  0.018596585  0.018048305         1427 
 3472000   0.69771997   -7.4582405    774.99465  0.018601062  0.018041719         1395 
 3473000   0.70246443   -7.4547721    773.55053  0.018561055  0.018035142         1371 
 3474000    0.7025499   -7.4632658    773.53429  0.018555323  0.018028578         1509 
 3475000   0.69015766    -7.454728    775.15128   0.01858876  0.018021985         1456 
 3476000   0.71199507   -7.4831377    774.45689  0.018566765  0.018015388         1452 
 3477000   0.69582504   -7.4717206    775.09682  0.018576762  0.018008778         1435 
 3478000   0.69340402   -7.4872213    774.69626  0.018561823   0.01800218         1461 
 3479000   0.70175061   -7.4869392    774.39998  0.018549391  0.017995566         1479 
 3480000   0.70235929    -7.475946    775.21142  0.018563492  0.017988955         1579 
 3481000   0.70849519   -7.4977022    772.17527  0.018485475   0.01798236         1493 
 3482000   0.68752909   -7.5064748    774.07561  0.018525646   0.01797575         1548 
 3483000   0.69896676   -7.5023774    772.50393  0.018482724  0.017969121         1534 
 3484000   0.70233768   -7.4785188    774.23772  0.018518889  0.017962516         1604 
 3485000   0.70412142   -7.4779191    775.00177  0.018531845  0.017955888         1583 
 3486000   0.68640738   -7.4907758    774.07854  0.018504459  0.017949275         1596 
 3487000   0.69426444   -7.4967693    773.32898  0.018481239  0.017942653         1552 
 3488000   0.67839738   -7.4858205    773.69007  0.018484568  0.017936046         1592 
 3489000   0.70327413   -7.4694148    774.51235   0.01849891  0.017929446         1569 
 3490000   0.69027079   -7.4753915    774.62642  0.018496333  0.017922851         1687 
 3491000   0.70205654   -7.4842508    771.17712  0.018408697   0.01791624         1628 
 3492000   0.69734859    -7.486716    772.99996  0.018446925  0.017909632         1676 
 3493000   0.69344176    -7.485528    771.22012  0.018399182  0.017903014         1707 
 3494000   0.69594118    -7.510051    772.99792  0.018436318  0.017896405         1709 
 3495000   0.68593644   -7.4945788    774.06977  0.018456599  0.017889787         1775 
 3496000   0.67878622   -7.4841225    773.68469  0.018442141  0.017883179         1752 
 3497000   0.70828591   -7.4984894    774.09589  0.018446666  0.017876559         1873 
 3498000   0.68339622   -7.5168321    771.89703  0.018389009  0.017869946         1843 
 3499000   0.70263853   -7.5094331    772.28424  0.018392975   0.01786332         1862 
 3500000   0.70542298   -7.5031509    769.82154  0.018329084  0.017856688         1764 
 3501000   0.69082813   -7.5357017    771.65787  0.018367558  0.017850067         1849 
 3502000   0.68952283   -7.5131031    772.91023  0.018392115  0.017843448         1694 
 3503000   0.68293149   -7.4933963    774.14115  0.018416147  0.017836841         1793 
 3504000    0.7097882   -7.4930539    771.96354  0.018359102   0.01783022         1806 
 3505000   0.69721582   -7.4695542    774.71176  0.018419205  0.017823618         1890 
 3506000   0.69194165   -7.4913389    772.99786  0.018373214   0.01781701         1868 
 3507000   0.69764875   -7.5416565     770.5111  0.018308885  0.017810406         1926 
 3508000   0.67999014   -7.5157444    771.59761  0.018329476  0.017803785         2013 
 3509000   0.69197887   -7.5403141    772.73326  0.018351222  0.017797161         2093 
 3510000   0.68164184   -7.5488248    771.75474  0.018322762  0.017790532         2067 
 3511000   0.69598189   -7.5293855    771.96136  0.018322447  0.017783904         2117 
 3512000   0.68946459   -7.5426284    770.08263  0.018272652  0.017777275         2249 
 3513000   0.69356501    -7.516966    770.38322  0.018274581   0.01777063         2160 
 3514000   0.66935779   -7.5523541    770.70343  0.018276974  0.017763991         2286 
 3515000   0.69658437   -7.5432226     771.1228  0.018281716  0.017757342         2205 
 3516000   0.68518967   -7.5631122    769.90382  0.018247626  0.017750681         2389 
 3517000    0.6840273   -7.5508821    769.73758  0.018238498  0.017744026         2383 
 3518000   0.69430441   -7.5556761    770.22731  0.018244914   0.01773736         2420 
 3519000   0.68933929     -7.55336    770.45335  0.018245083  0.017730698         2436 
 3520000   0.67835835   -7.5405857    770.12685   0.01823217  0.017724031         2525 
 3521000   0.68127813   -7.5691335    768.94625   0.01819905   0.01771736         2657 
 3522000   0.69913573   -7.5686396    770.26727  0.018225139  0.017710681         2707 
 3523000   0.69633243   -7.5421969    771.91695  0.018258987  0.017704009         2700 
 3524000   0.68544428    -7.556271    769.84913  0.018204908  0.017697326         2672 
 3525000    0.6940516   -7.5835989    770.41383  0.018213093   0.01769065         2761 
 3526000    0.6842285   -7.5542599    770.39762  0.018207544  0.017683975         2711 
 3527000   0.68464021   -7.5747059     770.6444  0.018208213  0.017677299         2662 
 3528000   0.69590661   -7.5888158     769.5265  0.018176646  0.017670617         2816 
 3529000   0.68531018   -7.5920308    768.69269  0.018151806  0.017663935         2836 
 3530000   0.68545716   -7.5972324    768.28634  0.018137071  0.017657247         2752 
 3531000   0.70869942   -7.6019565    768.85146  0.018145272  0.017650576         2837 
 3532000   0.67851937   -7.5905849    770.22613  0.018172568  0.017643893         2768 
 3533000   0.67709364   -7.5895354    768.51683  0.018127107  0.017637199         2802 
 3534000   0.68818576   -7.6021467    770.27201  0.018163366  0.017630521         2838 
 3535000   0.68990036   -7.6139506    768.13604  0.018107875  0.017623838         2807 
 3536000    0.6952987   -7.5914563    769.17758    0.0181273  0.017617159         2810 
 3537000   0.68012149   -7.5951846    768.49533  0.018106101  0.017610486         2823 
 3538000   0.67601722   -7.5811302    770.19009  0.018140901  0.017603811         2889 
 3539000    0.6844489    -7.581123    770.47601  0.018142507  0.017597143         2828 
 3540000   0.67874759   -7.6247875    769.91135   0.01812409  0.017590473         2857 
 3541000   0.67691015   -7.5767089    767.84486  0.018070339  0.017583803         2862 
 3542000   0.68630753   -7.5958627    769.69025  0.018108655  0.017577133         2904 
 3543000   0.68019733   -7.6215314    768.32607  0.018071457  0.017570452         2998 
 3544000   0.68251768   -7.6210155     767.9068  0.018056499  0.017563778         2927 
 3545000   0.67121482   -7.6157421    767.25657  0.018036121  0.017557104         2956 
 3546000   0.68530155   -7.6027834    768.79996  0.018067305  0.017550434         2969 
 3547000   0.70476748   -7.6009015    770.43781  0.018100691  0.017543768         2929 
 3548000   0.68641513   -7.6231056    768.34347  0.018046399    0.0175371         2937 
 3549000   0.67866584   -7.6247173    768.10905  0.018035809  0.017530429         2981 
 3550000    0.6884902    -7.635811     766.7102  0.017997892  0.017523752         3093 
 3551000   0.71249534   -7.6472593    766.90862   0.01799748  0.017517061         3050 
 3552000   0.67252801   -7.6388693    768.32873   0.01802573  0.017510376         3085 
 3553000   0.67487873    -7.646197    765.44361  0.017952988  0.017503687         3120 
 3554000   0.68698635   -7.6320769    766.91672  0.017982478  0.017496987         3079 
 3555000    0.6755395   -7.6486186    769.34954  0.018034448  0.017490302         3103 
 3556000   0.68020298   -7.6384214    766.63764  0.017965824  0.017483613         3136 
 3557000   0.69236555   -7.6553027    765.18309  0.017926696  0.017476934         3127 
 3558000   0.68670974   -7.6489918    767.00512  0.017964332  0.017470234         3142 
 3559000   0.68910946   -7.6483792    765.39107  0.017921492  0.017463544         3173 
 3560000   0.68503144     -7.66676    766.98467  0.017953761  0.017456836         3241 
 3561000   0.68074041   -7.6422497    767.26329  0.017955239   0.01745014         3278 
 3562000   0.68849444   -7.6200456    767.33369  0.017951846  0.017443445         3183 
 3563000   0.68778671   -7.6627159    767.54408  0.017951728  0.017436761         3301 
 3564000   0.68070062   -7.6580965    766.16878  0.017914534  0.017430076         3198 
 3565000    0.6819058   -7.6339281    767.32474   0.01793653  0.017423393         3100 
 3566000   0.70315156   -7.6485366    766.87158   0.01792091  0.017416711         3224 
 3567000    0.6890684    -7.677947    766.14376  0.017898882  0.017410022         3236 
 3568000   0.68174898   -7.6646995     765.2626  0.017873286  0.017403331         3191 
 3569000   0.66803378   -7.6547137    766.89756  0.017906453  0.017396648         3273 
 3570000   0.67933479    -7.669421    765.34948  0.017865301  0.017389969         3302 
 3571000   0.69826087   -7.6669168    765.95618  0.017874456   0.01738328         3303 
 3572000    0.6724947   -7.6546798    766.67777  0.017886286  0.017376609         3273 
 3573000    0.6732413   -7.6649897    766.54966  0.017878292  0.017369927         3228 
 3574000   0.68136954   -7.6597956    766.71952   0.01787725  0.017363248         3283 
 3575000   0.68045801   -7.6870688    763.68098  0.017801422  0.017356564         3260 
 3576000   0.67738057     -7.67173    765.60959  0.017841387  0.017349887         3271 
 3577000   0.69931575   -7.6594345    766.16937   0.01784944  0.017343212         3289 
 3578000   0.68978698   -7.6794624    764.74404  0.017811255  0.017336548         3309 
 3579000   0.68479372   -7.6664036    766.80408  0.017854244  0.017329887         3245 
 3580000   0.68689321   -7.6838316     764.9416  0.017805903  0.017323221         3194 
 3581000   0.69215326   -7.6826994    766.25852  0.017831577  0.017316555         3342 
 3582000   0.68329988   -7.6911665     766.1014  0.017822943  0.017309891         3295 
 3583000   0.67228595   -7.6635107    767.01318  0.017839175  0.017303217         3276 
 3584000   0.67660707   -7.6725391    765.71919  0.017804111  0.017296552         3372 
 3585000   0.66584362   -7.6622446    764.00635  0.017759329  0.017289896         3303 
 3586000   0.67593634   -7.6638162    765.47041  0.017788399  0.017283235         3276 
 3587000   0.67672886   -7.6789644    765.19804  0.017777113  0.017276575         3315 
 3588000    0.6809787   -7.6632306    765.07968  0.017769409  0.017269917         3294 
 3589000   0.67855403   -7.6895998    764.86385  0.017759447  0.017263257         3373 
 3590000    0.6779499   -7.6778981     765.5183  0.017769691  0.017256593         3463 
 3591000   0.68829491   -7.6862048    764.64082   0.01774438  0.017249935         3407 
 3592000   0.67175631   -7.6412493    765.63163  0.017762426  0.017243297         3344 
 3593000   0.66937557   -7.6819018    764.31413  0.017726926  0.017236653         3287 
 3594000   0.67879971   -7.6740087    765.93093  0.017759482  0.017230007         3395 
 3595000   0.68724555   -7.7285969    763.51017  0.017698428  0.017223356         3269 
 3596000   0.67869992   -7.6961398    764.68127  0.017720645  0.017216713         3443 
 3597000   0.66991853   -7.7019612    764.34116  0.017707839  0.017210075         3447 
 3598000   0.66624891   -7.6809689    766.18663   0.01774566  0.017203428         3345 
 3599000   0.66814131   -7.6920981     765.0232  0.017713791    0.0171968         3490 
 3600000   0.67302593   -7.6732057    764.10325  0.017687575  0.017190182         3344 
 3601000   0.68358043   -7.7008985     766.8109  0.017745323  0.017183566         3350 
 3602000   0.68612332   -7.6931188    764.25549  0.017681276  0.017176957         3422 
 3603000   0.68202031   -7.6763304    766.08164  0.017718606  0.017170341         3405 
 3604000   0.68132852   -7.6946103    766.19345  0.017716275  0.017163726         3361 
 3605000   0.68194543   -7.6790438      766.268  0.017713084  0.017157119         3398 
 3606000   0.68686926   -7.6842008    765.54531   0.01769147  0.017150499         3378 
 3607000   0.67217909   -7.7200557    763.66216  0.017643059  0.017143871         3451 
 3608000   0.67030347   -7.7132071      766.845  0.017711682  0.017137247         3445 
 3609000   0.67579246   -7.7035845    763.85128  0.017637648  0.017130636         3433 
 3610000   0.67177869   -7.6899282    764.64338  0.017651048  0.017124016         3381 
 3611000    0.6714344   -7.6839172    764.85205  0.017650975  0.017117409         3388 
 3612000   0.67140811   -7.7091873    763.88307  0.017623733    0.0171108         3401 
 3613000   0.68468093   -7.7053381    764.88167  0.017641887  0.017104197         3482 
 3614000   0.68928841   -7.6990395    765.39518  0.017648847  0.017097592         3444 
 3615000   0.66119241   -7.7012233    765.82147  0.017653791  0.017090983         3489 
 3616000   0.68484665   -7.7035241    764.68803  0.017622788  0.017084381         3407 
 3617000   0.66909974   -7.7046921     763.9536  0.017600995  0.017077791         3400 
 3618000    0.6681158   -7.7027154    764.84707   0.01761671  0.017071197         3414 
 3619000   0.67097609   -7.6995477    764.79349  0.017610608    0.0170646         3436 
 3620000   0.66249379   -7.7005889    762.88786  0.017561875  0.017058003         3372 
 3621000   0.68016574   -7.7383017    764.08086  0.017584481  0.017051412         3361 
 3622000   0.67554808   -7.7051196    764.24236  0.017583342  0.017044827         3317 
 3623000   0.65621494   -7.7039929     764.2477  0.017578611  0.017038248         3316 
 3624000   0.67493686   -7.6922056    764.49209   0.01757938  0.017031669         3421 
 3625000   0.69272431   -7.7012605     765.3358  0.017593926  0.017025096         3330 
 3626000   0.65657271   -7.6971136    765.60468  0.017595254   0.01701852         3467 
 3627000    0.6729412   -7.6986189    764.29135  0.017560228  0.017011941         3358 
 3628000    0.6717244    -7.704528    764.23103  0.017554002   0.01700536         3438 
 3629000   0.67136004   -7.7101018    765.26636  0.017572939    0.0169988         3410 
 3630000   0.66672086   -7.7074619    764.30486  0.017546025  0.016992224         3409 
 3631000   0.67944145   -7.7168698    763.31524  0.017518481  0.016985652         3431 
 3632000   0.66509253    -7.702802    764.87585  0.017549464  0.016979089         3450 
 3633000    0.6550714   -7.6976477    764.77082  0.017542224  0.016972528         3426 
 3634000   0.68827029   -7.7096043    766.19071  0.017569958  0.016965972         3484 
 3635000   0.67269352   -7.7175326     763.8476  0.017511408   0.01695941         3541 
 3636000   0.67090183   -7.7118185    764.81409  0.017528742  0.016952857         3427 
 3637000   0.67851738   -7.6991813    764.16332  0.017509012  0.016946296         3462 
 3638000   0.66153092   -7.7055344    764.43603  0.017510446  0.016939739         3489 
 3639000   0.66495187   -7.7060441    764.48994  0.017506869  0.016933183         3497 
 3640000   0.67304382   -7.6770235    764.58485  0.017504232  0.016926644         3446 
 3641000   0.65516392   -7.7266471    762.96213  0.017462284  0.016920106         3479 
 3642000   0.67332074    -7.723571    763.99879   0.01748121  0.016913563         3498 
 3643000   0.67142515    -7.735029      764.406  0.017485726  0.016907017         3469 
 3644000   0.66317277   -7.6941879    765.98198  0.017516968  0.016900473         3467 
 3645000    0.6624024   -7.7158527    763.54032   0.01745634  0.016893933         3560 
 3646000   0.67063958   -7.7271606    764.93141  0.017483347  0.016887389         3510 
 3647000   0.66860572   -7.7156984    764.44408  0.017467418  0.016880859         3431 
 3648000   0.66757257   -7.7303502    762.94895  0.017428476  0.016874333         3456 
 3649000   0.67172383   -7.7050307    764.10581  0.017450119  0.016867811         3443 
 3650000   0.67921386   -7.7239934    764.45081  0.017453215  0.016861283         3433 
 3651000   0.64143297   -7.7385972    764.48533  0.017449222  0.016854763         3506 
 3652000   0.67377289   -7.7274265    764.83696  0.017452468  0.016848242         3490 
 3653000   0.66959075   -7.7285816    763.36666   0.01741415  0.016841727         3537 
 3654000   0.65357131    -7.713308    764.71631  0.017440164  0.016835219         3458 
 3655000     0.667834   -7.7119142     765.0449  0.017442884  0.016828704         3513 
 3656000   0.66256781   -7.7223635    763.90216  0.017412066  0.016822187         3554 
 3657000   0.65135799   -7.7277288    762.97041  0.017386073  0.016815673         3508 
 3658000   0.66582191   -7.7181303    764.32682   0.01741222  0.016809164         3492 
 3659000   0.67333271   -7.7281746    765.62693  0.017437071  0.016802658         3488 
 3660000   0.65408229   -7.7308128     765.2608  0.017423971  0.016796162         3517 
 3661000   0.66912165   -7.7542393    763.45841  0.017378185  0.016789666         3509 
 3662000   0.66594718   -7.7329546    761.98643  0.017339943  0.016783166         3581 
 3663000   0.66353872   -7.7332698    762.36856  0.017343902  0.016776681         3565 
 3664000   0.65742413     -7.73494    764.12567  0.017379132  0.016770192         3519 
 3665000   0.67559697   -7.7498582    765.68812  0.017409916  0.016763704         3556 
 3666000   0.66095701   -7.7304341    763.27169  0.017350239   0.01675721         3551 
 3667000   0.66367841   -7.7261639     763.8683  0.017359065  0.016750733         3505 
 3668000   0.66765324   -7.7373811    762.69961  0.017327781  0.016744255         3596 
 3669000    0.6624926   -7.7157881    762.65738  0.017322099  0.016737773         3564 
 3670000   0.65963684   -7.7406666    763.88663  0.017345291    0.0167313         3522 
 3671000   0.66716204   -7.7178163    764.33578  0.017350762  0.016724829         3510 
 3672000   0.65742015   -7.7399665    763.05832  0.017317046  0.016718356         3632 
 3673000   0.66953704   -7.7309185    763.98501  0.017333356  0.016711881         3625 
 3674000   0.67474818   -7.7159491    761.80507  0.017279193  0.016705414         3612 
 3675000   0.67791871   -7.7452115    764.62006  0.017338323  0.016698949         3561 
 3676000   0.64946716   -7.7392814     762.3591  0.017282352  0.016692472         3590 
 3677000   0.65468886    -7.729907    762.85612  0.017288916  0.016686002         3554 
 3678000   0.67222402   -7.7446793    763.76838  0.017304885  0.016679543         3563 
 3679000   0.66270229   -7.7239356    764.66792  0.017320556  0.016673081         3591 
 3680000   0.66114164   -7.7430907     762.7117  0.017271551  0.016666634         3536 
 3681000   0.66161592   -7.7381046    763.47214  0.017284075  0.016660177         3579 
 3682000   0.67397572   -7.7224423    763.82704  0.017287413  0.016653728         3551 
 3683000   0.65777285   -7.7447186     762.7613  0.017258605  0.016647286         3567 
 3684000   0.65419287   -7.7387554    763.67515  0.017274592  0.016640839         3576 
 3685000   0.66263945   -7.7468683    762.34932  0.017239921  0.016634396         3594 
 3686000   0.66084157   -7.7322671    764.17853  0.017276599   0.01662795         3574 
 3687000   0.65638143   -7.7464963    763.02255  0.017245786  0.016621506         3590 
 3688000   0.68019501   -7.7318741    763.25032  0.017246256  0.016615065         3529 
 3689000   0.67525055   -7.7513933    761.75854  0.017207882  0.016608628         3580 
 3690000   0.65896977   -7.7621549    761.71513  0.017202239  0.016602195         3529 
 3691000   0.64391555   -7.7314285    763.78879  0.017244396  0.016595755         3522 
 3692000   0.65272184   -7.7489288    761.39115  0.017185607  0.016589326         3596 
 3693000   0.65765699   -7.7639073    762.82019    0.0172132  0.016582897         3566 
 3694000    0.6791015   -7.7554773    763.06621  0.017214091  0.016576476         3545 
 3695000   0.65819679   -7.7278074    764.77764   0.01724803  0.016570057         3557 
 3696000   0.66539597   -7.7253275    765.05356  0.017249584  0.016563641         3530 
 3697000   0.67434611   -7.7389461    761.25916  0.017159389  0.016557226         3575 
 3698000   0.66219564   -7.7557078    763.00597  0.017194113  0.016550809         3580 
 3699000   0.66952145   -7.7633487    762.24583   0.01717234  0.016544395         3582 
 3700000   0.65135982   -7.7646957    762.20977  0.017166887   0.01653798         3610 
 3701000   0.64374968   -7.7330738    763.45455  0.017190276  0.016531573         3553 
 3702000   0.66641127    -7.758741    761.92916  0.017151296  0.016525167         3581 
 3703000   0.65856295    -7.761734    762.11178  0.017150774  0.016518762         3543 
 3704000   0.66050939   -7.7104682    761.99294   0.01714347  0.016512358         3613 
 3705000    0.6591209   -7.7316906    764.08705  0.017185944  0.016505969         3535 
 3706000    0.6645992   -7.7472824    762.75614  0.017151379  0.016499573         3580 
 3707000   0.65818164   -7.7564077    761.98119  0.017129332   0.01649318         3591 
 3708000   0.66242908   -7.7429212     764.7756  0.017187514  0.016486792         3546 
 3709000   0.66026592   -7.7381027    763.01105  0.017143234  0.016480403         3583 
 3710000   0.64580879   -7.7411071    762.79615  0.017133786  0.016474024         3580 
 3711000   0.65152019    -7.735159    762.47086  0.017121864   0.01646764         3574 
 3712000   0.65329594   -7.7404841    763.22392  0.017134158  0.016461254         3556 
 3713000   0.67718831   -7.7523005    761.54609  0.017091886  0.016454874         3533 
 3714000   0.66353348   -7.7465991    763.06229  0.017121304  0.016448501         3577 
 3715000    0.6598826   -7.7301103    762.12802  0.017095738  0.016442125         3602 
 3716000   0.64751837   -7.7306407    762.40161  0.017097273  0.016435759         3579 
 3717000   0.65563021   -7.7484793    762.33474  0.017091174  0.016429403         3573 
 3718000   0.66318117    -7.763892    762.39651  0.017087962  0.016423043         3643 
 3719000   0.65336675   -7.7457894    761.86928  0.017071553  0.016416684         3634 
 3720000   0.66306345   -7.7433183    763.46793  0.017102776  0.016410322         3564 
 3721000   0.65580218   -7.7475263    762.18429  0.017069432  0.016403964         3540 
 3722000   0.64730533   -7.7489577    763.81131  0.017101274   0.01639763         3588 
 3723000   0.66686846   -7.7443317     761.3195  0.017040906  0.016391287         3573 
 3724000    0.6533045   -7.7586319    763.69035  0.017089383  0.016384946         3570 
 3725000   0.65124741   -7.7579395    763.71303  0.017085303  0.016378603         3599 
 3726000   0.64100196    -7.752915    762.00399  0.017042494  0.016372259         3632 
 3727000   0.64815297   -7.7830151     762.5818  0.017050841  0.016365922         3584 
 3728000    0.6649622   -7.7319215    762.50418  0.017044532  0.016359579         3592 
 3729000    0.6698103   -7.7474341    762.02549  0.017029264  0.016353241         3585 
 3730000   0.65323156   -7.7564683    761.30155  0.017008524  0.016346921         3598 
 3731000    0.6437631   -7.7560514    761.89195  0.017017152  0.016340578         3629 
 3732000   0.66459299   -7.7751698    760.59756   0.01698369  0.016334241         3631 
 3733000   0.65112944   -7.7488859    762.96463  0.017031981  0.016327909         3606 
 3734000   0.65637055    -7.775824    761.14577  0.016986828   0.01632158         3653 
 3735000   0.64607904   -7.7740395    760.54027   0.01696877  0.016315239         3635 
 3736000     0.654514   -7.7474478    762.33482  0.017004256  0.016308915         3611 
 3737000   0.64923365   -7.7450522    763.27903  0.017020761  0.016302587         3664 
 3738000   0.65101911   -7.7631535    760.94193  0.016964106  0.016296272         3675 
 3739000   0.64871436   -7.7652684    761.43558  0.016970571  0.016289959         3600 
 3740000   0.65227007    -7.779071    762.53202  0.016990464  0.016283634         3680 
 3741000   0.64615247   -7.7735297    760.30891  0.016936401  0.016277317         3664 
 3742000    0.6368431   -7.7721453    762.07478    0.0169712  0.016270999         3693 
 3743000   0.64927807   -7.7493834    762.97785  0.016986772  0.016264687         3659 
 3744000   0.63534846   -7.7707559    762.49087  0.016971396   0.01625838         3720 
 3745000   0.64371244    -7.761385    761.34297  0.016941321  0.016252076         3669 
 3746000   0.64981226   -7.7639346    761.92575  0.016949763   0.01624577         3637 
 3747000   0.66674594   -7.7860352    762.81009  0.016964907  0.016239476         3669 
 3748000   0.64699489   -7.7709839    762.91216   0.01696265  0.016233181         3704 
 3749000    0.6537838   -7.7743355    761.69683  0.016931111  0.016226879         3647 
 3750000   0.65332024   -7.7728369    762.21598  0.016938133  0.016220585         3656 
 3751000   0.65225605   -7.7738189     761.7209  0.016922618  0.016214292         3652 
 3752000    0.6491904    -7.757708    762.52031  0.016935863  0.016208024         3672 
 3753000   0.64170147    -7.774633    761.25529  0.016903262  0.016201738         3698 
 3754000   0.65212633   -7.7661962    761.03041  0.016893767  0.016195446         3650 
 3755000   0.64286876   -7.7710692    762.10144  0.016913037   0.01618916         3685 
 3756000   0.66176442   -7.7565859    763.10549  0.016930811  0.016182876         3641 
 3757000   0.65907017   -7.7695773    763.09061  0.016925974  0.016176598         3666 
 3758000   0.64354662   -7.7632577    761.91126  0.016895318  0.016170329         3691 
 3759000   0.66738773   -7.7749635    762.13631  0.016895813  0.016164059         3625 
 3760000   0.65595486   -7.7659929    762.44456  0.016898151  0.016157787         3719 
 3761000   0.65206152   -7.7642354    762.88111   0.01690333  0.016151517         3693 
 3762000   0.65368883   -7.7938948    760.09585   0.01683714  0.016145255         3667 
 3763000   0.63993695   -7.7755378    761.23699  0.016857937     0.016139         3690 
 3764000   0.65632742    -7.779114    760.89303  0.016845843  0.016132747         3654 
 3765000   0.65902389   -7.7823944    761.09681  0.016845879  0.016126498         3689 
 3766000    0.6505368   -7.7908307     761.6173  0.016852923  0.016120248         3661 
 3767000   0.63675748   -7.7979782    762.23454  0.016862104  0.016114004         3651 
 3768000   0.64707521   -7.7813816    763.63355  0.016888569  0.016107755         3633 
 3769000    0.6591595   -7.7992638    760.89577  0.016823556  0.016101514         3707 
 3770000   0.63659579   -7.8024722    762.25363  0.016849108  0.016095267         3754 
 3771000   0.64357951   -7.7913493    761.37642  0.016825255  0.016089022         3706 
 3772000   0.64854424   -7.7835308    761.83213  0.016830862  0.016082782         3683 
 3773000   0.64517191   -7.7787324    761.93727  0.016828723  0.016076544         3678 
 3774000   0.64741854   -7.7996738    760.99166  0.016803384  0.016070314         3700 
 3775000   0.65133452   -7.7872188    760.38283  0.016785493  0.016064091         3718 
 3776000   0.65072604   -7.7947235    760.59627  0.016785758  0.016057867         3680 
 3777000   0.63547829   -7.7776992    762.51645   0.01682368  0.016051649         3686 
 3778000   0.66020892   -7.7744377    760.67977  0.016778714  0.016045437         3689 
 3779000   0.66091988    -7.796541     761.0625  0.016782714   0.01603922         3724 
 3780000   0.62852419   -7.7625867    760.45549  0.016764892  0.016033005         3702 
 3781000   0.63724352   -7.7788063    761.83368  0.016790833  0.016026794         3706 
 3782000   0.65114186    -7.782309    761.21754  0.016772817  0.016020581         3702 
 3783000   0.65294385   -7.7833339    762.46736  0.016795915  0.016014373         3738 
 3784000   0.65436152   -7.8059252    760.79244   0.01675459  0.016008175         3688 
 3785000   0.63546048   -7.7952835    761.50068  0.016765757  0.016001972         3730 
 3786000   0.64109627   -7.7742945    760.77476   0.01674535  0.015995765         3705 
 3787000   0.65237916    -7.786431    761.51744  0.016757271  0.015989573         3719 
 3788000   0.65282321   -7.7814485    762.35337  0.016771238  0.015983377         3728 
 3789000   0.64610023   -7.7919721    761.42886  0.016746478  0.015977189         3724 
 3790000   0.65437167   -7.7715754     761.4733  0.016743037  0.015971006         3692 
 3791000    0.6460468   -7.7875412    761.11603  0.016730767  0.015964824         3718 
 3792000    0.6463106   -7.8038785    760.18948  0.016705992   0.01595864         3745 
 3793000   0.65074454   -7.7818415    763.41371  0.016772425  0.015952461         3729 
 3794000   0.64399255    -7.774539    763.46202  0.016769066   0.01594629         3716 
 3795000   0.63975971   -7.7881153    759.52339   0.01667816  0.015940119         3729 
 3796000   0.64046827   -7.7766375    761.42341  0.016715477   0.01593394         3744 
 3797000    0.6414361    -7.792754    761.09096  0.016703779  0.015927769         3717 
 3798000   0.64833804   -7.7802577    760.87009  0.016694534  0.015921603         3711 
 3799000   0.63209021   -7.7736427    760.35561  0.016678854   0.01591544         3732 
 3800000   0.63865667    -7.801632    761.39572  0.016697274  0.015909266         3746 
 3801000   0.63714641   -7.7829641    759.58891  0.016653269  0.015903107         3775 
 3802000   0.63849072   -7.8075415    761.19357   0.01668406  0.015896951         3737 
 3803000   0.64177711   -7.7859322    760.43544  0.016663061  0.015890805         3713 
 3804000   0.64947735   -7.7894471    762.02402  0.016693481  0.015884664         3737 
 3805000   0.64966442   -7.7919493    759.64301  0.016636947  0.015878516         3724 
 3806000   0.64017777   -7.8085773    761.09746  0.016664422  0.015872379         3764 
 3807000   0.64739485   -7.7932151     759.9786  0.016635553  0.015866237         3742 
 3808000   0.65005955   -7.7931256    760.23129  0.016636714  0.015860094         3677 
 3809000   0.64326328   -7.7870502    760.81947  0.016645215  0.015853957         3738 
 3810000   0.63564949   -7.8009677     761.2375  0.016649989  0.015847825         3716 
 3811000   0.63770991   -7.8015835    761.33689  0.016647794  0.015841692         3759 
 3812000   0.63230174   -7.7968389    760.41596  0.016623294  0.015835567         3740 
 3813000   0.65823563   -7.8121198    760.83006  0.016627985  0.015829444         3716 
 3814000   0.63961569   -7.8113508    761.52709  0.016638854  0.015823329         3715 
 3815000   0.64981393   -7.7907218    759.83878  0.016597614  0.015817214         3761 
 3816000   0.64248476   -7.7968191    761.63354  0.016632458  0.015811094         3748 
 3817000   0.63390498   -7.7990117    761.11324  0.016616742  0.015804979         3733 
 3818000   0.64554118   -7.7966843    761.21945  0.016614708  0.015798857         3743 
 3819000   0.63411133   -7.7913697    760.76965  0.016600542  0.015792739         3737 
 3820000   0.64767182   -7.8101727    760.79252  0.016596696  0.015786632         3744 
 3821000   0.64229675   -7.8086062      761.163  0.016600432  0.015780527         3746 
 3822000   0.63261749   -7.7689596    761.09077  0.016594514  0.015774425         3716 
 3823000   0.63685849   -7.7933887    761.05142  0.016589315  0.015768331         3727 
 3824000   0.64145374   -7.8057424    760.91852  0.016582081   0.01576223         3713 
 3825000    0.6433227   -7.8032733    760.15844  0.016561186  0.015756136         3721 
 3826000    0.6397865   -7.7997455    760.75276  0.016569802  0.015750047         3764 
 3827000   0.62912935   -7.8008373    760.13435  0.016552007  0.015743949         3711 
 3828000   0.64504419   -7.7919215    760.15332  0.016548096  0.015737869         3752 
 3829000   0.63260392   -7.7933212     761.8576  0.016580865  0.015731783         3748 
 3830000   0.63456781    -7.802455    759.49844  0.016525205  0.015725701         3760 
 3831000   0.63730392   -7.7793891    762.19769  0.016579607  0.015719617         3742 
 3832000   0.65171101     -7.81341    760.27295  0.016533424   0.01571354         3755 
 3833000   0.64368504   -7.7945473    760.88974   0.01654252  0.015707461         3745 
 3834000   0.64477632   -7.7758138    761.15554  0.016543982  0.015701392         3746 
 3835000   0.63807957   -7.8151167    760.48429  0.016525082  0.015695325         3733 
 3836000   0.64258724   -7.7973926    762.70568  0.016569032  0.015689255         3727 
 3837000   0.63220999   -7.8067026     760.9493  0.016526568  0.015683193         3736 
 3838000   0.63824287   -7.8248031    759.78739  0.016497034  0.015677122         3708 
 3839000   0.62833628   -7.8002465    759.69537  0.016490739  0.015671055         3740 
 3840000   0.63398047   -7.8213886    760.55339  0.016505065  0.015664991         3762 
 3841000   0.66554348    -7.811948    758.16485  0.016448947  0.015658932         3803 
 3842000   0.63673089   -7.8007555    760.69715  0.016499591  0.015652875         3766 
 3843000   0.63375924   -7.8062043    761.09519  0.016503929  0.015646821         3772 
 3844000   0.62855579   -7.8100874    761.32298  0.016504574  0.015640764         3785 
 3845000   0.63814366   -7.7852038    760.34576  0.016479102   0.01563472         3775 
 3846000   0.63520432   -7.7994656    763.26551  0.016538081  0.015628675         3729 
 3847000    0.6370662   -7.7923278    760.45936  0.016472995  0.015622623         3785 
 3848000   0.63460931   -7.8241885    759.99244  0.016458603  0.015616586         3782 
 3849000   0.63758321   -7.8143078    759.92245  0.016452811  0.015610543         3785 
 3850000   0.63431433   -7.8228982    760.58129  0.016462799  0.015604503         3751 
 3851000   0.63822398   -7.8032064    761.19581  0.016471821   0.01559847         3730 
 3852000   0.62355437   -7.7971675    761.60884  0.016476481   0.01559244         3722 
 3853000     0.643055   -7.8243773    759.11296  0.016418223  0.015586407         3775 
 3854000   0.62844156   -7.8059219    760.80403  0.016450528  0.015580382         3711 
 3855000   0.62456558   -7.7953199    759.51407  0.016418376  0.015574366         3738 
 3856000   0.63003623    -7.804599    760.58083  0.016437172  0.015568349         3746 
 3857000   0.62618829   -7.8145158    760.70972  0.016435695   0.01556233         3771 
 3858000   0.62259207   -7.8001157    760.14864  0.016419316  0.015556318         3786 
 3859000   0.61723091   -7.8218942    759.27716  0.016396242  0.015550301         3776 
 3860000   0.62574514    -7.792622    759.60794  0.016399135  0.015544287         3715 
 3861000   0.62734066    -7.821735    760.53963  0.016414997  0.015538284         3772 
 3862000   0.61551873   -7.8089765    759.99774  0.016399054  0.015532275         3813 
 3863000   0.63666947     -7.82897    759.64782   0.01638726  0.015526276         3818 
 3864000   0.63901106   -7.8125816    759.20896  0.016373554  0.015520278         3778 
 3865000   0.62291763   -7.8063396    759.84813  0.016383099  0.015514282         3757 
 3866000   0.65286704   -7.8103535    758.95699  0.016359652  0.015508293         3770 
 3867000   0.65283884    -7.817207    761.09484  0.016401492  0.015502305         3794 
 3868000   0.65272292   -7.7920009     759.3967  0.016360666  0.015496315         3776 
 3869000   0.63017307   -7.8026425    759.53552  0.016359428  0.015490331         3790 
 3870000   0.63743287   -7.8201175     759.9334  0.016363768  0.015484348         3766 
 3871000    0.6352604   -7.8054603    759.85973  0.016357955  0.015478364         3783 
 3872000   0.62879978   -7.8098807    760.32227  0.016363685  0.015472381         3768 
 3873000   0.62936929   -7.8209322    760.49021  0.016363074  0.015466405         3777 
 3874000   0.64323016   -7.8257562    759.05454  0.016327967  0.015460426         3745 
 3875000   0.62708447   -7.8165394    759.80659  0.016339927  0.015454457         3756 
 3876000    0.6332343   -7.8293973    760.22521  0.016344711  0.015448484         3726 
 3877000   0.63197584   -7.8328656    761.91182  0.016376748   0.01544252         3733 
 3878000   0.62897987   -7.8139877     760.4536   0.01634119  0.015436548         3774 
 3879000   0.62652613    -7.834312    759.53056  0.016317147  0.015430586         3789 
 3880000   0.62594275   -7.8124272    761.51899  0.016355648  0.015424623         3769 
 3881000   0.63516428   -7.8224059    759.67264  0.016311789  0.015418672         3764 
 3882000   0.64097536   -7.8243925    759.90993  0.016312681  0.015412712         3777 
 3883000   0.61786039   -7.7988112    761.26054  0.016337465  0.015406763         3744 
 3884000   0.64638156    -7.825149    759.71402  0.016300078  0.015400813         3755 
 3885000    0.6378912   -7.8233181    759.07109  0.016282091  0.015394868         3794 
 3886000   0.63029088   -7.8170279    760.77478  0.016314436   0.01538894         3792 
 3887000   0.63553359   -7.8402712    759.19178  0.016276301     0.015383         3762 
 3888000   0.63807679   -7.8205385    760.64918  0.016303352  0.015377062         3770 
 3889000   0.62451952   -7.8156824    758.65066  0.016256335  0.015371126         3761 
 3890000   0.63041932   -7.8276808    758.70694  0.016253362  0.015365191         3804 
 3891000   0.63767406   -7.8239336    759.74823  0.016271486  0.015359263         3799 
 3892000   0.62964087   -7.8040905    760.13256  0.016275534  0.015353344         3781 
 3893000   0.63816034    -7.825501    757.04962   0.01620536  0.015347422         3751 
 3894000   0.63473119   -7.8281017    760.29254  0.016270599  0.015341507         3781 
 3895000   0.62139682    -7.819782    759.85496  0.016257059  0.015335594         3798 
 3896000   0.62160313   -7.8172159    761.51978  0.016288496  0.015329682         3749 
 3897000   0.62353121   -7.8132178    760.45552  0.016261559  0.015323763         3774 
 3898000    0.6200631   -7.8210036    759.41359  0.016235112   0.01531786         3764 
 3899000   0.62501428   -7.8351951    759.16978  0.016225737   0.01531196         3801 
 3900000   0.63890212   -7.8530118     759.2249  0.016222754  0.015306054         3794 
 3901000   0.61994535   -7.8199029    758.93862   0.01621248  0.015300147         3772 
 3902000   0.62804698   -7.8246979    760.40565  0.016239656  0.015294242         3787 
 3903000   0.62209118   -7.8283646    759.38518  0.016213707  0.015288342         3777 
 3904000   0.63854535   -7.8092676    760.81997   0.01624018  0.015282454         3722 
 3905000   0.61611133   -7.8496475    758.75326  0.016191918  0.015276559         3784 
 3906000   0.65377833   -7.8331465     759.7832  0.016209746  0.015270665         3787 
 3907000   0.62064088    -7.815014    759.04083  0.016189763  0.015264776         3780 
 3908000   0.62514762   -7.8246612    760.94518  0.016226228   0.01525889         3718 
 3909000   0.64674288    -7.835637    759.86856  0.016199125  0.015253006         3781 
 3910000   0.62129868   -7.8460084    758.58456  0.016167616  0.015247127         3789 
 3911000   0.62952515   -7.8315349    757.77056  0.016146138  0.015241252         3783 
 3912000   0.63899905   -7.8221195    760.03078  0.016190158  0.015235376         3719 
 3913000   0.62534589   -7.8239727    759.28857  0.016170214  0.015229508         3770 
 3914000   0.61673559   -7.8257906     759.9294  0.016179727  0.015223635         3783 
 3915000   0.62965852   -7.8248102    759.16436   0.01615931  0.015217768         3829 
 3916000   0.64172368   -7.8242701    758.81767  0.016147805  0.015211901         3770 
 3917000   0.61979078   -7.8386833    758.34548  0.016133637  0.015206036         3815 
 3918000   0.62901183   -7.8446722    757.06411  0.016102265  0.015200175         3802 
 3919000   0.64386476   -7.8307597    759.97229  0.016159996  0.015194316         3758 
 3920000   0.61997994   -7.8318053    757.57855  0.016104986  0.015188459         3806 
 3921000   0.63484821   -7.8286392    758.60575   0.01612271  0.015182602         3763 
 3922000   0.61720753   -7.8465262    758.68021  0.016120181  0.015176749         3820 
 3923000   0.62674952   -7.8195735    757.65409  0.016094275  0.015170904         3762 
 3924000    0.6204816    -7.836925    759.65717  0.016132713  0.015165068         3773 
 3925000   0.61439393   -7.8195082    760.08567    0.0161377  0.015159222         3793 
 3926000   0.62707824   -7.8382012    759.59534  0.016123182   0.01515338         3749 
 3927000   0.61640247   -7.8185915    759.56076  0.016118342  0.015147538         3756 
 3928000   0.63439958   -7.8277075    758.78275  0.016097733  0.015141712         3709 
 3929000   0.63508521   -7.8360999     759.9393  0.016118166  0.015135879         3797 
 3930000   0.61090172   -7.8462176      758.662  0.016086981  0.015130042         3825 
 3931000   0.63649885   -7.8351943    758.94592  0.016088907   0.01512421         3775 
 3932000    0.6264804   -7.8369748    758.47032  0.016074735   0.01511839         3783 
 3933000   0.62539122   -7.8190571    759.88919  0.016100712  0.015112574         3780 
 3934000   0.62598192   -7.8325861    759.07907  0.016079458  0.015106763         3756 
 3935000    0.6168818   -7.8395513    759.02384  0.016074202   0.01510094         3820 
 3936000   0.61075697   -7.8316651    760.02649  0.016091347  0.015095127         3809 
 3937000    0.6152466   -7.8347921    758.27087  0.016050099  0.015089317         3780 
 3938000   0.62599271   -7.8369653    760.63484  0.016096048  0.015083509         3822 
 3939000   0.63122917   -7.8186592    760.69074  0.016093144   0.01507771         3822 
 3940000   0.62196697   -7.8331121    759.33459  0.016060376  0.015071913         3849 
 3941000   0.62140607   -7.8464884    759.04962  0.016050275  0.015066115         3856 
 3942000   0.61632882   -7.8635403    756.81401  0.015998943  0.015060314         3826 
 3943000   0.63007167   -7.8429778    759.45574  0.016050717  0.015054526         3826 
 3944000   0.62964768    -7.823343    759.78555  0.016053616  0.015048743         3771 
 3945000   0.61230464    -7.859278    759.29627  0.016039211  0.015042955         3789 
 3946000   0.62445782   -7.8404065    758.90943  0.016026977  0.015037164         3781 
 3947000   0.62890487   -7.8487396    759.10474   0.01602704  0.015031375         3787 
 3948000   0.62268134   -7.8179214    759.09784  0.016022835  0.015025591         3756 
 3949000   0.61662252   -7.8379908    757.76617  0.015990676   0.01501981         3815 
 3950000   0.61512202   -7.8623595    758.48977  0.016001894   0.01501403         3775 
 3951000   0.61991068    -7.859669    757.73598  0.015981945  0.015008254         3832 
 3952000   0.62232343     -7.84244    759.89074  0.016023337  0.015002476         3788 
 3953000   0.61274443   -7.8393781    759.17704  0.016004238  0.014996706         3798 
 3954000   0.60852285   -7.8206187    758.50499  0.015986027  0.014990938         3790 
 3955000   0.62277489   -7.8427461    757.89073  0.015969042  0.014985172         3829 
 3956000   0.62119384   -7.8379563    758.11713  0.015969774  0.014979418         3855 
 3957000   0.60976298   -7.8489691    758.74822  0.015979029  0.014973661         3773 
 3958000   0.60791371   -7.8280894    757.44052  0.015947459  0.014967908         3760 
 3959000   0.61899618   -7.8423418    759.51297  0.015987054  0.014962156         3824 
 3960000   0.63719985   -7.8499524     757.1814  0.015933952  0.014956405         3812 
 3961000   0.61841687   -7.8350535    759.05133   0.01596927  0.014950661         3796 
 3962000   0.61258578    -7.839103    758.16666  0.015946632  0.014944918         3805 
 3963000   0.61516482   -7.8547148    759.09892  0.015962211  0.014939177         3805 
 3964000   0.62088831   -7.8252591    760.28662  0.015983153  0.014933438         3783 
 3965000   0.60261748    -7.841573    760.10747  0.015975357  0.014927708         3758 
 3966000   0.61734651   -7.8534303    758.10637  0.015929282  0.014921966         3798 
 3967000   0.61292531   -7.8366304    758.76122  0.015939022   0.01491624         3817 
 3968000   0.60377132   -7.8517522    758.98327  0.015939669  0.014910505         3754 
 3969000   0.60971937   -7.8450039    759.48865  0.015946264  0.014904778         3784 
 3970000   0.61265998    -7.838957    758.64986   0.01592464  0.014899048         3790 
 3971000   0.60993654   -7.8454107    757.62341  0.015899089  0.014893318         3783 
 3972000   0.61625966   -7.8476651    758.20103  0.015907205  0.014887597         3776 
 3973000   0.61010952   -7.8414716    758.16091   0.01590236  0.014881877         3750 
 3974000   0.62216151   -7.8574465    758.01721  0.015895345   0.01487616         3815 
 3975000   0.61619526   -7.8607434    758.77411  0.015907214  0.014870449         3761 
 3976000   0.60978124   -7.8533838    758.45122  0.015896446  0.014864739         3833 
 3977000   0.61520972    -7.848312    758.17909  0.015886746  0.014859028         3809 
 3978000   0.60960163   -7.8396545    759.03136  0.015900607  0.014853324         3780 
 3979000   0.61558205   -7.8502748    758.46994  0.015884853  0.014847614         3773 
 3980000   0.60849895    -7.855132    758.68019  0.015885264  0.014841912         3820 
 3981000   0.60546921   -7.8502815    759.03175  0.015888632  0.014836211         3789 
 3982000   0.61370696   -7.8471452    758.02499  0.015863573  0.014830507         3805 
 3983000   0.61928751   -7.8491959    758.59949   0.01587161  0.014824814         3801 
 3984000   0.61509516   -7.8438849    758.16813  0.015858604  0.014819126         3784 
 3985000   0.62864704   -7.8363907    757.32588  0.015837011  0.014813438         3802 
 3986000    0.6137892   -7.8547689    758.52523  0.015858112  0.014807751         3779 
 3987000   0.62434668   -7.8681395    758.76318  0.015859108  0.014802067         3853 
 3988000   0.62328533   -7.8647077    758.71787  0.015854185  0.014796386         3828 
 3989000   0.62299543   -7.8652222    757.60371  0.015826935  0.014790709         3820 
 3990000   0.61495565    -7.849647    758.67904  0.015845427  0.014785032         3818 
 3991000   0.58407652   -7.8568953    759.14224  0.015851128  0.014779353         3832 
 3992000   0.60986723   -7.8487841     758.9705  0.015843573  0.014773684         3784 
 3993000   0.61806649   -7.8530438    760.14016  0.015864015  0.014768014         3794 
 3994000   0.61220003   -7.8340235    758.97726   0.01583578  0.014762349         3764 
 3995000   0.61314641   -7.8649222    757.00068  0.015790586  0.014756685         3757 
 3996000   0.62331092   -7.8464211     757.6047   0.01579923  0.014751025         3797 
 3997000   0.60980322   -7.8849128    756.72759  0.015776991  0.014745368         3834 
 3998000   0.60873091   -7.8404499    758.88438     0.015818  0.014739706         3802 
 3999000   0.60013378   -7.8732324    757.10359  0.015776936  0.014734049         3868 
 4000000   0.60910263    -7.856321    757.06515  0.015772191  0.014728393         3845 
 4001000   0.62440449   -7.8563088    758.14014  0.015790639  0.014722743         3841 
 4002000   0.61751675   -7.8508353    759.47144  0.015814414  0.014717095         3821 
 4003000   0.61629992   -7.8474825    759.58248  0.015812775  0.014711455         3837 
 4004000   0.60312452   -7.8245829    757.70787  0.015769811  0.014705817         3812 
 4005000   0.61613719   -7.8542482    757.88318  0.015769521   0.01470018         3843 
 4006000   0.60407572   -7.8507679    757.96653  0.015767318  0.014694542         3791 
 4007000   0.59498041   -7.8724913    758.75394  0.015779759   0.01468891         3811 
 4008000   0.61080216    -7.865177    757.45023  0.015748716  0.014683273         3802 
 4009000   0.61721985   -7.8643912    757.00477  0.015735528  0.014677644         3822 
 4010000   0.61378049   -7.8382999    757.69854  0.015746021  0.014672017         3824 
 4011000   0.60226147   -7.8613357    759.63626  0.015782354  0.014666398         3865 
 4012000   0.60674938   -7.8329765    758.19476  0.015748479  0.014660779         3816 
 4013000   0.62908444   -7.8354357    756.85883  0.015716813   0.01465516         3836 
 4014000   0.61508676   -7.8602689    758.92001  0.015755689   0.01464954         3837 
 4015000   0.61364434   -7.8721479    757.81188  0.015728765  0.014643924         3827 
 4016000   0.60562963   -7.8571538    758.18873  0.015732668  0.014638315         3831 
 4017000   0.61031928   -7.8663793    757.74032  0.015719449  0.014632707         3815 
 4018000   0.61295773   -7.8374713    757.97003  0.015720301  0.014627108         3849 
 4019000   0.60121508   -7.8764475    757.09672  0.015698281    0.0146215         3824 
 4020000   0.60916777    -7.856077    757.55859  0.015703951  0.014615896         3856 
 4021000   0.59735723   -7.8569417    759.18881  0.015733831  0.014610296         3819 
 4022000   0.60343984   -7.8594954    759.24577  0.015731099  0.014604699         3818 
 4023000   0.61283331   -7.8799833    757.68354  0.015694829   0.01459911         3791 
 4024000   0.61713705   -7.8474833     757.3523  0.015684069  0.014593523         3792 
 4025000   0.60475804   -7.8611442    758.67141  0.015707483  0.014587928         3837 
 4026000   0.59800368   -7.8801651     756.9169  0.015667265  0.014582336         3859 
 4027000   0.59882698   -7.8753399    757.02808  0.015665675   0.01457675         3833 
 4028000   0.60637184   -7.8508914     757.4083  0.015669652  0.014571157         3857 
 4029000   0.60604664   -7.8728139    757.53494  0.015668382  0.014565564         3832 
 4030000   0.59728599   -7.8709265     757.5104  0.015663987  0.014559983         3860 
 4031000   0.61868074   -7.8652947    756.40443  0.015637237  0.014554404         3854 
 4032000   0.60597433   -7.8463712    757.83005  0.015662824  0.014548827         3862 
 4033000   0.60636936    -7.863357    758.14152  0.015665376  0.014543259         3825 
 4034000   0.61435134   -7.8738045    757.00868   0.01563809  0.014537693         3825 
 4035000   0.60855556   -7.8750777    758.24115  0.015659668  0.014532122         3811 
 4036000   0.59992765   -7.8581754    757.52806  0.015641065  0.014526553         3804 
 4037000   0.60761253    -7.885795    758.58766  0.015659063  0.014520999         3835 
 4038000   0.59626104   -7.8861752    758.74018  0.015658333  0.014515437         3826 
 4039000    0.6116463   -7.8573064    758.09084  0.015641059  0.014509884         3870 
 4040000   0.61075222    -7.865463    757.04357  0.015615585  0.014504336         3800 
 4041000   0.59946096   -7.8729129    757.77699  0.015626845  0.014498784         3845 
 4042000   0.60341625   -7.8654789    758.42018   0.01563624  0.014493237         3839 
 4043000   0.59897882   -7.8522708     760.1234  0.015667479  0.014487691         3834 
 4044000   0.61677635   -7.8586437    757.72468  0.015614175  0.014482146         3807 
 4045000   0.60414327   -7.8773491    756.31212  0.015581214  0.014476607         3832 
 4046000   0.59297406   -7.8709654    757.75735  0.015607129   0.01447107         3818 
 4047000   0.60476792    -7.879061    757.47772  0.015597515  0.014465539         3855 
 4048000    0.6135312   -7.8602591    756.86944   0.01558114  0.014460013         3828 
 4049000   0.59170014   -7.8530398    757.73241  0.015595053  0.014454487         3855 
 4050000   0.60338706   -7.8515314    758.77771   0.01561271  0.014448964         3834 
 4051000    0.6088581   -7.8658113    757.06519  0.015573628  0.014443443         3843 
 4052000   0.59710003   -7.8503014    757.63609  0.015581525  0.014437926         3800 
 4053000   0.60837392   -7.8732996    758.72741  0.015600119  0.014432405         3826 
 4054000   0.59576475   -7.8584725    757.96404   0.01558058  0.014426893         3809 
 4055000   0.60399948   -7.8710489    758.29481  0.015583535  0.014421375         3821 
 4056000   0.59952812   -7.8621202    756.43135  0.015541407  0.014415872         3797 
 4057000   0.58704145   -7.8658243    758.10844  0.015572025  0.014410367         3792 
 4058000   0.60106457   -7.8663097    758.86207  0.015583663  0.014404863         3800 
 4059000   0.59227433   -7.8730879    756.76929  0.015536858  0.014399355         3795 
 4060000   0.58900481   -7.8673967    757.01199  0.015538013  0.014393851         3837 
 4061000   0.60745772   -7.8889998    757.05627  0.015535095  0.014388348         3829 
 4062000   0.59470795   -7.8709099    758.08925  0.015552463  0.014382856         3859 
 4063000   0.60036034   -7.9005721    757.08194  0.015527975  0.014377357         3851 
 4064000    0.5872125   -7.8701275    758.33946   0.01554994  0.014371854         3846 
 4065000   0.59674702   -7.8871729    757.42388  0.015527345   0.01436636         3838 
 4066000   0.60261009   -7.8770702    757.40448  0.015523128  0.014360871         3858 
 4067000   0.59604794   -7.8742727    755.80065  0.015486449  0.014355382         3825 
 4068000   0.60960392   -7.8922878    756.22188  0.015491271  0.014349902         3832 
 4069000   0.60233779   -7.8947582    757.43255  0.015512258  0.014344414         3873 
 4070000   0.60430468   -7.8859212     757.5077  0.015509986  0.014338934         3843 
 4071000   0.59590469   -7.8742064    757.54546  0.015506949   0.01433346         3785 
 4072000   0.58846233   -7.8755317    755.32626  0.015457725  0.014327983         3855 
 4073000   0.58936478   -7.8765137    757.00683  0.015488314   0.01432251         3801 
 4074000   0.60955862   -7.9043648    757.47789  0.015494148  0.014317039         3822 
 4075000   0.61305491   -7.8780123    758.08183  0.015502696   0.01431157         3817 
 4076000   0.59157132   -7.8937577    756.22215  0.015460872  0.014306105         3858 
 4077000   0.59957826    -7.878707    756.59736  0.015464749   0.01430064         3833 
 4078000   0.60360234    -7.866722    757.96539  0.015488912   0.01429518         3837 
 4079000   0.58689484   -7.8892429    756.88523  0.015463047  0.014289724         3812 
 4080000   0.58958338   -7.8979289    756.09215  0.015443059  0.014284265         3877 
 4081000   0.59075968    -7.880568    757.46855   0.01546738  0.014278806         3833 
 4082000    0.5963568   -7.8879093    757.31996  0.015460558  0.014273358         3859 
 4083000   0.60084417   -7.8773163    755.61413  0.015421955  0.014267906         3829 
 4084000   0.59038654   -7.8930985    756.11486  0.015428397  0.014262457         3870 
 4085000   0.59325397     -7.88714    755.58431  0.015413797  0.014257015         3851 
 4086000   0.61351423   -7.8828409    755.45746  0.015407437  0.014251571         3849 
 4087000   0.58850399    -7.863917    757.45353  0.015444367  0.014246134         3779 
 4088000   0.58714785   -7.8983391    757.09658  0.015433312    0.0142407         3853 
 4089000   0.60457964   -7.8759147    755.94489  0.015406067   0.01423526         3836 
 4090000   0.60216694    -7.869806    757.07178   0.01542526  0.014229829         3865 
 4091000   0.60921139    -7.900605    756.75736  0.015415085  0.014224395         3888 
 4092000   0.60069203   -7.8967976    756.13376  0.015398619  0.014218962         3834 
 4093000   0.59389766   -7.8819328    757.71593  0.015427069   0.01421353         3850 
 4094000   0.59946299   -7.9094932    757.40971  0.015417068  0.014208101         3839 
 4095000   0.60322328   -7.8730371    757.10374  0.015407077  0.014202683         3872 
 4096000   0.59217036   -7.8854399    755.31447  0.015366912  0.014197264         3809 
 4097000   0.59399069   -7.8767765    757.39651   0.01540551  0.014191848         3836 
 4098000   0.59243799   -7.9035935    755.67034  0.015366649  0.014186429         3839 
 4099000    0.5935292   -7.8913113    757.52124  0.015400529  0.014181015         3833 
 4100000    0.5992204   -7.8822692    755.75095  0.015360792  0.014175602         3804 
 4101000   0.60088681   -7.8954741    757.83768  0.015399449  0.014170193         3812 
 4102000   0.60181448   -7.8778757    756.18504  0.015362121  0.014164789         3859 
 4103000    0.5865645    -7.898624    756.21084  0.015358901  0.014159385         3831 
 4104000   0.58023633   -7.8940243    754.72021   0.01532489   0.01415398         3820 
 4105000   0.60432368   -7.8870156    756.76647  0.015362697  0.014148585         3824 
 4106000    0.5878142   -7.8871458    757.15357  0.015366812  0.014143185         3840 
 4107000   0.58570646   -7.9199288     756.7275  0.015354425  0.014137789         3846 
 4108000   0.58943584   -7.8991202    756.24272  0.015340854  0.014132393         3856 
 4109000   0.58539843   -7.8808607     755.1704  0.015315373  0.014127001         3835 
 4110000   0.57663808   -7.8946926     756.9753  0.015348242  0.014121613         3864 
 4111000   0.58512753   -7.8891631    755.61147  0.015316863  0.014116231         3842 
 4112000   0.59953664   -7.8837679    757.68306   0.01535512  0.014110853         3834 
 4113000   0.59111194   -7.8812076    756.88124  0.015335141  0.014105478         3845 
 4114000   0.59104955   -7.9036315    755.56774  0.015304808  0.014100103         3874 
 4115000   0.57841202   -7.8718738     757.1069  0.015332258  0.014094727         3794 
 4116000    0.5929504   -7.9014474    756.79689  0.015322257  0.014089364         3837 
 4117000   0.58503051    -7.902178    757.03009  0.015323255   0.01408399         3841 
 4118000   0.60025345   -7.8881756    756.44163  0.015307626  0.014078632         3838 
 4119000   0.59346296   -7.9072827    756.40258  0.015303119  0.014073268         3878 
 4120000   0.58534414   -7.8704021    756.50324  0.015301441  0.014067907         3822 
 4121000   0.60409849   -7.9003138    757.05249  0.015308835  0.014062552         3829 
 4122000   0.58603972   -7.8996637    754.88323  0.015261265  0.014057192         3866 
 4123000   0.59554364   -7.9058607    755.45902  0.015269202  0.014051837         3865 
 4124000   0.58862347   -7.8887484    756.17564   0.01527998  0.014046484         3856 
 4125000   0.58572174    -7.901322    755.64217  0.015265498  0.014041135         3858 
 4126000   0.59650097   -7.9210279    757.05778   0.01529039  0.014035788         3825 
 4127000    0.5945302   -7.9005536    755.83757  0.015262046  0.014030442         3843 
 4128000   0.59389818    -7.898491    757.03994  0.015282622    0.0140251         3883 
 4129000   0.58610201    -7.896227    755.98137  0.015257556  0.014019755         3823 
 4130000   0.58987831   -7.9165236    755.62291  0.015246629  0.014014418         3885 
 4131000   0.59418392   -7.8969299    755.64721  0.015243428  0.014009088         3874 
 4132000   0.59349281   -7.8969455     757.3526  0.015274133  0.014003756         3866 
 4133000   0.60137078   -7.9245961    755.66476  0.015236405  0.013998423         3874 
 4134000   0.58615976   -7.8991031    755.23116  0.015223979  0.013993098         3843 
 4135000   0.59578343   -7.9259549    756.77322  0.015251375   0.01398777         3862 
 4136000   0.58696558   -7.8782756    756.24439  0.015237032  0.013982451         3832 
 4137000   0.57933627   -7.9036443    755.25189  0.015213357  0.013977131         3807 
 4138000   0.59552141   -7.9093946    755.48096  0.015214294  0.013971815         3845 
 4139000   0.58480218   -7.9001627    756.53142  0.015231767  0.013966499         3817 
 4140000   0.58869106   -7.9224131    754.43507  0.015185891  0.013961186         3857 
 4141000   0.57863916   -7.9124925    754.44249  0.015182373  0.013955872         3877 
 4142000   0.58363027   -7.8916848    755.03514  0.015190631  0.013950564         3881 
 4143000   0.58284321   -7.9149452    755.13797  0.015189033   0.01394526         3861 
 4144000   0.59883207   -7.9020816    756.89736  0.015220748   0.01393996         3821 
 4145000    0.5894979   -7.9129149    756.07583  0.015200559  0.013934659         3862 
 4146000   0.57473548   -7.9024631    755.38491  0.015183006  0.013929357         3841 
 4147000   0.58219751   -7.9051065    755.68499  0.015185375  0.013924056         3861 
 4148000   0.57924753   -7.8960954    756.67429  0.015201589  0.013918763         3850 
 4149000    0.5892195   -7.8909203    756.12898  0.015186972  0.013913474         3859 
 4150000   0.59623762    -7.894329    756.24531  0.015185649  0.013908186         3870 
 4151000   0.59582233   -7.9266539    756.59638  0.015189038  0.013902903         3827 
 4152000   0.59981171   -7.9155515    755.89529  0.015171309  0.013897619         3862 
 4153000   0.57348567   -7.8984329    756.11714  0.015172107  0.013892339         3881 
 4154000   0.58465412   -7.9115601    755.22284  0.015150514  0.013887057         3857 
 4155000   0.58921645   -7.9102371    756.04603  0.015163378  0.013881782         3825 
 4156000   0.59549079   -7.9248259     754.7068  0.015132876  0.013876509         3857 
 4157000    0.5855027   -7.9127547    754.47923  0.015124674  0.013871239         3844 
 4158000   0.57874718   -7.9086256    756.02264  0.015151969  0.013865975         3828 
 4159000   0.58029396   -7.9191069    756.00096  0.015147891  0.013860702         3863 
 4160000   0.57627095    -7.889696    756.18822  0.015148001  0.013855438         3852 
 4161000    0.5940925   -7.9165174    756.33077  0.015147216  0.013850175         3868 
 4162000    0.5927247   -7.9146466    755.98602  0.015136674  0.013844912         3860 
 4163000   0.58225147   -7.9045674    757.23166  0.015157972  0.013839652         3843 
 4164000   0.59015609   -7.8983113    756.99384  0.015149573   0.01383439         3842 
 4165000   0.58016814   -7.9028739    756.00021  0.015126055  0.013829135         3838 
 4166000   0.59184263   -7.9141451    755.30258  0.015108469  0.013823884         3829 
 4167000   0.59141448   -7.8929809    755.87607  0.015116312  0.013818633         3870 
 4168000   0.58128572   -7.9233106    754.79254  0.015091022   0.01381339         3891 
 4169000   0.58314586   -7.9211108    755.31012  0.015097748  0.013808152         3844 
 4170000   0.58972981   -7.8972335    754.50412   0.01507802   0.01380291         3806 
 4171000   0.59803065   -7.9062848    756.32093  0.015110704  0.013797673         3854 
 4172000   0.58690974   -7.9260843     755.1313  0.015083319  0.013792437         3882 
 4173000   0.57590892   -7.9233044    756.01028  0.015097258  0.013787204         3884 
 4174000   0.58653616   -7.9084183    755.14689  0.015076403  0.013781971         3864 
 4175000   0.58703826   -7.8900728    755.11436  0.015072143  0.013776738         3847 
 4176000   0.58859551   -7.9297292    756.28785  0.015091951  0.013771511         3870 
 4177000   0.60232616   -7.9061019    755.62766  0.015075167  0.013766294         3860 
 4178000   0.58992939   -7.9035113    756.10738  0.015081127   0.01376107         3870 
 4179000   0.59209166   -7.9355955    754.50347  0.015045535  0.013755849         3855 
 4180000   0.59194978   -7.9100868     755.7809  0.015067402  0.013750629         3871 
 4181000   0.57953294   -7.9090975    755.81196  0.015064418  0.013745415         3830 
 4182000   0.58160537   -7.9183673    754.96011  0.015043841    0.0137402         3876 
 4183000    0.5761925   -7.9156004    755.57286  0.015052451  0.013734992         3865 
 4184000   0.58281066   -7.9145044    756.06002  0.015058557  0.013729784         3871 
 4185000   0.58949634   -7.9045031    755.98345  0.015053434  0.013724581         3821 
 4186000   0.57742189   -7.9202994    754.17096  0.015013755  0.013719377         3848 
 4187000   0.57964484    -7.918533    755.16972  0.015030048   0.01371418         3848 
 4188000   0.58238898   -7.9296026    755.70075  0.015037025  0.013708978         3882 
 4189000   0.58577504   -7.9287593    754.93329  0.015018168  0.013703789         3873 
 4190000   0.56856495   -7.9046832    754.87165  0.015013358  0.013698599         3848 
 4191000   0.57384362    -7.913908    755.47897  0.015021852  0.013693408         3879 
 4192000   0.57004126   -7.9435997    755.30929  0.015014895  0.013688216         3881 
 4193000   0.58937477   -7.9047852    755.62561  0.015017601  0.013683029         3840 
 4194000   0.57776411   -7.9324788    755.62525  0.015014013  0.013677846         3883 
 4195000    0.5794099   -7.9259431    756.16235  0.015021104  0.013672665         3873 
 4196000    0.5879369   -7.9084491    754.50354  0.014984579  0.013667484         3855 
 4197000   0.57642117   -7.9307228    755.64859  0.015003745   0.01366231         3904 
 4198000   0.57686174   -7.9203597    754.87806  0.014984875  0.013657137         3849 
 4199000   0.57084023   -7.9214627    756.25647  0.015008662  0.013651966         3840 
 4200000   0.58058446   -7.9322913    754.80093  0.014976209  0.013646794         3876 
 4201000   0.58211727   -7.9195798    754.54661  0.014967599  0.013641625         3891 
 4202000   0.58468969   -7.9221973    756.59253  0.015004611  0.013636462         3849 
 4203000   0.58009058   -7.9269461    755.07402  0.014970934  0.013631303         3833 
 4204000   0.57772183   -7.9095898    754.32421   0.01495251  0.013626147         3860 
 4205000   0.58101888   -7.9382375    756.03347  0.014982827  0.013620991         3850 
 4206000   0.58331241   -7.9206585    755.94501  0.014977512  0.013615837         3859 
 4207000   0.58750095   -7.9175833    755.90649  0.014973189  0.013610686         3853 
 4208000   0.57035276   -7.9152299    755.72819    0.0149661  0.013605536         3857 
 4209000   0.58383699   -7.9253834    754.49112  0.014938052  0.013600387         3858 
 4210000   0.59183851   -7.8986587    755.21752  0.014948882  0.013595239         3888 
 4211000    0.5738137   -7.9250878    755.03128  0.014941647  0.013590099         3866 
 4212000   0.56082979   -7.9087338      755.044  0.014938351  0.013584962         3859 
 4213000   0.58513264   -7.9178765    754.18043  0.014917723  0.013579825         3846 
 4214000   0.57444925   -7.9352958    754.94009  0.014929206  0.013574694         3858 
 4215000   0.58476353    -7.914045    754.92802  0.014925426  0.013569558         3884 
 4216000   0.56990849   -7.9130452     755.1888   0.01492704  0.013564432         3873 
 4217000   0.57255858   -7.9333916    755.56292  0.014930893  0.013559309         3829 
 4218000   0.58626849   -7.9246541    755.36659  0.014923475  0.013554188         3865 
 4219000   0.58356506   -7.9087003    756.67163  0.014945714  0.013549073         3853 
 4220000   0.58190691   -7.9335355     755.6148  0.014921303  0.013543959         3883 
 4221000   0.58395073    -7.942612     754.8761  0.014903184  0.013538845         3860 
 4222000   0.58620015   -7.9321348     756.4368   0.01493046  0.013533731         3855 
 4223000   0.58105989   -7.9552476    753.25809  0.014864198  0.013528617         3844 
 4224000   0.56861279   -7.9176539    754.17792  0.014878826  0.013523508         3890 
 4225000   0.56814068   -7.9332279    754.78298  0.014887238  0.013518401         3868 
 4226000   0.58126077   -7.9285133    755.89943  0.014905731  0.013513297         3886 
 4227000   0.57798664   -7.9368689    755.49789  0.014894288  0.013508192         3888 
 4228000   0.58686185   -7.9281159    754.71715  0.014875377  0.013503098         3889 
 4229000   0.58206964   -7.9191068     755.9487  0.014896128  0.013498002         3853 
 4230000   0.56926641   -7.9342415    755.78052  0.014889293  0.013492905         3898 
 4231000   0.58126186   -7.9298171      754.662  0.014863744   0.01348781         3850 
 4232000   0.57725932   -7.9199037     755.4427  0.014875604  0.013482721         3878 
 4233000   0.57544596   -7.9137196    756.17162   0.01488644   0.01347763         3883 
 4234000   0.57432546    -7.919418    754.96218   0.01485912  0.013472547         3862 
 4235000   0.58397915   -7.9237736    754.27744  0.014842138  0.013467465         3840 
 4236000   0.57187047   -7.9461943    755.48418  0.014862374  0.013462383         3911 
 4237000   0.57803399   -7.9211903    755.54435  0.014860049  0.013457306         3853 
 4238000   0.58036424   -7.9486056    754.90251  0.014843922  0.013452231         3844 
 4239000   0.58054854   -7.9310199    754.02129  0.014823097  0.013447158         3874 
 4240000   0.57813286   -7.9330495    754.62527  0.014831471  0.013442085         3875 
 4241000    0.5658592   -7.9275472    754.84501  0.014832292  0.013437012         3806 
 4242000   0.56676496   -7.9363074    755.16929  0.014835166  0.013431946         3878 
 4243000    0.5600246   -7.9284662    754.85152  0.014825429  0.013426879         3876 
 4244000   0.58026338   -7.9333674    756.07265  0.014845913   0.01342182         3879 
 4245000   0.56634283   -7.9340372    755.07824  0.014822894  0.013416761         3888 
 4246000   0.57153591   -7.9355179    754.94556  0.014816799  0.013411706         3871 
 4247000   0.55969386   -7.9195754     754.4742  0.014804062  0.013406655         3864 
 4248000   0.57138982   -7.9245007    755.74646  0.014825535   0.01340161         3875 
 4249000   0.57901247   -7.9235096    754.67095  0.014800952  0.013396562         3873 
 4250000   0.57084909   -7.9375592    754.32484  0.014790683  0.013391517         3883 
 4251000   0.57731989   -7.9437331      756.101  0.014822022  0.013386481         3824 
 4252000   0.56913083    -7.919094    755.58969  0.014808515  0.013381442         3871 
 4253000   0.57938076   -7.9223742    754.74198  0.014788424  0.013376405         3863 
 4254000   0.55714028   -7.9381876    754.92509  0.014788534  0.013371364         3880 
 4255000   0.57178559    -7.930455    753.91443  0.014765265  0.013366327         3892 
 4256000   0.56843406    -7.922686     753.8725  0.014760975  0.013361293         3880 
 4257000   0.56101051   -7.9370416    753.58237  0.014751828  0.013356266         3880 
 4258000   0.57696827   -7.9426263    755.28746  0.014781734   0.01335124         3881 
 4259000   0.57033136   -7.9359709    755.75559  0.014787423   0.01334621         3889 
 4260000     0.566738    -7.941323     753.8284  0.014746252  0.013341189         3845 
 4261000   0.57266971   -7.9191967     753.9408  0.014744989  0.013336163         3859 
 4262000   0.56476898   -7.9475541    753.32576  0.014729504  0.013331145         3866 
 4263000   0.56374413   -7.9448776    753.78466  0.014735019  0.013326127         3896 
 4264000   0.57877289   -7.9364714    755.25026  0.014760207  0.013321117         3859 
 4265000   0.57319501   -7.9418548    755.04174  0.014752672  0.013316105         3879 
 4266000   0.56309091    -7.942923    754.61385  0.014740855    0.0133111         3863 
 4267000   0.56572482   -7.9164554    754.62806  0.014737678  0.013306092         3855 
 4268000   0.56279305   -7.9256343    754.26333  0.014727103  0.013301085         3890 
 4269000   0.54601533    -7.959408    753.87524  0.014716078   0.01329608         3868 
 4270000   0.56414268    -7.930924    754.09129  0.014716848  0.013291072         3867 
 4271000   0.56296404   -7.9337376    753.49092  0.014701688  0.013286076         3859 
 4272000   0.56592459   -7.9428063    754.72139  0.014722249  0.013281079         3857 
 4273000    0.5699942   -7.9435287    753.75037  0.014699867  0.013276086         3859 
 4274000   0.55976076   -7.9404251    754.75348  0.014715986  0.013271095         3869 
 4275000   0.57277467    -7.934708    755.60372  0.014729117  0.013266108         3896 
 4276000   0.57753169   -7.9335617    754.12968  0.014696946  0.013261119         3864 
 4277000   0.56715565   -7.9547457    755.22675  0.014714885   0.01325614         3885 
 4278000   0.57345588   -7.9425082    754.09119  0.014689325  0.013251154         3868 
 4279000   0.55667411   -7.9430009    754.94522  0.014702524  0.013246173         3854 
 4280000   0.57152483   -7.9330315    755.00897   0.01470033  0.013241199         3845 
 4281000   0.57285074   -7.9363316    753.61939  0.014669847  0.013236225         3830 
 4282000   0.56633112   -7.9317075    755.07397  0.014694729  0.013231251         3828 
 4283000   0.55622473    -7.932148    754.40141  0.014678213  0.013226281         3871 
 4284000   0.57557617   -7.9346639    754.50836  0.014676867   0.01322131         3848 
 4285000   0.55911759   -7.9378204    755.57646  0.014694214  0.013216346         3840 
 4286000   0.55610679   -7.9238699     753.9853  0.014659848  0.013211385         3837 
 4287000   0.55980527   -7.9463619    754.32444  0.014663021  0.013206428         3860 
 4288000   0.57403557   -7.9394628    754.68727  0.014666652   0.01320147         3878 
 4289000   0.57546942    -7.957445    754.27192  0.014655163  0.013196519         3873 
 4290000   0.55927453   -7.9201707    755.75537  0.014680563   0.01319157         3860 
 4291000   0.57783487   -7.9126933    753.80377   0.01463924  0.013186626         3861 
 4292000   0.56601606    -7.935894     754.8127  0.014655419   0.01318168         3854 
 4293000   0.55477272   -7.9228416     753.4779  0.014626095   0.01317674         3856 
 4294000   0.56250684   -7.9400826    755.13546  0.014654857  0.013171799         3843 
 4295000   0.56748335   -7.9479984    754.42474  0.014637655  0.013166856         3816 
 4296000   0.57081057   -7.9462285    753.26406  0.014611733  0.013161919         3877 
 4297000   0.55757637   -7.9322854    754.64786  0.014635169  0.013156982         3848 
 4298000    0.5784432   -7.9336193    754.69102  0.014632601   0.01315205         3865 
 4299000   0.57067928   -7.9320376    755.41374  0.014643207  0.013147126         3849 
 4300000   0.56919385   -7.9552487    754.60798  0.014624186  0.013142198         3838 
 4301000   0.55488525   -7.9401634    753.10793  0.014591722  0.013137268         3876 
 4302000   0.55246647   -7.9548024    755.31488   0.01463108  0.013132344         3883 
 4303000    0.5698738   -7.9569261    754.76803  0.014617089   0.01312742         3919 
 4304000   0.56753998   -7.9518561    752.95835  0.014578654  0.013122499         3877 
 4305000   0.56627609   -7.9409536    755.55213  0.014625477  0.013117578         3899 
 4306000   0.56115946   -7.9447382    754.31769   0.01459819  0.013112665         3866 
 4307000   0.58461959   -7.9535619    753.48323  0.014578655  0.013107751         3878 
 4308000   0.55439723   -7.9485671    754.12069  0.014587602  0.013102839         3855 
 4309000   0.56689443   -7.9524919    752.90868  0.014560777  0.013097928         3889 
 4310000   0.57049243   -7.9416133     752.9797  0.014558772  0.013093024         3893 
 4311000   0.54991552   -7.9346674     754.1748  0.014578497   0.01308812         3879 
 4312000   0.55446564   -7.9570636    753.75595  0.014567021  0.013083217         3874 
 4313000   0.57284356   -7.9591023    753.79875  0.014564471  0.013078319         3850 
 4314000   0.55685211   -7.9504999    754.18974  0.014568647  0.013073426         3872 
 4315000   0.56166537   -7.9644413    754.43766  0.014570059  0.013068532         3864 
 4316000   0.55620027   -7.9470084    754.13932  0.014560923  0.013063638         3886 
 4317000   0.55687105   -7.9695319    753.50641  0.014545333  0.013058754         3841 
 4318000   0.56813148   -7.9616194    754.25407  0.014556393  0.013053863         3887 
 4319000   0.55723821   -7.9570645    753.42405  0.014537008  0.013048978         3859 
 4320000   0.56151404   -7.9378659    753.20204   0.01452936  0.013044097         3881 
 4321000   0.54719895   -7.9438544      756.395  0.014587576  0.013039213         3879 
 4322000    0.5558695   -7.9507873    753.46947  0.014527793  0.013034335         3873 
 4323000   0.55960634   -7.9359204     753.3742  0.014522596  0.013029457         3885 
 4324000   0.56309977   -7.9486273    755.53753   0.01456093  0.013024585         3884 
 4325000   0.56331454   -7.9635671     753.3909  0.014516202  0.013019712         3888 
 4326000   0.54715033   -7.9464318    753.70907  0.014518976  0.013014843         3854 
 4327000   0.56317258   -7.9468468    754.09266  0.014523008  0.013009974         3854 
 4328000   0.56339813   -7.9593158    754.01442  0.014518146  0.013005108         3894 
 4329000   0.57614999   -7.9451718    753.22732   0.01449964  0.013000247         3878 
 4330000   0.55834098   -7.9468824    753.98731  0.014510918  0.012995396         3868 
 4331000    0.5552056   -7.9378838     753.3977  0.014496223   0.01299054         3873 
 4332000   0.56858613   -7.9558629    754.19503  0.014508215  0.012985685         3855 
 4333000   0.56153553   -7.9514105    753.83908  0.014498021  0.012980836         3875 
 4334000   0.57552087    -7.957877    753.84341  0.014494759  0.012975989         3874 
 4335000   0.55135836   -7.9493356    754.84858  0.014510738  0.012971144         3846 
 4336000   0.56472525   -7.9435623    753.82132  0.014487648  0.012966303         3902 
 4337000   0.54894694   -7.9355209    754.87089  0.014504475  0.012961461         3889 
 4338000   0.55045118   -7.9669747    753.47313   0.01447428  0.012956623         3874 
 4339000   0.55612988   -7.9410098    753.72773  0.014475834  0.012951791         3855 
 4340000   0.55651175   -7.9564673    751.64318  0.014432473  0.012946963         3873 
 4341000   0.55259918    -7.942674    754.33025  0.014480731  0.012942129         3855 
 4342000    0.5511999    -7.951994    753.60243  0.014463428  0.012937301         3856 
 4343000   0.55913058   -7.9568487    753.80791   0.01446404  0.012932468         3877 
 4344000   0.57075032   -7.9442972    753.93508   0.01446315  0.012927645         3876 
 4345000   0.54556146   -7.9443883    755.29472  0.014485898  0.012922821         3901 
 4346000   0.55792449   -7.9621176    753.22838  0.014442943  0.012918002         3897 
 4347000   0.54632573   -7.9756332     753.9405  0.014453272  0.012913182         3894 
 4348000    0.5520767   -7.9551645    755.18748  0.014473848  0.012908368         3897 
 4349000   0.55557623   -7.9526787    753.13876  0.014431263  0.012903547         3869 
 4350000   0.56539829   -7.9450502    753.23517  0.014429792  0.012898739         3872 
 4351000   0.56339696   -7.9549052    753.58023  0.014433085  0.012893929         3893 
 4352000   0.56082789   -7.9451284    753.77275  0.014433455  0.012889122         3890 
 4353000   0.55459873    -7.955044    754.27953  0.014439841  0.012884317         3875 
 4354000   0.56407179   -7.9619755    753.38242  0.014419354  0.012879517         3863 
 4355000   0.54585145   -7.9444366    754.60095   0.01443936  0.012874718         3883 
 4356000    0.5528068   -7.9544371    754.23851  0.014429111  0.012869917         3893 
 4357000   0.56133728   -7.9654089    752.42829  0.014391177  0.012865121         3886 
 4358000   0.55621835   -7.9414619    754.50802  0.014427643  0.012860327         3869 
 4359000   0.55528065   -7.9637499    754.72216  0.014428427  0.012855539         3884 
 4360000   0.55809379   -7.9550499    753.17301  0.014395509  0.012850754         3895 
 4361000   0.55814372   -7.9660523    754.12198  0.014410341  0.012845965         3874 
 4362000   0.56420741   -7.9641485    753.95122  0.014403775   0.01284118         3886 
 4363000    0.5616058    -7.959444    754.00638  0.014401528  0.012836398         3891 
 4364000   0.55904812   -7.9802425    754.35177  0.014404823  0.012831622         3882 
 4365000   0.56797488   -7.9727072    753.89878  0.014392875  0.012826845         3885 
 4366000    0.5573042   -7.9571162    753.09524  0.014374241  0.012822069         3902 
 4367000   0.55404216   -7.9684045    753.50002  0.014378674  0.012817296         3880 
 4368000   0.55624638   -7.9633958    753.16359  0.014368964  0.012812526         3879 
 4369000   0.55126438   -7.9616018    754.99949  0.014400692  0.012807759         3845 
 4370000   0.56710985   -7.9613674    753.26516  0.014364324  0.012802989         3857 
 4371000   0.55867618   -7.9561913    752.65987  0.014349498  0.012798224         3898 
 4372000   0.55427924   -7.9446302    753.68178  0.014365694   0.01279346         3890 
 4373000   0.55030959   -7.9701719    752.05629  0.014331433  0.012788697         3858 
 4374000   0.55117339   -7.9468867    753.72436  0.014359937  0.012783935         3863 
 4375000   0.55445205   -7.9510337    754.44491  0.014370379  0.012779179         3875 
 4376000   0.55591428    -7.969443    753.99094   0.01435845  0.012774427         3888 
 4377000   0.54510067   -7.9733605    753.32872  0.014342562  0.012769677         3853 
 4378000   0.55230731   -7.9620719    754.09133  0.014353802  0.012764925         3872 
 4379000   0.55738416   -7.9617475    753.03312  0.014330386   0.01276017         3880 
 4380000   0.55047084   -7.9579098    752.91465   0.01432486  0.012755422         3888 
 4381000   0.54580509   -7.9764334    753.01407  0.014323481  0.012750681         3865 
 4382000   0.55130261   -7.9601371    752.26174  0.014305906  0.012745943         3856 
 4383000   0.54700959   -7.9525698    752.93321  0.014315408  0.012741203         3900 
 4384000   0.55640518   -7.9530045    753.26271  0.014318406  0.012736469         3883 
 4385000   0.55059417   -7.9689173     754.3061   0.01433497   0.01273173         3888 
 4386000   0.54691375   -7.9671616    753.98236   0.01432555  0.012726994         3887 
 4387000   0.56073098   -7.9713552    754.01129  0.014322834  0.012722263         3902 
 4388000   0.55105454   -7.9619373    753.62475  0.014312229  0.012717532         3883 
 4389000   0.54420498   -7.9621004    753.85279  0.014313298  0.012712805         3847 
 4390000   0.54321128    -7.980664    754.63481  0.014324882  0.012708081         3878 
 4391000   0.55418616    -7.981063    752.32961  0.014277872  0.012703356         3877 
 4392000   0.55165683   -7.9886227    752.18239  0.014271827  0.012698636         3898 
 4393000   0.54152799   -7.9590786    753.03054  0.014284668  0.012693919         3872 
 4394000   0.55197567   -7.9790943    753.76353  0.014295318  0.012689202         3870 
 4395000   0.53946085   -7.9688381    752.06242  0.014259811  0.012684489         3889 
 4396000   0.56081153   -7.9765879    752.43499   0.01426363  0.012679785         3882 
 4397000    0.5523577   -7.9571404     753.0966  0.014272925  0.012675076         3906 
 4398000   0.53784831   -7.9554854    754.38675  0.014294125   0.01267037         3871 
 4399000   0.55319175   -7.9745307    753.22432  0.014268855   0.01266567         3869 
 4400000   0.54587364   -7.9754236    754.05242  0.014281296   0.01266097         3862 
 4401000   0.54771508   -7.9741777    754.25475  0.014281882  0.012656268         3891 
 4402000    0.5428813   -7.9728279    752.29239  0.014241488   0.01265157         3875 
 4403000   0.55326095   -7.9625785    753.16276  0.014254727  0.012646875         3884 
 4404000   0.53169725    -7.972018    752.71973  0.014243107  0.012642182         3889 
 4405000    0.5571894   -7.9759814    752.25304  0.014231045  0.012637492         3886 
 4406000   0.55621644   -7.9648299    753.77072   0.01425652  0.012632807         3878 
 4407000   0.54827856   -7.9617192    754.38994  0.014264994  0.012628125         3845 
 4408000   0.53116349   -7.9509213    754.68156  0.014267271  0.012623446         3840 
 4409000   0.54485881   -7.9741376    753.68704  0.014245238  0.012618761         3841 
 4410000   0.53572481   -7.9768809    753.54844  0.014239389  0.012614076         3875 
 4411000   0.54998663   -7.9549014    753.58099  0.014236775  0.012609399         3865 
 4412000   0.54336385    -7.990117    751.85851  0.014201014  0.012604721         3879 
 4413000   0.53567942   -7.9830391    752.97901  0.014218955  0.012600043         3868 
 4414000   0.54852871   -7.9641021    754.38172  0.014242216  0.012595373         3862 
 4415000   0.55235515   -7.9735604    753.90477  0.014229988  0.012590704         3888 
 4416000   0.56014397   -7.9750082    753.03461  0.014210345  0.012586035         3876 
 4417000   0.55440231   -7.9681513    753.92303  0.014223889  0.012581371         3898 
 4418000   0.56382403   -7.9726618    753.18524  0.014206753  0.012576702         3875 
 4419000   0.54165705   -7.9759507    753.56479  0.014210696  0.012572038         3911 
 4420000   0.55364301   -7.9611489    753.46584  0.014205615  0.012567382         3888 
 4421000   0.54350068   -7.9620721    752.55322    0.0141852  0.012562725         3865 
 4422000   0.53967618   -7.9826055     752.2292  0.014175886  0.012558066         3886 
 4423000   0.53214688   -7.9842098    753.10423  0.014189167  0.012553414         3876 
 4424000   0.53997967   -7.9547446    754.32594  0.014208973   0.01254877         3881 
 4425000   0.55393369   -7.9701344    754.64463  0.014211763  0.012544118         3871 
 4426000   0.53939965   -7.9767604     752.1325  0.014161254  0.012539473         3886 
 4427000   0.53720711    -7.965951    753.41507  0.014182198  0.012534831         3856 
 4428000   0.54074481   -7.9715005    753.15191  0.014174042  0.012530188         3871 
 4429000   0.53380931   -7.9908639    753.53916  0.014178128   0.01252555         3858 
 4430000   0.54700749   -7.9743691    752.73475  0.014159796  0.012520913         3855 
 4431000   0.55229475   -7.9587048    752.46745  0.014151573  0.012516281         3866 
 4432000   0.53081219   -7.9748014    753.17726  0.014161727  0.012511648         3856 
 4433000   0.53631275   -7.9980679    753.01432  0.014155469  0.012507017         3866 
 4434000   0.54439086   -7.9916791    752.87614  0.014149679  0.012502388         3880 
 4435000   0.53184714   -7.9611529    752.10999  0.014132093  0.012497764         3859 
 4436000   0.53992479   -7.9923917    753.16298  0.014148688   0.01249314         3886 
 4437000   0.54201479   -7.9824636    752.13689  0.014126228   0.01248852         3894 
 4438000   0.53720895   -7.9832393     752.2599  0.014125355    0.0124839         3846 
 4439000   0.54647554   -7.9769684     754.0863   0.01415646  0.012479281         3877 
 4440000   0.53416584   -7.9671161    752.22969  0.014118425  0.012474665         3901 
 4441000   0.54420244   -7.9786439    752.44343  0.014119257  0.012470052         3882 
 4442000   0.54384088   -7.9942751    752.19605  0.014111437  0.012465435         3882 
 4443000   0.54458438   -7.9769784    753.53424   0.01413336  0.012460823         3888 
 4444000   0.54344887   -7.9750081    752.79403    0.0141163  0.012456218         3877 
 4445000   0.54306655   -7.9847117    753.36969  0.014123916  0.012451611         3874 
 4446000    0.5389485   -7.9881503    752.12994  0.014097502  0.012447014         3881 
 4447000    0.5382114   -7.9796879    753.76797  0.014125028  0.012442415         3867 
 4448000   0.54063298   -7.9733255     751.4816  0.014079017  0.012437819         3863 
 4449000   0.54390276   -7.9869946    752.48799  0.014094703  0.012433223         3878 
 4450000   0.53957202   -7.9695309    752.78339  0.014097067  0.012428629         3859 
 4451000   0.54866208   -7.9861724    753.90698  0.014114936  0.012424036         3883 
 4452000   0.54809307   -7.9889394    752.12292  0.014078371  0.012419446         3894 
 4453000     0.531091   -7.9743494    752.55961  0.014083382  0.012414858         3869 
 4454000   0.53292702    -7.978729    751.69804    0.0140641  0.012410274         3892 
 4455000   0.53679897    -7.986525    752.91099  0.014083632  0.012405685         3855 
 4456000    0.5422066   -7.9812698    751.96127  0.014062711  0.012401105         3887 
 4457000    0.5460346   -7.9784805    752.23181  0.014064614  0.012396527         3865 
 4458000   0.54242799    -7.985912    752.15803   0.01406008  0.012391953         3891 
 4459000   0.53061225    -7.982679     751.9661   0.01405334  0.012387379         3904 
 4460000   0.54136292   -7.9937597    752.50606  0.014060278  0.012382805         3905 
 4461000   0.53319595   -7.9898987    753.70993  0.014079615  0.012378238         3884 
 4462000   0.53864227   -7.9699776    752.90548  0.014061435  0.012373669         3869 
 4463000   0.53730106   -7.9996434    753.26081  0.014064919  0.012369102         3905 
 4464000   0.53398081   -7.9875737    752.85881  0.014054264  0.012364539         3897 
 4465000   0.55040878   -7.9764193    753.91076   0.01407075  0.012359978         3869 
 4466000   0.54367629   -7.9828556    752.98336  0.014050294  0.012355421         3887 
 4467000   0.53389378   -7.9936668    752.41152  0.014036481  0.012350864         3865 
 4468000   0.53041997   -7.9805427    752.15529   0.01402856   0.01234631         3881 
 4469000   0.53158176   -7.9771183    752.12595  0.014024874  0.012341759         3896 
 4470000   0.53965632   -7.9783991    753.09724  0.014039844  0.012337208         3904 
 4471000   0.53636429   -7.9754166    752.44081  0.014024469  0.012332664         3888 
 4472000   0.51875135   -7.9868256    751.97631  0.014012677  0.012328114         3889 
 4473000   0.52927833   -7.9959827    752.33368  0.014016202  0.012323571         3872 
 4474000   0.54071027   -7.9901841    751.01074  0.013988428  0.012319026         3855 
 4475000   0.54889168   -7.9847496    751.02673    0.0139856  0.012314484         3908 
 4476000    0.5372005   -7.9771889     752.3946  0.014007942  0.012309945         3869 
 4477000   0.52620496   -7.9856122    752.73843  0.014011213  0.012305405         3878 
 4478000   0.54157295   -7.9849184    751.76135  0.013989902  0.012300872         3896 
 4479000   0.54763744   -7.9892227    752.24463   0.01399577  0.012296339         3878 
 4480000   0.52864318   -7.9903593    753.61478  0.014018132   0.01229181         3901 
 4481000   0.55144695   -7.9976015    752.33965   0.01399129  0.012287283         3864 
 4482000   0.54597836   -7.9855281    751.18134  0.013966632  0.012282756         3880 
 4483000   0.53087985   -7.9973481    752.31344  0.013984561  0.012278233         3892 
 4484000   0.54531449   -7.9807781    753.14077  0.013996818  0.012273712         3877 
 4485000    0.5319432   -7.9936424    751.78188  0.013968448   0.01226919         3877 
 4486000    0.5325663   -7.9915328    751.43871  0.013958959  0.012264674         3878 
 4487000   0.53432749   -8.0010457    751.62035  0.013959222  0.012260158         3872 
 4488000   0.52834714   -7.9842232    751.87706  0.013960878   0.01225565         3901 
 4489000   0.53933011   -7.9895589    753.03394  0.013979244   0.01225114         3875 
 4490000   0.54323454   -7.9998882     752.4828  0.013965902  0.012246629         3884 
 4491000   0.53101078   -7.9982928    750.82518  0.013932034  0.012242125         3872 
 4492000   0.53042417   -8.0003862    751.86153  0.013948158  0.012237619         3886 
 4493000   0.54297664   -7.9964169    752.97393  0.013965686  0.012233117         3866 
 4494000   0.53840048   -7.9870008    751.83672  0.013941491  0.012228619         3862 
 4495000   0.53689175   -7.9849524    754.05737  0.013979558  0.012224124         3898 
 4496000   0.52709994   -7.9779063    752.03116  0.013938893  0.012219628         3860 
 4497000   0.52725878    -8.011964    751.34524  0.013923083  0.012215131         3889 
 4498000   0.52563962   -7.9854547    751.33171  0.013919737  0.012210639         3885 
 4499000   0.53900366   -7.9974047    751.46073  0.013919033  0.012206145         3882 
 4500000   0.53335208   -7.9814905    751.91618  0.013924374  0.012201657         3869 
 4501000    0.5271405      -7.9876    752.32422  0.013928835  0.012197174         3864 
 4502000   0.53478352   -7.9919789    752.11407  0.013921851   0.01219269         3907 
 4503000   0.52864388   -7.9898526    752.73132  0.013930182  0.012188214         3893 
 4504000   0.53274784   -8.0156246    752.27474  0.013918642  0.012183736         3884 
 4505000   0.53548747   -8.0007493    752.61562  0.013921858  0.012179258         3875 
 4506000   0.54636816   -8.0172961    751.44537  0.013897126  0.012174784         3895 
 4507000   0.54384373   -8.0015245    753.22939  0.013927028  0.012170311         3886 
 4508000   0.52533273     -8.01867    751.88476  0.013899082  0.012165839         3887 
 4509000    0.5336837   -7.9957366    752.38046  0.013905161   0.01216137         3877 
 4510000   0.52535141   -8.0065766    752.54504  0.013905119    0.0121569         3882 
 4511000   0.53035857   -7.9976881    752.87403  0.013908114  0.012152432         3896 
 4512000   0.52976623   -8.0025158    751.50353  0.013879719   0.01214797         3890 
 4513000   0.53148354   -7.9988468    751.75305  0.013881251  0.012143512         3893 
 4514000   0.51665947   -8.0012487     752.3934  0.013889998  0.012139052         3912 
 4515000   0.52573304   -8.0033638    750.81533  0.013857795  0.012134593         3894 
 4516000   0.53389274   -8.0298881     750.6993  0.013852585  0.012130136         3913 
 4517000   0.53508037   -7.9961825    751.63871  0.013866849  0.012125683         3891 
 4518000   0.51727718   -8.0031697    750.34205  0.013839864  0.012121236         3896 
 4519000    0.5376904   -7.9998614    753.25757  0.013890565  0.012116786         3892 
 4520000   0.53078311   -8.0020594    750.18594  0.013830862  0.012112342         3905 
 4521000   0.52684271   -8.0071079    751.24796  0.013847378  0.012107898         3896 
 4522000   0.52559193   -8.0047788     752.0588  0.013859258  0.012103458         3895 
 4523000   0.51996364   -7.9972737     752.3349  0.013861281  0.012099014         3888 
 4524000   0.51990739   -8.0041209    751.19786  0.013837273  0.012094579         3891 
 4525000   0.53155128   -8.0064976    750.55204  0.013822321  0.012090141         3895 
 4526000   0.52680043   -7.9957365    751.72264   0.01384082  0.012085709         3877 
 4527000    0.5263151   -7.9991394    751.73492  0.013837989  0.012081278         3887 
 4528000   0.52750824    -8.004487    750.80578  0.013817833  0.012076846         3885 
 4529000   0.53010875   -8.0063497    752.11296  0.013838834  0.012072422         3889 
 4530000   0.53246661   -7.9869633    751.08902  0.013816943  0.012067996         3887 
 4531000   0.52386995    -8.012972     751.6866  0.013824884   0.01206357         3879 
 4532000   0.52877982   -8.0035174    751.63696  0.013820921   0.01205915         3893 
 4533000   0.52263121   -7.9776387    752.52901  0.013834271   0.01205473         3884 
 4534000   0.53563429   -8.0121459    751.45532  0.013811486  0.012050316         3864 
 4535000   0.51946243   -7.9980563     751.4155  0.013807709  0.012045899         3908 
 4536000     0.522042   -8.0186417    752.79105  0.013829936   0.01204149         3869 
 4537000   0.52037626   -7.9987173    752.72614  0.013825695   0.01203708         3883 
 4538000   0.52687372   -8.0115515    752.57824  0.013819932  0.012032668         3882 
 4539000    0.5189504   -8.0043937      752.433  0.013814221  0.012028262         3854 
 4540000    0.5261389   -8.0009812    751.30326  0.013790442  0.012023857         3853 
 4541000   0.52255108   -8.0108672    751.63289  0.013793454   0.01201945         3875 
 4542000   0.51413703   -7.9822442    751.95837  0.013796389  0.012015051         3879 
 4543000   0.52773934   -7.9797325    751.83533  0.013791095  0.012010655         3885 
 4544000   0.53352366   -7.9979041    751.28378  0.013777945   0.01200626         3874 
 4545000   0.53593009   -8.0201528    750.42933  0.013759247  0.012001867         3901 
 4546000    0.5251419    -8.011104    752.11259  0.013787076  0.011997474         3889 
 4547000   0.53913033   -7.9928616      752.392  0.013789165  0.011993088         3883 
 4548000   0.52971594    -8.016726    750.84313  0.013757753  0.011988696         3908 
 4549000   0.52522562   -8.0135733    752.00193  0.013775957  0.011984311         3882 
 4550000   0.53162769   -8.0007941    750.33583  0.013742414  0.011979927         3891 
 4551000   0.52160921   -7.9954951    751.01846  0.013751894  0.011975544         3870 
 4552000   0.52016444   -8.0117002    751.84963   0.01376409  0.011971163         3870 
 4553000   0.52895642   -7.9888288    751.64305  0.013757285  0.011966788         3882 
 4554000   0.53162086   -7.9938611    751.15092  0.013745259  0.011962412         3863 
 4555000   0.52930025   -8.0069064    752.65571  0.013769771  0.011958037         3904 
 4556000   0.52544753   -8.0182286    752.79893  0.013769369  0.011953667         3912 
 4557000   0.53697694   -8.0160307    752.06169  0.013752865  0.011949299         3873 
 4558000   0.52116248   -8.0114653    751.78829  0.013744849  0.011944931         3897 
 4559000   0.51045316   -8.0215005    751.97991  0.013745337  0.011940568         3907 
 4560000    0.5306141   -8.0132942    751.67785  0.013736803  0.011936203         3893 
 4561000   0.52706827   -7.9950982    750.20586  0.013706896   0.01193184         3881 
 4562000   0.50884872   -7.9939833    751.44779  0.013726578   0.01192748         3859 
 4563000   0.52978441   -8.0281971    750.60515  0.013708181  0.011923125         3896 
 4564000   0.51985086   -8.0165464    751.29042   0.01371769  0.011918771         3907 
 4565000   0.53677095   -8.0060389    751.03559  0.013710033  0.011914418         3894 
 4566000   0.52882002   -8.0053134    751.23815  0.013710727  0.011910069         3850 
 4567000   0.53170966   -8.0143441    750.56269    0.0136954  0.011905719         3904 
 4568000   0.51989471   -8.0041045    750.95048  0.013699476  0.011901371         3899 
 4569000   0.52603905   -8.0135827    751.04555  0.013698212  0.011897024         3882 
 4570000   0.51997634   -8.0033271    751.20464  0.013698115  0.011892679         3915 
 4571000   0.52023037    -8.019807    750.69793  0.013685881  0.011888337         3888 
 4572000   0.52665396   -8.0209112    751.19631  0.013691971  0.011884001         3864 
 4573000   0.51616871   -8.0038929    752.17315  0.013706778  0.011879664         3872 
 4574000   0.52217982   -8.0136959    750.71971  0.013677301  0.011875326         3903 
 4575000   0.52123238   -8.0092272    751.13708  0.013681914  0.011870992         3885 
 4576000   0.51025019   -8.0102629    751.03537  0.013677072  0.011866662         3908 
 4577000   0.51519221   -8.0116007    750.80666   0.01366992  0.011862333         3882 
 4578000   0.52237405   -8.0276049     751.7199  0.013683557  0.011858006         3882 
 4579000   0.52386008   -8.0105953     752.4251  0.013693403  0.011853681         3884 
 4580000   0.51443754   -8.0256666    750.65046  0.013658123  0.011849356         3904 
 4581000   0.51339144   -8.0130102    751.47524  0.013670145  0.011845032         3895 
 4582000   0.52783145   -8.0205785    751.72746  0.013671749  0.011840715         3893 
 4583000   0.52234643   -8.0266877    750.87996  0.013653356  0.011836396         3889 
 4584000   0.52616189   -8.0239793    751.13392  0.013654994  0.011832081         3876 
 4585000   0.52156017   -8.0165838    751.81223  0.013664344  0.011827771         3886 
 4586000   0.50911784   -8.0020436    751.87628  0.013662529  0.011823459         3884 
 4587000   0.51517381   -8.0111476    751.57987  0.013654165  0.011819149         3871 
 4588000   0.51746575   -8.0104375    751.11472  0.013642741  0.011814839         3871 
 4589000    0.5356478   -8.0270256    749.46834   0.01360987  0.011810537         3869 
 4590000   0.51422129   -8.0072326    751.96227  0.013652184  0.011806234         3893 
 4591000   0.51585096   -8.0042751    750.72691  0.013626786  0.011801936         3880 
 4592000   0.51850088   -8.0218473    752.01663  0.013647224   0.01179764         3922 
 4593000   0.51304785   -8.0147027    750.84236  0.013622947  0.011793343         3867 
 4594000   0.51002645   -8.0204661    750.99491  0.013622749  0.011789047         3898 
 4595000   0.52535912   -8.0356871    751.13908  0.013622399  0.011784755         3887 
 4596000   0.52098223   -8.0205575    751.19681  0.013620482  0.011780467         3895 
 4597000   0.50339875   -8.0051659    751.68845  0.013626431  0.011776179         3862 
 4598000   0.52536404   -8.0003672    751.25714  0.013615651  0.011771892         3882 
 4599000   0.51010848   -8.0081421    752.29146  0.013631432  0.011767612         3852 
 4600000   0.51551363   -8.0214994     750.6947  0.013599542  0.011763331         3875 
 4601000   0.50850978   -8.0211748     751.8028  0.013616656  0.011759055         3869 
 4602000    0.5096425   -8.0263102    751.63992  0.013610748  0.011754775         3922 
 4603000   0.52226333    -8.035131     751.4265  0.013603927  0.011750498         3894 
 4604000   0.50477319   -8.0312968    749.72576  0.013570188  0.011746221         3864 
 4605000   0.51213658   -8.0279298     752.1293  0.013610737  0.011741949         3873 
 4606000   0.52388963   -8.0114918    751.21492  0.013591238   0.01173768         3867 
 4607000   0.51974926   -8.0080835    751.04231  0.013585166  0.011733413         3870 
 4608000   0.51176487   -8.0160587    751.18017  0.013584711  0.011729148         3886 
 4609000   0.51742588   -8.0059168    751.96703   0.01359599  0.011724882         3893 
 4610000    0.5131683    -8.028412    751.62473  0.013586853  0.011720622         3882 
 4611000   0.51391011   -8.0480613      752.137  0.013593165  0.011716362         3892 
 4612000   0.51036003   -8.0101816    752.34087  0.013593901  0.011712102         3882 
 4613000   0.52315707   -8.0166426    752.07405  0.013586134  0.011707845         3870 
 4614000   0.51971203   -8.0069847    749.77241   0.01354162  0.011703592         3918 
 4615000   0.50115778   -8.0349047    750.51569  0.013552107  0.011699338         3903 
 4616000   0.50025619   -8.0262932    750.13034  0.013542214  0.011695082         3874 
 4617000   0.51789239   -8.0128661    750.10986  0.013538912  0.011690833         3912 
 4618000   0.50396395   -8.0275858    750.34084  0.013540148  0.011686585         3895 
 4619000   0.51603399   -8.0204809    751.60329  0.013559993   0.01168234         3900 
 4620000   0.50903935   -8.0198524    750.83453  0.013543191  0.011678096         3863 
 4621000   0.51166684   -8.0135878    750.86487  0.013540808  0.011673857         3886 
 4622000    0.5097286   -8.0315137    750.51596  0.013531587  0.011669616         3883 
 4623000   0.51486965   -8.0234015    751.37679  0.013544177  0.011665379         3861 
 4624000   0.50733193   -8.0266863    750.04779  0.013517297  0.011661145         3895 
 4625000   0.50869642   -8.0334323    751.80104  0.013545965  0.011656915         3896 
 4626000   0.50984536   -8.0285758    750.56857  0.013520835   0.01165268         3894 
 4627000   0.50801754   -8.0308445    751.05885  0.013526743   0.01164845         3895 
 4628000   0.50871951   -8.0265375    751.62448  0.013534005  0.011644224         3888 
 4629000   0.50917269   -8.0222295     751.6186  0.013530975  0.011639997         3875 
 4630000   0.50970061   -8.0388548       750.69  0.013511339  0.011635775         3913 
 4631000    0.5085848    -8.028092    750.68064  0.013508253  0.011631557         3897 
 4632000   0.51230264   -8.0214359    750.72249   0.01350609  0.011627342         3908 
 4633000   0.50481973   -8.0238728    751.31719  0.013513871  0.011623125         3890 
 4634000   0.51550435   -8.0253073    750.55389  0.013497229   0.01161891         3882 
 4635000   0.52104438   -8.0185783    751.40494  0.013509618  0.011614698         3919 
 4636000   0.50705006   -8.0403528    749.76542  0.013477233  0.011610485         3898 
 4637000   0.53323653   -8.0217007    750.90057  0.013494727  0.011606276         3895 
 4638000   0.50881982   -8.0289343    751.35412  0.013499966  0.011602071         3906 
 4639000   0.50069151   -8.0327977    751.27722  0.013495675  0.011597866         3874 
 4640000   0.50807074   -8.0436853    750.39549  0.013476931  0.011593662         3902 
 4641000   0.51758621    -8.028002    750.87373  0.013482614  0.011589459         3902 
 4642000   0.51202227   -8.0262075    750.07834  0.013465431  0.011585259         3894 
 4643000   0.50667484   -8.0373627    751.39252  0.013486117  0.011581062         3890 
 4644000    0.5049605   -8.0288594     748.8725  0.013437993  0.011576867         3897 
 4645000   0.49713953   -8.0346768    750.88398  0.013471187  0.011572676         3900 
 4646000   0.50161754   -8.0405531    751.20491  0.013474044  0.011568486         3913 
 4647000   0.50248788    -8.012262    751.70365  0.013480088  0.011564297         3881 
 4648000   0.50149017   -8.0256653    750.46698  0.013455016  0.011560112         3895 
 4649000   0.50602336   -8.0247364    750.23502  0.013447964   0.01155593         3886 
 4650000   0.51199958   -8.0319495    748.92946  0.013421675  0.011551748         3897 
 4651000    0.5104168   -8.0186499    750.58216  0.013448401  0.011547568         3892 
 4652000   0.50032679   -8.0271181    751.68189   0.01346521  0.011543388         3885 
 4653000   0.50132799   -8.0350588    750.40032  0.013439364  0.011539211         3906 
 4654000   0.51690647   -8.0313534    751.56869  0.013457397  0.011535034         3893 
 4655000   0.50934419   -8.0392451    749.86047  0.013423925  0.011530861         3896 
 4656000   0.50980741   -8.0310082    750.91028  0.013439832  0.011526685         3892 
 4657000     0.512763   -8.0254548    750.38297   0.01342751  0.011522517         3870 
 4658000   0.49887812   -8.0336894    750.53638  0.013427372  0.011518349         3878 
 4659000   0.49572415   -8.0435655    748.98192  0.013396686  0.011514179         3909 
 4660000   0.50227688   -8.0431097    750.82856  0.013426834  0.011510014         3913 
 4661000   0.50840237   -8.0367113    749.89691  0.013407297  0.011505853         3917 
 4662000    0.4984289   -8.0338337    750.47089  0.013414681  0.011501693         3882 
 4663000   0.51101086   -8.0189386    751.16028  0.013424124  0.011497536         3896 
 4664000   0.51723326   -8.0445304    750.09983  0.013402298  0.011493383         3882 
 4665000   0.52003201    -8.030491    748.84511  0.013377012  0.011489231         3926 
 4666000   0.49823869   -8.0520763    750.32289  0.013400537   0.01148508         3912 
 4667000   0.50233095   -8.0461251    751.21629  0.013413619  0.011480931         3918 
 4668000   0.50043488   -8.0256597    748.40144  0.013360494  0.011476785         3897 
 4669000   0.50852683   -8.0353442    750.81302  0.013400675  0.011472641         3876 
 4670000   0.51619848   -8.0462758    751.07559  0.013402491  0.011468497         3887 
 4671000   0.51020305   -8.0517599    750.25361  0.013384957  0.011464355         3889 
 4672000   0.51256194   -8.0322435    750.49401   0.01338638  0.011460215         3890 
 4673000   0.49891676   -8.0409805    750.43199  0.013382409  0.011456076         3906 
 4674000   0.50408018   -8.0554632     750.5896  0.013382356   0.01145194         3892 
 4675000   0.49757243   -8.0392744    750.11975  0.013371119  0.011447807         3897 
 4676000    0.5069788   -8.0404859    750.25231  0.013370621  0.011443677         3883 
 4677000   0.51152182   -8.0379529    750.26436  0.013367977  0.011439543         3899 
 4678000   0.50415132   -8.0434112     751.1625  0.013381119  0.011435413         3894 
 4679000   0.51019396   -8.0460472    750.60455  0.013368322  0.011431284         3887 
 4680000   0.49592009    -8.045956     747.9011  0.013317327  0.011427159         3901 
 4681000   0.49811452   -8.0452819     750.5723  0.013362036  0.011423035         3908 
 4682000   0.49225982   -8.0281524    750.76828   0.01336267  0.011418914         3894 
 4683000   0.51464925   -8.0393277    749.60056  0.013339038  0.011414798         3910 
 4684000   0.50167864   -8.0413967    751.81398  0.013375569  0.011410683         3869 
 4685000   0.50377958   -8.0445105    750.53843  0.013350025  0.011406568         3916 
 4686000   0.49655797   -8.0438331     750.7491  0.013350923  0.011402457         3885 
 4687000   0.49520218   -8.0484754    748.64147  0.013310601  0.011398345         3892 
 4688000   0.50611292   -8.0299324    749.84708  0.013329193  0.011394235         3902 
 4689000   0.50871976   -8.0436052    751.45096  0.013354855  0.011390128         3904 
 4690000   0.49641004   -8.0578739    750.72894  0.013339178  0.011386022         3874 
 4691000   0.51026381   -8.0438863    750.05137  0.013324298  0.011381915         3902 
 4692000   0.49984475   -8.0525734    750.37737  0.013327248  0.011377815         3893 
 4693000   0.48887563   -8.0451466    750.86717  0.013333106  0.011373715         3884 
 4694000   0.50719987   -8.0436071    750.78503  0.013328807  0.011369616         3910 
 4695000   0.50057092   -8.0383173    751.03942  0.013330483  0.011365521         3914 
 4696000   0.49701671    -8.036515     749.2992  0.013296763  0.011361428         3881 
 4697000   0.49964638    -8.035922     748.8078  0.013285214  0.011357336         3885 
 4698000   0.50390581   -8.0292288    750.89758  0.013319455  0.011353248         3882 
 4699000    0.5077984    -8.038553    750.64681  0.013312173  0.011349161         3895 
 4700000   0.49602224   -8.0434804    749.91301   0.01329633  0.011345077         3905 
 4701000   0.50671052   -8.0185565    750.80866  0.013309378  0.011340995         3885 
 4702000   0.50303889   -8.0351361    749.81756  0.013288983  0.011336913         3896 
 4703000   0.49161686   -8.0456624    751.13244  0.013309456  0.011332831         3890 
 4704000   0.49026606   -8.0479181     751.2651  0.013308976  0.011328753         3899 
 4705000   0.49443824   -8.0536889    749.00677  0.013266149  0.011324674         3905 
 4706000   0.50213372   -8.0416017    750.13048  0.013283229  0.011320598         3901 
 4707000   0.50020796   -8.0459299    749.33434  0.013266311  0.011316524         3893 
 4708000   0.50562792   -8.0375981    750.18468  0.013278545  0.011312453         3885 
 4709000   0.50106233   -8.0628063    750.55749  0.013282323  0.011308382         3904 
 4710000   0.48985604   -8.0377895    749.81782  0.013266416  0.011304314         3928 
 4711000   0.50063889   -8.0471931    749.37854  0.013255829  0.011300247         3898 
 4712000   0.48394187   -8.0453448    749.45831  0.013254427  0.011296182         3881 
 4713000   0.49226463   -8.0383454    750.78398  0.013275055  0.011292118         3896 
 4714000   0.48821229   -8.0268654     749.6234  0.013251722  0.011288055         3883 
 4715000   0.49856134   -8.0543197     749.8708  0.013253284  0.011283997         3930 
 4716000   0.50550422   -8.0507605    749.40422  0.013242229  0.011279939         3906 
 4717000   0.49738439   -8.0305864    749.54395   0.01324189  0.011275882         3898 
 4718000   0.49343078   -8.0562815     750.3137  0.013252679  0.011271827         3913 
 4719000   0.50060468   -8.0449862    749.89132  0.013242412  0.011267773         3876 
 4720000   0.49991924    -8.061801    749.48226  0.013232385  0.011263724         3920 
 4721000   0.49888188   -8.0553225    749.20222  0.013224638  0.011259674         3904 
 4722000   0.50084218   -8.0673312    750.37607  0.013242554  0.011255629         3908 
 4723000   0.48985876    -8.044106    749.15543  0.013218213  0.011251584         3916 
 4724000   0.49848291   -8.0407028    750.26338  0.013234959  0.011247541         3898 
 4725000    0.4988193   -8.0617515    748.72663  0.013205055    0.0112435         3902 
 4726000   0.49472411   -8.0598364    749.72242   0.01321982  0.011239465         3885 
 4727000   0.49318707   -8.0432151    749.40606  0.013211446   0.01123543         3914 
 4728000   0.49762152   -8.0545547    750.19079  0.013222483  0.011231396         3901 
 4729000   0.49609836   -8.0615297    749.95236  0.013215485  0.011227362         3888 
 4730000   0.48149832   -8.0593129    750.42466  0.013221012  0.011223334         3897 
 4731000     0.498782   -8.0551966    750.76226  0.013224164  0.011219305         3880 
 4732000   0.49550952   -8.0488485    748.73825  0.013185726  0.011215278         3884 
 4733000   0.48604593   -8.0573655    749.70554  0.013199971  0.011211251         3898 
 4734000   0.50236651   -8.0401241    749.12042  0.013186882  0.011207227         3876 
 4735000   0.48875882   -8.0577593     750.1509  0.013202233  0.011203205         3895 
 4736000   0.50009669   -8.0406203    748.86283  0.013176781  0.011199185         3902 
 4737000   0.48982439   -8.0395178    748.51905  0.013167952  0.011195171         3896 
 4738000   0.49644705   -8.0594947     749.7903  0.013187532  0.011191155         3902 
 4739000   0.49206094   -8.0608393    750.89584  0.013204189   0.01118714         3903 
 4740000       0.4955   -8.0583824    748.86152  0.013165638  0.011183128         3917 
 4741000   0.48838814   -8.0586072    750.37509  0.013189466  0.011179119         3904 
 4742000   0.49292508    -8.053205    749.84457  0.013177361  0.011175108         3891 
 4743000   0.49134136   -8.0488067    750.57643  0.013187442  0.011171104         3901 
 4744000   0.49539636   -8.0397917    750.08109  0.013175961    0.0111671         3912 
 4745000   0.50714473    -8.057275    749.31287  0.013159692  0.011163098         3895 
 4746000   0.49610279    -8.049075    749.79035  0.013165303  0.011159098         3904 
 4747000    0.4912496   -8.0492415    747.99462  0.013131006  0.011155102         3905 
 4748000   0.48830012   -8.0582143    749.22564  0.013149846  0.011151105         3893 
 4749000   0.50385066   -8.0565894    749.62029  0.013154002  0.011147106         3882 
 4750000   0.49442191   -8.0584318    750.15409  0.013160598  0.011143116         3889 
 4751000   0.49626293   -8.0452646    749.66677   0.01314928  0.011139123         3916 
 4752000   0.49220412   -8.0477542    748.59713  0.013127756  0.011135133         3925 
 4753000    0.4854596   -8.0732883     749.5701  0.013142052  0.011131146         3919 
 4754000   0.49595166    -8.064003    750.21796  0.013150644  0.011127157         3936 
 4755000   0.48909148   -8.0580097    750.57685  0.013154168  0.011123173         3906 
 4756000   0.48703433    -8.069282    749.90517  0.013139634  0.011119193         3884 
 4757000   0.50628498   -8.0594446    749.27783  0.013125882  0.011115214         3889 
 4758000   0.48968343   -8.0634939    749.93122  0.013134567  0.011111234         3878 
 4759000   0.48305825   -8.0554873    749.66159  0.013127085  0.011107257         3886 
 4760000   0.49245111   -8.0570204    748.86821  0.013110438  0.011103283         3910 
 4761000   0.49356426   -8.0539565    749.07364   0.01311128  0.011099311         3903 
 4762000   0.49696811   -8.0458817    749.63066  0.013118274   0.01109534         3909 
 4763000   0.49802005   -8.0602005    749.22836  0.013108481   0.01109137         3899 
 4764000   0.47831476   -8.0567241    749.93235  0.013118044  0.011087402         3915 
 4765000   0.47542295   -8.0588625    748.99013  0.013098813  0.011083436         3903 
 4766000   0.48918974   -8.0561343    750.89807  0.013129425  0.011079473         3903 
 4767000   0.49529388   -8.0658605    749.51725  0.013102532   0.01107551         3899 
 4768000   0.49507525   -8.0587497     751.2316  0.013129747  0.011071551         3893 
 4769000   0.48258298   -8.0659514    749.54844  0.013097582  0.011067592         3908 
 4770000   0.47930739   -8.0603017    749.16878  0.013088204  0.011063635         3908 
 4771000   0.49613638   -8.0501616    749.77378  0.013096028  0.011059679         3877 
 4772000   0.49082663   -8.0515362    749.65379  0.013091188  0.011055727         3884 
 4773000    0.4785501   -8.0641748    747.47171  0.013050348  0.011051774         3907 
 4774000   0.48287719   -8.0575141    749.53686  0.013083662  0.011047825         3911 
 4775000   0.48803329   -8.0506155    749.47025   0.01307976  0.011043876         3926 
 4776000   0.48499801   -8.0531686    748.42734  0.013058824  0.011039931         3892 
 4777000   0.48852817   -8.0654487    749.15132   0.01306872  0.011035984         3885 
 4778000   0.48517842   -8.0656076    748.99037  0.013063178  0.011032043         3878 
 4779000   0.49020001   -8.0723984    749.05359  0.013061547  0.011028102         3916 
 4780000   0.48575793   -8.0564436    749.45358  0.013065788  0.011024164         3926 
 4781000   0.48532909   -8.0518897    750.37043  0.013079036  0.011020226         3926 
 4782000    0.4948656   -8.0587427    749.05932  0.013053452  0.011016293         3920 
 4783000   0.48718787    -8.054773    748.77325  0.013045739  0.011012361         3900 
 4784000   0.48301643   -8.0636907    749.68721  0.013058933  0.011008432         3907 
 4785000   0.49006024   -8.0546324     749.8437  0.013058929  0.011004504         3892 
 4786000      0.48349   -8.0678641    749.22511   0.01304543  0.011000573         3907 
 4787000   0.47687643   -8.0748131     749.1671  0.013041695  0.010996647         3887 
 4788000   0.48471091   -8.0484426    749.77028  0.013049469  0.010992722         3896 
 4789000   0.47548656   -8.0687844    747.70469  0.013010801    0.0109888         3913 
 4790000   0.47918671   -8.0664454    749.40301  0.013037631  0.010984879         3916 
 4791000   0.47562029   -8.0623857    749.67683  0.013039672  0.010980958         3918 
 4792000   0.46839566   -8.0729147    748.79023  0.013021533  0.010977039         3907 
 4793000   0.48636947   -8.0748863    749.45887  0.013030442  0.010973123         3906 
 4794000   0.48650174   -8.0616861    749.67182  0.013031425   0.01096921         3878 
 4795000   0.49545595   -8.0518243    749.12854  0.013019265  0.010965298         3901 
 4796000   0.48727651   -8.0656995    748.52122  0.013005998  0.010961389         3895 
 4797000   0.48321479   -8.0838937    750.11228  0.013030927  0.010957478         3926 
 4798000    0.4862854   -8.0569385    747.65388  0.012985513  0.010953568         3892 
 4799000   0.48078974   -8.0622265    749.70368  0.013018401  0.010949663         3905 
 4800000   0.47939869   -8.0709077    750.08213  0.013022259  0.010945758         3902 
 4801000    0.4804309   -8.0677912     748.6926  0.012995428  0.010941857         3924 
 4802000   0.49254239   -8.0600367    747.98356  0.012980417  0.010937958         3913 
 4803000   0.48700149   -8.0666684    748.94639   0.01299442  0.010934063         3901 
 4804000    0.4812111   -8.0883899    749.50717  0.013001443  0.010930163         3894 
 4805000   0.48548586   -8.0733219    749.92523  0.013005987  0.010926268         3908 
 4806000   0.47725635   -8.0788159    749.11647  0.012989258  0.010922374         3903 
 4807000   0.47899758   -8.0822976    749.48069   0.01299287  0.010918482         3899 
 4808000   0.49177854   -8.0632772    749.52764  0.012990981  0.010914592         3902 
 4809000    0.4837293   -8.0716335    748.51087   0.01297066  0.010910706         3893 
 4810000   0.48225948   -8.0728502    748.74826  0.012972077  0.010906821         3901 
 4811000   0.47475896    -8.075999    748.86222  0.012971354  0.010902937         3884 
 4812000   0.48440616   -8.0870403    749.26584  0.012975648  0.010899057         3895 
 4813000      0.48853   -8.0649985    748.70311  0.012963209  0.010895178         3910 
 4814000   0.48918766   -8.0711071    748.72262  0.012960854  0.010891298         3874 
 4815000   0.48118668   -8.0734369    749.40323  0.012969942  0.010887421         3908 
 4816000   0.47951674   -8.0847019    748.44073  0.012950594  0.010883547         3898 
 4817000   0.48285507   -8.0795591    749.24495  0.012961818  0.010879675         3895 
 4818000    0.4853479   -8.0785391    749.55193  0.012964438  0.010875806         3921 
 4819000   0.48168145   -8.0745678    747.36187  0.012923875  0.010871938         3898 
 4820000   0.47623274   -8.0701922    747.46921   0.01292305  0.010868069         3899 
 4821000   0.48578953   -8.0922624    748.55745   0.01293918  0.010864203         3924 
 4822000   0.47952745   -8.0795051    747.76988  0.012922886  0.010860338         3913 
 4823000   0.47340758   -8.0663288    748.76499    0.0129374  0.010856474         3916 
 4824000   0.47987795    -8.085601    748.97218  0.012938298  0.010852613         3897 
 4825000   0.47720484   -8.0801213    748.77928  0.012932285  0.010848755         3906 
 4826000   0.47534556   -8.0778982    750.29434  0.012955766  0.010844899         3910 
 4827000   0.47806412     -8.07572    749.30298  0.012935968  0.010841044         3905 
 4828000   0.47664443   -8.0720358    747.99814  0.012910766  0.010837186         3930 
 4829000   0.47913676   -8.0709669    748.18725  0.012911356  0.010833335         3903 
 4830000   0.48898249   -8.0715847    749.52345  0.012931736  0.010829486         3887 
 4831000   0.48533054   -8.0760819    749.45106  0.012927811   0.01082564         3898 
 4832000   0.47561798   -8.0633276    748.49937  0.012908723  0.010821794         3917 
 4833000   0.48095364   -8.0934224    748.29798  0.012902579  0.010817949         3915 
 4834000   0.48147538   -8.0799863    748.10999  0.012896669  0.010814105         3899 
 4835000   0.48071906   -8.0686452    748.56948  0.012901921  0.010810265         3900 
 4836000   0.48174963   -8.0969461    748.19787   0.01289285  0.010806426         3930 
 4837000   0.47510549   -8.0779141    748.76774  0.012900002  0.010802587         3923 
 4838000   0.47466761   -8.0686693    748.88994  0.012899441  0.010798754         3907 
 4839000   0.46993793   -8.0732743    749.46598  0.012906695   0.01079492         3905 
 4840000   0.47866048   -8.0742022    749.36482  0.012902287  0.010791092         3909 
 4841000    0.4806693   -8.0777781    749.09235  0.012894931   0.01078726         3917 
 4842000   0.46233716   -8.0667496     748.6851  0.012885259  0.010783431         3905 
 4843000   0.48528073    -8.068688     749.2759  0.012892764  0.010779607         3908 
 4844000   0.46626075   -8.0982282    748.64924  0.012879322  0.010775783         3888 
 4845000   0.46909729   -8.0737123    749.16362  0.012885511  0.010771959         3901 
 4846000   0.47563448   -8.0905723    749.29176  0.012885056  0.010768137         3903 
 4847000   0.48185105    -8.086633     748.6211  0.012870867  0.010764318         3887 
 4848000   0.47013539   -8.0746745    749.27972  0.012879533  0.010760501         3880 
 4849000   0.47706641   -8.0724077    748.39505  0.012861673  0.010756683         3898 
 4850000    0.4781198   -8.0948349    748.08285  0.012853657  0.010752867         3932 
 4851000    0.4735076   -8.0880911    748.32741  0.012855209  0.010749054         3900 
 4852000   0.47382578   -8.0908158    748.65901  0.012858255  0.010745245         3922 
 4853000   0.47400911   -8.0915524    748.35461  0.012850378  0.010741435         3916 
 4854000   0.47118366   -8.0874398    749.43916   0.01286635  0.010737631         3912 
 4855000   0.47188413   -8.0712734    748.19956  0.012842423  0.010733824         3905 
 4856000   0.47665662   -8.0864308     749.0665  0.012854656  0.010730019         3909 
 4857000   0.47346176   -8.0705369    748.07605  0.012835016  0.010726215         3911 
 4858000   0.47832379   -8.0724759    748.43533  0.012838537  0.010722416         3903 
 4859000   0.46413024   -8.0820996    748.82014  0.012842494  0.010718618         3886 
 4860000   0.46955297   -8.0757303    747.88913  0.012823888  0.010714821         3923 
 4861000   0.47928672   -8.0761251    748.43358  0.012830583  0.010711026         3925 
 4862000   0.48378323   -8.0927158    748.59716  0.012830748  0.010707229         3899 
 4863000    0.4715704    -8.089275    748.06391  0.012818972   0.01070344         3915 
 4864000    0.4749557   -8.0801027    748.95546  0.012831611  0.010699653         3915 
 4865000   0.48198495   -8.0831237    747.70797  0.012807605  0.010695863         3916 
 4866000   0.46711005    -8.087027    748.39684   0.01281677  0.010692071         3907 
 4867000   0.48218323   -8.0709794    748.26948  0.012811956  0.010688287         3900 
 4868000   0.47257437   -8.0900645    748.03949  0.012805387  0.010684508         3918 
 4869000     0.481087   -8.0903839    748.92327  0.012817883   0.01068073         3891 
 4870000   0.47050831   -8.0773415    748.57273  0.012809253   0.01067695         3884 
 4871000   0.48015288   -8.0832381    748.12908  0.012799033  0.010673174         3909 
 4872000   0.46628662   -8.0814474    747.51939  0.012785978    0.0106694         3939 
 4873000   0.47065295   -8.0695225    748.95186   0.01280785  0.010665629         3914 
 4874000   0.46307293   -8.0976538    749.50634  0.012814703  0.010661857         3910 
 4875000   0.47791522   -8.1007819    748.88191    0.0128014  0.010658087         3914 
 4876000   0.46922116   -8.0712536    748.05963  0.012784722  0.010654318         3900 
 4877000   0.47791648   -8.0996569    747.47481  0.012772107   0.01065055         3920 
 4878000   0.46272102   -8.0882666    748.59568  0.012788637  0.010646785         3903 
 4879000   0.46958253   -8.0957918    747.55634  0.012768264  0.010643021         3916 
 4880000   0.46553884   -8.0755852    748.63464  0.012784061  0.010639257         3945 
 4881000   0.46436212   -8.0934187     748.0464  0.012771399  0.010635497         3883 
 4882000   0.46213624   -8.0905469    747.55771  0.012760442  0.010631737         3916 
 4883000   0.47318576    -8.074739    747.08476  0.012749757   0.01062798         3905 
 4884000   0.46295814   -8.0916933    748.92298  0.012778511  0.010624225         3900 
 4885000   0.47164637   -8.0861737    747.19497  0.012746417   0.01062047         3912 
 4886000   0.46302741    -8.070492    747.99794  0.012757503  0.010616717         3906 
 4887000   0.47199254   -8.0972723    748.23619  0.012758955  0.010612966         3895 
 4888000   0.46478672    -8.089795    747.30492  0.012740469  0.010609218         3904 
 4889000   0.46141167   -8.0998313    748.01186  0.012749912  0.010605471         3913 
 4890000   0.47475592    -8.089695    747.13966  0.012732441  0.010601727         3910 
 4891000   0.46769192   -8.0857114     747.9758  0.012744084  0.010597982         3911 
 4892000   0.46831101   -8.0851919    748.84439  0.012756275  0.010594242         3912 
 4893000   0.46586486   -8.0911167    747.54271  0.012731499  0.010590505         3918 
 4894000   0.46918339   -8.0949374    747.42316  0.012726862  0.010586766         3918 
 4895000   0.46066355    -8.090167    749.04643  0.012751897   0.01058303         3913 
 4896000   0.46224141   -8.0922052    746.58307  0.012707364  0.010579294         3931 
 4897000   0.47090711   -8.1091547    748.74578  0.012741573  0.010575559         3919 
 4898000   0.46410071   -8.0874186    748.71459  0.012738441   0.01057183         3913 
 4899000   0.46117291   -8.0978398    748.36414  0.012729879  0.010568103         3904 
 4900000   0.46798861   -8.1079641    748.02084  0.012721443  0.010564374         3913 
 4901000   0.46522883   -8.0845488    747.05038  0.012702346   0.01056065         3898 
 4902000   0.47096574   -8.0924688      747.632  0.012709642  0.010556926         3919 
 4903000   0.45672957   -8.1004935    747.90612  0.012711709  0.010553206         3928 
 4904000   0.46418568   -8.0985366    747.36391  0.012699903  0.010549486         3910 
 4905000   0.47302348   -8.0990288    747.97404   0.01270768   0.01054577         3907 
 4906000   0.46231658   -8.1004039      747.316  0.012693912  0.010542052         3913 
 4907000   0.45828633   -8.0957824    747.96314  0.012702315   0.01053834         3907 
 4908000   0.46497673   -8.0876996    748.19756  0.012703708  0.010534626         3926 
 4909000   0.46653867   -8.0893692    747.77676  0.012693976  0.010530914         3895 
 4910000   0.46388175    -8.117561    746.99241  0.012678079  0.010527205         3913 
 4911000   0.47422018   -8.0889399    747.54192  0.012684822  0.010523497         3898 
 4912000   0.46248066   -8.0756309    748.64133  0.012700891  0.010519789         3925 
 4913000   0.46961642   -8.0913442    748.01114  0.012687617  0.010516085         3915 
 4914000   0.46559112   -8.0961705    748.23338  0.012688804  0.010512385         3913 
 4915000     0.470352   -8.0913199    748.48109  0.012690422  0.010508683         3902 
 4916000   0.46076847    -8.099606    748.77721   0.01269286  0.010504985         3912 
 4917000   0.47085534   -8.1013768     748.0653  0.012678213  0.010501285         3907 
 4918000   0.45601671   -8.0968981    747.49351  0.012665947  0.010497588         3934 
 4919000   0.45696004   -8.0982153    747.59328  0.012665062  0.010493891         3885 
 4920000   0.47092766   -8.0935076    746.81338  0.012649278  0.010490194         3890 
 4921000   0.44916855   -8.1011472    748.97373  0.012683292  0.010486504         3923 
 4922000     0.466974   -8.1012781    746.92037   0.01264595  0.010482815         3925 
 4923000   0.46618005   -8.0973105    748.73476  0.012674094  0.010479129         3922 
 4924000   0.47007623   -8.1014764     749.1242  0.012678111  0.010475441         3904 
 4925000   0.47077063   -8.0871099     747.9805  0.012656184  0.010471755         3883 
 4926000   0.45836204   -8.0951692    747.07543  0.012638304  0.010468074         3884 
 4927000   0.46322467   -8.1071382    748.35815  0.012657434  0.010464393         3913 
 4928000   0.45979152    -8.092683    748.03902  0.012649469  0.010460714         3908 
 4929000   0.47111193   -8.1121487    748.86893  0.012660934  0.010457036         3917 
 4930000   0.45956009   -8.1017881    747.07681  0.012628073  0.010453359         3905 
 4931000   0.46354659   -8.1048316    747.86985  0.012638915  0.010449684         3901 
 4932000   0.46433382   -8.1067509    747.84274  0.012635894   0.01044601         3887 
 4933000    0.4578822   -8.1047949    748.53628  0.012645048  0.010442338         3896 
 4934000   0.45576191   -8.0993051    746.77263  0.012612698  0.010438667         3902 
 4935000   0.45643881   -8.1006387    747.93566  0.012629781     0.010435         3928 
 4936000   0.46504126   -8.0808863    748.68997  0.012639958  0.010431334         3899 
 4937000   0.45347813   -8.0909833    747.87105  0.012623575  0.010427672         3915 
 4938000   0.46316666   -8.0950954    747.69998  0.012618131  0.010424009         3908 
 4939000   0.45895041   -8.1009588    748.35734  0.012626668  0.010420348         3900 
 4940000   0.46453301   -8.0955638    747.86112  0.012615741  0.010416687         3933 
 4941000   0.46592607   -8.1074776    746.96166  0.012598018  0.010413027         3903 
 4942000    0.4618371   -8.1154524    747.71284  0.012608135  0.010409371         3900 
 4943000   0.46318992   -8.1192738    747.64639  0.012604464  0.010405717         3924 
 4944000   0.46471494   -8.0993239     746.9102  0.012589506  0.010402062         3907 
 4945000   0.45481566   -8.1073411    746.95607  0.012587733  0.010398409         3916 
 4946000   0.45634473   -8.1071887    748.07586  0.012604055  0.010394758         3896 
 4947000   0.45885621   -8.1048794    747.79903  0.012596844   0.01039111         3904 
 4948000   0.46692293   -8.1175708    747.43086  0.012588097  0.010387463         3904 
 4949000   0.45854136   -8.0981285     747.8705  0.012592956  0.010383819         3889 
 4950000   0.46625383   -8.1034544    747.42465  0.012582907  0.010380175         3908 
 4951000   0.46059723   -8.1016464    747.43766  0.012580584  0.010376535         3905 
 4952000   0.45620175   -8.1113886    747.27676  0.012575336  0.010372895         3914 
 4953000   0.45995124   -8.1063401    746.79066  0.012564618  0.010369256         3926 
 4954000   0.45970177   -8.1004514    747.36684  0.012571774  0.010365619         3928 
 4955000   0.45238748    -8.084398    747.36487  0.012569204  0.010361981         3921 
 4956000   0.45567144   -8.1004891    747.00815   0.01256067  0.010358345         3921 
 4957000   0.45853487   -8.0998663    747.30124  0.012563063  0.010354713         3909 
 4958000   0.46330704   -8.1082904    746.54649  0.012547843  0.010351083         3921 
 4959000   0.46688605   -8.1089697    747.22222  0.012556668  0.010347454         3923 
 4960000   0.44792711   -8.1056664    747.96272  0.012566578  0.010343825         3926 
 4961000   0.46259263   -8.1161675    747.09523  0.012549473  0.010340201         3922 
 4962000   0.46405061   -8.0967418    746.51721  0.012537236  0.010336577         3920 
 4963000    0.4566461   -8.1038283    747.25048  0.012547023  0.010332952         3926 
 4964000   0.44781439   -8.1003958    746.32366  0.012528936  0.010329331         3902 
 4965000   0.45734637   -8.1144348    747.88654  0.012552644  0.010325715         3914 
 4966000   0.46012686   -8.0787131    747.09533  0.012536839    0.0103221         3917 
 4967000   0.45078927   -8.1208049    747.04414  0.012533456  0.010318486         3904 
 4968000   0.47236205   -8.1072609    749.03937  0.012564402  0.010314873         3905 
 4969000    0.4490094   -8.1083892    746.83541  0.012524911  0.010311262         3917 
 4970000   0.46351147   -8.1153229    747.27236  0.012529718  0.010307652         3900 
 4971000   0.45836032   -8.1181192    745.83903  0.012503169  0.010304043         3897 
 4972000   0.45460005   -8.1073683    747.34596  0.012525911  0.010300436         3910 
 4973000    0.4513298   -8.0862624    747.72648  0.012529769   0.01029683         3881 
 4974000   0.45443552   -8.0908008    747.76737  0.012527935  0.010293228         3904 
 4975000   0.45740595   -8.1112268     747.6148  0.012522861  0.010289624         3902 
 4976000   0.45769321   -8.0991988    746.90527  0.012508462  0.010286025         3895 
 4977000   0.46265138   -8.1282102    747.25977  0.012511884  0.010282426         3903 
 4978000   0.44957355   -8.1090888    746.67338  0.012499554   0.01027883         3888 
 4979000   0.46395371   -8.0954968    748.07067   0.01252043  0.010275237         3895 
 4980000   0.44623754   -8.1237027    748.11326  0.012518629  0.010271641         3900 
 4981000   0.45497142   -8.1188607    746.65961  0.012491796   0.01026805         3908 
 4982000   0.44866586   -8.0968634    747.63926  0.012505675  0.010264457         3907 
 4983000   0.44256957   -8.1083952    747.59153  0.012502367  0.010260869         3938 
 4984000    0.4541841   -8.1108309    746.77233  0.012486161  0.010257285         3911 
 4985000   0.45564595   -8.1020933    746.65739  0.012481735    0.0102537         3914 
 4986000   0.45247273   -8.1160306    746.86494  0.012482701  0.010250115         3919 
 4987000   0.45130217   -8.1165523    747.19558  0.012485723  0.010246535         3907 
 4988000   0.44973954   -8.1116451    747.26009  0.012484297  0.010242953         3901 
 4989000   0.44741112   -8.1106424     746.5525  0.012469976   0.01023937         3914 
 4990000   0.43951877   -8.1035633    746.60604  0.012468371  0.010235794         3904 
 4991000   0.44817117   -8.1329111    747.54011  0.012481469  0.010232218         3907 
 4992000   0.46123392   -8.1017849    747.64854  0.012480778  0.010228644         3914 
 4993000   0.44759786   -8.1083461    748.10379  0.012485877  0.010225072         3926 
 4994000   0.45572227   -8.1089377    747.75256  0.012477516  0.010221502         3892 
 4995000   0.45215008   -8.1095472    747.20221  0.012465836  0.010217933         3912 
 4996000   0.44982857   -8.1120867    746.64414  0.012454032  0.010214365         3910 
 4997000   0.45581889   -8.1278075    746.54978  0.012449966  0.010210797         3903 
 4998000   0.45336971   -8.1102694    747.61789  0.012465284  0.010207234         3903 
 4999000   0.45392651   -8.1062851    746.41869    0.0124428  0.010203672         3907 
 5000000    0.4608329   -8.1206224    746.93555  0.012448926   0.01020011         3926 
 5001000   0.44890122   -8.1211968    745.76894  0.012426997   0.01019655         3904 
 5002000   0.44820952   -8.1059252    746.50768   0.01243682  0.010192989         3923 
 5003000   0.45521999   -8.1214299    746.24118  0.012429895  0.010189433         3899 
 5004000   0.45660587   -8.1262398    746.79229  0.012436589  0.010185878         3923 
 5005000   0.43613902   -8.1131048    747.03923  0.012438216  0.010182327         3917 
 5006000   0.44502288   -8.1199864    746.03147  0.012418955  0.010178775         3894 
 5007000   0.45529192   -8.1022199     746.0243  0.012416355  0.010175224         3912 
 5008000   0.45563134   -8.1221051    747.92222  0.012445458  0.010171674         3912 
 5009000   0.45591231     -8.11688    747.76489  0.012440356  0.010168128         3914 
 5010000   0.44338461   -8.1330143    746.31452  0.012413748  0.010164583         3921 
 5011000   0.44876535   -8.1152192    746.12317  0.012408088  0.010161038         3910 
 5012000   0.44589106   -8.1283545    745.86087  0.012401252  0.010157495         3924 
Loop time of 13263.8 on 48 procs for 5000000 steps with 4000 atoms

Performance: 65139.557 tau/day, 376.965 timesteps/s
99.4% CPU use with 48 MPI tasks x no OpenMP threads

MPI task timing breakdown:
Section |  min time  |  avg time  |  max time  |%varavg| %total
---------------------------------------------------------------
Pair    | 996.68     | 1087.7     | 1197.4     | 149.2 |  8.20
Neigh   | 92.974     | 96.635     | 101.01     |  20.1 |  0.73
Comm    | 821.26     | 933.33     | 1019.9     | 157.4 |  7.04
Output  | 35.773     | 35.779     | 35.878     |   0.2 |  0.27
Modify  | 10951      | 10987      | 11033      |  15.9 | 82.83
Other   |            | 123.8      |            |       |  0.93

Nlocal:        83.3333 ave          88 max          79 min
Histogram: 4 1 5 4 12 10 3 4 4 1
Nghost:        2461.50 ave        2484 max        2447 min
Histogram: 5 8 7 7 9 3 1 3 3 2
Neighs:        17187.6 ave       19450 max       14433 min
Histogram: 1 3 7 2 7 5 10 5 4 4
FullNghs:      34374.9 ave       36554 max       31983 min
Histogram: 2 2 3 6 7 12 6 4 3 3

Total # of neighbors = 1649997
Ave neighs/atom = 412.49925
Neighbor list builds = 266925
Dangerous builds = 0

#clear
#
#next RN
#
#jump SELF
Total wall time: 3:41:07
