
units lj                  # Use reduced LJ style units
atom_style atomic         # Uncharged point particles
atom_modify map hash      # Needed for indexing of clusters etc
                          # Used to be able to find where atoms are in relation to each other.

lattice fcc 1.0 spacing 1 1 1
Lattice spacing in x,y,z = 1.5874011 1.5874011 1.5874011
region box block 0 10 0 10 0 10 units lattice
create_box 2 box
Created orthogonal box = (0.0000000 0.0000000 0.0000000) to (15.874011 15.874011 15.874011)
  3 by 4 by 4 MPI processor grid
create_atoms 1 box
Created 4000 atoms
  using lattice units in orthogonal box = (0.0000000 0.0000000 0.0000000) to (15.874011 15.874011 15.874011)
  create_atoms CPU = 0.002 seconds
set type 1 type/fraction 2 0.12 78393
Setting atom values ...
  508 settings made for type/fraction
mass 1 1.0
mass 2 1.0
pair_style lj/cut  3.5
pair_modify tail  yes
pair_coeff 1  1  1.0  1.0   # Intearaction between 1 and 1 set with epsilon = 1 and sigma = 1
pair_coeff 1  2  1.5  0.8
pair_coeff 2  2  0.5  0.88

write_data data.0
System init for write_data ...
Neighbor list info ...
  update every 1 steps, delay 10 steps, check yes
  max neighbors/atom: 2000, page size: 100000
  master list distance cutoff = 3.8
  ghost atom cutoff = 3.8
  binsize = 1.9, bins = 9 9 9
  1 neighbor lists, perpetual/occasional/extra = 1 0 0
  (1) pair lj/cut, perpetual
      attributes: half, newton on
      pair build: half/bin/atomonly/newton
      stencil: half/bin/3d
      bin: standard
WARNING: Not all mixed pair coeffs generated from mixing. Use write_data with 'pair ij' option to store all pair coeffs. (../write_data.cpp:312)


#############################
#   M E L T   S Y S T E M   #
#############################

velocity all create 2.4 8172548 mom yes dist gaussian # Assign velocities
                                                    # Temperature 2.4, random number seed, zero linear momentum
                                                                                # Gaussian distribution

timestep 0.002   # simulation timestep
thermo 1000       # output thermodynamic data every 1000 steps bf 100

# Define a fix  in this case with index 1 applied to all
# particles in the simulation. This fix is for simulations
# in the anisotropic NPT ensemble. Note that we use the MTK
# correction.
fix 1 all npt temp 2.4 2.4 0.1 iso 5.68 5.68 0.5 mtk yes tchain 5 pchain 5 # Use NPT ensemble
                                                                         # Set temperature and pressure and damping
                                                                         # Numbers of thermostats in chain and in barostat
run 10000          # run for 10000 steps
Per MPI rank memory allocation (min/avg/max) = 3.642 | 3.644 | 3.648 Mbytes
Step Temp E_pair E_mol TotEng Press Volume 
       0          2.4   -7.5560252            0   -3.9569252   -3.1663949         4000 
    1000    2.4471906   -4.6821479            0   -1.0122797     5.715207     4742.276 
    2000    2.3878018   -4.6820544            0   -1.1012472    5.3985342    4779.0122 
    3000     2.402898    -4.665172            0   -1.0617261    5.9383375    4732.9797 
    4000    2.3990555   -4.6632508            0   -1.0655672    5.5097028    4786.1843 
    5000    2.4227543   -4.7000908            0   -1.0668679    5.6084985    4750.8201 
    6000    2.4018187   -4.6786846            0   -1.0768573    5.9316819    4722.6818 
    7000    2.3551525    -4.679224            0   -1.1473784    5.3776709    4782.2126 
    8000    2.3945611   -4.7127352            0   -1.1217915    5.7135639    4721.8287 
    9000    2.3606158   -4.6292574            0   -1.0892188    5.7714858    4768.1221 
   10000    2.4282371   -4.6762877            0   -1.0348426    6.0843479     4711.461 
Loop time of 2.18783 on 48 procs for 10000 steps with 4000 atoms

Performance: 789824.680 tau/day, 4570.745 timesteps/s
99.6% CPU use with 48 MPI tasks x no OpenMP threads

MPI task timing breakdown:
Section |  min time  |  avg time  |  max time  |%varavg| %total
---------------------------------------------------------------
Pair    | 0.9091     | 0.97199    | 1.0369     |   3.1 | 44.43
Neigh   | 0.19011    | 0.19831    | 0.21225    |   0.9 |  9.06
Comm    | 0.6879     | 0.76965    | 0.84141    |   4.2 | 35.18
Output  | 0.0002422  | 0.00024741 | 0.00030595 |   0.0 |  0.01
Modify  | 0.21126    | 0.23317    | 0.26406    |   2.4 | 10.66
Other   |            | 0.01446    |            |       |  0.66

Nlocal:        83.3333 ave          95 max          74 min
Histogram: 4 2 5 6 13 10 4 2 1 1
Nghost:        1473.92 ave        1501 max        1452 min
Histogram: 3 3 9 5 11 4 6 4 2 1
Neighs:        8092.46 ave        9411 max        7210 min
Histogram: 7 4 3 9 12 3 7 0 1 2

Total # of neighbors = 388438
Ave neighs/atom = 97.109500
Neighbor list builds = 903
Dangerous builds = 186

# Equilibrate just above the melting temperature to avoid step fn in T

fix 1 all npt temp 1.25 1.25 0.1 iso 5.68 5.68 0.5 mtk yes tchain 5 pchain 5
run 2000
Per MPI rank memory allocation (min/avg/max) = 3.642 | 3.644 | 3.648 Mbytes
Step Temp E_pair E_mol TotEng Press Volume 
   10000    2.4282371   -4.6762877            0   -1.0348426    6.0843479     4711.461 
   11000    1.2592197   -6.2607564            0   -4.3723991    5.9688647    3900.5686 
   12000    1.2387274   -6.3473196            0    -4.489693    5.2768266    3913.8253 
Loop time of 0.51225 on 48 procs for 2000 steps with 4000 atoms

Performance: 674670.442 tau/day, 3904.343 timesteps/s
99.4% CPU use with 48 MPI tasks x no OpenMP threads

MPI task timing breakdown:
Section |  min time  |  avg time  |  max time  |%varavg| %total
---------------------------------------------------------------
Pair    | 0.21194    | 0.22756    | 0.23968    |   1.6 | 44.42
Neigh   | 0.031637   | 0.033209   | 0.034806   |   0.4 |  6.48
Comm    | 0.15211    | 0.17879    | 0.20252    |   2.8 | 34.90
Output  | 5.1682e-05 | 5.3276e-05 | 7.1589e-05 |   0.0 |  0.01
Modify  | 0.054401   | 0.06816    | 0.083284   |   3.5 | 13.31
Other   |            | 0.004478   |            |       |  0.87

Nlocal:        83.3333 ave          93 max          73 min
Histogram: 1 0 4 5 9 10 12 5 1 1
Nghost:        1674.48 ave        1698 max        1648 min
Histogram: 2 1 5 6 6 7 8 5 4 4
Neighs:        9759.65 ave       11155 max        8460 min
Histogram: 1 3 4 6 10 11 10 1 1 1

Total # of neighbors = 468463
Ave neighs/atom = 117.11575
Neighbor list builds = 142
Dangerous builds = 8

#############################
# L I N E A R  Q U E N C H  #
#############################

# Define solid atoms. This closely follows ten Wolde  Ruiz-Montero and Frenkel  Faraday Discuss  1996  104  93-110
# Compute components of the per-atom q6 vector
compute q6 all orientorder/atom degrees 1 6 components 6 nnn NULL cutoff 1.3 # compute the Q6 parameter.
                                                                             # Use all neighbours within 1.3 unit cell.

# get number of connections
compute coord_number all coord/atom orientorder q6 0.5

# An atom is solid if it has 8 or more connections (of a possible 14)
variable is_solid atom c_coord_number>=8
group solid dynamic all var is_solid    # Must be dynamic to update
dynamic group solid defined

# do clustering
compute cluster solid cluster/atom 1.3 # Create a cluster where all atoms within are solid and max 1.3 units from another member

# define chunks one chunk per cluster
compute clus_chunks solid chunk/atom c_cluster nchunk every compress yes  # Says which atoms are in which chunk

# count the size of each chunk
compute size_chunks solid property/chunk clus_chunks count


# Find the maximum entry in the vector of chunk sizes
variable max_n equal max(c_size_chunks)


# Thermo style which includes this variable
# thermo_style custom step temp pe vol v_max_n

thermo ${N}  # Print the thermo information every 100 steps
thermo 1000  

# Reset the npt fix at a lower temperature (below freezing)
fix 1  all npt temp  ${temp} ${temp}  0.1  iso  5.68  5.68  0.5  mtk yes tchain  5  pchain  5
fix 1  all npt temp  0.45 ${temp}  0.1  iso  5.68  5.68  0.5  mtk yes tchain  5  pchain  5
fix 1  all npt temp  0.45 0.45  0.1  iso  5.68  5.68  0.5  mtk yes tchain  5  pchain  5

dump dmp2 all dcd ${N} traj.dcd
dump dmp2 all dcd 1000 traj.dcd


compute msd all msd com yes
variable twopoint equal c_msd[4]/6/(step*dt+1.0e-6)
fix 9 all vector 10 c_msd[4]
variable fit equal slope(f_9)/6/(10*dt)
thermo_style custom step temp pe c_msd[4] v_twopoint v_fit v_max_n

fix 1 all npt temp 1.25 ${temp} 0.1 iso 5.68 5.68 0.5 mtk yes tchain 5 pchain 5
fix 1 all npt temp 1.25 0.45 0.1 iso 5.68 5.68 0.5 mtk yes tchain 5 pchain 5
run 5000000 # 5000000  # Run for this many steps
Neighbor list info ...
  update every 1 steps, delay 10 steps, check yes
  max neighbors/atom: 2000, page size: 100000
  master list distance cutoff = 3.8
  ghost atom cutoff = 3.8
  binsize = 1.9, bins = 9 9 9
  4 neighbor lists, perpetual/occasional/extra = 1 3 0
  (1) pair lj/cut, perpetual
      attributes: half, newton on
      pair build: half/bin/atomonly/newton
      stencil: half/bin/3d
      bin: standard
  (2) compute orientorder/atom, occasional
      attributes: full, newton on
      pair build: full/bin/atomonly
      stencil: full/bin/3d
      bin: standard
  (3) compute coord/atom, occasional
      attributes: full, newton on
      pair build: full/bin/atomonly
      stencil: full/bin/3d
      bin: standard
  (4) compute cluster/atom, occasional
      attributes: full, newton on
      pair build: full/bin/atomonly
      stencil: full/bin/3d
      bin: standard
Per MPI rank memory allocation (min/avg/max) = 9.756 | 9.761 | 9.766 Mbytes
Step Temp PotEng c_msd[4] v_twopoint v_fit v_max_n 
   12000    1.2387274   -6.3473196 1.8938578e-30 1.315179e-32 8.3333333e+20            3 
   13000     1.268231   -6.2826466   0.56066546 0.0035940092  0.046441541            3 
   14000     1.237791   -6.3279689    1.1087165  0.006599503  0.044895281            2 
   15000    1.2422835   -6.3039606    1.6448533 0.0091380738  0.045392133            2 
   16000    1.2585963   -6.2999852    2.1867969  0.011389567  0.045141292            1 
   17000     1.261022   -6.3209271    2.7289704  0.013377306  0.045213198            2 
   18000    1.2548541   -6.3006588    3.2532848  0.015061503  0.045128331            2 
   19000    1.2272429   -6.3199365    3.7924355  0.016633488  0.044975877            4 
   20000    1.2258232   -6.3121568    4.3656952  0.018190396  0.044997989            4 
   21000    1.2400177   -6.3051937     4.933231  0.019576313   0.04517838            4 
   22000    1.2490704   -6.3058344    5.4419148  0.020613313  0.045268228            3 
   23000    1.2436328   -6.2773286    5.9965545  0.021726646  0.045292727            4 
   24000     1.270513   -6.2939243    6.5474759  0.022734291  0.045289996            3 
   25000    1.2422532   -6.2745413    7.0819484  0.023606494  0.045314333            1 
   26000    1.2421363   -6.2890195    7.6845806  0.024630066  0.045447474            5 
   27000    1.2625244   -6.2855982    8.3249409  0.025694262  0.045653012            2 
   28000    1.2469022    -6.264424    8.8225481  0.026257583  0.045851756            2 
   29000    1.2524924   -6.2894983    9.4156009  0.027056324  0.045995593            2 
   30000    1.2681492   -6.2821101    10.009495  0.027804153  0.046100246            2 
   31000    1.2349135   -6.2723913    10.455759  0.028106879  0.046135505            4 
   32000    1.2472992     -6.28364    10.892803  0.028366674  0.046033915            3 
   33000    1.2246704   -6.3200677    11.282185  0.028490365  0.045807277            1 
   34000     1.255076   -6.2670329    11.780594  0.028874004  0.045519004            2 
   35000     1.271816   -6.2727656    12.367035  0.029445322  0.045308975            6 
   36000    1.2514476   -6.3017816     12.99124  0.030072314  0.045204738            3 
   37000    1.2286297   -6.2543859    13.476451  0.030352368   0.04515745            4 
   38000    1.2490636   -6.2846627    13.993426  0.030687337  0.045056953            4 
   39000    1.2494117   -6.2577442    14.394669   0.03075784  0.044907767            3 
   40000    1.2114556   -6.2897797    14.844475   0.03092599  0.044730731            3 
   41000     1.237386   -6.2962612    15.422609  0.031346765  0.044592797            2 
   42000     1.249224   -6.2803648    16.021903  0.031789489  0.044500271            2 
   43000     1.265261   -6.2654507    16.504718  0.031985887  0.044407681            2 
   44000    1.2559362   -6.2784393    17.015678  0.032226663  0.044324761            2 
   45000     1.258614   -6.2874566    17.580498  0.032556478  0.044252248            1 
   46000    1.2498938   -6.3149959    18.053683  0.032705948  0.044242449            1 
   47000    1.2447417   -6.2659987    18.860598  0.033440775  0.044252883            2 
   48000    1.2653897   -6.2933374    19.354204  0.033601048  0.044267089            3 
   49000    1.2699487   -6.3212352    19.894057   0.03383343  0.044294628            3 
   50000    1.2361759   -6.2641458    20.469878  0.034116463   0.04432215            2 
   51000    1.2099861   -6.2981774    20.824737  0.034027348  0.044336268            2 
   52000    1.2664297   -6.2868924    21.327474  0.034178644  0.044323343            2 
   53000    1.2443493   -6.2747725    21.911791  0.034452501  0.044310125            1 
   54000    1.2375245   -6.3062587     22.39783  0.034564552  0.044311774            2 
   55000    1.2559464   -6.2816783     23.00878  0.034861788  0.044314509            3 
   56000    1.2433913   -6.3365697    23.454455  0.034902463  0.044317302            2 
   57000    1.2443631    -6.277595    24.229752  0.035423613  0.044312363            3 
   58000    1.2489496   -6.3204914    24.819921  0.035660806  0.044347029            7 
   59000    1.2360145   -6.3005444    25.397297  0.035871888  0.044395083            3 
   60000    1.2448693   -6.3072731    25.918637  0.035998107  0.044450543            3 
   61000    1.2343957   -6.2833284    26.596492  0.036334005  0.044491211            1 
   62000    1.2405127   -6.2709937    26.978993  0.036262086  0.044531402            3 
   63000    1.2374207   -6.3483458    27.532566  0.036418738  0.044571505            5 
   64000     1.257546   -6.2614026    27.945548  0.036387431  0.044584166            2 
   65000    1.2381944   -6.3449853    28.454679  0.036480357  0.044591466            1 
   66000    1.2354138   -6.3100545    28.949087  0.036551878  0.044602491            6 
   67000    1.2581005   -6.2774118    29.258601  0.036391295  0.044573411            2 
   68000    1.2367129   -6.2614592    29.802416  0.036522569  0.044543821            3 
   69000    1.2068824    -6.332738     30.43795  0.036760808  0.044519996            4 
   70000     1.250069    -6.278412    31.203459  0.037146975  0.044517625            1 
   71000    1.2043774   -6.3118703    31.819767  0.037347145  0.044532335            5 
   72000    1.2648767   -6.3314694    32.527678  0.037647775  0.044575116            4 
   73000    1.2511301   -6.3129853    32.954678  0.037619495  0.044618877            5 
   74000    1.2594045   -6.2772588    33.518233  0.037745758  0.044646234            1 
   75000    1.2388565   -6.3294657     33.96915  0.037743499  0.044668646            4 
   76000    1.2153943   -6.3153284    34.624771  0.037965758   0.04469059            1 
   77000    1.2232521   -6.3256817    35.120983  0.038009722  0.044722431            2 
   78000    1.2531596   -6.3103904    35.697769  0.038138642  0.044745101            3 
   79000     1.230196   -6.3097424    36.098075  0.038078138  0.044753545            3 
   80000    1.2344688   -6.2765886    36.343061  0.037857355  0.044741248            5 
   81000    1.2413369   -6.2985198    36.858597  0.037920367  0.044719317            2 
   82000     1.237026   -6.3120702     37.20634   0.03781132  0.044690153            2 
   83000    1.1916178   -6.2920567    37.878528   0.03803065  0.044666173            2 
   84000    1.2113331   -6.2779232    38.537177  0.038231326   0.04464186            2 
   85000     1.238811   -6.3096734     38.89527  0.038132617  0.044621234            3 
   86000    1.2159656   -6.2661393    39.358955  0.038138522  0.044602597            3 
   87000    1.2392314   -6.2883638    39.740093  0.038065222  0.044575696            3 
   88000    1.2281837   -6.3340561     40.22715  0.038093891  0.044534815            2 
   89000    1.2528513   -6.2896059    40.790599  0.038193444  0.044504215            3 
   90000    1.2650097   -6.2970112    41.335576  0.038273681  0.044475717            1 
   91000    1.2191924    -6.333225    41.634304  0.038126652  0.044440751            3 
   92000    1.2308299   -6.2942571    42.137779  0.038168277   0.04440093            1 
   93000    1.2368117   -6.2892215    42.730296  0.038288795  0.044348637            3 
   94000    1.2509731   -6.3126851    42.992597  0.038114004  0.044298192            3 
   95000    1.2449788   -6.3139331    43.353166  0.038029093  0.044241496            3 
   96000    1.2469075   -6.3101286    43.958484  0.038158406  0.044187424            2 
   97000    1.2382248   -6.3078265    44.628558  0.038340686   0.04413771            4 
   98000    1.2608123   -6.2762566    45.190033  0.038426899  0.044103378            3 
   99000    1.2393001   -6.2915203    45.729602  0.038492931  0.044074217            1 
  100000    1.2369077    -6.298732    46.240195  0.038533495  0.044043105            2 
  101000    1.2194183   -6.2968671     46.99863  0.038777748  0.044015365            2 
  102000    1.2325376   -6.2923402    47.335242  0.038672583  0.043991253            2 
  103000    1.2262095   -6.3121675    47.806088  0.038678064  0.043966771            3 
  104000    1.2348663   -6.2820574    48.322901  0.038720273  0.043935962            2 
  105000    1.2276189    -6.336508    48.998477   0.03888768  0.043906298            2 
  106000    1.2247309   -6.2880665    49.358612   0.03880394  0.043880196            1 
  107000    1.2344486   -6.2926532    50.001413  0.038941911  0.043854273            1 
  108000    1.2331562   -6.2983062    50.524369  0.038984852  0.043836376            3 
  109000    1.2288283   -6.2829698    51.337789  0.039249074  0.043825502            1 
  110000    1.2378194   -6.2538733     51.58521  0.039079704  0.043814512            2 
  111000      1.25144   -6.3587522    52.107191  0.039119512   0.04380075            3 
  112000    1.2155984   -6.3231753    52.635765  0.039163516  0.043787451            2 
  113000     1.265895   -6.3613131    52.955132  0.039052457  0.043771594            3 
  114000    1.2460868   -6.3066416    53.797474  0.039325638  0.043761403            2 
  115000     1.260732   -6.3555308    54.391763  0.039414321  0.043754503            3 
  116000    1.2452688   -6.3468707    54.855221  0.039407486  0.043745072            1 
  117000     1.235187   -6.3052095    55.331076  0.039409598  0.043737114            1 
  118000    1.2337755   -6.3259485    55.758336  0.039377356  0.043728579            1 
  119000    1.2356186   -6.2431112    56.552221  0.039602396  0.043723392            2 
  120000    1.2248602   -6.3658794    56.759915  0.039416607  0.043719454            2 
  121000    1.2110765   -6.3362632     57.56713  0.039646784  0.043722812            2 
  122000    1.2657528   -6.2933939     58.31981  0.039835936  0.043728694            3 
  123000    1.2202248    -6.292164     58.72996  0.039789946  0.043735893            1 
  124000    1.2275788   -6.2962009    59.289236  0.039844916  0.043738505            2 
  125000    1.2531742   -6.3174032    59.609195  0.039739463  0.043740494            2 
  126000    1.2273101   -6.2838796    60.243109  0.039843326  0.043735112            2 
  127000    1.2424967   -6.3641207    60.624752  0.039780021  0.043728993            2 
  128000    1.2441969   -6.3144792    61.251266  0.039877126  0.043725574            3 
  129000    1.2310055   -6.3040426    61.757095  0.039894764    0.0437224            4 
  130000    1.2226537   -6.3061794    62.226317  0.039888665  0.043724288            1 
  131000    1.2092908   -6.3267958    62.918295  0.040024361  0.043730199            2 
  132000     1.220723   -6.3222761    63.499906  0.040088325  0.043735529            4 
  133000    1.2372998   -6.3196931    64.093974  0.040159131  0.043743164            5 
  134000    1.2016428   -6.3206325    64.397805  0.040048386  0.043744071            2 
  135000    1.1953995   -6.3300436    64.787209  0.039992104  0.043741141            2 
  136000    1.2162823   -6.3239085    65.162988  0.039928301    0.0437354            2 
  137000    1.2186337   -6.3060209    65.771965  0.040007278   0.04372671            1 
  138000    1.2503665   -6.3073387    66.394973  0.040093582  0.043721311            3 
  139000    1.2333145   -6.3432892    67.167244  0.040268132  0.043723953            2 
  140000    1.2276437   -6.3474147    67.679229  0.040285255  0.043731092            2 
  141000    1.2289885   -6.3155269    68.136078  0.040269549  0.043736904            4 
  142000    1.1930262   -6.3350013     68.98506   0.04048419  0.043747108            1 
  143000    1.2172731   -6.2690409    69.590002  0.040553614  0.043758214            2 
  144000    1.2296403   -6.3321895    70.298773   0.04068216  0.043770131            2 
  145000    1.2556338   -6.3079882    70.589307  0.040568567  0.043782918            2 
  146000    1.2015345   -6.3295108    71.213281   0.04064685  0.043792906            3 
  147000    1.2211489   -6.3276729    71.561525  0.040567758   0.04380124            3 
  148000    1.2139898    -6.284205    72.597191  0.040876796  0.043814387            6 
  149000    1.2235089   -6.2821674    72.744776  0.040684997  0.043827934            1 
  150000    1.2407317   -6.3288167    73.462105  0.040812281  0.043839502            2 
  151000    1.2347309   -6.2965462    73.661981  0.040652307  0.043848778            2 
  152000    1.2186591   -6.3272959    74.235921  0.040699518  0.043856548            2 
  153000     1.214356   -6.3597192    74.549437  0.040604268   0.04386333            2 
  154000    1.1974804   -6.3533543    75.248905  0.040719104  0.043870024            2 
  155000    1.2267518    -6.277299     76.10508   0.04091671  0.043877684            2 
  156000    1.2601101   -6.2822946    76.594624  0.040915931  0.043884457            7 
  157000    1.2101513   -6.3286927    76.919919  0.040827983  0.043893443            5 
  158000    1.2116898   -6.3525654    77.538412  0.040895787  0.043900011            4 
  159000    1.2475531   -6.2828914    78.037293  0.040900049  0.043906538            7 
  160000    1.2349573   -6.3465717    78.307864  0.040785346  0.043912465           11 
  161000    1.2221053   -6.3202177    79.026131  0.040903794  0.043918795            1 
  162000    1.2016421   -6.3164277    79.114362  0.040696688  0.043922582            4 
  163000    1.2256864   -6.3133356    79.823104  0.040809358  0.043923571            2 
  164000    1.2405573   -6.3232633    80.431414  0.040869621   0.04392661            4 
  165000    1.2451471   -6.3327447    81.352418   0.04108708  0.043928617            1 
  166000    1.2189215   -6.3297144    81.517552  0.040922466  0.043930228            1 
  167000    1.2183087   -6.3292147    81.993009  0.040914675   0.04393193            5 
  168000    1.1916528   -6.3408607    82.823841  0.041083255  0.043934267            1 
  169000    1.2249436   -6.3147889    83.276584  0.041063404  0.043936224            3 
  170000    1.2414153   -6.3235714    83.768804  0.041063139  0.043940484            3 
  171000    1.1960214    -6.294312    84.417067  0.041138921   0.04394855            1 
  172000    1.2313044   -6.3322174    84.946837  0.041156413  0.043952246            2 
  173000    1.2307153   -6.3151173    85.776977   0.04131839   0.04395813            3 
  174000    1.2140394   -6.3194381    86.492179  0.041423457  0.043967633            4 
  175000    1.2312347   -6.3045635    87.176143  0.041512449  0.043977349            2 
  176000    1.2183746   -6.3620079    87.069228   0.04122596  0.043985629            2 
  177000    1.2436398   -6.3093665    87.732224   0.04130519  0.043994586            3 
  178000    1.2041101    -6.322776     88.49728  0.041431311  0.044002427            2 
  179000    1.2249443   -6.3189074     88.88947  0.041382435  0.044010247            2 
  180000    1.2335185   -6.3366797    89.250994  0.041319904  0.044015558            1 
  181000      1.25693   -6.3514445    89.506526  0.041209266   0.04402187            3 
  182000    1.2315143   -6.3482908    90.333938  0.041361693  0.044026969            6 
  183000     1.230775   -6.3331516    90.637083  0.041273717  0.044026605            1 
  184000    1.2288879   -6.2939731    90.822266  0.041133273  0.044023819            3 
  185000     1.217024   -6.3348543    91.385807  0.041164778  0.044019344            3 
  186000    1.2156742   -6.3926654    91.558988  0.041021052  0.044012086            6 
  187000    1.2231607   -6.3401865    91.862443  0.040936918  0.044004026            3 
  188000     1.206358   -6.3202963    92.724968  0.041101493  0.043994544            1 
  189000    1.2172033   -6.3608654    92.806581  0.040920009  0.043983045            1 
  190000    1.2452318   -6.3011957    93.026716  0.040801191  0.043970508            2 
  191000    1.2323303   -6.3093562     93.90423  0.040970432  0.043957565            2 
  192000    1.2186916   -6.3340421    94.610212   0.04106346   0.04394475            3 
  193000    1.2177746   -6.3672063    94.574733  0.040835377  0.043931145            3 
  194000    1.2353895   -6.3857001    95.342642  0.040954743  0.043915759            2 
  195000    1.2133929   -6.3062161    95.718871  0.040905501   0.04389955            2 
  196000    1.2305984   -6.3093151    96.384207   0.04097968  0.043887064            4 
  197000     1.203598   -6.3757977    96.543063  0.040838859  0.043874396            5 
  198000    1.2367749   -6.3207366    97.182601  0.040901768  0.043860621            3 
  199000    1.2129125   -6.3321766      97.8535  0.040977177  0.043845701            3 
  200000    1.2387373   -6.3300332    97.965791  0.040819079  0.043829722            3 
  201000    1.2130613   -6.3762753    98.256909  0.040736695  0.043814137            1 
  202000    1.2234795    -6.402236     98.87752  0.040791056  0.043796018            1 
  203000    1.2442816   -6.3420746    99.583249  0.040879823  0.043779725            2 
  204000    1.2481665   -6.3906435    99.734703    0.0407413  0.043763744            4 
  205000    1.2357451   -6.3233764    101.18862  0.041133587  0.043751787            2 
  206000    1.2300068   -6.3348234    101.24359  0.040956147  0.043738463            4 
  207000    1.2411876   -6.3333865    101.68637  0.040936543  0.043723795            1 
  208000    1.2051515   -6.3290395    102.15507   0.04092751  0.043708875            1 
  209000    1.2146033   -6.3425388    102.44588   0.04084764  0.043692765            2 
  210000    1.2223059   -6.3244598    103.15553  0.040934735  0.043677664            1 
  211000    1.2325197   -6.3556938    103.46032  0.040861106  0.043664254            1 
  212000     1.239137   -6.3297319    104.44794  0.041056579  0.043652031            2 
  213000    1.2081721   -6.3394166    105.00155  0.041080417  0.043643599            2 
  214000    1.2084029   -6.2895362     105.5552  0.041104051   0.04363671            2 
  215000    1.2093445   -6.3373543    105.85381  0.041028609  0.043626473            2 
  216000    1.1894218   -6.3048869    106.90299  0.041243436  0.043618283            2 
  217000    1.2140479   -6.3523814    107.10618  0.041131406  0.043610169            4 
  218000    1.2320988   -6.3132764    107.84556  0.041225366  0.043601495            2 
  219000    1.2555494   -6.3246106    108.09163  0.041130756  0.043590924            2 
  220000    1.1970503   -6.3366581    108.54164  0.041114256   0.04358188            3 
  221000    1.2255778   -6.2858828    109.55286  0.041309524  0.043574289            2 
  222000    1.2118912   -6.3390168    110.01139  0.041295566  0.043571293            8 
  223000     1.200565   -6.3607135    110.53851  0.041307365  0.043567383            2 
  224000      1.21664   -6.3979078    111.01565  0.041300466  0.043563366            3 
  225000    1.2161953   -6.3256241    111.49117  0.041293024  0.043559253            3 
  226000    1.2421799   -6.3578855    112.53603  0.041495588  0.043556006            2 
  227000    1.1977823    -6.312282    112.73939  0.041387441  0.043553675            3 
  228000    1.2283588   -6.2860239    113.08133  0.041330895  0.043549315            6 
  229000    1.2110353   -6.3337826    113.66591   0.04136314  0.043544673            2 
  230000    1.2045393   -6.3422053    114.00187  0.041305027  0.043538971            3 
  231000    1.2248099   -6.3185546    114.58157  0.041335341  0.043534206            3 
  232000    1.2033847    -6.362315    115.52424  0.041495775  0.043531739            2 
  233000    1.2032915   -6.3699128    115.40903  0.041276478   0.04352966            2 
  234000      1.21111   -6.3363748    116.33621  0.041430273  0.043525967            5 
  235000    1.2314911   -6.3302549    116.85657    0.0414385  0.043525298            1 
  236000    1.1955466   -6.3240251    117.84754  0.041612831   0.04352403            2 
  237000    1.2112919   -6.3204214    118.12938  0.041536351  0.043521725            2 
  238000     1.226856   -6.3664485    118.16389  0.041373912  0.043518299            3 
  239000    1.2179655   -6.3287654    118.85804  0.041442831   0.04351449            1 
  240000    1.2061688   -6.3571225    119.07282  0.041344731  0.043510954            2 
  241000    1.2435788   -6.3690149    119.41834  0.041292648  0.043504902            3 
  242000    1.2108439    -6.335459    120.31148  0.041429574  0.043498827            1 
  243000    1.2057983   -6.3619259    120.71669  0.041398043  0.043493209            2 
  244000    1.2225151   -6.3431724    120.96503  0.041313192  0.043486853            3 
  245000    1.2088374   -6.3624021    121.67304  0.041385386  0.043481103            3 
  246000    1.2082275   -6.3641003    122.22549    0.0414043  0.043476437            2 
  247000     1.216913   -6.3280328    123.09466  0.041529911  0.043471966            3 
  248000    1.2171473    -6.310339    123.86319  0.041620697  0.043469912            1 
  249000    1.2201621     -6.35664    123.56393  0.041353391  0.043466095            1 
  250000    1.1956473   -6.3503642    124.21679  0.041405598  0.043461105            3 
  251000    1.2089874   -6.3329882    124.63271  0.041378721  0.043456508            3 
  252000     1.215088   -6.3530498    125.28192  0.041429206  0.043451464            3 
  253000     1.199753   -6.3386461    125.19942  0.041238281  0.043444159            4 
  254000    1.2188216   -6.3600939      125.785  0.041268045  0.043434262            4 
  255000    1.2014199   -6.3721194    127.08527  0.041531135   0.04342831            2 
  256000    1.1972768   -6.3307003    127.16564  0.041395066  0.043423096            2 
  257000    1.2086436   -6.3571768    127.67397  0.041398824  0.043418052            3 
  258000    1.2024599   -6.3666604    127.79208  0.041276511  0.043409081            4 
  259000    1.2182262   -6.3606691    128.12248  0.041223448  0.043398585            3 
  260000    1.2245361   -6.3485365    128.64968  0.041233873  0.043387644            2 
  261000    1.2541205   -6.3516547    128.72779  0.041100826  0.043375977            2 
  262000    1.1866497   -6.3241262    129.66153  0.041240945  0.043363224            3 
  263000    1.2136358   -6.3045306    129.42124  0.041007996  0.043349684            4 
  264000    1.1993124   -6.3636962    129.79512  0.040970683  0.043334407            1 
  265000    1.2123984   -6.3330233    130.26127  0.040962664  0.043318352            1 
  266000    1.2233258   -6.3846623    131.31573  0.041139013  0.043304315            3 
  267000    1.1982651   -6.3405908    131.94898  0.041182577  0.043290969            2 
  268000    1.1975249   -6.3528583    132.45674  0.041186799  0.043278614            2 
  269000     1.195802   -6.3951036     132.4011   0.04101645  0.043266199            3 
  270000    1.2409146   -6.3540818    132.89222  0.041016119  0.043253358            4 
  271000     1.226147   -6.3979417    133.67226   0.04110463  0.043241706            3 
  272000    1.1983692   -6.3457135    134.19295  0.041113035    0.0432316            2 
  273000    1.2045167   -6.3730216    135.69605  0.041421261  0.043224372            2 
  274000    1.1977481   -6.3754965    135.74178  0.041283997  0.043218069            4 
  275000    1.2232568   -6.3917593    136.12207  0.041249113  0.043210772            3 
  276000    1.2111986   -6.3523574    136.44073  0.041195872  0.043202081            4 
  277000    1.1773892   -6.3442358    137.06917  0.041236212  0.043192963            4 
  278000    1.2244509   -6.3664392     137.7622  0.041295622  0.043185661            1 
  279000    1.1841438   -6.3136031    138.23749  0.041289572  0.043176834            1 
  280000    1.2000737   -6.3646972    138.17763  0.041124296   0.04316848            2 
  281000    1.2066121    -6.329892    139.08144  0.041245977  0.043158692            4 
  282000    1.2063137   -6.3598075    139.09219  0.041102892  0.043148652            6 
  283000    1.2008444   -6.3126054    140.15656  0.041271073  0.043138352            1 
  284000    1.2018255   -6.3512158    140.08824  0.041105704  0.043128881            3 
  285000    1.2150417   -6.4021899     140.6315  0.041120321  0.043118841            3 
  286000    1.1997848   -6.3262345    141.59322  0.041256765  0.043108933            2 
  287000    1.2188728   -6.3261214    141.36319  0.041046223  0.043097849            6 
  288000    1.1944317   -6.3546644    141.93368  0.041068772  0.043086262            4 
  289000    1.2026868   -6.3423367    142.63185  0.041127985  0.043074493            3 
  290000    1.1757713   -6.3771792    143.05038   0.04110643   0.04306215            2 
  291000    1.2474787     -6.35936    143.21427  0.041012106  0.043050395            3 
  292000    1.2195395   -6.3601827    144.11409  0.041128452  0.043038401            3 
  293000    1.2017305   -6.3979508     144.0864  0.040980206  0.043025969            3 
  294000    1.2038592   -6.3814564    144.19386  0.040871274  0.043014175            7 
  295000     1.226956   -6.3341312    145.52441   0.04110859  0.043004675            2 
  296000    1.2037112   -6.3841978    145.99208  0.041101373  0.042995389            3 
  297000    1.1988523   -6.3778189    146.39805  0.041076895  0.042984951            2 
  298000    1.1970142   -6.3517029    146.91671  0.041084091   0.04297404            3 
  299000    1.1888734   -6.3732398    147.10216  0.040998373  0.042962621            3 
  300000    1.2135831   -6.3506207    147.48073   0.04096687  0.042950073            1 
  301000    1.1828231   -6.3544348    147.94766  0.040960039  0.042938816            3 
  302000    1.2252237   -6.2863717    148.67097  0.041023999  0.042926901            2 
  303000     1.205575   -6.4004733    148.80031  0.040924178  0.042916723            2 
  304000     1.190431   -6.3695993    150.06841  0.041137173  0.042906203            1 
  305000    1.1816002   -6.3568548    150.39644  0.041091922  0.042896041            4 
  306000    1.2065924   -6.3593284    150.91124  0.041097832   0.04288557            1 
  307000    1.2028705   -6.4022491    151.39271  0.041094656  0.042876501            3 
  308000    1.1820589   -6.3916754    151.95953  0.041114591  0.042867802            2 
  309000    1.1940701   -6.3793526    152.39585  0.041099205  0.042858303            2 
  310000    1.2049486   -6.3953175    153.00852  0.041131324  0.042849342            2 
  311000    1.2078905   -6.3795177    153.78045  0.041205909  0.042840327            2 
  312000    1.2218466   -6.3793724    154.90382  0.041373885  0.042832869            3 
  313000    1.2134086   -6.3599229    154.32193  0.041086775  0.042825579            1 
  314000    1.2088029   -6.3379269    155.73096  0.041329872  0.042818527            3 
  315000     1.202435   -6.3704327    155.91952   0.04124855  0.042811313            5 
  316000    1.2035553   -6.4040169    156.28556  0.041214547  0.042803915            3 
  317000    1.2071931   -6.3760853    156.46648  0.041132093   0.04279865            2 
  318000    1.1876965   -6.3390725    157.52481  0.041280087  0.042792577            2 
  319000    1.2036473   -6.3752175    157.52063   0.04114959  0.042787235            2 
  320000    1.1797452   -6.3858161     158.8116  0.041357186  0.042782303            3 
  321000    1.2358846   -6.3661665    159.37843    0.0413755  0.042778937            1 
  322000    1.2113105   -6.3634937    159.74421   0.04134167  0.042774281            2 
  323000    1.1864283   -6.3546793    159.82623  0.041234838  0.042768853            3 
  324000    1.1786726   -6.3779211    159.63117    0.0410574  0.042762763            1 
  325000    1.1957831   -6.3355732    161.05402  0.041295901  0.042756413            6 
  326000    1.1795672   -6.3185933    160.97664  0.041149448  0.042748941            4 
  327000    1.2048284   -6.3632801    162.21253  0.041338566  0.042742109            2 
  328000    1.1913657   -6.3942899    161.68076  0.041077428   0.04273533            2 
  329000    1.1560519    -6.372131    162.77373  0.041229414  0.042728575            2 
  330000    1.1975255   -6.3789657    163.32424  0.041243495  0.042722339            4 
  331000    1.1911602   -6.3773375    163.65983  0.041203381  0.042716275            2 
  332000    1.1844448   -6.3348702    164.29254  0.041238088  0.042710236            4 
  333000    1.1763561   -6.3836334    164.70001  0.041216218  0.042703322            4 
  334000    1.1980969   -6.4052836    165.25389  0.041231012  0.042697055            1 
  335000    1.2384768   -6.4077876      165.235  0.041103234  0.042691391            1 
  336000    1.1718227   -6.3789348    166.04205  0.041181063  0.042685607            2 
  337000    1.2233284   -6.3768338    166.26699  0.041114489  0.042679668            3 
  338000    1.1988844   -6.3751265    167.11726  0.041202481  0.042672537            2 
  339000    1.2097826    -6.345965    167.85413  0.041262076  0.042665478            3 
  340000    1.1909417   -6.4029938    168.29047  0.041247664  0.042659533            4 
  341000    1.1952519   -6.3722564    169.29136  0.041371301  0.042654238            3 
  342000    1.2178662   -6.3690258    169.97348   0.04141654  0.042650235            1 
  343000    1.2033121   -6.3767965     170.6728  0.041465695  0.042646703            2 
  344000    1.1883809   -6.3813893    171.39472  0.041520038  0.042645155            5 
  345000    1.2028841   -6.4145947    171.40863   0.04140305   0.04264264            4 
  346000    1.1829635   -6.3881508    171.67627   0.04134785  0.042639963            3 
  347000    1.2088868   -6.3727598      171.811  0.041261046  0.042636705            4 
  348000    1.2163468   -6.3789395    172.14361  0.041222129  0.042631893            6 
  349000     1.205148    -6.376477    172.88913  0.041282027  0.042628065            2 
  350000    1.2043015   -6.3224964    173.82071  0.041385883  0.042624151            4 
  351000    1.2095263   -6.3616735    174.10135  0.041334604  0.042621096            2 
  352000    1.1899299   -6.3984726    174.46408  0.041303049  0.042617654            4 
  353000    1.1631557   -6.4096773     175.0546  0.041325448  0.042613931            2 
  354000    1.2151697   -6.4195047    175.57699  0.041331684  0.042609043            5 
  355000     1.222359   -6.3934596    176.05242   0.04132686  0.042606189            4 
  356000    1.2018862   -6.3749843    177.38281  0.041522193  0.042604767            2 
  357000    1.1578522   -6.4047728    177.06879  0.041332583  0.042602938            3 
  358000    1.1905641   -6.3737724    177.79871  0.041387036  0.042598813            3 
  359000    1.1712493   -6.3780275    178.18645  0.041361757  0.042596087            3 
  360000    1.1997702   -6.3678631    178.59244  0.041340844  0.042592456            2 
  361000    1.1985904   -6.3898378    179.28243  0.041385603  0.042588301            2 
  362000    1.1781603   -6.3690048     179.6609  0.041358402  0.042584151            2 
  363000    1.2105623   -6.3830925    180.79728  0.041505345  0.042581586            3 
  364000     1.216624   -6.3912612    180.66201  0.041360351  0.042577579            2 
  365000    1.2140579   -6.3658548    180.81216  0.041281314  0.042572838            4 
  366000    1.1914655   -6.3825528    181.57017  0.041341113  0.042567895            3 
  367000    1.1994967   -6.3750985    181.64338  0.041245091  0.042562614            2 
  368000    1.2389982   -6.3763538    182.12276  0.041241568  0.042557192            3 
  369000    1.1975793   -6.3972231    181.70657  0.041035811  0.042550672            2 
  370000     1.182218   -6.4277657     182.2758  0.041053109  0.042544328            3 
  371000    1.1925692   -6.3987043    183.22307  0.041155226  0.042538094            2 
  372000    1.1691933   -6.3698929    184.55382  0.041342701   0.04253247            1 
  373000    1.1893506   -6.3814379    185.34944  0.041409615  0.042527465            1 
  374000    1.1716673    -6.381783    185.27043   0.04128129  0.042522207            3 
  375000    1.2147176   -6.3842646    185.06333  0.041125184   0.04251712            4 
  376000      1.20458   -6.3770394    186.56143  0.041347835  0.042512174            3 
  377000    1.1816451   -6.3581441    186.66359   0.04126074  0.042506544            1 
  378000    1.2287164   -6.3845171    186.62423  0.041142909   0.04250136            2 
  379000    1.2051879   -6.3783776    187.55423  0.041238836  0.042495608            2 
  380000    1.1973533   -6.4261679    187.61101  0.041142765  0.042491131            2 
  381000    1.1766536   -6.4172708    188.12525  0.041147255  0.042484293            4 
  382000    1.2003105   -6.3677476    188.11583  0.041037484  0.042477699            5 
  383000    1.1590192   -6.3697808    189.34515  0.041197812   0.04247101            4 
  384000    1.1667584   -6.3342451    189.37951  0.041097983   0.04246449            1 
  385000    1.1728322   -6.3905824    189.54109  0.041026211   0.04245759            2 
  386000    1.1694487   -6.3607451    190.50717   0.04112849  0.042450885            1 
  387000    1.1650943   -6.4133216    189.96714   0.04090593  0.042443285            2 
  388000    1.1926539   -6.3648572    191.29223    0.0410851  0.042435757            4 
  389000    1.1946351   -6.3631442    192.32484  0.041200694  0.042428992            2 
  390000    1.1683298   -6.3753141    192.43054  0.041117636  0.042421076            3 
  391000    1.2010556   -6.3883777    192.38502  0.041002775  0.042413024            4 
  392000    1.1866912   -6.3995326     193.0343  0.041036203   0.04240603            1 
  393000    1.1999401   -6.3841843    194.40721  0.041222903  0.042398853           10 
  394000    1.1709556   -6.3672923    194.40891  0.041118637  0.042392112            2 
  395000    1.1691937   -6.3791026    195.54351  0.041253905  0.042386696            2 
  396000    1.1769023   -6.3612279    195.85242  0.041214734  0.042382384            2 
  397000    1.2080455    -6.364752    196.30552  0.041206028  0.042378282            2 
  398000    1.1808607   -6.4109071    196.26728  0.041094488  0.042372839            3 
  399000    1.2057212   -6.3948983    196.56727  0.041054151   0.04236653            1 
  400000     1.196979   -6.3935131    196.90779  0.041022456  0.042359155            3 
  401000    1.1818763   -6.3756983    197.67412  0.041079411  0.042352876            2 
  402000    1.1589788   -6.4398614    197.77268  0.040997653  0.042347124            4 
  403000     1.183313   -6.3975685    199.02559  0.041155002  0.042339404            3 
  404000    1.2022851   -6.3688503    198.50622  0.040946003  0.042332105            4 
  405000    1.1764047   -6.3948392    198.31503  0.040805563  0.042324353            2 
  406000    1.1704597   -6.4063488    199.62726  0.040974397  0.042316024            1 
  407000    1.1925412   -6.3737841    200.62003  0.041076992   0.04230897            7 
  408000    1.1761996   -6.3775593    200.95605  0.041044945  0.042302112            3 
  409000    1.1869531   -6.3904361    201.77702  0.041111863  0.042296812            1 
  410000    1.2322769   -6.4239684    202.38979  0.041136137  0.042291435            5 
  411000    1.1527132   -6.4305909    202.65475   0.04108977  0.042285997            6 
  412000    1.1700477   -6.3942396    203.13955  0.041088096  0.042279983            2 
  413000    1.1878727   -6.3958507    204.00002  0.041162231  0.042274147            4 
  414000    1.1848801   -6.3793833    204.39777  0.041142868  0.042268779            2 
  415000    1.2109864   -6.3702982    205.27488  0.041219856  0.042263443            2 
  416000    1.2062699    -6.432317    205.30262  0.041126326  0.042257376            1 
  417000    1.1764304   -6.4220433    204.99677  0.040966581  0.042252058            3 
  418000    1.1643777   -6.4391607     205.5129   0.04097147  0.042246715            1 
  419000    1.1673507   -6.3884946    206.57691  0.041085304  0.042241062            1 
  420000     1.188089   -6.3756093    207.90011  0.041250021  0.042236222            2 
  421000    1.1823871   -6.4150642    207.07009  0.040987745  0.042231913            1 
  422000    1.1922094   -6.3666253    208.54963  0.041182785  0.042227748            3 
  423000    1.1831016   -6.3846436    209.21912  0.041217321  0.042224168            2 
  424000     1.170412    -6.393646    210.32377  0.041337219  0.042220246            2 
  425000    1.1738371    -6.417174    210.44399  0.041263528  0.042216426            2 
  426000     1.176805   -6.3716565    210.75876   0.04122824   0.04221229            3 
  427000     1.183695   -6.4408163    211.01153  0.041181018  0.042208336            3 
  428000    1.2274573   -6.3703575    211.99263  0.041275823  0.042204821            2 
  429000     1.160033   -6.4003046    212.43588  0.041265711  0.042201472            3 
  430000    1.1652415   -6.3840001    212.67744  0.041216558  0.042199006            2 
  431000     1.157037     -6.41885    212.95326  0.041174258   0.04219533            2 
  432000    1.1825336   -6.3934691    214.18771  0.041317073  0.042191791            3 
  433000     1.197916   -6.4515658    213.93417  0.041172858  0.042188451            3 
  434000    1.1640262   -6.3688652    214.38295  0.041164161  0.042185335            3 
  435000    1.1982043    -6.395948    215.01718  0.041191031  0.042182184            3 
  436000    1.1740101   -6.4340871    215.77468  0.041241338  0.042178262            5 
  437000    1.1885534   -6.4288277    216.31649  0.041250284  0.042174639            3 
  438000     1.186534    -6.435453    216.66373   0.04122217  0.042171026            3 
  439000    1.1509566    -6.408317    216.97512  0.041187381   0.04216751            2 
  440000    1.1693043   -6.3737423    217.32487  0.041160013  0.042163613            3 
  441000     1.189189   -6.3863862    218.00098  0.041194441  0.042160234            6 
  442000    1.1656335   -6.4154667     219.0789  0.041304468  0.042156882            2 
  443000    1.1909353   -6.4139393    218.65534  0.041131554  0.042153575            3 
  444000    1.1506273   -6.3843225    219.07431   0.04111755  0.042150574            2 
  445000    1.1684373   -6.3709153      220.201  0.041236143   0.04214723            2 
  446000    1.1931371   -6.4121366      220.014  0.041108744  0.042142328            2 
  447000    1.1928756   -6.3909783    220.62825  0.041131291  0.042138277            2 
  448000    1.1584013   -6.3989474    221.32334  0.041168777  0.042133511            2 
  449000    1.1940892   -6.4088378    221.00534  0.041018066  0.042128925            6 
  450000    1.1657805   -6.3855182    222.04232  0.041118948  0.042124213            4 
  451000    1.1716868   -6.3752456    223.07117  0.041217881  0.042119952            1 
  452000    1.1692858   -6.3974248    223.52376  0.041210133  0.042115804            5 
  453000    1.1778741   -6.3948785     223.7914  0.041168396  0.042112781            1 
  454000    1.2054912    -6.407864     223.8985  0.041097375  0.042108435            5 
  455000    1.1999948   -6.4097105    223.92419  0.041011757  0.042103609            7 
  456000    1.1757352   -6.4200227    225.71034  0.041248235  0.042099279            4 
  457000    1.2118648   -6.4349977    225.07123  0.041041434  0.042094466            2 
  458000    1.1674979    -6.409502    226.15599  0.041149198  0.042090253            4 
  459000    1.1842883   -6.4032186    225.80753  0.040996284  0.042085742            4 
  460000     1.177823    -6.431399    226.22102   0.04098207  0.042080772            3 
  461000     1.168598   -6.4356276    226.90514  0.041016836  0.042075187            2 
  462000    1.1685854   -6.4008108    227.49501  0.041034453  0.042070395            2 
  463000    1.1587741    -6.423973    228.77595  0.041176376  0.042065965            2 
  464000     1.159481   -6.4412441    227.90243  0.040930752  0.042061326            2 
  465000    1.1529283   -6.4207823    228.54764  0.040958358  0.042055999            2 
  466000    1.1756815   -6.4146613    229.09257  0.040967914  0.042049994            4 
  467000    1.1927422   -6.3712701    229.75546  0.040998476  0.042044514            2 
  468000    1.1654323   -6.3900961     230.4822  0.041040278  0.042038453            1 
  469000    1.1825742   -6.4096654     230.1463  0.040893087  0.042032525            3 
  470000    1.1790647   -6.4318777    231.08885    0.0409732  0.042026651            3 
  471000    1.1792971   -6.4016102    232.33704  0.041107049  0.042020686            4 
  472000    1.1821181   -6.3851964    231.98715  0.040958182  0.042014971            4 
  473000    1.1788362   -6.4356522    231.65494  0.040813061  0.042008438            3 
  474000    1.1782098   -6.4176431    232.34702  0.040848633  0.042001536            2 
  475000    1.2005435   -6.4571586    232.77717  0.040838101  0.041994412            2 
  476000    1.1745452   -6.4462689    234.04561  0.040974372  0.041987435            4 
  477000    1.2002864   -6.4206562    234.24995   0.04092417    0.0419812            5 
  478000    1.1934404   -6.3849462    235.26721  0.041015902  0.041974777            3 
  479000     1.166902   -6.4388676    234.59426  0.040813197  0.041968819            4 
  480000      1.18058   -6.4574061    235.79157  0.040936036  0.041961941            6 
  481000    1.1897018   -6.4177928     236.5427  0.040981064  0.041955897            2 
  482000     1.184101   -6.3999721    237.01439  0.040977591  0.041951041            4 
  483000    1.1705557   -6.3755025    237.23108  0.040930138    0.0419463            1 
  484000    1.1691849   -6.4260697    237.66436  0.040920173  0.041941189            2 
  485000    1.1943768   -6.4530987    238.82129  0.041034587  0.041935888            5 
  486000    1.1837891   -6.4225921    239.06316  0.040991625  0.041930786            2 
  487000     1.159383   -6.4118126    239.77617  0.041029462  0.041925654            3 
  488000     1.164948   -6.4192499    239.08674  0.040827654  0.041919373            2 
  489000    1.1625873   -6.4301347    239.79382  0.040864659  0.041913461            2 
  490000    1.2027438    -6.385297    240.87165  0.040964566  0.041907857            3 
  491000    1.2014448   -6.4003402    241.11757  0.040922874  0.041901635            4 
  492000    1.1530105   -6.4313656    240.98073   0.04081652  0.041896102            2 
  493000    1.1870466   -6.3939273    242.58422  0.041004771  0.041890508            2 
  494000    1.1706085   -6.4563807    242.62557   0.04092874  0.041884969            1 
  495000    1.1833181   -6.4082781    243.38673  0.040974197  0.041879601            5 
  496000    1.1896899   -6.4034724    244.36894  0.041056609  0.041875534            1 
  497000    1.1615555   -6.4321623     244.2624  0.040956137  0.041871406            2 
  498000    1.1802642   -6.4360785     245.1894  0.041029016  0.041867122            2 
  499000    1.1562201   -6.4613204    244.32748  0.040802853  0.041862522            1 
  500000    1.1840853   -6.4073038    245.42526   0.04090421  0.041856944            2 
  501000    1.1702502   -6.4567413    245.73294  0.040873742  0.041851743            2 
  502000    1.1663982   -6.4408126    246.25053  0.040878241  0.041846577            2 
  503000    1.1700801   -6.4066202    246.44503  0.040829197  0.041841193            5 
  504000    1.1504368   -6.4280368    246.63857  0.040780186  0.041835824            6 
  505000      1.19134   -6.4313921    247.02255  0.040762797  0.041830099            3 
  506000    1.1905806   -6.4221546    247.43457  0.040750093   0.04182377            2 
  507000    1.1910695   -6.4127988    247.88119  0.040743127   0.04181752            2 
  508000    1.1703596    -6.419974     248.9237   0.04083394  0.041811468            2 
  509000    1.1447572   -6.4309402    248.84148  0.040740256  0.041804856            2 
  510000    1.1985341   -6.4155926    250.05792  0.040859138  0.041798862            4 
  511000    1.1628616    -6.441295     249.7576  0.040730202    0.0417924            2 
  512000    1.1820341   -6.4272875    250.68553  0.040801681  0.041786183            3 
  513000     1.191042   -6.4084169    250.87452  0.040752846  0.041780432            2 
  514000    1.1554606   -6.4160012    252.01976  0.040859235   0.04177433            2 
  515000    1.1550574   -6.4123002     252.4104  0.040843106  0.041768186            2 
  516000    1.1778544   -6.4640644    252.22919  0.040734689  0.041762295            2 
  517000    1.1526961   -6.4215975    252.95385  0.040772704  0.041755688            2 
  518000    1.1740123   -6.4455359    253.62969  0.040802718  0.041748971            1 
  519000    1.1935922   -6.4105731    253.52782  0.040707743  0.041741951            1 
  520000    1.1659233   -6.4224153    253.29904  0.040592796  0.041733927            4 
  521000    1.1706388   -6.4105579    253.84082  0.040601538  0.041726292            3 
  522000    1.1646847   -6.4089481    254.25955  0.040590606   0.04171874            4 
  523000    1.1512269   -6.4774565    254.19945  0.040503418  0.041710878            2 
  524000    1.1681706   -6.4271994    255.86972   0.04069175  0.041703352            2 
  525000    1.1882588   -6.3751076    256.79308  0.040760807  0.041696561            4 
  526000    1.1862004   -6.4695757    256.82901  0.040689007  0.041689735            2 
  527000    1.1687532   -6.4348682    256.68374  0.040588827  0.041682898            2 
  528000    1.1790534   -6.4346408     257.4929  0.040639662  0.041675739            2 
  529000    1.1383944    -6.422638    258.63404  0.040742602  0.041668174            3 
  530000    1.1764679   -6.4093087    258.88035  0.040704458  0.041660651            5 
  531000    1.1841681   -6.4589534    258.16589  0.040515676  0.041653083            2 
  532000    1.1803709   -6.4108841    259.08091  0.040582849  0.041645409            3 
  533000     1.166649   -6.4215068    259.40883  0.040557978  0.041637666            1 
  534000    1.1515343   -6.4245744    259.45393  0.040489065  0.041629208            1 
  535000    1.1564772    -6.401385    260.38203  0.040557949  0.041620731            2 
  536000    1.1672124   -6.4211372    259.65559  0.040369339  0.041611437            1 
  537000    1.1430927   -6.4455566    260.14318  0.040369829  0.041601815            2 
  538000    1.1946687   -6.4317281    260.04537  0.040279642  0.041591715            5 
  539000    1.1618304   -6.4287164    260.91056  0.040338677  0.041581027            1 
  540000     1.142432   -6.4616377    261.01124  0.040279512  0.041569896            2 
  541000    1.1782494   -6.4171904    261.63729  0.040301492  0.041558926            3 
  542000    1.1766649   -6.4568949    261.39259  0.040189513  0.041548149            5 
  543000    1.1767815   -6.4323473    262.62447  0.040304553  0.041537094            2 
  544000    1.1754083    -6.493324    262.26638  0.040175609  0.041526447            5 
  545000    1.1557524   -6.4188762    263.37338  0.040271158  0.041516601            2 
  546000    1.1814362    -6.430965    263.55579  0.040225242  0.041507027            1 
  547000    1.1730218   -6.4185123    264.52106   0.04029876  0.041497478            2 
  548000     1.172249   -6.3855174    265.53867  0.040379969  0.041488331            4 
  549000    1.1763661    -6.452117    265.10395   0.04024043  0.041478906            3 
  550000    1.1450627   -6.4407855    266.49961  0.040378728  0.041469984            5 
  551000    1.1639151   -6.4430352    266.81174  0.040352653  0.041461385            2 
  552000    1.1660008   -6.4074791    268.52925  0.040538836  0.041453393            3 
  553000    1.1534155    -6.444196    268.22887  0.040420263  0.041446544            3 
  554000    1.1739429   -6.4365323    269.13016  0.040482876  0.041439148            2 
  555000    1.1670943   -6.4532061    270.66142  0.040639853  0.041432616            3 
  556000    1.1650174   -6.4480402    270.19457  0.040496787  0.041425902            2 
  557000    1.1784506   -6.4275719    270.14146  0.040416137  0.041419557            3 
  558000    1.1681099   -6.4512119    270.83251   0.04044691   0.04141294            6 
  559000    1.1769974   -6.4493414    270.78518  0.040367498  0.041405872            4 
  560000    1.1537016   -6.4416698    272.06002  0.040485123  0.041399307            2 
  561000    1.1514794    -6.408264    272.58201  0.040490494  0.041392603            2 
  562000    1.1654996    -6.445712    273.11012  0.040496756  0.041385947            3 
  563000    1.1391923   -6.4252068    273.61985  0.040500273  0.041379283            3 
  564000    1.1752658   -6.4254783    274.62888  0.040577553  0.041372955            2 
  565000    1.1615902   -6.4468713    274.37479  0.040468258  0.041367325            3 
  566000    1.1684635   -6.3866054     275.2412  0.040524323  0.041360211            2 
  567000    1.1586579   -6.4434521    273.63611  0.040216948  0.041353319            2 
  568000    1.1699204   -6.4521182    274.95785   0.04034006  0.041345485            2 
  569000    1.1376589   -6.4672031    274.56421  0.040211513  0.041337498           12 
  570000    1.1666036   -6.4377357     275.6826  0.040304474  0.041329804            2 
  571000    1.1744628   -6.4072858    276.64488  0.040374326  0.041321758            2 
  572000     1.150893   -6.4067349    277.11549  0.040372303  0.041313803            3 
  573000    1.1345042    -6.429575    276.92337  0.040273904  0.041305202            4 
  574000    1.1593625   -6.4588574    276.39781   0.04012744   0.04129588            2 
  575000    1.1650035   -6.4742055     276.6471  0.040093783  0.041285682            2 
  576000    1.1459967   -6.4395142    276.76992  0.040041945  0.041275358            5 
  577000    1.1736223   -6.4909943    276.72761  0.039966437  0.041264837            3 
  578000    1.1538124    -6.469536    278.04046  0.040086571  0.041254178            2 
  579000    1.1486683   -6.4201815    277.73713   0.03997368  0.041243614            2 
  580000    1.1546871   -6.4399408    277.87553  0.039924645  0.041232836            2 
  581000    1.1465499   -6.4432371    278.50302  0.039945929  0.041221817            3 
  582000    1.1758725   -6.4626829    277.73741   0.03976767   0.04120976            4 
  583000    1.1548734   -6.4425906    279.40245  0.039937457  0.041198343            4 
  584000    1.1777634   -6.4276116    279.54086  0.039888821  0.041187631            3 
  585000    1.1747216   -6.4262481     280.5638  0.039966353  0.041177233            6 
  586000    1.1312663   -6.4307121    281.16909  0.039984228  0.041167263            2 
  587000    1.1554388   -6.4760138    281.31309  0.039936554  0.041156921            2 
  588000    1.1616831   -6.4680875    281.57733  0.039906084  0.041146112            3 
  589000    1.1608156   -6.3962682    282.87061  0.040021308  0.041135357            6 
  590000    1.1570022   -6.4705392    281.89918  0.039816268  0.041124612            2 
  591000     1.142512   -6.4469706     282.9976  0.039903779  0.041113688            2 
  592000    1.1516133   -6.4482871    284.04068  0.039983204  0.041103668            3 
  593000    1.1559762   -6.4336426    284.45469  0.039973959  0.041093362            1 
  594000    1.1525195   -6.4532532    284.85692  0.039963092   0.04108351            2 
  595000      1.15144   -6.4668585    285.08915  0.039928452  0.041073775            3 
  596000    1.1385693   -6.4596797    286.68498  0.040084589  0.041063872            4 
  597000    1.1573448   -6.4300443    287.05677  0.040069343  0.041054372            2 
  598000    1.1476223   -6.4216932    286.80646  0.039967455  0.041044836            2 
  599000    1.1519356   -6.4606777    286.73688  0.039891052  0.041035636            3 
  600000    1.1490815   -6.4529833    288.27444  0.040038117  0.041025431            2 
  601000    1.1340494   -6.4444996    287.65737  0.039885936  0.041015833            1 
  602000    1.1440943   -6.4259525    287.52212  0.039800958  0.041005912            3 
  603000    1.1582493    -6.478123    289.29768  0.039980331  0.040996475            1 
  604000    1.1701937   -6.4029061    288.54877  0.039810812    0.0409872            3 
  605000    1.1579629   -6.4626928    289.73314  0.039908146  0.040978261            4 
  606000    1.1553236   -6.4372944     289.6228  0.039827117  0.040969114            2 
  607000     1.179756   -6.4415606    291.58294  0.040030607  0.040960257            3 
  608000    1.1603146    -6.428187    290.76664  0.039852884  0.040951224            5 
  609000    1.1608166   -6.4297425    291.68967  0.039913748  0.040942214            3 
  610000    1.1689808   -6.4554337    291.66998  0.039845626  0.040932796            3 
  611000    1.1481545   -6.4537821    292.13161  0.039843373  0.040923406            6 
  612000    1.1720086   -6.4565453      293.021  0.039899374  0.040914847            6 
  613000    1.1555119   -6.4273104    294.09118  0.039979769   0.04090652            2 
  614000    1.1507454   -6.4718462    294.32773   0.03994676   0.04089828            1 
  615000    1.1605798   -6.4565537    295.34543  0.040019706  0.040889779            3 
  616000    1.1672791   -6.4334523    295.45183  0.039969132  0.040881481            4 
  617000    1.1738569   -6.4755502    294.50056  0.039775872  0.040872757            1 
  618000    1.1341155   -6.4716651    296.20667  0.039941568  0.040863869            2 
  619000     1.156663   -6.4408529    296.59837  0.039929775   0.04085537            2 
  620000    1.1619042   -6.4752371    296.66716  0.039874619  0.040846727            3 
  621000    1.1617557   -6.4228548    296.80413  0.039828788  0.040838253            2 
  622000    1.1650914   -6.4848922    296.78049  0.039761588  0.040829383            2 
  623000    1.1397786    -6.445408    297.90418  0.039848071  0.040820704            4 
  624000    1.1843972   -6.4778122    298.40985  0.039851743  0.040812365            4 
  625000    1.1635557   -6.4530625    299.92255  0.039989673  0.040803862            2 
  626000    1.1650427   -6.4514254    298.99784  0.039802694  0.040794995            3 
  627000    1.1470652   -6.4537314    300.26728  0.039907931  0.040785877            3 
  628000    1.1737149   -6.4727971    299.00787  0.039677265  0.040776626            2 
  629000    1.1693238   -6.4825783    299.61451  0.039694557  0.040767091            3 
  630000    1.1572722   -6.4653331    299.84256  0.039661715  0.040757763            2 
  631000    1.1698706    -6.473427    300.94797  0.039744846  0.040748262            3 
  632000    1.1536862   -6.4583563    301.22677   0.03971872  0.040738297            1 
  633000    1.1342334   -6.4858119    301.60369  0.039705594  0.040728302            2 
  634000    1.1377742    -6.450959    302.13343  0.039712596   0.04071827            2 
  635000    1.1637841   -6.4208475    303.23256    0.0397943  0.040708378            3 
  636000    1.1336599   -6.4362335    303.05379  0.039708306  0.040698449            2 
  637000    1.1391197    -6.448111    303.11673  0.039654203   0.04068857            2 
  638000    1.1716753   -6.4367163    303.52026  0.039644757  0.040678861            3 
  639000    1.1725398   -6.4699136    303.19187   0.03953989  0.040669306            5 
  640000    1.1432427     -6.45545    305.24066  0.039744877  0.040659849            1 
  641000    1.1479547   -6.4530196    304.86447  0.039633967  0.040650229            4 
  642000    1.1332395   -6.4268846    305.57703  0.039664723   0.04064082            5 
  643000    1.1609372   -6.4834099    305.07786  0.039538344  0.040630565            2 
  644000    1.1574854   -6.4627884    305.70334  0.039557886  0.040620365            2 
  645000    1.1415025   -6.4779731     304.7725  0.039376292  0.040610293            2 
  646000    1.1646617   -6.4698108    306.74562  0.039569869  0.040600244            2 
  647000    1.1536852   -6.4646238    307.23255  0.039571426  0.040590382            2 
  648000     1.144961   -6.4569812    307.11531  0.039495281  0.040580725            3 
  649000    1.1504215   -6.4735785    308.51113  0.039613653  0.040570985            2 
  650000    1.1474347   -6.4289347    308.15181  0.039506642  0.040561322            3 
  651000    1.1134789   -6.5030722    308.23082   0.03945607   0.04055106            1 
  652000    1.1279065   -6.4977689    308.33295  0.039408609  0.040541024            3 
  653000    1.1225412   -6.4728708    309.44805  0.039490563  0.040531959            4 
  654000    1.1504446    -6.486572     310.8158  0.039604459  0.040523108            3 
  655000    1.1405591   -6.4860814    310.59654    0.0395161  0.040513683            4 
  656000    1.1447471   -6.4526775    312.19214  0.039658554  0.040504142            4 
  657000    1.1383722   -6.4909279    311.56964  0.039519234  0.040495384            6 
  658000    1.1375854   -6.5139167    312.02716  0.039517117  0.040486437            2 
  659000    1.1505454   -6.4474491    313.37108  0.039627097  0.040477739            1 
  660000    1.1447373   -6.4572528    312.39489  0.039443799  0.040468649            2 
  661000    1.1448925   -6.4607678    313.30365  0.039498696  0.040459244            3 
  662000    1.1384411   -6.4897039    313.70711  0.039489818  0.040449985            2 
  663000    1.1474597   -6.4979235    314.60606  0.039543245  0.040440884            6 
  664000    1.1384898   -6.4556843    314.43219  0.039461871  0.040431469            3 
  665000    1.1225051   -6.4766686    315.48205  0.039534092  0.040422227            2 
  666000    1.1581083   -6.4574957    316.08184   0.03954978  0.040413018            2 
  667000    1.1342662   -6.4763226    315.82161  0.039457972  0.040403588            3 
  668000    1.1627479   -6.4482868    315.72017  0.039386249  0.040393451            4 
  669000     1.145327   -6.4866498    315.46573  0.039295681  0.040383409            3 
  670000    1.1449444   -6.4475304    316.45281  0.039359802   0.04037379            3 
  671000    1.1272728   -6.4849733    316.81162  0.039345706  0.040363949            2 
  672000    1.1389851   -6.5078143    317.53735  0.039377152  0.040354472            4 
  673000     1.128633   -6.4870777    318.30604  0.039413823  0.040344942            2 
  674000     1.138366   -6.4456219    318.74556  0.039409688  0.040335451            2 
  675000    1.1427841   -6.4557276    319.22384   0.03941035  0.040325739            2 
  676000    1.1173891   -6.4879043    318.33663  0.039242682  0.040315865            9 
  677000    1.1547708   -6.4744555     318.6648  0.039225111  0.040306035            4 
  678000    1.1413323   -6.4866375    320.04997  0.039337508  0.040296261            3 
  679000    1.1341949   -6.4652239    319.49762  0.039211785  0.040286092            3 
  680000    1.1734494   -6.4734162    319.77771  0.039188445  0.040275639            2 
  681000    1.1324019    -6.479901    319.05523   0.03904249  0.040264754            5 
  682000    1.1451373   -6.4942705    320.54422  0.039167183  0.040253608            6 
  683000    1.1663439   -6.4995931    320.74114  0.039133863  0.040242801            4 
  684000    1.1504256   -6.5114316    321.30479   0.03914532  0.040231784            2 
  685000    1.1358799   -6.5069247    321.84366   0.03915373   0.04022121            3 
  686000    1.1417316   -6.5039252    322.01002  0.039116863  0.040210593            2 
  687000    1.1285889   -6.4773122    322.02947  0.039062285  0.040199725            5 
  688000    1.1628763   -6.4532241    323.07601  0.039132269  0.040189688            2 
  689000     1.147618   -6.4833532    323.66404  0.039146595  0.040179073            2 
  690000    1.1605039   -6.4537453    323.71222  0.039095679  0.040168386            1 
  691000    1.1321661   -6.4830189    324.10533  0.039086509  0.040158126            3 
  692000    1.1484554   -6.4859742    324.35905  0.039060579  0.040147764            5 
  693000    1.1509795   -6.4609996    325.01522  0.039083119  0.040136974            2 
  694000      1.14072   -6.4896657    325.66188  0.039104452  0.040126178            6 
  695000    1.1552663   -6.4949527    326.33527  0.039128929  0.040115838            4 
  696000    1.1265239   -6.4518001    326.40696  0.039081293  0.040105863            2 
  697000    1.1224827   -6.3953213    328.24691  0.039245207   0.04009608            2 
  698000    1.1547469   -6.5245164    326.82461  0.039019175  0.040085373            3 
  699000    1.1291785   -6.5040162    327.22824  0.039011473  0.040074691            2 
  700000    1.1427325    -6.483019    327.85738   0.03903064  0.040064271            2 
  701000    1.1561765   -6.4971621    329.47634  0.039167421  0.040054219            4 
  702000    1.1438108   -6.4447965    329.43329  0.039106516  0.040044541            2 
  703000    1.1350782   -6.5027019    329.86623  0.039102208  0.040035127            4 
  704000    1.1281265   -6.5140911    329.40457  0.038992018  0.040025456            3 
  705000    1.1363347    -6.464746     331.5257  0.039187435  0.040016006            2 
  706000    1.1397251   -6.5079703    331.41775  0.039119186   0.04000706            4 
  707000    1.1335496   -6.5290663     330.8419  0.038995981   0.03999751            3 
  708000    1.1331064     -6.45169    332.16952  0.039097166  0.039988036            3 
  709000    1.1328187   -6.4877806    332.85008  0.039122012  0.039978975            2 
  710000     1.145777    -6.502632    333.15918   0.03910319  0.039970007            3 
  711000    1.1530531   -6.4965733    334.90791  0.039253154  0.039960564            2 
  712000    1.1085996    -6.483781    332.68153  0.038937445  0.039951506            5 
  713000    1.1470209   -6.5412151    333.83931  0.039018153  0.039942108            3 
  714000    1.1377923   -6.4800243    335.98551  0.039213996  0.039932964            3 
  715000    1.1472434    -6.479993    335.83018  0.039141047  0.039924273            4 
  716000    1.1243412   -6.5091493    335.35625  0.039031221   0.03991496            1 
  717000    1.1280836   -6.5121773    335.89009  0.039038829  0.039905963            2 
  718000    1.1494484   -6.4733925    336.78093  0.039087852  0.039896864            3 
  719000    1.1319311   -6.4961553    337.32047  0.039096021  0.039887677            7 
  720000    1.1514923   -6.4544648    337.11268  0.039017671  0.039878498            2 
  721000    1.1444428   -6.5069389    337.64596  0.039025192  0.039869107            2 
  722000    1.1315511   -6.4960233     337.1402  0.038912766  0.039859797            3 
  723000    1.1378442   -6.4723373    338.71761  0.039040757  0.039850564            3 
  724000    1.1152556    -6.511027    337.84677  0.038886598  0.039840863            2 
  725000    1.1429852   -6.5318072    338.52382  0.038910784  0.039831238            3 
  726000    1.0924734   -6.5096113    339.63588  0.038984834   0.03982156            5 
  727000    1.1300187   -6.4869263     340.3147  0.039009021  0.039812263            1 
  728000    1.1437868   -6.4776226    340.14256  0.038935732   0.03980298            4 
  729000    1.1418905   -6.4955981    340.60489  0.038935172  0.039793496            4 
  730000    1.1290444   -6.4664897    341.70421  0.039007329  0.039784634            3 
  731000    1.1243341   -6.4902178    342.56294  0.039051863  0.039774991            2 
  732000     1.123421   -6.4710803     341.6611  0.038895845  0.039765575            2 
  733000    1.1193711   -6.4534696    342.21175  0.038905384  0.039756128            4 
  734000     1.124674   -6.5074022    341.25712  0.038743997  0.039746484            2 
  735000     1.145066   -6.4731009    342.98714  0.038887431   0.03973638            2 
  736000    1.1414593   -6.4806431    342.95221   0.03883064  0.039726677            3 
  737000     1.138488   -6.4850623    342.92297  0.038774646  0.039717192            9 
  738000    1.1386718   -6.4665219    343.32792  0.038767832  0.039707445            2 
  739000    1.1543321   -6.4693082    344.44648  0.038841507  0.039697169            2 
  740000    1.1220708   -6.5088215    343.28322   0.03865802  0.039687043            3 
  741000    1.1210669   -6.4999009    344.96001  0.038794423  0.039676366            2 
  742000    1.1106839   -6.4664521    346.78041  0.038946587  0.039666265            2 
  743000     1.130062   -6.4786787    345.68565  0.038771383  0.039656579            3 
  744000    1.1186144   -6.5317663    346.82704  0.038847115  0.039647014            4 
  745000     1.152941   -6.4660771    347.33456   0.03885174  0.039638042            3 
  746000    1.1502393   -6.4770917    348.38094  0.038916548  0.039629138            3 
  747000    1.1570031   -6.4533134    347.88291  0.038808892  0.039620356            3 
  748000    1.1242923    -6.495993    349.13579   0.03889659    0.0396113            1 
  749000    1.1341517   -6.5198146    348.54458  0.038778881  0.039601903            2 
  750000    1.1032507   -6.4564775    348.42525  0.038713917  0.039592101            3 
  751000    1.1337958   -6.4920119    349.34906  0.038764876  0.039582909            1 
  752000    1.1300965   -6.4702982    350.28871  0.038817454  0.039573528            1 
  753000    1.1131062   -6.5051034    349.36707  0.038663908  0.039563613            2 
  754000    1.1346532   -6.5393687    349.57143  0.038635215  0.039553898            4 
  755000    1.1479184   -6.5049938    349.73241  0.038601811  0.039543839            3 
  756000    1.1248157     -6.51128    350.78912  0.038667231  0.039534089            5 
  757000    1.1329768   -6.4963843    351.81194  0.038728748  0.039524141            3 
  758000    1.1214153   -6.5365235    351.59228  0.038653505   0.03951449            2 
  759000    1.1188822   -6.5376056    351.49938  0.038592378  0.039504649            3 
  760000    1.1283226    -6.503933    352.58765  0.038660927  0.039494897            2 
  761000    1.1309899   -6.4978851    353.47896  0.038707727  0.039485418            4 
  762000    1.1545446   -6.5279604    353.43918  0.038652578  0.039475909            2 
  763000    1.1284579    -6.524826    354.12367  0.038676679  0.039466531            2 
  764000    1.1243183   -6.4763268    354.52611  0.038669951  0.039457502            1 
  765000    1.1200575    -6.499385    354.51584  0.038618283  0.039448468            2 
  766000     1.120851    -6.517671    354.81741  0.038600676   0.03943914            4 
  767000    1.1096785   -6.5139624    356.24459   0.03870541  0.039430113            2 
  768000    1.1247119   -6.4861029    355.12679  0.038533722  0.039420814            4 
  769000    1.1408056   -6.5225979    355.92048  0.038569623  0.039411776            2 
  770000    1.1107029   -6.4956847    356.39948  0.038571372  0.039402572            2 
  771000    1.1188481   -6.4891856    357.78817  0.038671441  0.039393058            1 
  772000    1.1334933   -6.4938529    357.00552  0.038536866    0.0393837            5 
  773000    1.1243084   -6.5305988    358.26284  0.038622558  0.039374098            4 
  774000    1.1397349   -6.5118357    358.28511  0.038575054  0.039364792            3 
  775000     1.100743   -6.5158698    358.56456  0.038555329  0.039355771            5 
  776000    1.1317113   -6.5298438     358.1729  0.038463585  0.039346229            3 
  777000    1.1115525   -6.5012226    360.27568  0.038639605    0.0393364            6 
  778000    1.1192405   -6.4974159    358.93475   0.03844631  0.039326555            3 
  779000    1.1251101    -6.492906    359.91334  0.038501641  0.039316775            2 
  780000    1.1408972   -6.4724997    360.12952  0.038475376  0.039306875            2 
  781000    1.1244925   -6.5186052    359.75684  0.038386347  0.039296871            4 
  782000     1.132577    -6.486565      361.659  0.038539961  0.039286779            3 
  783000    1.1337284   -6.5046067    360.26125  0.038341981  0.039276785            2 
  784000    1.1084653   -6.5095786    361.78334  0.038454862  0.039267365            1 
  785000    1.1406231   -6.5470847    362.19402  0.038449472  0.039257446            2 
  786000    1.1292621   -6.5327705    362.53928  0.038437158  0.039247547            2 
  787000    1.1369773   -6.5125884    362.82658   0.03841874  0.039237762            2 
  788000    1.1394325   -6.5003476    362.39671  0.038324525  0.039227647            5 
  789000      1.11966    -6.516735    362.53324  0.038290372  0.039217723            2 
  790000    1.1338778   -6.5005708    362.70809  0.038260347  0.039207794            3 
  791000    1.1494013   -6.5183936    364.45251  0.038395755  0.039197772            3 
  792000    1.1352858   -6.4640916    364.62081  0.038364984    0.0391878            3 
  793000    1.1247828   -6.5142775    364.95204  0.038351412   0.03917781            4 
  794000     1.129047    -6.546228    365.17473  0.038326483  0.039168083            3 
  795000    1.1204408   -6.4790586     367.6744  0.038540293  0.039158587            2 
  796000    1.1082453   -6.5318212     366.4521  0.038363914   0.03914932            3 
  797000    1.1039772   -6.5518854    366.37164  0.038307365  0.039139908            3 
  798000    1.1362814   -6.5072837    367.65617  0.038393502  0.039130268            3 
  799000    1.1237458   -6.4971062    367.91168  0.038372099  0.039120512            5 
  800000     1.136352   -6.5254097    365.82565  0.038106839  0.039110539            6 
  801000    1.1132553   -6.5413195    368.13344  0.038299359  0.039100816            2 
  802000    1.1448467   -6.5185966    369.49426  0.038393003   0.03909114            3 
  803000    1.1184152   -6.4976495    368.60223  0.038252619  0.039081986            2 
  804000      1.10832   -6.5008107    368.82465  0.038228093  0.039072671            3 
  805000    1.1385374   -6.4995617    370.33009  0.038336448  0.039063221            2 
  806000    1.1287892   -6.5168794    369.77711  0.038231711  0.039053273            1 
  807000    1.1395807   -6.5053443    371.22444  0.038333792   0.03904347            3 
  808000    1.1214824   -6.5349258    370.82113  0.038244754  0.039033959            5 
  809000    1.1112219   -6.4923239    371.18506  0.038234967  0.039024625            5 
  810000    1.1258267   -6.5343594    372.27609  0.038300009  0.039015364            3 
  811000    1.1184412    -6.484319     373.5704  0.038385778  0.039006438            3 
  812000    1.1276589   -6.5115499     372.5132  0.038230008  0.038997865            3 
  813000    1.1336348    -6.528955    373.37225  0.038271038  0.038988938            5 
  814000    1.1208272   -6.4771559    375.24592  0.038415839   0.03897998            6 
  815000    1.1208944   -6.5469686    373.64086  0.038204587  0.038971016            3 
  816000    1.1391202   -6.5545624    375.31969  0.038329217  0.038961969            1 
  817000    1.0988209   -6.5085896    374.35131  0.038183528  0.038953013            5 
  818000    1.1082295   -6.5245464    374.91441  0.038194215   0.03894441            7 
  819000    1.1011297   -6.5266537    376.70644  0.038329919  0.038935636            2 
  820000    1.1365566   -6.4851206    377.67989  0.038382102  0.038927485            3 
  821000    1.1261844   -6.5296221    377.70894  0.038338301  0.038919478            2 
  822000     1.117398   -6.5214387    377.48722  0.038269183  0.038911451            3 
  823000     1.138883   -6.5143918     378.2208  0.038296962  0.038903239            3 
  824000    1.1077809   -6.5201333    377.84295  0.038212273  0.038894553            3 
  825000    1.1231568   -6.5195346    378.77372  0.038259972  0.038885705            4 
  826000    1.1240774   -6.5387716    377.91646  0.038127165   0.03887678            2 
  827000    1.1150997   -6.5343607    378.51149  0.038141021  0.038868068            5 
  828000     1.134923   -6.5188847    379.62583  0.038207109  0.038859206            4 
  829000    1.1101859    -6.561657    379.02964  0.038101089  0.038850346            3 
  830000    1.1052482   -6.5070128    381.75814   0.03832913  0.038841439            2 
  831000    1.1322342   -6.5189916     381.4422  0.038251324  0.038832787            3 
  832000     1.121311    -6.533878    381.06785  0.038167854   0.03882392            2 
  833000    1.1160632   -6.5357224     380.6556  0.038080792   0.03881516            2 
  834000     1.123826   -6.5133266    382.07644  0.038177102  0.038806601            2 
  835000    1.1302546   -6.5194426    383.11378  0.038234908  0.038798413            5 
  836000    1.1342605   -6.5724995    384.46372  0.038323736   0.03879028            9 
  837000    1.1166309   -6.5410276    383.80155  0.038212022   0.03878235            4 
  838000     1.118634   -6.5131666    383.87826  0.038174051  0.038774486            2 
  839000    1.0965778    -6.543896    384.12962  0.038153518  0.038766369            3 
  840000    1.1031229   -6.5060747    384.45303  0.038140182  0.038758031            2 
  841000    1.1501286   -6.5006025    385.19591  0.038168441  0.038749962            2 
  842000    1.1134318    -6.488534    386.77369  0.038279264   0.03874196            2 
  843000    1.1073926   -6.4979129    387.32767  0.038288619   0.03873429            1 
  844000    1.1074461   -6.5602719    386.65019  0.038176361  0.038726291            3 
  845000    1.1082512   -6.5278154    387.25825  0.038191148  0.038718321            1 
  846000    1.1276299   -6.5439819    387.60604  0.038180264  0.038710434            3 
  847000    1.1291836   -6.5299593    387.51437  0.038126168  0.038702286            6 
  848000    1.1561642   -6.5273213    388.24872  0.038153373  0.038694105            2 
  849000    1.1057036   -6.5189026    388.60954   0.03814385  0.038686065            3 
  850000    1.1131495   -6.5465616    389.41493  0.038177934  0.038678183            2 
  851000    1.1440558   -6.5554213     389.2797   0.03811983  0.038669812            2 
  852000    1.1140395    -6.547805    389.58318  0.038104771   0.03866166            4 
  853000    1.1430266   -6.5567975    391.35587  0.038233281  0.038653363            3 
  854000    1.1243029   -6.5374606    390.11802  0.038067722  0.038645605            3 
  855000    1.1091791    -6.555142    389.49113  0.037962099  0.038637564            4 
  856000    1.1175296   -6.5159006    390.79112  0.038044307  0.038629181            4 
  857000    1.1194083   -6.5521734    390.64218  0.037985431   0.03862073            3 
  858000    1.1244603   -6.5364372    390.80519  0.037956992  0.038612494            5 
  859000    1.1284871    -6.529067    391.55071  0.037985129   0.03860394            5 
  860000    1.1087936   -6.5151972    391.92722  0.037977444  0.038595583            2 
  861000      1.11537   -6.5363427    391.97352  0.037937817  0.038587103            7 
  862000    1.1226481   -6.4908981    392.95808  0.037988987  0.038578893            4 
  863000    1.1488694   -6.5325743    393.81697  0.038027903  0.038570776            4 
  864000    1.0875586   -6.5488589    394.15065  0.038016073  0.038562937            2 
  865000    1.1258089   -6.5338678     396.4943   0.03819791    0.0385549            3 
  866000    1.1267006   -6.5135232    395.23875  0.038032982  0.038546904            2 
  867000    1.0975222   -6.5573201    393.72085  0.037843219  0.038538575            6 
  868000    1.1035489   -6.5507117     396.2312   0.03804063  0.038529907            1 
  869000    1.1251178   -6.5558371     395.5955  0.037935894  0.038521417            4 
  870000    1.1246842   -6.5134822    396.94932  0.038021965  0.038513084            4 
  871000    1.1367137   -6.5465554    396.45008  0.037930547  0.038504503            4 
  872000    1.1244156   -6.5015778    395.84761  0.037829474  0.038495856            4 
  873000    1.1331329    -6.524343    395.98063  0.037798839  0.038487372            2 
  874000    1.1199476    -6.548685    396.26913  0.037783098  0.038478253            3 
  875000    1.1185637    -6.517625    397.52722  0.037859735  0.038469218            2 
  876000    1.0934566   -6.5371865    398.26206  0.037886421   0.03846041            2 
  877000    1.1334674   -6.5443701    399.06866  0.037919865  0.038451596            3 
  878000     1.100582   -6.5247006    398.56424    0.0378288  0.038442649            3 
  879000    1.0865438   -6.5357933    398.66216  0.037795047  0.038433481            3 
  880000    1.1114615   -6.5865753    398.27426  0.037715365   0.03842431            4 
  881000    1.1058842   -6.5527641    399.07168  0.037747983  0.038415622            2 
  882000     1.087547   -6.5443088     400.8685  0.037874953  0.038407057            4 
  883000    1.1070703   -6.5568563    399.81353  0.037732496  0.038398167            3 
  884000     1.139083   -6.5170379      398.882  0.037601999   0.03838933            4 
  885000    1.0977793   -6.5247157    401.60637  0.037816042   0.03838063            2 
  886000    1.1242246   -6.5042274    401.25104   0.03773994   0.03837192            2 
  887000    1.1368204   -6.5388313    400.79708  0.037654743  0.038363089            2 
  888000    1.0859601    -6.486745    402.35596  0.037758629  0.038354549            2 
  889000    1.1176102   -6.6048854    402.90117  0.037767264  0.038345704            2 
  890000    1.1209067    -6.539908    401.97125  0.037637757  0.038336535            6 
  891000    1.0737655   -6.5239469    403.97151  0.037782596  0.038327464           10 
  892000    1.1042656   -6.5921085    403.05759  0.037654857  0.038318774            3 
  893000    1.1227633   -6.5249824    402.30696  0.037542643  0.038310155            4 
  894000    1.1142193   -6.5603836    404.47826  0.037703044   0.03830139            3 
  895000    1.1138248   -6.5068585    404.56067  0.037668592  0.038292714            3 
  896000    1.1162295   -6.5086117    405.13572  0.037680033  0.038284164            1 
  897000    1.1075752   -6.5199092    406.25882  0.037742366  0.038275468            2 
  898000    1.0995693   -6.5598418    406.99794  0.037768925  0.038266952            1 
  899000    1.1368004   -6.5134385    406.36307  0.037668064  0.038258169            5 
  900000    1.1302321   -6.5475446    407.07419  0.037692055  0.038249364            4 
  901000    1.1090476   -6.5618535    407.04512  0.037647533  0.038241033            7 
  902000    1.1202168   -6.5545625    409.16388  0.037801541  0.038232929            3 
  903000    1.1054506   -6.5440377    408.08114  0.037659758   0.03822487            4 
  904000    1.0928828   -6.5654646    408.82331  0.037686515  0.038216729            2 
  905000    1.0967012   -6.5519348    409.71684  0.037727149  0.038208735            3 
  906000    1.1071767   -6.5321497    410.33499  0.037742365  0.038200638            3 
  907000    1.0931555   -6.5269844    409.20006  0.037596477  0.038192716            2 
  908000     1.111949   -6.5476792    410.25221  0.037651635  0.038184399            4 
  909000    1.0926273   -6.5295669    411.23869   0.03770065  0.038176162            2 
  910000    1.1192622   -6.5397395    411.80747  0.037711307  0.038167983            4 
  911000    1.1075235   -6.5285414    409.91432  0.037496736  0.038159538            2 
  912000    1.0874536    -6.528743    411.02763   0.03755735  0.038151238            3 
  913000    1.1020097   -6.4969111    412.88937  0.037686141  0.038143314            3 
  914000    1.0989832   -6.5265871    412.38369  0.037598805  0.038135169            3 
  915000    1.1259331   -6.5402573    414.14263  0.037717908  0.038127347            4 
  916000    1.1042849   -6.5676565    413.99634  0.037663423  0.038119528            6 
  917000    1.1052613   -6.5587345    414.09486  0.037631303  0.038111496            2 
  918000    1.1117201   -6.5245752    414.07792  0.037588773  0.038102945            2 
  919000    1.1090276   -6.5016597    414.87659  0.037620293  0.038094631            3 
  920000    1.0937262    -6.507709    414.88028  0.037579735  0.038086434            5 
  921000    1.0876043   -6.5355698    414.47521  0.037502281  0.038078118            2 
  922000    1.0916833   -6.5542818    415.45532  0.037550192  0.038069686            3 
  923000    1.0970159   -6.5449742    414.26648  0.037402174  0.038061214            4 
  924000    1.0957413    -6.532259    416.09974  0.037527033  0.038052658            2 
  925000     1.096784   -6.5604629    416.50239  0.037522738  0.038044218            5 
  926000    1.0983735    -6.567367    416.17985  0.037453191  0.038035739            4 
  927000    1.0974127   -6.5691024    416.96199  0.037483099  0.038027319            2 
  928000    1.0787926   -6.5112629    416.73802  0.037422595  0.038018909            2 
  929000    1.1052924   -6.5362707    416.85755  0.037393034  0.038010402            5 
  930000    1.1038972    -6.554244    418.92119  0.037537741  0.038002171            2 
  931000    1.1211418   -6.5223472    418.78985  0.037485665  0.037993959            2 
  932000    1.0921328    -6.523242    418.70807  0.037438132  0.037985844            5 
  933000    1.0876223   -6.5233186    419.37194  0.037457301  0.037977342            7 
  934000    1.0807383   -6.5829901    419.31793  0.037412378  0.037969104            2 
  935000    1.0994723   -6.5781546    419.78585  0.037414068  0.037960637            2 
  936000    1.1206015   -6.5740534    420.87236   0.03747083  0.037952414            1 
  937000    1.1016204   -6.5562541    418.46919  0.037217111  0.037943779            3 
  938000    1.1257181   -6.5172081    420.89908  0.037393309  0.037935091            3 
  939000    1.1144626   -6.5559066    420.51057  0.037319007  0.037926592            3 
  940000    1.1471337   -6.5207682    421.27882  0.037347413  0.037918135           11 
  941000    1.0910408   -6.5491466    420.89559  0.037273786  0.037909323            2 
  942000    1.0976384   -6.5908415    421.46062  0.037284202  0.037900339            3 
  943000     1.084171   -6.6004239    421.48773   0.03724706  0.037890839            4 
  944000    1.0619457   -6.5787631    421.62036  0.037219311  0.037881853            3 
  945000    1.1193125   -6.5440476    423.35097  0.037332537  0.037872862            4 
  946000    1.1134961   -6.5922736    422.84355  0.037248375  0.037863942            4 
  947000    1.0846626   -6.5567001    423.16696  0.037237501   0.03785476            8 
  948000    1.1022699   -6.5675127    423.68334  0.037243613  0.037845602            2 
  949000    1.1175558   -6.5502039    423.68061  0.037204128  0.037836477            3 
  950000    1.0688439   -6.5548004    424.19487  0.037210077  0.037827242            2 
  951000    1.0893723   -6.5822503    423.00036  0.037066278  0.037817674            2 
  952000     1.097294    -6.570016    424.13386  0.037126564   0.03780788            3 
  953000    1.0895286   -6.5652264    424.75794  0.037142177   0.03779814            3 
  954000     1.099588   -6.5781208    425.58874  0.037175816  0.037788591            3 
  955000    1.1119697   -6.5165995    425.47433  0.037126905  0.037779024            3 
  956000    1.0935285   -6.5678924    424.84201  0.037032951  0.037769516            5 
  957000    1.1100921   -6.5754053    425.15079  0.037021142  0.037759618            2 
  958000     1.087283   -6.6085492    425.24172  0.036990407  0.037749992            2 
  959000    1.0857691   -6.5604663    425.70922  0.036992459  0.037740036            2 
  960000    1.1185556   -6.5887295    426.73246  0.037042748  0.037730413            4 
  961000     1.100623   -6.5680301    426.55156  0.036988516  0.037720632            3 
  962000    1.0922919   -6.5692049    425.98712  0.036901171  0.037711051            3 
  963000    1.1139692   -6.5338213    429.57229  0.037173095  0.037701555            4 
  964000    1.1150065   -6.5778363    428.63199  0.037053249  0.037691959            3 
  965000    1.1187805   -6.5617385    427.34322   0.03690356  0.037681935            2 
  966000    1.0785831   -6.5653172    429.33001   0.03703675  0.037672213            3 
  967000    1.0882251    -6.590745    429.31405  0.036997074  0.037662725            3 
  968000    1.0914262   -6.5683639    429.58807  0.036982444  0.037653101            4 
  969000    1.0839838    -6.566944    429.80646   0.03696306  0.037643421            2 
  970000    1.1114333   -6.5318774    430.87658  0.037016889  0.037633895            2 
  971000    1.1101044   -6.5592192    430.58622  0.036953846  0.037624299            2 
  972000    1.1002666   -6.5506682    430.25645  0.036887556  0.037614723            2 
  973000    1.1046224     -6.55145     430.2823  0.036851858  0.037604962            5 
  974000    1.0754366   -6.5380444     430.8831  0.036865426  0.037595272            5 
  975000    1.1029481   -6.5437154    432.28419  0.036947367  0.037585799            6 
  976000    1.0972838   -6.5543082    432.14487  0.036897615  0.037576274            4 
  977000    1.0923652   -6.5247179    433.29618   0.03695805  0.037566824            7 
  978000    1.0812819   -6.5542596    432.39304  0.036843306  0.037557443            5 
  979000    1.0839367   -6.5443609    432.75025  0.036836079  0.037547526            2 
  980000    1.1042649   -6.5723069    433.59226   0.03687009  0.037537804            2 
  981000    1.0796484   -6.5465787    433.11088  0.036791614  0.037527494            2 
  982000    1.0869766   -6.5748793    433.15323  0.036757742  0.037517103            2 
  983000    1.0727986   -6.5289927    432.64298  0.036677092  0.037506819            3 
  984000    1.0701325   -6.5725577    433.66889  0.036726701  0.037496571            3 
  985000    1.0811113   -6.5673724    434.27355  0.036740571  0.037486073            4 
  986000    1.0854519   -6.5654522    433.25778   0.03661746  0.037475604            4 
  987000    1.0900719   -6.5438818    434.77157  0.036708171  0.037465374            3 
  988000    1.0995383    -6.562394    434.30334  0.036631524  0.037454704            4 
  989000     1.108658   -6.5845416    435.58228  0.036702248   0.03744424            7 
  990000    1.1107851   -6.5639186    436.12257  0.036710654  0.037433565            5 
  991000    1.0775994    -6.594781    435.06513  0.036584689   0.03742308            5 
  992000    1.1102366    -6.535294    434.68361   0.03651576  0.037412513            5 
  993000    1.0932812   -6.5847763    436.20955  0.036607045  0.037402108            5 
  994000    1.1144209   -6.5818782    435.55791  0.036515586  0.037391408            4 
  995000    1.0755435   -6.5549974      435.304  0.036457621  0.037380494            4 
  996000    1.1285911   -6.5451449    437.03503  0.036565849   0.03736985            3 
  997000    1.1040237   -6.5438384    438.12807  0.036620534  0.037359226            4 
  998000    1.0842431   -6.5959061    437.54657  0.036535284  0.037348573            3 
  999000    1.0870757   -6.5714387    438.57925  0.036584856  0.037338137            3 
 1000000    1.0924708   -6.5728424    437.73763  0.036478136  0.037327681           11 
 1001000    1.0859968   -6.5724037    439.48601  0.036587247  0.037317253            2 
 1002000    1.0892588   -6.5978124    437.65703  0.036398622  0.037306758            2 
 1003000    1.1299621   -6.5459139    439.82793    0.0365427   0.03729652            3 
 1004000     1.074374   -6.5525787    441.73462   0.03666456  0.037286407            6 
 1005000    1.0851484   -6.5609709    441.41575  0.036601637   0.03727681            3 
 1006000    1.0646178   -6.5865704     442.1048  0.036622333  0.037267093            2 
 1007000    1.0891582   -6.5445522    442.22559   0.03659596  0.037257406            2 
 1008000    1.0909507   -6.5641739    443.36288  0.036653677   0.03724795            2 
 1009000    1.0885212   -6.5795486    442.20591  0.036521796  0.037238226            1 
 1010000      1.07633   -6.5646569    442.94055   0.03654625   0.03722842            3 
 1011000    1.0992708   -6.5536361     443.7203  0.036574373  0.037218707            2 
 1012000    1.0996731   -6.5730965    443.73222  0.036539214  0.037208937            2 
 1013000    1.0931889   -6.5661104    444.36753  0.036555407  0.037199195            5 
 1014000    1.0838532   -6.5611111    445.02855  0.036573681  0.037189643            5 
 1015000    1.0906593   -6.5503167    446.12423  0.036627605  0.037180449            4 
 1016000    1.1128338   -6.5536357    445.12012  0.036509197   0.03717095            3 
 1017000    1.0836333   -6.5705716    446.60623   0.03659507  0.037161358            3 
 1018000    1.0889478   -6.5852202    446.14387  0.036521273  0.037152137            2 
 1019000     1.082941   -6.5758691    446.86964  0.036544785   0.03714288            2 
 1020000    1.0924612   -6.5946846    447.37865  0.036550544  0.037133529            3 
 1021000    1.1032263   -6.5677034    447.68819  0.036540009  0.037124085            3 
 1022000    1.0907256   -6.6053097    446.58658  0.036414431  0.037114493            4 
 1023000    1.1032476   -6.6003379    446.98496  0.036411287  0.037104875            3 
 1024000     1.072217   -6.6149406     448.1246  0.036468473  0.037095123            5 
 1025000    1.0934093   -6.6007944    446.59568  0.036308592  0.037085236            3 
 1026000    1.0750221   -6.6191934    447.42832  0.036340832  0.037075218            5 
 1027000    1.1048792   -6.5436774    449.17052  0.036446812  0.037065181            5 
 1028000    1.0640182   -6.5700076     449.0539  0.036401905  0.037055544            2 
 1029000    1.0840157   -6.5541468    450.10017  0.036451261  0.037046117            2 
 1030000     1.097871    -6.534569     449.1034  0.036335227  0.037036412            3 
 1031000    1.1107683    -6.588068    450.91712  0.036446583  0.037026997            2 
 1032000    1.0939884   -6.5839791    452.74518  0.036558881  0.037017578            3 
 1033000    1.0917083   -6.5630228    452.24513  0.036483151  0.037008225            3 
 1034000    1.0747382   -6.5737271    451.61043  0.036396714  0.036999006            3 
 1035000    1.0935268   -6.5558745    451.57766   0.03635891  0.036989774            3 
 1036000    1.0832152   -6.5929769    451.90133   0.03634985  0.036980596            2 
 1037000    1.0701727   -6.5845155    452.20083  0.036338865  0.036971185            3 
 1038000    1.0754029   -6.6103546    451.66927  0.036261181  0.036961521            3 
 1039000    1.0867697   -6.6100916    452.81873  0.036318474  0.036951956            2 
 1040000     1.076349   -6.5888543    453.85758  0.036366793  0.036942565            4 
 1041000    1.0908268   -6.6025783    454.02785  0.036345489  0.036932994            4 
 1042000    1.0759453   -6.6153979    452.04648   0.03615215  0.036923035            2 
 1043000    1.1014656   -6.6054851    453.96719  0.036270949  0.036913486            2 
 1044000    1.1152102   -6.6167958    455.14415  0.036330152  0.036903798            7 
 1045000    1.0747219    -6.576246    455.12253  0.036293663  0.036894244            4 
 1046000    1.1082468    -6.622111     455.1618  0.036262094  0.036884792            2 
 1047000    1.1048865   -6.6103529    455.38108  0.036244912  0.036875169            4 
 1048000    1.0769177   -6.5827733    454.39124  0.036131619  0.036865868            4 
 1049000    1.0778406   -6.5929308    455.78393  0.036207811  0.036856558            5 
 1050000    1.0857066   -6.5833624    455.85767   0.03617918  0.036847221            3 
 1051000    1.0863382   -6.5809866    458.12414  0.036324464  0.036837675            3 
 1052000    1.0691279   -6.5914244    458.57294  0.036325486  0.036828275            2 
 1053000    1.0905635   -6.5906394    457.34318  0.036193667  0.036818752            3 
 1054000    1.0906404   -6.5920751    458.16362  0.036224195  0.036809096            2 
 1055000    1.0699856     -6.60315    458.43511  0.036211304  0.036799628            4 
 1056000    1.1034023   -6.5977554    457.80857   0.03612757  0.036789958            3 
 1057000    1.0475051   -6.5944754    458.30596  0.036132605  0.036780215            3 
 1058000    1.0987899   -6.6036455    459.88761  0.036223032   0.03677049            2 
 1059000    1.0758265   -6.5632274     460.0679  0.036203014  0.036760917            2 
 1060000    1.0743903   -6.5618083    460.71804  0.036219971  0.036751267            2 
 1061000      1.09363   -6.5464929    461.89122  0.036277978  0.036741767            2 
 1062000    1.0918092   -6.5769189    461.55023  0.036217061  0.036732163            3 
 1063000    1.0672633   -6.5964813    460.42591  0.036094851  0.036722687            4 
 1064000    1.0887509   -6.5831138    462.03409   0.03618688  0.036713292            3 
 1065000    1.0720973   -6.5291297    463.58971  0.036274625  0.036703997            2 
 1066000    1.0805343   -6.5798613    463.16016  0.036207017  0.036694767            2 
 1067000    1.0902043   -6.5999185    463.03231  0.036163098  0.036685528            3 
 1068000    1.0908547   -6.5524375    464.31005  0.036228937  0.036676451            4 
 1069000    1.0668572   -6.5858899    464.88884  0.036240165  0.036667615            3 
 1070000    1.0964011   -6.5642552    464.64236    0.0361871  0.036658617            4 
 1071000    1.0960316   -6.5780163    465.11349  0.036189969  0.036649825            5 
 1072000     1.065509   -6.5748427    464.59654  0.036116024  0.036640846            2 
 1073000    1.0695858   -6.5719695    465.45354  0.036148924   0.03663176            3 
 1074000    1.0924656    -6.613811    464.99616  0.036079776  0.036622838            3 
 1075000    1.0791566   -6.6215575    465.10161  0.036054389  0.036613593            3 
 1076000    1.0664819   -6.5929669    464.38463  0.035965353   0.03660401            3 
 1077000    1.0895113    -6.601763    466.32834  0.036082354   0.03659485            3 
 1078000    1.0882226   -6.5647926    467.72663  0.036156975   0.03658559            3 
 1079000    1.0752324   -6.5842644    467.12759  0.036077201  0.036576496            2 
 1080000     1.064741   -6.6016565     465.2313  0.035897477   0.03656728            3 
 1081000    1.0719514   -6.6479794    466.67382  0.035975472  0.036557771            3 
 1082000    1.0893392   -6.6017591    466.59811  0.035936392  0.036548432            2 
 1083000    1.0839402   -6.6045117     468.7361  0.036067721  0.036538948            2 
 1084000    1.0804775   -6.6003396    469.27427   0.03607582  0.036529579            5 
 1085000    1.0839819   -6.6086382    467.89695  0.035936786  0.036520297            3 
 1086000    1.0924149   -6.5802512    469.21006  0.036004455   0.03651105            4 
 1087000    1.0926074   -6.5781833     469.8366  0.036019365  0.036501738            5 
 1088000    1.0619711   -6.5866919    468.68186  0.035897814  0.036492735            2 
 1089000    1.0912877   -6.6007389    469.65423  0.035939258  0.036483917            6 
 1090000    1.0590832   -6.5992891    471.35021  0.036035949  0.036475063            2 
 1091000    1.0989929   -6.6003757    470.77371  0.035958884  0.036466079            5 
 1092000    1.0828336   -6.5737514    471.88535  0.036010787  0.036457186            3 
 1093000    1.0797682     -6.61434    471.50825  0.035949089  0.036448302            4 
 1094000    1.0610665   -6.6329214    471.43353  0.035910537  0.036439518            2 
 1095000    1.0739182   -6.6339753    472.42741   0.03595338  0.036430742            5 
 1096000    1.0912506   -6.6138431    472.79028  0.035948166  0.036421891            2 
 1097000    1.0996029   -6.5803863    474.97238   0.03608116  0.036413166            5 
 1098000    1.0636684   -6.5488251    472.64116  0.035871369  0.036404455            3 
 1099000    1.0676559   -6.5872373    472.92458   0.03586022  0.036395662            3 
 1100000    1.0922148   -6.6343153    474.47851  0.035945342  0.036386665            3 
 1101000    1.0686303   -6.6462051    474.23375  0.035894169  0.036377774            3 
 1102000    1.0868003   -6.5872722    475.45103  0.035953647  0.036369044            4 
 1103000    1.0712179   -6.6133859    475.40404  0.035917501  0.036360246            7 
 1104000    1.0765837   -6.6071553    476.75237  0.035986743  0.036351837            3 
 1105000    1.0805461   -6.5849372     477.0904  0.035979668  0.036343281            3 
 1106000    1.0761425   -6.5534685    475.36104  0.035816835  0.036334893            6 
 1107000    1.0837477   -6.5764234    478.06483  0.035988018  0.036326491            3 
 1108000    1.0775924   -6.6169386    477.47106   0.03591088  0.036318118            3 
 1109000    1.0805621   -6.6158855    477.45071   0.03587697  0.036309505            3 
 1110000     1.057106     -6.59522    478.95038  0.035957235  0.036300825            4 
 1111000    1.0851559   -6.6247064    477.30222  0.035801247   0.03629216            2 
 1112000    1.0672441   -6.5940948    479.60085  0.035941311  0.036283932            6 
 1113000    1.0688294   -6.6226466    478.48752  0.035825661  0.036275567            3 
 1114000    1.0817736   -6.5966019    479.37854  0.035860154  0.036267342            3 
 1115000    1.0893112   -6.5987348    480.69494  0.035926378  0.036259178            3 
 1116000    1.0800862   -6.6019418    481.64784  0.035965341  0.036251072            3 
 1117000     1.053519   -6.6127232    480.48482  0.035846375  0.036242959            3 
 1118000    1.0705092   -6.6225773    480.60881  0.035823555  0.036234324            2 
 1119000    1.0588412   -6.6133726     481.2156  0.035836729  0.036225674            4 
 1120000    1.0859609   -6.5754518    481.25583  0.035807725   0.03621697            4 
 1121000    1.0809843    -6.605334    481.29172  0.035778451  0.036208197            2 
 1122000    1.0742477   -6.6138081    481.16733  0.035737324  0.036199449            3 
 1123000    1.0748568   -6.6269762    481.00676  0.035693586  0.036190786            2 
 1124000     1.081346   -6.6386111     482.3469  0.035761188  0.036182067            5 
 1125000    1.0747211    -6.625218    481.06439  0.035634399   0.03617314            3 
 1126000    1.0629887   -6.5956187    483.27825  0.035766596  0.036163955            2 
 1127000    1.0724494   -6.6403809    483.22303  0.035730777   0.03615484            3 
 1128000    1.0373391    -6.624878    483.97625  0.035754746  0.036145724            2 
 1129000    1.0855626   -6.5617773    483.62566    0.0356972  0.036136756            4 
 1130000    1.0679822   -6.6137349    484.64435  0.035740734  0.036127727            1 
 1131000    1.0756937   -6.6199237    485.04129   0.03573838  0.036119063            2 
 1132000    1.0595195   -6.6268613     485.9373  0.035772769  0.036110479            3 
 1133000    1.0972325   -6.6293763    484.89426  0.035664479  0.036101917            4 
 1134000    1.0770866   -6.6535926    486.41337  0.035744663  0.036093506            6 
 1135000    1.0478533   -6.5982673    487.24918  0.035774536  0.036085168            3 
 1136000    1.0915367   -6.6045262     487.4221  0.035755729  0.036076821            2 
 1137000     1.055371   -6.6423151    487.71439  0.035745705  0.036068312            2 
 1138000    1.0767122   -6.6411064    486.81838  0.035648681  0.036059767            4 
 1139000    1.0672077   -6.6352937    487.81975  0.035690646  0.036051333            3 
 1140000    1.0765273   -6.6236411     487.1151  0.035607829  0.036042928            4 
 1141000     1.095044   -6.5902923    488.90582  0.035707407  0.036034387            2 
 1142000    1.0823812   -6.6030384     488.3254  0.035633786  0.036025795            3 
 1143000    1.0767784   -6.6440281    487.63694  0.035552416  0.036017244            4 
 1144000    1.0893814   -6.6356328    488.38176  0.035575594  0.036008708            5 
 1145000    1.0792482   -6.6129999    488.87642  0.035580525  0.036000231            3 
 1146000    1.0756014     -6.61194    490.66488  0.035679529  0.035991784            3 
 1147000    1.0787779   -6.6272654    489.39555  0.035556201  0.035983453            9 
 1148000    1.0581843   -6.5892161    489.76006  0.035551688  0.035974927            3 
 1149000    1.0677529   -6.6308608    490.41566  0.035568296  0.035966286            3 
 1150000    1.0529593   -6.5957077    490.63785  0.035553467  0.035957614            3 
 1151000    1.0769448    -6.629382    490.91778  0.035542846  0.035948844            5 
 1152000    1.0621153   -6.6138041    492.49021  0.035625739  0.035940178            3 
 1153000     1.060578   -6.6259726     490.7911  0.035472037   0.03593148            2 
 1154000    1.0811006   -6.6325127    491.52473  0.035494276  0.035922808           10 
 1155000    1.0663779   -6.5962026    492.73553  0.035550904  0.035914042            4 
 1156000    1.0755723    -6.624645    492.60592  0.035510808  0.035905361            3 
 1157000    1.0551929   -6.6500829    491.16331  0.035376211    0.0358966            4 
 1158000    1.0479748   -6.6389908    491.98991  0.035405146  0.035887743            5 
 1159000    1.0536196   -6.6391109    492.94993  0.035443625  0.035878851            2 
 1160000    1.0609707   -6.6443806    492.40585  0.035373983  0.035870284            8 
 1161000    1.0787255   -6.6125623    494.45828  0.035490833  0.035861543            3 
 1162000    1.0718917   -6.6022341    493.00869  0.035356332  0.035852964            2 
 1163000    1.0609663   -6.6206232    495.76915  0.035523728  0.035844396            2 
 1164000     1.078901   -6.6127316    494.33605  0.035390611  0.035835634            3 
 1165000    1.0524528    -6.640427    495.63106  0.035452866  0.035826996            5 
 1166000    1.0553362    -6.610233    495.56796   0.03541795  0.035818577            2 
 1167000    1.0473309   -6.6191122    497.04955  0.035493399  0.035810181            9 
 1168000    1.0703733   -6.6354187    496.32517  0.035411328  0.035801795            3 
 1169000    1.0498925   -6.6280611    498.31719  0.035523039  0.035793334            1 
 1170000    1.0454222   -6.6047966    499.19972  0.035555536  0.035785137            4 
 1171000    1.0739774   -6.6517146    498.97915  0.035509476  0.035777086            6 
 1172000    1.0814713   -6.6079914    499.61638  0.035524486  0.035769103            6 
 1173000    1.0780897    -6.604348    500.56339   0.03556148  0.035761284            3 
 1174000    1.0669779   -6.6106648    499.74029  0.035472763  0.035753307            2 
 1175000    1.0678735   -6.6240014     500.7078  0.035511191  0.035745456            3 
 1176000    1.0748663   -6.6198591    499.55654  0.035399415  0.035737449            3 
 1177000    1.0923935   -6.6417925    500.42871   0.03543109  0.035729463            7 
 1178000    1.0947834    -6.610803    500.11838  0.035379059  0.035721321            6 
 1179000    1.0585454   -6.6028437    501.00938  0.035412029  0.035713349            2 
 1180000    1.0446501   -6.6417831    501.79315  0.035437369  0.035705314            4 
 1181000     1.077262   -6.5961437    501.34845  0.035375984  0.035697266            6 
 1182000    1.0224123    -6.613955    502.47308  0.035425344  0.035689214            4 
 1183000    1.0765453   -6.6296925    501.84994  0.035351503  0.035680944            4 
 1184000    1.0840269   -6.6418558    501.86071  0.035322404  0.035672824            2 
 1185000    1.0906024   -6.6329185    501.07255   0.03523717  0.035664575            4 
 1186000    1.0467942   -6.6378621    502.79335  0.035328369  0.035656235            2 
 1187000    1.0514526   -6.6129312    503.86279  0.035373687  0.035647859            4 
 1188000    1.0634263   -6.6238034    503.27253  0.035302506  0.035639478            3 
 1189000    1.0750423   -6.6249492    505.11634  0.035402042  0.035631098            2 
 1190000    1.0604813   -6.6536911    504.67737  0.035341552  0.035622788            2 
 1191000     1.088096   -6.5860751    505.34527  0.035358611   0.03561443            4 
 1192000    1.0663656    -6.657347    505.35651  0.035329733  0.035606001            5 
 1193000    1.0540336   -6.6603209    504.62225   0.03524883  0.035597512            2 
 1194000    1.0691776   -6.6110788    506.03419  0.035317852  0.035589066            2 
 1195000    1.0646727   -6.6591151    504.89835   0.03520909  0.035580774            2 
 1196000    1.0596548   -6.6143744    506.74407  0.035308254   0.03557249            2 
 1197000    1.0787181   -6.6437695    505.44387   0.03518824   0.03556404            5 
 1198000    1.0797312   -6.6419323    506.49183  0.035231763  0.035555642            3 
 1199000    1.0553932   -6.6352453    506.06611   0.03517279  0.035547113            3 
 1200000    1.0514403   -6.6600649    506.49562  0.035173307  0.035538343            3 
 1201000    1.0535622   -6.6656923    505.35505   0.03506488  0.035529576           10 
 1202000    1.0581997   -6.6384848    506.53127  0.035117254  0.035521078            2 
 1203000    1.0494532   -6.6347711    507.18237  0.035133165  0.035512511            4 
 1204000    1.0789577   -6.6439556    506.46047  0.035054019  0.035503903            3 
 1205000    1.0561268   -6.6607974    508.60993  0.035173578  0.035495361            2 
 1206000    1.0552682   -6.6094383    507.83876  0.035091125   0.03548673            7 
 1207000    1.0492329   -6.6157093    508.29486  0.035093542  0.035478076            5 
 1208000    1.0865184   -6.6836368    507.81427  0.035031338   0.03546942            2 
 1209000    1.0464638   -6.6322696    508.16857  0.035026783  0.035460729            3 
 1210000    1.0547083   -6.6304565    509.81896  0.035111498  0.035451953            2 
 1211000    1.0490226   -6.6371512     510.0134  0.035095885  0.035443343           10 
 1212000    1.0508357   -6.6398847    511.74556  0.035186026  0.035434923            2 
 1213000    1.0746585   -6.6260748     510.8683   0.03509675  0.035426442            2 
 1214000    1.0728497   -6.6270483    511.82027  0.035133187  0.035418174            5 
 1215000    1.0576769   -6.6565552    511.25513   0.03506551  0.035409969            7 
 1216000    1.0322178     -6.64549    511.93976  0.035083591  0.035401626            3 
 1217000    1.0576489   -6.6467455    512.00343  0.035059122  0.035393227            2 
 1218000    1.0628144   -6.6547671    512.71866  0.035079273  0.035384729            4 
 1219000    1.0715423   -6.6448414    513.37196  0.035095158   0.03537639            2 
 1220000    1.0472694   -6.6417014    513.64421  0.035084987  0.035368086            4 
 1221000    1.0578419   -6.6159592    514.40294  0.035108035  0.035359716            4 
 1222000    1.0834491   -6.6360081    513.93974  0.035047718  0.035351594            2 
 1223000     1.058497   -6.6258687    514.15713  0.035033873  0.035343621            4 
 1224000    1.0655226   -6.6244429    516.60124  0.035171653  0.035335754            2 
 1225000    1.0561185   -6.6747328    515.61528   0.03507587  0.035327965            3 
 1226000    1.0556833   -6.6432969    516.59151  0.035113616  0.035320151            2 
 1227000    1.0595207   -6.6490653    518.50927  0.035215245  0.035312409            5 
 1228000    1.0534531     -6.62152      517.529  0.035120046  0.035304661            4 
 1229000    1.0561914   -6.6770021    514.31021  0.034873218  0.035296872            3 
 1230000    1.0693655   -6.6303289    519.17954  0.035174766  0.035289067            6 
 1231000    1.0415123   -6.6109821    518.72757  0.035115595  0.035281368            3 
 1232000    1.0358556   -6.6390163    519.20863  0.035119631  0.035273561            3 
 1233000    1.0619371   -6.6170413    519.05189  0.035080555  0.035265636            3 
 1234000    1.0664698   -6.6204629    517.98783   0.03498027  0.035257574            3 
 1235000    1.0520248   -6.6487945    521.06255  0.035159417  0.035249774            5 
 1236000    1.0647466   -6.6195612     519.0734  0.034996858  0.035242037            2 
 1237000    1.0537268   -6.6459886    519.57901  0.035002628  0.035234255            2 
 1238000    1.0462373   -6.6578509    521.34408  0.035093166   0.03522634            4 
 1239000    1.0480876   -6.6469902    520.40116  0.035001423  0.035218509            2 
 1240000    1.0325814   -6.6093612    522.05094  0.035084069  0.035210589            4 
 1241000     1.077741   -6.6608296    521.09993  0.034991937  0.035202754            3 
 1242000     1.053678    -6.643369    520.95742  0.034954202  0.035194784            2 
 1243000    1.0567364   -6.6646867    521.31823   0.03495027   0.03518692            3 
 1244000     1.056077   -6.6481236     521.8097  0.034955098  0.035179098            5 
 1245000    1.0364585   -6.6543416    522.17463  0.034951448   0.03517112            5 
 1246000    1.0722739   -6.6398611    521.42208  0.034873066  0.035163227            3 
 1247000    1.0454428   -6.6623682    522.98751  0.034949713  0.035155322            3 
 1248000     1.045775   -6.6234599    523.01255  0.034923381  0.035147346            3 
 1249000    1.0667988   -6.6589061    523.55005  0.034931282  0.035139389            3 
 1250000    1.0572783   -6.6778002    522.78035  0.034852023  0.035131349            3 
 1251000    1.0470857   -6.6138774    523.19437  0.034851743  0.035123381            3 
 1252000    1.0706766   -6.6442877    523.22698  0.034826077   0.03511539            3 
 1253000    1.0401329   -6.6440478    524.22373  0.034864574  0.035107277            1 
 1254000      1.02883   -6.6355126    525.12384  0.034896587  0.035099317            2 
 1255000    1.0687264   -6.6692729     525.8586   0.03491757  0.035091354            3 
 1256000    1.0445009   -6.6278953    525.96324  0.034896712  0.035083251            2 
 1257000    1.0510693   -6.6677862    525.42544  0.034833296  0.035075117            3 
 1258000     1.058723   -6.6485358    527.57015  0.034947678  0.035067152            3 
 1259000    1.0410591   -6.6292588    528.91287  0.035008794  0.035059373            4 
 1260000    1.0512002   -6.6514046    526.94051  0.034850563  0.035051381            4 
 1261000    1.0638043   -6.6406334    526.63315  0.034802614  0.035043568            3 
 1262000    1.0596424   -6.6588994    526.75938  0.034783372  0.035035657            3 
 1263000    1.0406618   -6.6283724    528.29306  0.034857024  0.035027633            3 
 1264000    1.0384817   -6.6325446    529.06659  0.034880445  0.035019676            4 
 1265000    1.0543261   -6.6566104    528.12197  0.034790643  0.035011855            2 
 1266000    1.0419813   -6.5962634    530.09778  0.034893219  0.035003972            2 
 1267000    1.0383813   -6.5882593    529.30392  0.034813465  0.034996368            4 
 1268000     1.034351    -6.655087    529.35442  0.034789328  0.034988818            3 
 1269000    1.0598038   -6.6505043    529.50757  0.034771971  0.034981107            5 
 1270000    1.0397523   -6.6852503    529.96395  0.034774537  0.034973184            6 
 1271000    1.0357163   -6.6337986    529.91017  0.034743651  0.034965254            6 
 1272000    1.0813448   -6.6306979     529.4359  0.034685266  0.034957408            3 
 1273000    1.0316398    -6.669926    530.28382  0.034713526  0.034949365            4 
 1274000    1.0552311   -6.6571906    531.90664  0.034792428  0.034941373            2 
 1275000    1.0493816   -6.6741291     530.9508  0.034702666  0.034933576            4 
 1276000    1.0461968   -6.7126093    529.83664  0.034602707  0.034925544            3 
 1277000    1.0481478   -6.6772912     532.2544  0.034733385  0.034917663            3 
 1278000    1.0327457   -6.6319964    531.56855  0.034661486  0.034909755            3 
 1279000    1.0375592   -6.6489745    532.30096  0.034682106     0.034902            2 
 1280000    1.0639593   -6.6401692    534.37503  0.034790041  0.034894324            7 
 1281000     1.034398   -6.6642882    533.30964  0.034693575  0.034886672            3 
 1282000    1.0499192   -6.6320618    534.43681  0.034739782   0.03487908            3 
 1283000      1.05363   -6.6986843    532.84663   0.03460942  0.034871135            4 
 1284000    1.0664697   -6.6681155    535.90565     0.034781  0.034863592            3 
 1285000    1.0326547   -6.6448518    535.48315  0.034726534  0.034855945            3 
 1286000     1.052375    -6.668183      537.048  0.034800933  0.034848492            3 
 1287000    1.0438685   -6.6708447    536.54123   0.03474108  0.034841002            6 
 1288000    1.0387737   -6.6595742    535.89879  0.034672541  0.034833359            2 
 1289000    1.0553451    -6.647372    536.71642  0.034698502  0.034825803            9 
 1290000    1.0335363    -6.672984    538.25451  0.034770963   0.03481846            2 
 1291000    1.0356657   -6.6496522    537.29544  0.034682123  0.034811069            5 
 1292000     1.049585   -6.6557242     537.0759  0.034641119  0.034803514            3 
 1293000    1.0613604   -6.6687431    538.31008   0.03469387  0.034796008            6 
 1294000    1.0798103   -6.6637782    537.69501  0.034627448  0.034788561            5 
 1295000    1.0421273   -6.6702833    540.98589  0.034812477  0.034781269            3 
 1296000    1.0762805   -6.6741321     539.4336  0.034685803   0.03477393            3 
 1297000    1.0429016   -6.6415025    540.69998  0.034740425  0.034766721            4 
 1298000    1.0603066    -6.651186    539.54862  0.034639742  0.034759433            3 
 1299000    1.0534622   -6.6807747    539.98082  0.034640802  0.034751971            2 
 1300000    1.0515931   -6.6692588    538.80043  0.034538489  0.034744493            4 
 1301000    1.0336945   -6.6703882    541.21793   0.03466679  0.034737114            3 
 1302000    1.0382583    -6.676211    540.68914   0.03460632  0.034729536            3 
 1303000    1.0381019   -6.6359573    539.51114  0.034504422  0.034721809            3 
 1304000    1.0484609   -6.6912075    540.36869  0.034532764  0.034714088            4 
 1305000    1.0430677   -6.6192924    541.38592  0.034571259  0.034706305            8 
 1306000    1.0309802   -6.6044171    542.78831  0.034634272  0.034698851            3 
 1307000    1.0263636   -6.6699104    541.75122  0.034541649  0.034691285            2 
 1308000    1.0591089   -6.6590352    542.04724    0.0345341  0.034683556            5 
 1309000    1.0247801    -6.651085    542.30939  0.034524407  0.034675955            5 
 1310000     1.050164    -6.670017    541.52593  0.034448214  0.034668384           10 
 1311000    1.0448939   -6.6570727     544.9011   0.03463648  0.034660798            3 
 1312000    1.0334583   -6.6600101    542.55924  0.034461334  0.034653327            5 
 1313000    1.0688104   -6.6955141    543.11506  0.034470364  0.034645652            4 
 1314000    1.0751582   -6.6832634    543.88457  0.034492933  0.034637965            4 
 1315000    1.0382473   -6.6515436    544.70725  0.034518837  0.034630458            3 
 1316000    1.0316531   -6.6502833    545.35997  0.034533939  0.034622983            2 
 1317000    1.0489913   -6.6434191    544.97874  0.034483596  0.034615575            3 
 1318000    1.0105514   -6.6457267    546.91865  0.034580086  0.034608226            2 
 1319000    1.0448444   -6.6452915    544.54313  0.034403786  0.034600783            2 
 1320000    1.0502444   -6.6753471    545.55068  0.034441331   0.03459322            1 
 1321000    1.0302409   -6.6634226    545.79927  0.034430941  0.034585624            5 
 1322000    1.0370008   -6.6572308    546.31096  0.034437151  0.034578049            2 
 1323000    1.0335047   -6.6945249     546.3161  0.034411445  0.034570569            3 
 1324000    1.0226367   -6.6673514    547.28616   0.03444651  0.034562999            4 
 1325000    1.0248786   -6.6459171    548.13159  0.034473685  0.034555637            2 
 1326000    1.0463277   -6.6603454    547.65631  0.034417817  0.034548258            4 
 1327000    1.0573989    -6.684148      548.986  0.034475383  0.034540886            3 
 1328000    1.0393492   -6.6918926    547.71594  0.034369725  0.034533441            7 
 1329000    1.0456373   -6.6894046    548.34875  0.034383544  0.034525961            6 
 1330000    1.0088193   -6.6824199    550.64604  0.034501632  0.034518519            3 
 1331000    1.0570909   -6.6530389    548.11831   0.03431745  0.034511202            3 
 1332000    1.0410657   -6.6756211    549.50587  0.034378495  0.034503762            3 
 1333000    1.0385155   -6.6811316    549.12079  0.034328632  0.034496174            3 
 1334000    1.0295709   -6.6805041    548.37653  0.034256405  0.034488457            3 
 1335000    1.0463516   -6.6358394    549.43445  0.034296782  0.034480769            3 
 1336000    1.0368227   -6.6676728    549.38614  0.034268098  0.034473048            2 
 1337000    1.0316726   -6.6310991    549.76443  0.034266046  0.034465293            3 
 1338000    1.0428219   -6.6899666    550.74762   0.03430167  0.034457629            1 
 1339000    1.0510009   -6.6578894    550.63941  0.034269319  0.034450058            5 
 1340000    1.0454391    -6.649013    553.38634  0.034414573  0.034442413            3 
 1341000      1.02301   -6.6911245    552.71552  0.034347223   0.03443493            3 
 1342000    1.0236887   -6.6607589    551.75251   0.03426183  0.034427352            4 
 1343000    1.0211045   -6.6643528    553.50349  0.034344967  0.034419772            4 
 1344000    1.0193605    -6.689264     552.6332  0.034265452   0.03441225            3 
 1345000    1.0258212   -6.6619563     551.8324  0.034190359  0.034404635            4 
 1346000    1.0312982   -6.6682388    552.87862  0.034229731  0.034396985            3 
 1347000     1.034604   -6.6490297    552.29487  0.034168206  0.034389307            4 
 1348000    1.0386682   -6.6928155    552.35854  0.034146794  0.034381555            5 
 1349000    1.0430026   -6.6973615    553.62384  0.034199644  0.034373815            3 
 1350000    1.0357428   -6.6723902    555.31084  0.034278447  0.034366075            3 
 1351000    1.0315958   -6.6801501    553.77703  0.034158465  0.034358474            8 
 1352000    1.0327714   -6.6711459    554.35718  0.034168959  0.034350791            4 
 1353000    1.0414635   -6.6934689    555.15131  0.034192616   0.03434316            5 
 1354000    1.0297848   -6.6522318    557.02679  0.034282791  0.034335672            3 
 1355000    1.0375607   -6.6940526    557.67498  0.034297354  0.034327956            7 
 1356000    1.0304202   -6.6777706    555.66173  0.034148337  0.034320215            8 
 1357000    1.0451465   -6.6761246    556.86248   0.03419691  0.034312604            3 
 1358000    1.0079435   -6.6434288    557.24033  0.034194914  0.034305036            2 
 1359000    1.0259473    -6.693588    556.60972  0.034131084  0.034297548            2 
 1360000    1.0210063   -6.6623065    557.24681  0.034145025  0.034289783            6 
 1361000    1.0407882   -6.6972086    556.85264  0.034095802  0.034282202            2 
 1362000    1.0086892   -6.6768865    556.66603  0.034059351  0.034274712            4 
 1363000    1.0107158   -6.6624853    559.67514  0.034218338  0.034267128            2 
 1364000    1.0285358   -6.6512734    558.38579  0.034114479   0.03425945            4 
 1365000    1.0434325   -6.6671803    559.46879  0.034155604  0.034251853            6 
 1366000    1.0569358   -6.6760174    559.59902  0.034138545  0.034244345            4 
 1367000    1.0399991   -6.6778742    558.40724  0.034040919  0.034236602            2 
 1368000    1.0461866    -6.673401     558.3852  0.034014693  0.034228746            6 
 1369000    1.0061688   -6.6642555    557.88491  0.033959393   0.03422087            3 
 1370000    1.0270272   -6.6878551    559.83921   0.03405348   0.03421296            2 
 1371000    1.0418252   -6.6643221    560.52271  0.034070187  0.034205229            5 
 1372000    1.0219943     -6.68722    561.68365  0.034115868  0.034197542            3 
 1373000    1.0276994   -6.6940698    561.04914  0.034052509   0.03418975            2 
 1374000    1.0413697   -6.6929853    560.76532  0.034010512  0.034181925            5 
 1375000    1.0205691   -6.6815657    561.76761  0.034046522  0.034174177            4 
 1376000    1.0265763   -6.6787839    561.16913  0.033985533  0.034166518            3 
 1377000    1.0301561   -6.6953633    561.33153  0.033970681  0.034158738            2 
 1378000    1.0769357   -6.7019421    562.75253  0.034031962  0.034151244            2 
 1379000    1.0505811   -6.7111702     561.6739  0.033942102  0.034143671            7 
 1380000    1.0186697   -6.7209873    563.74704  0.034042695  0.034136069            4 
 1381000    1.0148558   -6.7032274    562.58905  0.033948168  0.034128405           10 
 1382000    1.0380031   -6.6761254    565.37519  0.034091606  0.034120853            9 
 1383000    1.0455088   -6.7072764    564.16433  0.033993994  0.034113253            4 
 1384000    1.0245973    -6.706902    564.61661  0.033996665  0.034105704            6 
 1385000    1.0381755   -6.7123189    564.32961   0.03395485  0.034098013            2 
 1386000    1.0313557   -6.6904726    564.91417  0.033965498  0.034090448            2 
 1387000    1.0263148   -6.6983735     564.5346  0.033918205   0.03408277            1 
 1388000    1.0549191   -6.6503812     565.3605  0.033943354  0.034075146            2 
 1389000    1.0378556   -6.6945269     564.0289  0.033839027  0.034067564            4 
 1390000    1.0371961    -6.704503    566.45327  0.033960028   0.03405978            3 
 1391000    1.0407877   -6.6808465    566.85577  0.033959728  0.034052212            3 
 1392000   0.99762988   -6.6622793    565.54717   0.03385699  0.034044758            2 
 1393000     1.037893   -6.6713106    565.23701  0.033814131  0.034037047            4 
 1394000    1.0162993   -6.6975429    566.89194  0.033888806  0.034029522            1 
 1395000    1.0360547     -6.67786     567.4486  0.033897766  0.034021979           10 
 1396000    1.0382374   -6.6645822    566.56251  0.033820589  0.034014352            3 
 1397000    1.0384793   -6.7462359    566.59506  0.033798321  0.034006583            3 
 1398000    1.0329203   -6.7030816    566.84169  0.033788847  0.033998797            5 
 1399000    1.0361999    -6.694278     569.4216   0.03391837  0.033991067            5 
 1400000    1.0424347   -6.6961525    566.85909  0.033741613  0.033983372            2 
 1401000    1.0428596   -6.7033294    568.61418  0.033821924  0.033975722            4 
 1402000    1.0359494   -6.6709044    568.65034  0.033799949  0.033968202            3 
 1403000    1.0393983   -6.6617363    570.48897  0.033885066  0.033960621            7 
 1404000    1.0436743   -6.6631434    569.74044  0.033816503  0.033952975            5 
 1405000     1.020175   -6.6944557    570.56723  0.033841473  0.033945313            3 
 1406000    1.0581186   -6.6730024    571.26692  0.033858874    0.0339375            3 
 1407000    1.0296311   -6.7069371    570.39449  0.033783137  0.033929913            4 
 1408000    1.0068232   -6.7378141    570.54576  0.033768096  0.033922239            6 
 1409000    1.0311281   -6.7216294    570.05093  0.033714865  0.033914461            3 
 1410000    1.0334999   -6.6952642    572.10503  0.033812354  0.033906742            2 
 1411000     1.001547   -6.7047374    570.96483  0.033721051  0.033899215            6 
 1412000   0.99991021   -6.7207354    571.09193   0.03370467  0.033891521            3 
 1413000    1.0541725   -6.6703801    573.29675  0.033810849  0.033883924            3 
 1414000    1.0138221   -6.7262182    571.99189  0.033710036  0.033876392            2 
 1415000    1.0029362    -6.701563    572.88814  0.033738995  0.033868575            2 
 1416000    1.0371186   -6.7172093    572.55801   0.03369574  0.033860835            6 
 1417000    1.0090791   -6.7004815    572.60169  0.033674529    0.0338531            6 
 1418000    1.0162373   -6.6914483    573.68305  0.033714331  0.033845531            4 
 1419000    1.0279322   -6.6901912    573.40189   0.03367406  0.033837889           10 
 1420000    1.0360654   -6.6961683    574.64446  0.033723266   0.03383034            2 
 1421000    1.0451275   -6.6999985    574.52117  0.033692304  0.033822728            4 
 1422000    1.0180197   -6.6747941    574.01248    0.0336388  0.033815201            2 
 1423000     1.032844   -6.6804649    575.48148  0.033701188  0.033807684            3 
 1424000    1.0143047   -6.6765424    577.20213  0.033778214  0.033800236            7 
 1425000    1.0424585    -6.697031    576.99465  0.033742377  0.033792693            4 
 1426000    1.0344146   -6.6798171    577.52869  0.033749923  0.033785208            7 
 1427000    1.0337717   -6.6970505    576.22145  0.033649933  0.033777871            3 
 1428000    1.0265256    -6.699487    576.31144   0.03363162  0.033770408            3 
 1429000    1.0157506   -6.6967794    577.28429  0.033664817  0.033762801            2 
 1430000    1.0281232   -6.6629638    578.91088  0.033736065  0.033755332            3 
 1431000   0.99755526   -6.7269125    577.49992  0.033630324  0.033747763            5 
 1432000    1.0173464   -6.6843428    577.35556  0.033598438  0.033740145            7 
 1433000    1.0216387   -6.7068988     578.1513  0.033621267  0.033732589            9 
 1434000    1.0272727   -6.7076175    578.90774  0.033641779   0.03372513            4 
 1435000    1.0471636   -6.7187962    577.96505  0.033563592   0.03371759            4 
 1436000    1.0170744   -6.7156496    577.85152  0.033533631  0.033710026            2 
 1437000    1.0229473   -6.7334424    578.07249  0.033523109  0.033702589            5 
 1438000    1.0344209   -6.6962562    579.60581  0.033588654  0.033694968            5 
 1439000    1.0240662   -6.6943465    580.89769  0.033640125  0.033687427            5 
 1440000    1.0134166   -6.6912636    580.89338  0.033616515   0.03367986            3 
 1441000     1.008107    -6.712282    579.06518  0.033487462  0.033672076            3 
 1442000     1.043731   -6.7373341    579.91913  0.033513588  0.033664499            3 
 1443000    1.0257503    -6.759656    579.54766  0.033468911  0.033656843            5 
 1444000    1.0233914   -6.7126378    580.63294  0.033508365  0.033649213            2 
 1445000    1.0294296   -6.7293949    582.46297  0.033590713  0.033641561            2 
 1446000    1.0174865   -6.6771679    582.38654  0.033563079  0.033634005            6 
 1447000    1.0425707   -6.6823397    582.50261  0.033546568  0.033626607            6 
 1448000    1.0190313   -6.7000027    581.26493  0.033452172   0.03361909            4 
 1449000    1.0223191   -6.6773509    583.25338  0.033543443  0.033611388            3 
 1450000    1.0316021   -6.7200676    584.90524  0.033615244  0.033603806            2 
 1451000    1.0173521   -6.7143623    580.75797  0.033353892  0.033596153            2 
 1452000    1.0192422   -6.7351546    584.00637  0.033517353  0.033588516            4 
 1453000    1.0323715   -6.7273528    583.29231  0.033453333  0.033580935            5 
 1454000    1.0302569   -6.7399814    582.92671  0.033409371   0.03357326            6 
 1455000    1.0162606   -6.6966536    583.58579  0.033424157  0.033565599            2 
 1456000   0.99552213   -6.7415005    585.18036  0.033492466   0.03355813            3 
 1457000    1.0321624   -6.6596578    586.40025   0.03353925  0.033550707            5 
 1458000   0.98547367   -6.6862243    586.68346  0.033532434  0.033543355            3 
 1459000    1.0168486   -6.7277392    585.29796  0.033430316   0.03353588            3 
 1460000    1.0559504   -6.7261715    587.05547  0.033507733  0.033528546            6 
 1461000    1.0180108   -6.7091459     587.1926  0.033492619  0.033521116            2 
 1462000    1.0286269   -6.6656966    587.26872  0.033474049  0.033513788            2 
 1463000    1.0251221   -6.7262931    588.24831  0.033506967  0.033506462            1 
 1464000    1.0011047    -6.714788    586.83175  0.033403447  0.033498918            4 
 1465000      1.00857   -6.6862721    588.22708  0.033460016  0.033491486            2 
 1466000    1.0314734   -6.7430904    587.31373  0.033385274  0.033483978            2 
 1467000    1.0027292   -6.7112138    589.15281  0.033466986  0.033476494            3 
 1468000    1.0202417   -6.6931093    589.02308  0.033436823   0.03346905            2 
 1469000     1.008901   -6.7092255    589.13766  0.033420562  0.033461558            4 
 1470000    1.0126476   -6.7179183    585.87275  0.033212741  0.033453824            2 
 1471000    1.0209549   -6.7457896     588.2675  0.033325827  0.033446257            2 
 1472000    1.0074735   -6.7540573     588.1597  0.033297084  0.033438581            3 
 1473000   0.99867317   -6.7083376    588.63111  0.033301149  0.033430924            3 
 1474000    1.0282052   -6.7071457    591.05625  0.033415663  0.033423406            6 
 1475000    1.0092851   -6.7544357    588.57767  0.033252976  0.033415901            3 
 1476000    1.0195648   -6.7382874    591.42071  0.033390961  0.033408565            2 
 1477000    1.0325126   -6.7306577    591.00643   0.03334498  0.033401094            4 
 1478000     1.004679   -6.7270929    590.57959  0.033298353  0.033393761            2 
 1479000    1.0043168   -6.7060397    591.04693  0.033302171  0.033386427            4 
 1480000    1.0087796   -6.7496424    590.40632  0.033243599  0.033379051            4 
 1481000     1.027642   -6.7404742     591.9315  0.033306972  0.033371503           10 
 1482000    1.0001919    -6.713438    593.71317  0.033384681  0.033364107            3 
 1483000    1.0214758   -6.7169272    593.56736  0.033353976  0.033356902            3 
 1484000    1.0104307    -6.688902    593.97756  0.033354535  0.033349642            6 
 1485000   0.99949627    -6.727324    593.06227  0.033280711  0.033342226            2 
 1486000    1.0218674   -6.7179876    592.54254  0.033229169  0.033334763            4 
 1487000    1.0372042   -6.6772651    595.02769  0.033346093  0.033327385            3 
 1488000    1.0138931   -6.7180222    594.20336  0.033277518   0.03332007            5 
 1489000    1.0276066   -6.6922272    593.92215  0.033239431  0.033312829            1 
 1490000    1.0176018   -6.7431085    593.89648  0.033215687  0.033305458            9 
 1491000    1.0246332   -6.7249266    594.84109  0.033246204  0.033298001            5 
 1492000    1.0139952   -6.7302264    594.74825  0.033218736  0.033290615            4 
 1493000    1.0067426   -6.6984539    595.36787  0.033231071  0.033283144            3 
 1494000    1.0057571   -6.6927778    595.83884  0.033235098  0.033275795            2 
 1495000    1.0055891   -6.7126812    595.46212  0.033191868  0.033268394            2 
 1496000     1.007582   -6.6944578    595.13415  0.033151412  0.033260948            2 
 1497000    1.0085712   -6.7309183    596.58685  0.033210134  0.033253445            8 
 1498000    1.0273118   -6.7141734    597.18519   0.03322125  0.033246139            3 
 1499000    1.0035439   -6.7296915    595.65996  0.033114296  0.033238798            4 
 1500000    1.0185668   -6.7581711    597.80467   0.03321137  0.033231403            4 
 1501000    1.0254982   -6.7225831    596.68541  0.033127105  0.033223889            3 
 1502000    1.0304415   -6.7001925    597.79999  0.033166888  0.033216466            6 
 1503000    1.0092461   -6.7322115    598.46307  0.033181585  0.033209262            2 
 1504000      1.01409   -6.7707138     597.0659  0.033082109  0.033201801            3 
 1505000    1.0087954   -6.7468779    597.44761  0.033081263  0.033194547            3 
 1506000    1.0090858   -6.7551426    599.31157  0.033162438  0.033187214            2 
 1507000    1.0213236   -6.7539181    598.17643  0.033077661  0.033179793            6 
 1508000   0.99353382   -6.7184502    600.77494  0.033199323  0.033172449            5 
 1509000     1.003348   -6.7455924    598.07396  0.033028162  0.033165102            7 
 1510000    1.0135059     -6.75526    599.98315  0.033111653  0.033157684            4 
 1511000     1.008346   -6.7520063     600.9709  0.033144214  0.033150161            3 
 1512000   0.99968717   -6.7197516    602.47909  0.033205417  0.033142744            4 
 1513000    1.0065653   -6.7040659    600.93872  0.033098629   0.03313557            6 
 1514000     1.003953   -6.6976165     603.0718  0.033194176  0.033128401            1 
 1515000     1.007823   -6.7915516    599.46932   0.03297411  0.033121041            3 
 1516000   0.99855892   -6.7052652    602.92881  0.033142525  0.033113834            4 
 1517000    1.0193867   -6.7250316    602.51996  0.033098218  0.033106747            3 
 1518000    1.0207165   -6.7333479    601.87898  0.033041227  0.033099642            3 
 1519000     1.016097    -6.706007    604.28987  0.033151737  0.033092422            2 
 1520000   0.98562443    -6.722558    602.33345  0.033022667  0.033085331            3 
 1521000   0.98954406   -6.7810756    600.97332  0.032926437  0.033077969            4 
 1522000    1.0012883   -6.7424212    604.44208  0.033094726  0.033070552            3 
 1523000    1.0057666   -6.7494322    603.61899   0.03302796  0.033063297            3 
 1524000    1.0281784   -6.7414872    604.18707  0.033037351  0.033055938            4 
 1525000    1.0202353   -6.7251749    603.12196  0.032957484   0.03304859            4 
 1526000    1.0210237   -6.7295401    602.64738   0.03290997  0.033041269            4 
 1527000   0.99658894   -6.7447783    603.18717  0.032917877  0.033033742            2 
 1528000    1.0163607   -6.7481987     605.0358  0.032997153  0.033026338            3 
 1529000    1.0094461   -6.7459358    606.18327  0.033038111  0.033018835            6 
 1530000   0.98536483   -6.7305856    605.25337   0.03296587   0.03301127            3 
 1531000     1.029126   -6.7398708    604.21101  0.032887601  0.033003851            5 
 1532000   0.99468811   -6.7424962    605.91725  0.032958945  0.032996461            3 
 1533000   0.99634903   -6.7448228    605.66716  0.032923851  0.032988961            4 
 1534000    1.0103216   -6.7342744    605.56503   0.03289684  0.032981596            6 
 1535000    0.9969958   -6.7353932    605.87327  0.032892142  0.032974194            4 
 1536000    1.0236653   -6.7214064      606.993  0.032931478  0.032966714            4 
 1537000     1.021745   -6.7655054    606.38565  0.032877123  0.032959277            4 
 1538000    1.0163653   -6.7363721    607.11886  0.032895473  0.032951855            6 
 1539000    1.0178572   -6.7540617    605.82714  0.032804155  0.032944361            2 
 1540000   0.99405935   -6.7413262    606.83671  0.032837484   0.03293686            3 
 1541000   0.99606728   -6.7409291     608.5477  0.032908701  0.032929471            2 
 1542000   0.99782735   -6.7269523    607.63811  0.032838203  0.032922016            4 
 1543000    1.0406482   -6.7578231    610.30874  0.032961155  0.032914536            3 
 1544000   0.99020547    -6.742841    608.82349  0.032859645  0.032907105            4 
 1545000   0.99789937   -6.7321821     608.9636  0.032845933  0.032899718            3 
 1546000    1.0103422   -6.7429147    608.91354  0.032821989  0.032892244            6 
 1547000   0.99135239   -6.7439922    609.38079  0.032825942  0.032884902            4 
 1548000    1.0025508   -6.7395919    610.26522  0.032852348  0.032877626            4 
 1549000    1.0144688   -6.7283738    610.80749  0.032860313  0.032870377            4 
 1550000   0.98227948    -6.727533    610.44698   0.03281973  0.032863033            2 
 1551000    0.9875969   -6.7527696    609.29843   0.03273686  0.032855585            5 
 1552000    1.0157198    -6.755004    609.25771   0.03271358  0.032848109           12 
 1553000   0.99152735   -6.7769082    610.64174  0.032766782  0.032840652            3 
 1554000   0.98943986   -6.7189083    611.12637  0.032771685   0.03283311            3 
 1555000   0.99313972    -6.761601    611.16544  0.032752703  0.032825693            6 
 1556000     1.025141   -6.7317592    611.25744  0.032736581  0.032818244            5 
 1557000    1.0034276    -6.740485    612.87938  0.032802364  0.032810861            5 
 1558000    1.0134481    -6.757824    610.74559   0.03266718  0.032803555            4 
 1559000   0.99620481   -6.7616086    612.23423  0.032725798  0.032796233            3 
 1560000   0.98683145   -6.7596849    612.86761  0.032738655  0.032788824            2 
 1561000    1.0195036   -6.7666395    613.35226  0.032743555  0.032781533            5 
 1562000   0.99893467   -6.7313088    615.09409  0.032815519  0.032774273            5 
 1563000    1.0089983   -6.7443104    613.11718  0.032689122  0.032766999            4 
 1564000    1.0098355   -6.7441249     614.5968  0.032747059  0.032759737            2 
 1565000    1.0004238   -6.7347494    615.43244   0.03277063  0.032752531            4 
 1566000     1.001229   -6.7544268    615.65658  0.032761632  0.032745217            4 
 1567000    1.0026347   -6.7207397    614.30861  0.032669039  0.032737982            2 
 1568000   0.99690177     -6.76015    615.41023  0.032706751  0.032730698            3 
 1569000     1.009316   -6.7229161    616.36515  0.032736624  0.032723549            2 
 1570000   0.98695057    -6.765038     616.6447  0.032730611  0.032716412            4 
 1571000     1.001482   -6.7260706    617.66954  0.032764138  0.032709136            2 
 1572000   0.98309154   -6.7047411    616.91884  0.032703501  0.032701989            3 
 1573000    1.0124705   -6.7466701    616.82878  0.032677939  0.032694944            4 
 1574000   0.98639068   -6.7348448    618.74729  0.032758751  0.032687891            4 
 1575000   0.99515571   -6.7314279    619.15282  0.032759409  0.032680814            4 
 1576000     1.025395   -6.7589277    616.91494  0.032620291  0.032673708            5 
 1577000   0.98078639   -6.7281602    618.03165  0.032658616  0.032666626            2 
 1578000   0.98933502   -6.7406616    620.09808  0.032747047  0.032659543            4 
 1579000   0.99286688    -6.724186     620.5036  0.032747709  0.032652498            2 
 1580000   0.99085388   -6.7435591    619.43717  0.032670737  0.032645491            7 
 1581000    1.0036799   -6.7455939    619.70222  0.032664043  0.032638424            3 
 1582000   0.99250844   -6.7307765    619.10305  0.032611834  0.032631362            2 
 1583000   0.99166486   -6.7271672    620.16698   0.03264724  0.032624252            7 
 1584000   0.99721729   -6.7284616    619.69411  0.032601753  0.032617201            4 
 1585000     1.011875   -6.7789783    620.28679  0.032612345  0.032610107            3 
 1586000   0.99586444   -6.7625271    621.76376  0.032669386  0.032602912            3 
 1587000   0.99261126   -6.8025173     618.5163  0.032478277  0.032595541            4 
 1588000   0.98759893   -6.7779367    620.42145    0.0325578   0.03258813            3 
 1589000    1.0011727   -6.7899319    619.62898  0.032495751  0.032580883            4 
 1590000      1.00585   -6.7572485    620.81957  0.032537713   0.03257345            4 
 1591000    1.0008911   -6.7505474    620.03171  0.032475996  0.032566117            4 
 1592000   0.98165595    -6.744225    621.36473  0.032525373  0.032558763            3 
 1593000   0.97772708   -6.7357805    620.95619  0.032483584  0.032551383            6 
 1594000   0.98491742   -6.7570154    622.26901  0.032531839  0.032544069            4 
 1595000   0.99594855   -6.7799363    620.61831  0.032425199  0.032536791            7 
 1596000    0.9950495   -6.7319823    621.58765  0.032455495  0.032529367            3 
 1597000   0.98235312   -6.7807488    620.90236  0.032399413  0.032521849            3 
 1598000   0.99343045   -6.7636962    621.42655  0.032406474  0.032514269            7 
 1599000   0.98417753   -6.7438625    622.42645  0.032438318  0.032506778            2 
 1600000   0.98597058   -6.7490176    620.84554  0.032335705  0.032499148            2 
 1601000    1.0049034   -6.7622272    622.48759  0.032400978  0.032491556            3 
 1602000   0.99577521   -6.7260039    623.41305  0.032428893  0.032483979            2 
 1603000    1.0095834   -6.7851171    622.27162  0.032349325  0.032476605            4 
 1604000      1.00268   -6.7418777    623.89898  0.032413704  0.032469187            2 
 1605000    1.0088936   -6.7451416    624.04577   0.03240113  0.032461704            4 
 1606000   0.98467403   -6.7787331    621.92802  0.032271068  0.032454226            3 
 1607000   0.97313235    -6.752754    625.44692  0.032433464  0.032446885            2 
 1608000   0.99426913   -6.7488761    625.84133  0.032433734  0.032439601            5 
 1609000   0.97919062   -6.7311948    627.68341  0.032508981  0.032432316            2 
 1610000   0.99863907   -6.7595611    624.82677   0.03234093  0.032424912            6 
 1611000   0.98800088   -6.7726706    626.01843  0.032382497  0.032417445            5 
 1612000    1.0012117   -6.7976379    626.34887  0.032379491  0.032410227            3 
 1613000   0.99363411   -6.7730722    627.25588  0.032406276  0.032402985            4 
 1614000    1.0021498   -6.7711173    627.97394  0.032423273   0.03239577            4 
 1615000   0.98416345   -6.7977161    626.21811  0.032312596  0.032388501            3 
 1616000    0.9988302   -6.7950947    628.58096  0.032414447  0.032381162            6 
 1617000    1.0032487   -6.7586142    627.50834  0.032339123  0.032373844            3 
 1618000    1.0061676   -6.7603925      628.855  0.032388494  0.032366634            2 
 1619000   0.97939774   -6.7347828    631.55928  0.032507684  0.032359508            2 
 1620000   0.99582652   -6.7229622    629.64711  0.032389255   0.03235244            3 
 1621000   0.99526581   -6.7603751    629.00354  0.032336188  0.032345281            3 
 1622000   0.98772912   -6.7330296    629.64644  0.032349283  0.032338147            3 
 1623000   0.98345672    -6.749974    630.28393  0.032362083  0.032331028            5 
 1624000    1.0123533   -6.8021492     630.1663  0.032336119   0.03232392            8 
 1625000   0.98807803   -6.7775289    630.27192  0.032321637  0.032316817            4 
 1626000   0.99638056    -6.787369     631.4463  0.032361946  0.032309734            3 
 1627000   0.97027518   -6.7441046    631.12018  0.032325352  0.032302719            1 
 1628000   0.99118506   -6.7751291    631.28201   0.03231378  0.032295572            4 
 1629000   0.99325689   -6.7584081     632.8861  0.032376003    0.0322884            4 
 1630000   0.98065848   -6.7515075    631.01057  0.032260254  0.032281278            3 
 1631000   0.98258332   -6.7675843    633.77156  0.032381543  0.032274102            4 
 1632000     1.000349   -6.7363473    633.06714  0.032325732  0.032267025            8 
 1633000   0.99471412   -6.7633733    633.62039   0.03233417  0.032259876            2 
 1634000     0.963385     -6.76914     633.7509  0.032321037    0.0322527            5 
 1635000     1.003573   -6.7707284    632.84487   0.03225509  0.032245533            5 
 1636000    1.0041472   -6.7860708    633.19201  0.032253057  0.032238246            5 
 1637000   0.98623958   -6.7546275    632.18144   0.03218191  0.032231046            9 
 1638000    1.0037799   -6.7673278    635.49218  0.032330697  0.032223837            4 
 1639000   0.99450086    -6.764381    633.21926  0.032195407  0.032216806            2 
 1640000   0.98299522   -6.7604826    634.59231  0.032245544  0.032209749            4 
 1641000    1.0172797   -6.7518281    636.94526  0.032345382  0.032202851            3 
 1642000    1.0045126   -6.7768674    634.97052  0.032225463  0.032195935            5 
 1643000    1.0080536   -6.7481515    636.59657  0.032288323  0.032188961            2 
 1644000   0.99177101   -6.7750848    634.91815  0.032183604  0.032181949            5 
 1645000   0.97659991   -6.7838905     634.8107  0.032158597  0.032174746            4 
 1646000   0.97542965   -6.7387469    636.09618   0.03220414  0.032167694            4 
 1647000   0.97395041   -6.7762983    635.48403  0.032153614   0.03216075            6 
 1648000   0.98833944   -6.7724115    636.17806  0.032169198  0.032153769            4 
 1649000    0.9763982   -6.7343007    637.09258  0.032195906  0.032146738            3 
 1650000    1.0270599   -6.7716847    635.36724  0.032089255  0.032139713            3 
 1651000    0.9805451   -6.7505279     636.9537  0.032149894  0.032132622            2 
 1652000    0.9960277   -6.7756788     637.6862  0.032167383  0.032125425            8 
 1653000   0.98427051     -6.78649    638.85879  0.032207037  0.032118352            4 
 1654000   0.99560797    -6.773949    636.83499    0.0320856  0.032111242            7 
 1655000   0.98531551    -6.803498    638.51529   0.03215082  0.032103958            3 
 1656000   0.97604316   -6.7740958    638.56261  0.032133787  0.032096845            4 
 1657000    1.0143254   -6.7599093    638.76976  0.032124812  0.032089677            7 
 1658000   0.99338466   -6.7761468    638.37419  0.032085554  0.032082561            4 
 1659000   0.98274923   -6.7361643    639.98315  0.032147034  0.032075597            4 
 1660000    1.0118965   -6.7993363    639.49339  0.032103082  0.032068477            2 
 1661000   0.97364165   -6.7634351    638.13988  0.032015848  0.032061134            3 
 1662000    1.0187126   -6.7734578    638.20978  0.032000089  0.032053866            6 
 1663000    1.0111869   -6.7890416    637.63719  0.031952154  0.032046581            9 
 1664000   0.99708176   -6.7943308    638.53204  0.031977767   0.03203905            3 
 1665000   0.99790973   -6.7507639    640.73936  0.032069037  0.032031635            7 
 1666000   0.97716506   -6.7656564    638.87691  0.031956628   0.03202424            4 
 1667000   0.97962984    -6.750877    640.80806  0.032033996   0.03201693            6 
 1668000   0.97759107   -6.7367658    640.52457  0.032000628  0.032009649            2 
 1669000   0.99554065   -6.7521253    639.97782  0.031954155  0.032002327            2 
 1670000     0.992825   -6.7862986    639.32032  0.031902211  0.031995095            8 
 1671000   0.98047823   -6.7735382    640.64613  0.031949239  0.031987725           12 
 1672000   0.98180428    -6.809375    640.61568  0.031928613   0.03198032            2 
 1673000   0.98835341   -6.8057458    641.73895  0.031965479  0.031972964            3 
 1674000   0.98716921   -6.7883151    642.01509   0.03196013  0.031965732            3 
 1675000   0.98485825   -6.7795092    642.49092  0.031964722  0.031958566            2 
 1676000   0.96600125   -6.8001877    641.03062  0.031873042  0.031951343            7 
 1677000    1.0126782    -6.764623    643.33534  0.031968562  0.031944096            2 
 1678000    1.0013344    -6.805106    642.88668  0.031927229  0.031936894            5 
 1679000   0.99337964   -6.7244595    646.10742  0.032068067  0.031929731            3 
 1680000    1.0017312   -6.7721437    644.31018   0.03195983  0.031922573            5 
 1681000   0.98700845   -6.7802059    643.83682  0.031917352  0.031915513            5 
 1682000   0.98024084   -6.7700519    644.10717   0.03191177  0.031908442            4 
 1683000   0.99170387   -6.7509366    643.01423  0.031838692  0.031901461            8 
 1684000   0.98104598   -6.7636545    645.68129  0.031951766  0.031894445            4 
 1685000   0.99099187   -6.7807684    645.01109  0.031899658  0.031887387            3 
 1686000    0.9856749   -6.7841252    646.42134  0.031950442  0.031880242            4 
 1687000   0.98169821    -6.785775    646.17105  0.031919139  0.031873086            6 
 1688000   0.98604821   -6.8114265    645.04903  0.031844838  0.031865921            5 
 1689000   0.98544866   -6.7974048    646.10245  0.031877958  0.031858727            6 
 1690000   0.95994655   -6.7828602    645.52615  0.031830678  0.031851574            5 
 1691000   0.95299965   -6.8210311    645.63417  0.031817178  0.031844441            3 
 1692000   0.96528488   -6.7878298    645.80538  0.031806806  0.031837357            4 
 1693000   0.96060673    -6.818526    647.61269  0.031876978  0.031830169            6 
 1694000   0.97230522   -6.7819225    646.67281  0.031811925  0.031823054            4 
 1695000   0.99009133    -6.780399     647.9021  0.031853594  0.031815858            6 
 1696000   0.98673132    -6.806262    646.32583  0.031757362  0.031808612            3 
 1697000   0.99232293   -6.7581815    648.36575  0.031838821  0.031801446            3 
 1698000   0.97010402     -6.77073    647.00361   0.03175322   0.03179429            5 
 1699000   0.95675651    -6.765257    649.32169  0.031848229  0.031787072            7 
 1700000    0.9769729   -6.7782014    648.16835  0.031772958  0.031779994            6 
 1701000    0.9963098   -6.7818201     648.3672  0.031764021  0.031772789            5 
 1702000   0.96224245   -6.7722084    647.38939  0.031697483  0.031765539            6 
 1703000   0.99334691   -6.8295636    648.02934  0.031710185  0.031758299            3 
 1704000   0.97743426   -6.8150308    649.95053  0.031785531  0.031751096            3 
 1705000   0.96081763   -6.7656783    649.97402  0.031768036  0.031743762            4 
 1706000   0.98317115   -6.7795695    649.57455  0.031729902  0.031736533            4 
 1707000   0.97617036   -6.7962234    648.44996  0.031656413  0.031729235            3 
 1708000   0.98514594   -6.7740666    649.67513  0.031697655  0.031721945            2 
 1709000   0.97515189   -6.8268578    648.64727  0.031628987  0.031714508            3 
 1710000   0.96607707   -6.7798094    652.20957  0.031784092  0.031707165            4 
 1711000   0.97565921    -6.782645    650.44135  0.031679396  0.031699824           12 
 1712000   0.97511916   -6.8132485    652.32928  0.031752788  0.031692479            4 
 1713000   0.97459944   -6.7890684    652.81152  0.031757712  0.031685185            2 
 1714000   0.97397979   -6.7738835    652.21365  0.031710115  0.031677904            3 
 1715000    0.9690989    -6.808281    651.87581  0.031675209  0.031670696            3 
 1716000   0.99784255    -6.766106    651.73536   0.03164993   0.03166347            5 
 1717000   0.98035821   -6.7996341    652.08859   0.03164864   0.03165629            4 
 1718000   0.99100429   -6.7902267    653.33278   0.03169057  0.031649135            4 
 1719000   0.98617117   -6.7950883    654.53251  0.031730294  0.031642097            5 
 1720000   0.96104605   -6.7792954    654.22389  0.031696894  0.031635007            4 
 1721000   0.97975154   -6.7956708    653.57176  0.031646899  0.031627964            2 
 1722000   0.97004141   -6.7708271    655.26472  0.031710449  0.031620875            6 
 1723000   0.97442731   -6.7742458    654.66525  0.031663051  0.031613748            2 
 1724000   0.97272701   -6.7818746    653.71985  0.031598987  0.031606711            6 
 1725000   0.98701964   -6.8122045    655.26282  0.031655209  0.031599666            5 
 1726000   0.95111146   -6.7673762    657.59365  0.031749404   0.03159268            5 
 1727000   0.96373116   -6.7978005    655.19369  0.031615214  0.031585741            6 
 1728000   0.97018987   -6.8003143    656.64897  0.031667099  0.031578822            4 
 1729000   0.97736702   -6.8310848    655.96969  0.031616045   0.03157179            5 
 1730000   0.98106442   -6.8081806     658.1645  0.031703492   0.03156478            2 
 1731000   0.98870267   -6.7946745    658.20384  0.031687071  0.031557856            2 
 1732000   0.98237415   -6.7815464    656.85012  0.031603643  0.031550956            2 
 1733000   0.97470236   -6.8116448    657.15627  0.031600128  0.031543931            4 
 1734000   0.96286941   -6.8264762    658.32108  0.031637884  0.031536992            3 
 1735000   0.97156993   -6.7860029    658.88254  0.031646616  0.031530028            6 
 1736000   0.99944504   -6.8169039     657.8654   0.03157956  0.031523058            5 
 1737000   0.98225709   -6.7982138    659.29751  0.031630086   0.03151606            3 
 1738000   0.97726828   -6.7990905    660.00164  0.031645648  0.031509143            2 
 1739000   0.97513756   -6.7817793    656.71806  0.031470101  0.031502266            4 
 1740000   0.97341597   -6.8162466    658.82918  0.031553122  0.031495329            2 
 1741000   0.97958981   -6.8056409    659.39199  0.031561937   0.03148835            5 
 1742000   0.97283576   -6.7900994    659.30212   0.03153952   0.03148136            5 
 1743000   0.95985093   -6.7986071    660.01703  0.031555605  0.031474372            6 
 1744000   0.97191791   -6.8401699    660.03314  0.031538281  0.031467339            2 
 1745000   0.97890254   -6.7766873    660.90128  0.031561665  0.031460403            6 
 1746000   0.98622031   -6.7945807    658.90312  0.031448221  0.031453419            7 
 1747000   0.95193266   -6.7935523    661.59171  0.031558468    0.0314464            2 
 1748000   0.96795468   -6.8182447    660.08912   0.03146878  0.031439361            7 
 1749000    0.9745904   -6.8106123    660.14415  0.031453409  0.031432302            2 
 1750000   0.98468019   -6.8271238    661.63096  0.031506236  0.031425212            7 
 1751000   0.95369487   -6.7984102    660.53367  0.031436021  0.031418156            4 
 1752000   0.97382669   -6.8178369    661.42059  0.031460264  0.031411175            4 
 1753000   0.98958287   -6.8323488    661.86476  0.031463432  0.031404104            5 
 1754000   0.99141771   -6.7812108    661.80398  0.031442607  0.031397076            5 
 1755000   0.96334665   -6.7933562    662.98616  0.031480824  0.031390148            1 
 1756000   0.96594776   -6.8167034    660.50976  0.031345376  0.031383107            3 
 1757000   0.98673455   -6.7982237    663.96625  0.031491474  0.031375968            4 
 1758000   0.97615153   -6.8137667    661.20388  0.031342619  0.031368883            2 
 1759000   0.97031613   -6.8149168    663.25159  0.031421811  0.031361874            2 
 1760000    0.9563029   -6.8164157     663.8256  0.031431136   0.03135485            4 
 1761000    0.9620709    -6.814812    665.24026  0.031480232  0.031347811            6 
 1762000   0.96186009   -6.8272105    662.74487  0.031344347  0.031340661            7 
 1763000   0.96575645   -6.8294589    664.51597  0.031410284  0.031333506            6 
 1764000   0.96676699   -6.8251887     664.9617  0.031413535  0.031326485            3 
 1765000   0.95345887   -6.7950277    662.94745  0.031300635  0.031319424            4 
 1766000   0.94332604   -6.7904593    664.65188  0.031363339  0.031312484            2 
 1767000   0.97029743   -6.8101243    664.54158  0.031340388  0.031305498            4 
 1768000   0.96439092   -6.8151461    665.03087  0.031345724  0.031298581            3 
 1769000   0.95673622   -6.8152548    666.51621  0.031397975  0.031291683            3 
 1770000   0.97014574   -6.7854286    665.31659  0.031323757  0.031284812           11 
 1771000   0.95228014    -6.810809    665.50595   0.03131498  0.031277879            3 
 1772000   0.97537557    -6.824389    665.72501   0.03130761  0.031270921            7 
 1773000   0.97751305   -6.7900543    666.23661  0.031313998  0.031263984            5 
 1774000   0.97723849   -6.8549235    665.49001  0.031261274  0.031257044            5 
 1775000   0.96768188   -6.8221674    668.35845  0.031378331  0.031250023            6 
 1776000   0.98306734   -6.7899114    667.97088  0.031342477   0.03124307            4 
 1777000   0.96056889   -6.8003227    668.84674  0.031365914  0.031236159            3 
 1778000    0.9558025   -6.8393556    669.98571  0.031401655  0.031229293            5 
 1779000   0.97784366    -6.819045    668.60922  0.031319525  0.031222363            6 
 1780000   0.96146349   -6.8172447    667.27199  0.031239325  0.031215451            3 
 1781000   0.98912006   -6.8389594    666.92267   0.03120544  0.031208444            4 
 1782000   0.96832958     -6.82902    669.33888   0.03130092  0.031201533            4 
 1783000   0.96562237   -6.8321718    668.80057  0.031258206  0.031194734            7 
 1784000   0.95555358   -6.8360833    670.60058  0.031324766  0.031187944            7 
 1785000   0.97057213   -6.8071625    669.76677   0.03126829   0.03118109            3 
 1786000   0.97446918   -6.8049435    670.97556  0.031307184  0.031174292            5 
 1787000   0.96926739   -6.8049977    670.24694  0.031255686  0.031167448            4 
 1788000   0.96236895   -6.8131598    670.81321  0.031264598  0.031160613            3 
 1789000   0.95749418   -6.8117277    670.35712  0.031225877   0.03115387            2 
 1790000   0.96830273   -6.8156998    671.22121   0.03124866  0.031147014            6 
 1791000     0.980063   -6.8239844    670.17669  0.031182612  0.031140132            3 
 1792000   0.98506011   -6.8162695    672.17139   0.03125797  0.031133309            6 
 1793000   0.97534058    -6.786108     672.8283  0.031271068  0.031126528            2 
 1794000   0.97234046    -6.799723    672.04524  0.031217263   0.03111977            4 
 1795000   0.95072457   -6.8230582    672.96422  0.031242536  0.031113025            5 
 1796000   0.94624702   -6.8173011    672.76149  0.031215734  0.031106244            4 
 1797000   0.94710179   -6.8048738    673.59808  0.031237158  0.031099466            3 
 1798000   0.97413602   -6.8107677    673.46242  0.031213498  0.031092576            5 
 1799000     0.953709   -6.8123155    673.14927  0.031181641  0.031085708            5 
 1800000   0.95625138   -6.8374155    673.00936  0.031157841  0.031078862            5 
 1801000   0.97409934   -6.8145687    672.30953  0.031108159  0.031071898            7 
 1802000    0.9779061   -6.8201812    672.90083  0.031118241  0.031065015            3 
 1803000   0.95726417   -6.8275593    675.55551  0.031223679  0.031058273            4 
 1804000   0.97922497    -6.837302     674.7452   0.03116894  0.031051558            2 
 1805000   0.95837896   -6.8231745    673.51926  0.031095072  0.031044763            4 
 1806000   0.97665803   -6.7834952    674.52677  0.031124343  0.031037952            4 
 1807000   0.95845639      -6.8273    674.56696  0.031108973  0.031031036            6 
 1808000   0.97492252   -6.8140898    674.95644  0.031109718   0.03102405            4 
 1809000   0.96188511    -6.823929    673.55558  0.031027989  0.031017114            4 
 1810000   0.95512997   -6.8293535    675.68157  0.031108728  0.031010194            3 
 1811000    0.9571378   -6.8087266     674.5051  0.031037415  0.031003261            3 
 1812000   0.96279145    -6.819411    674.97983  0.031042119  0.030996275            3 
 1813000   0.95648836   -6.8170028    675.69273  0.031057765  0.030989358            3 
 1814000   0.94988086   -6.8368267    677.96289  0.031144932  0.030982421            5 
 1815000   0.95805395    -6.826113    676.41192  0.031056562  0.030975536            2 
 1816000   0.94293691   -6.8269003    677.59632  0.031093811  0.030968662            5 
 1817000     0.942677   -6.8335615    677.34303  0.031065081  0.030961709            5 
 1818000   0.97149607   -6.7945782    677.88271  0.031072731  0.030954816            8 
 1819000   0.97042989   -6.8331588    678.17058  0.031068837  0.030947955            5 
 1820000     0.977614   -6.7903036    680.29035  0.031148825  0.030941209            3 
 1821000   0.97704604   -6.8114929    678.78898  0.031063014  0.030934455            3 
 1822000   0.97165242   -6.7801299     679.8372  0.031093908  0.030927623            6 
 1823000    0.9512966   -6.8194528    678.45542  0.031013687  0.030920925            4 
 1824000   0.96930461   -6.7981606    678.20851  0.030985403  0.030914147            3 
 1825000   0.96310505   -6.8430076    679.15092  0.031011458  0.030907443            6 
 1826000   0.95555221   -6.8148154    678.35477   0.03095814  0.030900612            4 
 1827000     0.953148   -6.8371808    679.89988  0.031011671  0.030893775            5 
 1828000   0.97632138   -6.8441525    679.93286   0.03099621  0.030886863            6 
 1829000   0.95016279   -6.8438618    679.92854  0.030979066  0.030880013            7 
 1830000   0.98751992   -6.8371434    682.10141  0.031061084  0.030873186            5 
 1831000    0.9422167   -6.8417783    681.55665  0.031019327  0.030866385            2 
 1832000   0.96992426   -6.8618102    679.78997  0.030922033   0.03085962            6 
 1833000   0.95010565   -6.7960668    682.43138  0.031025249  0.030852794            4 
 1834000   0.95570259   -6.8450741    682.14404  0.030995276  0.030846021            3 
 1835000   0.95639277   -6.8699614     679.7718  0.030870654  0.030839127           12 
 1836000   0.95264093   -6.7951852    683.91263  0.031041786  0.030832307            3 
 1837000   0.95324468   -6.8494045    681.89032  0.030933148  0.030825509            5 
 1838000    0.9550518   -6.8844533    681.23606  0.030886655  0.030818667            5 
 1839000   0.94628328   -6.7979212    683.08345  0.030953573  0.030811821            5 
 1840000   0.95015373   -6.8594208    681.42197  0.030861502  0.030804973            3 
 1841000   0.95813171   -6.8358483    682.69192  0.030902223  0.030798139            4 
 1842000   0.95288708   -6.8512986    683.22514   0.03090957  0.030791275            4 
 1843000   0.95192201   -6.8484857    682.25771  0.030849055  0.030784423            3 
 1844000   0.97148549   -6.8305326    682.76263  0.030855144  0.030777642            6 
 1845000    0.9410653   -6.8543338    682.13896  0.030810251  0.030770722            6 
 1846000   0.97040451   -6.8080925    682.57409  0.030813204   0.03076386            3 
 1847000   0.96947252   -6.8341128    682.76536  0.030805151   0.03075697            3 
 1848000   0.95038684   -6.8257123    683.81696  0.030835902  0.030750114            6 
 1849000   0.94308851   -6.8525884    681.62938  0.030720632  0.030743211            3 
 1850000   0.97003257   -6.8511662    684.10287  0.030815445  0.030736414            3 
 1851000   0.97189872   -6.8612391    684.54605  0.030818749  0.030729575            4 
 1852000   0.96068071     -6.81805    685.68397   0.03085331  0.030722823            3 
 1853000   0.96264278    -6.829786    686.14303  0.030857305  0.030716112            7 
 1854000   0.96267868   -6.8372303     685.7096  0.030821179  0.030709416            6 
 1855000   0.95915921   -6.8266312    686.16827  0.030825169  0.030702687            3 
 1856000   0.92616702   -6.8415884    685.89257  0.030796182  0.030696055            2 
 1857000   0.95718858   -6.8523319    686.16691   0.03079191   0.03068931            3 
 1858000   0.93346088   -6.8262022    689.81512  0.030938963   0.03068265            9 
 1859000   0.94593931    -6.857702    687.33891  0.030811319  0.030676053            6 
 1860000   0.94251798   -6.8552488    689.49579  0.030891389  0.030669386            2 
 1861000   0.94762079   -6.8459971    689.15874  0.030859696  0.030662683            4 
 1862000   0.93225578   -6.8511925    688.44645  0.030811245  0.030656058            3 
 1863000    0.9527475    -6.821735      690.056  0.030866702  0.030649413            4 
 1864000   0.97058618   -6.8717911    688.14982  0.030764924  0.030642751            5 
 1865000    0.9683473   -6.8479133    688.79916  0.030777442  0.030636074            4 
 1866000   0.95645818   -6.8338863    689.44213  0.030789663   0.03062943            3 
 1867000   0.97135186   -6.8271998    690.26698  0.030809988  0.030622848            7 
 1868000   0.93879723   -6.8701682    689.89422  0.030776866  0.030616173            2 
 1869000    0.9838795   -6.8807672    689.21409  0.030730074  0.030609441            2 
 1870000   0.95467985   -6.8240486     692.3769  0.030854585  0.030602787            5 
 1871000   0.94200802   -6.8546233    691.14829  0.030783373  0.030596172            4 
 1872000   0.96077287   -6.8728161    689.51701  0.030694311  0.030589418            6 
 1873000   0.96025329   -6.8640641    690.78139  0.030734178  0.030582589            3 
 1874000   0.97386973   -6.8715241    690.65783  0.030712283  0.030575802            9 
 1875000   0.96184911   -6.8598445    690.31616  0.030680718  0.030568925            3 
 1876000   0.94343479   -6.8491148    690.10437  0.030654956  0.030562157            3 
 1877000   0.97339565   -6.8269979    690.32861   0.03064858  0.030555481            5 
 1878000   0.94785791   -6.8308906    693.07307  0.030754041  0.030548688            3 
 1879000   0.96527357   -6.8459678    691.20802  0.030654959   0.03054192            5 
 1880000   0.95206031   -6.8502695    692.64261  0.030702243  0.030535108            3 
 1881000   0.94395773   -6.8420461    692.40384  0.030675343  0.030528266            3 
 1882000   0.93806297   -6.8412915    690.48359  0.030574017  0.030521492            2 
 1883000   0.96190985   -6.8226922    693.65071  0.030697942   0.03051474            5 
 1884000   0.94962583   -6.8572936    694.05593  0.030699572  0.030508065            9 
 1885000   0.94968949   -6.8278593    691.48264  0.030569524  0.030501453            3 
 1886000   0.96969495    -6.862902    693.50307  0.030642589    0.0304948            6 
 1887000   0.95059264   -6.8565802    695.87542  0.030731117  0.030488018            3 
 1888000   0.97746922   -6.8548399    694.38351   0.03064899  0.030481397           11 
 1889000   0.95442766   -6.8314151     696.4766  0.030725102  0.030474847            6 
 1890000   0.95602716   -6.8613308    694.94485  0.030641307  0.030468321            3 
 1891000   0.95220767   -6.8129875    696.26877  0.030683447  0.030461805            2 
 1892000   0.92854277   -6.8393772    697.64529  0.030727858  0.030455231            2 
 1893000   0.96562797   -6.8205089    696.15069  0.030645831  0.030448697            7 
 1894000   0.94974473   -6.8335993    697.31859  0.030681036  0.030442167            4 
 1895000   0.95399241   -6.8546219    696.47114  0.030627579  0.030435688            2 
 1896000   0.95220755   -6.8610165    697.77332  0.030668658  0.030429225            2 
 1897000   0.96488288   -6.8521635    698.47523  0.030683326  0.030422814            4 
 1898000    0.9224995   -6.8124895    699.66478  0.030719388   0.03041646            4 
 1899000   0.98043611   -6.8433471    698.93215  0.030671062  0.030410152            5 
 1900000    0.9477873   -6.8532765    699.97736  0.030700761  0.030403795            6 
 1901000    0.9652717   -6.8620229    699.16461  0.030648984  0.030397524            7 
 1902000   0.93163219   -6.8942261    699.58193  0.030651154  0.030391176            3 
 1903000   0.94658978   -6.8622818    699.78758  0.030644053  0.030384782            5 
 1904000   0.94299505   -6.8765693    701.60549  0.030707523  0.030378444           10 
 1905000   0.94454323   -6.8393114    701.72196  0.030696499  0.030372109            3 
 1906000   0.93078679   -6.8485273    700.54885  0.030629103  0.030365791            4 
 1907000    0.9467662    -6.818771    701.15579  0.030639564  0.030359607            3 
 1908000   0.96556208   -6.8609622     701.1964  0.030625279  0.030353395            4 
 1909000   0.93877452   -6.8267449    701.87016  0.030638648  0.030347112            6 
 1910000   0.94774445   -6.8132559    701.76701  0.030618107  0.030340878            5 
 1911000   0.95086814   -6.8470886    701.33508   0.03058325  0.030334536            3 
 1912000   0.94093366   -6.8308299    701.38562  0.030569457   0.03032814            2 
 1913000   0.94423435    -6.852581    702.07127  0.030583345  0.030321786            3 
 1914000   0.96058023   -6.8521184    701.10249  0.030525187  0.030315398            3 
 1915000   0.92073045   -6.8677139     702.2081  0.030557358  0.030309003            3 
 1916000    0.9154286   -6.8550714    702.12673  0.030537871  0.030302663            5 
 1917000    0.9352358   -6.8490503      702.629  0.030543775  0.030296378            7 
 1918000   0.93258168   -6.8636541    701.94077  0.030497948  0.030289994            5 
 1919000   0.95076783   -6.8620021    703.38336    0.0305447  0.030283587            9 
 1920000   0.93971751    -6.824585    703.55623  0.030536295  0.030277246            3 
 1921000   0.96272114   -6.8471773      702.864   0.03049037   0.03027095            4 
 1922000   0.94371724   -6.8510207    702.92629  0.030477206   0.03026464           10 
 1923000    0.9278004   -6.8444158    703.57554  0.030489493  0.030258266            4 
 1924000   0.95841062   -6.8680957     701.6545  0.030390441  0.030251825            7 
 1925000   0.95499207   -6.8765299    703.24076  0.030443323  0.030245366            6 
 1926000   0.94946503   -6.8687521    703.61456   0.03044369  0.030238957            2 
 1927000   0.92518896   -6.8593945    704.90746  0.030483803   0.03023249            4 
 1928000   0.94516064   -6.8637485    704.03441  0.030430256  0.030226056            2 
 1929000   0.92076588   -6.8541732    705.65923  0.030484674    0.0302197            3 
 1930000   0.93436591   -6.8837719    704.77081  0.030430518  0.030213303            4 
 1931000      0.96147   -6.8722345    706.62975  0.030494983  0.030206956            9 
 1932000   0.92851178   -6.8454389    706.67555  0.030481175  0.030200598            5 
 1933000   0.96386957   -6.8302391    706.26073  0.030447522  0.030194276            8 
 1934000   0.93626758   -6.8433855      708.197   0.03051521  0.030188072            4 
 1935000    0.9473909   -6.8658238     706.6181  0.030431443  0.030181738            5 
 1936000   0.93322992   -6.8227508    706.13524   0.03039494  0.030175511            4 
 1937000    0.9389765   -6.8571331    708.43954  0.030478383  0.030169241            6 
 1938000   0.91987978   -6.8598882    707.03293  0.030402173  0.030162921            3 
 1939000   0.95224661   -6.9010371    706.88065  0.030379949  0.030156527            2 
 1940000    0.9472501   -6.8698667    707.92898   0.03040932  0.030149993            7 
 1941000   0.96171049   -6.8349939    707.91115  0.030392888  0.030143531            6 
 1942000   0.92851805   -6.8436609    706.82373  0.030330576  0.030137161            2 
 1943000   0.93596487   -6.8426363     709.8035  0.030442764   0.03013082            4 
 1944000   0.95135152   -6.8402812     706.6697  0.030292768  0.030124403            4 
 1945000   0.92859017   -6.8353263    709.33861  0.030391543   0.03011807            3 
 1946000   0.95885693   -6.8579626     707.8414  0.030311811  0.030111724            5 
 1947000   0.95145237   -6.8748783    708.78622  0.030336681  0.030105413            5 
 1948000   0.94122834   -6.8739919    706.56226  0.030225969  0.030098999            4 
 1949000   0.95740417   -6.8352006    709.52144  0.030336986  0.030092702            2 
 1950000   0.93597942   -6.8612669    709.32612  0.030313082  0.030086375            7 
 1951000   0.96443257   -6.8866243    709.64961  0.030311362  0.030079985           10 
 1952000   0.94906755   -6.8626444    710.71465  0.030341301  0.030073623            5 
 1953000   0.93065043   -6.8975397    710.70963  0.030325552  0.030067304            6 
 1954000   0.92455551   -6.8810256    710.75996  0.030312179  0.030060938            6 
 1955000   0.95021195   -6.8723327    711.85925  0.030343532  0.030054576            4 
 1956000   0.93423455   -6.8741267    709.32543  0.030220068  0.030048204            5 
 1957000   0.89586542   -6.8752693    711.58587   0.03030088   0.03004184            1 
 1958000   0.94322813   -6.8661869    711.21645  0.030269682  0.030035439            3 
 1959000   0.94229857   -6.8409495    709.77853  0.030193063  0.030029101            5 
 1960000    0.9373619    -6.875932    711.68411  0.030258678  0.030022794            9 
 1961000   0.91471834    -6.915345    711.76038  0.030246489  0.030016447            5 
 1962000   0.93141273   -6.8829991    713.49188  0.030304616  0.030010115            6 
 1963000   0.94370383     -6.85301     713.0447  0.030270195   0.03000386            6 
 1964000    0.9452842   -6.8631984    713.63468  0.030279815  0.029997594            3 
 1965000   0.93486893   -6.8509319    713.47266  0.030257534  0.029991254            6 
 1966000   0.91744673   -6.8673831    713.92935  0.030261502  0.029984951            7 
 1967000   0.94519381   -6.8880345    713.48986  0.030227498  0.029978644            5 
 1968000   0.94489708   -6.8572938    713.66938   0.03021974  0.029972336           11 
 1969000   0.92878964   -6.8891543    714.13602  0.030224142  0.029966006            2 
 1970000   0.93843363   -6.8485589    712.97289  0.030159598  0.029959606            2 
 1971000   0.93318787    -6.897321    714.72475  0.030218364  0.029953223            6 
 1972000   0.92181401   -6.8817573    713.75866  0.030162215  0.029946828            4 
 1973000   0.95153472    -6.893432    713.84859  0.030150726  0.029940447            4 
 1974000   0.91127385   -6.8925172    714.90249  0.030179943  0.029934053            4 
 1975000   0.93241742   -6.8586273    717.05517  0.030255492  0.029927732            7 
 1976000   0.95647751   -6.8675321    716.50367  0.030216923  0.029921459            5 
 1977000   0.94567977   -6.8752112    713.68005  0.030082619  0.029915028            6 
 1978000   0.93353437   -6.8853887    716.56043  0.030188761  0.029908717            3 
 1979000   0.93159156   -6.8510836    716.60479  0.030175375  0.029902455            7 
 1980000   0.95051675    -6.875069      715.042   0.03009436  0.029896138           12 
 1981000   0.94207355   -6.9118827    716.05435  0.030121754  0.029889825            3 
 1982000   0.92934039   -6.8631365    717.27245  0.030157772  0.029883502            3 
 1983000   0.93480928   -6.9072331    716.57397  0.030113211  0.029877165            9 
 1984000   0.92739031   -6.8799525    716.38628   0.03009015  0.029870784            5 
 1985000    0.9452259    -6.861044    717.98571  0.030142137  0.029864419            7 
 1986000   0.95073361   -6.9002624    713.68687  0.029946579  0.029857989            6 
 1987000   0.93601399   -6.8457605    718.22417  0.030121799   0.02985149            7 
 1988000   0.93429032   -6.8701599    717.69961  0.030084658  0.029845028            3 
 1989000    0.9369141   -6.8980688    717.40025   0.03005699  0.029838582            4 
 1990000   0.93317485   -6.8740819    718.90094  0.030104729  0.029832174            6 
 1991000   0.92136668   -6.8682947    719.00279  0.030093872  0.029825833            3 
 1992000   0.94274541   -6.8942518    717.69852  0.030024202  0.029819405            7 
 1993000   0.93756104   -6.8841114    718.92439  0.030060394  0.029812997            4 
 1994000   0.93567921   -6.8628964    718.43541  0.030024883  0.029806557            2 
 1995000   0.94239845   -6.8591762    718.42187  0.030009268  0.029800211            3 
 1996000   0.94834679   -6.8701667    718.14751  0.029982778   0.02979393           11 
 1997000   0.90820844   -6.8847627    719.37517  0.030018994  0.029787553            3 
 1998000   0.92771494   -6.8623552    721.84401  0.030106941   0.02978122            5 
 1999000   0.93649051   -6.8456477    720.72397  0.030045188  0.029774856            6 
 2000000    0.9351032   -6.8779803    718.95686  0.029956536  0.029768455           13 
 2001000   0.95356683   -6.9118876    719.41077  0.029960469  0.029761985            3 
 2002000   0.92102375   -6.8730398    722.26576  0.030064342  0.029755545            4 
 2003000   0.94179855   -6.8713345    722.26485  0.030049295  0.029749208            7 
 2004000   0.90957435    -6.886907    721.71501  0.030011436  0.029742836            4 
 2005000   0.94554001   -6.8749743      722.571  0.030032045  0.029736484            2 
 2006000   0.95590804   -6.9097262    720.77504  0.029942466  0.029730177            5 
 2007000   0.91396248   -6.9012126    723.67543  0.030047975  0.029723872            2 
 2008000   0.91063593   -6.8729699    722.64942  0.029990431  0.029717613            5 
 2009000   0.94291955   -6.8901723    722.94078  0.029987588  0.029711322            6 
 2010000   0.91744963   -6.8783923    723.45049  0.029993801  0.029705066            4 
 2011000   0.92691599   -6.9084905    722.24107   0.02992877  0.029698796            5 
 2012000   0.93428615   -6.9032347    723.95208  0.029984762  0.029692471            4 
 2013000    0.9323519   -6.8696487    723.66951  0.029958168  0.029686238            3 
 2014000   0.92097774   -6.8665465    724.24613  0.029967152  0.029679973            3 
 2015000    0.9384062   -6.8637402    725.65124   0.03001039  0.029673784            4 
 2016000   0.93627665    -6.870901    727.02677  0.030052363  0.029667687            4 
 2017000   0.93284183   -6.8859171    724.67365  0.029940243   0.02966159            6 
 2018000   0.93729075    -6.895729     725.0957  0.029942835  0.029655403            5 
 2019000    0.9201931   -6.8902272    726.67602  0.029993232   0.02964928            2 
 2020000   0.92904915   -6.8767344    726.29633   0.02996272  0.029643083            5 
 2021000   0.92855843   -6.9121205    725.13505   0.02990001  0.029636888            4 
 2022000   0.91879689   -6.8850408    725.81576  0.029913277  0.029630592            7 
 2023000   0.93888105    -6.856421    725.12194   0.02986991  0.029624286            6 
 2024000    0.9218996   -6.8853735    724.78864   0.02984143  0.029618016            5 
 2025000   0.92425854   -6.8779939     725.4495  0.029853889   0.02961172            3 
 2026000   0.92741719   -6.9017524    725.62079  0.029846199  0.029605498            4 
 2027000   0.92251851   -6.9181851    726.31983  0.029860213  0.029599203            5 
 2028000   0.92443734    -6.918065    726.20702  0.029840854  0.029592927            9 
 2029000    0.9250119   -6.9729283    724.70135  0.029764307  0.029586514            8 
 2030000   0.92701089    -6.979541    724.38106  0.029736497  0.029580061            6 
 2031000   0.91982044   -6.8707097    725.56285  0.029770345  0.029573658            6 
 2032000   0.91246584   -6.8963568    726.05262   0.02977578  0.029567328            4 
 2033000   0.93312028   -6.9082865    727.63278  0.029825905  0.029561049            8 
 2034000   0.92807955   -6.9091331    727.09818  0.029789339  0.029554781            3 
 2035000   0.90332378   -6.9050702    727.90571  0.029807769  0.029548563            4 
 2036000   0.90818949   -6.8914476    727.97331  0.029795895  0.029542266            3 
 2037000      0.92953   -6.9026345    729.18357  0.029830779  0.029535878            6 
 2038000   0.92365867   -6.8754162    728.69114  0.029796007  0.029529591            5 
 2039000   0.93507834   -6.8741726    731.38861  0.029891638  0.029523444            4 
 2040000   0.93032447    -6.894366    730.68535  0.029848258  0.029517237            2 
 2041000   0.92684041   -6.8699624     728.9124  0.029761244  0.029511028            3 
 2042000   0.93429061   -6.9106622    728.07483  0.029712489  0.029504751            8 
 2043000   0.92329216    -6.903371    728.86223  0.029730063  0.029498407            6 
 2044000   0.92138935   -6.8724881    729.38432  0.029736804  0.029492102            5 
 2045000    0.9197789   -6.9276726    730.40889  0.029764013  0.029485883            6 
 2046000   0.93698477   -6.9424154    728.09385  0.029655175  0.029479603            7 
 2047000   0.91208392   -6.9056462     731.9531  0.029797797  0.029473374           10 
 2048000   0.92284524   -6.9274442    729.97018  0.029702563  0.029467091            4 
 2049000    0.9119171   -6.8928864    730.25566  0.029699677  0.029460885            5 
 2050000   0.91988455   -6.9233711    730.49161  0.029694781  0.029454611            3 
 2051000   0.92189023   -6.9059023    733.64295  0.029808343  0.029448395            4 
 2052000   0.93998546   -6.9088166    731.36582  0.029701341  0.029442226            5 
 2053000   0.93432583   -6.8813155    733.02286  0.029754135  0.029436067            8 
 2054000    0.9574114    -6.908331    733.66776  0.029765813  0.029429912            4 
 2055000   0.92593873    -6.904853    732.56497  0.029706609  0.029423733            4 
 2056000   0.91978972   -6.8916463    733.31807  0.029722684  0.029417652            7 
 2057000   0.92147389   -6.8681221    733.50088  0.029715641  0.029411541            9 
 2058000   0.92264288   -6.8988093    734.71158  0.029750226  0.029405465            2 
 2059000   0.92654907   -6.8748663    735.76401  0.029778372  0.029399358            4 
 2060000   0.93729689   -6.9002115    735.39884  0.029749144  0.029393261            3 
 2061000   0.92486392   -6.8900595    736.14682  0.029764953  0.029387202            4 
 2062000   0.92612739   -6.9489826    735.43107  0.029721592   0.02938104            3 
 2063000   0.89711537   -6.8971853    735.38086  0.029705157  0.029374928            5 
 2064000   0.89579566   -6.9053099    737.09293  0.029759889  0.029368882            6 
 2065000    0.9244161   -6.9074243    736.65945  0.029727984  0.029362843            5 
 2066000   0.91096786   -6.9187571    735.16062  0.029653139  0.029356642            5 
 2067000   0.93144715   -6.9079944    735.87802  0.029667716  0.029350548            3 
 2068000   0.90206693   -6.9105432    736.65112  0.029684523  0.029344303            8 
 2069000   0.93880058   -6.9161626    734.65908  0.029589942  0.029338048            5 
 2070000   0.94605242   -6.8914569    735.68487  0.029616943  0.029331883            5 
 2071000   0.94090865   -6.9595255    735.13627  0.029580568  0.029325729           17 
 2072000   0.92061152   -6.9106454    736.50688  0.029621416  0.029319468            5 
 2073000   0.92822896   -6.9040055    736.49432  0.029606621  0.029313189            5 
 2074000   0.92679311   -6.9012371    736.88721  0.029608133  0.029306868            3 
 2075000   0.90130736   -6.8844262    734.83136  0.029511299  0.029300513            7 
 2076000   0.90970442   -6.9265568    735.69321   0.02953168  0.029294052            5 
 2077000   0.92088706   -6.9295203    735.42171  0.029506568   0.02928765            2 
 2078000   0.92099476   -6.9222663     736.9403  0.029553268  0.029281242            5 
 2079000   0.91416891   -6.9134505    734.34624  0.029435075  0.029274833            3 
 2080000   0.92175663   -6.8913524    734.58169  0.029430356  0.029268357            5 
 2081000    0.9240418   -6.8983731    736.69991  0.029501037  0.029261915            9 
 2082000   0.91356934   -6.9030833    734.54301  0.029400537  0.029255421            6 
 2083000   0.91495711   -6.9196214    736.33748  0.029458213  0.029248915            3 
 2084000    0.9211317   -6.9204686    733.48391  0.029329971  0.029242406           10 
 2085000   0.92589908   -6.9231461    736.35899  0.029430815  0.029235782            4 
 2086000   0.92402215   -6.9271949    736.35486  0.029416541  0.029229239            8 
 2087000   0.89566344   -6.9004076    736.08298   0.02939159  0.029222696            5 
 2088000   0.90955659   -6.8997477    734.19653  0.029302224   0.02921611            4 
 2089000    0.9221863   -6.9207398    734.31595  0.029292961  0.029209496            3 
 2090000    0.9442737   -6.9428026     735.1221  0.029311088  0.029202868            5 
 2091000   0.91209325   -6.9012587    736.50726  0.029352274  0.029196205           12 
 2092000   0.92622559   -6.9378493    735.48827  0.029297653  0.029189586            6 
 2093000   0.90836514   -6.9404752    736.05137  0.029306075  0.029182886            7 
 2094000   0.92347487   -6.9157645    737.40113  0.029345795   0.02917626            6 
 2095000   0.91567698   -6.8682557    736.84103  0.029309508  0.029169618            6 
 2096000   0.92850946   -6.9197004     734.6543  0.029208584  0.029162917            6 
 2097000   0.91406469   -6.9235068    735.17712  0.029215432  0.029156257            8 
 2098000   0.94160198   -6.9214484    736.59909  0.029257987  0.029149553            5 
 2099000   0.91828478   -6.9008753    735.35146  0.029194516  0.029142825            6 
 2100000   0.91427595   -6.9083485     735.7863  0.029197869  0.029136164            4 
 2101000   0.90924579   -6.8954752    736.89744  0.029228044  0.029129436            4 
 2102000   0.91792873   -6.9162641    735.29268  0.029150519  0.029122711            9 
 2103000   0.90194956   -6.9440317    736.91865  0.029201088  0.029115943            2 
 2104000   0.91847441    -6.935575    738.55662  0.029252084  0.029109221            8 
 2105000    0.9173418    -6.927293    738.04615  0.029217979  0.029102558            3 
 2106000   0.90220861   -6.9311642    737.50647  0.029182751    0.0290958            5 
 2107000   0.92212682   -6.8969281    737.71952  0.029177326  0.029089066            2 
 2108000   0.90240768   -6.9395091    737.74694  0.029164569  0.029082396            3 
 2109000   0.90660169   -6.9479955     738.1705  0.029167477  0.029075663            5 
 2110000   0.91465895   -6.9490441    736.76959  0.029098325  0.029068965            4 
 2111000   0.90949026   -6.8859196    737.46791  0.029112108  0.029062257           13 
 2112000   0.90612787   -6.8645895    738.96045  0.029157215  0.029055615            3 
 2113000   0.90971012   -6.9192759    739.71622  0.029173222  0.029048921            7 
 2114000   0.92929263   -6.9573357     738.7449  0.029121133   0.02904219           11 
 2115000   0.93962084   -6.8672719    741.43872  0.029213503  0.029035484            9 
 2116000   0.88976071    -6.911009    739.66426  0.029129815  0.029028767            6 
 2117000   0.90560471   -6.9347421    742.14257  0.029213611   0.02902204            4 
 2118000   0.92193043   -6.9038488    739.33452  0.029089334  0.029015332            3 
 2119000   0.91989975   -6.9146003     739.3605  0.029076628   0.02900867            3 
 2120000   0.90334518   -6.8888876    738.83876  0.029042404  0.029001927            2 
 2121000   0.92979381   -6.9056236    743.01681  0.029192865  0.028995149            3 
 2122000   0.90852067   -6.9290418    741.20458   0.02910794  0.028988372            8 
 2123000   0.92393625   -6.9132272    742.50138  0.029145132  0.028981588            7 
 2124000   0.91321161   -6.9261318    742.39908  0.029127396  0.028974785            4 
 2125000   0.89827936   -6.9053163    739.53222  0.029001263  0.028968021           15 
 2126000   0.91858274   -6.9405082    740.61502  0.029030065  0.028961207            7 
 2127000   0.90484313   -6.9448822     740.8333  0.029024969  0.028954341            3 
 2128000   0.89511524   -6.9339367     739.6946  0.028966737  0.028947512            3 
 2129000   0.90259394   -6.9157307    740.38176  0.028980028  0.028940641            7 
 2130000   0.90068832   -6.9460051    740.67633  0.028977947    0.0289337            3 
 2131000   0.91104582   -6.9284585    738.47749  0.028878363  0.028926739            5 
 2132000   0.91739775   -6.9327612    742.58808  0.029025488  0.028919737            6 
 2133000   0.92679523    -6.923173    740.76524  0.028940664  0.028912762           10 
 2134000    0.9356586   -6.9343009    741.51856   0.02895652  0.028905773            3 
 2135000   0.90734969   -6.9486916    741.46178  0.028940741  0.028898835           12 
 2136000   0.93051086   -6.9020818     741.5156  0.028929292  0.028891956            4 
 2137000   0.90720342   -6.8904682    742.53626  0.028955555  0.028885059            3 
 2138000   0.91915949   -6.9138842    740.43585  0.028860144   0.02887816            6 
 2139000    0.8905133    -6.975972     740.4636  0.028847733  0.028871176            7 
 2140000   0.89648066   -6.9212666    743.80381  0.028964323  0.028864265            3 
 2141000   0.92205516    -6.907576    742.90164   0.02891568  0.028857296            4 
 2142000   0.88735878   -6.9147889    743.81401  0.028937676  0.028850376            2 
 2143000   0.89897643   -6.9210557    742.69604  0.028880698  0.028843507            8 
 2144000   0.92079914   -6.9280183    742.97184  0.028877948  0.028836554            4 
 2145000   0.92491213   -6.9419916    741.94036  0.028824412   0.02882965            8 
 2146000    0.9247442   -6.9311803    742.81025   0.02884476  0.028822674            4 
 2147000   0.91140715   -6.9355554    744.06979  0.028880212  0.028815717            3 
 2148000   0.91603567   -6.9415426    743.67697  0.028851527  0.028808818            3 
 2149000   0.90737159   -6.9291067     742.8891   0.02880755  0.028801836            3 
 2150000    0.9103925   -6.9448053    742.77795  0.028789843  0.028794816            6 
 2151000   0.90354064   -6.9442693    742.90326  0.028781313  0.028787815            3 
 2152000   0.92583631    -6.933374     743.7548  0.028800914  0.028780854            3 
 2153000   0.88416294   -6.9378036    745.13358  0.028840903  0.028773848            5 
 2154000   0.89769589   -6.9385574    742.95772  0.028743335  0.028766837           11 
 2155000   0.91078846   -6.9154876    744.21896  0.028778769  0.028759818            2 
 2156000   0.91128406   -6.9333994    745.01544  0.028796206  0.028752854           10 
 2157000   0.89338456   -6.8997022    745.10527  0.028786326  0.028745905            8 
 2158000   0.91539343   -6.9531947    744.88011  0.028764292  0.028738915            5 
 2159000   0.91010124   -6.9384403      746.898  0.028828856  0.028731942            4 
 2160000   0.90467168   -6.9607785    744.94397  0.028740122  0.028724972           11 
 2161000   0.91454703   -6.9617299    745.14295  0.028734496  0.028717937            6 
 2162000    0.9014699   -6.9251001    745.07337  0.028718523  0.028710915            5 
 2163000   0.91702815   -6.9352322    743.59696  0.028648365  0.028703864            2 
 2164000   0.89650556   -6.9357378    744.92007  0.028686078  0.028696819            6 
 2165000   0.88781332   -6.9268466    743.59752  0.028621921  0.028689801            5 
 2166000   0.88288579   -6.9595124    746.40456  0.028716704  0.028682733           11 
 2167000   0.89840458   -6.9361907    744.37867  0.028625545  0.028675711            6 
 2168000   0.89303726   -6.9117901    748.20159  0.028759286  0.028668711            4 
 2169000   0.90150948   -6.9460125    744.99049  0.028622656  0.028661732           10 
 2170000   0.90014921   -6.9610388    745.52155   0.02862986  0.028654748            6 
 2171000   0.89653781   -6.9563898    746.68256  0.028661237  0.028647809            3 
 2172000   0.90728078   -6.9511428    745.92292  0.028618897   0.02864078            5 
 2173000   0.89913682   -6.9468073    745.57781  0.028592492   0.02863374            4 
 2174000   0.92167767   -6.9450235    745.70178  0.028584092  0.028626668            8 
 2175000   0.91898061   -6.9331985    747.48402  0.028639234  0.028619674            8 
 2176000    0.9023101   -6.9506314    748.29942    0.0286573  0.028612684            8 
 2177000   0.88642007   -6.9370242    749.42127   0.02868708  0.028605614           11 
 2178000   0.88581141   -6.9361396    748.80366  0.028650278  0.028598605           10 
 2179000   0.90738658    -6.957011    748.23742  0.028615474  0.028591548            4 
 2180000   0.91038696   -6.9621285    746.98296  0.028554394  0.028584502            4 
 2181000   0.90090008   -6.9478394    747.82316  0.028573405  0.028577463            6 
 2182000   0.90265077   -6.9489901     748.3604  0.028580828  0.028570454            5 
 2183000   0.89144389   -6.9295227     747.8393  0.028547843  0.028563413            3 
 2184000   0.91107807   -6.9490687    749.25892  0.028588939  0.028556365            3 
 2185000   0.89781998   -6.9363077    750.77021  0.028633494  0.028549385            6 
 2186000    0.9194078   -6.9408041    748.96786  0.028551687  0.028542336            5 
 2187000   0.91765716   -6.9380429    749.82416   0.02857126  0.028535341            4 
 2188000   0.89648082   -6.9499929     748.7636  0.028517809  0.028528398            3 
 2189000   0.90797418   -6.9549887    751.31047  0.028601739  0.028521453            5 
 2190000   0.89093987   -6.9482211    750.68559  0.028564901  0.028514519            3 
 2191000   0.90494248    -6.954248    751.08822  0.028567177  0.028507543            6 
 2192000   0.92187614   -6.8991256    751.03027  0.028551941  0.028500595            9 
 2193000   0.88912264   -6.9341486    751.19158  0.028545052  0.028493712            6 
 2194000   0.90976167   -6.9790198    750.99704  0.028524652   0.02848678            4 
 2195000    0.9065781    -6.981516    749.56579  0.028457319  0.028479799            6 
 2196000   0.91219886   -6.9519008    750.01711  0.028461487  0.028472794            5 
 2197000   0.89224322   -6.9397216    750.52402   0.02846776  0.028465818            3 
 2198000   0.88480281   -6.9512243    748.66282  0.028384244  0.028458874            4 
 2199000   0.89188156   -6.9335477    749.59535  0.028406675  0.028451891            3 
 2200000   0.89862723   -6.9217769     751.9641  0.028483489  0.028444889            6 
 2201000   0.92354516   -6.9359867    753.10524  0.028513753  0.028438001            6 
 2202000   0.90741304   -6.9529378    752.72683  0.028486483  0.028431016            8 
 2203000   0.91073045   -6.9714566    751.13736  0.028413427  0.028423986            3 
 2204000    0.8924499    -6.965096    752.75691  0.028461771  0.028416908            6 
 2205000   0.89591578   -6.9750441    749.11037   0.02831105  0.028409775            4 
 2206000   0.89940753   -6.9770668    751.63643   0.02839364   0.02840268            5 
 2207000   0.90405327    -6.954314    752.09185  0.028397971  0.028395577            8 
 2208000   0.90237412   -6.9690535      753.872  0.028452295  0.028388548           10 
 2209000   0.91200761   -6.9669316     750.5443  0.028313879  0.028381454            4 
 2210000   0.90595331   -6.9598542    750.78003  0.028309956  0.028374358            4 
 2211000   0.89952887   -6.9489684     753.3279  0.028393182  0.028367275           11 
 2212000   0.88393131   -6.9819527    751.26439  0.028302607  0.028360226            6 
 2213000   0.89167345   -6.9400405    753.64001  0.028379274  0.028353202            6 
 2214000   0.88292565   -6.9392626    752.95346  0.028340615  0.028346152            4 
 2215000   0.89848705    -6.945771    752.03751   0.02829336   0.02833911            2 
 2216000   0.90725492   -6.9095468    753.88617  0.028350112   0.02833205            7 
 2217000   0.87321509   -6.9469079     753.2052  0.028311728  0.028324948            4 
 2218000   0.88697354   -6.9668143    753.37281   0.02830526  0.028317845            5 
 2219000   0.88616042   -6.9649608    754.04319   0.02831768  0.028310686            2 
 2220000   0.89597723   -6.9898952    751.68772  0.028216506  0.028303478            3 
 2221000   0.88209253   -6.9504788    752.96786  0.028251833  0.028296289            4 
 2222000   0.89818098   -6.9530283    752.86686  0.028235331  0.028289145            4 
 2223000    0.8920848   -6.9414359    754.94922  0.028300691  0.028282012            3 
 2224000   0.88981215   -6.9541806    753.79664  0.028244778  0.028274859            4 
 2225000   0.88727955   -6.9447732     755.1031  0.028281015  0.028267664            3 
 2226000   0.88754286    -6.957234    751.98906  0.028151732  0.028260452           10 
 2227000   0.90806067   -6.9405704    753.55682  0.028197756  0.028253202            4 
 2228000   0.88972538   -6.9682452    752.01823  0.028127552     0.028246           17 
 2229000   0.91930402   -6.9496282     753.1062  0.028155608  0.028238825            5 
 2230000   0.88937343   -6.9457553    751.89898  0.028097869  0.028231624            6 
 2231000   0.89591049   -6.9731375    753.93345  0.028161267  0.028224352            3 
 2232000   0.89332045   -6.9657594    754.38143  0.028165376  0.028217137            8 
 2233000   0.87657079   -6.9694241    754.26019  0.028148238  0.028209919            5 
 2234000   0.90004146    -6.960428    751.95272  0.028049564  0.028202736            5 
 2235000   0.88023762   -6.9425083     754.3586  0.028126719  0.028195463            5 
 2236000   0.89401391   -6.9475169    755.59971  0.028160395  0.028188227            4 
 2237000   0.88866286    -6.933112    755.91423  0.028159523  0.028181055            3 
 2238000   0.89312861    -6.958838    756.11697  0.028154489  0.028173892            6 
 2239000   0.89406933   -6.9971427    753.44682  0.028042535  0.028166687            5 
 2240000   0.90546683   -6.9581879    753.26509  0.028023255  0.028159431            8 
 2241000   0.90426927   -6.9742615    756.02533  0.028113392   0.02815215           13 
 2242000   0.88495208   -6.9589369    755.53644  0.028082681  0.028144967            4 
 2243000   0.88874009   -6.9900109    754.63607  0.028036709  0.028137779            3 
 2244000   0.89538448   -6.9741589    755.66448  0.028062406  0.028130571            6 
 2245000   0.88949918   -6.9877501    755.10101  0.028028991  0.028123344            3 
 2246000   0.88538019   -6.9522401    755.03912  0.028014215  0.028116101            5 
 2247000   0.89057178   -6.9694966    756.75521  0.028065391  0.028108882            4 
 2248000   0.88314218   -6.9694015    756.54784   0.02804522  0.028101673            3 
 2249000   0.90149013   -6.9670412    756.03246  0.028013653  0.028094435            7 
 2250000   0.89368586   -6.9898098    757.68405  0.028062372  0.028087141            5 
 2251000   0.89092064   -6.9489163     758.0212  0.028062387  0.028079959            6 
 2252000   0.89263346   -6.9681211    758.43204  0.028065129   0.02807282            4 
 2253000   0.90336338   -6.9657499     756.6398  0.027986381  0.028065654            3 
 2254000   0.90205351   -6.9183519    758.03009  0.028025365  0.028058452            3 
 2255000    0.9082598     -6.98979    754.76634  0.027892326   0.02805127            6 
 2256000   0.91859278   -6.9584658    758.93358  0.028033894  0.028044023            4 
 2257000    0.8738743    -6.966323    756.03385  0.027914409  0.028036669            7 
 2258000   0.89906121   -6.9593219     756.0343  0.027902063  0.028029278            6 
 2259000   0.88378213    -6.984174    755.92828  0.027885801  0.028021897           13 
 2260000   0.89735879   -6.9975377    757.61296  0.027935581  0.028014521            9 
 2261000   0.88890575   -6.9683967    756.47163   0.02788116  0.028007132            5 
 2262000   0.87951239   -6.9787919    754.75991  0.027805773  0.027999823            3 
 2263000   0.89471583   -7.0035598    756.40471  0.027854055  0.027992449            4 
 2264000   0.87417965   -6.9639106    758.13044  0.027905272  0.027985081            4 
 2265000   0.89181454   -6.9673932    758.84927  0.027919399  0.027977792            7 
 2266000   0.89152232   -6.9813167    757.71642  0.027865417  0.027970435            5 
 2267000    0.8936066   -6.9895648    759.57838   0.02792157  0.027963043           14 
 2268000   0.89043055   -6.9610703    757.75461  0.027842247  0.027955739            3 
 2269000   0.90063583   -6.9877421     757.6098  0.027824658  0.027948419            4 
 2270000   0.90137444   -6.9633328    756.63469  0.027776604  0.027941074            4 
 2271000   0.88393638   -6.9747657    758.24745  0.027823552  0.027933718            4 
 2272000   0.91105829   -6.9615179    757.13264  0.027770417  0.027926435            3 
 2273000   0.88973557   -6.9455292    762.10184  0.027940381  0.027919185            3 
 2274000   0.91045431   -6.9706984    762.24379  0.027933296  0.027911911            4 
 2275000   0.88203727   -6.9785624    758.17779   0.02777208  0.027904619            4 
 2276000    0.8906352   -6.9686491    759.51159  0.027808714  0.027897378            4 
 2277000    0.8805747   -7.0011413    759.70841  0.027803704  0.027890134            8 
 2278000   0.88407916    -6.991494      759.715   0.02779174  0.027882856            4 
 2279000   0.86653015   -6.9976445    759.44041  0.027769504  0.027875563            7 
 2280000   0.90309034   -6.9894294    760.46954  0.027794939  0.027868289            3 
 2281000   0.89532655   -6.9784232    760.13363  0.027770482  0.027861023            8 
 2282000   0.90059878   -6.9750529    759.59713  0.027738721  0.027853708            4 
 2283000   0.87881016    -6.982145    760.58156  0.027762504  0.027846406            5 
 2284000   0.88623421     -6.99919    759.90409  0.027725631  0.027839106            5 
 2285000   0.87291332    -6.971794    760.54252   0.02773678  0.027831796            4 
 2286000   0.87648685   -6.9864666    762.46327  0.027794666  0.027824469            7 
 2287000   0.89317243   -6.9634807    761.39637  0.027743637  0.027817142            4 
 2288000   0.88427534   -7.0112489     759.9595  0.027679178  0.027809807            6 
 2289000    0.8673149   -6.9682303    761.23999  0.027713703   0.02780253            3 
 2290000   0.87930858   -6.9840421    761.79578  0.027721826   0.02779529            3 
 2291000    0.9021134   -6.9518974    761.21468  0.027688589  0.027787996            4 
 2292000   0.87020478   -6.9763133    762.29747  0.027715877  0.027780712            5 
 2293000   0.86538142   -7.0038281    761.72618  0.027683027  0.027773372            7 
 2294000   0.89615954   -6.9837895     762.9602  0.027715788  0.027766074            6 
 2295000   0.87912601   -6.9752719    764.17507  0.027747824  0.027758795            7 
 2296000   0.89085824   -6.9977815    761.46709  0.027637453  0.027751487            3 
 2297000   0.89086739   -6.9820024    763.26237  0.027690552  0.027744241            4 
 2298000   0.88943899   -6.9668207    762.88771  0.027664915  0.027736955            6 
 2299000   0.88947164   -6.9726247    763.61842  0.027679368  0.027729702            4 
 2300000   0.88491217   -6.9809258    765.52496  0.027736412  0.027722526            4 
 2301000   0.88088725   -6.9959114    763.09882  0.027636492    0.0277153            8 
 2302000   0.89820832   -6.9813071    763.42609  0.027636334  0.027708053            8 
 2303000   0.87630731   -6.9909021    764.17448  0.027651414  0.027700817           10 
 2304000   0.89225051   -6.9829776    763.44907  0.027613175  0.027693586            8 
 2305000   0.89413751   -7.0059359     761.0147  0.027513185  0.027686342            7 
 2306000   0.89041582   -6.9922279    763.66111  0.027596889   0.02767907            7 
 2307000   0.87436715   -6.9848517    764.22457   0.02760528  0.027671825            8 
 2308000   0.86366952   -6.9848305    763.55923  0.027569296  0.027664544            4 
 2309000   0.88741266   -6.9874356    763.92862  0.027570688  0.027657262            6 
 2310000     0.877329   -6.9749009    764.03716  0.027562668  0.027650057            3 
 2311000   0.86146252   -7.0033078    765.46036  0.027602061  0.027642884            6 
 2312000     0.880218   -6.9973592    764.32832   0.02754932   0.02763571            3 
 2313000   0.89163279   -6.9929427    766.18932  0.027604457  0.027628559            2 
 2314000   0.87238329   -6.9954864    766.17468  0.027592001   0.02762145            6 
 2315000   0.89094497   -7.0248428    765.86531  0.027568946  0.027614273            4 
 2316000   0.88491584   -6.9887752    766.03466  0.027563135  0.027607137            4 
 2317000   0.89674536   -6.9837224    767.43407   0.02760157  0.027600002            9 
 2318000   0.90402497   -6.9842888    766.42915  0.027553536  0.027592899            7 
 2319000   0.89570535    -6.962983    767.87931  0.027593766  0.027585824            5 
 2320000   0.87810496   -6.9901206    765.78667  0.027506705  0.027578766            7 
 2321000   0.86424766   -6.9725255    769.28398  0.027620421  0.027571723            5 
 2322000   0.86816872   -6.9968973    769.60936  0.027620204  0.027564648            9 
 2323000   0.90268004    -7.008963    768.13969  0.027555592  0.027557634            3 
 2324000   0.87885147    -6.981528    767.80294   0.02753166  0.027550505            6 
 2325000   0.88088084   -6.9775313    767.70606  0.027516346   0.02754344            4 
 2326000   0.86004015   -7.0017213    768.27635  0.027524948  0.027536338            8 
 2327000   0.87621923   -6.9634116    769.85958  0.027569818  0.027529304           12 
 2328000    0.8710081   -7.0104028    768.85172  0.027521897  0.027522195            4 
 2329000   0.88897251   -6.9964775    770.29088  0.027561574   0.02751513            6 
 2330000   0.88442086   -6.9788135    769.86232  0.027534418  0.027508134           13 
 2331000    0.8779334   -6.9863446    769.22238  0.027499728  0.027501077            3 
 2332000   0.86437517   -7.0070466    769.70046  0.027505019   0.02749396            5 
 2333000   0.87742667   -6.9764178    769.12162  0.027472554   0.02748691            3 
 2334000   0.86395476   -6.9752589    770.37541  0.027505549  0.027479844            6 
 2335000   0.88508787   -6.9990483    770.08491  0.027483402  0.027472784            5 
 2336000   0.87317528   -6.9855801    770.11884  0.027472847  0.027465714            5 
 2337000   0.90162432   -7.0051835    770.40912  0.027471442   0.02745859            4 
 2338000    0.8996095   -6.9875166    769.44496  0.027425326  0.027451534            5 
 2339000   0.87590824   -6.9698201    769.98272  0.027432761  0.027444486            7 
 2340000   0.86470219   -7.0066676    772.10387  0.027496577  0.027437506            3 
 2341000   0.87735422   -7.0066863    772.10648  0.027484924  0.027430544            5 
 2342000    0.8915166   -6.9792992    772.12577  0.027473874  0.027423572           12 
 2343000   0.87628353   -7.0002281     771.2498  0.027430993  0.027416574            5 
 2344000   0.88704304   -7.0213758    773.08448  0.027484517  0.027409537            4 
 2345000    0.8656901   -6.9811857    772.42911  0.027449506  0.027402548           11 
 2346000   0.86934471   -7.0030344    770.75206  0.027378234  0.027395549            9 
 2347000   0.87344411   -6.9948776    770.67236   0.02736374  0.027388549            4 
 2348000   0.88001834    -6.973814    772.68491  0.027423513  0.027381605            2 
 2349000   0.88968672   -6.9751642    772.07939  0.027390357  0.027374671            2 
 2350000   0.87018736   -6.9995806    772.93223  0.027408944  0.027367719            3 
 2351000   0.85189748   -7.0044306    771.86329  0.027359396  0.027360678            8 
 2352000   0.86450149   -6.9527671    773.51348  0.027406232  0.027353719            5 
 2353000    0.8768839   -7.0108244    770.83395  0.027299687  0.027346743            5 
 2354000   0.88281427   -7.0453872    771.62888  0.027316231   0.02733976            7 
 2355000   0.87624489   -6.9834589    772.64478   0.02734058  0.027332834            5 
 2356000   0.86582965   -7.0257393    771.88465  0.027302089  0.027325867            5 
 2357000   0.88508249   -6.9957279    775.76419  0.027427669  0.027318906            6 
 2358000   0.88567699   -7.0168004    772.84588  0.027312902  0.027311954            8 
 2359000   0.86547728   -7.0516353    773.39947   0.02732088  0.027304966            5 
 2360000   0.88896071   -7.0218072    771.21038  0.027232005  0.027297892            6 
 2361000   0.86991874   -7.0124559    773.21612  0.027291265  0.027290886           13 
 2362000   0.86580083   -7.0051795    772.52897  0.027255468  0.027283892            3 
 2363000    0.8493288   -7.0123114    772.70562  0.027250163  0.027276883            6 
 2364000   0.85813085   -7.0019041    775.77082  0.027346687   0.02726986            3 
 2365000   0.87572285   -7.0158965    774.85009  0.027302681  0.027262869            9 
 2366000   0.86272584   -7.0297574    774.21936  0.027268926  0.027255835            6 
 2367000   0.87374006   -7.0031539    774.39926  0.027263739  0.027248836            6 
 2368000   0.88170158   -7.0114602    775.60572  0.027294683  0.027241838            6 
 2369000   0.87022755   -7.0022935    774.11828  0.027230839  0.027234928            9 
 2370000   0.85665873   -6.9967168    777.94852  0.027354027  0.027228039            5 
 2371000   0.86349025   -7.0025707    775.51787   0.02725706  0.027221156           10 
 2372000   0.88078353   -7.0303674    774.46633  0.027208626  0.027214249            5 
 2373000   0.87746488    -7.021301    777.90212  0.027317816  0.027207361            3 
 2374000   0.86267242   -7.0167557    774.72002  0.027194609  0.027200447            5 
 2375000   0.86267648   -7.0351179    775.21807  0.027200634  0.027193461            6 
 2376000   0.88833292   -7.0500647     775.6765  0.027205264  0.027186452            2 
 2377000   0.88933962   -7.0076286    777.71079  0.027265138  0.027179532            4 
 2378000   0.85908589   -6.9961833    776.58653  0.027214274  0.027172663            6 
 2379000   0.87957009   -7.0134297    776.94815  0.027215502  0.027165798            6 
 2380000   0.85639193    -6.978175    779.20889  0.027283224  0.027158906            3 
 2381000   0.86967106   -6.9987366    777.84896  0.027224169  0.027152055            7 
 2382000   0.86469849   -7.0021643     776.6446  0.027170606  0.027145157            5 
 2383000    0.8599019   -7.0034802    779.22313  0.027249375  0.027138218            3 
 2384000   0.86678321     -6.98161    777.14358  0.027165254  0.027131315           10 
 2385000   0.86873142   -6.9906245    778.75046  0.027210009  0.027124465            7 
 2386000   0.88247017   -7.0066008    779.11752  0.027211425  0.027117653            4 
 2387000   0.88412498    -6.979699    779.93272  0.027228485  0.027110849            3 
 2388000   0.89138189   -7.0234449    778.79927  0.027177529   0.02710401            4 
 2389000   0.86867134   -7.0224697    779.32202  0.027184387  0.027097128           17 
 2390000   0.86731216   -7.0362689    778.94643  0.027159918  0.027090251           11 
 2391000   0.87923246   -7.0016145    779.50698  0.027168095  0.027083445            7 
 2392000   0.87391809   -6.9931441    780.04941  0.027175634  0.027076591            5 
 2393000   0.86204668   -6.9961885     779.5698  0.027147576  0.027069716            3 
 2394000   0.85836727   -6.9744079    780.71024  0.027175934  0.027062905            8 
 2395000   0.86495028   -7.0116639    779.98807   0.02713946  0.027056086           16 
 2396000   0.87784808   -6.9963052    780.31984  0.027139672  0.027049234            9 
 2397000   0.86446333   -6.9947471    779.60716  0.027103572  0.027042373            4 
 2398000   0.86801731   -7.0219288      779.374  0.027084167  0.027035464            4 
 2399000   0.87360025   -7.0240918    780.62679  0.027116395  0.027028553            5 
 2400000    0.8612193    -7.025398     780.1111  0.027087191  0.027021674            3 
 2401000   0.89034924   -7.0437985    779.90107   0.02706862  0.027014827            3 
 2402000   0.85616615   -7.0146726     782.9584  0.027163419  0.027007961            4 
 2403000   0.87809537   -7.0007317    781.97038  0.027117852   0.02700115            3 
 2404000    0.8637134   -7.0516069    781.62451  0.027094582  0.026994286            6 
 2405000   0.89658729   -7.0313294    781.46142  0.027077665  0.026987424            5 
 2406000   0.87627546   -7.0142594     780.5975  0.027036489  0.026980546           10 
 2407000   0.87573366   -7.0240938    783.23385   0.02711653   0.02697367            4 
 2408000   0.87389908   -7.0277101    782.36518  0.027075207  0.026966772           10 
 2409000   0.86544289   -7.0303303    783.00711  0.027086174   0.02695992            4 
 2410000   0.86191873   -7.0100697     782.0204  0.027040816    0.0269531            7 
 2411000   0.86963803   -7.0406322    781.25754  0.027003233  0.026946287            6 
 2412000   0.87473457   -7.0185139    781.86413  0.027012995  0.026939413            5 
 2413000   0.88725918   -7.0222694    781.19659  0.026978747  0.026932522            9 
 2414000   0.89058343   -7.0395402    783.31852  0.027040822   0.02692566            5 
 2415000    0.8947697   -7.0280458    783.88089   0.02704903  0.026918814            6 
 2416000   0.89444056   -6.9892034    784.35349  0.027054135  0.026911946            3 
 2417000   0.88281947   -7.0028948    783.37332  0.027009148  0.026905064            8 
 2418000   0.86352718   -6.9775375    783.58607   0.02700531  0.026898158            6 
 2419000   0.85307417   -7.0430324    782.01859  0.026940147  0.026891267            7 
 2420000   0.85602071   -7.0425123    781.41763  0.026908321  0.026884374            7 
 2421000   0.84356541   -6.9971593    783.93987  0.026984024  0.026877503            9 
 2422000   0.87353582   -6.9986951    782.73538   0.02693144  0.026870662            7 
 2423000   0.85153934   -7.0298124    781.59091  0.026880964  0.026863804            6 
 2424000   0.86164542    -7.023163    783.24023  0.026926576  0.026856968           12 
 2425000   0.86580198   -7.0192451    785.23183  0.026983912  0.026850135            6 
 2426000   0.86061144   -7.0001681    783.81642  0.026924169  0.026843287            3 
 2427000   0.85578871    -7.046224    783.69129  0.026908779   0.02683643            9 
 2428000   0.84069976    -7.029583    783.03723  0.026875248  0.026829557            3 
 2429000   0.86422995   -7.0513594    785.38487  0.026944726  0.026822705           11 
 2430000    0.8640597   -7.0184756    785.36513   0.02693296  0.026815844            7 
 2431000   0.88217543   -6.9895172     784.1738  0.026881043  0.026809058            9 
 2432000   0.87335617    -7.018015    785.77466  0.026924844  0.026802223           18 
 2433000   0.87445184   -7.0629169    783.28777  0.026828599  0.026795344           27 
 2434000   0.86955452   -7.0178211    784.26856  0.026851156  0.026788428           15 
 2435000   0.86629871   -7.0126584    783.43835  0.026811716   0.02678157            3 
 2436000   0.86534712   -7.0228822    786.44446  0.026903546  0.026774683            8 
 2437000   0.86320692   -7.0173371    784.77123   0.02683529  0.026767798            7 
 2438000   0.88111566   -7.0191091    784.34296  0.026809645  0.026760898            4 
 2439000   0.85827403    -7.064484    783.35619  0.026764938  0.026753964           10 
 2440000   0.84878721   -7.0228315    786.15984  0.026849721  0.026747072            7 
 2441000   0.85311592   -7.0180217    784.13403  0.026769563  0.026740265            6 
 2442000   0.88448579   -7.0314306    786.22589  0.026829985  0.026733474            5 
 2443000   0.85751619    -7.033176    784.74348  0.026768436  0.026726654            6 
 2444000   0.87575439   -7.0516066    785.14463  0.026771162   0.02671983            8 
 2445000   0.86131779   -7.0279534    787.12014  0.026827544  0.026712991            3 
 2446000   0.87200275   -7.0461522    786.66833  0.026801183  0.026706175            7 
 2447000   0.85012535   -7.0419222    786.13058  0.026771917  0.026699373            5 
 2448000   0.86989763   -7.0305839    785.20732  0.026729552  0.026692548           10 
 2449000   0.85009664   -7.0170208    788.31751  0.026824469  0.026685753            3 
 2450000    0.8642504   -7.0324099     786.5501  0.026753405  0.026679004           11 
 2451000   0.86547973   -7.0495388    787.26156  0.026766679  0.026672213            4 
 2452000   0.86332826   -7.0351599    788.18894   0.02678728  0.026665386            9 
 2453000   0.85805561   -7.0309774    788.61816  0.026790942  0.026658541            6 
 2454000   0.84999337   -7.0591416    787.04638   0.02672665  0.026651728            7 
 2455000   0.86437108   -7.0339209    787.75778  0.026739911  0.026644871           10 
 2456000   0.86570461   -7.0586895    787.20976  0.026710429  0.026638021           10 
 2457000   0.85846301   -7.0117197    788.22674   0.02673405  0.026631201            7 
 2458000   0.87794254   -7.0288706    788.06228  0.026717598  0.026624414            6 
 2459000   0.86283214   -7.0230364     789.9124  0.026769432  0.026617654            6 
 2460000   0.86313571   -7.0400294     789.5451  0.026746108  0.026610867           14 
 2461000   0.85137379    -7.024726    790.68627  0.026773881  0.026604036            5 
 2462000   0.86829504   -7.0457446    787.44153  0.026653179  0.026597203            8 
 2463000   0.85039104   -7.0256329    789.24887  0.026703508  0.026590423            4 
 2464000    0.8594789   -7.0546777    786.86469  0.026612036  0.026583651            3 
 2465000   0.83387743   -7.0444161    788.90015  0.026670052  0.026576809            5 
 2466000   0.88238613   -7.0338174    788.98972  0.026662264  0.026569983            4 
 2467000   0.84602311   -7.0180571    789.71836   0.02667607  0.026563148            6 
 2468000   0.86129875   -7.0616332    787.86843  0.026602797  0.026556344            5 
 2469000   0.85306437   -7.0309416    788.87878  0.026626123   0.02654951            6 
 2470000   0.86018114   -7.0272732    789.07585  0.026621992  0.026542684            5 
 2471000   0.84502612   -7.0034655     789.6195  0.026629553  0.026535884            5 
 2472000   0.87032279   -6.9878025     792.9994   0.02673272  0.026529149            5 
 2473000   0.84306427   -6.9815756    793.69725  0.026745426  0.026522402            3 
 2474000   0.86935125   -7.0528482    789.47544  0.026592409  0.026515606            4 
 2475000   0.87139144   -7.0231098    790.15177  0.026604437   0.02650876            4 
 2476000   0.85619946   -7.0845133    789.81487  0.026582353  0.026501932            9 
 2477000    0.8467847   -7.0726494    787.43185   0.02649145  0.026495023            6 
 2478000   0.85655612   -7.0127973     788.9305  0.026531158  0.026488122            7 
 2479000   0.83259776   -7.0251323    790.46473  0.026572029  0.026481242           12 
 2480000    0.8333589   -7.0403956    790.85893  0.026574561  0.026474401            6 
 2481000   0.84272312    -7.011779    793.02154  0.026636489   0.02646752            4 
 2482000   0.85003308   -7.0561839    790.96574  0.026556733  0.026460665            3 
 2483000   0.83384683    -7.072524     790.1697  0.026519321  0.026453795            8 
 2484000   0.85235227   -7.0193923    789.89529  0.026499439  0.026446917            6 
 2485000   0.83967124   -7.0394744    791.79501  0.026552482  0.026440058            8 
 2486000   0.87838157   -7.0360286    790.70394  0.026505227  0.026433181            9 
 2487000   0.86559258   -7.0229726    791.80264  0.026531384   0.02642636            4 
 2488000   0.86001061   -7.0389539    790.62066  0.026481131  0.026419514            3 
 2489000   0.85316469   -7.0693577    789.56567   0.02643517  0.026412684            5 
 2490000   0.86266607   -7.0441005    789.72276  0.026429811  0.026405846           14 
 2491000   0.87520882   -7.0591945    791.82064  0.026489383  0.026399044           10 
 2492000    0.8646256   -7.0189832    793.59996  0.026538254  0.026392242            8 
 2493000   0.85645736   -7.0402397    792.36296   0.02648626  0.026385448            5 
 2494000   0.86845959    -7.039966    791.98123  0.026462885  0.026378669            2 
 2495000   0.82902196   -7.0488401    791.25579  0.026428049  0.026371873            6 
 2496000   0.84343613   -7.0387135    791.85747  0.026437549  0.026365053            4 
 2497000   0.85122494   -7.0626227    791.63797  0.026419636  0.026358232            4 
 2498000   0.84702596   -7.0215994    792.38473  0.026433971   0.02635144            3 
 2499000   0.85130405   -7.0759024    793.00553  0.026444095  0.026344662            2 
 2500000   0.87194444   -7.0305703    794.68303  0.026489434  0.026337866            7 
 2501000   0.84719989   -7.0552805    792.74402  0.026414235   0.02633106           21 
 2502000   0.84065537    -7.028025    793.93352  0.026443296  0.026324272            5 
 2503000   0.85335966   -7.0425403    794.27418  0.026444073  0.026317509            8 
 2504000   0.85099221   -7.0635602    796.01396  0.026491412  0.026310787           11 
 2505000   0.85324615    -7.026667    793.97481  0.026413001  0.026304026            7 
 2506000   0.85585841   -7.0249447      795.333  0.026447626  0.026297315            6 
 2507000   0.84714111   -7.0547674    793.32527  0.026370339  0.026290508            4 
 2508000   0.87338276   -7.0767102    793.29611  0.026358855  0.026283661           11 
 2509000   0.84751995   -7.0472775    795.16948  0.026410571  0.026276858            5 
 2510000   0.83413918   -7.0340389    794.22347  0.026368641  0.026270046            6 
 2511000   0.85030216    -7.015494    795.00611  0.026384114  0.026263262            3 
 2512000   0.85404878   -7.0461182    794.79337  0.026366553  0.026256477            9 
 2513000   0.87041111   -7.0430666     794.3888  0.026342645  0.026249628            8 
 2514000   0.85928778   -7.0523405    796.05299  0.026387331  0.026242829           16 
 2515000   0.85446143   -7.0279575    794.56818   0.02632764  0.026236014            6 
 2516000   0.84118986   -7.0338659     794.3339  0.026309416  0.026229216            5 
 2517000   0.86364112   -7.0188525    794.77701  0.026313634  0.026222417            6 
 2518000   0.86173837   -7.0256481    795.95071  0.026342028  0.026215564            7 
 2519000   0.85255409   -7.0409164    793.89471  0.026263554  0.026208766            3 
 2520000   0.83170615   -7.0469325    794.46248  0.026271907  0.026201889            4 
 2521000   0.84578858   -7.0422782    794.18472  0.026252305  0.026195028            4 
 2522000   0.84421699   -7.0489273    797.69112  0.026357756  0.026188172            5 
 2523000   0.84636302   -7.0437768    796.11122  0.026295125  0.026181295            9 
 2524000    0.8578082   -7.0633707    795.83109  0.026275459  0.026174423            8 
 2525000   0.84605659   -7.0457325    797.94652  0.026334868  0.026167611            7 
 2526000    0.8526978   -7.0488589    794.82319  0.026221404  0.026160814            4 
 2527000   0.83133208   -7.0567345    795.87102  0.026245582  0.026154012            5 
 2528000   0.83552721   -7.0487225    797.81566  0.026299303  0.026147235            6 
 2529000   0.83433222   -7.0625418    796.09388  0.026232169  0.026140442            3 
 2530000   0.86762292   -7.0921181    794.01036  0.026153174   0.02613361            6 
 2531000   0.83658076   -7.0651303    795.53801  0.026193139  0.026126705           10 
 2532000   0.85551037   -7.0537981    795.28643  0.026174514  0.026119786            5 
 2533000   0.82363373   -7.0971372     794.3151  0.026132225  0.026112888            6 
 2534000   0.85488316   -7.0599812     793.8447  0.026106442  0.026105996            6 
 2535000   0.84380561   -7.0915409    796.48573  0.026182963  0.026099055            8 
 2536000   0.84931729   -7.0625169    796.57919   0.02617571  0.026092123            3 
 2537000   0.83191772   -7.0820591    796.10076  0.026149677  0.026085228            4 
 2538000   0.84173041    -7.052938    796.16906  0.026141616  0.026078297            3 
 2539000   0.83160791   -7.0594201    795.96038  0.026124471   0.02607142            8 
 2540000   0.85126329   -7.0467574    796.07935  0.026118089  0.026064539           10 
 2541000   0.82701046   -7.0654399    794.95355  0.026070889  0.026057632            8 
 2542000   0.85112007   -7.0520888    797.10898  0.026131294  0.026050686           12 
 2543000   0.84220491   -7.0466794    796.25522   0.02609304  0.026043799            8 
 2544000   0.84321452   -7.0525293    798.22577  0.026147333  0.026036874            8 
 2545000   0.86190724   -7.0438703    796.98359  0.026096385  0.026030034            6 
 2546000   0.84839309   -7.0370743    798.20682  0.026126172  0.026023226            4 
 2547000   0.83898719   -7.0941772    798.87513  0.026137781  0.026016398            5 
 2548000   0.84902458   -7.0784621    798.66923  0.026120789  0.026009574            4 
 2549000   0.86127519   -7.0850023    799.25559  0.026129711  0.026002766            3 
 2550000    0.8317205   -7.0412174    798.80912  0.026104873  0.025995957            4 
 2551000   0.84590005   -7.0644885    798.91977  0.026098255  0.025989173            5 
 2552000   0.84286143   -7.0730837    797.97606  0.026057212  0.025982339            8 
 2553000   0.84451463   -7.0599153    797.49846  0.026031416  0.025975482           10 
 2554000   0.84972915   -7.0489302    798.15186  0.026042543  0.025968636           10 
 2555000   0.83763551   -7.0924796    797.11146  0.025998417  0.025961766            9 
 2556000   0.84663885   -7.0708514    799.54518  0.026067592  0.025954943            2 
 2557000   0.86755589    -7.049824    799.26737  0.026048343  0.025948142            6 
 2558000   0.84040624   -7.0945097    798.73195  0.026020718   0.02594134            6 
 2559000   0.84297126   -7.0736762    799.73939  0.026043356  0.025934527           14 
 2560000   0.83309313   -7.0796557    798.14012  0.025981124    0.0259277            5 
 2561000   0.83596464   -7.0821149    797.91032  0.025963501  0.025920872            6 
 2562000   0.82777885   -7.0975219    800.50414  0.026037736  0.025914104            5 
 2563000   0.84148975    -7.092347    800.78624  0.026036749  0.025907303            6 
 2564000    0.8392067   -7.0663279    800.59951  0.026020525  0.025900509            7 
 2565000    0.8326263   -7.0773127    799.27339  0.025967297  0.025893706            3 
 2566000    0.8543518   -7.1001563    798.64896  0.025936898  0.025886906            4 
 2567000    0.8535944   -7.0687335    796.30927   0.02585084  0.025880034            8 
 2568000   0.84769867   -7.0534939    799.01071  0.025928437  0.025873187            4 
 2569000   0.85521566   -7.0479721    801.14621  0.025987616  0.025866376            9 
 2570000   0.82953573   -7.0619682    800.40952  0.025953616  0.025859558            8 
 2571000   0.83512768   -7.0586415    800.83265  0.025957236  0.025852739            3 
 2572000   0.84003061   -7.0973443    799.28302  0.025896936  0.025845923            6 
 2573000   0.86080713    -7.077926    800.20274  0.025916658  0.025839069            7 
 2574000   0.83326274   -7.0528545    799.84169    0.0258949  0.025832248            4 
 2575000   0.83447724   -7.0807489    798.96106  0.025856345  0.025825428            4 
 2576000   0.82233526   -7.0363108    800.97154  0.025911346  0.025818634            4 
 2577000    0.8409785   -7.0506834    801.80403  0.025928212  0.025811846            5 
 2578000   0.85981995   -7.0687296    801.67486  0.025913979  0.025805069            8 
 2579000   0.83374251    -7.073423    804.75873  0.026003578  0.025798264            6 
 2580000   0.84487076    -7.078882    800.54203  0.025857301  0.025791435            5 
 2581000   0.83203335   -7.0978336    801.56848  0.025880424  0.025784596            4 
 2582000   0.83707749   -7.0870579    801.28588  0.025861279   0.02577778            4 
 2583000   0.84201344   -7.0597182    799.35138  0.025788856   0.02577097            2 
 2584000   0.85547393   -7.0572813    800.86624   0.02582773  0.025764161            5 
 2585000   0.84774022   -7.0644207    802.09748   0.02585743  0.025757364            7 
 2586000   0.84471711   -7.1272255    799.59676  0.025766846   0.02575055           11 
 2587000   0.82618079    -7.080608    802.64836  0.025855185  0.025743744            8 
 2588000   0.81762788   -7.0445346    804.10977  0.025892252  0.025736965           10 
 2589000   0.82292603   -7.0748307    803.00785  0.025846783  0.025730242            4 
 2590000   0.83149153   -7.0681343    805.49254  0.025916748  0.025723529            8 
 2591000   0.83622472   -7.0456889    803.65737  0.025847722  0.025716786            7 
 2592000   0.84980407   -7.0799995    805.70356  0.025903535  0.025710032            4 
 2593000   0.82525059   -7.0649056    804.44424  0.025853074  0.025703269            8 
 2594000   0.82349395   -7.0747191    803.79344    0.0258222  0.025696508            5 
 2595000   0.81325273   -7.0953482    802.20977  0.025761393  0.025689725            9 
 2596000    0.8568963   -7.0628946    804.39657  0.025821667  0.025682941            8 
 2597000    0.8317225   -7.1177884     802.3391  0.025745703  0.025676114            9 
 2598000   0.84732623   -7.0498218     804.0342  0.025790166   0.02566931            6 
 2599000   0.83026651    -7.072316    804.23909  0.025786812  0.025662534            5 
 2600000   0.83965178    -7.084992    803.91383  0.025766469  0.025655798            5 
 2601000   0.84883856   -7.0854922    803.46515  0.025742187   0.02564909           14 
 2602000   0.83551443   -7.0856457    805.28312  0.025790518  0.025642385            9 
 2603000   0.81638489   -7.0811114    803.39251  0.025720083  0.025635633            5 
 2604000   0.81955821   -7.0730547    804.45377  0.025744168  0.025628883            9 
 2605000   0.83148943   -7.0674039    805.12827  0.025755863  0.025622148            4 
 2606000   0.84740397   -7.0803131    803.91525   0.02570719  0.025615359            9 
 2607000   0.81640912   -7.0938043    806.16484  0.025769238  0.025608593            8 
 2608000   0.84568508   -7.0691324    805.89892   0.02575086  0.025601846           11 
 2609000   0.85668898   -7.1067383    804.76691  0.025704833  0.025595105           11 
 2610000   0.83234655   -7.0637601    804.41149  0.025683636  0.025588302            4 
 2611000   0.85878857   -7.0864687    802.79244  0.025622126  0.025581476            5 
 2612000    0.8440668   -7.1045698    805.82253  0.025708988  0.025574653           13 
 2613000   0.83092825   -7.0775571    804.22234  0.025648117  0.025567848            7 
 2614000   0.85088002   -7.1215808    806.28911  0.025704193  0.025561076            9 
 2615000   0.85818094   -7.0981762    805.20934  0.025659954  0.025554258            5 
 2616000   0.82854608   -7.1156733    803.04542  0.025581212  0.025547399            6 
 2617000   0.83133338   -7.0956023    804.78704  0.025626896  0.025540552            9 
 2618000   0.82438074   -7.0880198    804.26797  0.025600585  0.025533727           12 
 2619000   0.81721324    -7.077772    804.62501   0.02560217  0.025526913            6 
 2620000   0.81663147   -7.1122523      806.427  0.025649714  0.025520052            5 
 2621000   0.84588877   -7.0724449    808.83585  0.025716516  0.025513236            3 
 2622000   0.82996333   -7.0846597    804.96405  0.025583653  0.025506415            6 
 2623000   0.84803513   -7.0676051    804.37927   0.02555532  0.025499594           12 
 2624000   0.82941523    -7.095335    804.82441  0.025559718  0.025492738            9 
 2625000   0.84551731   -7.1094775    806.71427  0.025609977  0.025485872           10 
 2626000   0.84000379   -7.0793909    807.12213  0.025613167  0.025479031            5 
 2627000   0.83523458   -7.0928868    806.54213  0.025585019  0.025472235            5 
 2628000   0.82041144   -7.0797055     804.6447  0.025515116  0.025465413            7 
 2629000   0.83449023   -7.0860055    806.77002  0.025572779  0.025458612            3 
 2630000   0.81610213   -7.0536182    808.64867  0.025622581  0.025451788            8 
 2631000   0.82875429   -7.1107484    805.15949  0.025502328  0.025444966           10 
 2632000   0.84559021   -7.0906433    807.14433  0.025555482  0.025438115            6 
 2633000   0.83359648   -7.0921465    805.89352  0.025506188  0.025431308            8 
 2634000   0.82161176   -7.0952663    807.92233  0.025560691  0.025424496           10 
 2635000   0.82172623   -7.1308626    806.32949  0.025500616  0.025417654            8 
 2636000   0.83334009   -7.1171086    806.93819  0.025510186  0.025410799            9 
 2637000   0.80881656   -7.1015496    807.42148  0.025515784  0.025403945            3 
 2638000   0.80155631   -7.1159977    804.82638  0.025424134  0.025397055            8 
 2639000   0.81098976   -7.0924077     808.1237  0.025518621  0.025390152            8 
 2640000   0.79702041   -7.0941945    804.87877  0.025406527  0.025383267            8 
 2641000   0.82103646    -7.095979    804.91658    0.0253981  0.025376393            7 
 2642000   0.82156606   -7.1274072    806.51466  0.025438893  0.025369535            5 
 2643000   0.81547756   -7.0999124    807.04872  0.025446107  0.025362673            5 
 2644000   0.84745903   -7.0918749    806.50071   0.02541921  0.025355811            8 
 2645000   0.82710805   -7.1151203    807.49977  0.025441077  0.025348991            7 
 2646000   0.81356161   -7.0975791    809.19503  0.025484852   0.02534216            4 
 2647000   0.82829955   -7.1164453     807.4959  0.025421732   0.02533533            7 
 2648000   0.81864492   -7.1112113     807.0489  0.025398065  0.025328502            5 
 2649000   0.83274179   -7.1011203    806.36332   0.02536691  0.025321643            4 
 2650000    0.8239636   -7.0992972    809.46078  0.025454742  0.025314804            6 
 2651000   0.82448785   -7.0880188    807.74158  0.025391097  0.025307987            5 
 2652000   0.82719596   -7.1051517    807.63236  0.025378091  0.025301157           10 
 2653000   0.81098624   -7.0958467    808.18327   0.02538583  0.025294379            5 
 2654000   0.83799319   -7.0912286    808.50519  0.025386372  0.025287598            9 
 2655000   0.81951713   -7.1055854    809.44093  0.025406181  0.025280833            4 
 2656000   0.83901908   -7.0829268    806.57561  0.025306715  0.025274051            3 
 2657000   0.81436431   -7.1081886    808.26637  0.025350219  0.025267277            4 
 2658000    0.8233127   -7.0680308    810.36691  0.025406537   0.02526053            4 
 2659000   0.83014668   -7.1079875    809.40584  0.025366862  0.025253762            5 
 2660000   0.82825163   -7.1061085    809.04612  0.025346056  0.025246988            4 
 2661000   0.81684934   -7.1029278    809.82517  0.025360929  0.025240237           13 
 2662000   0.83845941   -7.1204383    808.92961  0.025323366  0.025233459            5 
 2663000    0.8182142   -7.0852873    808.76052  0.025308565  0.025226667            6 
 2664000   0.81627548   -7.1348352    807.84705  0.025270491  0.025219835            7 
 2665000   0.82365858   -7.1046217    809.37137  0.025308673  0.025213057            6 
 2666000   0.81080091   -7.0872165    810.06525  0.025320869  0.025206314            7 
 2667000   0.81929879    -7.108338    812.42917  0.025385238  0.025199573            8 
 2668000   0.84537658   -7.0917089     811.8382  0.025357265  0.025192881            6 
 2669000   0.83548647   -7.1018352    811.01723  0.025322131  0.025186145           15 
 2670000   0.83501419   -7.0930822    812.13819  0.025347634  0.025179397           10 
 2671000    0.8133434   -7.0967431    811.61317  0.025321764  0.025172691            7 
 2672000   0.80965632   -7.1074908    813.39283   0.02536779  0.025165981            4 
 2673000   0.80948371   -7.0940575     812.2969  0.025324133  0.025159213            5 
 2674000   0.82562025   -7.1230223    810.71469  0.025265354  0.025152422           11 
 2675000   0.83973748   -7.1247048    810.17899  0.025239221  0.025145681            7 
 2676000   0.82587043   -7.0839375    813.46143  0.025332008  0.025138962            5 
 2677000   0.82102672   -7.0898376    812.78448  0.025301472  0.025132296            6 
 2678000   0.82723459   -7.1187918    811.08065  0.025239004  0.025125556            4 
 2679000   0.82061523   -7.1281926    811.93215   0.02525607  0.025118861            3 
 2680000   0.82802337   -7.1096475     814.8328  0.025336841  0.025112147            4 
 2681000   0.83380224   -7.1125526    812.90568   0.02526749  0.025105482            4 
 2682000    0.8267945   -7.1099485    811.22223  0.025205762  0.025098795            6 
 2683000   0.81284117    -7.112444    813.45756  0.025265796  0.025092149            4 
 2684000   0.82026622   -7.1105747    813.25969  0.025250239  0.025085493            7 
 2685000   0.80895347   -7.0891374    815.51142  0.025310721  0.025078853            5 
 2686000   0.83827421     -7.10534    814.61546    0.0252735   0.02507222            8 
 2687000   0.81097818   -7.1350043     812.7411  0.025205964  0.025065599           10 
 2688000   0.83003825   -7.1239252    814.40171  0.025248069  0.025058935            7 
 2689000   0.81386698    -7.091665     815.9203  0.025285741  0.025052303            5 
 2690000   0.82444424   -7.1424891    814.59874  0.025235401  0.025045672            7 
 2691000   0.80790982   -7.0965957    815.99746  0.025269338   0.02503907            5 
 2692000   0.80207161   -7.1136867    813.33176  0.025177432  0.025032461            4 
 2693000   0.80780829   -7.0825623    817.19068  0.025287495  0.025025889            4 
 2694000   0.81915411     -7.09814     816.8875   0.02526873  0.025019387            5 
 2695000   0.82307379   -7.1197834    817.98058  0.025293153   0.02501286            5 
 2696000   0.83714445   -7.1066198    816.54317  0.025239341  0.025006328            5 
 2697000   0.81733655   -7.0870596    815.76876  0.025206055   0.02499978            5 
 2698000   0.81911494   -7.1258363    816.72408  0.025226219  0.024993217           15 
 2699000   0.82650003   -7.1097305    815.24778  0.025171291  0.024986649            7 
 2700000   0.82940247   -7.1185568    816.28806  0.025194076  0.024980072            5 
 2701000    0.8301868   -7.1424451    814.52606  0.025130386  0.024973473            6 
 2702000   0.81368676   -7.1239553    813.97985  0.025104239  0.024966829           24 
 2703000   0.82095014    -7.142534    814.83998  0.025121469  0.024960205            9 
 2704000   0.79090259   -7.1122291     815.7609   0.02514056  0.024953614            5 
 2705000   0.83903508   -7.1251437    815.34353  0.025118408  0.024947013           10 
 2706000   0.81722384   -7.1208157    816.17851  0.025134839  0.024940461            7 
 2707000   0.83231839   -7.1310436    815.72663  0.025111644  0.024933913            6 
 2708000   0.81047081   -7.0950865    818.50937  0.025188004  0.024927363            4 
 2709000   0.81762794    -7.165608    817.41678  0.025145096  0.024920889            9 
 2710000   0.79853557   -7.1350305    816.94875  0.025121425  0.024914392           16 
 2711000   0.79653589    -7.103275    819.05715  0.025176969   0.02490792           17 
 2712000   0.82694898   -7.0742488    818.66451   0.02515562   0.02490147           18 
 2713000   0.82373965   -7.1063938    819.79722  0.025181141  0.024895013           21 
 2714000   0.81551893   -7.1341801    820.17649  0.025183508  0.024888555            7 
 2715000   0.81491502   -7.1111813     820.5897  0.025186915  0.024882079           11 
 2716000   0.79658948   -7.0984636     821.2119  0.025196732  0.024875659            7 
 2717000   0.80960146   -7.1156502    818.14748   0.02509347  0.024869222           11 
 2718000   0.81834946   -7.1182637    818.78785  0.025103871  0.024862773            5 
 2719000   0.82148689   -7.1133893    821.41218   0.02517507  0.024856322            6 
 2720000   0.81470336   -7.0988678    820.35013  0.025133276  0.024849868            9 
 2721000   0.82423215   -7.1180996    819.97619  0.025112587  0.024843395            8 
 2722000   0.81834162   -7.1531252    816.62541  0.025000778   0.02483692           13 
 2723000   0.80954051    -7.118534    819.19046  0.025070096  0.024830406            8 
 2724000   0.81192565   -7.1498651    819.41919   0.02506789  0.024823889            6 
 2725000   0.82060027    -7.118541    817.63891  0.025004248  0.024817375           13 
 2726000   0.80776888   -7.1447852    819.80746  0.025061368   0.02481086            8 
 2727000   0.81428576   -7.1443874    819.62749  0.025046678   0.02480435           10 
 2728000   0.82424773   -7.1475748    818.02416  0.024988519  0.024797819           13 
 2729000   0.81817274   -7.1456307     819.9569  0.025038381  0.024791248            9 
 2730000   0.83478295   -7.1196884    819.96116  0.025029339  0.024784698           11 
 2731000   0.81271978   -7.1435556    820.01795  0.025021907  0.024778176            3 
 2732000   0.80169293   -7.1584519    818.58183  0.024968943  0.024771607            5 
 2733000   0.82506668   -7.1106549    820.80277  0.025027527  0.024765072            7 
 2734000   0.81357602   -7.1253288    818.52167  0.024948844   0.02475854            9 
 2735000   0.78999553   -7.1452395     818.7895  0.024947882  0.024752038            3 
 2736000   0.82119408    -7.149163    818.83763   0.02494023  0.024745529            6 
 2737000   0.82611807   -7.1277759    819.77294  0.024959595  0.024739038            9 
 2738000   0.80630618   -7.1534013    819.28777  0.024935713   0.02473252            3 
 2739000     0.793877    -7.101073    819.32994  0.024927892  0.024725956            5 
 2740000   0.81962133   -7.1152684    820.07399  0.024941423  0.024719399            3 
 2741000   0.81570499   -7.1334318    818.47855  0.024883818  0.024712848            6 
 2742000   0.80391934    -7.158371    819.10222  0.024893697  0.024706252            2 
 2743000   0.82907139   -7.1383737    819.98038  0.024911301  0.024699693           21 
 2744000   0.81480768   -7.1279371    818.76184  0.024865216  0.024693125            4 
 2745000   0.80592458   -7.1457428    819.30192  0.024872554  0.024686548           12 
 2746000   0.81995832   -7.1287954     819.6968  0.024875479   0.02467996           12 
 2747000    0.8207468   -7.1337867    818.78037  0.024838623  0.024673389            6 
 2748000   0.82674992   -7.1203728    820.96212  0.024895746   0.02466684            5 
 2749000   0.79716788   -7.1162264    819.07003  0.024829333  0.024660315            3 
 2750000   0.81863308   -7.1421599    819.16752  0.024823258  0.024653786            7 
 2751000   0.81405034    -7.138563     820.4776   0.02485392  0.024647251            7 
 2752000   0.81115341   -7.1168762    821.72089  0.024882537  0.024640715            4 
 2753000   0.79624022   -7.1346244     821.4604  0.024865613  0.024634131            6 
 2754000   0.82767628   -7.1184199    819.07238  0.024784325  0.024627545           10 
 2755000   0.82890768   -7.1485006    819.89835  0.024800313  0.024620973            5 
 2756000   0.79634634   -7.1329384    819.58644  0.024781883  0.024614372            5 
 2757000     0.844282   -7.1338035    822.05705  0.024847571  0.024607828            5 
 2758000   0.80782075   -7.1338721    820.14484  0.024780785  0.024601274            6 
 2759000   0.80177612    -7.150261    820.10813  0.024770694  0.024594738            5 
 2760000   0.80871712   -7.1552937    821.22311  0.024795384   0.02458819            6 
 2761000   0.81029849   -7.1454862    820.10807  0.024752749  0.024581641            8 
 2762000   0.81171733   -7.1418087    821.48417  0.024785306  0.024575113            8 
 2763000   0.78891842   -7.1228339    822.10568   0.02479508  0.024568591            9 
 2764000    0.8115698   -7.1287703    822.63119  0.024801954  0.024562109            9 
 2765000   0.80316019   -7.1194606    822.18585  0.024779562  0.024555583            5 
 2766000    0.8118817   -7.1395406    823.06078  0.024796962  0.024549094           12 
 2767000   0.80492982   -7.1374304     824.2706  0.024824437  0.024542583            4 
 2768000   0.81515761   -7.1598509    822.77993   0.02477059  0.024536039            5 
 2769000   0.81841024   -7.1558032    823.18708  0.024773898  0.024529528            3 
 2770000   0.81055252   -7.1401943    823.83616  0.024784481  0.024523053            5 
 2771000   0.82356945    -7.128942    822.29003   0.02472904  0.024516513            7 
 2772000   0.80427377   -7.1462505    819.83274  0.024646246   0.02450994            5 
 2773000   0.80438163    -7.166862    822.27176  0.024710655  0.024503406           10 
 2774000   0.81709149   -7.1624011    821.14031  0.024667757  0.024496875           23 
 2775000   0.79965669    -7.116534    824.43325  0.024757755  0.024490357            6 
 2776000   0.80425227   -7.1532872    823.23747   0.02471294  0.024483785            9 
 2777000   0.80251167   -7.1419796    823.36214  0.024707782  0.024477212           10 
 2778000   0.79531698   -7.1400076    823.21936  0.024694605  0.024470656            5 
 2779000   0.81031935   -7.1578669    821.95929  0.024647933  0.024464103            5 
 2780000   0.81691632   -7.1449737    821.02699  0.024611121  0.024457539            9 
 2781000   0.79884813   -7.1640093    823.05123  0.024662928  0.024450986           11 
 2782000   0.81286317   -7.1433575    822.85505  0.024648186  0.024444428            6 
 2783000   0.81095549   -7.1566503    822.65309  0.024633282  0.024437831            4 
 2784000   0.79740497   -7.1446645    822.41313  0.024617251  0.024431251            9 
 2785000   0.80812958   -7.1351949    824.19454  0.024661716  0.024424696            5 
 2786000    0.8101487   -7.1602716    824.21761  0.024653554  0.024418157            4 
 2787000    0.8007208   -7.1559306    822.02586  0.024579173  0.024411629            6 
 2788000   0.81756453   -7.1424493    822.13189  0.024573526  0.024405079            5 
 2789000   0.79591095   -7.1531447    822.15523  0.024565413  0.024398515           10 
 2790000   0.80649784   -7.1307845    823.79119  0.024605472  0.024391951            4 
 2791000   0.80183394   -7.1265947     823.2894  0.024581673  0.024385441           10 
 2792000   0.80618095   -7.1439758    823.59477  0.024581983  0.024378874           18 
 2793000   0.79521683   -7.1756953    823.43197  0.024568325  0.024372262            9 
 2794000   0.82363129   -7.1899519    821.57567  0.024504166  0.024365625            7 
 2795000   0.82985624   -7.1644021    822.55482  0.024524592  0.024359013           13 
 2796000   0.81038163   -7.1548135    822.48741  0.024513812  0.024352381           10 
 2797000   0.79532799   -7.1565752    824.47662  0.024564314  0.024345724            6 
 2798000   0.79986151   -7.1696828     823.1576   0.02451625  0.024339087            6 
 2799000   0.81190954   -7.1441747    822.61747   0.02449141  0.024332478            2 
 2800000   0.80430361   -7.1483848    825.46702  0.024567471   0.02432588            8 
 2801000   0.78240784   -7.1820392    824.02109  0.024515681  0.024319309            7 
 2802000   0.80956147   -7.1432911    823.03877  0.024477717  0.024312739            7 
 2803000   0.80948983   -7.1094033     824.8126  0.024521721  0.024306185            5 
 2804000   0.82508515   -7.1293912    825.01847  0.024519094  0.024299685           11 
 2805000   0.82620068   -7.1333005    826.00949  0.024539795  0.024293198            4 
 2806000   0.81357734   -7.1428473    826.45573  0.024544302  0.024286705            5 
 2807000   0.77660313   -7.1434375    824.83955  0.024487577  0.024280185            3 
 2808000   0.80879576   -7.1711544    824.77177  0.024476845  0.024273635            5 
 2809000   0.77842154   -7.1484028    825.43242  0.024487731  0.024267137           11 
 2810000   0.80189505   -7.1409688    824.84841  0.024461697  0.024260641           15 
 2811000   0.80743329   -7.1610598    824.87828   0.02445388  0.024254103           14 
 2812000   0.80531816    -7.153826     824.5052  0.024434128  0.024247549            9 
 2813000   0.79544257   -7.1660769    826.28868  0.024478276  0.024241028           11 
 2814000   0.80156187   -7.1987373    823.60681  0.024390157  0.024234447           10 
 2815000   0.79468683   -7.1491511    826.78275  0.024475511  0.024227968           17 
 2816000   0.81093546   -7.1208367    826.68284  0.024463862   0.02422147           11 
 2817000   0.79847697   -7.1484354    826.25762  0.024442599   0.02421496            6 
 2818000   0.80726118   -7.1741938    824.80923  0.024391094   0.02420842            6 
 2819000   0.78947465   -7.1804014    826.81297  0.024441675  0.024201856            5 
 2820000   0.80411347   -7.1596284    824.70642  0.024370757  0.024195265            5 
 2821000   0.81458226   -7.1786911    824.51413  0.024356438  0.024188721            4 
 2822000   0.78854895   -7.1451255    825.38984  0.024373666   0.02418213           10 
 2823000   0.79905276   -7.1853209    825.31259  0.024362752  0.024175545           10 
 2824000   0.80496395   -7.1599686    827.18262  0.024409308  0.024168933           12 
 2825000    0.8170168    -7.159384    824.52959  0.024322407  0.024162353            7 
 2826000   0.80636242   -7.1645739    826.83798   0.02438187  0.024155786            5 
 2827000   0.79597645    -7.150173    827.19771  0.024383849  0.024149193            6 
 2828000   0.81464045   -7.1915952    826.99336  0.024369206  0.024142615           10 
 2829000     0.784554    -7.149012    827.26836  0.024368692  0.024136041            4 
 2830000   0.79669824   -7.1604787    825.70026  0.024313907  0.024129526           16 
 2831000   0.81362828   -7.1584353    827.74169  0.024365409  0.024123023            5 
 2832000   0.81190051   -7.1874872    827.14238  0.024339171  0.024116502           14 
 2833000   0.79568972   -7.1577172    828.63309  0.024374429  0.024109991            7 
 2834000   0.80175172   -7.1440779    827.04661  0.024319178  0.024103502            3 
 2835000   0.79285587   -7.1778499    827.48383  0.024323452  0.024097015           10 
 2836000   0.79041517   -7.1303928    829.46079  0.024372966  0.024090496            6 
 2837000   0.81119304    -7.149703    827.78394   0.02431512  0.024084008            7 
 2838000   0.79766251   -7.1661306    826.61416  0.024272203  0.024077481            7 
 2839000   0.78830489   -7.1631002    826.90495   0.02427219  0.024070964            6 
 2840000   0.80845242   -7.1571976    826.83632  0.024261629  0.024064431            6 
 2841000   0.80486365   -7.1665794    827.01872  0.024258439  0.024057913            4 
 2842000   0.79425945   -7.1607249    828.41808  0.024290936  0.024051414            8 
 2843000   0.79967035   -7.1885303     828.3565  0.024280587  0.024044892            4 
 2844000   0.79222605    -7.181997    827.90436  0.024258801    0.0240384            7 
 2845000   0.82151387   -7.1724219    828.19589  0.024258813  0.024031909            4 
 2846000   0.79165429   -7.1427296    829.24553  0.024281024  0.024025433            6 
 2847000   0.79351691   -7.1516959    828.99892  0.024265277     0.024019           12 
 2848000   0.80015504    -7.165272    829.61972  0.024274922  0.024012589            4 
 2849000   0.78174494   -7.1443103    831.48164  0.024320862  0.024006194            6 
 2850000   0.79173367   -7.1653323    831.45069  0.024311424  0.023999811            7 
 2851000   0.78593922   -7.1767701     829.6068     0.024249  0.023993425            6 
 2852000   0.81998346   -7.1348388    832.03492  0.024311446  0.023987072            8 
 2853000   0.80222021   -7.1627117    831.05422  0.024274279  0.023980727           11 
 2854000   0.78474879   -7.1324117    831.12726  0.024267906  0.023974316            6 
 2855000   0.79807397   -7.1755924    830.33903  0.024236399  0.023967859            4 
 2856000   0.80211659   -7.1796143    831.00738  0.024247414  0.023961379            3 
 2857000   0.81381412    -7.196314    830.29214  0.024218065  0.023954899            7 
 2858000    0.7984211   -7.1482003    830.15408  0.024205566  0.023948404            6 
 2859000    0.7971155   -7.1996429    827.52706  0.024120528  0.023941935            4 
 2860000   0.80150377   -7.1735252    828.84296  0.024150436  0.023935451            7 
 2861000   0.80319879    -7.170688    832.77686  0.024256579  0.023929009            7 
 2862000   0.79074106    -7.148615    831.94441  0.024223865  0.023922573           10 
 2863000   0.78050403   -7.1932638    828.81747  0.024124388  0.023916113           12 
 2864000   0.79667687   -7.1759093    831.05021   0.02418093  0.023909636            8 
 2865000   0.79504529    -7.206061    831.21127  0.024177175  0.023903167            7 
 2866000   0.79398566    -7.169011    832.81464  0.024215359  0.023896725            3 
 2867000   0.78799451   -7.1681178    830.82995  0.024149225  0.023890283            7 
 2868000   0.78374282   -7.1635004    831.12003  0.024149234   0.02388383            5 
 2869000   0.79949371    -7.142789    831.39627   0.02414884  0.023877389            6 
 2870000   0.77812012   -7.1894833    829.54295  0.024086613  0.023870917            4 
 2871000   0.77756044   -7.2085362    829.21979  0.024068843   0.02386447            8 
 2872000   0.80636653   -7.1773417    828.99237  0.024053864  0.023857997            7 
 2873000   0.78280191   -7.1858044    832.61345  0.024150523  0.023851518           16 
 2874000    0.7614232    -7.153947    831.00339  0.024095436  0.023845076            8 
 2875000   0.79829026   -7.1626906    831.67561  0.024106539  0.023838627           12 
 2876000   0.80089075   -7.1716061    831.08826  0.024081139  0.023832187            5 
 2877000   0.79450227   -7.1767886    829.69514  0.024032416   0.02382575            6 
 2878000   0.79890141   -7.1671102    831.55091    0.0240778  0.023819298           13 
 2879000     0.776164   -7.1564736    831.20462  0.024059414  0.023812864           10 
 2880000   0.75259271   -7.1514325    833.34278  0.024112928  0.023806454            6 
 2881000   0.79460729   -7.1738836    832.46812  0.024079258  0.023800077           13 
 2882000    0.7932072   -7.1934334    831.08965  0.024031045  0.023793682           15 
 2883000   0.78552694   -7.1843496    831.70802  0.024040583   0.02378726            7 
 2884000   0.80064717    -7.186962    832.85754  0.024065463  0.023780835            9 
 2885000   0.77778908   -7.1668726    833.08505  0.024063693  0.023774426            5 
 2886000   0.78537831   -7.1782315    830.71018   0.02398678   0.02376801            9 
 2887000   0.80583829   -7.1464911    835.04293  0.024103537  0.023761608            9 
 2888000   0.80284404   -7.1788192    832.40648  0.024019116  0.023755223            4 
 2889000   0.79965085   -7.1705644    833.12953  0.024031658  0.023748821            5 
 2890000   0.78445122   -7.1386812    834.01874  0.024048983  0.023742427           10 
 2891000   0.77827629   -7.1585832    834.67414  0.024059557  0.023736031           11 
 2892000   0.79829873    -7.165585    831.68043  0.023964973  0.023729656            5 
 2893000   0.79045678   -7.1957999    832.30392  0.023974649  0.023723237            6 
 2894000   0.78018066   -7.1985821    833.41046  0.023998228  0.023716802            8 
 2895000   0.78650731   -7.1758288    831.57682  0.023937157  0.023710308            7 
 2896000   0.80082114   -7.1667168     832.3144  0.023950115   0.02370387            8 
 2897000   0.79494892   -7.1685177      833.609  0.023979088  0.023697466            5 
 2898000    0.7856875   -7.1765225    832.52492   0.02393964   0.02369106            6 
 2899000   0.77082781   -7.1907472    832.37722  0.023927136  0.023684659            7 
 2900000   0.76048373   -7.1820718    831.84148  0.023903491  0.023678251            5 
 2901000   0.80709078   -7.1435433    833.97745  0.023956608  0.023671841            4 
 2902000   0.80134652   -7.1864052    834.27942  0.023957024  0.023665423            6 
 2903000    0.7870816   -7.1834755    834.16617  0.023945521  0.023658991           11 
 2904000   0.78527419   -7.1816033    832.76201  0.023896981  0.023652544           12 
 2905000   0.78447303   -7.1870363    833.65213  0.023914289  0.023646098           11 
 2906000   0.79159145    -7.198144    832.55974  0.023874734  0.023639642            7 
 2907000   0.79379985    -7.188835    832.26128  0.023857966  0.023633183            9 
 2908000   0.79347901   -7.1961784    835.12324  0.023931775  0.023626722            7 
 2909000   0.79194359    -7.192012     834.2014  0.023897141  0.023620256           16 
 2910000   0.78750453   -7.2145045    831.99212  0.023825662  0.023613761            7 
 2911000    0.7808955   -7.2344386    832.26494  0.023825287  0.023607252            7 
 2912000   0.79464445   -7.1990847    832.30708  0.023818312  0.023600762            4 
 2913000   0.79102775   -7.2011815    834.96822  0.023886263  0.023594305            9 
 2914000   0.77844837   -7.1844089     831.7333  0.023785555  0.023587828            6 
 2915000   0.78006418   -7.1813968    834.56367   0.02385831  0.023581361            4 
 2916000   0.77740883   -7.1735787    832.05314  0.023778382  0.023574865            9 
 2917000   0.78996248   -7.1925775    831.10187  0.023743054  0.023568369            5 
 2918000   0.77993703   -7.1944226    833.82636  0.023812724  0.023561871            3 
 2919000   0.79043745   -7.2137598    833.78571  0.023803406   0.02355538            9 
 2920000   0.76422449   -7.2138946    833.41293  0.023784616  0.023548902            9 
 2921000   0.79736691    -7.185085    832.15229  0.023740508  0.023542399            7 
 2922000    0.7838461   -7.1897034    833.83929  0.023780495  0.023535915            5 
 2923000    0.7790076    -7.197739    831.76322  0.023713172  0.023529396            7 
 2924000   0.78506104   -7.2064171    834.86722  0.023793525  0.023522902           19 
 2925000   0.78915126   -7.2019873    832.65057  0.023722239  0.023516414            4 
 2926000   0.78587232   -7.1820408    832.58284  0.023712202  0.023509908            9 
 2927000   0.77234014   -7.2108536    834.04022  0.023745593  0.023503399            3 
 2928000   0.78246937   -7.1984757    831.80849  0.023673967  0.023496867           10 
 2929000   0.78077673   -7.2143967    832.61611  0.023688862  0.023490353            7 
 2930000   0.78706173   -7.1869289    832.34827  0.023673159  0.023483799            5 
 2931000   0.77517854   -7.1859641    833.88843  0.023708872  0.023477249            9 
 2932000   0.77541314   -7.1919796    833.59575  0.023692467   0.02347072            6 
 2933000   0.77268974   -7.1971976    834.15649  0.023700321  0.023464192            5 
 2934000   0.77221801   -7.1980694    832.33626  0.023640544  0.023457661           13 
 2935000   0.79919023   -7.1953087    833.61324  0.023668746  0.023451131           15 
 2936000   0.79575733   -7.1748834    833.11002  0.023646402  0.023444628            5 
 2937000   0.78396447   -7.1965309    834.27027  0.023671271  0.023438135            9 
 2938000   0.79326227   -7.1961777    833.37267  0.023637755  0.023431633            5 
 2939000   0.77896828   -7.1728897    835.89002  0.023701089  0.023425169           20 
 2940000   0.77790097   -7.1954565    835.19013   0.02367319  0.023418723            7 
 2941000   0.80004552   -7.1996579    833.36053  0.023613299  0.023412251           12 
 2942000   0.78651845   -7.1978749    833.99823  0.023623335  0.023405791            5 
 2943000    0.7803873   -7.1827959    835.92813  0.023669955  0.023399299            6 
 2944000   0.78815384   -7.2011915    836.02641  0.023664697    0.0233928            4 
 2945000   0.77682378   -7.1802274    836.72051  0.023676302  0.023386331            6 
 2946000   0.79193803   -7.1888453    833.93611  0.023589503  0.023379888           18 
 2947000    0.7712129   -7.1798951    834.07802  0.023585511  0.023373414            9 
 2948000   0.78249195   -7.2191255    834.21133  0.023581279   0.02336691           11 
 2949000   0.78192183   -7.2140206    833.72134  0.023559436  0.023360409            8 
 2950000   0.76324967   -7.2478664    834.71802  0.023579605  0.023353875           34 
 2951000    0.7932227   -7.2183225    834.54891  0.023566839  0.023347352           13 
 2952000    0.7724857    -7.196837    834.80236  0.023566011  0.023340857           17 
 2953000   0.77086232   -7.1804596    835.19797  0.023569194  0.023334395           10 
 2954000   0.78226174   -7.1939354    834.69793  0.023547109  0.023327939            7 
 2955000   0.77684766   -7.1955578    837.16827  0.023608806  0.023321476            6 
 2956000    0.7785263   -7.1838411    835.39194  0.023550742  0.023315008            6 
 2957000   0.76879377   -7.1835341    834.43076  0.023515691  0.023308563            6 
 2958000   0.79064686   -7.2157659    836.26884  0.023559523  0.023302067            5 
 2959000   0.77160983   -7.1822621    833.28379  0.023467494  0.023295595            9 
 2960000   0.76456971    -7.203363    834.78059  0.023501706  0.023289113           14 
 2961000   0.77880124   -7.2097806    835.86284  0.023524227  0.023282637            7 
 2962000   0.78686061   -7.1864046    834.75894  0.023485228  0.023276154           12 
 2963000    0.7793245   -7.2156895    833.73396  0.023448475  0.023269678            9 
 2964000   0.77212348   -7.1833204    834.94534  0.023474622  0.023263202           12 
 2965000   0.78810022   -7.2122732    834.76231   0.02346156  0.023256718           19 
 2966000   0.77014618   -7.2079049    835.14207   0.02346432  0.023250204           16 
 2967000    0.7580019   -7.1926359    835.74199  0.023473261  0.023243705            6 
 2968000   0.78044297     -7.22296    835.18442  0.023449697  0.023237219           10 
 2969000   0.76739887   -7.2160837    835.20631  0.023442414  0.023230684            6 
 2970000    0.7492985   -7.1954279    835.52282  0.023443401  0.023224149           15 
 2971000   0.76857361   -7.1926341    834.26174  0.023400139  0.023217633           17 
 2972000   0.78189127   -7.2169654    835.47831  0.023426377  0.023211083           17 
 2973000   0.78647868   -7.2001669    835.13757  0.023408946  0.023204549           14 
 2974000   0.76032025   -7.2109639    835.33136  0.023406505  0.023198034           10 
 2975000   0.78193295   -7.2240419    832.88498  0.023330111  0.023191481            6 
 2976000   0.78518855   -7.1844026    836.75362  0.023430601  0.023184934            4 
 2977000   0.78607739   -7.1763587    836.43402  0.023413784  0.023178407            6 
 2978000   0.78652859   -7.2095465      836.094  0.023396407  0.023171876           10 
 2979000   0.76852188   -7.2198626    834.17288  0.023334813  0.023165317            7 
 2980000   0.76809483    -7.188494    834.93318  0.023348243  0.023158764            6 
 2981000   0.78856331   -7.2332549    834.93161  0.023340367   0.02315222            7 
 2982000   0.78476706   -7.2235803    836.32761  0.023371552  0.023145702           11 
 2983000   0.76477221   -7.2014241    835.39843  0.023337759   0.02313918            8 
 2984000   0.77840387   -7.2046596    835.53698  0.023333807  0.023132649            4 
 2985000   0.75271061   -7.2491787    835.56817  0.023326861  0.023126107            4 
 2986000   0.77368013   -7.2008673    837.21415  0.023364985  0.023119574            9 
 2987000   0.77727095   -7.1894789    836.17325  0.023328123  0.023113044            6 
 2988000   0.76778335   -7.2208672    836.14076   0.02331941  0.023106546            9 
 2989000   0.77231946   -7.2192359    835.11065  0.023282889  0.023100063            6 
 2990000   0.74763232   -7.1838582    836.91718  0.023325451  0.023093598            6 
 2991000   0.76876091   -7.1973714     837.4152  0.023331528  0.023087151            6 
 2992000   0.78166321   -7.2092682    838.37948  0.023350587  0.023080673            5 
 2993000   0.77522067   -7.1910618    839.28934  0.023368118  0.023074235            6 
 2994000   0.77060785     -7.23116     836.9136  0.023294188   0.02306778            7 
 2995000   0.78603139    -7.207216    838.98296  0.023343989  0.023061337           15 
 2996000   0.77887795   -7.1921635    835.05487  0.023226938  0.023054888           15 
 2997000   0.77712933   -7.2055793    837.06185  0.023274993  0.023048439            6 
 2998000   0.75530633   -7.2092184      837.244  0.023272293  0.023041979            5 
 2999000   0.77189125   -7.2102573    837.63146  0.023275299  0.023035544            4 
 3000000   0.75378832   -7.2354338    836.76878  0.023243577  0.023029095            8 
 3001000   0.78029626   -7.1956633     838.3811  0.023280604  0.023022666            4 
 3002000   0.76985135   -7.2224323     837.5626  0.023250128  0.023016265            6 
 3003000   0.78465449   -7.2231704    838.49651  0.023268301  0.023009815            5 
 3004000   0.78362102   -7.2383592    837.87371  0.023243279  0.023003354            4 
 3005000   0.78268794   -7.2013272    839.19534  0.023272195  0.022996935            7 
 3006000   0.78382319   -7.2433275    838.00467  0.023231445  0.022990491            5 
 3007000   0.77849231   -7.2320398    837.92085  0.023221396  0.022984065            4 
 3008000   0.77531927   -7.2091758    838.83676   0.02323905  0.022977621            7 
 3009000   0.76980496   -7.2306285    838.80116  0.023230341  0.022971195           14 
 3010000   0.78010959   -7.1870251    837.67229   0.02319137  0.022964771           10 
 3011000   0.73837913   -7.1896917    840.57897  0.023264114  0.022958389            7 
 3012000   0.77532877   -7.2107416    838.56543  0.023200681  0.022951999           15 
 3013000   0.77344346   -7.2047594     839.8934   0.02322971  0.022945578            5 
 3014000   0.76097516   -7.2023009    840.58424  0.023241104  0.022939162            7 
 3015000   0.75690896   -7.2251183    839.22559  0.023195843  0.022932786            4 
 3016000   0.76850341   -7.2211293    840.00907    0.0232098  0.022926403            7 
 3017000   0.75927428   -7.2595226    839.01571  0.023174669  0.022919959            4 
 3018000   0.75585423   -7.2271618    840.50306  0.023208059  0.022913539           11 
 3019000    0.7784907   -7.2241548    838.21097  0.023137103  0.022907138           12 
 3020000   0.78233722   -7.2319792    838.99501  0.023151076  0.022900708            7 
 3021000    0.7529896   -7.2075771    839.54578  0.023158606  0.022894279            9 
 3022000   0.78370291   -7.2276733    839.12891  0.023139447  0.022887865            8 
 3023000   0.76849163   -7.2489195    838.91312  0.023125844  0.022881417            6 
 3024000   0.75967814   -7.2057958     838.3073  0.023101502  0.022875005           16 
 3025000   0.74743829   -7.2142144    838.22367  0.023091561  0.022868573            5 
 3026000   0.76741386   -7.2247861    840.84485  0.023156115  0.022862131           23 
 3027000    0.7729672   -7.2290203    839.96842  0.023124337  0.022855712           11 
 3028000   0.77619191    -7.230008    838.80953  0.023084806  0.022849256            7 
 3029000   0.76614922   -7.2585915    838.89567  0.023079555  0.022842834            8 
 3030000   0.77282059   -7.2428692    839.69085  0.023093808  0.022836396            8 
 3031000   0.76489315   -7.2414811    840.24514  0.023101428  0.022829982            6 
 3032000   0.75397492   -7.2464919    837.98345  0.023031647  0.022823552           12 
 3033000   0.75764977    -7.214172    839.34932  0.023061581  0.022817094            5 
 3034000   0.76545756   -7.2251464    840.05591  0.023073388  0.022810664            5 
 3035000   0.76588435   -7.2368513    839.31621  0.023045475   0.02280423            5 
 3036000    0.7648754   -7.2073512     838.1481  0.023005822  0.022797776            7 
 3037000   0.77577017   -7.2296576    839.03841  0.023022676   0.02279133           10 
 3038000   0.78705019   -7.2460607    838.08254  0.022988878  0.022784885           10 
 3039000   0.76454828   -7.2249524    840.67311   0.02305235  0.022778426            7 
 3040000   0.76743845   -7.2048826    838.82526  0.022994114  0.022772007           13 
 3041000   0.75934591   -7.2105156    840.00433  0.023018863   0.02276558            8 
 3042000   0.76364939   -7.2285296     840.2507  0.023018045  0.022759151            8 
 3043000   0.75882949   -7.2379473     840.6006  0.023020062  0.022752708            6 
 3044000   0.77153145   -7.2342123    839.41897  0.022980151  0.022746253           12 
 3045000   0.76736942   -7.2364832    840.59475  0.023004782  0.022739785            5 
 3046000   0.78169787   -7.2364301    839.85326  0.022976944  0.022733319            9 
 3047000      0.76752   -7.2401239    838.73793    0.0229389  0.022726852           15 
 3048000   0.76335014   -7.2539337    838.89593  0.022935694  0.022720416           10 
 3049000   0.74398484   -7.2085605    841.56518  0.023001125  0.022713936            6 
 3050000   0.76990466   -7.2863824    841.48633   0.02299143  0.022707475           15 
 3051000   0.76108352   -7.2086702    838.50698  0.022902518  0.022701031            6 
 3052000   0.77252452   -7.2427884     838.9886  0.022908164  0.022694548           11 
 3053000   0.75551053   -7.2586947    840.65577  0.022946167  0.022688038           12 
 3054000   0.75507568   -7.2316909    838.41363  0.022877473  0.022681534            9 
 3055000    0.7646224   -7.2583278    837.89909  0.022855949  0.022675018            8 
 3056000   0.77452687   -7.2383984    840.26529  0.022912993  0.022668528            7 
 3057000   0.74533836   -7.2379583    839.88727  0.022895193  0.022662053            4 
 3058000    0.7805181    -7.239633    839.84809  0.022886638  0.022655583            6 
 3059000   0.76098528    -7.237736    838.72137  0.022848463  0.022649124            7 
 3060000   0.75430247   -7.2311414    842.52667  0.022944626  0.022642677            6 
 3061000   0.74662498   -7.2417146    841.11625  0.022898733  0.022636235           11 
 3062000   0.76776699   -7.2572361    840.56773  0.022876326  0.022629764            4 
 3063000   0.76755387   -7.2664472    839.08109  0.022828411  0.022623275            9 
 3064000   0.76383037   -7.2599065    837.54229  0.022779109  0.022616806            6 
 3065000   0.78080557    -7.244806    838.29229  0.022792069  0.022610334            9 
 3066000   0.75849161   -7.2302248    840.74925  0.022851415  0.022603863           14 
 3067000   0.76154374   -7.2692898     840.2155  0.022829461  0.022597422           11 
 3068000   0.76213079   -7.2404529    841.32149  0.022852061  0.022590993            6 
 3069000   0.75854484   -7.2272879    840.68309  0.022827281  0.022584587            6 
 3070000   0.76445201   -7.2433139    840.12302  0.022804642  0.022578168            8 
 3071000   0.75927346   -7.2462063    842.48443  0.022861295  0.022571755            3 
 3072000   0.75183097   -7.2364263     841.3056  0.022821875  0.022565347            7 
 3073000   0.75730882   -7.2153089    840.45958  0.022791506  0.022558926            8 
 3074000   0.76284702   -7.2584991    840.19986  0.022777051  0.022552492            4 
 3075000   0.76099202   -7.2343006    841.17017  0.022795939  0.022546062           12 
 3076000   0.76075647   -7.2655103    838.71405  0.022721989  0.022539624            7 
 3077000   0.75777318   -7.2260323     841.3063  0.022784809  0.022533196            9 
 3078000   0.74321962   -7.2268376    841.73913  0.022789125  0.022526778            8 
 3079000   0.75356716     -7.22211    842.46634  0.022801406  0.022520384           10 
 3080000   0.74993248   -7.2238693    843.15473  0.022812628  0.022513999           10 
 3081000    0.7499119   -7.2677131    841.52081   0.02276103  0.022507586            7 
 3082000   0.76369551     -7.23421    842.26505  0.022773769  0.022501185            6 
 3083000   0.74101579   -7.2667902      841.422  0.022743594   0.02249477            7 
 3084000   0.74799148   -7.2431752    842.77074  0.022772664   0.02248836           13 
 3085000   0.75466686   -7.2553881    842.74344  0.022764545  0.022481965            7 
 3086000   0.74922417   -7.2246565    842.76966  0.022757876   0.02247558           37 
 3087000    0.7743115   -7.2372567    843.27521  0.022764151  0.022469224           21 
 3088000   0.74039407   -7.2518947    843.49541  0.022762721  0.022462864            9 
 3089000   0.77583541   -7.2354617    842.24561  0.022721636  0.022456483            9 
 3090000   0.75857182    -7.224238    842.59296  0.022723651  0.022450116            5 
 3091000   0.75025135   -7.2335924    842.68118  0.022718677   0.02244375           10 
 3092000   0.75511065   -7.2365897    842.79016  0.022714267  0.022437368            5 
 3093000   0.75979604   -7.2064329    844.11468  0.022742609  0.022431024            8 
 3094000   0.75496759   -7.2544995    840.91722  0.022649139  0.022424665            7 
 3095000   0.75240947     -7.25085    843.30452  0.022706099  0.022418295            9 
 3096000   0.75937541   -7.2324439    843.32992  0.022699449  0.022411927            5 
 3097000   0.75323556   -7.2690331    844.51106  0.022723901  0.022405545            5 
 3098000   0.77393015   -7.2597038    844.39818   0.02271353  0.022399181           11 
 3099000    0.7425338   -7.2691803    842.04815  0.022643007  0.022392789            8 
 3100000   0.75227466   -7.2284499     842.7461  0.022654465  0.022386424            9 
 3101000   0.75546381   -7.2253984    843.21619  0.022659792   0.02238006            7 
 3102000   0.75445504   -7.2630868    843.41515  0.022657832  0.022373691           11 
 3103000   0.76136914   -7.2558173    844.10835  0.022669147  0.022367333            6 
 3104000   0.76511176   -7.2559387    841.57163   0.02259374  0.022360962            7 
 3105000   0.75482252    -7.268061    843.10928  0.022627732  0.022354578           15 
 3106000    0.7685212   -7.2257705    845.34564  0.022680448  0.022348212            6 
 3107000    0.7515748     -7.25265    843.19902  0.022615573  0.022341858            8 
 3108000   0.75306005   -7.2566876    843.31467  0.022611397  0.022335507            6 
 3109000   0.75818433   -7.2491861    843.31988  0.022604264  0.022329164            6 
 3110000   0.75187879    -7.256437     844.0146  0.022615611  0.022322833            7 
 3111000   0.74361917   -7.2514251    845.91849   0.02265934  0.022316499            9 
 3112000   0.76113528    -7.268241    842.82958  0.022569344  0.022310168            9 
 3113000    0.7374683   -7.2599721    843.67096  0.022584617  0.022303834            8 
 3114000   0.77227267   -7.2717027    844.98226  0.022612456  0.022297501           11 
 3115000   0.75855501    -7.262081    845.38732  0.022616033  0.022291165           20 
 3116000    0.7496475   -7.2395387     846.3502  0.022634526  0.022284856            8 
 3117000   0.75653131   -7.2475275    844.22069  0.022570332  0.022278551           14 
 3118000   0.75463522   -7.2749261    844.36387   0.02256692  0.022272214            7 
 3119000   0.75992273   -7.2412021    846.76048  0.022623717  0.022265915            5 
 3120000   0.75683495   -7.2389778    845.47583  0.022582154  0.022259618            5 
 3121000   0.76537229   -7.2491884    846.30813  0.022597141  0.022253304           17 
 3122000    0.7566365   -7.2523526    843.50733  0.022515143  0.022246981            7 
 3123000   0.75628621   -7.2234575    845.05621  0.022549264  0.022240681            6 
 3124000   0.72699905   -7.2378355    844.50722  0.022527401  0.022234376            7 
 3125000   0.74563214   -7.2511578     844.8244  0.022528651   0.02222808            9 
 3126000    0.7401975   -7.2613798    846.06196  0.022554435  0.022221771           15 
 3127000   0.73601302    -7.287981    847.43555  0.022583828  0.022215479           12 
 3128000   0.76096213   -7.2672934    844.73545  0.022504674  0.022209154           11 
 3129000   0.75182303   -7.2731442    844.27008  0.022485088  0.022202839           15 
 3130000   0.75251218   -7.2661582    844.60812  0.022486904   0.02219651           11 
 3131000    0.7454209   -7.2542192     845.5485  0.022504751  0.022190194           11 
 3132000   0.75747428   -7.2370577    846.10613  0.022512402  0.022183888            6 
 3133000   0.73549394   -7.2788896    845.42241  0.022487031  0.022177564            6 
 3134000   0.74997756    -7.251911    844.10554   0.02244484   0.02217125            8 
 3135000   0.75534857   -7.2596662    844.65295  0.022452232  0.022164927           10 
 3136000   0.74190409   -7.2652645    846.38705  0.022491152  0.022158628           13 
 3137000   0.74250187   -7.2460095    845.07399  0.022449102  0.022152346            5 
 3138000   0.74103783    -7.257897    844.17402  0.022418048   0.02214601            5 
 3139000   0.75098743   -7.2822218    846.69306  0.022477781  0.022139695            6 
 3140000    0.7483067   -7.2545389    845.75442  0.022445712  0.022133389           13 
 3141000   0.74151865    -7.275785    846.37013  0.022454901  0.022127093            3 
 3142000   0.74567631   -7.2846323    845.06077  0.022413027  0.022120784            4 
 3143000   0.75817168   -7.2578423    847.19253  0.022462417  0.022114467            7 
 3144000   0.74183189   -7.2630878    846.09041  0.022426061  0.022108161           10 
 3145000   0.73073405   -7.2866787    845.30772  0.022398191  0.022101872            9 
 3146000   0.75447026   -7.2434398    847.30538  0.022443987   0.02209559            8 
 3147000   0.73557099   -7.2500956    847.87256  0.022451874  0.022089324            4 
 3148000   0.74398942   -7.2861905    847.07655   0.02242367  0.022083041            5 
 3149000   0.76301251   -7.2550484    847.49059  0.022427506  0.022076775            6 
 3150000   0.75890977   -7.2850943    846.63133  0.022397654  0.022070492            7 
 3151000   0.74430078   -7.2792877    845.75698  0.022367423  0.022064188            9 
 3152000   0.75594777   -7.2828686    847.48802  0.022406092  0.022057898            9 
 3153000   0.75655632   -7.2413445    846.35654  0.022369081  0.022051636           10 
 3154000   0.75597463   -7.2533585     846.7386  0.022372083  0.022045327            9 
 3155000   0.75561308   -7.2783245    845.81494  0.022340595  0.022039013            7 
 3156000   0.75027085   -7.3023723     845.0838  0.022314211  0.022032697            5 
 3157000    0.7564939   -7.2784412    847.21963  0.022363521  0.022026377            8 
 3158000    0.7601091   -7.3079848    845.35468  0.022307227  0.022020048            6 
 3159000   0.74974765    -7.309101    844.90492  0.022288301  0.022013716           13 
 3160000   0.73352055   -7.2993417    844.62171  0.022273779  0.022007396            9 
 3161000   0.74983561   -7.2601371    845.69101  0.022294923  0.022001062            7 
 3162000    0.7237881    -7.277182    845.88021  0.022292858  0.021994719            9 
 3163000   0.74155317   -7.2961742    845.69781  0.022281005   0.02198838            9 
 3164000    0.7401286   -7.3008275    843.21015  0.022208443  0.021982042           14 
 3165000   0.74229347   -7.2891504    844.35118  0.022231469  0.021975672            8 
 3166000   0.75001788   -7.3052948    845.83825  0.022263588  0.021969328           10 
 3167000   0.74001205   -7.2707345    846.12636   0.02226414  0.021962997           10 
 3168000   0.73910033   -7.2904535    846.23796  0.022260047  0.021956678            7 
 3169000   0.73821707   -7.2955759    845.47375  0.022232927  0.021950354            9 
 3170000   0.74685126   -7.2829957    846.86945  0.022262604  0.021944048            5 
 3171000   0.75299316   -7.2711997    848.54437    0.0222996  0.021937756            7 
 3172000   0.75529829   -7.2652883    848.75845  0.022298194  0.021931465            7 
 3173000   0.73955962   -7.3107117    846.89077  0.022242115  0.021925172            5 
 3174000   0.74678967   -7.2761665      848.729   0.02228337  0.021918898            9 
 3175000   0.74210121   -7.2457448    846.29631  0.022212502  0.021912618            4 
 3176000    0.7375739   -7.2740177    845.99368  0.022197567   0.02190632            7 
 3177000   0.73936734   -7.2878695    847.30284   0.02222492  0.021900029           14 
 3178000   0.74948609   -7.2715743    846.90335  0.022207451  0.021893757            3 
 3179000   0.73446658   -7.2626156    844.84136  0.022146413  0.021887496            5 
 3180000     0.747403    -7.285366    847.84058  0.022218045   0.02188121            5 
 3181000   0.73550509   -7.2403445    847.38408  0.022199101  0.021874935            8 
 3182000   0.74288789   -7.2953159    844.33229  0.022112201  0.021868634            7 
 3183000    0.7430466   -7.2963025    845.06084  0.022124328  0.021862319           12 
 3184000   0.73338003   -7.3129812    845.56409  0.022130551  0.021855987            9 
 3185000   0.72899755   -7.2727419    847.05986  0.022162738  0.021849671           14 
 3186000   0.72681444   -7.2720607    845.49126  0.022114754  0.021843377            6 
 3187000   0.73243722    -7.278333    848.53333  0.022187358  0.021837061            6 
 3188000   0.74482605   -7.2824395    846.11026   0.02211706  0.021830751           10 
 3189000   0.72884642   -7.2848374    846.26232  0.022114099   0.02182445           13 
 3190000    0.7476057   -7.2588142    847.34014  0.022135322  0.021818159           14 
 3191000     0.752334   -7.2806908    847.45392  0.022131357  0.021811897            5 
 3192000   0.75024568   -7.2679754    846.81752  0.022107809  0.021805611           17 
 3193000   0.73870176    -7.301506    847.12379  0.022108879  0.021799327            7 
 3194000   0.73191286   -7.2610194    846.23435  0.022078751  0.021793045            5 
 3195000   0.73209233   -7.2758123    846.53402  0.022079656  0.021786736            7 
 3196000   0.72856251   -7.2946175    848.14263  0.022114691  0.021780422            5 
 3197000   0.74514741   -7.3075795     847.0288   0.02207874   0.02177415            7 
 3198000   0.73896873   -7.2641335    848.09983  0.022099745   0.02176788            7 
 3199000   0.74907246   -7.2616055    846.64433  0.022054922  0.021761591            7 
 3200000   0.73432798   -7.3092371    846.79457  0.022051942  0.021755312            8 
 3201000   0.74310001    -7.285975    845.79142  0.022018937  0.021748988            9 
 3202000   0.72339011   -7.2944277    846.54887  0.022031774  0.021742657           10 
 3203000    0.7425449   -7.3021351    847.62781  0.022052966  0.021736349            9 
 3204000   0.74118802    -7.281291    847.29472   0.02203742  0.021730043            7 
 3205000   0.73055077   -7.3033418    846.42867  0.022008026  0.021723764            7 
 3206000   0.74504758   -7.2751685    846.39051  0.022000169  0.021717452           11 
 3207000   0.73847787   -7.2928966     847.5711  0.022023987   0.02171117            8 
 3208000   0.74483414   -7.3123507    847.71117   0.02202076   0.02170487           16 
 3209000    0.7497135   -7.3013637    848.41282  0.022032118  0.021698583           10 
 3210000   0.74814325   -7.2806488    844.67331  0.021928175  0.021692266           13 
 3211000   0.73196198   -7.3076964    847.83286  0.022003344   0.02168596            7 
 3212000   0.72735972   -7.2897751    847.73111  0.021993854  0.021679654            7 
 3213000   0.71415711   -7.3108498    848.81887  0.022015221  0.021673353            6 
 3214000   0.73923404   -7.2941611    848.97299  0.022012367  0.021667057            8 
 3215000   0.74301963   -7.2747505    848.47353  0.021992575  0.021660774            5 
 3216000    0.7321619    -7.312518    847.75171  0.021967032  0.021654468            7 
 3217000   0.74269385   -7.3125135    847.73092  0.021959665  0.021648159            8 
 3218000     0.731792   -7.2852342    848.85604  0.021981977  0.021641831            6 
 3219000   0.73578425     -7.29724    848.57683   0.02196792  0.021635516            4 
 3220000   0.73297943   -7.3006694    847.34915  0.021929326  0.021629207            6 
 3221000   0.72965904   -7.2813129     849.3714  0.021974837  0.021622902            7 
 3222000   0.74083902   -7.3023879    846.68236  0.021898468  0.021616613            6 
 3223000   0.73334647    -7.317149    847.05115  0.021901209  0.021610318            9 
 3224000   0.73294817   -7.3501496    846.64248  0.021883852  0.021603997            6 
 3225000   0.73159929   -7.2978143    846.95121  0.021885044  0.021597686            9 
 3226000   0.73549931   -7.3066333    847.60208  0.021895073   0.02159136           17 
 3227000    0.7433412   -7.3232702    847.41771  0.021883527   0.02158504            8 
 3228000   0.74081427   -7.3006834    847.11224  0.021868862  0.021578728            8 
 3229000   0.72763149   -7.2848594     846.0543  0.021834786  0.021572424            5 
 3230000   0.73607703   -7.2863637    847.25758  0.021859071  0.021566099            6 
 3231000    0.7290654   -7.2993901    846.29674  0.021827523   0.02155977           14 
 3232000    0.7292025   -7.2865151    847.00426  0.021839012  0.021553483            6 
 3233000   0.73061625   -7.3015647    847.44504  0.021843619  0.021547185            9 
 3234000   0.75202979   -7.2848268    847.26113  0.021832126  0.021540876            8 
 3235000   0.72975912   -7.2981595    848.92765  0.021868306  0.021534583            9 
 3236000   0.74089103   -7.3077097    846.91344  0.021809679  0.021528293            5 
 3237000   0.72832699   -7.2859094    848.32002  0.021839152  0.021521981            6 
 3238000    0.7488101   -7.3210967    847.06958  0.021800226   0.02151566           13 
 3239000   0.72916476   -7.3174066    847.69711  0.021809641  0.021509357           10 
 3240000   0.72389054   -7.3184197    848.00475  0.021810822  0.021503046            6 
 3241000   0.72430566   -7.2925183    847.36097  0.021787539  0.021496726            8 
 3242000   0.72678472    -7.312353    847.57615   0.02178635  0.021490419           10 
 3243000    0.7184363   -7.2904268    846.49662  0.021751892  0.021484119            9 
 3244000   0.72869813   -7.2927499    847.88932  0.021780963  0.021477816            5 
 3245000   0.73903134   -7.3050828    848.60428  0.021792611  0.021471511           11 
 3246000   0.73665756   -7.2919881    848.48157  0.021782747  0.021465225            5 
 3247000   0.73185213    -7.276316    848.84716  0.021785421  0.021458944            7 
 3248000   0.72472026   -7.2747375    846.81706  0.021726628  0.021452664            7 
 3249000   0.73475126   -7.3111835    847.89986  0.021747714   0.02144635            7 
 3250000   0.72070045    -7.301977    849.17543  0.021773729  0.021440015            4 
 3251000   0.72035928   -7.3246051    848.22344  0.021742629  0.021433717            7 
 3252000   0.73439485   -7.3187245    847.21635  0.021710136   0.02142739           16 
 3253000   0.71615455   -7.3173837    846.98412  0.021697513  0.021421063            8 
 3254000   0.72140312   -7.2996808    849.30995  0.021750408  0.021414728           25 
 3255000   0.72974975   -7.3064927    846.12212  0.021662113   0.02140839           23 
 3256000   0.73550102   -7.3155884    847.65815  0.021694773  0.021402057           18 
 3257000   0.72934676   -7.2785304    846.72782  0.021664308  0.021395735           12 
 3258000   0.73822909   -7.3142411    847.23376  0.021670599  0.021389413           11 
 3259000   0.73304394   -7.2887019    849.11969  0.021712174   0.02138311            4 
 3260000   0.71176874   -7.2738193    850.19534   0.02173301  0.021376817           14 
 3261000     0.748893   -7.2770494    849.54558  0.021709741  0.021370545            7 
 3262000   0.74039062   -7.2919349     849.4529  0.021700718  0.021364279           15 
 3263000    0.7171058   -7.3020047    848.27865  0.021664078     0.021358           12 
 3264000   0.73191788   -7.3253516    848.68715   0.02166787  0.021351691            8 
 3265000   0.74021317   -7.2880622    848.85522  0.021665524  0.021345383            9 
 3266000   0.75298344   -7.3113566    849.00039  0.021662594   0.02133907           13 
 3267000   0.73523391   -7.2910981    847.49196  0.021617487  0.021332782            7 
 3268000   0.71244378   -7.3098587    847.22774  0.021604135  0.021326487           15 
 3269000   0.72666943   -7.3176557    847.87605  0.021614052  0.021320181           10 
 3270000   0.72059826   -7.3057811    849.69026  0.021653676  0.021313884            6 
 3271000   0.73512505     -7.31992     847.8944  0.021601304  0.021307612           15 
 3272000   0.73673925   -7.2961146    848.09203  0.021599736  0.021301335           10 
 3273000   0.72329112    -7.322915    849.04803  0.021617477  0.021295078           18 
 3274000   0.72754377    -7.304308    848.33744  0.021592788  0.021288822           13 
 3275000   0.72179318   -7.2936316    850.23998  0.021634605  0.021282534            8 
 3276000   0.72358733   -7.3126587    847.81037  0.021566198  0.021276263           19 
 3277000   0.71055152    -7.321979    848.57464  0.021579052  0.021269992            9 
 3278000   0.72145266   -7.3022716    850.67636  0.021625899  0.021263719           11 
 3279000   0.72232442   -7.2908564    849.71441  0.021594856  0.021257456           15 
 3280000   0.71904517   -7.2988085    850.41572   0.02160609  0.021251187           10 
 3281000   0.73031765   -7.3070958    851.82024  0.021635178  0.021244937            6 
 3282000   0.72790986   -7.2961626    851.52248  0.021621026  0.021238697            7 
 3283000   0.74784381   -7.2828715    852.34975  0.021635439  0.021232465            8 
 3284000   0.70185944   -7.3053648    850.75911  0.021588487  0.021226236            4 
 3285000   0.72734499   -7.3174297     849.8808  0.021559635  0.021219991            7 
 3286000   0.71623369    -7.310355    849.01128  0.021531023  0.021213729            6 
 3287000   0.73552478   -7.3249912    850.08724   0.02155175  0.021207477            5 
 3288000   0.73023129   -7.3064106    850.41465  0.021553494  0.021201205            5 
 3289000   0.73102516   -7.3071754    848.89844  0.021508524  0.021194967            6 
 3290000   0.74607245    -7.293082    850.02243  0.021530457  0.021188697           10 
 3291000   0.73887834   -7.3353233    850.38886  0.021533193  0.021182452           14 
 3292000   0.72262162   -7.3132567    849.88562  0.021513913  0.021176196            9 
 3293000   0.73989432   -7.3326034    847.09981  0.021436882  0.021169938           14 
 3294000    0.7238108   -7.3112023    848.35612  0.021462156  0.021163661            9 
 3295000   0.72498203   -7.3005601    850.35371  0.021506164   0.02115739            4 
 3296000   0.70692079   -7.3081006     851.7326  0.021534501  0.021151124           15 
 3297000   0.72965997   -7.3082222     850.2983  0.021491717  0.021144873           11 
 3298000   0.72350202   -7.3207774    847.81628  0.021422485  0.021138617           18 
 3299000   0.71457734   -7.2985742    848.08345  0.021422741  0.021132349            6 
 3300000    0.7224517   -7.3368047    849.69279  0.021456889  0.021126102            9 
 3301000   0.70283277   -7.3096326    849.14217  0.021436488  0.021119863            9 
 3302000   0.72790645   -7.3149001    850.06787  0.021453358  0.021113604           15 
 3303000   0.73936369   -7.3359786    847.90725  0.021392352  0.021107364            9 
 3304000   0.72793614    -7.312368     849.2703  0.021420256  0.021101106           14 
 3305000   0.71323853   -7.3128027    849.66619  0.021423757   0.02109486           11 
 3306000     0.731512    -7.341524    848.25418  0.021381684  0.021088604            8 
 3307000   0.72146137   -7.3027753    850.41435  0.021429653  0.021082358            9 
 3308000   0.73015972    -7.306681    850.16292  0.021416841  0.021076133           18 
 3309000   0.72035436   -7.3098126    851.19945  0.021436473  0.021069913           15 
 3310000   0.70835628   -7.3044716    850.46878  0.021411601  0.021063706           11 
 3311000   0.74869956   -7.3179309    850.31649  0.021401301  0.021057486            9 
 3312000   0.71802132   -7.3220365    851.74321  0.021430737  0.021051257            6 
 3313000   0.73025259   -7.3396629    849.08968  0.021357523  0.021044999           11 
 3314000   0.72136312    -7.325836    852.04958  0.021425507  0.021038751            5 
 3315000   0.73466384   -7.3149972    850.52549  0.021380731  0.021032534            8 
 3316000   0.73175147   -7.3435583    848.81508    0.0213313  0.021026326            9 
 3317000   0.71692182   -7.3557627    850.05922  0.021356126  0.021020086            8 
 3318000    0.7197699   -7.3528608    848.54419  0.021311638   0.02101383           10 
 3319000   0.72134417    -7.329573    850.59025   0.02135659   0.02100759            9 
 3320000    0.7151254     -7.32577    849.99627  0.021335248  0.021001374            8 
 3321000   0.73230268   -7.3612607    848.49121  0.021291057  0.020995158           10 
 3322000   0.72816188   -7.3160861     849.6744  0.021314329  0.020988926            8 
 3323000   0.71265361   -7.3224945    849.42594  0.021301684  0.020982705           16 
 3324000   0.73277957   -7.3296513    850.99038  0.021334496  0.020976497            6 
 3325000   0.72619445   -7.3326741    850.97787  0.021327766  0.020970299           20 
 3326000   0.72811105   -7.3414451    850.92171  0.021319947  0.020964094           19 
 3327000    0.7254721   -7.3436742    851.77687  0.021334958  0.020957911           30 
 3328000   0.71691128   -7.3228815    851.40577  0.021319255  0.020951718           13 
 3329000    0.7187499    -7.350858    849.69291  0.021269974  0.020945497           11 
 3330000   0.72851929   -7.3390044    851.27284  0.021303124  0.020939266           11 
 3331000   0.71964784   -7.3262577    849.05811  0.021241322  0.020933016           16 
 3332000   0.71746864   -7.3230722    851.48157  0.021295557  0.020926793            6 
 3333000   0.71093432    -7.313573    850.95721  0.021276058  0.020920613           17 
 3334000   0.72725348   -7.3192564    852.42797  0.021306438  0.020914446           15 
 3335000   0.71988178    -7.345278    850.87829  0.021261327  0.020908281            5 
 3336000   0.71252509   -7.3331133    852.10646  0.021285633   0.02090212            7 
 3337000   0.73455316   -7.3358786    850.62527  0.021242265   0.02089594            5 
 3338000   0.72413035   -7.3304689    849.25721  0.021201748  0.020889744           14 
 3339000   0.71780418   -7.3523022    850.59854  0.021228874  0.020883531           26 
 3340000    0.7237191   -7.3390133    852.77834  0.021276905  0.020877355           16 
 3341000   0.71409222   -7.3304037    851.02114  0.021226707  0.020871174           11 
 3342000    0.7275913   -7.3413764    850.43252  0.021205678  0.020865002           15 
 3343000   0.72939992   -7.3635962    850.62744  0.021204194  0.020858822           17 
 3344000    0.7205231   -7.3401037    852.96943  0.021256216  0.020852648            8 
 3345000   0.75113163   -7.3386801     849.9023   0.02117345  0.020846455           14 
 3346000   0.71834159   -7.3499061    851.29483  0.021201804  0.020840258           22 
 3347000   0.70782423   -7.3293196    852.58929  0.021227699  0.020834101           10 
 3348000   0.71338506   -7.3360145    851.70468   0.02119934  0.020827938            7 
 3349000   0.72148925   -7.3466316    851.80224  0.021195438  0.020821773            6 
 3350000   0.72724762   -7.3361765    852.74009   0.02121244  0.020815612            6 
 3351000   0.70537107   -7.3326351    852.75499   0.02120648  0.020809471            3 
 3352000   0.72026165   -7.3657722    852.28482  0.021188465  0.020803317            7 
 3353000   0.71202912   -7.3130115    851.16609  0.021154342  0.020797163           12 
 3354000   0.71121269   -7.3537137    852.74475  0.021187258  0.020791007           11 
 3355000   0.71225145   -7.3395493    850.94996  0.021136363  0.020784862            7 
 3356000   0.70415671   -7.3392117    852.52509  0.021169177   0.02077873            8 
 3357000   0.70569752   -7.3104734    852.68427  0.021166822  0.020772585            5 
 3358000   0.71864708   -7.3456986    852.00009   0.02114354  0.020766437            5 
 3359000   0.71498569   -7.3313841    851.70519  0.021129929  0.020760296            7 
 3360000   0.72193701   -7.3501877    850.79181  0.021100987  0.020754173           13 
 3361000   0.70391151   -7.3465629    850.85134  0.021096185  0.020748019            7 
 3362000   0.72724048   -7.3595203    850.30356  0.021076332  0.020741851            9 
 3363000   0.71434312   -7.3554484    852.84402  0.021133017  0.020735692            4 
 3364000     0.724117   -7.3705402    850.99074  0.021080825  0.020729516            6 
 3365000   0.70567684   -7.3625713    850.30472  0.021057571  0.020723345            8 
 3366000   0.70601863   -7.3709968    851.40208  0.021078483  0.020717167            6 
 3367000   0.72226649   -7.3608063    850.23556  0.021043351  0.020710981            6 
 3368000   0.69768708   -7.3673038    850.57656   0.02104554  0.020704791            7 
 3369000   0.70427948   -7.3457274    849.69515  0.021017492  0.020698594            9 
 3370000   0.70921971   -7.3628015    851.38567  0.021053058  0.020692427            6 
 3371000   0.71009559   -7.3313269    852.52303  0.021074929  0.020686275            9 
 3372000   0.72163882   -7.3714325    853.43279  0.021091162  0.020680119           15 
 3373000   0.71948945   -7.3511832    852.62723  0.021065007  0.020673943           10 
 3374000   0.72527997   -7.3408658    850.55509  0.021007585  0.020667785           15 
 3375000   0.69965998   -7.3413339    850.56684   0.02100165  0.020661605           16 
 3376000   0.70363955   -7.3598531    851.09699  0.021008516  0.020655445           11 
 3377000   0.71296543   -7.3538659    851.78221  0.021019204  0.020649298           10 
 3378000   0.71709729   -7.3449715    852.42843  0.021028923  0.020643145            7 
 3379000   0.71323495   -7.3360168    851.77765   0.02100665  0.020637025            9 
 3380000     0.714469   -7.3303799    850.94125  0.020979814  0.020630898           11 
 3381000   0.70686379   -7.3466996    850.49355  0.020962574  0.020624776           12 
 3382000   0.72243795     -7.34144    853.64295  0.021033978  0.020618657           14 
 3383000   0.69889439   -7.3604676    850.62225  0.020953351  0.020612523           11 
 3384000   0.70182457   -7.3491462    853.39087  0.021015339   0.02060638           14 
 3385000   0.71557233   -7.3414075    853.88449  0.021021282   0.02060025            7 
 3386000   0.72952471   -7.3446918     853.8471  0.021014154  0.020594151           12 
 3387000   0.70671486   -7.3568101    852.44764  0.020973517  0.020588047           13 
 3388000   0.70192465   -7.3576159     852.6397  0.020972051  0.020581938           10 
 3389000   0.70517932   -7.3522815    854.27975   0.02100619  0.020575821           16 
 3390000   0.70042553   -7.3732776    854.13236  0.020996371  0.020569709           19 
 3391000   0.69689524   -7.3563329     852.6954  0.020954866  0.020563602           36 
 3392000   0.70939485   -7.3522198    855.87921  0.021026907  0.020557501           16 
 3393000   0.70640319   -7.3367758     853.0232  0.020950565  0.020551389           15 
 3394000   0.71231028   -7.3381326    854.06173  0.020969891  0.020545292           13 
 3395000    0.7156853   -7.3511193     852.1333  0.020916379  0.020539183           24 
 3396000   0.70015999   -7.3631277     853.3584  0.020940283  0.020533082           10 
 3397000   0.70348281   -7.3229614    853.45629   0.02093652   0.02052697           11 
 3398000   0.71267243   -7.3572783    852.37987   0.02090396  0.020520856            9 
 3399000   0.70525613   -7.3478445    854.52854  0.020950489  0.020514744           10 
 3400000   0.70578484   -7.3402388    853.22542  0.020912388  0.020508624           10 
 3401000   0.71501319    -7.362586     852.9062  0.020898417  0.020502521           18 
 3402000   0.71355825   -7.3288246    853.49453  0.020906685  0.020496425            5 
 3403000   0.71123641   -7.3672084    852.14767   0.02086756  0.020490307            9 
 3404000   0.70859862   -7.3601234    852.53468  0.020870904  0.020484209           13 
 3405000   0.71559104   -7.3588532    854.27774  0.020907434  0.020478106            4 
 3406000   0.71480904    -7.356777    853.41127  0.020880096     0.020472            6 
 3407000    0.7146599   -7.3405497    852.38579  0.020848884  0.020465912            7 
 3408000   0.70658778   -7.3451457    854.23469  0.020887977  0.020459806           10 
 3409000   0.69504272   -7.3500666    853.72046  0.020869279  0.020453696           11 
 3410000   0.69849407   -7.3623679    853.83711   0.02086601  0.020447613           10 
 3411000   0.70264344   -7.3463101    852.27201  0.020821656  0.020441524           15 
 3412000    0.7004061   -7.3618185     852.7668  0.020827638  0.020435431            9 
 3413000   0.70392763   -7.3473946    853.06161  0.020828733   0.02042934            7 
 3414000   0.69950232   -7.3164138    853.47076   0.02083262  0.020423258           21 
 3415000   0.71374803   -7.3687982    852.89262  0.020812411  0.020417194           14 
 3416000   0.69098991   -7.3534126    854.54642  0.020846663  0.020411116           26 
 3417000   0.71643152   -7.3667733    854.67387  0.020843671  0.020405034           17 
 3418000   0.72704271   -7.3538835    852.27363  0.020779053  0.020398949            9 
 3419000   0.72616394   -7.3762053    851.55178  0.020755381  0.020392869            7 
 3420000   0.68730282   -7.3596593    853.04067  0.020785591  0.020386784            9 
 3421000   0.71975713   -7.3672812    853.16165  0.020782463  0.020380703            7 
 3422000   0.70985808   -7.3579142    853.77617  0.020791354  0.020374635            7 
 3423000   0.69506998   -7.3572892    854.57214  0.020804658  0.020368577           14 
 3424000   0.71832909   -7.3670016    853.89861   0.02078219  0.020362515            5 
 3425000   0.71659934    -7.341342    853.60495  0.020768977  0.020356434           16 
 3426000   0.70314893   -7.3305246    852.85441  0.020744659  0.020350366            9 
 3427000   0.70024742    -7.346612    853.73496  0.020760018  0.020344307           14 
 3428000   0.70274034   -7.3482185    855.15275  0.020788427  0.020338269            9 
 3429000   0.69407688   -7.3788861    854.18123  0.020758755  0.020332196           15 
 3430000   0.71015053   -7.3786399    854.23161  0.020753926  0.020326124           14 
 3431000   0.69836655   -7.3864917    853.50679  0.020730273  0.020320034           15 
 3432000   0.70706287   -7.3627487    852.86847  0.020708733  0.020313968           10 
 3433000   0.71262015   -7.3605464     852.6297  0.020696905  0.020307911            8 
 3434000   0.69736515   -7.3885439    852.85101  0.020696248  0.020301826            8 
 3435000   0.71805575     -7.37772    854.55783  0.020731631  0.020295766            7 
 3436000   0.69214873   -7.3750848    855.69662  0.020753216  0.020289707           10 
 3437000    0.6897216   -7.3639159    853.49083  0.020693697  0.020283654           10 
 3438000   0.69693906   -7.3956211    855.85439  0.020744968  0.020277591            6 
 3439000   0.71058793   -7.3613632    853.47631   0.02068131  0.020271528            9 
 3440000   0.70024651   -7.3642308    853.25182   0.02066986   0.02026546            5 
 3441000    0.7061363   -7.3931023    852.84962  0.020654113  0.020259406           10 
 3442000   0.70266044   -7.3835962    854.81401  0.020695671  0.020253322            9 
 3443000   0.68163005   -7.3890595    852.05341  0.020622844  0.020247247           15 
 3444000   0.69565826   -7.3786381    851.77048   0.02061001  0.020241156           17 
 3445000   0.70046866    -7.355423    854.17759  0.020662254  0.020235091           15 
 3446000   0.72050623   -7.3880443    852.63965  0.020619067  0.020229049           18 
 3447000   0.71550525   -7.3786779    854.04935  0.020647165  0.020222971           15 
 3448000   0.69398543   -7.3960272    852.54105  0.020604724  0.020216879           15 
 3449000   0.69934104   -7.3751146    853.77526   0.02062857  0.020210784           13 
 3450000   0.68369675   -7.3868598    852.32578  0.020587579  0.020204688           16 
 3451000   0.70136344   -7.3903352    853.28967  0.020604889  0.020198569           13 
 3452000   0.70834606   -7.3878911    853.91503  0.020614017  0.020192465            6 
 3453000   0.70124116   -7.3855746    853.17504  0.020590188  0.020186349            8 
 3454000    0.7131707   -7.4039398    851.31991  0.020539469  0.020180241           15 
 3455000   0.70931851   -7.4156995    853.34971  0.020582482   0.02017413            9 
 3456000   0.69111734   -7.3672423    852.97409  0.020567469  0.020168021           15 
 3457000   0.69746353   -7.3797926     853.2316  0.020567727  0.020161918           20 
 3458000   0.68226775   -7.3911624    852.28215  0.020538899  0.020155824           14 
 3459000   0.69662234   -7.3697363    854.73113  0.020591961  0.020149727           10 
 3460000   0.70572597   -7.3888281    853.79718  0.020563516  0.020143629            8 
 3461000   0.70137481   -7.3706236    852.95828  0.020537375  0.020137531           18 
 3462000   0.70723561   -7.3889028    855.18113  0.020584949  0.020131446           11 
 3463000    0.6916384   -7.4097927    851.67979  0.020494749  0.020125346           13 
 3464000   0.66827453   -7.3896886    852.59224  0.020510783  0.020119247           14 
 3465000   0.69520055   -7.3884269    854.68135  0.020555107  0.020113157           10 
 3466000   0.67958386   -7.3897381    852.73645  0.020502415  0.020107076           11 
 3467000   0.71213662   -7.3837367    854.05633  0.020528226   0.02010099            7 
 3468000   0.69608735   -7.3958717    854.09734  0.020523293    0.0200949            8 
 3469000   0.68507112   -7.3881942     854.3813  0.020524198  0.020088833            4 
 3470000   0.70654999   -7.3799096    853.25664  0.020491274  0.020082743            9 
 3471000   0.69638529   -7.4091095    853.79384  0.020498268  0.020076655            8 
 3472000   0.69293071   -7.3847633    852.00483  0.020449425  0.020070537           10 
 3473000   0.70213758   -7.3669999    851.89637  0.020440934  0.020064427            5 
 3474000   0.70578208   -7.4157233    853.00243  0.020461582   0.02005832           15 
 3475000   0.68641081   -7.3842379    852.18709  0.020436141  0.020052223            5 
 3476000   0.69661223   -7.4022919    850.58756  0.020391915  0.020046118           17 
 3477000   0.69509865   -7.4186741    851.13633  0.020399203  0.020040005           14 
 3478000   0.67917686   -7.4126763    852.87867  0.020435084  0.020033883           12 
 3479000   0.70772718   -7.4005714    853.54527  0.020445178  0.020027764           20 
 3480000   0.70462304   -7.3765727    853.03444   0.02042707  0.020021655           17 
 3481000   0.67795093   -7.4041944    851.56834  0.020386104  0.020015537           14 
 3482000   0.68305544   -7.4021391    851.11617  0.020369428  0.020009406           12 
 3483000   0.69974359   -7.3785331    852.92226  0.020406792  0.020003294           28 
 3484000   0.69244486   -7.3877691    854.96114  0.020449702  0.019997186           13 
 3485000    0.6856961   -7.3734975    852.75862  0.020391167  0.019991098           11 
 3486000   0.69726861   -7.3837656    853.87087  0.020411906  0.019985056           15 
 3487000   0.69291965   -7.3934976     853.1401  0.020388589  0.019979008            5 
 3488000   0.69564473   -7.3779852    854.49395  0.020415089  0.019972965           13 
 3489000    0.6973498    -7.369268    852.60745  0.020364179  0.019966916           11 
 3490000   0.69377436   -7.4066293    852.19722  0.020348549  0.019960839           10 
 3491000   0.69196019   -7.4245321    853.80242  0.020381037  0.019954757           17 
 3492000   0.69676774   -7.3922733    854.02807  0.020380586  0.019948661           11 
 3493000   0.69597362    -7.400421    852.25229  0.020332386  0.019942581            9 
 3494000   0.68985382   -7.3978298    853.35858  0.020352952  0.019936494            8 
 3495000   0.69988636    -7.410212    851.76202  0.020309061  0.019930392           16 
 3496000   0.69570338    -7.404396    852.72639  0.020326239  0.019924316           11 
 3497000   0.69266683   -7.4373041    851.69594  0.020295871  0.019918229            8 
 3498000    0.6932156   -7.3842895     853.9848  0.020344597  0.019912134            7 
 3499000   0.70906807   -7.4178299    852.81968  0.020311034  0.019906046           15 
 3500000   0.70281999   -7.4113513    851.50765  0.020273992  0.019899954            5 
 3501000   0.68952931   -7.3709425    852.20888  0.020284892  0.019893874            9 
 3502000   0.70567403   -7.3864859    852.95295  0.020296805  0.019887783            8 
 3503000   0.68753221   -7.3914004    853.98111   0.02031547  0.019881703            7 
 3504000   0.68640678   -7.4272776    851.87058  0.020259479  0.019875624            6 
 3505000   0.67866161   -7.3813104    851.91111  0.020254663  0.019869532           11 
 3506000   0.68368374   -7.3878924    852.85885  0.020271412  0.019863449            8 
 3507000   0.70137297   -7.3940205    852.10798   0.02024779   0.01985736            8 
 3508000   0.67918498   -7.3756631     854.0215  0.020287474  0.019851289           16 
 3509000    0.6960997   -7.4002372    853.33312  0.020265344  0.019845222           12 
 3510000   0.68370508    -7.393764     852.9622  0.020250765  0.019839163           25 
 3511000   0.67258289    -7.398985    852.53829  0.020234935  0.019833086           13 
 3512000   0.67198512   -7.3962218    852.95508  0.020239063     0.019827           26 
 3513000   0.70219219   -7.4047024    853.75272  0.020252223  0.019820936           12 
 3514000   0.67760806   -7.3967549    852.74123  0.020222473  0.019814873            9 
 3515000   0.68618719   -7.4106486    852.18883  0.020203623  0.019808795           25 
 3516000   0.70754241   -7.4205807    853.39246  0.020226404   0.01980272           19 
 3517000   0.68211205   -7.4033629    853.76891  0.020229573  0.019796653           25 
 3518000   0.68365176   -7.3968277    853.74312  0.020223212  0.019790577           22 
 3519000   0.67443193    -7.401279      853.624  0.020214644  0.019784507           11 
 3520000   0.67858833   -7.3947599    852.92803  0.020192425  0.019778427           15 
 3521000   0.68624844    -7.392266    852.12494  0.020167683  0.019772377           17 
 3522000   0.68869719   -7.3896538    853.31777   0.02019018  0.019766318           18 
 3523000   0.68694922    -7.394652    853.70204  0.020193539  0.019760267           24 
 3524000   0.68715226   -7.4122698    851.87506  0.020144605  0.019754199           31 
 3525000   0.68769063   -7.4232716    852.66573  0.020157582  0.019748148           20 
 3526000   0.67761011   -7.3922141    853.06371  0.020161271  0.019742088           10 
 3527000   0.68885878   -7.3867536    853.35089   0.02016234   0.01973602           13 
 3528000   0.68983112   -7.3927613    853.19528   0.02015295  0.019729987           12 
 3529000   0.68145262   -7.4023879    854.30337  0.020173405  0.019723933           12 
 3530000   0.69167501   -7.4273662    854.36647   0.02016918  0.019717875            9 
 3531000   0.69592082   -7.4222245    852.21007  0.020112576  0.019711804           21 
 3532000    0.6874741   -7.4063289    852.82315  0.020121347  0.019705725           31 
 3533000   0.70554388    -7.405738    851.56374  0.020085945  0.019699643           22 
 3534000   0.68006123   -7.4146662    852.44435  0.020101027   0.01969358           14 
 3535000   0.68767419     -7.41036    853.06342  0.020109934    0.0196875           12 
 3536000   0.68005899   -7.3959511     853.7691  0.020120878  0.019681422           11 
 3537000   0.68873294   -7.4125332    851.19016  0.020054428  0.019675345           15 
 3538000   0.70579541   -7.4199296    852.56348  0.020081107  0.019669287           10 
 3539000    0.6773371   -7.4182652    852.34462  0.020070279   0.01966323           16 
 3540000   0.68915307   -7.4086623    852.50076  0.020068285  0.019657171           18 
 3541000   0.68309603   -7.3976791    853.45383  0.020085047  0.019651105           26 
 3542000   0.67627916    -7.422561    851.01625  0.020022027  0.019645045           15 
 3543000    0.6788261   -7.4184361    854.99297  0.020109911  0.019639005           11 
 3544000   0.66611067   -7.4037065    854.58069  0.020094542  0.019632969           14 
 3545000    0.6783131   -7.4009401    853.35024  0.020059949   0.01962696           16 
 3546000   0.68771589   -7.4028453    853.86895  0.020066482   0.01962095           12 
 3547000   0.68982412    -7.412555    854.36039  0.020072371  0.019614937           17 
 3548000   0.69903852   -7.4159508    854.79506  0.020076923   0.01960893           14 
 3549000   0.67927366   -7.4060655    855.74433  0.020093555  0.019602943           24 
 3550000   0.70403801   -7.3849125    853.74472  0.020040956  0.019596944           23 
 3551000   0.70162884   -7.3724139    854.32416   0.02004891  0.019590964           19 
 3552000     0.688046   -7.3842799    854.52695  0.020048023  0.019584993           21 
 3553000   0.66296878   -7.4147128    853.11844  0.020009345  0.019578992           19 
 3554000   0.68401737   -7.4083154    854.35356  0.020032676  0.019573011           20 
 3555000   0.69484306   -7.4133839    852.41985  0.019981712   0.01956702           29 
 3556000   0.67821719   -7.4076952    852.82937   0.01998569  0.019561031           13 
 3557000   0.67375573   -7.4314308    853.16177  0.019987859  0.019555037            9 
 3558000   0.68480994   -7.4011073    854.02691  0.020002504  0.019549059           15 
 3559000   0.69955185   -7.4086007    853.64772  0.019988005  0.019543071           22 
 3560000   0.67791895   -7.4215387    853.10459  0.019969677  0.019537077            9 
 3561000    0.6671315   -7.4122517    853.38963  0.019970739  0.019531071            8 
 3562000   0.66842626   -7.4127247    853.03591  0.019956857  0.019525069           16 
 3563000   0.67425533   -7.3823448    853.54447  0.019963151  0.019519095           13 
 3564000   0.67475602   -7.4177556    854.07621  0.019969982   0.01951311           10 
 3565000   0.67766771   -7.3977299    854.55108  0.019975481  0.019507134            9 
 3566000   0.66570142   -7.4225796    853.70585  0.019950127  0.019501139           28 
 3567000   0.70218619   -7.4229882    853.33009  0.019935756  0.019495155           17 
 3568000   0.67899034   -7.3800341    855.33019  0.019976882  0.019489194           34 
 3569000   0.67865403   -7.4108799    855.97769  0.019986403  0.019483246           15 
 3570000    0.6672391    -7.404377    853.20647  0.019916118  0.019477297           26 
 3571000   0.67141274   -7.4096947    853.99176  0.019928866  0.019471343           31 
 3572000   0.68450748   -7.4168729    854.90167  0.019944514  0.019465378           21 
 3573000   0.67613239   -7.4260993    853.54143  0.019907207  0.019459408           13 
 3574000     0.686177   -7.4142953     852.0767  0.019867485  0.019453428           19 
 3575000   0.68187926   -7.4016612    853.97155  0.019906097  0.019447456           18 
 3576000   0.67484076   -7.4067988    854.12244  0.019904046  0.019441496           11 
 3577000   0.67959217   -7.4207294    855.11497  0.019921605   0.01943552           22 
 3578000   0.67810476   -7.4144564    854.23532   0.01989555  0.019429535           37 
 3579000   0.67824485   -7.4259318    854.07894  0.019886349  0.019423542           25 
 3580000   0.68600732    -7.414994    852.62926   0.01984705  0.019417551           28 
 3581000    0.6819529   -7.4271311    853.18381  0.019854413  0.019411555           30 
 3582000   0.68490539    -7.425405    852.45642  0.019831947  0.019405571           13 
 3583000   0.67412752   -7.4422194    853.22929  0.019844388  0.019399593            8 
 3584000   0.69426456   -7.4103102    852.18013  0.019814456  0.019393603           15 
 3585000   0.68624558   -7.4302761    853.09453  0.019830184  0.019387608           21 
 3586000   0.68406913   -7.4201672    853.01917  0.019822903  0.019381635           17 
 3587000   0.67785519   -7.4238895    852.69966  0.019809954  0.019375655           13 
 3588000   0.68427549   -7.4226307    855.22738  0.019863141  0.019369672           19 
 3589000   0.68156449   -7.4152432    853.58854  0.019819554  0.019363691           24 
 3590000   0.68585866   -7.4409691    853.37343   0.01980904   0.01935771           25 
 3591000    0.6903661   -7.4301907    854.86259  0.019838081   0.01935172           13 
 3592000   0.67776168   -7.4238276    854.02399  0.019813103  0.019345741           23 
 3593000   0.67373292   -7.4519814    854.30813  0.019814179   0.01933976           17 
 3594000   0.68388965   -7.4227417    854.39966  0.019810788  0.019333786           22 
 3595000   0.66894594   -7.4215855    855.34837  0.019827269  0.019327808           17 
 3596000   0.67052791    -7.420796    853.29281   0.01977412  0.019321823           41 
 3597000   0.67636283   -7.4186318    852.39285  0.019747773  0.019315841           39 
 3598000   0.67435771   -7.4136532    852.99858  0.019756313  0.019309863           43 
 3599000   0.67218082   -7.4404043    852.63804  0.019742476  0.019303889           24 
 3600000   0.68865369   -7.4353915    854.26425  0.019774635  0.019297893           35 
 3601000   0.68420079   -7.4461592    852.45793  0.019727343  0.019291899           17 
 3602000   0.67178094   -7.4526963     852.0124  0.019711558  0.019285904           49 
 3603000   0.68041821   -7.4268121    852.94894  0.019727749  0.019279929           37 
 3604000    0.6809686   -7.4330233    855.66784  0.019785143  0.019273956           19 
 3605000   0.66359142   -7.4051242     853.7511  0.019735347  0.019268004           82 
 3606000   0.67481154   -7.4444811    852.67942  0.019705108  0.019262046           28 
 3607000    0.6795499    -7.420198    855.66544  0.019768631  0.019256087           46 
 3608000   0.68295185   -7.4341924    854.60129  0.019738574  0.019250137           21 
 3609000   0.66670233   -7.4121091    853.87531  0.019716341  0.019244188           34 
 3610000   0.69293692   -7.4333383    854.98826  0.019736571  0.019238259           34 
 3611000   0.67968067   -7.4280506    853.12804  0.019688176  0.019232322           37 
 3612000   0.67506829   -7.4289391    852.28294  0.019663228  0.019226368           45 
 3613000   0.67356308   -7.4300643    853.40806  0.019683736  0.019220428           21 
 3614000   0.67767976   -7.4216245    853.64139   0.01968367  0.019214485           24 
 3615000   0.68163639   -7.4291581     854.3082  0.019693596  0.019208546           24 
 3616000   0.65990593    -7.423099    853.16017  0.019661693  0.019202632           20 
 3617000    0.6664167   -7.4538178    852.51981  0.019641503  0.019196717           13 
 3618000   0.65614717    -7.429646    853.39574   0.01965625  0.019190794           17 
 3619000   0.66505873   -7.4270908     853.3197  0.019649067   0.01918486           15 
 3620000    0.6772951   -7.4263799      854.363  0.019667657  0.019178934            9 
 3621000   0.66249874   -7.4305124    853.69205  0.019646784  0.019172999           32 
 3622000   0.67903346   -7.4360734    854.49709  0.019659882  0.019167056           12 
 3623000   0.68730913   -7.4580979    850.11272  0.019553609  0.019161101           27 
 3624000   0.67469364   -7.4474904    853.00402  0.019614699  0.019155129           14 
 3625000   0.66939996   -7.4457017    851.88055  0.019583461  0.019149167           20 
 3626000   0.68212515   -7.4613678    852.32782  0.019588339  0.019143208           11 
 3627000   0.66432212   -7.4541421    852.20187  0.019580045  0.019137249           16 
 3628000   0.66926285   -7.4649651     854.0704  0.019617567  0.019131296           29 
 3629000   0.66382146   -7.4548094     854.1115  0.019613105   0.01912535           25 
 3630000   0.67018818   -7.4430451    852.40597  0.019568548  0.019119405            8 
 3631000   0.68713994   -7.4404298    854.57824  0.019613014   0.01911346           21 
 3632000   0.66224384   -7.4407958    852.93426  0.019569894  0.019107528           28 
 3633000   0.65905565    -7.430694    853.69947   0.01958206  0.019101594           23 
 3634000   0.66816035   -7.4518772    852.58195  0.019551045  0.019095656           26 
 3635000   0.68723396   -7.4320508    852.27637   0.01953866  0.019089736           31 
 3636000   0.65959534   -7.4204738    854.76514  0.019590327  0.019083822           27 
 3637000   0.67229718   -7.4439847    854.99342  0.019590171  0.019077907           20 
 3638000   0.65505884    -7.416375    854.27856  0.019568411  0.019071975           34 
 3639000   0.66325634   -7.4477679    855.62418  0.019593849  0.019066065           26 
 3640000    0.6809837   -7.4372025    854.25892   0.01955721  0.019060161           21 
 3641000   0.66575953   -7.4317329    855.88776  0.019589118  0.019054259           20 
 3642000   0.66914212   -7.4257795    852.67864  0.019510311  0.019048374           15 
 3643000   0.68913873   -7.4390338     853.5103   0.01952398   0.01904247           16 
 3644000   0.66011519    -7.442793    853.27861  0.019513324  0.019036571           29 
 3645000   0.66676176    -7.422436    853.29009  0.019508233  0.019030675           27 
 3646000   0.65237277   -7.4516432    855.62483  0.019556245  0.019024775            9 
 3647000   0.67931842   -7.4280788    854.36648   0.01952213  0.019018883           12 
 3648000   0.65749207   -7.4561694     855.9222  0.019552316  0.019013007            8 
 3649000   0.66282635   -7.4306914    855.48567  0.019536989  0.019007143            9 
 3650000   0.66190468   -7.4174573    856.45224  0.019553704   0.01900126           29 
 3651000   0.65685635   -7.4248878    855.05832  0.019516532  0.018995392           15 
 3652000   0.65625423    -7.446903    855.77765  0.019527602  0.018989511           11 
 3653000   0.67421205   -7.4417744    856.18051  0.019531447  0.018983639           15 
 3654000   0.66061877   -7.4628963    853.19257  0.019457959  0.018977765           21 
 3655000   0.66556578   -7.4609567    851.57958  0.019415859  0.018971884           24 
 3656000   0.65103726   -7.4530852    853.55303   0.01945553  0.018965989           12 
 3657000   0.67186539   -7.4320828    854.25192  0.019466136  0.018960086            7 
 3658000   0.66949799   -7.4487193    852.51625  0.019421274  0.018954199           24 
 3659000   0.67462196   -7.4627235    853.54888  0.019439484  0.018948319           20 
 3660000   0.67321606   -7.4404668     853.7005  0.019437625  0.018942429            9 
 3661000   0.66154454   -7.4555341    853.09948  0.019418635  0.018936538           13 
 3662000   0.66413308   -7.4570031    854.68355   0.01944938  0.018930655           17 
 3663000   0.65836393   -7.4610329    852.62649  0.019397272  0.018924784           11 
 3664000   0.65680192   -7.4486686    855.60416  0.019459702  0.018918903           23 
 3665000   0.64903533   -7.4537732    854.14755  0.019421272  0.018913016           13 
 3666000   0.67216722   -7.4556695    854.29913   0.01941942  0.018907144           14 
 3667000   0.66858652   -7.4382713    854.10618   0.01940974  0.018901272           14 
 3668000   0.67649378    -7.453412    854.14332  0.019405292  0.018895399            9 
 3669000   0.65838269   -7.4421723    854.92295   0.01941771  0.018889531           10 
 3670000   0.66096951    -7.454085    855.25832  0.019420035  0.018883659           16 
 3671000    0.6588694   -7.4368033    854.90553  0.019406736  0.018877792           13 
 3672000    0.6623715   -7.4116798     854.6556  0.019395779   0.01887194            9 
 3673000   0.66853822   -7.4507218    855.15634  0.019401859   0.01886609            7 
 3674000   0.66771859   -7.4487937    855.88042  0.019413002  0.018860227           15 
 3675000   0.66540995   -7.4486109    853.14317   0.01934565   0.01885438            7 
 3676000   0.65627017   -7.4337498    852.58104  0.019327644  0.018848534           13 
 3677000   0.67413335   -7.4440895    855.14637  0.019380527  0.018842676            8 
 3678000   0.64593557   -7.4299686    854.55486  0.019361856   0.01883682            8 
 3679000   0.63780054   -7.4577963    854.37691  0.019352562  0.018830966            8 
 3680000   0.67909832   -7.4425949    853.33924  0.019323805  0.018825105           22 
 3681000   0.67385849   -7.4540108    853.71026  0.019326955  0.018819248            6 
 3682000   0.66688429    -7.471458    852.87876  0.019302887  0.018813401           12 
 3683000   0.65929259   -7.4644896    853.61688  0.019314347  0.018807529            7 
 3684000   0.63970576   -7.4686941    854.00999  0.019317997   0.01880166           18 
 3685000   0.65517605   -7.4565931    855.92943  0.019356161  0.018795805           11 
 3686000   0.66024389   -7.4136914     855.1655  0.019333638  0.018789931           10 
 3687000   0.67272093   -7.4709226    852.48525  0.019267816  0.018784062            9 
 3688000   0.65820822   -7.4225965    853.58052   0.01928734  0.018778196           18 
 3689000   0.65632122    -7.445419    853.97745  0.019291078  0.018772344           11 
 3690000   0.67696043   -7.4441003     853.5273  0.019275684  0.018766483           19 
 3691000   0.66235881   -7.4795918    853.17361  0.019262477  0.018760617           16 
 3692000   0.65537477   -7.4480349    854.32131  0.019283164  0.018754772            8 
 3693000   0.66800395   -7.4447981     854.6352  0.019285026  0.018748935           16 
 3694000   0.65962079   -7.4346415    854.19557  0.019269887   0.01874309            9 
 3695000   0.65945748   -7.4705197    852.82124  0.019233677   0.01873723           12 
 3696000   0.67310106   -7.4339438    854.09467  0.019257185  0.018731397           21 
 3697000   0.67031979   -7.4321662    854.84703  0.019268935  0.018725569           11 
 3698000   0.64794921   -7.4493399    852.14293  0.019202788  0.018719734            6 
 3699000   0.67820378   -7.4687343    853.93841  0.019238047  0.018713916           10 
 3700000   0.64101906   -7.4626264    854.33493  0.019241778  0.018708097            8 
 3701000   0.65589001   -7.4924549    856.09653  0.019276244   0.01870227            9 
 3702000   0.66688461    -7.479254    855.08386  0.019248241  0.018696445           11 
 3703000   0.68015729    -7.483625    853.58334  0.019209275  0.018690626           13 
 3704000   0.65723537   -7.4779969    854.63074  0.019227653  0.018684801           12 
 3705000   0.66683872   -7.4382491    855.14647  0.019234064  0.018678978           10 
 3706000   0.65333629   -7.4699064    854.25435  0.019208813  0.018673177           11 
 3707000   0.65515309   -7.4359342    854.38595   0.01920659   0.01866737            5 
 3708000   0.65742968   -7.4679881    855.21154  0.019219965  0.018661543           11 
 3709000   0.65495536   -7.4636978    853.31799  0.019172239  0.018655698           17 
 3710000   0.66617961   -7.4471567    853.80349  0.019177976  0.018649865           28 
 3711000   0.66436458   -7.4593368      854.621  0.019191166   0.01864405           35 
 3712000   0.67064088   -7.4819244     854.4612  0.019182408  0.018638224           13 
 3713000   0.65050938   -7.4451655    855.32187  0.019196559  0.018632398           15 
 3714000   0.66148629   -7.4772864    854.24917  0.019167321  0.018626589           13 
 3715000    0.6542172   -7.4743718    853.99157  0.019156383  0.018620785            8 
 3716000   0.65554202   -7.4801781    853.39634   0.01913788  0.018614965           11 
 3717000   0.64327686   -7.4332861    853.97654  0.019145739  0.018609151           10 
 3718000   0.66145466   -7.4593271    854.27118  0.019147193  0.018603335            5 
 3719000   0.65808623   -7.4801805    853.36871  0.019121823  0.018597526            9 
 3720000   0.66651696   -7.4795854     852.2425  0.019091454  0.018591711           12 
 3721000   0.65702059   -7.4666078    853.83146  0.019121909  0.018585896           13 
 3722000   0.65054885   -7.4676702    853.78191  0.019115662  0.018580087           21 
 3723000   0.65598253   -7.4779527    854.56262  0.019128002  0.018574288           15 
 3724000    0.6461787   -7.4721057    853.86681  0.019107295  0.018568482           13 
 3725000   0.65134848    -7.476486    853.19152  0.019087059  0.018562673           20 
 3726000   0.65044136   -7.5004023    852.75327  0.019072134  0.018556866           19 
 3727000   0.66447641   -7.4808246    854.30626  0.019101741  0.018551056           10 
 3728000   0.65951159   -7.4774107    854.59515  0.019103075  0.018545266           17 
 3729000   0.64860744   -7.4398044    854.38052  0.019093156  0.018539471            8 
 3730000   0.65958575   -7.4733963    854.96308  0.019101052  0.018533698           12 
 3731000   0.65101511   -7.4716582      854.773  0.019091687  0.018527925           22 
 3732000   0.66623589   -7.4751641    853.16865  0.019050747  0.018522155           35 
 3733000   0.64968968   -7.4813255    855.01792  0.019086926  0.018516382           16 
 3734000   0.65371103    -7.462458    855.39506  0.019090231   0.01851061           29 
 3735000   0.64777692   -7.4919628    853.55317  0.019044024   0.01850482           28 
 3736000   0.65055551   -7.4802663    852.77299  0.019021524  0.018499022           13 
 3737000   0.66580082   -7.4938572    854.71433  0.019059726  0.018493227           19 
 3738000   0.64263773   -7.4696439    853.71115  0.019032262  0.018487436           15 
 3739000   0.65521772   -7.4786012    854.80977  0.019051658  0.018481644           17 
 3740000   0.65644843   -7.5025105    854.35716  0.019036479  0.018475855           18 
 3741000    0.6498204   -7.4770527      853.201  0.019005636  0.018470073           17 
 3742000   0.65937068   -7.5108274    855.87148  0.019060028  0.018464289           27 
 3743000   0.65000435   -7.4607284    852.60281  0.018982162  0.018458514           21 
 3744000   0.63680313   -7.4803517    853.39754  0.018994781   0.01845275           33 
 3745000   0.66528568   -7.4923671    854.30032  0.019009798  0.018446985           11 
 3746000   0.64192205   -7.4861998     854.9142   0.01901838  0.018441218           13 
 3747000   0.66391456   -7.4541425    854.27527  0.018999094  0.018435443           12 
 3748000   0.64613475    -7.483585    853.22195  0.018970605   0.01842967           26 
 3749000   0.65965356    -7.478531    854.13239  0.018985783   0.01842389           13 
 3750000   0.66600286   -7.4796993    854.45872  0.018987972  0.018418129           20 
 3751000   0.65856818   -7.4784146    853.50775  0.018961782  0.018412365           23 
 3752000   0.65964931   -7.4565632    853.74135  0.018961917  0.018406613           17 
 3753000   0.64950969   -7.4904411      854.897  0.018982525  0.018400864           28 
 3754000   0.66124622   -7.4880597    852.55807  0.018925548  0.018395102           30 
 3755000   0.64441892   -7.4825309    852.20335  0.018912635  0.018389338           28 
 3756000   0.66310227    -7.508397    854.33656  0.018954929  0.018383557           39 
 3757000   0.64806253   -7.4738201    855.70182  0.018980166  0.018377789           17 
 3758000   0.65270683   -7.4772559    853.13813  0.018918266  0.018372029           27 
 3759000   0.66905296   -7.4731031    852.65614  0.018902548  0.018366282           13 
 3760000   0.65149402   -7.4722387     853.5655  0.018917675  0.018360534           19 
 3761000   0.65517867   -7.4897314    853.56699  0.018912678  0.018354797           16 
 3762000   0.66536417   -7.4895758    853.28858  0.018901484  0.018349052           15 
 3763000   0.64334186   -7.4940954    853.31992  0.018897155  0.018343308           15 
 3764000   0.66708818   -7.4649863    853.39694  0.018893839  0.018337562           18 
 3765000   0.65568913   -7.4949384    853.95923  0.018901267  0.018331834           28 
 3766000   0.63848835   -7.4962349    853.96794  0.018896441  0.018326099           24 
 3767000   0.64769644   -7.5101746    853.62914  0.018883929  0.018320354           29 
 3768000   0.65209125   -7.5149727    855.28944  0.018915637  0.018314609           24 
 3769000   0.64672068   -7.5147427    853.68373  0.018875116  0.018308861           16 
 3770000   0.65539312   -7.4793366    855.21957  0.018904058   0.01830313            9 
 3771000   0.66233343   -7.4763482    854.36766  0.018880219  0.018297403           17 
 3772000   0.65479423   -7.5019942    853.16483   0.01884864  0.018291675           18 
 3773000   0.64560165   -7.4993386    855.28352  0.018890439  0.018285946           11 
 3774000   0.64550694   -7.4958438    855.75903  0.018895933  0.018280219           10 
 3775000   0.63541675   -7.4907661    854.96703  0.018873444  0.018274495           14 
 3776000   0.66219823   -7.4683389    854.72408  0.018863084  0.018268766            8 
 3777000   0.65248907   -7.4659521    854.62642  0.018855935  0.018263058           13 
 3778000    0.6417444    -7.499865    854.17165  0.018840913  0.018257353           15 
 3779000   0.65192329   -7.4786893    854.55521  0.018844386  0.018251647           18 
 3780000   0.65369324   -7.5027424    856.86396  0.018890299  0.018245954           19 
 3781000   0.65234182   -7.5020836    855.64395  0.018858414  0.018240253           16 
 3782000   0.65883414   -7.4867821     855.3479  0.018846904   0.01823455           15 
 3783000   0.65950064   -7.4961749    856.47647  0.018866783  0.018228861           12 
 3784000   0.64496994   -7.4848615    854.77204  0.018824261  0.018223166           14 
 3785000   0.65489397   -7.4838991    855.55813  0.018836595  0.018217485           10 
 3786000   0.64582497   -7.4891785    856.27466  0.018847391  0.018211818           13 
 3787000   0.64527392   -7.4882707    855.35299  0.018822133  0.018206151           15 
 3788000   0.63659226   -7.4758147    857.30509  0.018860109  0.018200487           16 
 3789000   0.64461625   -7.4893343    855.94627  0.018825246  0.018194824           12 
 3790000   0.65242482   -7.4720501    854.81539  0.018795413  0.018189152           14 
 3791000    0.6522085   -7.5030449    856.82049  0.018834531  0.018183492           19 
 3792000   0.63660705   -7.5045889    856.19138  0.018815739  0.018177826           18 
 3793000   0.65423806   -7.4922424      855.794  0.018802048  0.018172169           18 
 3794000   0.64944867   -7.4765065    854.85743  0.018776521  0.018166519           13 
 3795000   0.64150943   -7.4795906    855.80971  0.018792484   0.01816086           18 
 3796000   0.64465828   -7.5023479     854.6844  0.018762829    0.0181552           20 
 3797000   0.65844638   -7.4744331    855.60283  0.018778045  0.018149532           19 
 3798000    0.6277188   -7.4983901    855.44043  0.018769537  0.018143872           20 
 3799000   0.64692107   -7.4674737    854.53796    0.0187448  0.018138201           23 
 3800000   0.63188563   -7.5237045    854.33028  0.018735313   0.01813253           14 
 3801000   0.63802553   -7.4852564    856.49457  0.018777834  0.018126839            9 
 3802000   0.63356013   -7.5286276    853.75647  0.018712881  0.018121155           10 
 3803000   0.64625129   -7.5038829    852.78667  0.018686709  0.018115453           13 
 3804000   0.64485082     -7.52311    854.87131  0.018727465  0.018109748           12 
 3805000   0.63829307   -7.5122572    853.33441  0.018688883  0.018104048           11 
 3806000   0.64626469   -7.5187265    853.49234  0.018687431  0.018098359           35 
 3807000   0.63824533   -7.5114396    854.28471  0.018699867  0.018092675           21 
 3808000   0.63926792   -7.5006816    856.03791  0.018733323  0.018086986           12 
 3809000   0.62868084   -7.5238655    854.11631  0.018686364  0.018081292           13 
 3810000   0.63643626   -7.5101015    854.47627  0.018689332  0.018075602           21 
 3811000   0.63640094   -7.5129604    852.99564  0.018652052  0.018069927           32 
 3812000   0.64887151   -7.5085825    854.11757  0.018671685  0.018064242           18 
 3813000   0.63124593   -7.5229154    852.73165  0.018636499  0.018058544           31 
 3814000    0.6425182   -7.5157644     854.5995  0.018672424  0.018052856           41 
 3815000    0.6346461   -7.5213691    854.34004  0.018661862  0.018047171           16 
 3816000   0.64414027   -7.5163458    854.11835   0.01865213  0.018041487           18 
 3817000   0.63835642   -7.5184184    853.69135  0.018637921  0.018035793           14 
 3818000   0.64577124   -7.5255172    853.03733  0.018618765  0.018030096           28 
 3819000    0.6402825    -7.520201    854.44123  0.018644524  0.018024425           38 
 3820000   0.63812455   -7.5107276    854.64141   0.01864401  0.018018746           17 
 3821000   0.64197124   -7.5322174    855.02025  0.018647393  0.018013074           16 
 3822000   0.64135668   -7.5216263    854.26909  0.018626136  0.018007391           18 
 3823000   0.64075311    -7.516542    854.27531  0.018621399  0.018001712           13 
 3824000    0.6393042   -7.5445544    853.49666  0.018599561   0.01799603           16 
 3825000   0.63573132   -7.5152782    854.62973  0.018619384  0.017990363           26 
 3826000   0.63964879   -7.5312815    852.97056  0.018578379  0.017984684           17 
 3827000   0.63329572   -7.5082288    852.57386  0.018564887  0.017979013           11 
 3828000   0.64038756    -7.514545     854.5013  0.018601996  0.017973344           12 
 3829000   0.63604939   -7.5313154    852.16569  0.018546306  0.017967664            7 
 3830000   0.64425691   -7.5281218    853.52148  0.018570963  0.017961987           13 
 3831000   0.64151587   -7.5277769    854.43777  0.018586047  0.017956324           14 
 3832000   0.63627769   -7.5407396    854.55762  0.018583804  0.017950659           22 
 3833000   0.64444424   -7.5509177    853.82026  0.018562924  0.017944977           14 
 3834000   0.64038669   -7.5252909    851.42792  0.018506084  0.017939306           13 
 3835000   0.64110723   -7.5261348    852.78554  0.018530759  0.017933633           20 
 3836000   0.65082107   -7.5301216    854.89289  0.018571709  0.017927972           18 
 3837000   0.63392697   -7.5458078    852.42719  0.018513317  0.017922296           15 
 3838000   0.64050925   -7.5289132    852.54257  0.018510999  0.017916624           14 
 3839000    0.6328441   -7.5309571    852.38511  0.018502759   0.01791096           13 
 3840000   0.63864008   -7.5428748     854.8567  0.018551578  0.017905293           43 
 3841000   0.64651339   -7.5195892    854.15046  0.018531425  0.017899624           16 
 3842000   0.64022344   -7.5163445     853.9617  0.018522508  0.017893968           50 
 3843000   0.63707179   -7.5156184    854.90241  0.018538087  0.017888323           21 
 3844000   0.63237562   -7.5317761    853.49784  0.018502815  0.017882677           55 
 3845000   0.64951112   -7.5069392    853.53546  0.018498818  0.017877036           19 
 3846000   0.62027208   -7.5418162    852.89287  0.018480085  0.017871395           35 
 3847000     0.644416   -7.5271401    853.44041  0.018487142  0.017865749           18 
 3848000   0.64275649   -7.5303954    853.18876  0.018476888  0.017860109           21 
 3849000    0.6253519   -7.5432098    853.45035  0.018477751  0.017854469           24 
 3850000   0.62975009   -7.5223294    855.00474  0.018506596  0.017848833           23 
 3851000   0.62790276   -7.5277857    853.31259  0.018465173  0.017843186           43 
 3852000   0.63617439   -7.5309791    854.65008  0.018489315  0.017837546           33 
 3853000   0.62872424   -7.5505548    855.26227  0.018497757  0.017831921           30 
 3854000   0.63540609   -7.5475123    854.09755  0.018467773  0.017826287           21 
 3855000    0.6444289   -7.5461443    852.79544  0.018434834  0.017820663           22 
 3856000   0.63817122   -7.5066945     854.2318  0.018461095  0.017815038           26 
 3857000   0.63290259   -7.5310124     854.0726  0.018452869  0.017809424            9 
 3858000   0.62893221   -7.5211008    853.27291  0.018430813  0.017803808           10 
 3859000   0.63072026   -7.5161996    854.13421  0.018444636  0.017798207           15 
 3860000   0.64042507   -7.5080088    854.42668  0.018446172  0.017792593           25 
 3861000   0.64354181   -7.4979949    853.17775  0.018414438  0.017786984           13 
 3862000   0.63468953    -7.512093    853.46498  0.018415868  0.017781374           15 
 3863000   0.62940878   -7.5317045    853.11538  0.018403559   0.01777575           15 
 3864000   0.62097802    -7.530862     853.2887  0.018402534  0.017770137            9 
 3865000   0.63400018   -7.5299442    854.31849  0.018419976  0.017764531            9 
 3866000    0.6553107   -7.5048551    852.97446   0.01838624  0.017758932           11 
 3867000   0.63862507   -7.5344733    855.80068   0.01844239  0.017753331           16 
 3868000   0.63460806   -7.5070712    854.02928  0.018399459  0.017747729           14 
 3869000   0.62719974   -7.5236967    855.24509   0.01842089  0.017742134           12 
 3870000   0.63689212   -7.5215035    854.48913  0.018399852  0.017736552           12 
 3871000   0.62981045   -7.5284736    856.06286  0.018428978  0.017730969           17 
 3872000   0.62719812   -7.5326162    852.89962  0.018356138  0.017725398           12 
 3873000   0.63105566   -7.5276989    854.20063  0.018379392  0.017719811           10 
 3874000   0.63284863   -7.5308094    853.82459  0.018366559  0.017714224           10 
 3875000   0.62772991   -7.5479241    854.98222  0.018386714  0.017708653           12 
 3876000   0.64021587   -7.5106437    855.10004  0.018384504  0.017703094            7 
 3877000   0.63184557   -7.5354625    854.96082  0.018376769  0.017697527           10 
 3878000   0.62647666   -7.5498223    851.83323  0.018304823  0.017691956           12 
 3879000   0.63590234   -7.5342743     854.5793  0.018359098  0.017686385           11 
 3880000   0.64512108   -7.5362493    854.62472  0.018355342  0.017680802           13 
 3881000   0.63246341   -7.5297651    853.94511   0.01833602  0.017675226           13 
 3882000   0.63275089   -7.5381963    854.49018  0.018342997  0.017669658            7 
 3883000   0.64585706   -7.5497555    854.21925  0.018332459  0.017664083           17 
 3884000   0.62168822   -7.5456955    852.43334  0.018289421  0.017658496           13 
 3885000   0.63414489   -7.5415679    853.46944  0.018306938  0.017652912           16 
 3886000   0.62431722   -7.5523528    853.69333  0.018307028   0.01764733           11 
 3887000   0.62515506   -7.5404902    854.15142  0.018312139  0.017641747           16 
 3888000   0.64437685   -7.5298166    854.16746  0.018307773  0.017636173           23 
 3889000   0.62173967    -7.542633    853.69678   0.01829298    0.0176306           13 
 3890000   0.62440802   -7.5314918    855.63133   0.01832972   0.01762503           14 
 3891000    0.6267125   -7.5444609    853.65847  0.018282757  0.017619462           17 
 3892000   0.62942288   -7.5370805    852.84293  0.018260597  0.017613906            8 
 3893000   0.63482603   -7.5321158    854.46296  0.018290585  0.017608362           17 
 3894000   0.62831759   -7.5246834    854.28748  0.018282132  0.017602827           10 
 3895000   0.62575084   -7.5280659    853.12792   0.01825263  0.017597278           12 
 3896000   0.63774758    -7.523365    854.12607  0.018269295   0.01759173           13 
 3897000   0.63965059   -7.5375755    852.32543  0.018226102   0.01758619           26 
 3898000   0.63881784   -7.5353935    854.45668  0.018266989  0.017580646           22 
 3899000   0.62911992   -7.5329791    854.49789  0.018263185  0.017575099           19 
 3900000   0.62400335   -7.5285303     852.8566  0.018223432  0.017569554           13 
 3901000    0.6229184   -7.5432042     854.1172  0.018245689  0.017564005           21 
 3902000    0.6251806   -7.5260282    852.31031  0.018202424   0.01755847           21 
 3903000   0.62265828   -7.5376547    852.90949  0.018210554  0.017552919           12 
 3904000   0.63424211   -7.5481754    856.15111  0.018275083  0.017547379           17 
 3905000   0.63030797   -7.5438778    854.02586   0.01822505  0.017541833           13 
 3906000   0.62944172    -7.544038    853.94491  0.018218657  0.017536295           15 
 3907000   0.63991231   -7.5348986    853.87668  0.018212539  0.017530754           15 
 3908000   0.62647843   -7.5642825    855.05903  0.018233091  0.017525213           10 
 3909000   0.63892984   -7.5477894    853.20986  0.018189005  0.017519669           17 
 3910000   0.62825652   -7.5631655    853.59025  0.018192461  0.017514132           12 
 3911000   0.63186913   -7.5321997    853.19977  0.018179489  0.017508587           13 
 3912000   0.62390163   -7.5466649    854.02662  0.018192455  0.017503039           15 
 3913000   0.62211543   -7.5554022    852.84619  0.018162667  0.017497504           28 
 3914000   0.62155612   -7.5543438     854.5161  0.018193581  0.017491952           18 
 3915000   0.61804641   -7.5437647    853.26273  0.018162255   0.01748642           19 
 3916000   0.63012574   -7.5377767      853.155  0.018155324  0.017480881           12 
 3917000   0.63094883    -7.547746    853.37194  0.018155305  0.017475345           19 
 3918000   0.62267392   -7.5332543    853.72547   0.01815819  0.017469813           19 
 3919000   0.62242579   -7.5559334    857.05634  0.018224384  0.017464284           19 
 3920000   0.62252863   -7.5454624    854.93535  0.018174646  0.017458764           16 
 3921000   0.63990199   -7.5387075    854.86189   0.01816845  0.017453239           18 
 3922000   0.63288573    -7.567864    855.28482  0.018172803  0.017447719           19 
 3923000   0.62367175   -7.5506385    855.25422  0.018167521  0.017442198           21 
 3924000   0.62616511   -7.5541006    853.69153  0.018129705  0.017436668            8 
 3925000   0.62258029   -7.5549687    851.94517  0.018088008  0.017431133           15 
 3926000   0.62692992   -7.5643625    852.39386  0.018092924    0.0174256           14 
 3927000   0.63606262   -7.5690876      853.659  0.018115164  0.017420085           18 
 3928000   0.61208701   -7.5504887    853.04496  0.018097525  0.017414563           22 
 3929000   0.63652653   -7.5637902    853.92936  0.018111677  0.017409037           19 
 3930000   0.62544454   -7.5400371    853.84733  0.018105329  0.017403515           14 
 3931000   0.62849633   -7.5564069    854.56409  0.018115918  0.017397993           18 
 3932000   0.60910318   -7.5653979    853.48398  0.018088419   0.01739249           11 
 3933000   0.61400651   -7.5562172    852.21262  0.018056882   0.01738697           11 
 3934000   0.62292655   -7.5482508    853.03561  0.018069726  0.017381453            7 
 3935000   0.62554037   -7.5444218    852.57828  0.018055448  0.017375929           33 
 3936000   0.63090565   -7.5248398    852.20169  0.018042888  0.017370411           10 
 3937000    0.6323738   -7.5649692    852.75096  0.018049931    0.0173649           17 
 3938000   0.60839862   -7.5551525    852.58889  0.018041918  0.017359396           26 
 3939000   0.62443951   -7.5582297    855.43148  0.018097476  0.017353901           21 
 3940000   0.60086575    -7.555605     854.2587  0.018068077  0.017348393           10 
 3941000   0.60881308   -7.5565309    854.46482  0.018067851  0.017342894           27 
 3942000   0.62418072   -7.5470483    852.84709  0.018029069  0.017337405           21 
 3943000   0.62165504      -7.5693    853.55888   0.01803954  0.017331908           13 
 3944000     0.614925   -7.5651864    854.70435  0.018059169  0.017326412           17 
 3945000   0.61644217   -7.5712385    851.70471  0.017991227  0.017320902           42 
 3946000   0.61433687     -7.56885    852.86482  0.018011168  0.017315391            6 
 3947000   0.62877719   -7.5678021    851.50684  0.017977933  0.017309882           26 
 3948000   0.62441155   -7.5553374     852.7868  0.018000397  0.017304378           32 
 3949000   0.62014232    -7.583564    852.77673  0.017995626  0.017298869           18 
 3950000   0.62008683   -7.5707624    853.99342  0.018016739  0.017293364            8 
 3951000   0.62089283   -7.5485111    852.69578  0.017984809   0.01728785           18 
 3952000   0.62539442   -7.5695808    852.09525  0.017967595  0.017282342           17 
 3953000   0.60434935   -7.5853429     853.5768  0.017994283  0.017276832           28 
 3954000   0.62192311   -7.5615483    852.76219  0.017972563  0.017271329           17 
 3955000   0.62380749   -7.5730257    852.30694  0.017958427  0.017265826           24 
 3956000   0.63100126   -7.5554404    853.98043   0.01798914  0.017260331           22 
 3957000   0.61711596   -7.5462212    853.72486  0.017979211  0.017254843           18 
 3958000   0.61809539   -7.5619397    852.27896  0.017944226  0.017249348           10 
 3959000   0.60976187    -7.561948    853.12233  0.017957446  0.017243866           19 
 3960000   0.61148875   -7.5648696    853.56756   0.01796228  0.017238383           25 
 3961000   0.60104989   -7.5484421    852.49359  0.017935151  0.017232908           15 
 3962000   0.59468515   -7.5546978    852.21484  0.017924761  0.017227434           11 
 3963000   0.62679626   -7.5810816    853.51352  0.017947546  0.017221967           17 
 3964000   0.62062634   -7.5838271    853.27427  0.017937989  0.017216493           10 
 3965000   0.61385764   -7.5822404    852.61099  0.017919525  0.017211032           12 
 3966000   0.62296765   -7.5679455     852.7053  0.017916988  0.017205564           11 
 3967000   0.61779485   -7.5728133    852.86461  0.017915818  0.017200098           19 
 3968000   0.62039421   -7.5732841    852.32261   0.01789992  0.017194629           24 
 3969000   0.62018026   -7.5707031    852.59297  0.017901087  0.017189161           22 
 3970000    0.6215649   -7.5726161    853.83345  0.017922617  0.017183691           34 
 3971000   0.61743707    -7.576529    852.47717  0.017889641  0.017178225           14 
 3972000   0.62044676   -7.5705569    853.62735  0.017909268  0.017172766           17 
 3973000   0.62539978   -7.5716145    853.62366  0.017904683  0.017167321           15 
 3974000   0.59903859   -7.5519312    853.69615  0.017901698   0.01716189           14 
 3975000   0.62043509   -7.5703387    854.20107  0.017907779  0.017156453           15 
 3976000   0.61286225    -7.538299    854.73982  0.017914567  0.017151024           11 
 3977000   0.62186617   -7.5640886    854.61858  0.017907522  0.017145603           12 
 3978000   0.61103139   -7.5728812    854.69295  0.017904578  0.017140179           26 
 3979000   0.61573576   -7.5647509    854.08673  0.017887382  0.017134749           15 
 3980000   0.61269954   -7.5721633    854.07917   0.01788273  0.017129314           59 
 3981000   0.60206734   -7.5597646    853.48843  0.017865872  0.017123877           13 
 3982000    0.6391378   -7.5647232    853.26582  0.017856726  0.017118457           32 
 3983000   0.61477873   -7.5799131    853.62226  0.017859701  0.017113032           33 
 3984000   0.62033207   -7.5613612    853.12701  0.017844859  0.017107614           26 
 3985000   0.61418228   -7.5637452    853.60005  0.017850273  0.017102191           42 
 3986000   0.61983608   -7.5877997    852.44376  0.017821621  0.017096772           31 
 3987000   0.61553345   -7.5688589     853.2147  0.017833264   0.01709135           20 
 3988000   0.61660271   -7.5890772    853.08197  0.017826019  0.017085937           16 
 3989000   0.61520045   -7.5718918    853.35174  0.017827186  0.017080523           21 
 3990000   0.60825248   -7.5632271    852.87486  0.017812758   0.01707511           22 
 3991000   0.60649507   -7.5650477    854.73439  0.017847122  0.017069704           33 
 3992000   0.62771282   -7.5841398    855.65221  0.017861811  0.017064305           24 
 3993000   0.61807077   -7.5762917    853.71333  0.017816874  0.017058898           15 
 3994000   0.60589891   -7.5621105    854.48339   0.01782848  0.017053482           16 
 3995000   0.61245009    -7.596082    854.93712  0.017833482  0.017048074           17 
 3996000   0.61277547   -7.5943793    852.95625  0.017787709  0.017042661           17 
 3997000   0.60892645   -7.5709164    853.90027  0.017802941  0.017037245           22 
 3998000   0.60252064   -7.5881345    854.32478  0.017807337  0.017031832           13 
 3999000   0.60743529   -7.5906513    854.03981  0.017796945  0.017026422           25 
 4000000   0.61578012   -7.5755976    852.41846  0.017758718  0.017021021           22 
 4001000   0.61615244   -7.5930967    853.18812   0.01777031  0.017015607           17 
 4002000   0.62203942   -7.5807093    853.45053  0.017771334  0.017010195           10 
 4003000   0.62147366   -7.5866685    853.40544  0.017765956  0.017004786           17 
 4004000   0.60889544   -7.5989873      851.881  0.017729791   0.01699937           15 
 4005000   0.61890855   -7.5807099    852.62441  0.017740832  0.016993954           23 
 4006000   0.60858135   -7.5857306    852.36843  0.017731079  0.016988558           15 
 4007000   0.61240406   -7.5765647    854.13507  0.017763395  0.016983158           17 
 4008000   0.60180643   -7.5799612    852.45535  0.017724038  0.016977763           23 
 4009000   0.61224629   -7.5964539    852.58275  0.017722266  0.016972364           20 
 4010000   0.60930218   -7.5877737    851.66516  0.017698777  0.016966956           15 
 4011000   0.62293029   -7.5845198    851.68348  0.017694745  0.016961553           17 
 4012000   0.60434982   -7.6048959    852.70019  0.017711453  0.016956152           31 
 4013000   0.60457091   -7.5975492    853.73362  0.017728499  0.016950752           13 
 4014000    0.6027753   -7.5978694    853.64744  0.017722294  0.016945349           16 
 4015000   0.61235519   -7.5992481    853.39728  0.017712687  0.016939953           23 
 4016000   0.61675911   -7.5815133    854.33515  0.017727738  0.016934548           25 
 4017000   0.60071455   -7.6158516    853.22605  0.017700316  0.016929155           18 
 4018000   0.61678956   -7.6022813    853.09596  0.017693213  0.016923764           29 
 4019000   0.60372046   -7.5854915    855.20017  0.017732441  0.016918379           21 
 4020000   0.60020643   -7.5779934    851.61165  0.017653641  0.016912996           32 
 4021000   0.60061428   -7.5868894    852.22488   0.01766196  0.016907629           28 
 4022000   0.60519195   -7.5768756    854.16739  0.017697816  0.016902263           15 
 4023000   0.61246799   -7.5640804    854.59485  0.017702271  0.016896898           26 
 4024000   0.59975943   -7.5891466    854.76317  0.017701358  0.016891534           23 
 4025000   0.60341178   -7.5704107    854.36888  0.017688797  0.016886176           19 
 4026000   0.60784252   -7.5972623    853.20241  0.017660258  0.016880818           31 
 4027000   0.60877649   -7.5761577    853.18728   0.01765556  0.016875463           32 
 4028000   0.61452262   -7.5919729    853.20641  0.017651572  0.016870101           21 
 4029000   0.60749414    -7.585846    852.40537  0.017630623  0.016864757           15 
 4030000   0.59412269   -7.5763415    853.27772  0.017644287  0.016859416           18 
 4031000   0.62255027   -7.5806429    853.60312  0.017646637  0.016854084           15 
 4032000   0.61374954   -7.5728246    854.84733  0.017667976  0.016848741           18 
 4033000   0.61705968   -7.5826886    853.79128  0.017641774  0.016843395           19 
 4034000   0.58945158   -7.5790539    853.82756   0.01763815  0.016838046           10 
 4035000   0.60583068   -7.5797396    853.87875  0.017634836  0.016832698           12 
 4036000     0.598382   -7.5815497     853.4356  0.017621317  0.016827342           22 
 4037000   0.60358298   -7.5646823    852.60961  0.017599901  0.016821989           48 
 4038000   0.61328023   -7.5855611    854.70184   0.01763872  0.016816636           16 
 4039000   0.60092521   -7.5844741    853.42103  0.017607927   0.01681129           14 
 4040000   0.59164695    -7.588113    854.31763  0.017622063  0.016805951           20 
 4041000   0.58817742    -7.588721    852.72224  0.017584802  0.016800615           11 
 4042000   0.60476796   -7.6134784    853.34984  0.017593391  0.016795268           23 
 4043000   0.59339978     -7.59198    853.37641  0.017589587   0.01678993           17 
 4044000   0.59840881     -7.60766    853.19274  0.017581453  0.016784577           18 
 4045000   0.61366166   -7.5966286     852.7053  0.017567064  0.016779229           15 
 4046000   0.60334295   -7.5988062    851.89508  0.017546035  0.016773884           19 
 4047000   0.61923706   -7.6022166    852.85611  0.017561488   0.01676854           25 
 4048000   0.60544799   -7.5810557    852.46146  0.017549025  0.016763206           25 
 4049000   0.61523937    -7.588129     853.6883  0.017569941  0.016757871           18 
 4050000   0.61070986   -7.5797501    851.98675  0.017530592  0.016752533            9 
 4051000    0.6116792   -7.5742702    854.43606  0.017576649  0.016747199           17 
 4052000   0.59576689   -7.6027553    853.04699  0.017543744  0.016741872           15 
 4053000   0.59776659    -7.582389    852.69586  0.017532195  0.016736531           16 
 4054000   0.59905304   -7.5985308    853.07001  0.017535562  0.016731205           11 
 4055000   0.61437136   -7.6076678    852.41415  0.017517759  0.016725873           19 
 4056000   0.60451621   -7.6039314    851.65739  0.017497892  0.016720532           16 
 4057000   0.60693571   -7.6020798    851.82286  0.017496978  0.016715194           20 
 4058000   0.60063707   -7.5988174    851.76094  0.017491394  0.016709861           20 
 4059000    0.6025729   -7.5651716    851.91257  0.017490198  0.016704529            9 
 4060000   0.60193686   -7.6087761    852.41594  0.017496222  0.016699206           14 
 4061000   0.60631672   -7.6142785    852.30173   0.01748957  0.016693882           26 
 4062000   0.60095024   -7.6118259    853.29816  0.017505706  0.016688559           13 
 4063000   0.60434973    -7.615256    852.87235  0.017492664  0.016683233           20 
 4064000   0.61337515   -7.5942853    853.18601  0.017494792  0.016677916           12 
 4065000   0.59225054    -7.606974     852.3893  0.017474155   0.01667261           15 
 4066000   0.60522199    -7.598124    852.63315  0.017474856  0.016667302           37 
 4067000   0.60059445   -7.5906684    852.83368  0.017474668     0.016662           19 
 4068000   0.59961145   -7.5808514    852.36429  0.017460756  0.016656698           20 
 4069000   0.59508503   -7.6046491     853.2442  0.017474486    0.0166514           21 
 4070000   0.60736868   -7.5794155    853.12574  0.017467767  0.016646105           17 
 4071000   0.60209559   -7.6228032    851.71144  0.017434526  0.016640808           16 
 4072000   0.59917764   -7.5950872    852.51058  0.017446598  0.016635509           19 
 4073000   0.59650121   -7.6030329    853.86741  0.017470076  0.016630209           20 
 4074000   0.59405128   -7.6140008     853.3376   0.01745495  0.016624922           19 
 4075000    0.5968488   -7.5819201    852.37532  0.017430988  0.016619631           19 
 4076000   0.61141925   -7.6217507    852.53614      0.01743  0.016614352           32 
 4077000    0.5906578   -7.5945201    853.64217  0.017448332  0.016609065           15 
 4078000   0.60769039   -7.5932798    854.39654  0.017459468  0.016603787           30 
 4079000   0.60015904   -7.5944909    852.52226  0.017416897  0.016598514           30 
 4080000   0.60242985    -7.608835    852.03265  0.017402628  0.016593242           24 
 4081000   0.61975543    -7.589061    851.64719  0.017390492  0.016587971           15 
 4082000   0.59822308   -7.6279253    851.75448  0.017388422  0.016582693           13 
 4083000   0.59574767   -7.5961294    853.30139  0.017415736  0.016577414           12 
 4084000   0.61228684   -7.6181108    851.89654  0.017382806  0.016572141           23 
 4085000   0.60053854   -7.5893871    852.99942  0.017401049  0.016566869           16 
 4086000   0.59921346   -7.6037348    852.97736   0.01739634  0.016561611           17 
 4087000   0.60584795   -7.5978919    854.27504  0.017418543  0.016556358           17 
 4088000   0.58758722   -7.6141864    852.51202  0.017378344  0.016551099           22 
 4089000   0.59281702   -7.5961238    851.49586  0.017353384  0.016545834           21 
 4090000   0.59750598   -7.6060104     853.0112  0.017380016   0.01654056           17 
 4091000   0.60497066   -7.6181826    851.72423  0.017349553  0.016535292           13 
 4092000   0.59355108   -7.6154637    851.90205  0.017348934  0.016530023           14 
 4093000    0.5946526   -7.6126192    853.53337  0.017377909  0.016524756            9 
 4094000     0.587415   -7.5989462    852.62174  0.017355108  0.016519498           17 
 4095000   0.60612448   -7.5748166    850.15969  0.017300767  0.016514248           20 
 4096000   0.58395968   -7.6041705     852.5554  0.017345284  0.016508988           16 
 4097000   0.59976872   -7.5930753    851.79134  0.017325509  0.016503723           20 
 4098000    0.5937331   -7.6023761    852.49055    0.0173355  0.016498469           21 
 4099000   0.59832142   -7.5887536    853.73956  0.017356663  0.016493212           12 
 4100000   0.60858411   -7.6185903    853.96453  0.017357003  0.016487965           16 
 4101000   0.58487849   -7.6004472     851.5353  0.017303408  0.016482716           22 
 4102000    0.5969309   -7.6396295    851.73237  0.017303193  0.016477461           19 
 4103000   0.60112755   -7.5990661    852.61946  0.017316993  0.016472208           30 
 4104000   0.58619836   -7.6101117    852.57412  0.017311853  0.016466966           19 
 4105000   0.59211851   -7.6085452    851.39439  0.017283686  0.016461714           26 
 4106000   0.58959907   -7.6210985    852.99059  0.017311873  0.016456475           19 
 4107000   0.58363749   -7.5996276      852.389  0.017295451  0.016451231           22 
 4108000   0.59632813   -7.6010227    852.72058  0.017297967  0.016445988           22 
 4109000   0.60987187   -7.6305289    852.76177  0.017294593  0.016440751           15 
 4110000   0.57945316   -7.6031539    851.98082   0.01727455  0.016435506           29 
 4111000   0.58986564   -7.6027031    852.77972  0.017286543  0.016430269           12 
 4112000   0.59349462   -7.6282601    853.33844  0.017293662  0.016425035           18 
 4113000   0.58684783   -7.6238663    852.52972  0.017273072  0.016419794           25 
 4114000    0.5938714   -7.6295088    851.80295  0.017254152   0.01641455           13 
 4115000   0.59995817   -7.6107381    852.54075    0.0172649  0.016409308           15 
 4116000   0.58824363   -7.5935967    850.95039  0.017228506  0.016404078           30 
 4117000   0.58984616   -7.6206519    853.11857  0.017268208  0.016398854           21 
 4118000   0.59967621   -7.6091202    852.71089  0.017255765  0.016393633           13 
 4119000   0.59405086   -7.6105213    851.72196  0.017231568  0.016388426           14 
 4120000   0.57938289   -7.6306205    853.16873  0.017256649  0.016383203           23 
 4121000   0.59715265   -7.6322841    852.93256  0.017247686  0.016377985           20 
 4122000   0.59614052   -7.6256225    852.08732  0.017226414  0.016372762           16 
 4123000   0.60509859   -7.6213779    851.84038  0.017217244  0.016367547           19 
 4124000     0.589968   -7.6161729    852.22552  0.017220852  0.016362323           10 
 4125000   0.58929101   -7.6343398    851.94958  0.017211103  0.016357103           13 
 4126000   0.61025091   -7.5923037    853.06078  0.017229374    0.0163519           15 
 4127000   0.58913859   -7.6216038    851.98577  0.017203493  0.016346693           14 
 4128000   0.59691694   -7.6291667    852.26039  0.017204869  0.016341495           17 
 4129000   0.57800937   -7.6101842    851.77889  0.017190984  0.016336292           10 
 4130000   0.58921012   -7.5970592    850.95346  0.017170167  0.016331095           11 
 4131000    0.5897604   -7.5969717    852.72675  0.017201782  0.016325898           15 
 4132000   0.59143435   -7.6359603    854.16515  0.017226629  0.016320699           12 
 4133000   0.59844509   -7.6053554    854.25027  0.017224177  0.016315511           17 
 4134000   0.59529769   -7.6452392    851.76174  0.017169846  0.016310317           31 
 4135000    0.6058192   -7.6159204    852.26119   0.01717576  0.016305119           17 
 4136000   0.60865802    -7.616258    852.27144  0.017171813  0.016299928           15 
 4137000    0.5885894    -7.621777    852.50597  0.017172387  0.016294735           10 
 4138000   0.58377814   -7.6127124    853.43812  0.017187009  0.016289548           22 
 4139000   0.58251573    -7.620723    852.66097   0.01716721  0.016284367           12 
 4140000    0.5764679   -7.5983326    852.55083  0.017160846  0.016279196           15 
 4141000   0.59106093   -7.6300815    852.44169  0.017154506  0.016274028           12 
 4142000   0.59527819     -7.61925    853.07841  0.017163174  0.016268847           18 
 4143000   0.58560815    -7.604189    853.25573  0.017162598  0.016263669           18 
 4144000   0.59507756   -7.6303575    852.31222  0.017139483  0.016258486           23 
 4145000   0.59097456   -7.6044675    852.76015  0.017144354  0.016253306            9 
 4146000   0.59496734   -7.6160797    853.44184   0.01715392  0.016248131           11 
 4147000   0.59764077   -7.6207713    852.10756  0.017122972  0.016242961           21 
 4148000   0.57953755   -7.6305337    852.81648  0.017133086  0.016237789           18 
 4149000   0.59495338   -7.6405062    852.98792    0.0171324  0.016232612            8 
 4150000    0.6009294   -7.6370326    853.54378  0.017139433  0.016227437           16 
 4151000   0.58385015   -7.6098145    852.13803  0.017107083  0.016222263           13 
 4152000   0.57654656   -7.6248622    851.68304  0.017093831  0.016217088           27 
 4153000   0.58493041    -7.653436    853.24312  0.017121019   0.01621191           11 
 4154000   0.58537483   -7.6154291    852.65459  0.017105091  0.016206735           21 
 4155000   0.59674129   -7.6358063    851.54435  0.017078707  0.016201561           17 
 4156000   0.59138481   -7.6388385    851.88592  0.017081447  0.016196394           38 
 4157000   0.58828496   -7.6244538     852.9712  0.017099094  0.016191231           28 
 4158000   0.58629387   -7.6365813    852.53419  0.017086223  0.016186078           18 
 4159000   0.58013117   -7.6144567    853.97077    0.0171109  0.016180919           68 
 4160000    0.5915535   -7.6410533    853.14561  0.017090257  0.016175754           25 
 4161000   0.59713377   -7.6253144    851.41621  0.017051514  0.016170595           37 
 4162000   0.57732176   -7.6525432    851.88581   0.01705682  0.016165435           33 
 4163000   0.58649796   -7.6247993       852.42  0.017063416  0.016160281           47 
 4164000   0.60086003   -7.6303454    853.17045  0.017074337   0.01615513           27 
 4165000   0.59467743   -7.6332119     852.9613  0.017066052  0.016149985           17 
 4166000   0.58947377    -7.638117     852.0447  0.017043621   0.01614484           43 
 4167000   0.58419123   -7.6314344     850.9646  0.017017931  0.016139691           46 
 4168000   0.59063882   -7.6410265    852.75646  0.017049673  0.016134541           22 
 4169000    0.5918392   -7.6231032    852.20105  0.017034482  0.016129393           25 
 4170000   0.57274512   -7.6364412      852.702  0.017040408  0.016124258           29 
 4171000    0.5794274   -7.6516145     851.6947  0.017016197  0.016119125           30 
 4172000   0.59027097   -7.6365594    852.29067  0.017024023  0.016113989           33 
 4173000   0.56985094   -7.6223769    852.33995  0.017020927  0.016108862           32 
 4174000   0.58338246    -7.647394    850.73263  0.016984759  0.016103734           39 
 4175000   0.59769363   -7.6363441    850.53237  0.016976694  0.016098603           43 
 4176000   0.58281649   -7.6258707    852.40413   0.01700998  0.016093471           28 
 4177000   0.58027484   -7.6363662    851.39246  0.016985725  0.016088338           42 
 4178000   0.57353648   -7.6455165    850.98347  0.016973501  0.016083212           29 
 4179000   0.58308441   -7.6355025    851.95795  0.016988872  0.016078082           20 
 4180000   0.58663297   -7.6139418    852.59062  0.016997421  0.016072956           36 
 4181000   0.56046625   -7.6226706    851.99104  0.016981405  0.016067839           29 
 4182000   0.58239871    -7.632874     851.4435  0.016966434  0.016062725           23 
 4183000   0.58046315   -7.6407737    851.84349  0.016970346  0.016057611           37 
 4184000   0.58242753   -7.6476464    852.45461  0.016978462  0.016052493           20 
 4185000   0.58287459   -7.6523465    852.91424  0.016983557  0.016047379           46 
 4186000   0.58223789   -7.6470657    851.25884  0.016946545  0.016042273           32 
 4187000   0.59832186   -7.6346442    851.28165  0.016942951  0.016037158           32 
 4188000   0.57684195   -7.6472341    851.11199   0.01693553  0.016032051           28 
 4189000   0.59655541    -7.656206    852.77536  0.016964577  0.016026936           20 
 4190000   0.57019905   -7.6351338     852.4515  0.016954087  0.016021832           29 
 4191000   0.57897896   -7.6325805    851.86274  0.016938335  0.016016721           26 
 4192000   0.59351806   -7.6433723    851.68816  0.016930824  0.016011613           21 
 4193000    0.5717521   -7.6626279    851.05528  0.016914208    0.0160065           36 
 4194000   0.57604728   -7.6440778    851.78789  0.016924732  0.016001384           24 
 4195000   0.57831332   -7.6720279    852.29389  0.016930749  0.015996269           27 
 4196000   0.57355219   -7.6650661    852.66144  0.016934013  0.015991159           38 
 4197000    0.5896378   -7.6669838    851.68446   0.01691058  0.015986051           21 
 4198000   0.57363867   -7.6365248    851.45611  0.016902019  0.015980942           21 
 4199000   0.58358282   -7.6377843     850.9925  0.016888793  0.015975829           27 
 4200000   0.57557765   -7.6440322    851.64677  0.016897753  0.015970723           26 
 4201000   0.57888529   -7.6549639     851.4978  0.016890776  0.015965622           28 
 4202000   0.58031039   -7.6484254    851.88415  0.016894418  0.015960521           25 
 4203000   0.57579049   -7.6455193    850.84503  0.016869796  0.015955416           18 
 4204000   0.58376526   -7.6562199    851.94108  0.016887509  0.015950323           44 
 4205000   0.58186296   -7.6453957    851.28718  0.016870535  0.015945219           49 
 4206000   0.57751674    -7.647373    850.84978  0.016857857  0.015940121           27 
 4207000   0.58301065   -7.6579635    850.93653  0.016855569  0.015935033           18 
 4208000   0.58024625   -7.6349932    852.20142  0.016876612  0.015929941           25 
 4209000   0.57214183   -7.6504992    850.50947  0.016839104  0.015924852           37 
 4210000   0.56946314   -7.6487044    850.68418  0.016838563  0.015919766           65 
 4211000   0.57008949   -7.6465905    850.11002  0.016823201  0.015914671           27 
 4212000   0.57706532   -7.6389078     851.6622  0.016849917  0.015909586           27 
 4213000   0.58342188    -7.637738    851.36477  0.016840034  0.015904505           20 
 4214000   0.57332184   -7.6529486    851.81436  0.016844929  0.015899417           14 
 4215000   0.56781358   -7.6507255    849.66371  0.016798413  0.015894329           16 
 4216000   0.57877483     -7.62582    850.12501  0.016803546  0.015889249           22 
 4217000   0.57433339   -7.6506895    851.01287  0.016817107   0.01588417           23 
 4218000   0.56620192   -7.6398531    851.30918  0.016818974  0.015879091           27 
 4219000   0.57844924   -7.6674442    851.44057  0.016817582  0.015874012           51 
 4220000   0.57589857   -7.6527545     851.5112  0.016814992   0.01586893           21 
 4221000   0.57810629    -7.661456    849.55203  0.016772329  0.015863842           24 
 4222000   0.57223287   -7.6678613    851.37869  0.016804411  0.015858771           24 
 4223000   0.57602055   -7.6501077    850.85861  0.016790169  0.015853706           21 
 4224000   0.55998506   -7.6625684     851.5418  0.016799673  0.015848639           16 
 4225000    0.5771957   -7.6472542    851.54011  0.016795663  0.015843571           20 
 4226000   0.57283234   -7.6602293    850.56013  0.016772364  0.015838504           29 
 4227000   0.56610172   -7.6491063    851.24809  0.016781959  0.015833433           38 
 4228000   0.55931146   -7.6355605     850.4688   0.01676263  0.015828368           40 
 4229000   0.57910947   -7.6279087    851.30245  0.016775094  0.015823306           24 
 4230000   0.57157359   -7.6660199    851.45762  0.016774185  0.015818245           35 
 4231000   0.57399078   -7.6511259    851.08226  0.016762827  0.015813178           58 
 4232000    0.5729989   -7.6726746    850.82537  0.016753808  0.015808116           48 
 4233000   0.57950465   -7.6429313    851.31501  0.016759489  0.015803058           39 
 4234000   0.57133072   -7.6469819    851.81589  0.016765389  0.015798003           75 
 4235000   0.57578186   -7.6364855     849.3141  0.016712202  0.015792945           64 
 4236000   0.57020436   -7.6400356    851.83225  0.016757795   0.01578789           41 
 4237000   0.58105957   -7.6735859    851.12873  0.016740003   0.01578284           50 
 4238000   0.57424711   -7.6608801    849.64343  0.016706847   0.01577779           66 
 4239000   0.57878243   -7.6645342    850.68372  0.016723357  0.015772749           59 
 4240000   0.56243503   -7.6711974    850.79001  0.016721502  0.015767706           66 
 4241000   0.56240023   -7.6367781    851.64837  0.016734425  0.015762667           46 
 4242000    0.5635073   -7.6466558    853.28167  0.016762566  0.015757629           61 
 4243000   0.56357519    -7.642686    851.19246  0.016717583  0.015752592           60 
 4244000   0.57743014   -7.6711516    849.54347  0.016681265  0.015747561           52 
 4245000   0.57507343   -7.6544269    851.83443  0.016722309  0.015742535           67 
 4246000   0.58067922   -7.6517884    851.79572  0.016717611  0.015737511           48 
 4247000   0.58299821   -7.6461519    850.81438  0.016694419  0.015732491           49 
 4248000   0.57748364   -7.6668406    850.84089  0.016691009  0.015727467           55 
 4249000   0.56262057   -7.6518446    851.98439  0.016709508  0.015722443           56 
 4250000   0.57180229   -7.6539894    851.99024  0.016705691   0.01571742           60 
 4251000   0.58126025   -7.6552552     850.7923  0.016678278  0.015712404           47 
 4252000   0.57097947   -7.6446657    850.16752   0.01666211  0.015707389           68 
 4253000   0.57921128   -7.6586114    851.88823  0.016691908  0.015702377           59 
 4254000   0.56739735   -7.6566649    851.89354  0.016688088  0.015697365           58 
 4255000   0.58134965   -7.6667267    851.64519  0.016679302  0.015692344           63 
 4256000   0.57869732   -7.6526177    851.76156  0.016677662  0.015687326           70 
 4257000   0.57469667   -7.6474643    850.44801  0.016648031  0.015682313           93 
 4258000   0.56181282   -7.6648254    850.69101  0.016648877  0.015677302           46 
 4259000   0.57158692   -7.6547199    851.56158  0.016662002   0.01567229           55 
 4260000   0.56106498    -7.664317    850.94071  0.016645945  0.015667286           60 
 4261000   0.57609642   -7.6668153    849.94745  0.016622613   0.01566228           34 
 4262000   0.56133247   -7.6679349    850.61022  0.016631672   0.01565728           55 
 4263000   0.56457443   -7.6597271    852.28925  0.016660592  0.015652288           32 
 4264000   0.57216665   -7.6540293    850.61338  0.016623933  0.015647292           54 
 4265000   0.55453886   -7.6597644    851.06987  0.016628954  0.015642292           56 
 4266000   0.57330104   -7.6649864    850.83673  0.016620502  0.015637299           75 
 4267000   0.57604487   -7.6590608    852.38579  0.016646859  0.015632302           42 
 4268000   0.56058561   -7.6592967    851.03246  0.016616535  0.015627309           60 
 4269000   0.56911576   -7.6769868    852.71594  0.016645505  0.015622315           59 
 4270000   0.57043623   -7.6532342    849.98894  0.016588387  0.015617319           67 
 4271000   0.56558646   -7.6790663    852.11566  0.016625998  0.015612326           50 
 4272000   0.57263795   -7.6730815    850.39182   0.01658848  0.015607345           48 
 4273000   0.57116871   -7.6695355    852.47415  0.016625208  0.015602361           68 
 4274000   0.56496243   -7.6752596    851.08605  0.016594253  0.015597378           29 
 4275000   0.57371218   -7.6753782    851.81454  0.016604572  0.015592388           39 
 4276000   0.56726193   -7.6675664    850.59495  0.016576921  0.015587407           45 
 4277000   0.57331749   -7.6631159    850.49435  0.016571085  0.015582437           40 
 4278000   0.56136376   -7.6854056    850.60412  0.016569349  0.015577459           40 
 4279000   0.55649129     -7.66815     852.2127  0.016596804  0.015572485           46 
 4280000   0.56900842   -7.6691444    851.37049  0.016576528  0.015567513           37 
 4281000    0.5633692   -7.6701098    851.71383   0.01657934  0.015562542           40 
 4282000   0.57031964   -7.6834959    851.38099   0.01656899  0.015557567           44 
 4283000   0.57064038   -7.6637446    851.41445  0.016565773  0.015552596           42 
 4284000   0.56058088    -7.666406     850.7217   0.01654843  0.015547629           83 
 4285000   0.57024167   -7.6790488    851.03696  0.016550699  0.015542662           57 
 4286000   0.55794421    -7.677724     850.4817  0.016536042  0.015537697           44 
 4287000   0.57135199   -7.6719982    850.61198  0.016534717  0.015532731           50 
 4288000   0.57230727    -7.675992    848.92072  0.016497993  0.015527762           43 
 4289000   0.56512061   -7.6751859    850.81038  0.016530861  0.015522797           43 
 4290000   0.56517532   -7.6763015    850.22202  0.016515579  0.015517828           45 
 4291000   0.57268054   -7.6793253    851.63576  0.016539186  0.015512865           49 
 4292000   0.56456737   -7.6533252    851.04365  0.016523836  0.015507898           31 
 4293000   0.56546683   -7.6925173    849.88595  0.016497514  0.015502928           37 
 4294000   0.55971911   -7.6824224     849.5632  0.016487409  0.015497962           43 
 4295000   0.56275566   -7.6727566     850.9387  0.016510258  0.015492999           68 
 4296000   0.56386572   -7.6948116    849.82345  0.016484781  0.015488028           77 
 4297000   0.56794101   -7.6931323    850.60473  0.016496097  0.015483064           92 
 4298000   0.56881704    -7.686047    849.97458  0.016480041  0.015478099           56 
 4299000   0.56617114   -7.6740555    850.89811  0.016494109  0.015473144           53 
 4300000     0.584284   -7.6930655    850.48793  0.016482324  0.015468192           65 
 4301000   0.54984758   -7.7204266    850.73299   0.01648324  0.015463234           68 
 4302000   0.55144996   -7.6901691    851.29961  0.016490385  0.015458272           48 
 4303000   0.55585829   -7.6798576     848.7257  0.016436705   0.01545332           96 
 4304000   0.57172307   -7.6856309    849.88201  0.016455274  0.015448366           45 
 4305000   0.55225906   -7.6777648    847.56586  0.016406618  0.015443414           46 
 4306000    0.5596356   -7.6818569    850.00144  0.016449943  0.015438465           40 
 4307000   0.56426691   -7.6910835     849.1687  0.016430011  0.015433517           37 
 4308000   0.58231051   -7.6855497    849.34161  0.016429542  0.015428566           55 
 4309000   0.55768557   -7.6803028    850.26587  0.016443604  0.015423631           39 
 4310000   0.57353472   -7.6980538    849.51235  0.016425219   0.01541869           40 
 4311000   0.56385114   -7.6696857    850.14056  0.016433553  0.015413748           35 
 4312000   0.58389417   -7.6562785    848.96648  0.016407052  0.015408808           35 
 4313000   0.56219159   -7.6831963    850.26569   0.01642835  0.015403875           40 
 4314000    0.5665654   -7.6741417    850.80706     0.016435  0.015398943           71 
 4315000   0.56018605    -7.672588    849.08836  0.016397998  0.015394011           70 
 4316000    0.5699957   -7.6896446    850.51017  0.016421651  0.015389077           67 
 4317000   0.56262775   -7.6841088     849.3367  0.016395195  0.015384147           72 
 4318000   0.54853948   -7.7024607    850.18884  0.016407844  0.015379209           48 
 4319000   0.56509038   -7.6963968    849.72716  0.016395137  0.015374274           73 
 4320000   0.55715554   -7.6963263    849.82073  0.016393147   0.01536934           52 
 4321000   0.56395809   -7.6907044    849.58513  0.016384809   0.01536441           45 
 4322000   0.55566394   -7.6838689    849.52661   0.01637989  0.015359484           43 
 4323000   0.54324099   -7.6925383    850.31391  0.016391277  0.015354558           37 
 4324000   0.55777058   -7.6952169    851.19546  0.016404476  0.015349634           80 
 4325000   0.55346218   -7.7049254    848.59805  0.016350637  0.015344707           47 
 4326000   0.55724757   -7.6864401    849.71304  0.016368336  0.015339774           41 
 4327000   0.55871515   -7.6951014    849.35546  0.016357666  0.015334855           73 
 4328000   0.57210943   -7.6756801    849.31365  0.016353082  0.015329946           41 
 4329000   0.56262956   -7.6904058    849.36364  0.016350266  0.015325031           49 
 4330000   0.55492857   -7.7021729    849.87265  0.016356287  0.015320123           66 
 4331000    0.5695348   -7.6774721    849.73021  0.016349769  0.015315208           56 
 4332000   0.55712588   -7.7109362    849.64015  0.016344263  0.015310296           65 
 4333000   0.55812528    -7.692345    849.24831  0.016332955  0.015305387           75 
 4334000   0.55296982   -7.7007126    847.42218  0.016294074  0.015300469           42 
 4335000   0.55422483   -7.7093877    848.19316  0.016305136  0.015295559           37 
 4336000   0.57393641   -7.6999936    848.01344  0.016297921  0.015290648           42 
 4337000   0.56348782   -7.7055524    848.85727  0.016310377  0.015285739          106 
 4338000   0.54221315   -7.6913419    850.15429  0.016331533  0.015280835           73 
 4339000   0.55384504   -7.6917964    850.53528  0.016335087  0.015275936           39 
 4340000   0.56645264   -7.6927126    849.79471  0.016317103  0.015271039           42 
 4341000   0.55875877   -7.6794904    851.18472  0.016340028  0.015266148           43 
 4342000   0.56249938   -7.6876794    848.94331  0.016293246  0.015261257           62 
 4343000   0.56589509   -7.6804343    848.87643  0.016288211  0.015256367          112 
 4344000   0.55695591   -7.6837011    851.05084  0.016326175   0.01525148           43 
 4345000   0.56343434   -7.7076081    849.66308  0.016295801  0.015246593           65 
 4346000   0.55629106   -7.6882776    850.30943  0.016304445   0.01524171           55 
 4347000   0.55360956   -7.6835196    849.19446   0.01627932  0.015236834           53 
 4348000    0.5532995   -7.6927235    849.37291  0.016278996  0.015231951           71 
 4349000    0.5683137   -7.7067947    848.96223  0.016267384  0.015227071           38 
 4350000   0.55329354   -7.6942228    850.60958  0.016295203  0.015222191           37 
 4351000   0.55583972   -7.6795845    849.46933  0.016269619  0.015217319           47 
 4352000   0.55461988   -7.6825359    849.78905  0.016272002  0.015212444           41 
 4353000   0.55792045   -7.6913496    849.96415  0.016271616  0.015207566           98 
 4354000   0.55634517   -7.7007792    849.39455  0.016256977  0.015202694           41 
 4355000   0.55841454   -7.6801787    848.24472  0.016231242  0.015197827           44 
 4356000   0.56038374   -7.6812425    849.78875  0.016257054  0.015192958           58 
 4357000   0.56002146   -7.6922675    849.19443  0.016241956  0.015188088           63 
 4358000   0.56185173   -7.6988627    849.20835  0.016238495  0.015183222           51 
 4359000   0.56124415   -7.7140017    849.05726  0.016231882   0.01517836           60 
 4360000   0.56456334   -7.6889438     850.5734  0.016257137  0.015173494           46 
 4361000   0.56379292   -7.6904901    849.01393  0.016223609  0.015168633           77 
 4362000     0.560289   -7.7165277    849.32608  0.016225854  0.015163777          112 
 4363000   0.55970902    -7.694192    849.18287  0.016219399   0.01515892           55 
 4364000   0.54742589   -7.6880357    849.40605  0.016219944  0.015154056           57 
 4365000   0.55162609   -7.7079239    848.31277  0.016195356  0.015149198           51 
 4366000   0.55482493   -7.7272229    848.94382  0.016203692   0.01514434           76 
 4367000   0.54654102   -7.6716434    848.80431  0.016197319  0.015139485           81 
 4368000    0.5477316   -7.6939748    849.38166  0.016204626  0.015134637           83 
 4369000   0.56475208   -7.6829057    847.42219  0.016163542  0.015129792           77 
 4370000    0.5536027   -7.6765781    848.52421  0.016180858  0.015124938           70 
 4371000   0.56234151   -7.7128543    848.58372  0.016178291  0.015120093          118 
 4372000   0.54984252   -7.6983829    849.18317  0.016186016  0.015115252           54 
 4373000   0.56178965   -7.6957082    848.39484  0.016167292  0.015110403           44 
 4374000   0.56339627   -7.7076749    849.56773  0.016185942  0.015105557           38 
 4375000   0.55469287   -7.6963096     849.9266  0.016189078  0.015100718           36 
 4376000   0.55587571   -7.6905025    849.77418  0.016182476  0.015095878           41 
 4377000   0.57282053   -7.6866649    849.53803  0.016174283   0.01509104           45 
 4378000   0.54342053    -7.704977    848.59835  0.016152702  0.015086201           47 
 4379000   0.55468842   -7.7064017    849.56231  0.016167358  0.015081365           46 
 4380000   0.55224396   -7.7014477    848.32226  0.016140073  0.015076534           57 
 4381000    0.5406171   -7.6996127    850.43271  0.016176533  0.015071698           62 
 4382000   0.55031867   -7.7052768    849.23841   0.01615013  0.015066866           68 
 4383000   0.55949851   -7.7172485    849.34485  0.016148469  0.015062042           36 
 4384000   0.55973683    -7.692793    848.07583  0.016120663  0.015057212           52 
 4385000   0.54213495   -7.6894486    849.72037   0.01614824  0.015052387           62 
 4386000   0.54776105   -7.7080117    849.06995    0.0161322  0.015047556           62 
 4387000   0.54860712   -7.6923051    847.10129  0.016091127  0.015042732           43 
 4388000   0.55143987   -7.7142432    849.19977  0.016127313  0.015037907           50 
 4389000   0.54152122   -7.7179577    848.97653    0.0161194  0.015033082           48 
 4390000   0.55107235   -7.6815547    849.45939  0.016124893  0.015028261           53 
 4391000   0.54336833   -7.7146342    847.98412  0.016093223  0.015023447           52 
 4392000   0.53990671    -7.705335    849.74287  0.016122929  0.015018625           67 
 4393000   0.54417223   -7.6919672     848.9973  0.016105116  0.015013807           51 
 4394000   0.53879722   -7.7211742    849.06415  0.016102719  0.015008987           55 
 4395000   0.56031708   -7.7018552    848.75631  0.016093218  0.015004175           47 
 4396000   0.54502656   -7.7083897    847.95509  0.016074369  0.014999362           48 
 4397000   0.55542634   -7.7016842    848.60899  0.016083106   0.01499455           60 
 4398000   0.55658315    -7.702699    848.16829  0.016071098  0.014989743           52 
 4399000    0.5359379   -7.7078853    847.28994  0.016050806  0.014984933           58 
 4400000   0.55351273   -7.7026373    849.57913  0.016090514  0.014980126           36 
 4401000   0.55775313   -7.7170506    850.08519   0.01609644   0.01497532           65 
 4402000     0.549933   -7.7125373    848.12616  0.016055697  0.014970516           41 
 4403000   0.54040579   -7.7239773    850.12774  0.016089934  0.014965714           35 
 4404000   0.53943199   -7.7007546    848.65574  0.016058427   0.01496091           52 
 4405000   0.55799814   -7.7194514    848.57954   0.01605334   0.01495611           57 
 4406000   0.54261005   -7.7079501    848.79723  0.016053814  0.014951307           98 
 4407000   0.54099001   -7.7056804     848.7077  0.016048478  0.014946507           93 
 4408000   0.54210086   -7.7392133    847.28142  0.016017873  0.014941704           52 
 4409000    0.5564432   -7.7210434    849.68652  0.016059698  0.014936905           29 
 4410000    0.5445351   -7.7268111    849.71803  0.016056652  0.014932111           53 
 4411000   0.53927173   -7.7267856    847.63895  0.016013734  0.014927317           57 
 4412000   0.54232554   -7.7231797    849.47075  0.016044703  0.014922524           57 
 4413000   0.56013726   -7.7153821    849.07943  0.016033678  0.014917731           67 
 4414000   0.56071089   -7.7240542    848.30874  0.016015495  0.014912943           41 
 4415000   0.55814922   -7.7166658     846.5966  0.015979551  0.014908153           47 
 4416000   0.54328711   -7.7208557    847.54832  0.015993892  0.014903365           71 
 4417000   0.54496309   -7.7182393    847.65652  0.015992312  0.014898573           76 
 4418000   0.53896508   -7.7214137    848.07553  0.015996596  0.014893791           43 
 4419000   0.54523563   -7.6999503    847.01354  0.015972949  0.014889007           43 
 4420000   0.53991051   -7.7128342    847.84228   0.01598496  0.014884229           56 
 4421000   0.54502877    -7.702916    847.66122  0.015977932  0.014879453           56 
 4422000   0.54547955   -7.7020363    848.38079  0.015987879  0.014874673           53 
 4423000   0.54967822   -7.7143946     848.9513  0.015995013  0.014869895           57 
 4424000   0.53777731   -7.7140935     848.4847  0.015982608  0.014865114           69 
 4425000   0.54572606   -7.7304948    847.67952  0.015963833  0.014860337           60 
 4426000   0.56878262   -7.7075154    848.37603   0.01597334   0.01485556           36 
 4427000   0.56045881   -7.7342277    848.58177  0.015973605  0.014850794           48 
 4428000   0.53957423   -7.7067408    848.71501  0.015972505  0.014846027           59 
 4429000   0.53387836    -7.713822    847.86453  0.015952896   0.01484126           76 
 4430000   0.53229045   -7.7293275     847.8856  0.015949692  0.014836496           65 
 4431000   0.53598117   -7.7224569    847.41861  0.015937309  0.014831735           52 
 4432000   0.54786398   -7.7157154    848.11474  0.015946802  0.014826972           34 
 4433000   0.54003121   -7.7225587    848.10579  0.015943037  0.014822207           88 
 4434000    0.5476115   -7.7159293    847.15544   0.01592158  0.014817444           85 
 4435000   0.54725739   -7.7223814    847.08826  0.015916728  0.014812686           38 
 4436000   0.53586884   -7.7277883    847.68822   0.01592441   0.01480793           81 
 4437000   0.55005442   -7.7107154    847.66913  0.015920463   0.01480318           44 
 4438000   0.55095159   -7.7188285    847.79696  0.015919276  0.014798423           57 
 4439000   0.54596984   -7.7259828    847.58138  0.015911643  0.014793671           73 
 4440000   0.54305393   -7.7343414    847.18406  0.015900602  0.014788918           62 
 4441000   0.53744353   -7.7347011    849.61585  0.015942653   0.01478417           53 
 4442000    0.5395265    -7.711577    848.72502  0.015922351  0.014779429           61 
 4443000   0.54465982   -7.7193776    847.49555  0.015895708   0.01477469           75 
 4444000   0.53453729   -7.7204011    848.64744  0.015913731  0.014769957           49 
 4445000   0.52980376   -7.7163311    847.64725  0.015891399  0.014765226           40 
 4446000   0.53667926   -7.7299455    848.81576  0.015909727  0.014760495           60 
 4447000   0.54289557   -7.7085525     848.4091  0.015898529  0.014755763           49 
 4448000   0.53543024    -7.722482     847.1328  0.015871043  0.014751035           25 
 4449000   0.53693909   -7.7173988    848.24488  0.015888306  0.014746306           48 
 4450000   0.54080533   -7.7144178    846.81402   0.01585794  0.014741579           31 
 4451000   0.53501017   -7.7244759     849.0877  0.015896946  0.014736853           35 
 4452000   0.54255981   -7.7210737    849.29829  0.015897317  0.014732127           49 
 4453000   0.54170515   -7.7345254     848.1879  0.015872968  0.014727404           54 
 4454000   0.53806959   -7.7271261    847.38442  0.015854371  0.014722676           98 
 4455000      0.53176   -7.7369486    847.12423  0.015845945  0.014717953           52 
 4456000    0.5305643   -7.7395233    846.79925  0.015836312  0.014713229           77 
 4457000   0.54233308   -7.7200866     847.5572   0.01584693  0.014708511           60 
 4458000   0.53494489     -7.73516    848.34945  0.015858185   0.01470379           58 
 4459000   0.53397885   -7.7276875    848.34882  0.015854616  0.014699077           58 
 4460000   0.52537241   -7.7166989    848.06497  0.015845758  0.014694363           99 
 4461000   0.53257277   -7.7143476    847.32447  0.015828373  0.014689647           58 
 4462000   0.54208045   -7.7106498    847.91005  0.015835762   0.01468494           51 
 4463000   0.52642279   -7.7172107    846.31701  0.015802469  0.014680235           65 
 4464000     0.543339   -7.7401234    848.72997  0.015843973  0.014675526           69 
 4465000   0.53552577    -7.741977    847.97029  0.015826247  0.014670818           53 
 4466000   0.52132695    -7.729126    846.69268  0.015798863   0.01466611           58 
 4467000    0.5436228   -7.7594133    847.91964  0.015818216  0.014661406           69 
 4468000   0.53283966   -7.7249206    849.28774  0.015840192  0.014656705           34 
 4469000   0.53415109   -7.7255288    848.82835  0.015828081  0.014652006           56 
 4470000   0.53224646   -7.7200198    847.49697   0.01579972  0.014647307           32 
 4471000   0.54707615   -7.7447546     849.0973  0.015826014  0.014642617           61 
 4472000   0.54760347   -7.7281255    847.89512  0.015800073  0.014637924           72 
 4473000   0.53685226   -7.7243533      847.192  0.015783441  0.014633232           71 
 4474000   0.53649842   -7.7504023     847.7249  0.015789839  0.014628539           64 
 4475000   0.52978669   -7.7303192    848.88692   0.01580795  0.014623843           65 
 4476000   0.53517307   -7.7131806    848.91967  0.015805028  0.014619155           62 
 4477000   0.52184532   -7.7292744    848.10195  0.015786277  0.014614464           58 
 4478000   0.53759625   -7.7336407    847.28759  0.015767597  0.014609772           89 
 4479000   0.52983453   -7.7384967    847.70423  0.015771828  0.014605085           82 
 4480000   0.54959902   -7.7311043    848.09023  0.015775488  0.014600403           54 
 4481000   0.53878344   -7.7318723    848.33252  0.015776473  0.014595726           85 
 4482000   0.53748342   -7.7254097    847.69186  0.015761042  0.014591049           54 
 4483000   0.53503179   -7.7259542    848.09185  0.015764961  0.014586372           57 
 4484000   0.55859565   -7.7523571    846.54256  0.015732652  0.014581694           72 
 4485000    0.5286514   -7.7414129    847.20872  0.015741522  0.014577022           85 
 4486000   0.52245703   -7.7486078    848.79849  0.015767545  0.014572345           68 
 4487000   0.53418556   -7.7338056    847.23552  0.015735003  0.014567674           63 
 4488000   0.52876692   -7.7404474     846.6457  0.015720545  0.014563005           66 
 4489000   0.53434925   -7.7288813    847.38828  0.015730829  0.014558329           77 
 4490000   0.54334843   -7.7425008    846.92615  0.015718748  0.014553658           51 
 4491000   0.53099149   -7.7368193    847.71845   0.01572995  0.014548987           55 
 4492000   0.52853486     -7.73403     847.1579  0.015716049  0.014544327           68 
 4493000   0.54077144   -7.7407895    846.72415  0.015704506   0.01453967           75 
 4494000   0.54192697   -7.7047069    847.40429  0.015713623  0.014535015           64 
 4495000   0.52270498   -7.7185069    847.24247  0.015707128  0.014530356           68 
 4496000   0.53910426   -7.7350255    848.33753  0.015723931    0.0145257           73 
 4497000   0.52063577   -7.7351072    846.33301  0.015683289  0.014521047           61 
 4498000   0.53407449   -7.7431924    847.68656  0.015704879  0.014516396           61 
 4499000   0.52198908   -7.7286286    848.21633  0.015711201  0.014511741           55 
 4500000    0.5303358   -7.7473738    847.84144  0.015700767  0.014507089           37 
 4501000   0.53251394   -7.7320338    846.53448  0.015673082  0.014502435          119 
 4502000   0.53012957   -7.7433887    848.70685  0.015709811  0.014497788           55 
 4503000   0.52963666   -7.7505258    845.80867  0.015652688  0.014493142           62 
 4504000   0.52638022   -7.7363087    846.96824  0.015670667  0.014488496           60 
 4505000   0.54186874   -7.7368583    847.05286  0.015668754  0.014483851           66 
 4506000   0.53468864   -7.7282059    848.08882  0.015684436  0.014479209           72 
 4507000   0.53454428   -7.7384528    847.98715  0.015679076  0.014474569           69 
 4508000   0.52937064   -7.7475391    846.90187  0.015655536  0.014469934           73 
 4509000   0.52163435   -7.7464642    846.27487  0.015640476  0.014465299           80 
 4510000   0.53483004   -7.7382232    847.44738  0.015658673  0.014460665           88 
 4511000   0.53343211   -7.7443095    847.59709  0.015657967  0.014456029           34 
 4512000   0.52153506   -7.7313401     845.1315  0.015608959   0.01445139           79 
 4513000    0.5346456   -7.7448892    846.60032  0.015632623  0.014446759           51 
 4514000    0.5394512   -7.7416165    847.07463  0.015637916  0.014442125           30 
 4515000   0.52618484   -7.7295297    847.50742   0.01564244  0.014437497           85 
 4516000   0.52521602   -7.7519876     847.1381  0.015632161  0.014432867           72 
 4517000   0.53298404   -7.7477522    846.88589  0.015624048  0.014428241           59 
 4518000   0.52741838   -7.7250509     847.4777  0.015631505   0.01442362           42 
 4519000   0.53992295   -7.7239992    846.37704  0.015607749  0.014419001           47 
 4520000   0.53254249   -7.7415988    847.41162  0.015623371  0.014414384           76 
 4521000   0.52650607   -7.7456117    847.38851  0.015619489  0.014409772           68 
 4522000   0.51862828   -7.7239018    846.87307  0.015606536  0.014405154           94 
 4523000    0.5249735   -7.7575011    847.81936   0.01562052  0.014400534           59 
 4524000   0.53134279    -7.728395    846.44365  0.015591727   0.01439592           34 
 4525000   0.52889127   -7.7452155    846.71994  0.015593369    0.0143913           62 
 4526000   0.52553888   -7.7619432    846.42395  0.015584474  0.014386682           56 
 4527000   0.53154631   -7.7282829    846.77416  0.015587478  0.014382065           57 
 4528000   0.53241045   -7.7467564    847.26641  0.015593095  0.014377453           66 
 4529000   0.51234082   -7.7529507     845.3997  0.015555305  0.014372839           64 
 4530000   0.53208977   -7.7395462    846.64448   0.01557477  0.014368227           54 
 4531000   0.53221284    -7.744288    845.71271  0.015554195  0.014363618           53 
 4532000   0.52765709   -7.7419492    847.25652  0.015579151  0.014359013           52 
 4533000   0.51974842     -7.73678    848.23285  0.015593662  0.014354406           57 
 4534000   0.53460886   -7.7455858    846.80375  0.015563957  0.014349807           60 
 4535000   0.52563981   -7.7569055    847.23805  0.015568505  0.014345211           50 
 4536000   0.53092598    -7.734099    846.12927  0.015544703  0.014340614           49 
 4537000   0.52424193   -7.7434363    846.28546  0.015544146  0.014336025           38 
 4538000   0.51417914   -7.7347835    846.96656  0.015553227  0.014331436           49 
 4539000   0.52409232   -7.7406988     845.9171  0.015530534  0.014326843           62 
 4540000   0.52843771   -7.7384821    846.21054  0.015532499  0.014322257           33 
 4541000    0.5209547   -7.7470546    847.25065  0.015548166  0.014317668           32 
 4542000   0.51489324   -7.7421828    848.33442  0.015564627  0.014313082           36 
 4543000   0.53014141   -7.7575968    846.76829  0.015532473  0.014308498           85 
 4544000   0.52218707   -7.7466708    847.21101  0.015537174  0.014303923           58 
 4545000   0.52595755    -7.744138    847.02989  0.015530434  0.014299335           64 
 4546000   0.53668328   -7.7574854    846.31811   0.01551397  0.014294754           29 
 4547000   0.52277741   -7.7525067    845.25138  0.015491008  0.014290171           40 
 4548000   0.52161585   -7.7507491    845.81749  0.015497975  0.014285592           35 
 4549000   0.52712385   -7.7667252     846.6422  0.015509676  0.014281012           26 
 4550000   0.51538413   -7.7417107    846.39818  0.015501798  0.014276437           81 
 4551000   0.53094956   -7.7562547     847.0572  0.015510459  0.014271859           65 
 4552000    0.5270979   -7.7685349    845.89987  0.015485865   0.01426728           35 
 4553000   0.52005008    -7.762918    845.99036   0.01548412  0.014262703           57 
 4554000   0.51387865   -7.7627201    847.87131  0.015515139  0.014258128           30 
 4555000   0.51848518   -7.7411773    846.83517  0.015492777  0.014253559           62 
 4556000   0.52538756   -7.7492964     845.8232  0.015470866  0.014248991           54 
 4557000   0.54063711   -7.7703186    847.61637  0.015500263  0.014244426           35 
 4558000   0.52399058   -7.7562833    845.78535  0.015463386  0.014239856           60 
 4559000   0.50827284   -7.7590393    846.32431  0.015469845  0.014235294           30 
 4560000   0.52818695   -7.7646932    845.88777  0.015458475  0.014230732           43 
 4561000   0.51314704    -7.757643    846.88241  0.015473259  0.014226176           43 
 4562000   0.52705645   -7.7432179    846.92834  0.015470706  0.014221619           61 
 4563000   0.52182468   -7.7544633    845.61363  0.015443305  0.014217065           29 
 4564000    0.5216405   -7.7652916    846.76066  0.015460865  0.014212512           56 
 4565000   0.52564644   -7.7600089    845.81025  0.015440129  0.014207959           69 
 4566000   0.52274161   -7.7547853    846.84386  0.015455611  0.014203416           32 
 4567000   0.51532399   -7.7402194     846.2217  0.015440875  0.014198865           30 
 4568000   0.51198786   -7.7588908    846.00253  0.015433496  0.014194314           51 
 4569000   0.52320521   -7.7430917    847.32834    0.0154543  0.014189768           63 
 4570000   0.52704539   -7.7496204    847.85139  0.015460456  0.014185224           46 
 4571000   0.51421265   -7.7584106    844.45988  0.015395243  0.014180677           31 
 4572000   0.52893641   -7.7655553    844.88089   0.01539955  0.014176132           33 
 4573000   0.51935657   -7.7615147    845.32431  0.015404263  0.014171589           41 
 4574000   0.52132493    -7.735993    846.13314  0.015415631  0.014167047           44 
 4575000    0.5179031    -7.760803    845.65008  0.015403462  0.014162505           61 
 4576000   0.50612184   -7.7576577    846.73811   0.01541991  0.014157969           27 
 4577000   0.51449827   -7.7535658    846.65191  0.015414972  0.014153432           44 
 4578000   0.52047265   -7.7695856    846.44976  0.015407925  0.014148895           32 
 4579000   0.53388845   -7.7660177    845.79506  0.015392645   0.01414436           40 
 4580000   0.52215003   -7.7654408    846.14904  0.015395725  0.014139826           59 
 4581000   0.52111413   -7.7483859    845.04763  0.015372328    0.0141353           27 
 4582000   0.51541807   -7.7672814    846.32678  0.015392237  0.014130776           50 
 4583000   0.51997142   -7.7663202    845.88259  0.015380802  0.014126252           61 
 4584000   0.52868785   -7.7644929     845.2106  0.015365231  0.014121729           29 
 4585000    0.5013777   -7.7657963    846.56116  0.015386426  0.014117203           33 
 4586000   0.52410003   -7.7563108    845.30621  0.015360267  0.014112683           75 
 4587000   0.52482967   -7.7730076    846.06724  0.015370744  0.014108164           64 
 4588000    0.5344422   -7.7546879    846.67924   0.01537851  0.014103645           33 
 4589000   0.50262208   -7.7563487    844.31008  0.015332136  0.014099128           29 
 4590000   0.51601238   -7.7733428    846.47616  0.015368122  0.014094613           66 
 4591000   0.52065214   -7.7606561    846.05642  0.015357156  0.014090103           46 
 4592000   0.51998639   -7.7561211    844.74119  0.015329943  0.014085587           64 
 4593000   0.50708987   -7.7521672    845.83565  0.015346463  0.014081078           66 
 4594000   0.52465528   -7.7703242    846.25258  0.015350685  0.014076566           65 
 4595000   0.50844866   -7.7670786    845.94064  0.015341687  0.014072056           66 
 4596000   0.51407977   -7.7550542    844.71162  0.015316065  0.014067553           63 
 4597000   0.53172063   -7.7700698     845.1142  0.015320031  0.014063045           24 
 4598000   0.50281736   -7.7730366    845.21535  0.015318532   0.01405854           65 
 4599000   0.51712386   -7.7557892    845.09627  0.015313044  0.014054038           37 
 4600000   0.51533623   -7.7665943     845.8914   0.01532412  0.014049537           59 
 4601000   0.51657691   -7.7704737    845.81967   0.01531949  0.014045042           31 
 4602000   0.52651182   -7.7656533    844.54329  0.015293048  0.014040548           52 
 4603000   0.51619462   -7.7685024    846.57343   0.01532648  0.014036049           63 
 4604000   0.52114491   -7.7789728    846.10824  0.015314731  0.014031559           85 
 4605000   0.52108248   -7.7640599    846.26198  0.015314187  0.014027066           30 
 4606000   0.51743344   -7.7549577    846.12117  0.015308315  0.014022583           48 
 4607000   0.51588301   -7.7654233    846.29901  0.015308209  0.014018096           36 
 4608000   0.50928783    -7.770789    845.55808  0.015291487  0.014013614           30 
 4609000   0.51489741    -7.769481    845.78251  0.015292227   0.01400913           51 
 4610000    0.5132947    -7.776029    845.79522   0.01528914  0.014004652           32 
 4611000    0.5093687   -7.7644799    846.10233  0.015291375  0.014000172           77 
 4612000    0.5282564   -7.7684356    846.40144  0.015293463  0.013995697           31 
 4613000   0.51141067   -7.7763685     845.6619  0.015276788  0.013991226           30 
 4614000   0.50897225   -7.7672769    845.77484  0.015275517   0.01398675           45 
 4615000   0.51340498   -7.7694587    845.96388  0.015275621  0.013982279           32 
 4616000   0.50597779   -7.7801719    845.65947  0.015266816   0.01397781           60 
 4617000   0.52164919   -7.7560734    845.40769  0.015258965  0.013973343          115 
 4618000   0.51159698   -7.7617603    845.23191  0.015252489   0.01396888           89 
 4619000   0.50303137   -7.7771028    845.46228  0.015253343  0.013964418           52 
 4620000   0.50376476   -7.7662605    845.97201  0.015259235  0.013959958           36 
 4621000   0.50802737   -7.7656408    846.59081  0.015267092  0.013955499           68 
 4622000   0.49337941   -7.7702895    845.73207  0.015248306  0.013951039           71 
 4623000   0.50481512   -7.7562674    845.21145  0.015235623  0.013946581           39 
 4624000   0.52622563   -7.7818075    844.70457  0.015223194   0.01394212           73 
 4625000   0.51251861   -7.7738296    844.97257  0.015224731  0.013937664           60 
 4626000   0.50869575   -7.7768086    847.00261  0.015258009  0.013933208           44 
 4627000   0.51473451   -7.7756998    845.68947  0.015231062  0.013928754           61 
 4628000   0.51865525   -7.7715085    844.59384  0.015208042  0.013924305           31 
 4629000   0.51905544   -7.7599399    845.56306  0.015222205  0.013919858           88 
 4630000   0.49743508    -7.791433    844.39963  0.015197977   0.01391541           39 
 4631000   0.51178505   -7.7985297    846.01712  0.015223802   0.01391096           47 
 4632000   0.51319712   -7.7830169    845.27778  0.015207214  0.013906516           61 
 4633000   0.50310117    -7.771079    845.88227  0.015214804  0.013902071           50 
 4634000   0.50757563   -7.7739922    845.23266  0.015199839  0.013897623           40 
 4635000   0.51265348   -7.7919095    845.24819  0.015196839  0.013893183           35 
 4636000   0.51130459   -7.7897377     844.4849  0.015179841  0.013888743           71 
 4637000   0.51478423   -7.7878606    844.82774  0.015182728  0.013884307           55 
 4638000   0.50141681   -7.7878423    846.09812   0.01520228  0.013879866           39 
 4639000   0.50843107   -7.7783429     844.6129  0.015172323  0.013875429           41 
 4640000    0.5138898   -7.7770229    844.99049  0.015175835  0.013870997           30 
 4641000   0.51755135   -7.7643131    845.02976   0.01517327  0.013866568           37 
 4642000   0.52324789    -7.766203     845.3474  0.015175704   0.01386214           38 
 4643000   0.50880816   -7.7842921    846.10633  0.015186057  0.013857711           29 
 4644000   0.50439572   -7.7900194    844.12582  0.015147248  0.013853282           54 
 4645000   0.50349868   -7.7864898    845.33916  0.015165755  0.013848856           61 
 4646000   0.50030403   -7.7678355    845.08825   0.01515799  0.013844435           59 
 4647000   0.50643083   -7.8027499    845.00695   0.01515327  0.013840011           39 
 4648000   0.51239409   -7.7752426    844.82595  0.015146765  0.013835591           62 
 4649000   0.50923718   -7.7850759    844.94041  0.015145558  0.013831172           27 
 4650000    0.5044481   -7.7831235    844.39979  0.015132613  0.013826753           55 
 4651000   0.50664158   -7.7728957    845.73211  0.015153231  0.013822339           35 
 4652000   0.50695688   -7.7929292    845.94283  0.015153748  0.013817927           81 
 4653000   0.51777455   -7.7777864     845.1629  0.015136523  0.013813514           97 
 4654000   0.51579037   -7.7711793    845.53838  0.015139994  0.013809104           26 
 4655000   0.50439562   -7.7865669    844.71095  0.015121929  0.013804695          110 
 4656000   0.50683728   -7.7977588    843.72686  0.015101068  0.013800285           30 
 4657000   0.50495488   -7.7838105    844.87476  0.015118366  0.013795877           45 
 4658000   0.51137024   -7.7768402    845.71669  0.015130183  0.013791474           35 
 4659000   0.51069282   -7.8022561    846.22577  0.015136041  0.013787071           39 
 4660000   0.50920667   -7.7719657    845.45859  0.015119074   0.01378267           35 
 4661000    0.5011243   -7.7930382    843.72571  0.015084848  0.013778269           56 
 4662000   0.51356113   -7.7766937    846.43531  0.015130046  0.013773871           60 
 4663000   0.50737602   -7.7804424    845.25565   0.01510572  0.013769474           47 
 4664000   0.49853551   -7.7837451    844.80377  0.015094407  0.013765077           54 
 4665000   0.50401619   -7.7831709    845.76849  0.015108405  0.013760685           43 
 4666000   0.49772918    -7.786882    844.84102  0.015088602  0.013756292           55 
 4667000   0.51106221   -7.8051181    846.79057   0.01512018  0.013751901           53 
 4668000   0.51363321   -7.7826663    844.11411  0.015069161  0.013747514           59 
 4669000   0.49821185   -7.7845661    845.05954  0.015082807  0.013743129          124 
 4670000   0.49872538   -7.7991609    845.99506  0.015096272  0.013738741           39 
 4671000   0.50226979   -7.7906328    845.14541  0.015077881  0.013734355           43 
 4672000   0.49931721   -7.7748355    845.25045  0.015076528  0.013729973           61 
 4673000   0.50742112   -7.7880744    844.86597  0.015066445  0.013725595           39 
 4674000   0.51217756   -7.7739249    845.15609  0.015068394  0.013721218           35 
 4675000   0.50726552   -7.7827285    845.44383    0.0150703  0.013716844           49 
 4676000   0.51111498   -7.7689666    845.64394  0.015070643  0.013712472           39 
 4677000   0.50292354   -7.7801792    844.64119  0.015049554  0.013708104           55 
 4678000    0.4998671   -7.7723018    844.17764   0.01503808  0.013703735           64 
 4679000   0.51262936   -7.8049305    845.93424  0.015066151  0.013699371           32 
 4680000   0.50717826   -7.7972349    845.08476  0.015047806  0.013695005           46 
 4681000   0.50364042   -7.7983947    845.66609   0.01505494  0.013690637           69 
 4682000   0.50342676   -7.7861096    845.96022   0.01505696  0.013686273           64 
 4683000   0.50113056   -7.7880839    844.50812  0.015027904   0.01368191           65 
 4684000   0.50948369   -7.7851861    844.71736  0.015028419  0.013677545           62 
 4685000   0.50495801   -7.7898558     845.3068  0.015035696  0.013673184           63 
 4686000   0.49651383   -7.8066944    844.35607   0.01501558  0.013668823           60 
 4687000   0.50832739   -7.8042303    845.57235  0.015034001  0.013664463           78 
 4688000   0.49711235   -7.7829858    843.79067  0.014999123  0.013660106           46 
 4689000   0.50543467   -7.7905092    846.26758  0.015039944  0.013655751           59 
 4690000   0.49728195   -7.8043449    843.86763  0.014994094  0.013651398           30 
 4691000    0.5010707   -7.7932682    845.05168  0.015011932  0.013647051           30 
 4692000   0.50577047   -7.8028318    846.16462  0.015028499  0.013642704           66 
 4693000   0.49906364   -7.7894309    845.32734  0.015010429  0.013638356           31 
 4694000   0.50935102   -7.7934696    844.49799  0.014992508  0.013634012           61 
 4695000   0.50590418   -7.7868601    844.67152  0.014992395  0.013629667           75 
 4696000   0.50254672   -7.7931034     844.6543  0.014988897  0.013625327          129 
 4697000   0.50044429   -7.8011221    844.46063  0.014982269  0.013620987           86 
 4698000   0.51039584   -7.8004063     845.2343  0.014992804  0.013616651           87 
 4699000   0.50583226   -7.7945313    845.19029  0.014988833  0.013612317           55 
 4700000   0.50478791   -7.8008496    845.80269  0.014996502  0.013607987           33 
 4701000   0.49816111   -7.7927832     844.2625  0.014966009  0.013603654           69 
 4702000   0.49448111   -7.7909071    845.31496  0.014981479  0.013599321           44 
 4703000   0.49533441   -7.8084835    844.39038  0.014961911  0.013594993           92 
 4704000    0.4957676    -7.805772    844.99607   0.01496946  0.013590666           66 
 4705000   0.49810705   -7.8077317    845.89473  0.014982195  0.013586338           94 
 4706000   0.50586695    -7.797564    845.81517  0.014977603  0.013582014           99 
 4707000    0.5049905   -7.7878581    844.75984  0.014955737  0.013577692          116 
 4708000   0.49938945   -7.7867561    843.45959  0.014929545  0.013573371           36 
 4709000    0.4994761    -7.797282    843.33229  0.014924122  0.013569049           94 
 4710000   0.50165314   -7.7933022    845.26488  0.014955146  0.013564727           55 
 4711000   0.48418478    -7.796978    845.02471  0.014947724  0.013560412           94 
 4712000    0.4935821   -7.8033675    844.43378  0.014934101  0.013556098           83 
 4713000   0.49852952   -7.8152158    846.08857  0.014960191  0.013551782           71 
 4714000   0.48828281   -7.7950149    844.30548  0.014925496  0.013547475           79 
 4715000   0.49944971    -7.783996    844.65986  0.014928594  0.013543165           43 
 4716000   0.49049922   -7.7930302    844.69681  0.014926082  0.013538854          149 
 4717000   0.50178689   -7.7974455    845.38254  0.014935032  0.013534546           26 
 4718000   0.50660981   -7.7896286    845.46195  0.014933269   0.01353024           51 
 4719000   0.49477203   -7.7914587    844.04892  0.014905151  0.013525932          119 
 4720000    0.5018096   -7.7960153    844.58955  0.014911539  0.013521623           59 
 4721000   0.49514514   -7.7954952    844.95973  0.014914914  0.013517314           86 
 4722000   0.50636341   -7.7955963    844.44302  0.014902637  0.013513011           32 
 4723000   0.49050936    -7.795452    844.76627  0.014905185  0.013508711           71 
 4724000   0.50304002   -7.7968653      843.953  0.014887683  0.013504412           89 
 4725000    0.4896209   -7.7998951    844.38473  0.014892147  0.013500117           63 
 4726000   0.49946001   -7.7974231    845.60031   0.01491043   0.01349582           98 
 4727000   0.49437304   -7.7956957    845.03782  0.014897359  0.013491527           89 
 4728000   0.49824677   -7.7969321    844.34189  0.014881942   0.01348723          103 
 4729000   0.49425124   -7.8048012    843.46344  0.014863316  0.013482937           55 
 4730000   0.48294684    -7.792778    843.76464   0.01486548  0.013478651           97 
 4731000    0.4856849   -7.8094052    844.79507  0.014880488  0.013474368           47 
 4732000   0.48548573   -7.7977604    843.08538  0.014847235  0.013470083           32 
 4733000   0.50553705   -7.8015802    845.00692   0.01487793  0.013465797          136 
 4734000   0.48919065   -7.8066271    844.62137     0.014868   0.01346151           89 
 4735000   0.49389631   -7.8081027    845.16511   0.01487443  0.013457228           75 
 4736000   0.49075685   -7.8172409    843.84421  0.014848047  0.013452944           35 
 4737000   0.50152652   -7.8164586    845.72012  0.014877914  0.013448663           54 
 4738000   0.49521819   -7.8111123    845.20826  0.014865771  0.013444386           26 
 4739000   0.47634829   -7.8083151    845.23998  0.014863192  0.013440109           82 
 4740000   0.49034692   -7.8041483    843.84359  0.014835506  0.013435831           35 
 4741000     0.493111   -7.7926294    844.82865  0.014849692  0.013431561           56 
 4742000   0.50014406   -7.8212139    845.23473  0.014853696   0.01342729           87 
 4743000   0.48193358   -7.8189645    844.36656  0.014835311  0.013423017           58 
 4744000   0.50094505   -7.8049721    844.05605  0.014826729  0.013418746           72 
 4745000   0.51118158   -7.8143066     845.0573  0.014841189   0.01341448           71 
 4746000   0.50274945   -7.8185815    846.60102  0.014865168  0.013410215          114 
 4747000   0.48675917   -7.8137343    844.83459  0.014831026  0.013405949           60 
 4748000   0.50063228   -7.8204192    843.87615  0.014811081  0.013401687           89 
 4749000   0.49564208   -7.8103313    844.57618  0.014820246  0.013397424          100 
 4750000   0.49557229   -7.8069902    843.03838  0.014790147   0.01339316           74 
 4751000   0.49496289   -7.8019938    845.37393     0.014828    0.0133889           62 
 4752000   0.49683058   -7.8180233    845.92275  0.014834504  0.013384643           55 
 4753000   0.48607015     -7.80425    844.20878  0.014801332   0.01338039          108 
 4754000   0.47924913    -7.829574    844.35312  0.014800749  0.013376138           69 
 4755000   0.48744736   -7.7920227    844.10705  0.014793324  0.013371888           93 
 4756000   0.47961852   -7.8226802    843.72797  0.014783571  0.013367636           50 
 4757000   0.48476297   -7.8075561    843.41177  0.014774924  0.013363388           59 
 4758000   0.48638429   -7.8111311    843.52064  0.014773726  0.013359138           28 
 4759000   0.48943078   -7.7989738    845.10847  0.014798425  0.013354895           51 
 4760000   0.49355519   -7.8089043    843.48799  0.014766947  0.013350653           30 
 4761000   0.48759045   -7.8082858    845.02661  0.014790776  0.013346413           55 
 4762000   0.48646058    -7.809076    844.64089   0.01478092  0.013342174           27 
 4763000   0.48932437   -7.8015901    844.61115  0.014777296  0.013337937           27 
 4764000   0.48325482    -7.814945    842.89522  0.014744179  0.013333699           34 
 4765000   0.48036615   -7.8122059    843.88615  0.014758415  0.013329462           57 
 4766000   0.48221904   -7.8126084    842.49869  0.014731058  0.013325229           54 
 4767000   0.48433581   -7.8306316    844.72366  0.014766864  0.013320994           82 
 4768000   0.50139839   -7.8015518    843.67713  0.014745476  0.013316763           34 
 4769000   0.47997814   -7.7969654    842.94211   0.01472954  0.013312531           40 
 4770000   0.49296422   -7.8078112    844.29961  0.014750168  0.013308303           64 
 4771000   0.49318363    -7.809346    843.50817  0.014733252   0.01330408           30 
 4772000   0.49228299   -7.8144865    843.98827  0.014738549  0.013299862           50 
 4773000   0.48454327   -7.7976803    843.81549  0.014732445  0.013295638           48 
 4774000   0.49041883   -7.8098518     845.6724  0.014761772  0.013291416           26 
 4775000   0.49545241   -7.8312388    844.07587  0.014730818  0.013287196           68 
 4776000    0.4750104   -7.8210537    843.77249   0.01472244   0.01328298           62 
 4777000   0.48478209   -7.7975956    842.13487   0.01469079  0.013278764           54 
 4778000   0.48621267   -7.8180812    843.47561    0.0147111  0.013274552           59 
 4779000   0.50091908   -7.8015571    845.00384   0.01473467  0.013270341           54 
 4780000   0.48684017   -7.8201292    843.35267  0.014702801   0.01326613           76 
 4781000   0.48635329   -7.8281462    844.55652  0.014720709  0.013261922           67 
 4782000   0.48314228   -7.8230791    843.68381  0.014702422  0.013257712           55 
 4783000   0.47809379   -7.8157958    843.86072  0.014702431  0.013253504           20 
 4784000   0.48056218   -7.8344378      844.842  0.014716451  0.013249299           67 
 4785000   0.48370065   -7.8329127    842.53663  0.014673226  0.013245094           32 
 4786000   0.48577917   -7.8246572    844.47977  0.014703994   0.01324089           30 
 4787000   0.47669057   -7.8452467    844.39032  0.014699365  0.013236688           25 
 4788000   0.48380526   -7.8143423    843.89298  0.014687639  0.013232492           29 
 4789000   0.48700896   -7.8119426    845.00731  0.014703962  0.013228289           35 
 4790000   0.48739606   -7.8222256    844.71104  0.014695738  0.013224095           38 
 4791000   0.48733031   -7.8158215    844.12316  0.014682446  0.013219902           64 
 4792000   0.48102178   -7.8222697    843.05637   0.01466083  0.013215707           64 
 4793000    0.4887707   -7.8326212    843.61445  0.014667474  0.013211517           35 
 4794000   0.48368074   -7.8214466    844.70218  0.014683323  0.013207324           60 
 4795000    0.4848736   -7.8289444    843.92125  0.014666688  0.013203136           79 
 4796000    0.4861778   -7.8195459     843.5488  0.014657159  0.013198949           40 
 4797000   0.47805404   -7.8117134    844.36249  0.014668239  0.013194763           65 
 4798000   0.49321347   -7.8233002    844.48639  0.014667333   0.01319058           33 
 4799000   0.49493526   -7.8104842    843.20461  0.014642019  0.013186399           39 
 4800000   0.47754192   -7.8092145    844.92342  0.014668809  0.013182219           30 
 4801000   0.48409049   -7.8217316    844.62913  0.014660646  0.013178037           43 
 4802000   0.48618025   -7.8193843    842.77386  0.014625397  0.013173863           32 
 4803000   0.48316357   -7.8276986    845.09358  0.014662599  0.013169687           28 
 4804000   0.48641777   -7.8298468    842.70206  0.014618062  0.013165513           27 
 4805000   0.47492891    -7.830306    843.27797  0.014625008  0.013161337           26 
 4806000   0.48470549   -7.8294425    843.36496  0.014623474  0.013157166           55 
 4807000   0.48025981   -7.8267694     842.8986  0.014612347  0.013152992           37 
 4808000   0.47273559   -7.8176477    842.62266  0.014604525  0.013148819           35 
 4809000   0.47241415   -7.8181534    844.25386  0.014629754  0.013144649           29 
 4810000   0.47965568   -7.8198929    843.92583   0.01462103  0.013140478           31 
 4811000   0.47922467   -7.8034873    842.62016  0.014595374  0.013136311           65 
 4812000   0.48612106   -7.8342126    844.69136   0.01462821  0.013132152           48 
 4813000   0.48081929   -7.8241406    844.46052  0.014621174  0.013127991           72 
 4814000   0.47704332   -7.8180776    843.12636  0.014595042  0.013123834           66 
 4815000   0.47335534   -7.8398226    842.67258  0.014584157  0.013119675           62 
 4816000   0.47700904   -7.8310789    843.72854    0.0145994  0.013115517           87 
 4817000   0.47872854   -7.8212908    845.02148  0.014618737  0.013111366           71 
 4818000   0.48405145   -7.8392847    842.91537  0.014579275  0.013107215           40 
 4819000   0.48175376   -7.8225483    843.90159  0.014593304  0.013103063           54 
 4820000   0.48015179   -7.8314421    843.54934  0.014584186   0.01309891           98 
 4821000   0.47868987   -7.8351454    842.45285  0.014562208  0.013094763           52 
 4822000   0.48737108   -7.8392971    842.17391  0.014554367  0.013090615           44 
 4823000   0.47236988   -7.8279782    842.77764  0.014561781   0.01308647           59 
 4824000   0.47180108   -7.8368849    843.90201  0.014578186  0.013082326           45 
 4825000   0.48191797   -7.8075095    842.65469  0.014553622  0.013078185           40 
 4826000   0.47910619   -7.8259712    843.71719  0.014568953  0.013074041          148 
 4827000   0.48601063   -7.8577618    842.83871  0.014550768  0.013069897          113 
 4828000   0.47333063   -7.8183483    842.21052  0.014536912  0.013065758           62 
 4829000   0.48256354   -7.8320138    841.87854  0.014528172  0.013061623           79 
 4830000   0.47538248   -7.8179154    843.49421   0.01455304  0.013057483           53 
 4831000   0.48301492   -7.8474871    842.35223  0.014530329  0.013053347           32 
 4832000   0.48634835   -7.8294176    842.09631  0.014522908  0.013049213           78 
 4833000   0.47648404   -7.8400023     843.1677  0.014538377   0.01304508          107 
 4834000   0.48099585   -7.8203687    842.69888  0.014527287  0.013040949           68 
 4835000   0.47524313   -7.8370399    843.98213    0.0145464  0.013036816           62 
 4836000   0.47391698   -7.8257604    842.48352  0.014517568   0.01303269           50 
 4837000   0.48348856   -7.8287276    842.75594   0.01451926  0.013028564           58 
 4838000   0.47903266   -7.8204255    842.21985  0.014507025  0.013024434           57 
 4839000    0.4742094   -7.8357085    842.87749  0.014515352  0.013020312          101 
 4840000   0.47620782   -7.8365649    844.74696  0.014544541  0.013016193          117 
 4841000   0.48015124    -7.827939    842.63138  0.014505119  0.013012072           59 
 4842000   0.47309572   -7.8268386     841.5967  0.014484316  0.013007953           41 
 4843000   0.47208281   -7.8433339    841.61635  0.014481663  0.013003834           29 
 4844000   0.47337405   -7.8394783    842.41851  0.014492474  0.012999719           69 
 4845000    0.4731476   -7.8325286    844.58915  0.014526817  0.012995604           42 
 4846000   0.47302153   -7.8219469    842.57762  0.014489229  0.012991496           76 
 4847000   0.48364247   -7.8382714    844.01189  0.014510898  0.012987388           89 
 4848000   0.48370844   -7.8365828    843.51221  0.014499316  0.012983279           84 
 4849000   0.46856047   -7.8308646    844.33007  0.014510381  0.012979175           33 
 4850000   0.47891569    -7.838329    844.02955  0.014502226  0.012975068           44 
 4851000   0.47725816   -7.8338627    842.16389  0.014467187  0.012970964           56 
 4852000   0.47830865   -7.8405383    844.05061   0.01449661   0.01296686           30 
 4853000   0.47117878   -7.8468835    843.42393  0.014482862  0.012962759           52 
 4854000   0.48168341   -7.8327629    844.05144  0.014490651   0.01295866           95 
 4855000   0.46384797   -7.8290668    842.18976  0.014455712  0.012954562          106 
 4856000   0.47432098   -7.8457378    842.27508  0.014454199  0.012950461           35 
 4857000   0.47222977   -7.8374678      841.398  0.014436175  0.012946364           55 
 4858000    0.4784741   -7.8474732    842.00033  0.014443535   0.01294227           47 
 4859000    0.4776409   -7.8502685    841.72175  0.014435785  0.012938176           68 
 4860000   0.46074586   -7.8451964    843.81368  0.014468684  0.012934083          121 
 4861000   0.46986172   -7.8341032    843.03329   0.01445233   0.01292999           47 
 4862000   0.47148431   -7.8209667    842.76388   0.01444474  0.012925904          144 
 4863000    0.4624873   -7.8427693    842.96265  0.014445175  0.012921819           80 
 4864000   0.47364492   -7.8464011    843.81981  0.014456891  0.012917732           82 
 4865000   0.46498491   -7.8307121     842.8548   0.01443739  0.012913648           71 
 4866000   0.47656551   -7.8479562    843.24537  0.014441111  0.012909564           71 
 4867000   0.47450287   -7.8267904    844.29678  0.014456146  0.012905487          114 
 4868000   0.48134022   -7.8523629    841.83914  0.014411105  0.012901409           61 
 4869000   0.47791163   -7.8414731    840.93741  0.014392713  0.012897331           64 
 4870000   0.46547074   -7.8468949    843.57262   0.01443485  0.012893253           44 
 4871000   0.47264065     -7.85166    842.60596  0.014415349  0.012889178           63 
 4872000    0.4880538   -7.8396019    843.87185  0.014434042  0.012885106           55 
 4873000   0.46920312   -7.8387297    843.20144  0.014419615  0.012881034           37 
 4874000   0.47187687   -7.8453756    842.62901   0.01440687  0.012876967           83 
 4875000   0.47026086   -7.8224653    843.34096  0.014416085    0.0128729           56 
 4876000   0.47488601   -7.8513826    843.87067  0.014422181  0.012868834           39 
 4877000   0.46733832   -7.8425875    842.59144  0.014397366  0.012864768           89 
 4878000   0.46481723   -7.8467715    841.17999  0.014370302  0.012860703           84 
 4879000   0.47152235   -7.8491723    841.95522  0.014380598  0.012856638           48 
 4880000   0.47688272   -7.8491936    843.14056  0.014397892  0.012852579           47 
 4881000   0.46498091   -7.8272106    842.58947  0.014385533  0.012848522           94 
 4882000   0.46786971   -7.8373623    842.15103  0.014375103  0.012844462          112 
 4883000   0.47306969   -7.8569997    842.35606  0.014375658  0.012840405           62 
 4884000    0.4747867   -7.8444504    843.09529  0.014385328  0.012836353           67 
 4885000    0.4613973   -7.8608923    842.69457  0.014375547  0.012832304           98 
 4886000    0.4759723   -7.8578194    842.94545  0.014376884  0.012828255           69 
 4887000   0.46793924   -7.8487426    841.81293   0.01435463  0.012824204          139 
 4888000   0.46531686   -7.8569782      843.627  0.014382621  0.012820156           96 
 4889000   0.46849271   -7.8266915    842.43552   0.01435937  0.012816112           76 
 4890000    0.4656085   -7.8453692    842.23321  0.014352986  0.012812066          115 
 4891000   0.44986202   -7.8287963    841.84527  0.014343442  0.012808026           72 
 4892000   0.46670264   -7.8440724    842.80772  0.014356905  0.012803984           97 
 4893000    0.4721044   -7.8569129    842.80889   0.01435399  0.012799946           91 
 4894000   0.46148315    -7.843713    840.29399  0.014308234  0.012795902           56 
 4895000    0.4657188   -7.8376418    844.05539  0.014369346  0.012791861          124 
 4896000   0.47207466   -7.8555531    841.63233  0.014325169  0.012787824          153 
 4897000   0.46779435   -7.8471796     842.0839  0.014329928  0.012783787           90 
 4898000   0.46464628   -7.8403883    842.38452  0.014332117  0.012779753          133 
 4899000   0.47086994   -7.8371105    842.62462  0.014333276  0.012775722          153 
 4900000   0.46741883   -7.8422583    842.18825  0.014322929  0.012771691          126 
 4901000    0.4691763   -7.8492838    842.61639  0.014327287  0.012767664          108 
 4902000   0.47672024   -7.8618342    842.10516  0.014315673  0.012763638           50 
 4903000   0.46492383   -7.8570053     842.6259  0.014321604  0.012759614           65 
 4904000    0.4607272   -7.8445564    843.14377  0.014327484  0.012755592          138 
 4905000   0.47099572   -7.8495565    842.06376  0.014306214  0.012751566           91 
 4906000    0.4703161   -7.8512067    841.93078  0.014301039  0.012747544           55 
 4907000   0.46871974   -7.8403743    842.44181  0.014306803  0.012743522          105 
 4908000    0.4575561   -7.8521252    844.18767  0.014333532  0.012739501           61 
 4909000   0.46641354   -7.8351039    842.98752  0.014310238  0.012735481           85 
 4910000   0.45910996    -7.844157    841.91911  0.014289191  0.012731466           44 
 4911000   0.46633957   -7.8512767    842.59023  0.014297669  0.012727449          120 
 4912000   0.47229646   -7.8320277    842.80416  0.014298388   0.01272344           47 
 4913000   0.47271817   -7.8502466     840.7775  0.014261102  0.012719429          130 
 4914000   0.46851698   -7.8550045    842.25135  0.014283193  0.012715418          136 
 4915000   0.46535092   -7.8533328     843.0245  0.014293396  0.012711407           48 
 4916000   0.46974758   -7.8596622    842.95328  0.014289281    0.0127074           96 
 4917000   0.46426192   -7.8633367    843.60414  0.014297406  0.012703395           73 
 4918000   0.46174596   -7.8577427    841.76234   0.01426329  0.012699392           81 
 4919000   0.47545347   -7.8512457    842.40477  0.014271274  0.012695391          135 
 4920000   0.45967042   -7.8496377    842.53609  0.014270598   0.01269139           94 
 4921000   0.46912785   -7.8628236    842.36788  0.014264849  0.012687392          127 
 4922000   0.45724134   -7.8453301    840.89386  0.014236995  0.012683397           74 
 4923000   0.45542391   -7.8530986    841.67286  0.014247289  0.012679402           55 
 4924000   0.46438525   -7.8489459    842.49329  0.014258281   0.01267541           88 
 4925000   0.46786579   -7.8516915    841.34032  0.014235877  0.012671415           92 
 4926000   0.47454521   -7.8518853    843.46512  0.014268932  0.012667424           86 
 4927000   0.46210564   -7.8380362    841.45882  0.014232102  0.012663435           44 
 4928000   0.46256982    -7.851392    842.97787  0.014254902   0.01265945           54 
 4929000   0.46049767   -7.8530701    842.40813  0.014242377  0.012655464           59 
 4930000   0.46650187   -7.8548905    841.43494  0.014223038  0.012651481           43 
 4931000   0.47000256   -7.8486795    841.19545  0.014216106  0.012647498           60 
 4932000   0.47329228   -7.8522616    842.60516  0.014237043  0.012643517           93 
 4933000   0.46124591   -7.8560978    841.88226  0.014221945  0.012639535          140 
 4934000   0.46570197    -7.848817    842.80448  0.014234639  0.012635559           87 
 4935000   0.46069209   -7.8612908      842.265  0.014222644  0.012631582           50 
 4936000   0.46097132    -7.854558     840.3519  0.014187465  0.012627607           92 
 4937000   0.45022253   -7.8483408    842.06211  0.014213458  0.012623635           49 
 4938000   0.45594232   -7.8534076    841.19566  0.014195957  0.012619663           80 
 4939000   0.47176552   -7.8650217    842.29023  0.014211551  0.012615693           80 
 4940000   0.46602632   -7.8587276    840.60207  0.014180197  0.012611724           91 
 4941000   0.46066971   -7.8467756    842.96678  0.014217209  0.012607755           37 
 4942000   0.46299403   -7.8618827    841.59403  0.014191185  0.012603791           50 
 4943000   0.46828856   -7.8704141    843.38332  0.014218479  0.012599827           73 
 4944000   0.47346266   -7.8484551    841.50368  0.014183921  0.012595866           69 
 4945000    0.4497924   -7.8608031    841.49014  0.014180825  0.012591902           61 
 4946000   0.44891764    -7.848279    841.53259  0.014178673  0.012587941           85 
 4947000   0.46398551   -7.8545968    843.01088  0.014200709  0.012583986           93 
 4948000   0.46635187   -7.8618267    842.56887  0.014190395  0.012580029           45 
 4949000   0.45641837   -7.8339828    842.90064  0.014193114  0.012576074          108 
 4950000   0.46719099   -7.8527962    841.87014  0.014172898  0.012572121          152 
 4951000    0.4605508   -7.8612573    842.60674  0.014182434  0.012568168          129 
 4952000   0.46813128   -7.8578242    841.38569  0.014159021  0.012564216          131 
 4953000   0.46374918   -7.8438794    841.39978    0.0141564  0.012560265           60 
 4954000   0.46761708   -7.8652126    841.26128  0.014151213  0.012556316           59 
 4955000   0.45802149   -7.8507592    841.87632    0.0141587  0.012552369          127 
 4956000   0.45799895   -7.8535744    841.16324  0.014143853  0.012548424          119 
 4957000   0.45173347   -7.8636401    841.14321  0.014140663   0.01254448          126 
 4958000   0.47428401   -7.8649233    841.29679  0.014140392  0.012540537          137 
 4959000    0.4653528   -7.8701542    842.19302  0.014152602  0.012536595           42 
 4960000   0.45550478   -7.8675678    841.30764  0.014134873  0.012532656           83 
 4961000   0.46689793    -7.858037    842.01259  0.014143865  0.012528717           81 
 4962000    0.4544287    -7.872163     841.7112  0.014135953   0.01252478          104 
 4963000   0.46574654   -7.8597335    841.07202  0.014122373  0.012520847           80 
 4964000   0.45643719   -7.8548375    841.62427  0.014128799  0.012516914          103 
 4965000    0.4575162   -7.8622873    841.61472  0.014125793   0.01251298           89 
 4966000   0.45573824   -7.8538424    841.40982   0.01411951  0.012509049           90 
 4967000   0.46277678   -7.8689851     842.5321  0.014135496  0.012505123           69 
 4968000   0.45970128   -7.8680297    842.35369  0.014129658  0.012501198           42 
 4969000   0.45191114   -7.8427137    841.35864  0.014110127  0.012497274           58 
 4970000   0.45255757   -7.8806188    841.02191  0.014101642  0.012493347           39 
 4971000   0.45604887   -7.8602252    842.00969  0.014115364  0.012489423          100 
 4972000   0.45817198   -7.8662942    841.77832  0.014108647  0.012485504           66 
 4973000    0.4536705   -7.8531183    840.72244  0.014088116  0.012481586           59 
 4974000   0.46777886   -7.8652273    841.19693  0.014093234  0.012477671           55 
 4975000    0.4661529    -7.864699    841.71411  0.014099064  0.012473753          106 
 4976000   0.45180473   -7.8546306    842.30637  0.014106149  0.012469836           53 
 4977000   0.45048802   -7.8624332    842.08643  0.014099632  0.012465926          101 
 4978000   0.45947836   -7.8551768    840.78246  0.014074971  0.012462016          122 
 4979000   0.45428257   -7.8696488    842.54499  0.014101643  0.012458104           52 
 4980000   0.45967457   -7.8697347    843.30794  0.014111579  0.012454196          105 
 4981000    0.4622143     -7.84599    842.36652  0.014092995  0.012450291           91 
 4982000   0.46352867   -7.8592583    842.50611  0.014092502  0.012446389          130 
 4983000   0.46059708   -7.8843623    841.53654  0.014073459  0.012442484          177 
 4984000   0.45898517   -7.8526881    843.10823  0.014096914  0.012438583           84 
 4985000   0.45008922   -7.8503887    841.79931  0.014072205  0.012434681           96 
 4986000   0.45318581    -7.844939    841.93147  0.014071592  0.012430784           78 
 4987000   0.45959159   -7.8816412    842.07511   0.01407117  0.012426887           53 
 4988000   0.45449299   -7.8640032    841.29094  0.014055248  0.012422988           50 
 4989000   0.46169327   -7.8698338    841.46933  0.014055411  0.012419091          129 
 4990000   0.45793748   -7.8767321    841.58764   0.01405457  0.012415199          112 
 4991000   0.44723974   -7.8543306    841.34027  0.014047624  0.012411307          142 
 4992000   0.45834061   -7.8585909    841.53418  0.014048047   0.01240742           41 
 4993000   0.45227386   -7.8642673    840.09736  0.014021252  0.012403532          105 
 4994000   0.44412932   -7.8691321      842.282  0.014054899  0.012399646          169 
 4995000   0.45235504   -7.8812316     842.3642  0.014053457  0.012395759           51 
 4996000   0.45809686   -7.8733795    841.31162  0.014033087  0.012391877           81 
 4997000   0.44682273   -7.8713625    841.44422   0.01403249  0.012387996           67 
 4998000   0.45141804   -7.8790626    842.34499  0.014044701  0.012384116          143 
 4999000   0.44780871   -7.8671461    841.22812  0.014023273  0.012380235           63 
 5000000   0.44084531   -7.8537775    842.96126  0.014049354  0.012376356           76 
 5001000   0.45393926   -7.8624461    841.55237  0.014023068  0.012372481           55 
 5002000   0.45179485   -7.8888542    842.44333  0.014035108  0.012368608           70 
 5003000   0.45384349   -7.8783393    842.27123  0.014029436  0.012364735           40 
 5004000   0.44567048   -7.8628817    842.76044   0.01403478  0.012360862           48 
 5005000   0.45529277   -7.8705513    842.13136  0.014021501  0.012356992           48 
 5006000   0.45489335   -7.8629847    841.10181  0.014001562  0.012353124           94 
 5007000   0.44376936   -7.8620575    841.68857  0.014008531  0.012349257           95 
 5008000   0.45295492   -7.8610595    841.17443  0.013997178  0.012345392           86 
 5009000    0.4400186   -7.8704343    840.80649  0.013988263  0.012341528           52 
 5010000   0.44856867   -7.8743358    841.63966  0.013999329  0.012337666           51 
 5011000   0.46033731   -7.8681494    841.75675  0.013998483  0.012333808          106 
 5012000   0.45207531   -7.8728677    841.03598  0.013983705  0.012329953           81 
Loop time of 11150.3 on 48 procs for 5000000 steps with 4000 atoms

Performance: 77486.684 tau/day, 448.418 timesteps/s
99.4% CPU use with 48 MPI tasks x no OpenMP threads

MPI task timing breakdown:
Section |  min time  |  avg time  |  max time  |%varavg| %total
---------------------------------------------------------------
Pair    | 683.38     | 775.19     | 812.1      |  77.1 |  6.95
Neigh   | 69.461     | 70.714     | 72.706     |   8.7 |  0.63
Comm    | 622.07     | 670.27     | 779.74     | 101.2 |  6.01
Output  | 13.37      | 13.373     | 13.458     |   0.3 |  0.12
Modify  | 9443.7     | 9497       | 9540.1     |  27.4 | 85.17
Other   |            | 123.7      |            |       |  1.11

Nlocal:        83.3333 ave          90 max          77 min
Histogram: 2 1 5 12 8 2 9 7 1 1
Nghost:        1834.42 ave        1857 max        1802 min
Histogram: 3 1 3 3 3 6 12 10 4 3
Neighs:        11378.3 ave       12701 max       10339 min
Histogram: 6 2 4 13 3 6 7 4 2 1
FullNghs:      22731.9 ave       25385 max       20817 min
Histogram: 3 2 10 12 4 7 6 1 1 2

Total # of neighbors = 1091129
Ave neighs/atom = 272.78225
Neighbor list builds = 269267
Dangerous builds = 2

#clear
#
#next RN
#
#jump SELF
Total wall time: 3:05:53
