
units lj                  # Use reduced LJ style units
atom_style atomic         # Uncharged point particles
atom_modify map hash      # Needed for indexing of clusters etc
                          # Used to be able to find where atoms are in relation to each other.

lattice fcc 1.0 spacing 1 1 1
Lattice spacing in x,y,z = 1.5874011 1.5874011 1.5874011
region box block 0 10 0 10 0 10 units lattice
create_box 2 box
Created orthogonal box = (0.0000000 0.0000000 0.0000000) to (15.874011 15.874011 15.874011)
  3 by 4 by 4 MPI processor grid
create_atoms 1 box
Created 4000 atoms
  using lattice units in orthogonal box = (0.0000000 0.0000000 0.0000000) to (15.874011 15.874011 15.874011)
  create_atoms CPU = 0.002 seconds
set type 1 type/fraction 2 0.2 78393
Setting atom values ...
  836 settings made for type/fraction
mass 1 1.0
mass 2 1.0
pair_style lj/cut  3.5
pair_modify tail  yes
pair_coeff 1  1  1.0  1.0   # Intearaction between 1 and 1 set with epsilon = 1 and sigma = 1
pair_coeff 1  2  1.5  0.8
pair_coeff 2  2  0.5  0.88

write_data data.0
System init for write_data ...
Neighbor list info ...
  update every 1 steps, delay 10 steps, check yes
  max neighbors/atom: 2000, page size: 100000
  master list distance cutoff = 3.8
  ghost atom cutoff = 3.8
  binsize = 1.9, bins = 9 9 9
  1 neighbor lists, perpetual/occasional/extra = 1 0 0
  (1) pair lj/cut, perpetual
      attributes: half, newton on
      pair build: half/bin/atomonly/newton
      stencil: half/bin/3d
      bin: standard
WARNING: Not all mixed pair coeffs generated from mixing. Use write_data with 'pair ij' option to store all pair coeffs. (../write_data.cpp:312)


#############################
#   M E L T   S Y S T E M   #
#############################

velocity all create 2.4 9622624 mom yes dist gaussian # Assign velocities
                                                    # Temperature 2.4, random number seed, zero linear momentum
                                                                                # Gaussian distribution

timestep 0.002   # simulation timestep
thermo 1000       # output thermodynamic data every 1000 steps bf 100

# Define a fix  in this case with index 1 applied to all
# particles in the simulation. This fix is for simulations
# in the anisotropic NPT ensemble. Note that we use the MTK
# correction.
fix 1 all npt temp 2.4 2.4 0.1 iso 5.68 5.68 0.5 mtk yes tchain 5 pchain 5 # Use NPT ensemble
                                                                         # Set temperature and pressure and damping
                                                                         # Numbers of thermostats in chain and in barostat
run 10000          # run for 10000 steps
Per MPI rank memory allocation (min/avg/max) = 3.642 | 3.644 | 3.648 Mbytes
Step Temp E_pair E_mol TotEng Press Volume 
       0          2.4   -7.0365901            0   -3.4374901   -3.6176696         4000 
    1000    2.3994287   -4.8137251            0   -1.2154819    5.5638261    4495.4885 
    2000    2.3818304   -4.8482938            0   -1.2764415    5.7282697     4453.565 
    3000     2.394227   -4.8764038            0   -1.2859611    5.6981674    4441.9687 
    4000    2.4254177   -4.8546539            0   -1.2174369    5.7041204    4458.7547 
    5000    2.4155326   -4.8275748            0   -1.2051817    5.8202221    4459.7841 
    6000    2.3475275   -4.8241833            0   -1.3037724    5.8393397    4445.8023 
    7000    2.3874224   -4.8469938            0   -1.2667554    5.5851118    4476.9019 
    8000    2.4046912   -4.8413428            0   -1.2352077    5.5334864    4483.1434 
    9000    2.4616692   -4.8235184            0   -1.1319377    5.4015613    4520.9754 
   10000    2.4232114   -4.8575648            0   -1.2236564     5.474963    4484.9963 
Loop time of 2.29114 on 48 procs for 10000 steps with 4000 atoms

Performance: 754208.683 tau/day, 4364.634 timesteps/s
99.6% CPU use with 48 MPI tasks x no OpenMP threads

MPI task timing breakdown:
Section |  min time  |  avg time  |  max time  |%varavg| %total
---------------------------------------------------------------
Pair    | 0.97438    | 1.0333     | 1.1033     |   2.7 | 45.10
Neigh   | 0.19822    | 0.20431    | 0.22584    |   1.1 |  8.92
Comm    | 0.73932    | 0.79729    | 0.89913    |   3.9 | 34.80
Output  | 0.00023887 | 0.00024399 | 0.00030845 |   0.0 |  0.01
Modify  | 0.19465    | 0.24122    | 0.27556    |   5.2 | 10.53
Other   |            | 0.01478    |            |       |  0.64

Nlocal:        83.3333 ave          93 max          72 min
Histogram: 1 0 2 8 7 14 8 5 0 3
Nghost:        1524.96 ave        1554 max        1489 min
Histogram: 2 1 3 4 9 5 13 6 3 2
Neighs:        8500.50 ave        9827 max        7198 min
Histogram: 1 0 7 6 13 8 6 3 2 2

Total # of neighbors = 408024
Ave neighs/atom = 102.00600
Neighbor list builds = 906
Dangerous builds = 190

# Equilibrate just above the melting temperature to avoid step fn in T

fix 1 all npt temp 1.25 1.25 0.1 iso 5.68 5.68 0.5 mtk yes tchain 5 pchain 5
run 2000
Per MPI rank memory allocation (min/avg/max) = 3.643 | 3.645 | 3.649 Mbytes
Step Temp E_pair E_mol TotEng Press Volume 
   10000    2.4232114   -4.8575648            0   -1.2236564     5.474963    4484.9963 
   11000    1.2604656   -6.5410447            0   -4.6508189    5.6973542    3649.0161 
   12000    1.2432461   -6.5505701            0   -4.6861671     5.680635    3645.1451 
Loop time of 0.504647 on 48 procs for 2000 steps with 4000 atoms

Performance: 684834.633 tau/day, 3963.163 timesteps/s
99.6% CPU use with 48 MPI tasks x no OpenMP threads

MPI task timing breakdown:
Section |  min time  |  avg time  |  max time  |%varavg| %total
---------------------------------------------------------------
Pair    | 0.22601    | 0.24469    | 0.26253    |   1.6 | 48.49
Neigh   | 0.032278   | 0.03438    | 0.038265   |   0.6 |  6.81
Comm    | 0.1504     | 0.16975    | 0.18786    |   2.2 | 33.64
Output  | 5.1849e-05 | 5.3069e-05 | 6.6111e-05 |   0.0 |  0.01
Modify  | 0.044582   | 0.051218   | 0.060731   |   1.6 | 10.15
Other   |            | 0.004557   |            |       |  0.90

Nlocal:        83.3333 ave          91 max          78 min
Histogram: 10 4 3 11 3 5 2 3 1 6
Nghost:        1748.02 ave        1776 max        1722 min
Histogram: 1 3 5 12 4 6 8 6 2 1
Neighs:        10474.2 ave       11807 max        9644 min
Histogram: 8 5 9 5 6 3 5 2 4 1

Total # of neighbors = 502761
Ave neighs/atom = 125.69025
Neighbor list builds = 142
Dangerous builds = 11

#############################
# L I N E A R  Q U E N C H  #
#############################

# Define solid atoms. This closely follows ten Wolde  Ruiz-Montero and Frenkel  Faraday Discuss  1996  104  93-110
# Compute components of the per-atom q6 vector
compute q6 all orientorder/atom degrees 1 6 components 6 nnn NULL cutoff 1.3 # compute the Q6 parameter.
                                                                             # Use all neighbours within 1.3 unit cell.

# get number of connections
compute coord_number all coord/atom orientorder q6 0.5

# An atom is solid if it has 8 or more connections (of a possible 14)
variable is_solid atom c_coord_number>=8
group solid dynamic all var is_solid    # Must be dynamic to update
dynamic group solid defined

# do clustering
compute cluster solid cluster/atom 1.3 # Create a cluster where all atoms within are solid and max 1.3 units from another member

# define chunks one chunk per cluster
compute clus_chunks solid chunk/atom c_cluster nchunk every compress yes  # Says which atoms are in which chunk

# count the size of each chunk
compute size_chunks solid property/chunk clus_chunks count


# Find the maximum entry in the vector of chunk sizes
variable max_n equal max(c_size_chunks)


# Thermo style which includes this variable
# thermo_style custom step temp pe vol v_max_n

thermo ${N}  # Print the thermo information every 100 steps
thermo 1000  

# Reset the npt fix at a lower temperature (below freezing)
fix 1  all npt temp  ${temp} ${temp}  0.1  iso  5.68  5.68  0.5  mtk yes tchain  5  pchain  5
fix 1  all npt temp  0.45 ${temp}  0.1  iso  5.68  5.68  0.5  mtk yes tchain  5  pchain  5
fix 1  all npt temp  0.45 0.45  0.1  iso  5.68  5.68  0.5  mtk yes tchain  5  pchain  5

dump dmp2 all dcd ${N} traj.dcd
dump dmp2 all dcd 1000 traj.dcd


compute msd all msd com yes
variable twopoint equal c_msd[4]/6/(step*dt+1.0e-6)
fix 9 all vector 10 c_msd[4]
variable fit equal slope(f_9)/6/(10*dt)
thermo_style custom step temp pe c_msd[4] v_twopoint v_fit v_max_n

fix 1 all npt temp 1.25 ${temp} 0.1 iso 5.68 5.68 0.5 mtk yes tchain 5 pchain 5
fix 1 all npt temp 1.25 0.45 0.1 iso 5.68 5.68 0.5 mtk yes tchain 5 pchain 5
run 500000 # 5000000  # Run for this many steps
Neighbor list info ...
  update every 1 steps, delay 10 steps, check yes
  max neighbors/atom: 2000, page size: 100000
  master list distance cutoff = 3.8
  ghost atom cutoff = 3.8
  binsize = 1.9, bins = 9 9 9
  4 neighbor lists, perpetual/occasional/extra = 1 3 0
  (1) pair lj/cut, perpetual
      attributes: half, newton on
      pair build: half/bin/atomonly/newton
      stencil: half/bin/3d
      bin: standard
  (2) compute orientorder/atom, occasional
      attributes: full, newton on
      pair build: full/bin/atomonly
      stencil: full/bin/3d
      bin: standard
  (3) compute coord/atom, occasional
      attributes: full, newton on
      pair build: full/bin/atomonly
      stencil: full/bin/3d
      bin: standard
  (4) compute cluster/atom, occasional
      attributes: full, newton on
      pair build: full/bin/atomonly
      stencil: full/bin/3d
      bin: standard
Per MPI rank memory allocation (min/avg/max) = 9.773 | 9.780 | 9.784 Mbytes
Step Temp PotEng c_msd[4] v_twopoint v_fit v_max_n 
   12000    1.2432461   -6.5505701 2.2159103e-30 1.5388265e-32 8.3333333e+20            1 
   13000    1.2476029   -6.6161827   0.51334434 0.0032906687   0.04263111            1 
   14000     1.242904   -6.5668365    1.0341312 0.0061555428  0.042359588            1 
   15000    1.2556787    -6.547337      1.54797 0.0085998329  0.042679332            2 
   16000    1.2617569   -6.5889734    2.0355864  0.010602012  0.042358872            4 
   17000    1.2515404   -6.5773444    2.5117767  0.012312631  0.041864942            2 
   18000      1.22127   -6.6060731    2.9645166  0.013724613  0.041434941            3 
   19000     1.267048   -6.5663418    3.4384207  0.015080792  0.040796899            2 
   20000     1.211071   -6.5859696    3.9278243  0.016365934  0.040469144            3 
   21000    1.2779339    -6.558146    4.4553124  0.017679811   0.04053719            2 
   22000    1.2292131   -6.5507969    4.8958201  0.018544773  0.040457776            1 
   23000     1.244959    -6.563898    5.3524705  0.019393009  0.040241688            4 
   24000    1.2535801   -6.6025018    5.8668775  0.020371102  0.040161555            1 
   25000    1.2328377   -6.5914613      6.39193  0.021306433  0.040313767            1 
   26000    1.1887485   -6.5936156    6.9410777  0.022247043  0.040549746            2 
   27000    1.2530701   -6.6044055    7.4024703   0.02284713  0.040641385            2 
   28000    1.2366475   -6.6273735    7.8574952  0.023385402  0.040649407            1 
   29000    1.2333614   -6.5988908    8.3229019  0.023916384  0.040694959            1 
   30000    1.2186403    -6.613183      8.93843  0.024828972  0.040727977            2 
   31000    1.2391198   -6.6105273    9.4712275  0.025460289  0.040876407            2 
   32000      1.22473   -6.6334221    9.9452577  0.025899108  0.040974282            1 
   33000    1.2103596   -6.6630071     10.46777  0.026433762  0.041078988            1 
   34000    1.2351725   -6.5945781    11.011083  0.026987948  0.041188383            1 
   35000    1.2133593   -6.6078012    11.489266  0.027355395  0.041312944            1 
   36000    1.1847785   -6.6625537    11.866425  0.027468577  0.041367865            2 
   37000    1.2062235   -6.6697257    12.338677  0.027789812  0.041357943            2 
   38000    1.2051162   -6.6555286    12.805579   0.02808241  0.041309274            3 
   39000    1.1967312   -6.6587341    13.194009  0.028192327   0.04123028            2 
   40000    1.1961484   -6.6584542    13.698067   0.02853764  0.041145305            1 
   41000    1.2095413   -6.6132745    14.253174  0.028969865  0.041082991            3 
   42000    1.2123879   -6.6510092    14.581718  0.028931981  0.041000273            5 
   43000    1.1682287   -6.6319005    15.005004  0.029079465  0.040870939            2 
   44000    1.1876316   -6.6418551    15.431809  0.029226911  0.040752155            5 
   45000    1.2037609   -6.6554407    15.969811  0.029573724  0.040645939            1 
   46000    1.2083275   -6.6996405      16.4811  0.029857065  0.040571045            1 
   47000    1.1844885   -6.6893632    16.901465  0.029967136   0.04047375            2 
   48000    1.2047877   -6.6638464    17.309028  0.030050395  0.040377386            1 
   49000    1.2132361   -6.6837202    17.724635  0.030143936  0.040268434            3 
   50000     1.197529   -6.6597521    18.193601  0.030322668  0.040175048            1 
   51000    1.1952167   -6.6779172    18.601919  0.030395292  0.040069397            2 
   52000    1.2002019    -6.699964    18.904918  0.030296343  0.039959499            3 
   53000    1.1679233   -6.7035061    19.480035  0.030628985    0.0398659            1 
   54000    1.1686045   -6.7114741    19.960712  0.030803567  0.039778362            3 
   55000    1.1898659   -6.6871549     20.37256  0.030867515  0.039699089            2 
   56000    1.1613833   -6.6978722    20.795782  0.030946104     0.039598            2 
   57000    1.1488751   -6.7284347    21.110471  0.030863262  0.039491868            5 
   58000     1.169144   -6.7052204    21.648009   0.03110346  0.039392485            2 
   59000    1.1887208   -6.7178214    21.965941   0.03102534  0.039298136            4 
   60000    1.1493768    -6.709286    22.391511  0.031099321  0.039200136            3 
   61000    1.1672299   -6.7117053    22.840362   0.03120268  0.039097011            1 
   62000    1.1775484   -6.7140198    23.160043   0.03112909  0.038988845            4 
   63000     1.195605   -6.7586811    23.699737  0.031348858  0.038880397            2 
   64000    1.1701888   -6.7473608    24.147395   0.03144192  0.038800825            2 
   65000    1.1986013   -6.7536127    24.639752  0.031589425   0.03873676            5 
   66000    1.1730456    -6.718475    25.097808  0.031689152  0.038670215            2 
   67000    1.1657207   -6.7375676    25.550414  0.031779122  0.038609773            3 
   68000    1.1575724   -6.7501969    26.055868   0.03193121  0.038551862            1 
   69000    1.1536253   -6.7234288    26.478528  0.031978899  0.038500676            6 
   70000    1.1501912   -6.7394911    26.823909  0.031933225  0.038442716            2 
   71000    1.1644336   -6.7443913    27.314002  0.032058688  0.038375847            2 
   72000    1.1434322   -6.7847795    27.493548  0.031821235  0.038298444            4 
   73000      1.17953   -6.7441972    27.895201  0.031843837  0.038216625            1 
   74000    1.1526014   -6.7562239    28.474633  0.032066028  0.038151811            2 
   75000     1.156767   -6.7479592     28.88995  0.032099945  0.038089888            1 
   76000    1.1532591   -6.8198337    29.187181  0.032003488  0.038023759            2 
   77000    1.1198467   -6.7510474    29.432885  0.031853772  0.037948586            5 
   78000    1.1364618   -6.7940092    29.686462  0.031716306  0.037856181            1 
   79000    1.0942876   -6.7609134    30.033129  0.031680516  0.037757105            3 
   80000    1.1060339   -6.7395653    30.260058  0.031520893  0.037645603            3 
   81000    1.1374857    -6.814179    30.449829  0.031326984  0.037527728            2 
   82000    1.1781327    -6.785858    30.922072   0.03142487  0.037407905            2 
   83000    1.1418801   -6.7786293    31.407655   0.03153379  0.037285903            2 
   84000     1.140684   -6.7743226    32.040473  0.031786184   0.03718034            1 
   85000    1.1244402   -6.7680383    32.378355  0.031743485  0.037091193            2 
   86000    1.1299316   -6.7937952    32.377942  0.031373974  0.036985668            2 
   87000    1.1263716   -6.7851539    32.728832  0.031349456   0.03687145            2 
   88000    1.1100329   -6.7941853    33.190896  0.031430773  0.036769265            3 
   89000    1.1102345   -6.7950508    33.549834  0.031413702  0.036665603            2 
   90000    1.1472908    -6.797245    33.882613   0.03137279  0.036560418            1 
   91000    1.1212253   -6.8373361    34.295767  0.031406379  0.036456469            1 
   92000    1.1446742   -6.7627091    34.656979  0.031392191  0.036357459            2 
   93000     1.121389     -6.80457     35.05482  0.031411129  0.036257172            3 
   94000    1.1107238   -6.8147106    35.322103  0.031313921  0.036156822            1 
   95000    1.1075947   -6.8262044    35.800945  0.031404338  0.036060934            2 
   96000    1.1114755   -6.8325875    36.180101  0.031406338  0.035965448            2 
   97000     1.108222   -6.8346645    36.252559   0.03114481  0.035863642            2 
   98000     1.110523   -6.8184859    36.737261  0.031239167  0.035760142            6 
   99000    1.0917138   -6.8210341    36.895516  0.031056832  0.035659507            2 
  100000    1.1132687   -6.8037239    37.048917  0.030874098  0.035552243            1 
  101000    1.1269724   -6.8358624     37.30025  0.030775783  0.035436802            2 
  102000    1.0967718   -6.8897176       37.592  0.030712418  0.035323601            3 
  103000    1.0898778   -6.8198037    38.184155  0.030893329  0.035210513            4 
  104000    1.0872128   -6.8602921    38.536154  0.030878328  0.035106324            2 
  105000    1.1228907   -6.8520068     38.90142  0.030874143  0.035005017            1 
  106000    1.1039166    -6.859473    39.186317  0.030806853  0.034904279            1 
  107000    1.0869893   -6.8277245    39.546814  0.030799699  0.034809105            2 
  108000    1.1053808   -6.8787338    39.805977  0.030714488   0.03471279            3 
  109000    1.0723378    -6.852344    40.205175  0.030737901  0.034616894            2 
  110000    1.0884053   -6.8715928    40.655306  0.030799474  0.034525824            2 
  111000    1.0538744   -6.8855401    40.897372  0.030703733  0.034437685            1 
  112000     1.099752   -6.8341754    41.219037  0.030668926  0.034348751            1 
  113000     1.081972   -6.8988158    41.790096  0.030818655  0.034265162            3 
  114000    1.0922695   -6.8657425    42.283581   0.03090905  0.034189952            3 
  115000    1.0857736   -6.8564527    42.525927  0.030815889  0.034118106            3 
  116000    1.0725594   -6.8971742    42.789958  0.030739912  0.034044925            1 
  117000    1.0791734   -6.8842195    43.257469  0.030810163  0.033975174            1 
  118000    1.0797548   -6.9018425    43.572097  0.030771255  0.033906932            6 
  119000    1.1018145   -6.9512093    43.835765  0.030697314  0.033840872            2 
  120000     1.091782   -6.9144358    44.266283  0.030740474   0.03377483            2 
  121000    1.0663536    -6.936992    44.602816  0.030718193  0.033710638            7 
  122000    1.0726276   -6.8905983     45.10353  0.030808422  0.033648195            3 
  123000    1.0571759   -6.8984695    45.439916  0.030785851  0.033592534            2 
  124000    1.0624051   -6.9268949    45.696054  0.030709714  0.033536423            2 
  125000    1.0745208   -6.9422065    45.965861  0.030643907  0.033477077            2 
  126000     1.090799   -6.8876366    46.472017  0.030735461  0.033419244            1 
  127000    1.0781144   -6.9178394    46.773805  0.030691473  0.033362676            1 
  128000    1.0938854   -6.9245474    46.911841  0.030541563  0.033304034            4 
  129000    1.0640311   -6.9742914    47.137039  0.030450283    0.0332422            3 
  130000    1.0630913    -6.945387    47.437635   0.03040874  0.033183067            3 
  131000    1.0647825   -6.9292253    47.877887  0.030456671   0.03311904            3 
  132000     1.034426   -6.9268047    48.154058  0.030400289  0.033057888            2 
  133000    1.0826344   -6.9738917    48.311483  0.030270353  0.032997629            2 
  134000    1.0758442   -6.9793756    48.585176  0.030214662   0.03293309            5 
  135000    1.0484197   -6.9277718    48.886704  0.030176978  0.032866576            3 
  136000    1.0550439   -6.9485215    49.210907  0.030153742  0.032797197            2 
  137000    1.0545019   -6.9987567    49.491821  0.030104514  0.032729853            6 
  138000    1.0536741   -6.9384021    50.140404  0.030278022  0.032666707            4 
  139000    1.0489453   -6.9873264     50.00285  0.029977728  0.032603902            1 
  140000    1.0632525   -7.0172649    50.437934   0.03002258  0.032539338            8 
  141000    1.0533981   -6.9548778    50.921408  0.030095394  0.032476391            3 
  142000    1.0341648   -7.0003466     51.03482  0.029950011  0.032413063            2 
  143000    1.0441908   -6.9522787    51.660606  0.030105248  0.032351353            1 
  144000    1.0690841   -7.0264307    51.834208  0.029996648  0.032296196            3 
  145000    1.0609079   -7.0099812    52.466096  0.030152929  0.032242499            3 
  146000    1.0394165   -6.9420289    52.800489  0.030137266   0.03219055            6 
  147000    1.0195289   -6.9947133    52.823069   0.02994505  0.032137781            3 
  148000    1.0191378    -6.995537    53.240231  0.029977607  0.032083892            7 
  149000    1.0416224   -7.0139444    53.542215   0.02994531  0.032031611            3 
  150000    1.0172602   -7.0023344    53.626335  0.029792408  0.031976581            7 
  151000    1.0390025   -7.0210369    53.718278  0.029645849  0.031915989            4 
  152000    1.0229893   -6.9907206    53.821994  0.029507672  0.031850488            5 
  153000    1.0152965   -7.0148548    54.299457  0.029574867  0.031786403            5 
  154000    1.0275281   -6.9912865    54.822497  0.029665853  0.031723528            2 
  155000      1.02917   -7.0246286    54.820654   0.02947347  0.031662952            2 
  156000    1.0215343    -7.022104    55.145933  0.029458297  0.031601422            3 
  157000      1.02621   -7.0295271    55.402704  0.029406955  0.031538873            3 
  158000    1.0080532   -7.0078065    55.854994  0.029459385  0.031477886            2 
  159000    1.0160423   -7.0360774    55.742534  0.029215164  0.031415042            2 
  160000    1.0335783   -7.0365907    55.967211  0.029149589  0.031346861            1 
  161000    1.0041849   -7.0279234    56.364417  0.029174129  0.031277939            6 
  162000     1.024731   -7.0549984      56.4823  0.029054681  0.031211172            5 
  163000     1.003489   -7.0086659    56.722663  0.028999317  0.031145082            3 
  164000    1.0492872   -7.0405195    57.273646  0.029102462  0.031081053            2 
  165000   0.99244779   -7.0519353    57.629845  0.029105982   0.03101976            2 
  166000   0.99404759   -7.0625402    57.902259  0.029067399  0.030960045            3 
  167000    1.0023635   -7.0553964    58.246389  0.029065064  0.030902534            4 
  168000    0.9956469   -7.0347872    58.650784  0.029092651  0.030845229            2 
  169000   0.99760286   -7.0851033    58.764578  0.028976616  0.030789811            2 
  170000   0.99607608    -7.059611    59.097561  0.028969392  0.030732082            2 
  171000   0.98093059   -7.0693338    59.179523  0.028839923  0.030675916            2 
  172000   0.98755868   -7.0737066    59.586798  0.028869573  0.030619399            2 
  173000   0.99678502   -7.0895398    59.893447  0.028850408  0.030565504            4 
  174000   0.98012483   -7.0818353    60.302651   0.02888058  0.030511729            3 
  175000   0.95829418   -7.1038034    60.659541  0.028885496  0.030458987            4 
  176000   0.97477226   -7.0576499    60.918823   0.02884414  0.030405099            2 
  177000   0.97740071   -7.1039346    61.160582  0.028795001  0.030352123            2 
  178000   0.98533194   -7.1020642    61.308498   0.02870248  0.030298898            2 
  179000   0.99889997   -7.0749187    61.283315  0.028530407  0.030243471            3 
  180000    0.9792551   -7.0998703    61.353281  0.028404297  0.030185233            4 
  181000   0.98644217    -7.120052    61.616873  0.028368726  0.030123418            5 
  182000   0.98271051   -7.1297696    61.812735  0.028302534  0.030063058            9 
  183000   0.98367688    -7.097064     62.03003  0.028246826  0.030002998            5 
  184000   0.96997479   -7.1397605    62.325693  0.028227216  0.029943002            3 
  185000    0.9645706     -7.09775    62.154778  0.027997648  0.029878944            4 
  186000   0.96588635   -7.1145744     62.43605  0.027973141  0.029813061            2 
  187000   0.97612466   -7.1364934    62.645141   0.02791673  0.029746272            2 
  188000   0.96015378   -7.1542943    62.699583  0.027792368  0.029677288            3 
  189000   0.96792694   -7.1251484    62.880454  0.027725068  0.029609612            1 
  190000   0.97629167   -7.1627095    63.154913  0.027699523  0.029541338            3 
  191000    0.9748641   -7.1478677    63.390404  0.027657244   0.02947226            4 
  192000    0.9696328   -7.1470673    63.605024  0.027606347  0.029403531            4 
  193000   0.96255475   -7.1600342    63.922559  0.027600414  0.029334988            4 
  194000   0.96643152    -7.170964    64.163231  0.027561525  0.029268522            2 
  195000   0.96629518   -7.1450642    64.283407  0.027471541  0.029201032            1 
  196000   0.96856264   -7.1755362    64.354706  0.027361695  0.029132431            3 
  197000   0.93304578   -7.1474256    64.564654  0.027311613  0.029064028            3 
  198000   0.96334988   -7.1781951    64.715186  0.027237031  0.028995109            7 
  199000   0.95114401   -7.1479817    64.859288  0.027160506  0.028926031            2 
  200000   0.97584452   -7.1782911    64.946623  0.027061093  0.028854814            5 
  201000   0.95442929   -7.1696898    65.199478  0.027031293  0.028782001            2 
  202000   0.95364184   -7.1957074    65.019432  0.026823198  0.028707888            4 
  203000   0.93654741     -7.14652    65.445191  0.026865842  0.028632324            3 
  204000    0.9259803   -7.1985177    65.372503  0.026704454  0.028558184            2 
  205000   0.94446931    -7.167966    65.792684  0.026744993   0.02848458            6 
  206000   0.94914164    -7.209794    65.931192  0.026671194  0.028411913            5 
  207000   0.92580385    -7.193337    66.276587  0.026681396  0.028339291            2 
  208000   0.95460363   -7.2008289    66.354807  0.026584458  0.028267111            1 
  209000   0.92233323   -7.1809038    66.639449  0.026570753  0.028195911            5 
  210000   0.94400367   -7.2271215    66.606824  0.026431279  0.028123694            5 
  211000   0.93307962   -7.2421711    66.825612  0.026392422   0.02805099            2 
  212000   0.95070266   -7.2045897    67.107574  0.026378763  0.027978985            2 
  213000   0.91810858   -7.2253663    67.117351  0.026258744  0.027907676            3 
  214000   0.91444667   -7.2073255    67.520877  0.026293176  0.027835728           11 
  215000   0.94224642   -7.2230666    67.227033  0.026056989  0.027763194            4 
  216000   0.89136041   -7.2292493    67.495739  0.026040023  0.027690474            3 
  217000   0.92555152   -7.2080511    68.064559  0.026138463  0.027619173            2 
  218000   0.90901928   -7.2178108    67.866632  0.025942902  0.027547711            2 
  219000   0.90187916   -7.2472401    67.641725   0.02573886   0.02747321            4 
  220000   0.90768338   -7.2435827    67.826935  0.025692021  0.027396864            4 
  221000   0.91552202   -7.2388842    68.151548   0.02569817  0.027321088            2 
  222000   0.92069733   -7.2555071    68.091338  0.025559812   0.02724543            5 
  223000   0.90593615   -7.2343203    68.391601    0.0255574  0.027169464            3 
  224000   0.91560078   -7.2501978    68.342522  0.025425045  0.027093678            3 
  225000   0.89323186   -7.2267198    68.570697  0.025396554   0.02701725            4 
  226000    0.8984317   -7.2792955    68.589565  0.025291137  0.026942016            3 
  227000   0.90576498   -7.2432427     68.72987   0.02523123  0.026865782            4 
  228000   0.92190815   -7.2892967    68.864984   0.02516995   0.02679031            2 
  229000   0.91051287   -7.2852892    69.090925  0.025142258  0.026714092            2 
  230000   0.91059615   -7.2642872    69.017064  0.025006183   0.02663781            3 
  231000   0.90983109   -7.2594825    69.075182  0.024918897  0.026560147            5 
  232000   0.91834827   -7.2816109    69.224759  0.024865215  0.026481759            5 
  233000   0.91327713   -7.2847528    69.353567  0.024804566  0.026403662            4 
  234000   0.89037766   -7.2587311     69.40471  0.024716777  0.026325351            3 
  235000   0.90081232   -7.2489416    69.370093  0.024599324  0.026247568            2 
  236000   0.89650815   -7.2475335    69.617083  0.024582303  0.026169322            6 
  237000   0.88892833   -7.2912951    69.890701  0.024574789  0.026092284            2 
  238000    0.8966639   -7.3225357    70.098318  0.024544229  0.026015738            3 
  239000   0.88870779   -7.3292823    70.105178  0.024443925  0.025939067            4 
  240000   0.88791911   -7.2917081     70.18334  0.024369215  0.025862028            5 
  241000   0.87460159   -7.3432266    69.934908  0.024182195  0.025784632            4 
  242000   0.86445524   -7.3300598    70.428425  0.024252212  0.025707481            4 
  243000   0.86427928   -7.3385285    70.637973  0.024224271  0.025631173            4 
  244000   0.88375627   -7.3230886    70.680268  0.024139436  0.025555282            4 
  245000   0.87216595   -7.3483314    70.729073  0.024057508  0.025479433            2 
  246000   0.86967253   -7.3185518    70.904537  0.024019152  0.025403483            1 
  247000   0.88313697   -7.3121221    70.800581  0.023886836  0.025328102            3 
  248000   0.86545615   -7.3193915    70.981538  0.023851323  0.025251475            3 
  249000   0.87352446   -7.3466034    70.936879  0.023740589    0.0251748            4 
  250000   0.85378745   -7.3945631    71.051662  0.023683887  0.025098282            1 
  251000   0.87061654   -7.3622846    71.272431  0.023662826  0.025022091            5 
  252000   0.84300457   -7.3786964    71.295543  0.023576568  0.024945947            2 
  253000   0.87500095    -7.366337    71.492647  0.023548303  0.024869385            3 
  254000   0.87349403   -7.3742518     71.53165  0.023468389  0.024794061            3 
  255000   0.84860356   -7.3528588    71.529945  0.023375799  0.024718507            6 
  256000   0.85778138   -7.3298146     71.96807  0.023427106  0.024643652            4 
  257000   0.85391425   -7.3467326    72.023033  0.023353772  0.024569983            4 
  258000   0.85817665   -7.3760189    72.027835  0.023264805  0.024495796            5 
  259000   0.87180179   -7.3722243    72.202631   0.02323122  0.024421921            5 
  260000   0.83614978   -7.3948489    72.412967  0.023209284  0.024348443            2 
  261000   0.81798218   -7.3657423    72.686404  0.023207664   0.02427585            5 
  262000   0.83970146   -7.4006882    72.479839  0.023053384  0.024203739            3 
  263000   0.83494283   -7.3992878     72.65395  0.023020897  0.024131187            6 
  264000   0.85803688   -7.4000781    72.844232   0.02299376  0.024058891            8 
  265000   0.85021718   -7.3730505    72.794841  0.022891459  0.023986802            3 
  266000   0.83321251   -7.3948044    72.988648  0.022866118  0.023914488            2 
  267000   0.83553367   -7.3796239    72.807692  0.022723999  0.023842312            5 
  268000   0.83860341   -7.3926084    72.816363  0.022641904  0.023769773            5 
  269000   0.84676927   -7.4152303    73.112083  0.022649344  0.023697379            3 
  270000    0.8269246   -7.4010013    73.239205  0.022604693  0.023625242            3 
  271000    0.8681774   -7.4159544    73.381638  0.022565079  0.023553706            3 
  272000   0.83318476   -7.4183008    73.392021  0.022485301  0.023482594            9 
  273000   0.84290446   -7.4433155    73.605937  0.022468235  0.023412511            7 
  274000   0.82490952   -7.4402329    73.424699  0.022331113  0.023341607            2 
  275000   0.83459659   -7.4352124    73.408372  0.022244961  0.023270579            2 
  276000   0.81437931    -7.429247    73.676673  0.022245372  0.023199288            5 
  277000   0.83204818    -7.436185    73.778732  0.022195768  0.023127959            3 
  278000   0.82924756   -7.4635244    73.657666  0.022079636  0.023057158            5 
  279000   0.83353553    -7.447068    73.780259  0.022037114  0.022986079            3 
  280000   0.82829161   -7.4526131    73.668698  0.021925208  0.022914575            1 
  281000   0.81583434   -7.4782291    73.936499  0.021926601  0.022843226            5 
  282000   0.81730098   -7.4540999    74.103207  0.021898111   0.02277223            3 
  283000   0.82164091   -7.4817679    73.893675  0.021759033  0.022701529            8 
  284000   0.81117533    -7.468307    74.281322  0.021796162  0.022631341            6 
  285000   0.79312603   -7.4875762    74.040191  0.021649179   0.02256116            3 
  286000   0.82154307   -7.4922434    74.315166  0.021653603  0.022490941            2 
  287000    0.8039334   -7.4923747    74.333687  0.021583533  0.022420889            6 
  288000   0.79767857   -7.4821881    74.404081  0.021528958  0.022351436            2 
  289000   0.81569936   -7.4924067    74.444481  0.021466113  0.022281941            4 
  290000   0.79720744    -7.505369    74.648701  0.021450776  0.022213179            2 
  291000   0.81272892   -7.4886404    74.811528  0.021423691  0.022145075            2 
  292000   0.79973507   -7.5178356    74.827986  0.021355019  0.022077286            3 
  293000   0.80283777    -7.475384    74.641805  0.021229182  0.022009607            5 
  294000   0.79039264   -7.5045177     74.86459  0.021220122  0.021941228            3 
  295000   0.80868963   -7.4726011    74.783964  0.021125414   0.02187254            2 
  296000   0.78861842   -7.4766623    74.958355  0.021103141  0.021804097            7 
  297000   0.81163449     -7.52244    75.009203  0.021046353  0.021736612            8 
  298000   0.80460254   -7.4917042    75.105143  0.021002557  0.021669107            6 
  299000   0.77365742   -7.5205573    75.002675  0.020903755  0.021602021            2 
  300000   0.77181388   -7.5116726    75.621636   0.02100601  0.021535533            3 
  301000   0.78747276   -7.5124755    75.352858   0.02086181  0.021469393            3 
  302000    0.7705474   -7.5144777    75.571638  0.020853101   0.02140348            3 
  303000    0.7886956   -7.5376423    75.454794  0.020752144  0.021337261            3 
  304000   0.79152069   -7.5066357    75.419291  0.020674148  0.021271076            5 
  305000   0.79762583   -7.5211336    75.541453  0.020639741  0.021205267            2 
  306000   0.79715954    -7.553423    75.584805  0.020584097  0.021139475            6 
  307000   0.77022799   -7.5522379    75.574238   0.02051418  0.021073829           10 
  308000   0.78890456     -7.51909    75.872557  0.020528289  0.021008472            3 
  309000    0.7766353   -7.5772329    75.670808  0.020407446  0.020943661            1 
  310000   0.78268317   -7.5286142    75.781812  0.020371455  0.020878732            7 
  311000   0.77620583   -7.5673098    75.854693  0.020325481  0.020813703            4 
  312000   0.76663567   -7.5539033    75.856552  0.020260831   0.02074884            5 
  313000   0.76049052   -7.5675039    75.624084  0.020134208  0.020683768            7 
  314000   0.76188308    -7.586553     75.60428   0.02006483  0.020618212            3 
  315000   0.76575798   -7.5888415    75.663909  0.020016907  0.020552594            7 
  316000    0.7584489   -7.5715016    75.799306  0.019989268  0.020487316            3 
  317000   0.75605407   -7.5914196    75.954183  0.019966925  0.020422399            3 
  318000   0.76783834   -7.5796644    76.006553   0.01991786  0.020357838            8 
  319000   0.74037766   -7.6004739    75.948319  0.019840209  0.020293446            4 
  320000   0.76202072   -7.6034013    76.008175  0.019793796  0.020229039            4 
  321000   0.74505833   -7.6192065    76.338317  0.019817839  0.020165096            5 
  322000   0.75818316   -7.6081759    76.216921  0.019724876  0.020102056            6 
  323000   0.74272789    -7.600753    76.358894  0.019700437  0.020039636           14 
  324000   0.75480539   -7.6247189    76.298243  0.019624034  0.019977207            5 
  325000   0.74551774   -7.6413151    76.481419   0.01961062   0.01991495            7 
  326000   0.75365654   -7.6218959    76.481441  0.019550471  0.019852931            6 
  327000   0.73689165   -7.6325913    76.495452  0.019494254  0.019791209            3 
  328000   0.73856231   -7.6328216    76.575034  0.019455039  0.019729799            3 
  329000   0.73183311   -7.5976386    76.756352  0.019441832  0.019668716            4 
  330000   0.73186134   -7.6058502    76.875965  0.019413122  0.019608057            5 
  331000   0.74480782   -7.6304599    76.664535  0.019301243  0.019546784            4 
  332000   0.73072145   -7.6380373    76.715353  0.019255862  0.019485579            5 
  333000   0.75335038   -7.6631277    76.529176  0.019151445  0.019424369            4 
  334000   0.73209578    -7.633986    76.563704  0.019102721  0.019363199            5 
  335000   0.74848295   -7.6454426    76.724222  0.019085627  0.019302406            3 
  336000   0.73523886   -7.6584984    76.644793  0.019009125  0.019242148            5 
  337000   0.74083567   -7.6751883    76.750881  0.018978952  0.019181741            5 
  338000   0.73607817   -7.6506445    76.975512  0.018978183  0.019121793            4 
  339000   0.73023903   -7.6853608     76.96257  0.018919019  0.019061767            3 
  340000   0.71392972   -7.6848509    76.827915  0.018830371  0.019001712            4 
  341000    0.7257537    -7.661693    76.914634  0.018796342  0.018942031            5 
  342000   0.70919776   -7.6715011     77.17506  0.018804839   0.01888259            7 
  343000   0.72069248   -7.6471432    76.956499  0.018696914  0.018823177            5 
  344000   0.72562627   -7.6952263    77.054465  0.018666295  0.018763605            8 
  345000   0.71528678    -7.706021    76.872879  0.018568328  0.018703966            3 
  346000    0.7077913   -7.7004361    77.070129   0.01856217  0.018644886            3 
  347000   0.71705316   -7.7150954    76.953538  0.018480677  0.018585799            6 
  348000   0.70818176   -7.7201986    77.140896  0.018472437  0.018526846            6 
  349000   0.71627976   -7.6956389    77.002358  0.018386427    0.0184679            4 
  350000   0.71052453   -7.7134652    77.033013  0.018341194  0.018409096            5 
  351000    0.6947248   -7.7252287    77.212976  0.018331666  0.018350498            3 
  352000   0.70011274   -7.7190529    77.205924  0.018277918  0.018292433            4 
  353000   0.70390718   -7.7083983    77.173804  0.018218556  0.018234492            4 
  354000   0.69921874    -7.729076    77.162098  0.018164336  0.018176521            4 
  355000   0.70457557   -7.7247444    77.144063  0.018108935  0.018118766            4 
  356000   0.70371459   -7.6928049    77.398543  0.018117636  0.018061404            7 
  357000   0.69982168   -7.7113055    77.319173   0.01804836  0.018004259            3 
  358000   0.69410995   -7.7155123    77.316182  0.017997249  0.017947215            9 
  359000   0.68976241   -7.7187049    77.301954  0.017943815  0.017890692            3 
  360000    0.6867558   -7.7618394    77.498871  0.017939553  0.017834592           10 
  361000    0.6963037   -7.7266416    77.513106  0.017893145  0.017778443            7 
  362000   0.66865719   -7.7453142    77.539781  0.017849858  0.017722539            3 
  363000    0.6989286   -7.7342283    77.583444  0.017810708    0.0176668            8 
  364000   0.69969153   -7.7557323     77.66701  0.017780909  0.017611429            6 
  365000   0.69961596    -7.756834    77.539976  0.017703191  0.017556171            5 
  366000   0.68374186   -7.7878928    77.763389   0.01770569  0.017500901            5 
  367000   0.68174263   -7.7421653    77.574845  0.017614633  0.017445925            5 
  368000   0.68030192   -7.7922276    77.673055  0.017589007  0.017391049            4 
  369000   0.69075761    -7.800305    77.506257  0.017503671  0.017336268            3 
  370000    0.6756245   -7.7818302    77.706939  0.017501563  0.017281781            4 
  371000   0.66468136   -7.7800493    77.548579  0.017418818  0.017227357            3 
  372000   0.68245381   -7.7985497    77.653626  0.017395525  0.017172946            6 
  373000   0.67836138   -7.8240544    77.635916  0.017344932   0.01711863            4 
  374000   0.68082491   -7.7976031    77.631004  0.017297461  0.017064596            8 
  375000   0.67269754   -7.8288038    77.733126  0.017274028  0.017010559            5 
  376000    0.6572869   -7.7945268    77.716532  0.017224409  0.016956738            3 
  377000   0.66355893   -7.8145039    77.445453    0.0171188  0.016902916            4 
  378000    0.6724893   -7.8086235    77.553009  0.017097224  0.016849138            6 
  379000   0.65649168   -7.8145606    77.671799  0.017078232  0.016795752            5 
  380000   0.65820484   -7.8044249    77.765627  0.017053866  0.016742653            4 
  381000   0.64586529   -7.8303204    77.575963  0.016967621  0.016689489            4 
  382000   0.64880428   -7.8163767    77.733741  0.016957622  0.016636628            5 
  383000   0.65144065   -7.8221618     77.72535  0.016911521  0.016584149            3 
  384000   0.65767663   -7.8375546    77.655241  0.016852266  0.016531609            7 
  385000    0.6478101   -7.8131347    77.798632  0.016839531  0.016479236            5 
  386000   0.64954496   -7.8272987    77.762434   0.01678809  0.016427183            5 
  387000   0.63793519   -7.8453052    77.686971  0.016728461   0.01637511            5 
  388000   0.63802667   -7.8389342    77.656872  0.016678881  0.016323002            7 
  389000   0.63134442   -7.8600635    77.856811  0.016678837  0.016271226           17 
  390000   0.64836273   -7.8469257    77.805184  0.016625039  0.016219673            3 
  391000   0.63542885   -7.8570428    77.692394  0.016558481  0.016168353            7 
  392000   0.61885273   -7.8491784    77.781808  0.016535248   0.01611735            9 
  393000   0.64646127   -7.8585189    77.871673  0.016512229  0.016066801           10 
  394000   0.64144674   -7.8466749    78.043548  0.016506672  0.016016194            4 
  395000   0.63290195   -7.8604544    77.951494  0.016445463  0.015965793            8 
  396000   0.63860919   -7.8593292    78.021765  0.016418721  0.015915587           14 
  397000   0.63431033   -7.8649215    77.867179  0.016344916   0.01586567            7 
  398000   0.65108182   -7.8457904    77.961407  0.016323578    0.0158157           16 
  399000   0.63392718   -7.8955288    78.010743  0.016292971  0.015766103           13 
  400000   0.63474318   -7.8875169    77.993606  0.016248668  0.015716634           15 
  401000   0.62235894    -7.865182    78.089466  0.016228069  0.015667132            7 
  402000   0.62278117   -7.8868761    77.943099  0.016157359  0.015617751            7 
  403000   0.62565747   -7.9052283    77.992531  0.016127488  0.015568381            8 
  404000   0.61480016   -7.8904527    77.890577  0.016066538  0.015519174            5 
  405000    0.6178575   -7.9061125    77.874682  0.016023597  0.015470251            4 
  406000   0.61488043   -7.9039424    77.877357  0.015984679  0.015421439           11 
  407000   0.61730255   -7.9174297    77.906697  0.015951412  0.015372728            5 
  408000   0.63174194   -7.8988896    77.916116  0.015914239  0.015324356            6 
  409000    0.6148186    -7.888925    77.970032  0.015886315  0.015276086            4 
  410000   0.61264157   -7.9443714    77.813618  0.015815776  0.015227703            4 
  411000   0.62074121   -7.9325255    77.908741  0.015796582  0.015179511            3 
  412000   0.60202056   -7.9393927    77.797957  0.015735833  0.015131425            7 
  413000   0.60206847    -7.918216    78.021174  0.015742771  0.015083198            5 
  414000   0.60515126   -7.9449563    77.721752  0.015644475  0.015035141            5 
  415000   0.61804052   -7.9429532    77.834089  0.015629335  0.014987379            6 
  416000    0.5900763   -7.9473919    77.790509  0.015583035  0.014939778            4 
  417000   0.59796755   -7.9433346    77.785527   0.01554467  0.014892268            7 
  418000   0.59793604   -7.9390828    77.835714  0.015517487   0.01484508            6 
  419000   0.60271637   -7.9523689    77.742942  0.015462001  0.014797852            5 
  420000   0.59386621   -7.9247313    77.892656  0.015454892  0.014750893            5 
  421000    0.5890539   -7.9571053    77.770053  0.015393914  0.014704069            6 
  422000   0.60683081   -7.9283261    77.752152    0.0153539   0.01465723            9 
  423000   0.59847284   -7.9026729    77.714883  0.015310261  0.014610653            7 
  424000   0.58953203   -7.9439505    77.726139  0.015276364  0.014564154            4 
  425000   0.59243959   -7.9516809    77.826831  0.015260163  0.014517695            3 
  426000   0.58507323   -7.9636394    77.828995  0.015224764  0.014471395            8 
  427000   0.60018802    -7.964881    77.848925  0.015192999  0.014425384            7 
  428000   0.58901534   -7.9437291    77.832147  0.015154234  0.014379416            6 
  429000   0.58201093   -7.9735532    77.767883  0.015106426  0.014333605            6 
  430000   0.58256172   -7.9754612    77.573487  0.015033621  0.014287953            5 
  431000   0.57579861   -7.9831313    77.776851  0.015038061  0.014242335            5 
  432000   0.56713347   -7.9939376     77.61683  0.014972382  0.014196851            7 
  433000   0.57271926   -7.9945383    77.679767  0.014949917  0.014151564            4 
  434000   0.57820202   -7.9863099    77.731397  0.014925383  0.014106473           10 
  435000   0.56145301    -7.991875    77.704336  0.014885888  0.014061522            7 
  436000   0.57309435   -8.0019959    77.680344   0.01484716  0.014016734            6 
  437000   0.55993073   -8.0237775    77.631144  0.014803803  0.013971981            5 
  438000   0.57953754    -7.990002      77.5505  0.014754661  0.013927388           12 
  439000   0.57240174   -8.0154256     77.57168  0.014725072  0.013882944            5 
  440000   0.58261561   -8.0497752    77.607545  0.014698399  0.013838577           16 
  441000   0.54835773     -8.03673    77.593256  0.014662369  0.013794348            6 
  442000   0.55210232   -8.0449867    77.595811  0.014629678  0.013750293            6 
  443000   0.55017013   -8.0362231    77.506804   0.01457991  0.013706295            3 
  444000   0.55126366   -8.0270906    77.559815  0.014557022  0.013662509            6 
  445000   0.55595946   -8.0633575    77.656217  0.014542363  0.013618924           14 
  446000   0.55468675   -8.0542138    77.516704  0.014483689  0.013575531            8 
  447000   0.54486546    -8.041541    77.437686  0.014436556  0.013532201            4 
  448000   0.54552678   -8.0513937    77.486821  0.014413471  0.013488988           14 
  449000   0.55277138   -8.0310136    77.273433  0.014341766  0.013445856            5 
  450000   0.56356764   -8.0377531    77.534494   0.01435824  0.013402941            7 
  451000   0.54381253   -8.0681119    77.472516  0.014314951  0.013360178            6 
  452000   0.54886427   -8.0563811    77.569428  0.014301148  0.013317548           11 
  453000   0.54134038   -8.0369574    77.479826  0.014253095  0.013275146            5 
  454000   0.53209998    -8.072206    77.471063  0.014220092  0.013232802           11 
  455000   0.53058875   -8.0761635    77.397073  0.014175288  0.013190573            6 
  456000   0.53508732   -8.0789358    77.417687  0.014147969  0.013148441           11 
  457000   0.54357375   -8.0905074    77.475731  0.014127595   0.01310647           11 
  458000   0.53102249   -8.0902213    77.455381  0.014093046  0.013064613            8 
  459000    0.5280033   -8.0837551     77.32203  0.014038132  0.013022844           10 
  460000   0.53739713   -8.0898281    77.486137  0.014037344   0.01298131           11 
  461000   0.51799388   -8.0753532    77.469382  0.014003865  0.012939961            8 
  462000   0.51424662   -8.0745559    77.477084  0.013974943   0.01289883            7 
  463000   0.51671147   -8.0962657    77.395144  0.013930011  0.012857758            9 
  464000    0.5245893   -8.1075105     77.39997  0.013900857  0.012816785            6 
  465000   0.53239295   -8.1050631    77.296887  0.013852489  0.012776091            5 
  466000    0.5183518   -8.1047343    77.310702  0.013825233  0.012735469            8 
  467000   0.51971533   -8.1103594     77.31258  0.013795964  0.012694955            8 
  468000   0.51784371   -8.1027247    77.212049  0.013748584  0.012654573           11 
  469000   0.52635778   -8.0926301    77.385182  0.013750032   0.01261435           19 
  470000   0.51149684   -8.1088807    77.237787  0.013694643  0.012574292           13 
  471000   0.52378327   -8.1051042    77.234417  0.013664971  0.012534298           10 
  472000   0.52078912     -8.11067    77.278767   0.01364385  0.012494473           16 
  473000   0.51140254   -8.1226043    77.308116  0.013620176  0.012454717           12 
  474000   0.51500641    -8.124265     77.17376   0.01356782  0.012415151           20 
  475000   0.51339558   -8.1288012    77.203703  0.013544509   0.01237576           12 
  476000   0.49314498   -8.1166801    77.223971  0.013519603  0.012336546           14 
  477000   0.49841216   -8.1219661    77.379282  0.013518393  0.012297462            9 
  478000   0.49800181   -8.1278709     77.23802  0.013465485  0.012258568           12 
  479000   0.49973025   -8.1310204    77.193329  0.013429598  0.012219771           18 
  480000   0.51032766   -8.1271687    77.176891  0.013398766  0.012181138           17 
  481000   0.50180364   -8.1571584    77.170239  0.013369757  0.012142536            9 
  482000   0.49867683   -8.1524769    77.281588   0.01336127  0.012104058           10 
  483000    0.4965002   -8.1436929    77.052318  0.013294051  0.012065719           15 
  484000   0.48726002   -8.1265183    77.061678  0.013268195  0.012027526           25 
  485000   0.49852373   -8.1522735    77.159136  0.013257584  0.011989494           18 
  486000   0.50377805    -8.137204    77.106928  0.013221352   0.01195158            4 
  487000   0.49583857   -8.1639182    77.020673  0.013179444  0.011913736            4 
  488000   0.48781739   -8.1550995    76.954131  0.013141074  0.011876038            8 
  489000   0.49103982   -8.1463773    77.088393  0.013137081  0.011838529            7 
  490000   0.48258602   -8.1509037    77.085329   0.01310975  0.011801174           18 
  491000   0.48725438   -8.1458713    77.137158  0.013091846  0.011764007           13 
  492000   0.48617065   -8.1731606    76.999127  0.013041857  0.011726942           17 
  493000   0.47515095   -8.1600444    77.094565  0.013031536  0.011690097           10 
  494000   0.47768571   -8.1557386    77.216883   0.01302579  0.011653393            6 
  495000   0.48152816   -8.1754355    77.056791  0.012972524  0.011616832           11 
  496000   0.48522852   -8.1969395    77.144385  0.012961086  0.011580427            8 
  497000    0.4864769   -8.1697778    77.012554  0.012912903  0.011544148            8 
  498000   0.46923498   -8.1622416    76.949254  0.012876381  0.011507983           10 
  499000    0.4712173   -8.1960631    77.013082  0.012861236  0.011471913            9 
  500000   0.47063888   -8.1771862    77.024604  0.012837434  0.011435939           11 
  501000   0.47300359   -8.1864909    77.079037  0.012820864   0.01140015            9 
  502000   0.47272537    -8.189936    76.983922  0.012779535  0.011364461            6 
  503000   0.46739237   -8.1775523    76.918903  0.012743357  0.011328921           13 
  504000   0.46122096   -8.1925529    77.075962  0.012744041  0.011293481           13 
  505000     0.455659   -8.2048004    76.951177  0.012698214  0.011258167           16 
  506000   0.46385404   -8.1972432    77.006655  0.012682255  0.011223008            4 
  507000   0.45829229   -8.2226769    77.006909  0.012657283  0.011187947            6 
  508000   0.45207512   -8.2134376     76.88105  0.012611721  0.011153056           11 
  509000    0.4575514   -8.1961054    76.884166  0.012587454  0.011118332            4 
  510000   0.44754191    -8.204222     76.89782  0.012565003  0.011083688           15 
  511000   0.46035188   -8.2119754    76.906284  0.012541795  0.011049169           15 
  512000    0.4595889   -8.2112872    76.848714  0.012507929    0.0110148           15 
Loop time of 1135.48 on 48 procs for 500000 steps with 4000 atoms

Performance: 76091.277 tau/day, 440.343 timesteps/s
99.4% CPU use with 48 MPI tasks x no OpenMP threads

MPI task timing breakdown:
Section |  min time  |  avg time  |  max time  |%varavg| %total
---------------------------------------------------------------
Pair    | 70.482     | 75.092     | 79.015     |  25.5 |  6.61
Neigh   | 7.333      | 7.6672     | 7.9964     |   5.6 |  0.68
Comm    | 67.505     | 72.468     | 78.117     |  30.6 |  6.38
Output  | 0.84131    | 0.84168    | 0.84956    |   0.1 |  0.07
Modify  | 966.57     | 968.84     | 970.85     |   3.8 | 85.32
Other   |            | 10.57      |            |       |  0.93

Nlocal:        83.3333 ave          90 max          72 min
Histogram: 1 0 1 2 6 7 13 10 4 4
Nghost:        1929.81 ave        1965 max        1904 min
Histogram: 3 5 7 6 9 7 8 2 0 1
Neighs:        12207.9 ave       13572 max       10317 min
Histogram: 1 1 2 4 8 10 7 7 3 5
FullNghs:      24415.1 ave       26378 max       20893 min
Histogram: 1 0 1 3 7 6 10 9 5 6

Total # of neighbors = 1171926
Ave neighs/atom = 292.98150
Neighbor list builds = 26852
Dangerous builds = 0

#clear
#
#next RN
#
#jump SELF
Total wall time: 0:18:58
