
units lj                  # Use reduced LJ style units
atom_style atomic         # Uncharged point particles
atom_modify map hash      # Needed for indexing of clusters etc
                          # Used to be able to find where atoms are in relation to each other.

lattice fcc 1.0 spacing 1 1 1
Lattice spacing in x,y,z = 1.5874011 1.5874011 1.5874011
region box block 0 10 0 10 0 10 units lattice
create_box 2 box
Created orthogonal box = (0.0000000 0.0000000 0.0000000) to (15.874011 15.874011 15.874011)
  3 by 4 by 4 MPI processor grid
create_atoms 1 box
Created 4000 atoms
  using lattice units in orthogonal box = (0.0000000 0.0000000 0.0000000) to (15.874011 15.874011 15.874011)
  create_atoms CPU = 0.002 seconds
set type 1 type/fraction 2 0.46 78393
Setting atom values ...
  1843 settings made for type/fraction
mass 1 1.0
mass 2 1.0
pair_style lj/cut  3.5
pair_modify tail  yes
pair_coeff 1  1  1.0  1.0   # Intearaction between 1 and 1 set with epsilon = 1 and sigma = 1
pair_coeff 1  2  1.5  0.8
pair_coeff 2  2  0.5  0.88

write_data data.0
System init for write_data ...
Neighbor list info ...
  update every 1 steps, delay 10 steps, check yes
  max neighbors/atom: 2000, page size: 100000
  master list distance cutoff = 3.8
  ghost atom cutoff = 3.8
  binsize = 1.9, bins = 9 9 9
  1 neighbor lists, perpetual/occasional/extra = 1 0 0
  (1) pair lj/cut, perpetual
      attributes: half, newton on
      pair build: half/bin/atomonly/newton
      stencil: half/bin/3d
      bin: standard
WARNING: Not all mixed pair coeffs generated from mixing. Use write_data with 'pair ij' option to store all pair coeffs. (../write_data.cpp:312)


#############################
#   M E L T   S Y S T E M   #
#############################

velocity all create 2.4 9580093 mom yes dist gaussian # Assign velocities
                                                    # Temperature 2.4, random number seed, zero linear momentum
                                                                                # Gaussian distribution

timestep 0.002   # simulation timestep
thermo 1000       # output thermodynamic data every 1000 steps bf 100

# Define a fix  in this case with index 1 applied to all
# particles in the simulation. This fix is for simulations
# in the anisotropic NPT ensemble. Note that we use the MTK
# correction.
fix 1 all npt temp 2.4 2.4 0.1 iso 5.68 5.68 0.5 mtk yes tchain 5 pchain 5 # Use NPT ensemble
                                                                         # Set temperature and pressure and damping
                                                                         # Numbers of thermostats in chain and in barostat
run 10000          # run for 10000 steps
Per MPI rank memory allocation (min/avg/max) = 3.642 | 3.644 | 3.648 Mbytes
Step Temp E_pair E_mol TotEng Press Volume 
       0          2.4   -5.5244938            0   -1.9253938   -4.2019961         4000 
    1000    2.4298487   -4.9543002            0   -1.3104383    5.6339081    3782.3781 
    2000    2.4081966   -4.8800092            0   -1.2686175    5.6450858    3813.8293 
    3000    2.3797083   -4.9410361            0    -1.372366    5.4690114    3797.5095 
    4000    2.4214756    -4.935095            0   -1.3037897    5.8359476    3774.8497 
    5000    2.4843691   -5.0120429            0   -1.2864209    6.0565042    3720.4309 
    6000    2.3859547   -4.9974938            0   -1.4194564    5.2695782    3784.5199 
    7000     2.332025   -5.0017493            0   -1.5045863    5.3547324    3764.4069 
    8000    2.4062996   -5.0335092            0   -1.4249622    5.7768628     3735.424 
    9000    2.3608799   -4.9837143            0   -1.4432798    5.3054371    3784.6208 
   10000    2.4122308   -4.9747026            0    -1.357261    5.7501643    3767.7516 
Loop time of 2.57736 on 48 procs for 10000 steps with 4000 atoms

Performance: 670453.379 tau/day, 3879.939 timesteps/s
99.6% CPU use with 48 MPI tasks x no OpenMP threads

MPI task timing breakdown:
Section |  min time  |  avg time  |  max time  |%varavg| %total
---------------------------------------------------------------
Pair    | 1.1602     | 1.229      | 1.3524     |   3.2 | 47.68
Neigh   | 0.21195    | 0.2208     | 0.24059    |   1.0 |  8.57
Comm    | 0.74493    | 0.8704     | 0.97711    |   4.9 | 33.77
Output  | 0.00024576 | 0.00025344 | 0.00032152 |   0.0 |  0.01
Modify  | 0.20352    | 0.24131    | 0.29106    |   5.4 |  9.36
Other   |            | 0.0156     |            |       |  0.61

Nlocal:        83.3333 ave          91 max          75 min
Histogram: 2 4 0 7 9 10 6 2 5 3
Nghost:        1709.96 ave        1728 max        1676 min
Histogram: 1 2 0 4 4 8 8 4 9 8
Neighs:        10130.8 ave       11256 max        8767 min
Histogram: 1 1 3 8 7 12 4 5 4 3

Total # of neighbors = 486279
Ave neighs/atom = 121.56975
Neighbor list builds = 907
Dangerous builds = 216

# Equilibrate just above the melting temperature to avoid step fn in T

fix 1 all npt temp 1.25 1.25 0.1 iso 5.68 5.68 0.5 mtk yes tchain 5 pchain 5
run 2000
Per MPI rank memory allocation (min/avg/max) = 3.644 | 3.645 | 3.649 Mbytes
Step Temp E_pair E_mol TotEng Press Volume 
   10000    2.4122308   -4.9747026            0    -1.357261    5.7501643    3767.7516 
   11000    1.2339727   -7.0385501            0   -5.1880537    5.4855168    2965.3311 
   12000    1.1971821    -7.105812            0   -5.3104878    5.7144522    2937.5221 
Loop time of 0.636498 on 48 procs for 2000 steps with 4000 atoms

Performance: 542971.080 tau/day, 3142.194 timesteps/s
99.6% CPU use with 48 MPI tasks x no OpenMP threads

MPI task timing breakdown:
Section |  min time  |  avg time  |  max time  |%varavg| %total
---------------------------------------------------------------
Pair    | 0.28056    | 0.30899    | 0.36021    |   2.4 | 48.55
Neigh   | 0.03924    | 0.042116   | 0.048819   |   0.6 |  6.62
Comm    | 0.18175    | 0.23617    | 0.26458    |   3.0 | 37.10
Output  | 5.1059e-05 | 5.2301e-05 | 7.0064e-05 |   0.0 |  0.01
Modify  | 0.038904   | 0.044227   | 0.050093   |   1.5 |  6.95
Other   |            | 0.004947   |            |       |  0.78

Nlocal:        83.3333 ave          89 max          72 min
Histogram: 1 0 1 2 4 9 6 17 3 5
Nghost:        2023.85 ave        2038 max        2007 min
Histogram: 1 6 2 3 8 5 8 9 4 2
Neighs:        13010.6 ave       14357 max       10537 min
Histogram: 1 0 0 4 8 2 9 18 4 2

Total # of neighbors = 624510
Ave neighs/atom = 156.12750
Neighbor list builds = 141
Dangerous builds = 11

#############################
# L I N E A R  Q U E N C H  #
#############################

# Define solid atoms. This closely follows ten Wolde  Ruiz-Montero and Frenkel  Faraday Discuss  1996  104  93-110
# Compute components of the per-atom q6 vector
compute q6 all orientorder/atom degrees 1 6 components 6 nnn NULL cutoff 1.3 # compute the Q6 parameter.
                                                                             # Use all neighbours within 1.3 unit cell.

# get number of connections
compute coord_number all coord/atom orientorder q6 0.5

# An atom is solid if it has 8 or more connections (of a possible 14)
variable is_solid atom c_coord_number>=8
group solid dynamic all var is_solid    # Must be dynamic to update
dynamic group solid defined

# do clustering
compute cluster solid cluster/atom 1.3 # Create a cluster where all atoms within are solid and max 1.3 units from another member

# define chunks one chunk per cluster
compute clus_chunks solid chunk/atom c_cluster nchunk every compress yes  # Says which atoms are in which chunk

# count the size of each chunk
compute size_chunks solid property/chunk clus_chunks count


# Find the maximum entry in the vector of chunk sizes
variable max_n equal max(c_size_chunks)


# Thermo style which includes this variable
# thermo_style custom step temp pe vol v_max_n

thermo ${N}  # Print the thermo information every 100 steps
thermo 1000  

# Reset the npt fix at a lower temperature (below freezing)
fix 1  all npt temp  ${temp} ${temp}  0.1  iso  5.68  5.68  0.5  mtk yes tchain  5  pchain  5
fix 1  all npt temp  0.45 ${temp}  0.1  iso  5.68  5.68  0.5  mtk yes tchain  5  pchain  5
fix 1  all npt temp  0.45 0.45  0.1  iso  5.68  5.68  0.5  mtk yes tchain  5  pchain  5

dump dmp2 all dcd ${N} traj.dcd
dump dmp2 all dcd 1000 traj.dcd


compute msd all msd com yes
variable twopoint equal c_msd[4]/6/(step*dt+1.0e-6)
fix 9 all vector 10 c_msd[4]
variable fit equal slope(f_9)/6/(10*dt)
thermo_style custom step temp pe c_msd[4] v_twopoint v_fit v_max_n

fix 1 all npt temp 1.25 ${temp} 0.1 iso 5.68 5.68 0.5 mtk yes tchain 5 pchain 5
fix 1 all npt temp 1.25 0.45 0.1 iso 5.68 5.68 0.5 mtk yes tchain 5 pchain 5
run 500000 # 5000000  # Run for this many steps
Neighbor list info ...
  update every 1 steps, delay 10 steps, check yes
  max neighbors/atom: 2000, page size: 100000
  master list distance cutoff = 3.8
  ghost atom cutoff = 3.8
  binsize = 1.9, bins = 8 8 8
  4 neighbor lists, perpetual/occasional/extra = 1 3 0
  (1) pair lj/cut, perpetual
      attributes: half, newton on
      pair build: half/bin/atomonly/newton
      stencil: half/bin/3d
      bin: standard
  (2) compute orientorder/atom, occasional
      attributes: full, newton on
      pair build: full/bin/atomonly
      stencil: full/bin/3d
      bin: standard
  (3) compute coord/atom, occasional
      attributes: full, newton on
      pair build: full/bin/atomonly
      stencil: full/bin/3d
      bin: standard
  (4) compute cluster/atom, occasional
      attributes: full, newton on
      pair build: full/bin/atomonly
      stencil: full/bin/3d
      bin: standard
Per MPI rank memory allocation (min/avg/max) = 9.833 | 9.839 | 9.843 Mbytes
Step Temp PotEng c_msd[4] v_twopoint v_fit v_max_n 
   12000    1.1971821    -7.105812 9.8785107e-31 6.8600766e-33 8.3333333e+20            1 
   13000    1.2452588   -7.1179827   0.44095011 0.0028266032  0.035929863            2 
   14000    1.2403135   -7.1039912   0.83270732  0.004956591  0.033612134            4 
   15000    1.2401248   -7.1755231    1.2590033 0.0069944625  0.033668785            1 
   16000    1.2076455   -7.1538936     1.652121 0.0086047968  0.033871873            2 
   17000    1.2478833   -7.1995198    2.0138352 0.0098717409  0.033448795            1 
   18000    1.2331195    -7.174406    2.3965032  0.011094922  0.032998033            1 
   19000    1.2392551   -7.1811799    2.7636595  0.012121313  0.032747347            3 
   20000    1.2613541   -7.1800325    3.1758416  0.013232673  0.032561815            1 
   21000    1.2434196    -7.199908    3.6023637  0.014295094  0.032655904            2 
   22000    1.2383155   -7.1882727    3.9882147  0.015106873  0.032683254            1 
   23000    1.2311543   -7.1725989    4.3392652  0.015721975  0.032654343            1 
   24000    1.2215239   -7.1710428    4.7181986  0.016382634  0.032554564            3 
   25000    1.2345256   -7.1720718    5.0769294  0.016923098  0.032442284            3 
   26000    1.2657013    -7.211371    5.4747379  0.017547237  0.032386357            2 
   27000    1.2334738   -7.1874634    5.8819638  0.018154209  0.032288276            1 
   28000    1.2218177    -7.166388    6.3550911  0.018913961  0.032353547            4 
   29000    1.2215078   -7.1557178    6.7345941  0.019352282   0.03249762            1 
   30000    1.2174878   -7.1742978    7.0668656  0.019630182  0.032520265            3 
   31000    1.2487508   -7.2093244    7.4321833  0.019978987  0.032466829            1 
   32000     1.216505   -7.2004631    7.8163706  0.020355131  0.032428877            2 
   33000    1.2177591   -7.2362513    8.2450996  0.020820958  0.032391016            2 
   34000    1.2400854    -7.223456    8.6480746  0.021196261  0.032425804            2 
   35000    1.2361648   -7.2377777    9.0293739  0.021498509  0.032473381            2 
   36000    1.2053793   -7.2381794    9.4306549  0.021830219  0.032478729            3 
   37000    1.2220854   -7.2401306     9.849171  0.022182817  0.032487836            1 
   38000    1.2032722   -7.2262236    10.178025  0.022320229  0.032489287            4 
   39000     1.224895   -7.2214899    10.593019  0.022634655  0.032460032            2 
   40000     1.178264    -7.258117    10.765355  0.022427822  0.032392275            3 
   41000    1.1880519   -7.2950271    11.034342  0.022427524  0.032246254            4 
   42000    1.2123738   -7.2036172    11.441292  0.022700977   0.03209268            5 
   43000    1.1820655   -7.2286125    11.719878  0.022712941  0.031945903            1 
   44000    1.1942641   -7.2820032    11.967987  0.022666642  0.031759297            3 
   45000    1.1824293   -7.2859833     12.34039  0.022852574  0.031591502            2 
   46000    1.1986344   -7.3042171    12.701832  0.023010566   0.03144033            1 
   47000    1.2119664    -7.348934    13.089158  0.023207727  0.031317636            2 
   48000    1.1933577   -7.2870681    13.392287  0.023250497  0.031201589            1 
   49000    1.1886675   -7.2870749    13.759426  0.023400385  0.031089601            2 
   50000    1.1922316   -7.2529961    14.162036  0.023603393  0.030995145            1 
   51000     1.181193    -7.297434    14.478187  0.023657169  0.030916405            2 
   52000    1.2058859   -7.2469889    14.872892  0.023834763  0.030847673            2 
   53000    1.1627371   -7.3147645    15.232736  0.023950843   0.03079299            2 
   54000    1.1853005   -7.3223371    15.581416  0.024045395  0.030729616            1 
   55000    1.1509048   -7.2937557    15.913056   0.02411069  0.030654749            5 
   56000    1.1704518   -7.3196467    16.205189  0.024114864  0.030591192            5 
   57000    1.1790427   -7.3300708    16.499271  0.024121741  0.030518353            2 
   58000    1.1803162   -7.3392599    16.937036  0.024334822  0.030457204            2 
   59000    1.1475912   -7.4035613    17.132885   0.02419899   0.03039693            5 
   60000    1.1945194   -7.3051352    17.608317  0.024455996  0.030335913            2 
   61000    1.1780009   -7.3606835     17.92309  0.024485095  0.030287001            6 
   62000    1.1520532   -7.3374606    18.201506   0.02446439  0.030237143            1 
   63000    1.1702916   -7.3682313    18.590281  0.024590319  0.030174298            2 
   64000    1.1702578   -7.3703041    18.803853  0.024484183  0.030117608            2 
   65000    1.1574229   -7.3595461    19.052637  0.024426458  0.030049228            1 
   66000    1.1282237   -7.3394312    19.573454  0.024713957  0.029980219            1 
   67000    1.1657734   -7.3524305    19.817377  0.024648479  0.029924458            2 
   68000    1.1726258   -7.3799667    20.143372  0.024685504  0.029867501            2 
   69000    1.1680895   -7.3793728    20.492072  0.024748879  0.029804913            4 
   70000    1.1901312   -7.3458123    20.754923  0.024708241  0.029737764            2 
   71000    1.1761029   -7.3749627    21.059251   0.02471743  0.029667888            1 
   72000    1.1431897   -7.4014618    21.240202  0.024583567  0.029595107            2 
   73000    1.1679185   -7.3829562    21.595232  0.024652091  0.029523268            1 
   74000    1.1666537   -7.3770099    21.989103  0.024762503  0.029455866            2 
   75000    1.1563058   -7.4124777    22.019741  0.024466379  0.029377554            1 
   76000    1.1504796   -7.3738254    22.434078   0.02459877  0.029289375            2 
   77000    1.1290897   -7.4102666    22.769855    0.0246427   0.02921064            2 
   78000    1.1618023   -7.4348394    22.941994  0.024510677  0.029128682            4 
   79000    1.1555676   -7.3648936    23.308132  0.024586637  0.029045528            1 
   80000    1.1535743   -7.4003368    23.556744  0.024538275  0.028965122            2 
   81000    1.1144793   -7.4147332     23.76584  0.024450453  0.028886065            1 
   82000    1.1420808   -7.4181587    24.061052  0.024452289  0.028797353            3 
   83000    1.1372999   -7.4372544     24.33662  0.024434358  0.028706854            2 
   84000    1.1225974   -7.4029297    24.706912  0.024510825  0.028615622            2 
   85000    1.1299425   -7.4944557    24.858408  0.024370988  0.028531143            1 
   86000    1.1454662   -7.4186131    25.138777   0.02435928    0.0284432            3 
   87000    1.1340112   -7.4621858    25.464838  0.024391607  0.028360411            1 
   88000    1.1205641   -7.4645853    25.618497   0.02425994  0.028275048            2 
   89000    1.0900561   -7.4620491    25.866598  0.024219661  0.028188825            3 
   90000     1.121058   -7.4344764     26.30852   0.02435974  0.028105698            1 
   91000     1.137137    -7.483738    26.460165   0.02423092  0.028024911            2 
   92000    1.1167231   -7.4091861    26.837538  0.024309364  0.027947096            2 
   93000    1.1151883   -7.4327551    27.299716  0.024462111  0.027871226            1 
   94000    1.1006338   -7.4174062    27.336668  0.024234635  0.027792082            1 
   95000    1.0991874   -7.4356562    27.605425  0.024215285  0.027715158            5 
   96000    1.1347919   -7.4429795    27.780722   0.02411521  0.027638183            2 
   97000    1.1198083   -7.4892362    27.973721  0.024032406  0.027552337            2 
   98000    1.1113249   -7.4565504    28.251233  0.024023157   0.02746651            2 
   99000    1.1139803   -7.4960724    28.481431  0.023974269  0.027377736            1 
  100000    1.1078656   -7.5002516    28.635657  0.023863048  0.027287192            1 
  101000      1.10466   -7.4811286    28.980837  0.023911582  0.027200456            1 
  102000     1.090235   -7.4899843    29.085727  0.023762849  0.027111469            4 
  103000    1.1008214   -7.5083911    29.328038  0.023728186  0.027023114            1 
  104000    1.0819801   -7.4791883    29.624361  0.023737469  0.026934653            4 
  105000    1.1333423    -7.510436    29.789936  0.023642807  0.026846131            1 
  106000    1.0757449    -7.508165    30.076273  0.023644869  0.026760711            1 
  107000    1.0824156   -7.5220996    30.260407  0.023567295  0.026674815            3 
  108000    1.0762375   -7.5099884    30.594477  0.023606849  0.026590489            1 
  109000    1.1001212   -7.5327966    30.773371  0.023527042  0.026507362            3 
  110000    1.1154636   -7.5130164    31.026977  0.023505286  0.026425492            1 
  111000    1.0898994   -7.5584533    31.213942   0.02343389  0.026342775            2 
  112000    1.0892982   -7.5688207     31.46569  0.023411972  0.026257344            2 
  113000    1.0941738   -7.5464803    31.767944  0.023427687  0.026177314            7 
  114000    1.0698352   -7.5415548    31.900123  0.023318803  0.026097941            1 
  115000    1.0944962   -7.5681095    32.073917  0.023241969  0.026017866            2 
  116000    1.0610485   -7.5867475    32.157306  0.023101513  0.025931287            1 
  117000    1.0855157   -7.5632316    32.312484   0.02301459  0.025843755            3 
  118000    1.0964011   -7.6078705    32.537947  0.022978776  0.025755603            2 
  119000    1.0932207   -7.5370578    32.718813  0.022912334  0.025664223            1 
  120000    1.0571009   -7.5555977    32.864342   0.02282246  0.025570032            2 
  121000    1.0544655   -7.6273258      32.9332  0.022681267  0.025472467            2 
  122000    1.0794549   -7.5767207    33.333415  0.022768726  0.025378551            2 
  123000    1.0785719   -7.5543659    33.530132  0.022716891  0.025289452            1 
  124000    1.0832015   -7.5837769    33.672814  0.022629579  0.025200186            2 
  125000    1.0950798   -7.6131343    33.942662  0.022628441  0.025110532            1 
  126000    1.0811304   -7.6073514    34.094111  0.022549015  0.025025105            4 
  127000     1.057649   -7.6139596    34.330798   0.02252677  0.024939429            3 
  128000    1.0491255   -7.5786663    34.581307  0.022513872  0.024854401            5 
  129000    1.0662813   -7.6066187    34.739523  0.022441552  0.024770962            3 
  130000    1.0671602   -7.5864762    35.088329  0.022492519  0.024691295            2 
  131000    1.0541172   -7.6598651    35.239768  0.022417155  0.024615715            3 
  132000    1.0533213    -7.639499    35.398998  0.022347852   0.02453944            3 
  133000    1.0543414    -7.617826    35.738663  0.022392646  0.024464379            3 
  134000    1.0698704   -7.5895947    35.989318  0.022381417  0.024390635            4 
  135000    1.0583594   -7.6630456    36.228581  0.022363321  0.024320025            2 
  136000    1.0668675    -7.622969    36.537946  0.022388447  0.024251324            2 
  137000    1.0615269   -7.6979669    36.436173  0.022163122  0.024180022            2 
  138000    1.0531744   -7.6370591    36.762225  0.022199411  0.024107287            3 
  139000    1.0374175   -7.6851007    36.841173  0.022087034  0.024034517            2 
  140000    1.0608672   -7.7038148    37.142708  0.022108755  0.023963243            2 
  141000    1.0775428    -7.678762    37.264219   0.02202377  0.023892213            2 
  142000    1.0325799   -7.6605393     37.48841   0.02200024  0.023820915            3 
  143000    1.0369329   -7.6766046    37.703295  0.021971617  0.023752671            3 
  144000    1.0213044   -7.6805551    37.837216  0.021896537   0.02368259            1 
  145000    1.0378165   -7.6603241    38.089145  0.021890313  0.023612457            7 
  146000    1.0180448   -7.6902502    38.355399  0.021892351    0.0235453            3 
  147000     1.031924   -7.6689212    38.499245  0.021824969  0.023477656            1 
  148000    1.0334305   -7.6673402       38.499  0.021677365  0.023408939            3 
  149000    1.0151421   -7.6364491    38.741218  0.021667348  0.023340669            4 
  150000   0.99679735   -7.6907135    38.992734   0.02166263  0.023271374            1 
  151000    1.0205291   -7.7564197    39.267127    0.0216706  0.023205687            2 
  152000    1.0009724   -7.6998703    39.561749  0.021689555   0.02314238            2 
  153000    1.0119353   -7.7124375    39.764737  0.021658353   0.02308244            2 
  154000    1.0151408   -7.7461132    39.926714  0.021605365  0.023021917            2 
  155000    1.0252048   -7.7036222    40.180009  0.021602155  0.022961574            2 
  156000    1.0462657   -7.6980698    40.290344   0.02152262  0.022903259            2 
  157000    1.0121441   -7.7247028      40.3916  0.021439278  0.022843744            2 
  158000    1.0337728   -7.7459754    40.572512  0.021399004  0.022782394            3 
  159000    1.0395376    -7.793353     40.59417  0.021275771  0.022720441            3 
  160000   0.98799293   -7.7081736    40.898092  0.021301089   0.02265726            6 
  161000    1.0057784   -7.7067179    41.073788  0.021259724  0.022594671            3 
  162000    1.0000588   -7.8046289     41.17335  0.021179707  0.022532892            5 
  163000    1.0162564   -7.7730988    41.402908  0.021167131  0.022470981            7 
  164000    1.0062463   -7.7876213     41.56083  0.021118308  0.022411369            2 
  165000   0.99593072   -7.7692972    41.798462  0.021110334  0.022350457            8 
  166000   0.98082203   -7.7395726    42.054189  0.021111541  0.022291033            4 
  167000   0.99798692   -7.7460845     42.18624  0.021051018  0.022232601            2 
  168000    1.0161812    -7.742493    42.374216  0.021018956  0.022174496            6 
  169000   0.99598015   -7.7790476    42.465104    0.0209394  0.022115131            3 
  170000   0.98904424   -7.8422832    42.370356  0.020769782  0.022054475            2 
  171000   0.99816734   -7.8310296    42.699638   0.02080879  0.021994041            5 
  172000   0.96465978   -7.7990051    42.813677   0.02074306  0.021933099            5 
  173000   0.98685935   -7.7387599    42.857424  0.020644231  0.021872176            2 
  174000   0.99214183   -7.8203252    43.098003  0.020640806  0.021810973            2 
  175000   0.97936478   -7.7613123    43.406207  0.020669622  0.021748939            4 
  176000   0.99701481   -7.8371468    43.420146  0.020558781  0.021688866            3 
  177000   0.99399816   -7.7874724    43.526515  0.020492709  0.021627933            8 
  178000   0.97466906   -7.7870373    43.637535  0.020429558  0.021567945            2 
  179000   0.98971473   -7.8482477    43.700766  0.020344863  0.021507401            4 
  180000    0.9864743    -7.815585    43.914393  0.020330738  0.021446332            4 
  181000   0.96932431   -7.8542903    44.057741  0.020284411  0.021385183            2 
  182000   0.99775234   -7.8569883    44.165896   0.02022248  0.021324133            3 
  183000   0.95787893   -7.8275729     44.51604  0.020271421    0.0212639            7 
  184000   0.97135259   -7.8280859     44.55379  0.020178347  0.021204837            6 
  185000   0.97807413   -7.8450811    44.682244  0.020127137  0.021145991            3 
  186000   0.96241834   -7.8689129    44.736724  0.020043335  0.021086858            2 
  187000   0.95845347   -7.8679204    45.034176  0.020068706  0.021029744            2 
  188000   0.97385242   -7.8765705    45.148152  0.020012479  0.020972607            6 
  189000   0.94640999   -7.8659405    45.383329  0.020010286  0.020915136            7 
  190000   0.96011676   -7.8738084    45.614543  0.020006379  0.020858554            4 
  191000   0.97626851   -7.8602619    45.627669   0.01990736  0.020801935            4 
  192000   0.94559594   -7.8697231     45.62595   0.01980293  0.020743808            6 
  193000   0.93918973   -7.8713712     45.71429  0.019738467  0.020685591            5 
  194000    0.9571166   -7.8792909    45.757034  0.019655083   0.02062795            2 
  195000   0.93454457   -7.8918044    46.162147  0.019727413  0.020570853            3 
  196000   0.94712888   -7.8498211    46.227871  0.019654707  0.020513963            2 
  197000   0.96657083   -7.8854284    46.486214  0.019664219  0.020457655            4 
  198000   0.94235104   -7.8736055     46.51465  0.019576873  0.020401519            3 
  199000   0.96477146   -7.8845566    46.628534  0.019526187  0.020344261            2 
  200000   0.93956759   -7.8943642    46.764637  0.019485265   0.02028743            2 
  201000   0.97095148   -7.9055342    47.015012  0.019492128  0.020232326            2 
  202000   0.96069193   -7.9363074    47.295011  0.019511143  0.020177881            7 
  203000   0.91530705    -7.970951    47.077957  0.019325926   0.02012387            4 
  204000   0.95452874   -7.9543548    47.351635  0.019342988  0.020069331            5 
  205000   0.94294938   -8.0023554     47.23451   0.01920102  0.020012609            8 
  206000   0.94564113   -7.9410315    47.450981  0.019195381  0.019956264            6 
  207000   0.94258656   -7.9272636     47.62951  0.019174521   0.01989983            5 
  208000   0.95415745   -7.9384542    47.709218   0.01911427  0.019843809            7 
  209000   0.92473567   -7.9761574    47.990003   0.01913477   0.01978817            3 
  210000   0.93872641   -7.9738537    47.948296  0.019027101  0.019732814            4 
  211000   0.92368685   -7.9972115    47.927339  0.018928649  0.019676908            1 
  212000   0.94389047   -7.9694338     48.12138  0.018915637  0.019619407            2 
  213000    0.9187955   -7.9630638    48.246615  0.018875828  0.019562919            2 
  214000   0.94847777   -7.9837131    48.313079  0.018813504   0.01950693           10 
  215000   0.92941149   -7.9870501    48.523348  0.018807499  0.019451492            6 
  216000   0.92216782   -7.9837395    48.319044  0.018641606  0.019394706            3 
  217000   0.94093855   -7.9872662    48.412228  0.018591486  0.019336748            3 
  218000   0.93048884   -7.9586905    48.531667  0.018551861  0.019278641            4 
  219000   0.93043989   -7.9920375    48.544711  0.018472112  0.019221185            7 
  220000   0.90654838   -8.0091513    48.548593  0.018389619  0.019163039            2 
  221000   0.90341041    -7.989313    48.809678  0.018404856  0.019105203            3 
  222000   0.92303084   -8.0553265    48.854434  0.018338752  0.019048545            3 
  223000   0.90329378   -8.0376246    48.948662  0.018291727  0.018991102            6 
  224000   0.91446064   -8.0047215    49.180774  0.018296419  0.018934111            7 
  225000   0.91996257   -8.0338757     49.07352  0.018175378  0.018877051            3 
  226000   0.90354729   -8.0179443    49.191124   0.01813832  0.018819915            4 
  227000   0.90639785   -8.0390008    49.211806  0.018066008  0.018761851            9 
  228000   0.88112391   -8.0661411    49.375706  0.018046676    0.0187038            2 
  229000   0.91199278    -8.021878    49.373221  0.017966965  0.018645865            6 
  230000   0.88232436   -8.0124192    49.615292  0.017976555  0.018588891            2 
  231000   0.89143281   -8.0383459    49.498968   0.01785677  0.018531549            2 
  232000   0.89511549   -8.0446777    49.705995  0.017854165  0.018473876            3 
  233000   0.88988849   -8.0685277    49.503007  0.017704938  0.018416472            3 
  234000   0.88357509   -8.0418592    49.745495  0.017715632  0.018358783            4 
  235000   0.89648698   -8.0576091    49.945006  0.017710995  0.018302052            2 
  236000   0.88727838    -8.066437     49.87007  0.017609488  0.018244628            2 
  237000   0.88957957   -8.0969436    49.976346  0.017572555  0.018187353            2 
  238000   0.88650291   -8.0809239    50.149864  0.017559476  0.018129981            5 
  239000    0.8707085   -8.0576312    50.251574  0.017521469  0.018073305            2 
  240000   0.89695395   -8.1173303    50.089143  0.017392063  0.018015781            3 
  241000   0.89653552   -8.0975814    50.107362  0.017326197  0.017957181           12 
  242000   0.87429084   -8.1162759    50.143549  0.017267062  0.017899344            2 
  243000   0.89366897   -8.1135255    50.227023  0.017224631  0.017841407            3 
  244000   0.86465898   -8.0620308    50.411645  0.017217092    0.0177843            4 
  245000    0.8833252   -8.1232592     50.81098  0.017282646  0.017728267            4 
  246000   0.87129677   -8.1194809    50.766506  0.017197326  0.017672805            7 
  247000   0.87633553   -8.1164992    50.713106  0.017109685  0.017617168            8 
  248000   0.88082666    -8.124345    50.668217  0.017025611   0.01756139            5 
  249000   0.86473476   -8.1275196    50.863622  0.017022631   0.01750554            3 
  250000   0.87036056   -8.1058518    51.026162  0.017008721  0.017450114            4 
  251000   0.86220571    -8.149473    50.970743  0.016922557  0.017394666            4 
  252000   0.85656712    -8.150377     51.09336  0.016895952  0.017339282            2 
  253000   0.85494385   -8.1995001     50.88676   0.01676112  0.017283166            5 
  254000   0.86768112   -8.1159973    51.081977  0.016759179  0.017227342            1 
  255000     0.862295   -8.1502882    51.210972  0.016735612  0.017171685            4 
  256000   0.83593597    -8.164828    51.167467  0.016656077  0.017116093            5 
  257000   0.84157481   -8.1996501    51.209475  0.016604888  0.017060283            3 
  258000   0.86222967   -8.1925034    51.241272  0.016550798  0.017004828            5 
  259000   0.86897976   -8.1852813    51.391558   0.01653525  0.016949714            4 
  260000   0.85190737   -8.1857256    51.489056  0.016502903  0.016894855            5 
  261000   0.85213904   -8.1818444    51.572202   0.01646622  0.016840284            7 
  262000   0.85669022   -8.1997904    51.611872   0.01641599  0.016786049           15 
  263000   0.83037119   -8.2071603    51.671874  0.016372584  0.016731898            5 
  264000   0.84345596   -8.2109063    51.659974   0.01630681  0.016677631            4 
  265000   0.84784998   -8.2197833    51.535217  0.016206043  0.016623206            2 
  266000   0.82860204   -8.2179239    51.915961  0.016264399  0.016569512            1 
  267000   0.84623793    -8.235844    51.948208  0.016213548  0.016516039           14 
  268000   0.84349864   -8.2496904    51.840637  0.016119601  0.016462781            3 
  269000    0.8470193   -8.2481299    51.822913  0.016054186  0.016408912            4 
  270000   0.82765402   -8.2162706    52.005094  0.016050955  0.016355181           10 
  271000   0.83332208   -8.2710334    51.910462  0.015962627  0.016301425            6 
  272000   0.83334248   -8.2404491    52.031105  0.015940902  0.016248328           14 
  273000   0.83207814   -8.2394857    52.231761  0.015943761  0.016194934            5 
  274000   0.82279741   -8.2582853    52.078955  0.015839098  0.016142326            4 
  275000    0.8161962   -8.2536766     52.22824  0.015826739  0.016089777            7 
  276000   0.83789563   -8.2391815    52.237677  0.015772246  0.016036692            4 
  277000   0.81388669   -8.2642446    52.200156  0.015704018  0.015983662            4 
  278000   0.83621729   -8.3137387    52.134009  0.015627701  0.015930663            8 
  279000   0.82577477   -8.2851381    52.258249  0.015608796  0.015877598            7 
  280000   0.82362777   -8.2861105    52.290682  0.015562703  0.015824468           10 
  281000   0.81344893    -8.265113    52.280951  0.015504434  0.015771322            2 
  282000   0.81668425   -8.2752159    52.527539  0.015522322  0.015718531            3 
  283000   0.80911189   -8.2749926    52.409389  0.015432682  0.015666386            7 
  284000   0.80991667   -8.2811894     52.49717  0.015404099  0.015614338            2 
  285000   0.80595488   -8.2989315    52.470693  0.015342308  0.015562154           10 
  286000   0.81635645    -8.291366    52.459454  0.015285389  0.015509879            3 
  287000   0.82360212   -8.3132641    52.501678   0.01524439  0.015457358            5 
  288000   0.82096115   -8.3295207    52.385228  0.015157763  0.015404969            4 
  289000   0.79871365    -8.340497    52.427685  0.015117556  0.015352246            5 
  290000   0.81946781   -8.3628188    52.465344  0.015076248  0.015299505            4 
  291000   0.80069878   -8.3726403    52.489193  0.015031269  0.015246982            4 
  292000   0.78699898   -8.3351861    52.576419  0.015004686  0.015194582            5 
  293000   0.80029348   -8.3672065    52.423987  0.014910121  0.015142296            5 
  294000   0.80014706   -8.3766429    52.600232  0.014909363  0.015090046            7 
  295000   0.81412103   -8.3923159    52.529527  0.014838849  0.015037893           16 
  296000   0.79420434   -8.3767352    52.568987  0.014799827  0.014985419            7 
  297000   0.78972459   -8.3854854    52.587586  0.014755215   0.01493306            7 
  298000   0.78642266   -8.3674835    52.475378  0.014674323  0.014880695           10 
  299000   0.80671946   -8.3679587    52.640752  0.014671336  0.014828678            7 
  300000   0.80179355   -8.3977481    52.589177  0.014608105  0.014776877            6 
  301000   0.79847607   -8.4209626    52.636697  0.014572729  0.014724874            9 
  302000   0.80649328    -8.419278    52.582571  0.014509539  0.014672928            8 
  303000   0.77839621   -8.3993625    52.437109  0.014421647  0.014620731            8 
  304000   0.79035726   -8.4381309    52.489083  0.014388455  0.014568641            2 
  305000    0.7746319   -8.4201854    52.598159  0.014371082   0.01451663            6 
  306000   0.79913841   -8.4122849    52.641651  0.014335961  0.014464896            4 
  307000   0.77968423   -8.4436761     52.53025  0.014259025  0.014413011            5 
  308000   0.79350035   -8.4316522    52.573346   0.01422439  0.014361332            6 
  309000   0.77319001   -8.4587006    52.651679  0.014199482  0.014309772            6 
  310000   0.77829919   -8.4199386    52.694427  0.014165168  0.014258414            8 
  311000   0.77691154   -8.4256118    52.632853  0.014103122  0.014207153            4 
  312000     0.767906   -8.4239214    52.702468  0.014076514  0.014156103            2 
  313000   0.75532892   -8.4292602    52.748654  0.014043837  0.014105309            4 
  314000   0.76248947   -8.4345949    52.615094  0.013963666  0.014054525            7 
  315000    0.7710375    -8.410056    52.763395   0.01395857  0.014003913            4 
  316000   0.75997999   -8.4196197    52.732571  0.013906269  0.013953168            4 
  317000   0.76865888   -8.4449138    52.753578  0.013867923  0.013902638            3 
  318000   0.76071548    -8.468455    52.555684  0.013772454  0.013852442            3 
  319000   0.75246346   -8.4444264    52.754081  0.013781108  0.013802048            5 
  320000   0.76565337   -8.4282207     52.77207  0.013742726  0.013751992            5 
  321000   0.77022504   -8.4604945    52.728444  0.013688589   0.01370186            1 
  322000   0.75675353   -8.4780572    52.734351  0.013647606  0.013652113            5 
  323000   0.74120312   -8.4649229     52.84678   0.01363436  0.013602798            6 
  324000   0.76273679   -8.4498579     52.83424  0.013589054  0.013553808            3 
  325000    0.7454049   -8.4727759     52.93343  0.013572674  0.013504978            3 
  326000   0.74767506   -8.4636863    52.901773  0.013522948  0.013456342            2 
  327000   0.75003926   -8.4800446     52.99187  0.013504554  0.013407885            3 
  328000   0.73752917   -8.4812595    52.916995  0.013444358  0.013359935            6 
  329000    0.7376384   -8.4644192    52.994148  0.013423036  0.013312186           11 
  330000   0.73801415   -8.4825221    53.004953  0.013385089  0.013265124            8 
  331000   0.75980583   -8.4972411    53.001311  0.013343734  0.013217747            8 
  332000   0.73154534   -8.4983088    53.061641  0.013318685  0.013170446           12 
  333000   0.73089164   -8.5217427    53.020603  0.013268419  0.013123327           11 
  334000   0.72586857   -8.5037635    53.156429  0.013262582  0.013076358            6 
  335000   0.72787758   -8.5175571    53.116551  0.013213072  0.013029633           14 
  336000    0.7214145   -8.4924558    52.974331  0.013138475  0.012982844            8 
  337000   0.72200249   -8.5243877    53.110677  0.013133204  0.012936153            9 
  338000   0.71416212    -8.545848    53.032963  0.013075188  0.012889618            9 
  339000   0.74746632   -8.5543149    52.988207  0.013025616  0.012843172            7 
  340000   0.72695257   -8.5320488    53.122962  0.013020334  0.012796839            3 
  341000    0.7343201   -8.5398699    53.040227  0.012961932  0.012750692           10 
  342000   0.72691397   -8.5620609    52.922202  0.012895273  0.012704539           13 
  343000   0.71531623   -8.5413537    53.186838  0.012921972  0.012658615           10 
  344000   0.71657892   -8.5547011    53.037075  0.012848129  0.012613055            7 
  345000   0.71799527   -8.5595793    53.092755  0.012824337  0.012567418            5 
  346000   0.71076284   -8.6007948    53.047736   0.01277643  0.012521956           12 
  347000   0.71695423   -8.5742986    52.975505  0.012722263  0.012476817           10 
  348000   0.70857364   -8.5955839    53.064638  0.012707049  0.012431695           15 
  349000   0.70153296   -8.5799347    53.200964  0.012703191  0.012387137           13 
  350000   0.70697875    -8.567903    53.043358  0.012629371  0.012342747           10 
  351000   0.70856753   -8.5776107      53.1278  0.012613438  0.012298456           12 
  352000   0.71352958    -8.587441     53.17422  0.012588594  0.012254162           10 
  353000    0.7030242   -8.5652368    53.142234  0.012545381  0.012210103            5 
  354000   0.70923001   -8.6167307    53.096666  0.012499215  0.012165931            3 
  355000   0.70729819   -8.6375915     53.08722  0.012461789  0.012122126            4 
  356000   0.70014319   -8.5770875    53.162701  0.012444452  0.012078431            4 
  357000   0.69440135   -8.6003043    53.183706  0.012414497  0.012034939            4 
  358000   0.70085729   -8.6278672    53.061906  0.012351468  0.011991539           11 
  359000   0.68976801   -8.6098291    53.190919   0.01234701  0.011948362            7 
  360000   0.70005862   -8.6192657    53.150494  0.012303355  0.011905499            5 
  361000   0.69391667   -8.5954879    53.182977  0.012276772  0.011862554           11 
  362000   0.69935008   -8.6203209    53.166628  0.012239095  0.011820067           10 
  363000    0.6816312   -8.6264784    53.159484  0.012203738  0.011777545            9 
  364000   0.66889215   -8.6609144    53.056574  0.012146651  0.011735207            6 
  365000   0.67306257   -8.6446896    53.054308  0.012112856  0.011692807            4 
  366000   0.69032616   -8.6053373    53.151996  0.012102003  0.011650416            6 
  367000   0.68464411   -8.6462672    53.054627  0.012046918  0.011608235            8 
  368000   0.68083955   -8.6406829    53.156248  0.012037194  0.011566339            8 
  369000   0.69061752   -8.6446838    53.081139   0.01198761  0.011524438            4 
  370000   0.69072686   -8.6709514    53.096061  0.011958572   0.01148287            5 
  371000   0.67585011   -8.6535776    53.102224  0.011927723  0.011441277            7 
  372000   0.66366987   -8.6827091    53.089045  0.011892707  0.011400057            7 
  373000   0.66294819   -8.6898198    53.174971   0.01188002   0.01135904           12 
  374000   0.66902191   -8.6939253    53.097184  0.011830923  0.011318002           10 
  375000   0.66051443   -8.6744782    53.168395  0.011815199   0.01127732           12 
  376000   0.66835793   -8.6671995    53.032174  0.011753585  0.011236828            4 
  377000   0.65847265   -8.6834221    53.131106  0.011744276  0.011196507           16 
  378000   0.66282864   -8.6643415    53.126897  0.011712279  0.011156342            6 
  379000   0.66853129   -8.6882782    53.083654  0.011671868  0.011116458           22 
  380000   0.65844964   -8.6978558    53.113808  0.011647765  0.011076741            6 
  381000   0.65448165   -8.6984228    53.164902  0.011628369  0.011037051           24 
  382000   0.65035719   -8.6826094    53.215078  0.011608874  0.010997686           14 
  383000   0.66660948   -8.6924378    53.189453  0.011572988  0.010958308            7 
  384000   0.65119087   -8.7023104    53.090879  0.011521458  0.010919113           33 
  385000   0.63760701   -8.7043142    53.114918  0.011496735  0.010879993           16 
  386000    0.6539089   -8.7158629    53.184784  0.011482034  0.010841018           25 
  387000   0.64257259   -8.7017968    53.075678  0.011428871  0.010802147           26 
  388000   0.65067986   -8.7056648    53.113844  0.011407613  0.010763315           22 
  389000   0.65756732   -8.7109342    52.996159  0.011353076  0.010724656           35 
  390000   0.64300154   -8.7318355    53.088637  0.011343726  0.010686008            9 
  391000   0.64846934   -8.7310204     53.08738  0.011314446  0.010647614           19 
  392000   0.63364148   -8.7509789    52.956238  0.011257704  0.010609254           19 
  393000   0.64902387   -8.7587837    52.953518  0.011228481  0.010571038           15 
  394000   0.63564294   -8.7555076    52.966501  0.011202729  0.010532919           15 
  395000   0.64521549   -8.7523384    52.982752  0.011177796  0.010494936           16 
  396000   0.63590912   -8.7574737    52.906782  0.011133582  0.010456992           24 
  397000   0.65162616   -8.7352437    53.038822  0.011133254  0.010419243           17 
  398000   0.62551302   -8.7446563    52.954673  0.011087662  0.010381766           19 
  399000   0.62723093   -8.7801446    52.954649  0.011059868  0.010344274           33 
  400000   0.62285943   -8.7888898    52.944342  0.011030071   0.01030699           21 
  401000   0.63310418   -8.7558956    52.959808  0.011005779  0.010269893           17 
  402000    0.6405851   -8.8034118    52.959109  0.010978256  0.010232807           13 
  403000   0.60450209   -8.7933825    53.024177   0.01096447   0.01019606           20 
  404000   0.62860414    -8.791905     52.94939  0.010921904  0.010159386           17 
  405000    0.6213549   -8.7803092    52.934281  0.010891827  0.010122898           18 
  406000   0.61355225   -8.7908895    52.888884  0.010855682   0.01008657           19 
  407000   0.61948452   -8.8155285    52.834446  0.010817864  0.010050274           17 
  408000   0.62004425   -8.8162338    52.869879  0.010798586  0.010014187           16 
  409000     0.630163   -8.8169008    52.947012    0.0107879 0.0099782483           26 
  410000   0.60535626   -8.8114671     52.84512  0.010740878 0.0099425314           18 
  411000   0.60455636   -8.8135861    52.809606  0.010707544 0.0099069668           16 
  412000   0.61301749   -8.7937863    52.978603  0.010715737 0.0098714442           14 
  413000   0.59669495   -8.8020844    52.981315  0.010690338 0.0098361608           16 
  414000   0.59505891   -8.8145993    52.880046  0.010644132 0.0098009529           17 
  415000   0.60912195   -8.8155465    52.825265  0.010607483 0.0097658858           15 
  416000   0.60019513   -8.8146542    52.951578  0.010607287 0.0097310191           19 
  417000   0.59541482   -8.8308528    52.875871  0.010566721 0.0096962929           11 
  418000   0.59876763   -8.8528648    52.901904  0.010546632 0.0096617632           19 
  419000   0.60016203   -8.8298273    52.902452   0.01052157 0.0096273851           14 
  420000   0.59045957   -8.8443462    52.982689  0.010512438 0.0095931636           21 
  421000   0.58625588   -8.8369505    52.886749  0.010468478 0.0095590381           15 
  422000   0.58751414   -8.8503397    52.865442  0.010439463 0.0095249412            7 
  423000   0.59486255   -8.8414597    52.836446  0.010409071 0.0094909455           20 
  424000   0.58932143   -8.8532597    52.845699   0.01038634 0.0094571571           15 
  425000   0.59078221   -8.8392864    52.830168  0.010358856 0.0094235856           21 
  426000   0.58510041   -8.8501458     52.76543  0.010321876 0.0093901239           19 
  427000   0.58646147   -8.8596449    52.741647  0.010293061 0.0093568145           11 
  428000   0.59428419   -8.8542533    52.763966  0.010273358 0.0093234988           21 
  429000   0.57802775   -8.8652982    52.855311  0.010267155 0.0092904468           21 
  430000   0.58353799   -8.8599057    52.908706  0.010253625 0.0092575678           15 
  431000   0.57360937   -8.8676271    52.734931  0.010196236 0.0092247323           16 
  432000   0.57879249   -8.8773564    52.730971  0.010171869 0.0091920564           13 
  433000   0.58234395   -8.8637668    52.821958  0.010165889 0.0091594498           13 
  434000   0.58039696   -8.8753515     52.75562  0.010129727 0.0091270525           17 
  435000   0.57953312   -8.8663649    52.743172  0.010104056 0.0090947435           24 
  436000    0.5740466   -8.8790432     52.68291  0.010069364 0.0090624962           15 
  437000   0.57217484    -8.868807    52.764988  0.010061973 0.0090304275           22 
  438000   0.57060701   -8.8958549    52.717241  0.010029916 0.0089985231           12 
  439000   0.55755412   -8.9047831    52.776026  0.010018228 0.0089667172           18 
  440000   0.56346649   -8.8719831     52.79549 0.0099991459 0.0089350453           16 
  441000   0.56626508    -8.896837    52.718443  0.009961913 0.0089034432           19 
  442000   0.56720529    -8.897495    52.735043 0.0099425043 0.0088720176           17 
  443000   0.56118678   -8.8931758    52.637104 0.0099016374 0.0088407176           15 
  444000   0.55808438   -8.9197726    52.710859 0.0098931793 0.0088095427           11 
  445000   0.55553726   -8.9145641    52.657457 0.0098609469 0.0087784796           16 
  446000   0.55826139   -8.9105502    52.587603 0.0098257853 0.0087475124            9 
  447000    0.5430468   -8.9151491    52.662131 0.0098176979 0.0087166822           10 
  448000   0.54530952   -8.8991993    52.621351 0.0097881976 0.0086860164           17 
  449000   0.55091916   -8.9322982    52.684494 0.0097781169 0.0086554707           23 
  450000   0.56785321   -8.9091532    52.620007 0.0097444457 0.0086250729           19 
  451000   0.54931824   -8.9473313    52.539099 0.0097078897 0.0085947558           13 
  452000   0.54456899   -8.9294725    52.586001 0.0096950592 0.0085646087           15 
  453000   0.54612706   -8.9213256     52.56555 0.0096698951 0.0085346001           11 
  454000   0.54379158   -8.9451088    52.641223 0.0096624859 0.0085046902           13 
  455000   0.53968325   -8.9279214    52.626949 0.0096386353     0.008475           16 
  456000   0.53065128   -8.9265265    52.595468 0.0096117449 0.0084454027           13 
  457000   0.52389077   -8.9479636    52.573589  0.009586723 0.0084159403           15 
  458000   0.53373029   -8.9215008    52.600753 0.0095707338  0.008386611           13 
  459000   0.52716466    -8.956906    52.556021 0.0095417613 0.0083573886           21 
  460000   0.53763816   -8.9584778    52.570936 0.0095237203  0.008328303           18 
  461000   0.54133645   -8.9371083    52.658906 0.0095189634 0.0082993717           19 
  462000   0.52620838   -8.9465468    52.575593  0.009483332 0.0082705825           17 
  463000   0.53210746   -8.9654343    52.558284 0.0094597343  0.008241856           25 
  464000   0.52036647   -8.9443463    52.533825 0.0094349542 0.0082132763           12 
  465000   0.51569599   -8.9500792    52.514741  0.009411244 0.0081847576           12 
  466000   0.52006306   -8.9650602    52.544926  0.009396446 0.0081564227           12 
  467000   0.52699901   -8.9657879    52.594906 0.0093852437 0.0081282069           12 
  468000   0.51160565   -8.9537089    52.536243 0.0093547442 0.0081001424           17 
  469000   0.52228716   -8.9795625    52.523052 0.0093324541 0.0080722091           20 
  470000   0.50297199    -8.968619    52.559604 0.0093190787  0.008044379           12 
  471000   0.50826178   -8.9691514    52.522791 0.0092927798 0.0080165922           17 
  472000   0.50763574   -8.9632222    52.539085 0.0092759684 0.0079889375           16 
  473000   0.51661282   -8.9790664    52.434743 0.0092379744 0.0079614082            8 
  474000   0.50641304   -8.9804941     52.49234 0.0092286111 0.0079340655           16 
  475000   0.50200971   -8.9698528    52.450745 0.0092018851 0.0079068078           12 
  476000    0.5038218   -8.9986742    52.442569  0.009181122 0.0078796511           21 
  477000   0.49839428   -8.9824726     52.44488 0.0091622781 0.0078526075           20 
  478000   0.50513183   -8.9870785    52.470159 0.0091475172 0.0078256837           13 
  479000   0.51736486   -8.9887505    52.462704 0.0091271232 0.0077989545           21 
  480000   0.49940272   -8.9900291    52.344331 0.0090875575 0.0077722559           22 
  481000   0.49319211   -9.0018151    52.458877 0.0090885095 0.0077457115           20 
  482000   0.50824605   -8.9987381    52.531921 0.0090822823 0.0077192499           24 
  483000   0.50429923   -8.9976564    52.533524  0.009063755 0.0076929622           19 
  484000    0.4914189   -8.9931905    52.490929 0.0090376944 0.0076668179           15 
  485000   0.49257761   -9.0046412    52.511412 0.0090225793 0.0076407328           13 
  486000    0.4949113   -9.0107116    52.355712 0.0089773168 0.0076147315           15 
  487000    0.4959743   -9.0034471    52.439767  0.008973266  0.007588869            9 
  488000   0.49796934   -9.0246381    52.387643 0.0089459772 0.0075630741           19 
  489000   0.48268287   -9.0097531    52.431089 0.0089350867 0.0075374295           17 
  490000   0.49658982    -9.012087     52.43863 0.0089181343 0.0075118516           15 
  491000   0.48982274   -9.0197183     52.27801 0.0088727105 0.0074864004           14 
  492000   0.48408524    -9.042278    52.423008 0.0088792358 0.0074610453           14 
  493000    0.4791114   -9.0147842    52.450565 0.0088658833  0.007435803           16 
  494000    0.4776867   -9.0382083     52.35282 0.0088314473 0.0074106516           24 
  495000    0.4679251   -9.0224178    52.343068 0.0088119643 0.0073856523           19 
  496000    0.4771141   -9.0292124    52.383117 0.0088009269 0.0073607276           19 
  497000   0.46637561   -9.0425193    52.381437 0.0087829371 0.0073359575           17 
  498000   0.46875385   -9.0353805    52.351908 0.0087603595 0.0073112771           21 
  499000   0.46761677   -9.0435838    52.366655 0.0087452664 0.0072866939           23 
  500000   0.46016606   -9.0497282    52.312521 0.0087187534  0.007262208           17 
  501000   0.46392882   -9.0525671    52.335106 0.0087051075 0.0072378333            8 
  502000   0.46382495   -9.0492126    52.351039 0.0086904115 0.0072135482           18 
  503000   0.46544615   -9.0423953    52.333528 0.0086702333 0.0071893567           23 
  504000   0.46041319   -9.0563118    52.247547  0.008638814 0.0071652875           16 
  505000   0.46829235   -9.0646487    52.349964 0.0086386078 0.0071413321           18 
  506000    0.4572802   -9.0538134    52.312039 0.0086152897 0.0071174844           21 
  507000   0.46602675   -9.0525742    52.299562 0.0085962462 0.0070937193           19 
  508000   0.46099706   -9.0617229    52.330223 0.0085843542 0.0070700658           23 
  509000   0.45111481   -9.0626866    52.296171  0.008561914 0.0070465004           20 
  510000   0.45431535   -9.0648641    52.359151 0.0085554168  0.007023019           16 
  511000   0.45000924   -9.0661271    52.243433 0.0085198032 0.0069996934           19 
  512000   0.44300401    -9.050434    52.322787 0.0085160785 0.0069764575           19 
Loop time of 1262.33 on 48 procs for 500000 steps with 4000 atoms

Performance: 68445.030 tau/day, 396.094 timesteps/s
99.4% CPU use with 48 MPI tasks x no OpenMP threads

MPI task timing breakdown:
Section |  min time  |  avg time  |  max time  |%varavg| %total
---------------------------------------------------------------
Pair    | 82.76      | 91.632     | 98.64      |  36.8 |  7.26
Neigh   | 8.3571     | 8.7494     | 9.2519     |   7.7 |  0.69
Comm    | 78.3       | 86.465     | 95.896     |  41.5 |  6.85
Output  | 1.0617     | 1.0627     | 1.0913     |   0.4 |  0.08
Modify  | 1058.6     | 1062.8     | 1065.2     |   4.1 | 84.20
Other   |            | 11.59      |            |       |  0.92

Nlocal:        83.3333 ave          90 max          77 min
Histogram: 1 2 5 9 10 8 7 2 2 2
Nghost:        2268.29 ave        2291 max        2248 min
Histogram: 1 5 3 9 9 10 5 2 2 2
Neighs:        15262.5 ave       16797 max       13614 min
Histogram: 4 2 2 4 9 9 6 8 3 1
FullNghs:      30525.6 ave       32727 max       28048 min
Histogram: 1 1 6 4 7 12 7 5 2 3

Total # of neighbors = 1465227
Ave neighs/atom = 366.30675
Neighbor list builds = 26649
Dangerous builds = 0

#clear
#
#next RN
#
#jump SELF
Total wall time: 0:21:05
