
units lj                  # Use reduced LJ style units
atom_style atomic         # Uncharged point particles
atom_modify map hash      # Needed for indexing of clusters etc
                          # Used to be able to find where atoms are in relation to each other.

lattice fcc 1.0 spacing 1 1 1
Lattice spacing in x,y,z = 1.5874011 1.5874011 1.5874011
region box block 0 10 0 10 0 10 units lattice
create_box 2 box
Created orthogonal box = (0.0000000 0.0000000 0.0000000) to (15.874011 15.874011 15.874011)
  3 by 4 by 4 MPI processor grid
create_atoms 1 box
Created 4000 atoms
  using lattice units in orthogonal box = (0.0000000 0.0000000 0.0000000) to (15.874011 15.874011 15.874011)
  create_atoms CPU = 0.015 seconds
set type 1 type/fraction 2 0.32 78393
Setting atom values ...
  1310 settings made for type/fraction
mass 1 1.0
mass 2 1.0
pair_style lj/cut  3.5
pair_modify tail  yes
pair_coeff 1  1  1.0  1.0   # Intearaction between 1 and 1 set with epsilon = 1 and sigma = 1
pair_coeff 1  2  1.5  0.8
pair_coeff 2  2  0.5  0.88

write_data data.0
System init for write_data ...
Neighbor list info ...
  update every 1 steps, delay 10 steps, check yes
  max neighbors/atom: 2000, page size: 100000
  master list distance cutoff = 3.8
  ghost atom cutoff = 3.8
  binsize = 1.9, bins = 9 9 9
  1 neighbor lists, perpetual/occasional/extra = 1 0 0
  (1) pair lj/cut, perpetual
      attributes: half, newton on
      pair build: half/bin/atomonly/newton
      stencil: half/bin/3d
      bin: standard
WARNING: Not all mixed pair coeffs generated from mixing. Use write_data with 'pair ij' option to store all pair coeffs. (../write_data.cpp:312)


#############################
#   M E L T   S Y S T E M   #
#############################

velocity all create 2.4 3143649 mom yes dist gaussian # Assign velocities
                                                    # Temperature 2.4, random number seed, zero linear momentum
                                                                                # Gaussian distribution

timestep 0.002   # simulation timestep
thermo 1000       # output thermodynamic data every 1000 steps bf 100

# Define a fix  in this case with index 1 applied to all
# particles in the simulation. This fix is for simulations
# in the anisotropic NPT ensemble. Note that we use the MTK
# correction.
fix 1 all npt temp 2.4 2.4 0.1 iso 5.68 5.68 0.5 mtk yes tchain 5 pchain 5 # Use NPT ensemble
                                                                         # Set temperature and pressure and damping
                                                                         # Numbers of thermostats in chain and in barostat
run 10000          # run for 10000 steps
Per MPI rank memory allocation (min/avg/max) = 3.642 | 3.644 | 3.648 Mbytes
Step Temp E_pair E_mol TotEng Press Volume 
       0          2.4   -6.3097323            0   -2.7106323   -4.0355096         4000 
    1000    2.3542252   -5.0266182            0   -1.4961633    5.6764129    4081.1308 
    2000    2.4153691   -4.9954922            0   -1.3733442    5.6757782    4090.9472 
    3000    2.4696163   -5.0290344            0   -1.3255361    5.4891445    4103.3486 
    4000    2.3666408   -4.9885843            0   -1.4395106    5.6351609    4099.2011 
    5000    2.4014434   -5.0223794            0   -1.4211148    5.5715312    4103.6976 
    6000    2.3957772    -5.012217            0   -1.4194496    5.4742715    4106.4425 
    7000    2.4160785   -5.0132235            0   -1.3900118    5.3821281    4112.8671 
    8000    2.3388065   -5.0107203            0   -1.5033876    5.5482335    4103.2758 
    9000    2.4355264   -4.9813779            0   -1.3290017    5.6677112    4102.9994 
   10000    2.4780077   -5.0072682            0   -1.2911859    5.4317896    4116.8084 
Loop time of 2.43481 on 48 procs for 10000 steps with 4000 atoms

Performance: 709707.699 tau/day, 4107.105 timesteps/s
99.6% CPU use with 48 MPI tasks x no OpenMP threads

MPI task timing breakdown:
Section |  min time  |  avg time  |  max time  |%varavg| %total
---------------------------------------------------------------
Pair    | 1.0609     | 1.1323     | 1.2342     |   2.9 | 46.50
Neigh   | 0.20412    | 0.21256    | 0.22046    |   0.8 |  8.73
Comm    | 0.71393    | 0.8333     | 0.9156     |   3.7 | 34.22
Output  | 0.00025102 | 0.00025666 | 0.00033152 |   0.0 |  0.01
Modify  | 0.22154    | 0.24105    | 0.25556    |   1.9 |  9.90
Other   |            | 0.01537    |            |       |  0.63

Nlocal:        83.3333 ave          97 max          76 min
Histogram: 6 5 15 7 5 3 4 2 0 1
Nghost:        1615.12 ave        1645 max        1582 min
Histogram: 2 2 5 8 6 7 5 3 6 4
Neighs:        9285.08 ave       11439 max        8084 min
Histogram: 2 6 15 8 4 8 4 0 0 1

Total # of neighbors = 445684
Ave neighs/atom = 111.42100
Neighbor list builds = 903
Dangerous builds = 202

# Equilibrate just above the melting temperature to avoid step fn in T

fix 1 all npt temp 1.25 1.25 0.1 iso 5.68 5.68 0.5 mtk yes tchain 5 pchain 5
run 2000
Per MPI rank memory allocation (min/avg/max) = 3.643 | 3.645 | 3.649 Mbytes
Step Temp E_pair E_mol TotEng Press Volume 
   10000    2.4780077   -5.0072682            0   -1.2911859    5.4317896    4116.8084 
   11000    1.2420212   -6.8891015            0   -5.0265355    5.6591322    3291.8055 
   12000    1.2170442   -6.9441587            0   -5.1190487    5.4036136    3281.2998 
Loop time of 0.593638 on 48 procs for 2000 steps with 4000 atoms

Performance: 582172.622 tau/day, 3369.055 timesteps/s
99.6% CPU use with 48 MPI tasks x no OpenMP threads

MPI task timing breakdown:
Section |  min time  |  avg time  |  max time  |%varavg| %total
---------------------------------------------------------------
Pair    | 0.25261    | 0.28118    | 0.32177    |   3.0 | 47.37
Neigh   | 0.037578   | 0.040382   | 0.045971   |   0.9 |  6.80
Comm    | 0.17492    | 0.22161    | 0.2533     |   3.8 | 37.33
Output  | 5.2399e-05 | 5.3825e-05 | 6.8913e-05 |   0.0 |  0.01
Modify  | 0.042868   | 0.045511   | 0.049335   |   0.9 |  7.67
Other   |            | 0.004903   |            |       |  0.83

Nlocal:        83.3333 ave          92 max          77 min
Histogram: 3 1 10 8 9 5 8 1 2 1
Nghost:        1878.67 ave        1898 max        1856 min
Histogram: 4 1 2 5 3 9 13 6 3 2
Neighs:        11673.8 ave       13771 max       10001 min
Histogram: 1 4 5 9 12 8 5 3 0 1

Total # of neighbors = 560344
Ave neighs/atom = 140.08600
Neighbor list builds = 142
Dangerous builds = 10

#############################
# L I N E A R  Q U E N C H  #
#############################

# Define solid atoms. This closely follows ten Wolde  Ruiz-Montero and Frenkel  Faraday Discuss  1996  104  93-110
# Compute components of the per-atom q6 vector
compute q6 all orientorder/atom degrees 1 6 components 6 nnn NULL cutoff 1.3 # compute the Q6 parameter.
                                                                             # Use all neighbours within 1.3 unit cell.

# get number of connections
compute coord_number all coord/atom orientorder q6 0.5

# An atom is solid if it has 8 or more connections (of a possible 14)
variable is_solid atom c_coord_number>=8
group solid dynamic all var is_solid    # Must be dynamic to update
dynamic group solid defined

# do clustering
compute cluster solid cluster/atom 1.3 # Create a cluster where all atoms within are solid and max 1.3 units from another member

# define chunks one chunk per cluster
compute clus_chunks solid chunk/atom c_cluster nchunk every compress yes  # Says which atoms are in which chunk

# count the size of each chunk
compute size_chunks solid property/chunk clus_chunks count


# Find the maximum entry in the vector of chunk sizes
variable max_n equal max(c_size_chunks)


# Thermo style which includes this variable
# thermo_style custom step temp pe vol v_max_n

thermo ${N}  # Print the thermo information every 100 steps
thermo 1000  

# Reset the npt fix at a lower temperature (below freezing)
fix 1  all npt temp  ${temp} ${temp}  0.1  iso  5.68  5.68  0.5  mtk yes tchain  5  pchain  5
fix 1  all npt temp  0.45 ${temp}  0.1  iso  5.68  5.68  0.5  mtk yes tchain  5  pchain  5
fix 1  all npt temp  0.45 0.45  0.1  iso  5.68  5.68  0.5  mtk yes tchain  5  pchain  5

dump dmp2 all dcd ${N} traj.dcd
dump dmp2 all dcd 1000 traj.dcd


compute msd all msd com yes
variable twopoint equal c_msd[4]/6/(step*dt+1.0e-6)
fix 9 all vector 10 c_msd[4]
variable fit equal slope(f_9)/6/(10*dt)
thermo_style custom step temp pe c_msd[4] v_twopoint v_fit v_max_n

fix 1 all npt temp 1.25 ${temp} 0.1 iso 5.68 5.68 0.5 mtk yes tchain 5 pchain 5
fix 1 all npt temp 1.25 0.45 0.1 iso 5.68 5.68 0.5 mtk yes tchain 5 pchain 5
run 2000000 # 5000000  # Run for this many steps
Neighbor list info ...
  update every 1 steps, delay 10 steps, check yes
  max neighbors/atom: 2000, page size: 100000
  master list distance cutoff = 3.8
  ghost atom cutoff = 3.8
  binsize = 1.9, bins = 8 8 8
  4 neighbor lists, perpetual/occasional/extra = 1 3 0
  (1) pair lj/cut, perpetual
      attributes: half, newton on
      pair build: half/bin/atomonly/newton
      stencil: half/bin/3d
      bin: standard
  (2) compute orientorder/atom, occasional
      attributes: full, newton on
      pair build: full/bin/atomonly
      stencil: full/bin/3d
      bin: standard
  (3) compute coord/atom, occasional
      attributes: full, newton on
      pair build: full/bin/atomonly
      stencil: full/bin/3d
      bin: standard
  (4) compute cluster/atom, occasional
      attributes: full, newton on
      pair build: full/bin/atomonly
      stencil: full/bin/3d
      bin: standard
Per MPI rank memory allocation (min/avg/max) = 9.813 | 9.818 | 9.823 Mbytes
Step Temp PotEng c_msd[4] v_twopoint v_fit v_max_n 
   12000    1.2170442   -6.9441587 8.4920876e-31 5.8972828e-33 8.3333333e+20            2 
   13000    1.2253637   -6.9255927   0.50938813 0.0032653084  0.042403667            1 
   14000    1.2468883   -6.9318842    1.0211295 0.0060781516  0.041118966            1 
   15000    1.2410102   -6.9330799    1.4672583 0.0081514346  0.041120437            1 
   16000    1.2353854   -6.9039502    1.9311378  0.010058009  0.039945019            2 
   17000    1.2571654   -6.9030252    2.3552772  0.011545476  0.039176465            2 
   18000    1.2400483   -6.9477721    2.8465229  0.013178347  0.038962237            1 
   19000    1.2621577   -6.9648362    3.3066394  0.014502804  0.039022412            3 
   20000    1.2160422   -6.9797313    3.7320038  0.015550015  0.038651213            1 
   21000    1.2783676   -6.9441539    4.2654986  0.016926581  0.038588889            1 
   22000    1.2406393   -6.9237311    4.7524884  0.018001849  0.038728598            1 
   23000    1.2605321   -6.9601481    5.1854078  0.018787709   0.03878163            1 
   24000     1.251294   -6.8932101    5.6121048  0.019486475  0.038765896            2 
   25000    1.2232837    -6.899124    6.1025905  0.020341968  0.038717734            2 
   26000    1.2132555      -6.9458    6.5783578   0.02108448  0.038695259            3 
   27000    1.2459075   -6.9355678     6.995194  0.021590105  0.038669933            1 
   28000    1.2611497   -6.9519672    7.4277641   0.02210644  0.038556994            3 
   29000    1.2535073   -6.9216808    7.8628665  0.022594444  0.038497021            2 
   30000    1.2616585   -6.9117323    8.3700463  0.023250128  0.038436306            1 
   31000    1.2318114   -6.9689745    8.8821203  0.023876667  0.038436236            2 
   32000    1.2441961   -6.9353811    9.3981443  0.024474334  0.038520106            1 
   33000    1.2797422   -6.9758206    9.8174728  0.024791598  0.038589628            2 
   34000    1.2380112   -6.9549302    10.401752   0.02549449  0.038651403            1 
   35000    1.2512218   -6.9479661    10.929816  0.026023372   0.03880423            1 
   36000    1.2477318   -6.9771768    11.566783  0.026774959   0.03902499            1 
   37000    1.2106603   -6.9791861    12.079985  0.027207174  0.039266963            2 
   38000    1.2441458   -6.9648038    12.494673  0.027400598  0.039471541            2 
   39000    1.2437447   -7.0022702    12.954604  0.027680778  0.039616085            1 
   40000    1.2675859   -6.9902005    13.517048  0.028160517  0.039718283            2 
   41000    1.2049736   -7.0198275    13.849907  0.028150218  0.039797977            1 
   42000    1.2217589   -6.9505884    14.297935  0.028368918  0.039819189            2 
   43000    1.2330914   -6.9570269    14.778769  0.028641025  0.039828556            2 
   44000    1.2476031   -6.9888629    15.078491  0.028557749  0.039817535            1 
   45000    1.2534673   -6.9288802     15.70391  0.029081315  0.039792573            1 
   46000    1.2487666   -6.9472953    16.170366   0.02929414  0.039817819            1 
   47000    1.2375132   -6.9257006    16.515275  0.029282403  0.039779104            1 
   48000    1.2508004   -6.9463609    17.056252  0.029611548  0.039731607            1 
   49000    1.2328201   -7.0037029    17.393832  0.029581346  0.039670542            1 
   50000    1.2518703   -6.9528845    17.854007  0.029756678  0.039596766            1 
   51000    1.2538089   -6.9722384    18.331562  0.029953532  0.039521309            2 
   52000    1.2339918   -6.9595155    18.728423  0.030013498  0.039461317            2 
   53000    1.2309512   -6.9507803    19.155171  0.030118193  0.039401589            3 
   54000    1.2295907    -6.974001    19.551785  0.030172507  0.039335566            1 
   55000    1.2331397   -6.9604306    20.092789  0.030443619  0.039278269            2 
   56000    1.2397495   -6.9808264    20.467668  0.030457839  0.039201362            1 
   57000    1.2258826   -6.9451127    20.969821  0.030657632  0.039139397            1 
   58000    1.1955564   -6.9972099    21.416073  0.030770219  0.039075631            2 
   59000     1.243405   -7.0068811    21.752144  0.030723368  0.039013474            1 
   60000    1.2401497   -6.9843706    22.271383  0.030932476  0.038962216            1 
   61000    1.2205408   -7.0110555     22.63968  0.030928524  0.038907408            1 
   62000    1.2413277   -6.9464347    23.126694  0.031084266  0.038850932            2 
   63000    1.2078265    -7.010052    23.493889  0.031076573  0.038795556            2 
   64000     1.211532   -6.9978195    23.993332  0.031241317  0.038738896            2 
   65000     1.229538   -6.9314671    24.613265  0.031555468  0.038694644            1 
   66000    1.2334245   -7.0017032    24.823864  0.031343262  0.038657835            1 
   67000    1.2305639   -6.9307156    25.300831  0.031468695  0.038600809            1 
   68000    1.2460625   -6.9915908    25.784616  0.031598794  0.038547212            2 
   69000    1.2053349   -6.9622319    26.237505  0.031687808  0.038493347            2 
   70000    1.2336384    -7.019653    26.562669  0.031622224  0.038443735       -1e+20 
   71000    1.2423138   -6.9971864    27.011686  0.031703856   0.03839256            2 
   72000    1.2290704   -6.9906171    27.295116  0.031591569  0.038333203            1 
   73000    1.2387744   -7.0001419    27.594644  0.031500734  0.038257536            2 
   74000    1.2235582   -6.9771321     28.23773  0.031799245  0.038195949            1 
   75000    1.2106671   -6.9942354    28.497854  0.031664281   0.03812697            1 
   76000    1.2250392   -6.9753647    28.916756  0.031706969  0.038049243            5 
   77000    1.2216974   -6.9960931    29.312582  0.031723574   0.03797551            2 
   78000    1.2264156   -6.9294304    29.794645  0.031831886  0.037907899            1 
   79000    1.2444831   -7.0139508    30.204839  0.031861644  0.037839165            2 
   80000    1.2085386    -7.006989    30.494625  0.031765234  0.037774036            2 
   81000    1.2237388   -6.9835215    31.029818  0.031923681  0.037713266            1 
   82000     1.236691   -7.0108834    31.391434  0.031901864  0.037648426            2 
   83000    1.2227998   -7.0075683    31.738033  0.031865495  0.037579954            1 
   84000    1.2296679   -7.0236495    32.224319   0.03196857  0.037515822            1 
   85000    1.2121269   -7.0166532    32.805494  0.032162249  0.037462597            3 
   86000     1.219883   -7.0004433    33.194072  0.032164798  0.037413169            3 
   87000    1.2137716   -7.0276559    33.454228  0.032044279  0.037365957            1 
   88000    1.2109491   -6.9897378     34.05077  0.032245047  0.037314613            3 
   89000     1.216116   -6.9768513    34.524142  0.032325975   0.03727146            1 
   90000    1.2354523    -7.000631    35.068381  0.032470723  0.037240605            2 
   91000    1.2066977   -7.0009901    35.426262  0.032441632  0.037212212            2 
   92000    1.2297928   -6.9757736    35.984842  0.032594966   0.03718454            2 
   93000    1.2190623   -7.0055599    36.385756  0.032603723  0.037169018            2 
   94000    1.2373507   -6.9893555    36.774796  0.032601769  0.037149847            1 
   95000    1.2015371   -6.9704016    37.395213  0.032802818  0.037128682            4 
   96000    1.2242182     -7.00014    37.890781  0.032891303  0.037112998            1 
   97000    1.2052722   -6.9928221     38.31227  0.032914321  0.037104218            1 
   98000    1.2212299   -7.0299831    38.745623  0.032946958   0.03709799            1 
   99000     1.229491   -6.9901326    39.073983  0.032890558  0.037083757            3 
  100000    1.1965782   -7.0185208    39.314966  0.032762471   0.03706465            3 
  101000    1.2381379   -6.9924274    39.879193  0.032903624  0.037043341            2 
  102000    1.2093264   -6.9918426     40.46604   0.03306049  0.037026348            1 
  103000    1.2294682   -6.9473748    40.960251  0.033139361  0.037017068            2 
  104000    1.1880503   -6.9828052    41.411456  0.033182256  0.037012077            2 
  105000    1.2040393   -6.9967477    41.873468  0.033232911  0.037011852            1 
  106000    1.2294583   -7.0164189    42.271883  0.033232613   0.03700966            1 
  107000    1.2128331   -7.0598378    42.680664  0.033240392  0.037007862            1 
  108000    1.2160121   -7.0239327    43.128077  0.033277837  0.037007149            3 
  109000    1.2290927   -7.0045131    43.443334  0.033213558  0.037003865            1 
  110000    1.2058703    -7.009406    43.901556  0.033258754  0.036991556            2 
  111000    1.2363048   -7.0257401    44.378645  0.033317301  0.036981565            1 
  112000     1.222084   -7.0425377    44.847506   0.03336868    0.0369751            2 
  113000    1.1987897   -7.0368451    45.184489  0.033321894  0.036967164            1 
  114000    1.2112272   -7.0157465    45.479492  0.033245243  0.036953429            1 
  115000    1.2204087   -7.0301824    45.911377  0.033269113  0.036937406            2 
  116000     1.235392   -7.0124272    46.379993   0.03331896  0.036919447            1 
  117000    1.2250317   -7.0288024    46.513958  0.033129599   0.03689805            2 
  118000    1.2181233   -7.0423566    47.007808  0.033197604  0.036875489            1 
  119000    1.2217118   -7.0199051    47.482111  0.033250778  0.036851368            2 
  120000    1.1968201   -7.0372573     47.86692  0.033240917  0.036829402            3 
  121000     1.182387   -7.0301495    48.205472  0.033199361  0.036801209            1 
  122000    1.2201467   -7.0306864    48.657329  0.033235881  0.036775184            1 
  123000    1.2198711   -7.0180513    49.280496   0.03338787  0.036750121            2 
  124000    1.2079829   -7.0339257    49.464151  0.033242037  0.036725848            2 
  125000    1.2086195    -7.019865    49.906267  0.033270845  0.036701642            3 
  126000     1.192944   -7.0496976    50.315102  0.033277183  0.036677257            1 
  127000    1.2182966    -7.039407    50.642805  0.033230187  0.036651412            1 
  128000    1.2096542   -7.0341266    51.231514   0.03335385  0.036628475            2 
  129000     1.214155   -6.9863682    51.675132  0.033381868  0.036605756            2 
  130000    1.2282388   -7.0025529    52.089192  0.033390507   0.03658449            1 
  131000    1.1960533   -7.0538241    52.374133  0.033316878  0.036562079            1 
  132000    1.2146112   -7.0416756    52.628654   0.03322516  0.036539274            1 
  133000    1.1964496    -7.057761    53.092212  0.033265797  0.036511595            1 
  134000     1.194318   -7.0120872    53.580155  0.033320992  0.036483535            1 
  135000    1.2063647   -7.0295976    53.859418  0.033246554  0.036455836            2 
  136000    1.1900724   -7.0317178    54.524049  0.033409344  0.036429748            1 
  137000    1.2022228   -7.0459201    54.861337  0.033370643  0.036408267            1 
  138000    1.1964897   -7.0593907    55.029312  0.033230261  0.036382888            2 
  139000    1.1926038   -7.0509346     55.40825  0.033218375  0.036351965            4 
  140000    1.2132656   -7.0111408    55.661957  0.033132117  0.036323993            1 
  141000    1.1706174   -7.1043732    55.920881  0.033050166  0.036291722            1 
  142000    1.1957267   -7.0373444    56.341049  0.033063996   0.03626082            1 
  143000    1.1673508   -7.0543464    56.887828  0.033151415  0.036225789            3 
  144000    1.2077468   -7.0597639    57.062855  0.033022485  0.036191274            5 
  145000     1.183749   -7.0658814     57.57613   0.03308973  0.036156885            1 
  146000    1.1899027   -7.0280131    57.886757  0.033040386  0.036122415            2 
  147000    1.1961968   -7.0484232    58.218048  0.033003428  0.036085837            2 
  148000    1.1624404    -7.081578    58.149887  0.032742053  0.036046768            1 
  149000    1.1991908   -7.0389006    59.215602  0.033118346  0.036010274            1 
  150000    1.1852251   -7.0219889    59.438087  0.033021159  0.035977684            1 
  151000    1.1625156    -7.013194    59.656794  0.032923176  0.035942075            1 
  152000    1.1797034    -7.034803    60.037864  0.032915495  0.035905424            1 
  153000     1.195012   -7.0594237    60.371369  0.032882009  0.035869728            3 
  154000    1.1767052   -7.0364283    60.708251  0.032850785  0.035832557            4 
  155000    1.1705992   -7.0586053    61.156593  0.032879889  0.035794898            1 
  156000    1.2143278   -7.0474535    61.582972  0.032896887  0.035757114            1 
  157000    1.1746829   -7.0567064      61.8047  0.032805043  0.035718718            3 
  158000    1.1633294   -7.0735249    62.227287  0.032820299  0.035681232            1 
  159000    1.1783511   -7.0669701    62.344188  0.032675151  0.035644206            1 
  160000     1.203549   -7.0476962    62.971798  0.032797812  0.035605636            1 
  161000    1.1692961   -7.0679791    63.537533  0.032886922  0.035570621            2 
  162000     1.188749   -7.0551055    63.964356  0.032903475  0.035538877            1 
  163000    1.2017375   -7.0474245    64.410195  0.032929547  0.035508749            1 
  164000    1.1653785    -7.116144    64.830943  0.032942552  0.035478258            3 
  165000    1.1920378   -7.0612333    65.154213  0.032906168  0.035449967            1 
  166000    1.1940584   -7.0877571    65.554762  0.032909017  0.035421044            2 
  167000    1.1817478   -7.0275983    66.088232  0.032978159  0.035396825            2 
  168000    1.1882272   -7.0646983    66.285706  0.032879814  0.035367465            2 
  169000    1.1898338   -7.0760542    66.790095  0.032933972  0.035342964            2 
  170000    1.1989399   -7.1109704    67.008415  0.032847262  0.035315537            2 
  171000    1.1911493   -7.0867236    67.357679   0.03282538  0.035288676            2 
  172000    1.1663773   -7.0793884    67.853146  0.032874586  0.035258407            2 
  173000    1.1979308   -7.0642006    68.365133  0.032931181  0.035232002            1 
  174000    1.2191616   -7.0570295    68.368886  0.032743719  0.035204651            1 
  175000    1.1861592   -7.0193747    68.932367  0.032824937  0.035173719            1 
  176000     1.174254   -7.0688507    69.092733  0.032714362  0.035145513            2 
  177000    1.1883787   -7.0793395    69.744682  0.032836479  0.035117797            2 
  178000     1.172641   -7.0655108    70.149972  0.032841747  0.035090436            1 
  179000    1.1815783   -7.1043567    70.149147  0.032657889  0.035061752            1 
  180000    1.1933398   -7.0920442     70.56443  0.032668718  0.035032819            3 
  181000    1.2051672   -7.0651532    71.504673   0.03292112  0.035004157            2 
  182000    1.1957447   -7.0547746    71.381709  0.032683933  0.034978113            3 
  183000    1.2080433   -7.1222936    71.418081  0.032521895  0.034950625            1 
  184000    1.1507118   -7.0871245    72.343993  0.032764489  0.034922244            1 
  185000    1.1889948   -7.0658744    72.662044  0.032730651  0.034897288            2 
  186000    1.1824291   -7.0588396    72.983914  0.032698886  0.034872247            2 
  187000    1.2019416   -7.0951448    73.511464  0.032759119  0.034846703            1 
  188000    1.2025312   -7.0822387    73.722554  0.032678437  0.034820232            2 
  189000    1.1843947   -7.1265921    74.051522  0.032650583  0.034794908            1 
  190000    1.1985068   -7.1084948    74.583877  0.032712227  0.034770459            2 
  191000    1.1809393   -7.0550077    75.336305  0.032869243  0.034749172            1 
  192000    1.1845247   -7.1295206    75.345652  0.032702106  0.034727434            2 
  193000    1.1251595   -7.1010293     75.88242   0.03276443  0.034706774            1 
  194000    1.1869543   -7.0421399    76.525435   0.03287175  0.034687659            1 
  195000    1.1507378   -7.0499314    76.893754  0.032860578  0.034671107            1 
  196000    1.1791834   -7.1083388    77.291019  0.032861828  0.034653739            1 
  197000    1.1635584   -7.0851368    77.781701  0.032902581    0.0346372            2 
  198000    1.1746519   -7.0645921    77.843722  0.032762509  0.034619404            1 
  199000    1.1710129   -7.0607875    78.680916  0.032948457  0.034602977            1 
  200000    1.1737858   -7.0913286    78.939344  0.032891393  0.034586554            2 
  201000    1.2014244   -7.0630245    79.749341  0.033063574  0.034572947            2 
  202000    1.1678894   -7.0541658    79.894937  0.032959957  0.034560038            1 
  203000    1.1731928   -7.0794519    80.253176  0.032944653  0.034546283            1 
  204000    1.1973959    -7.091063    80.318113  0.032809686  0.034529817            1 
  205000    1.1755442    -7.077271    80.870624  0.032874237  0.034513281            2 
  206000    1.1868232   -7.0695669    81.133656  0.032821058  0.034496471            1 
  207000    1.1965683   -7.1187379     81.34843  0.032748965  0.034477626            1 
  208000    1.1742808   -7.0704279    81.525267  0.032662366  0.034457781            1 
  209000    1.1885364   -7.1281675    81.679856  0.032567726  0.034436261            1 
  210000    1.1647951   -7.0822636      82.0953    0.0325775  0.034413949            1 
  211000     1.160368    -7.139475    82.245818   0.03248255   0.03438959            1 
  212000    1.1557782   -7.1089624     82.65868   0.03249162  0.034365036            1 
  213000    1.1534912   -7.1174776    83.130576  0.032523699  0.034338068            2 
  214000    1.1601404    -7.095753    83.324573  0.032447264  0.034312031            1 
  215000    1.1604972   -7.1145859    83.661095  0.032426781  0.034285553            3 
  216000    1.1891446   -7.0786114    83.973894  0.032397336  0.034259882            3 
  217000    1.1641686   -7.0752282    84.627056  0.032498869  0.034234292            1 
  218000    1.1575582   -7.1525623    84.540798  0.032316819   0.03420853            2 
  219000    1.1678654   -7.1450749    85.352975  0.032478301  0.034183818            1 
  220000    1.1409678   -7.1034837    85.690105  0.032458373  0.034162804            1 
  221000    1.1623042   -7.0838406    86.328018  0.032552043    0.0341433            2 
  222000    1.1790898    -7.149573    86.575864  0.032498447  0.034125478            1 
  223000    1.1733245   -7.1170595    87.148065  0.032566542  0.034106266            1 
  224000    1.1608369   -7.1377995    87.679934  0.032619023  0.034088532            3 
  225000    1.1462233   -7.1559336    87.914974  0.032561101  0.034070661            2 
  226000    1.1600938   -7.1154038    87.988599  0.032444174  0.034052328            1 
  227000    1.1752796   -7.1003215    88.542251  0.032504497  0.034033278            3 
  228000    1.1701532   -7.1209851    89.277699  0.032630738  0.034014054            1 
  229000    1.1784157   -7.1181417    89.357101   0.03251714  0.033997422            1 
  230000    1.1861873   -7.1245983    89.980215  0.032601527   0.03398067            2 
  231000    1.1673858   -7.1257766    90.259578  0.032561175  0.033963681            1 
  232000    1.1605025   -7.1127126     90.68923  0.032575154  0.033947076            1 
  233000    1.1665784     -7.15233    91.246652  0.032634711  0.033931981            1 
  234000    1.1503078   -7.1260197    91.545857  0.032601801  0.033916463            1 
  235000    1.1649518   -7.1384707    91.962402  0.032610781  0.033902003            3 
  236000    1.1618411   -7.1082636    92.136002  0.032533899  0.033888628            2 
  237000    1.1714861   -7.1656712    92.582724    0.0325537  0.033876283            1 
  238000    1.1587919   -7.1307309    93.235446  0.032645464  0.033864679            2 
  239000    1.1672779   -7.1232034    93.323951  0.032539732  0.033852074            1 
  240000    1.1585186   -7.1115923    93.741742  0.032549216  0.033838179            1 
  241000    1.1581158   -7.1436791    93.933594  0.032480496  0.033823835            1 
  242000    1.1531467   -7.1318515    94.173469  0.032428881  0.033808117            1 
  243000    1.1622379   -7.1759345    94.613975  0.032446493  0.033792598            1 
  244000    1.1599674   -7.1657711    95.057841  0.032465109  0.033777323            1 
  245000    1.1475566   -7.1123706    95.568257   0.03250621  0.033763253            4 
  246000     1.150395   -7.1254429    95.821986  0.032460022  0.033749784            2 
  247000    1.1332491    -7.102381    96.742602  0.032639204  0.033737738            2 
  248000    1.1636355   -7.1013328    96.866827  0.032549337  0.033725781            2 
  249000    1.1624335   -7.1583083    97.275636  0.032555434  0.033714087            1 
  250000    1.1486815   -7.1371456    97.537672  0.032512557  0.033702347            2 
  251000    1.1480506   -7.1089001    98.269737  0.032626075  0.033691004            1 
  252000    1.1727046   -7.1910084    98.241496  0.032487267  0.033680754            1 
  253000    1.1667008   -7.1319727    99.091703  0.032638901  0.033670918            2 
  254000     1.159656   -7.1251865    99.425781  0.032620007  0.033660778            2 
  255000    1.1542922   -7.1640045     99.49214  0.032513771  0.033649595            1 
  256000    1.1640469   -7.1089264     100.0739  0.032576139  0.033637969            1 
  257000    1.1572492   -7.1562816    99.816688  0.032365982  0.033626199            1 
  258000    1.1101212   -7.1792064    100.50954  0.032464323  0.033613612            1 
  259000    1.1619747   -7.1391265    101.05902  0.032515771  0.033602105            2 
  260000    1.1575058   -7.1506459    101.07912  0.032397153  0.033588714            2 
  261000    1.1366623    -7.148013    101.37091   0.03236619  0.033575293            1 
  262000    1.1614487   -7.1078547    101.76365  0.032367574   0.03356096            2 
  263000    1.1865789   -7.1556505    102.02708  0.032327971  0.033548497       -1e+20 
  264000    1.1667354   -7.1929346    102.06275  0.032216778  0.033533498            1 
  265000    1.1207942   -7.1529122    102.52699  0.032241192  0.033518651            2 
  266000    1.1385483   -7.1423065    102.82815  0.032214334  0.033502999            2 
  267000    1.1428474   -7.1455557    103.24408  0.032223497   0.03348787            4 
  268000    1.1413992   -7.1275606    104.12509  0.032377204  0.033472813            1 
  269000     1.126947   -7.1396154    104.54807  0.032387878   0.03345876            2 
  270000    1.1231502   -7.1846716    104.59722  0.032283091  0.033444215            1 
  271000    1.1451667   -7.1479666    105.00412  0.032289091  0.033429793            1 
  272000    1.1534194    -7.134758    105.02914  0.032178046  0.033414407            1 
  273000    1.1427113   -7.1569014    105.34419  0.032156345  0.033397855            1 
  274000    1.1378701   -7.1944126    105.74065  0.032159564  0.033381012            4 
  275000    1.1468824   -7.1631247    106.05568  0.032138084  0.033364479            2 
  276000    1.1518449   -7.1138204    106.83316  0.032256388  0.033348745            2 
  277000    1.1538269    -7.189218    106.58096  0.032064066  0.033331734            2 
  278000    1.1379724   -7.2476521    106.91007  0.032047384  0.033314091            2 
  279000    1.1818783   -7.2054123    107.08288  0.031984133  0.033296694            1 
  280000    1.1469244   -7.1557056    107.71209  0.032057168  0.033278982            3 
  281000    1.1289093   -7.1643972    108.21198  0.032091334  0.033259836            2 
  282000    1.1293223   -7.1929651    108.47129  0.032054162  0.033242146            3 
  283000    1.1517521   -7.1764267    108.67103  0.031999716  0.033224781            2 
  284000    1.1348005   -7.1461169    108.83005    0.0319337  0.033206172            1 
  285000     1.160582   -7.1502816    109.05458  0.031887304  0.033186112            1 
  286000    1.1292398    -7.232181     108.9026  0.031731527  0.033165444            1 
  287000    1.1472212   -7.1686134    109.54584  0.031807734    0.0331447            1 
  288000    1.1120541   -7.2120483    109.84414  0.031783607  0.033125177            2 
  289000    1.1606473   -7.1911952    110.24617  0.031789552  0.033105711            3 
  290000    1.1431182   -7.1919027    110.53287  0.031762318  0.033086163            4 
  291000    1.1213613   -7.1945995    110.85434   0.03174523  0.033065647            2 
  292000    1.1347112   -7.1933622     110.8506  0.031635446  0.033044156            3 
  293000    1.1424549     -7.16429    111.37291  0.031676028    0.0330222            1 
  294000     1.109538   -7.1432168    112.08869   0.03177117  0.033001072            1 
  295000    1.1333225   -7.1600702    112.69698  0.031835305    0.0329814            1 
  296000    1.1258022    -7.174161    112.33155  0.031624873   0.03296132            2 
  297000     1.133251   -7.1656495    112.81515  0.031654082  0.032941231            1 
  298000    1.1365767   -7.1747376     113.4042  0.031712583  0.032921223            4 
  299000    1.1122321   -7.2035741    113.30172   0.03157796  0.032900305            1 
  300000    1.1494754   -7.1741443    113.52055  0.031533487  0.032878765            3 
  301000    1.1367705   -7.1820484    113.74239  0.031490142  0.032857749            2 
  302000    1.1522173   -7.1626356    114.22793  0.031519847  0.032836366            2 
  303000     1.151821   -7.1753133    114.82285  0.031579443  0.032814795            1 
  304000    1.1555015   -7.1785534    115.26868  0.031597775  0.032793986            3 
  305000    1.1494407   -7.1523851    115.40757  0.031532122  0.032773533            1 
  306000    1.1175058   -7.2234305    115.65753  0.031497147  0.032752713            1 
  307000    1.1172142   -7.1915256    115.83157  0.031441793  0.032732772            1 
  308000    1.1222789   -7.1854495     116.4009  0.031493749   0.03271251            1 
  309000    1.1334386   -7.1837324    116.79911   0.03149922  0.032691648            3 
  310000    1.1662817   -7.2294357    117.16513  0.031496003  0.032671876            1 
  311000    1.1315069   -7.1942892    116.98608  0.031346752  0.032650635            2 
  312000    1.1519315   -7.1581224    117.71677  0.031441446  0.032628274            4 
  313000    1.1278653   -7.1628233    118.10041  0.031443133  0.032607022            1 
  314000    1.1442698   -7.2098212     118.0475  0.031328954  0.032585528            1 
  315000    1.1002703   -7.1918668    118.24394  0.031281465  0.032563244            2 
  316000    1.1567896   -7.1969225     118.7473  0.031315215  0.032541706            1 
  317000    1.1297586   -7.2132731    118.74981  0.031217089  0.032519604            2 
  318000    1.1194977   -7.1933258     118.9091  0.031160666  0.032497533            2 
  319000    1.1182505    -7.241872    119.38435  0.031187134  0.032474442            2 
  320000    1.1385523   -7.2420447    119.21191  0.031044769  0.032450908            2 
  321000    1.1167624   -7.2049282    119.78519  0.031096883  0.032428376            1 
  322000    1.1503469   -7.2467725    120.51815  0.031189998  0.032405989            1 
  323000    1.1229521   -7.2110684    120.72091  0.031145744  0.032383433            2 
  324000    1.1371136   -7.2102257    121.25954  0.031188152   0.03236105            1 
  325000     1.125043   -7.2330984    121.50601  0.031155387  0.032338625            1 
  326000    1.1084315   -7.2154877    121.82343  0.031140958  0.032316195            4 
  327000    1.1246878   -7.1683102    122.02986  0.031098333  0.032293572            1 
  328000     1.099704   -7.1742005    122.11419  0.031024948  0.032271361            1 
  329000    1.1192705   -7.1889938    122.63628  0.031062888  0.032248804            3 
  330000    1.1306265   -7.2040175    122.97536  0.031054384  0.032227282            2 
  331000    1.1210855   -7.1995383    123.21029   0.03101971   0.03220524            1 
  332000    1.1407279   -7.1584023    124.02913  0.031131809  0.032183816            1 
  333000    1.1352721   -7.1975163    124.22117  0.031086378  0.032163495            2 
  334000    1.1491055   -7.2416875    124.53843  0.031072463  0.032143203            1 
  335000    1.1018252    -7.223771    124.77859  0.031039451  0.032122946            2 
  336000    1.1330621   -7.1770005    125.14198  0.031037198    0.0321027            2 
  337000    1.1416411   -7.1925372    125.74984   0.03109541  0.032082944            2 
  338000    1.1278835   -7.2285765     125.7259  0.030997509  0.032064278            2 
  339000    1.1343726   -7.2320287    126.26307   0.03103812   0.03204528            2 
  340000    1.1033867   -7.1777637    126.55601  0.031018629  0.032026657            2 
  341000    1.1088831   -7.2201295    126.67648  0.030957105  0.032007219            1 
  342000    1.1269428   -7.2414308    126.58621  0.030844594  0.031986623            3 
  343000    1.1352278   -7.2247591    127.22421  0.030909671  0.031966964            2 
  344000    1.1199769   -7.2149913    127.84605  0.030970458  0.031946586            3 
  345000     1.126191   -7.1875048    128.14964   0.03095402  0.031927117            2 
  346000    1.1484633    -7.198751    128.17895  0.030871615  0.031906571            3 
  347000     1.109583   -7.2293871    128.35327  0.030824513  0.031886137            1 
  348000     1.112848   -7.2182801    128.12186  0.030680521  0.031864229            1 
  349000    1.1091156   -7.2520883    128.68178  0.030726309  0.031843397            1 
  350000     1.111282   -7.2307582    129.12394  0.030743795   0.03182196            2 
  351000    1.1225992   -7.2432721    129.72267  0.030798354  0.031801804            1 
  352000    1.1468493   -7.2217001     129.9278  0.030759422  0.031781342            3 
  353000    1.1074841   -7.2057345    130.56891  0.030823634  0.031761197            1 
  354000    1.1226945   -7.2268744    130.42978  0.030703808    0.0317416            1 
  355000    1.1000814     -7.24652    131.08687  0.030771566  0.031721924            2 
  356000    1.1217581   -7.1988483    131.64991  0.030816926  0.031702667            1 
  357000    1.1202602   -7.2417196     131.4945  0.030694328  0.031682936            1 
  358000    1.1134221   -7.2499672    131.62074  0.030637974  0.031662709            3 
  359000    1.1094605   -7.2280586    132.31731  0.030714324   0.03164261            2 
  360000    1.0875989   -7.2637311    132.69284  0.030715936  0.031622679            4 
  361000     1.152088   -7.2190102    132.35352  0.030552521  0.031602481            1 
  362000    1.1023146   -7.2464135    132.68305   0.03054398  0.031581495            2 
  363000    1.1134897   -7.2298402    132.66751   0.03045627  0.031559863            1 
  364000    1.0969227   -7.2114356    133.63209  0.030593428  0.031538714            1 
  365000    1.1186523   -7.2166081    133.66423  0.030516947  0.031516363            3 
  366000     1.133476   -7.2114648    133.59385  0.030417543  0.031494113            1 
  367000    1.1059215   -7.2272081    133.72563  0.030364583  0.031471011            2 
  368000    1.1229488   -7.2527048    133.87215  0.030315252  0.031447845            2 
  369000    1.0995503   -7.2677124    134.19791  0.030306664  0.031424974            4 
  370000    1.1103622   -7.2520386    134.39068  0.030268171  0.031401691            1 
  371000    1.1004989   -7.2302081    135.26085  0.030382041  0.031378432            3 
  372000    1.1051945   -7.2393534    134.98558  0.030238705  0.031355415            1 
  373000    1.1166305   -7.2425065    135.14506  0.030193267   0.03133212            2 
  374000     1.090258   -7.2473853    135.42858  0.030175709  0.031309755            2 
  375000    1.0797629   -7.2629824    136.17101  0.030260225   0.03128672            1 
  376000    1.1211475   -7.2140307    136.42298  0.030235589  0.031264104            1 
  377000     1.128141   -7.2416206    136.32073  0.030132787  0.031241608            2 
  378000     1.094463   -7.2210522    136.29596  0.030047611  0.031218618            2 
  379000    1.0715597   -7.2296137    136.91219  0.030103823  0.031194849            1 
  380000    1.1251783   -7.2469377    136.93637  0.030029907  0.031171259            1 
  381000    1.1124526   -7.2616619    137.32575  0.030036253  0.031147675            1 
  382000    1.0831306   -7.2801692    137.46182  0.029987308   0.03112307            1 
  383000    1.1045463   -7.2445773    137.44916  0.029906257  0.031098491            1 
  384000    1.1160739   -7.2519192    137.89888  0.029925972  0.031073527            2 
  385000    1.1145655    -7.255492     138.4466  0.029966796  0.031048354            2 
  386000    1.0955345   -7.2794781     138.8127    0.0299682  0.031023645            2 
  387000    1.0853231   -7.2866988    138.65898  0.029857661  0.030998636            3 
  388000    1.1089408   -7.2649519    138.80699  0.029812497  0.030974497       -1e+20 
  389000       1.0789   -7.2858656    138.96427  0.029769553  0.030950569            2 
  390000    1.1234139   -7.2734072    139.88449  0.029889847  0.030927851            1 
  391000    1.1204236   -7.2156725    140.29957   0.02990187  0.030904819            4 
  392000     1.086905   -7.2648721    140.58248  0.029885731  0.030881433            1 
  393000    1.0851229   -7.2578912      140.987  0.029895461   0.03085885            5 
  394000    1.1141141   -7.2312047    141.57138  0.029943186   0.03083664            1 
  395000    1.0821127   -7.2367607    141.36865   0.02982461  0.030814623            1 
  396000    1.0852089    -7.222522    142.06484  0.029895801  0.030792189            4 
  397000    1.0945004   -7.2831591    142.00737  0.029808433  0.030769489            2 
  398000      1.10732   -7.2963435    142.07285  0.029747246  0.030746952            1 
  399000    1.1063178    -7.291376    142.22398  0.029704256  0.030724574            1 
  400000    1.1078709    -7.291222    142.73234  0.029735905  0.030702035            1 
  401000    1.0908399   -7.2597812    142.80441  0.029676727  0.030680022            2 
  402000    1.0912426   -7.2618046    143.79466   0.02980818  0.030658236            1 
  403000    1.0816634   -7.3164547    143.99014  0.029774635  0.030636646            2 
  404000    1.1069751   -7.2575767    144.32508  0.029770024  0.030615829            2 
  405000    1.0926682   -7.2722641    144.92923  0.029820828  0.030595962            2 
  406000    1.0790719   -7.2917995     144.6704  0.029694252  0.030575589            1 
  407000    1.0836773   -7.2316422    145.20584  0.029730925  0.030555227            2 
  408000    1.0976885    -7.251569    145.72055  0.029763185  0.030534881            1 
  409000    1.0819604   -7.2675356    145.93265  0.029733629  0.030514707            2 
  410000    1.0954762   -7.2787887    146.36234  0.029748443   0.03049487            2 
  411000    1.1080752   -7.3234462    146.59522  0.029723281  0.030475799            2 
  412000    1.0608807   -7.3124209    147.43599  0.029821196  0.030456217            1 
  413000    1.0778578   -7.2878738     147.1629  0.029693887  0.030437204            1 
  414000    1.0852866   -7.2893713    147.54814  0.029699706  0.030417467            2 
  415000     1.075142   -7.2772029    148.14491  0.029747973  0.030398143            3 
  416000    1.0844713   -7.2843376    147.79213  0.029605795  0.030378253            1 
  417000    1.0943717   -7.3225579    147.85818  0.029547999  0.030357984            1 
  418000    1.0681463   -7.2959658    148.21363  0.029548172  0.030337563            4 
  419000    1.0998318   -7.2890075     148.6994  0.029574264  0.030317868            3 
  420000    1.0980028   -7.3104342    148.65634  0.029495306  0.030298149            3 
  421000    1.0804662   -7.2950524    148.97458  0.029488238  0.030278304            2 
  422000    1.0852192   -7.3177026    148.93333  0.029410216  0.030257923            1 
  423000    1.0600272    -7.286816     149.3102  0.029414934  0.030238034            2 
  424000    1.0738689   -7.2997611    150.12095  0.029504903   0.03021819            3 
  425000    1.0806978   -7.2842839    150.60899  0.029531175   0.03019867            1 
  426000    1.0689118   -7.3094241    150.48696  0.029437981  0.030178957            2 
  427000    1.0886992   -7.2936126    151.10414  0.029489488  0.030159258            2 
  428000    1.0894738   -7.3085174    151.25846  0.029450635  0.030139806            1 
  429000    1.0859199   -7.2866379    151.69455  0.029466696  0.030120696            3 
  430000    1.0970468    -7.331532    151.75336  0.029409565   0.03010206            2 
  431000    1.0931328   -7.2966684    152.36315  0.029459233  0.030082886            2 
  432000    1.0840344   -7.3117329    152.51289  0.029419925  0.030064056            2 
  433000    1.0844173   -7.2835173    152.79639  0.029406541   0.03004448            4 
  434000    1.0750858   -7.2940268    152.75209  0.029330279  0.030024991            2 
  435000    1.0511487   -7.2982366    152.81163  0.029274259  0.030005352            3 
  436000    1.0748111   -7.3399484    153.04295  0.029251329  0.029985443            3 
  437000     1.082926   -7.3276649    153.08424  0.029192265  0.029965037            2 
  438000    1.0993882   -7.2923542    153.56615  0.029217304  0.029944792            3 
  439000     1.081724   -7.3310176    153.59735  0.029156672  0.029924936            2 
  440000    1.1012316   -7.3073702    153.52146  0.029076034  0.029904169            2 
  441000    1.0756279   -7.2940569    154.06366  0.029112558   0.02988337            1 
  442000     1.100352    -7.284701     154.6516  0.029157542  0.029862551            1 
  443000    1.0831386   -7.3119559    154.66964  0.029095116   0.02984201            3 
  444000     1.099587   -7.3780046    154.57868  0.029012515  0.029820679            1 
  445000    1.0817856   -7.3298792    155.21951  0.029067324  0.029799202            2 
  446000    1.0714097   -7.3046205    155.48546  0.029051841  0.029777694            2 
  447000    1.0704855   -7.2928045    155.84532  0.029053938   0.02975736            1 
  448000    1.0757377   -7.3161235    156.09145  0.029034868   0.02973683            1 
  449000    1.0720876   -7.3286728    156.46463  0.029039464  0.029716668            3 
  450000    1.0675616    -7.285437    156.87249  0.029050461  0.029696697            2 
  451000    1.0712522   -7.3327964    157.28941  0.029063084   0.02967744            1 
  452000    1.0738461   -7.2897663    157.61986  0.029059709  0.029658194            4 
  453000    1.0861905   -7.2847094    157.96703  0.029059424  0.029638735            2 
  454000    1.0623632     -7.31097    157.38755  0.028889052   0.02961926            3 
  455000    1.0671268   -7.3034068     158.0797  0.028952326  0.029599258            3 
  456000    1.0599237   -7.3374886    157.91003  0.028857827  0.029579605            1 
  457000    1.0557646   -7.3465576    158.45802  0.028894607  0.029559291            1 
  458000    1.0710454   -7.3435948    158.28472  0.028799986  0.029539295            2 
  459000    1.0579098   -7.3335391     159.3871  0.028937383  0.029519574            2 
  460000    1.0382962   -7.3427088    159.07888  0.028818637  0.029500244            1 
  461000    1.0734879   -7.3219688    159.95908  0.028915235  0.029480616            1 
  462000    1.0721283   -7.3269694    160.30454   0.02891496  0.029461624            1 
  463000     1.058699    -7.366241    160.72702   0.02892855  0.029443111            2 
  464000    1.0741895   -7.3175721    161.07959  0.028929523   0.02942499            3 
  465000    1.0684912   -7.3227719    161.32182   0.02891072  0.029406529            1 
  466000    1.0566313   -7.3403662    161.27532  0.028840364  0.029388329            1 
  467000    1.0710845   -7.3144396    161.22348  0.028769357  0.029369724            3 
  468000    1.0690433   -7.3201738    161.59395  0.028773852  0.029350476            2 
  469000    1.0648945   -7.3367929    161.56499  0.028707354  0.029331249            4 
  470000    1.0852956   -7.3008734    162.04279  0.028730991   0.02931234            2 
  471000    1.0712025   -7.3389165    162.47226  0.028745976  0.029293707            2 
  472000    1.0633479   -7.3182181    162.60959   0.02870932  0.029275265            2 
  473000     1.042813   -7.3005852    163.16621   0.02874669  0.029256875            2 
  474000    1.0547053   -7.3388009    162.81606  0.028624483  0.029238002            1 
  475000    1.0755185   -7.3562396    162.85532  0.028571109  0.029218974            2 
  476000    1.0596678   -7.3570431    163.41941   0.02860984  0.029199792            2 
  477000    1.0641742   -7.3499149    163.55591  0.028573709  0.029180445            1 
  478000    1.0490552   -7.3273383    163.87258  0.028569138  0.029161183            2 
  479000    1.0464594   -7.3822032    164.56974  0.028630782  0.029142458            1 
  480000    1.0795983   -7.3344125    164.68563  0.028591256  0.029123277            2 
  481000    1.0597212   -7.3122524    165.38363  0.028652742  0.029104803            1 
  482000    1.0782391   -7.3790477    165.14944  0.028552808  0.029085754            3 
  483000    1.0962505     -7.37871    165.16087  0.028495664  0.029067331            2 
  484000    1.0700771   -7.3465419    165.92314  0.028568034  0.029048581            2 
  485000    1.0637927   -7.4084069    164.66646  0.028293206  0.029029188            2 
  486000     1.063015   -7.3785114    165.43879  0.028367419   0.02900956            4 
  487000     1.082496   -7.3401014    165.87086  0.028383104  0.028989625            2 
  488000    1.0648306   -7.3538682    166.43692  0.028421606  0.028970714            2 
  489000     1.042138   -7.3777035    166.56564   0.02838542  0.028951867            2 
  490000    1.0683369   -7.3094681    167.20691  0.028436549  0.028932878            2 
  491000    1.0558152   -7.3071191    167.34002  0.028401226  0.028913903            2 
  492000    1.0654964   -7.3655569    167.41103  0.028355527  0.028895121            3 
  493000    1.0693209   -7.3800682     167.7227  0.028350693  0.028876818            2 
  494000    1.0630621   -7.3857025    167.85386  0.028315428  0.028857496            1 
  495000    1.0668287    -7.337801    168.08378  0.028296932  0.028838461            2 
  496000    1.0766653   -7.3670613    167.85917  0.028202145  0.028819208            1 
  497000    1.0529263   -7.3638531     168.6965  0.028285799  0.028800132            2 
  498000    1.0762767    -7.361106    168.53463  0.028201912  0.028780976            2 
  499000    1.0674382   -7.3347837    169.26266  0.028266977  0.028762101            2 
  500000    1.0577353   -7.3526531    169.13104  0.028188507  0.028743278            1 
  501000    1.0629894   -7.3495675    169.61671  0.028213025  0.028724791            2 
  502000    1.0440588   -7.3892421    169.45957  0.028130738  0.028705644            3 
  503000    1.0503093   -7.3190168    170.43513  0.028236436  0.028686629            2 
  504000    1.0377681   -7.3603141    170.01527  0.028110991  0.028667774            2 
  505000    1.0513875   -7.3577543    170.54961  0.028143499  0.028648519            2 
  506000    1.0675021   -7.3561676    170.74517  0.028120087  0.028629934            1 
  507000    1.0573852   -7.3449478    170.78206  0.028070687  0.028610856            2 
  508000    1.0534997    -7.384959    171.12906  0.028072353  0.028591781            4 
  509000    1.0825575   -7.3686454     171.3947  0.028060691  0.028572746            3 
  510000    1.0671954   -7.3703526    171.67788  0.028051941  0.028554049            2 
  511000    1.0484087   -7.3591205    171.61473  0.027986746  0.028535256            4 
  512000    1.0496472    -7.373975    172.25724   0.02803666  0.028516156            4 
  513000    1.0600039   -7.3877622    171.88054  0.027920816  0.028497176            1 
  514000    1.0562002    -7.406491    172.49104  0.027965473  0.028478097            2 
  515000    1.0300439   -7.4041707    172.47732  0.027908952  0.028459041            3 
  516000    1.0371498   -7.3785796    173.32182   0.02799125   0.02844029            1 
  517000    1.0335303   -7.3894099    173.54709  0.027973419  0.028422058            1 
  518000    1.0296613   -7.3661657    174.00327  0.027992804   0.02840416            1 
  519000    1.0353388   -7.3518201    174.41687  0.028005278  0.028385963            1 
  520000    1.0649165   -7.3968926    175.01816  0.028047783  0.028368549            2 
  521000    1.0542855   -7.4059669    174.41034  0.027896728  0.028351078            1 
  522000    1.0541329   -7.4154681    174.84124  0.027912075  0.028333567            2 
  523000    1.0306599   -7.3787782    175.30387   0.02793242  0.028315882            2 
  524000    1.0445068   -7.3779669    175.61634  0.027928807   0.02829894            1 
  525000    1.0592646   -7.3851731     175.8842  0.027918127  0.028281498            1 
  526000     1.048492   -7.3828594      176.295  0.027930133  0.028264107            2 
  527000    1.0363933   -7.3897999    176.72408  0.027944985  0.028247083            2 
  528000    1.0361017   -7.3838653    177.22785  0.027971567  0.028230225            4 
  529000    1.0553973   -7.3738938    177.11669   0.02790118  0.028213486            2 
  530000    1.0589389   -7.3452347    177.35874  0.027886594  0.028196372            2 
  531000    1.0290061   -7.3828785    177.05459  0.027786344  0.028179272            1 
  532000    1.0363313   -7.3691673     176.8595  0.027703555  0.028161818            2 
  533000    1.0496397   -7.3761767    177.95115  0.027822256  0.028144476            2 
  534000     1.021888   -7.4134364    177.64112  0.027721772  0.028127045            2 
  535000     1.053796   -7.3891571    178.04556  0.027732953    0.0281098            1 
  536000    1.0740059   -7.3954018    177.76187  0.027637107  0.028092051            2 
  537000    1.0298474   -7.3946758    178.70526  0.027732039  0.028074652            1 
  538000    1.0486586   -7.4156166    178.83977  0.027701328  0.028057144            1 
  539000    1.0436041    -7.398407    178.55182  0.027605415  0.028039436            3 
  540000    1.0469452    -7.385525    179.04198  0.027629935  0.028021798            6 
  541000    1.0548928    -7.374543    179.44496  0.027640936  0.028004162            2 
  542000    1.0296246   -7.3990812    179.54423  0.027605202  0.027986784            2 
  543000    1.0339689   -7.3929087    180.04878  0.027631796  0.027969333            2 
  544000    1.0210681   -7.4221074    179.92873  0.027562612  0.027951604            1 
  545000    1.0431859   -7.3467142    181.03241  0.027680797  0.027934031            2 
  546000    1.0420121    -7.419244    180.72174  0.027582684  0.027916413            2 
  547000    1.0240574    -7.422895    180.76099  0.027538237  0.027899199            1 
  548000    1.0533344    -7.440049    181.60095  0.027615716  0.027882016            7 
  549000    1.0167696   -7.4084529     182.0492  0.027633455  0.027864968            2 
  550000    1.0078689   -7.4282675    181.12169   0.02744268  0.027848008            1 
  551000    1.0128577     -7.41702    181.98855  0.027523979  0.027830832            1 
  552000    1.0437288    -7.425091    182.04466  0.027482587  0.027813503            1 
  553000    1.0347923   -7.3876584    182.19615  0.027455719  0.027796633            1 
  554000    1.0310489   -7.4013312    182.53859   0.02745767  0.027779669            2 
  555000    1.0368296   -7.4240829    182.74966  0.027439889  0.027762174            2 
  556000    1.0333386   -7.4027175    183.15099  0.027450688  0.027744923            2 
  557000    1.0390217   -7.4160488    183.05452  0.027386971  0.027727519            4 
  558000    1.0352044   -7.4386726     182.9676  0.027324911  0.027709893            1 
  559000    1.0326508   -7.4560746    183.13981  0.027301701  0.027692182            3 
  560000    1.0467366   -7.4283868     183.7141  0.027338408  0.027674463            2 
  561000    1.0372113   -7.4294355    182.82534  0.027157655   0.02765656            2 
  562000    1.0427996    -7.395707    183.69325  0.027238026  0.027638347            3 
  563000    1.0534204   -7.4075038    184.28403  0.027277092  0.027620085            1 
  564000     1.053142   -7.4119406    184.28413  0.027228742  0.027601742            4 
  565000    1.0371326   -7.4675044    183.08364  0.027003486  0.027582992            4 
  566000    1.0177608   -7.4474348    183.68799  0.027044757   0.02756403            1 
  567000   0.99889155   -7.4521322    184.41671   0.02710416   0.02754537            1 
  568000    1.0028132   -7.4578061    184.74241  0.027104226   0.02752658            5 
  569000     1.018818   -7.3990708    185.30942  0.027139634   0.02750773            2 
  570000    1.0308959   -7.4261157    185.31819  0.027093303   0.02748945            1 
  571000    1.0462394   -7.4227469    185.12244  0.027017286  0.027471084            3 
  572000    1.0200736   -7.4740221    184.77864  0.026919964  0.027452286            2 
  573000    1.0315627   -7.4189754    186.02476  0.027054211  0.027433325            1 
  574000    1.0279742   -7.3962459    185.66812  0.026955302    0.0274145            1 
  575000    1.0448246   -7.4341729    185.93014  0.026946397   0.02739565            2 
  576000    1.0006477   -7.4479737    186.04433  0.026916136  0.027376677            3 
  577000    1.0308399   -7.4197505    186.25323  0.026899658  0.027357846            3 
  578000   0.99693796   -7.4768309    186.62193  0.026906276  0.027339234            3 
  579000    1.0198052   -7.4432332    187.59522  0.026999887  0.027320968            1 
  580000    1.0126557   -7.4694189    187.42173  0.026928409  0.027302846            1 
  581000    1.0224576   -7.4111602    187.69584  0.026921377  0.027284534            2 
  582000    1.0188921   -7.4273376    187.74035  0.026881493  0.027266555            1 
  583000    1.0331487   -7.4426268    188.05218  0.026879957  0.027248716            1 
  584000    1.0287972   -7.4519639    187.93956   0.02681786  0.027230737            1 
  585000    1.0029119   -7.4284979    189.20424  0.026952171  0.027212642            2 
  586000    1.0080831   -7.4767136    188.32781  0.026781543   0.02719465            2 
  587000    1.0330005   -7.4528786    189.00498  0.026832052  0.027176354            2 
  588000    1.0162625   -7.4203679    189.78442  0.026896884  0.027158485            1 
  589000    1.0195234   -7.4505989    189.48977  0.026809531   0.02714065            2 
  590000     1.021907    -7.431274    190.09604  0.026849724  0.027122766            2 
  591000     1.020148   -7.4402219    189.24986  0.026684977  0.027105026            3 
  592000    1.0138923    -7.449371    190.35949  0.026796099  0.027087235            4 
  593000    1.0199293   -7.4663623    190.17048  0.026724351  0.027069631            1 
  594000    1.0144065   -7.4492008    190.62769  0.026743503  0.027052074            2 
  595000    1.0227539   -7.4739453    191.26179  0.026787366  0.027034362            1 
  596000    1.0200935   -7.4460027    190.98425  0.026703614  0.027016517            2 
  597000    1.0169771   -7.4511115    191.10679   0.02667599  0.026999349            3 
  598000     1.030433   -7.4425279     191.4145  0.026674261  0.026981621            1 
  599000    1.0260983     -7.45958    191.38737  0.026625956  0.026963966            1 
  600000    1.0135979   -7.4535351    191.81569  0.026641069  0.026946501            1 
  601000     1.030301   -7.4293596    191.75528  0.026588363  0.026928909            1 
  602000   0.99042143   -7.4377489     192.5827  0.026658735  0.026911558            2 
  603000    1.0207768   -7.4510385    191.96002  0.026528472  0.026893789            2 
  604000    1.0213378   -7.4199995    192.56769  0.026568391  0.026875409            2 
  605000    1.0155056   -7.4951978    191.96248  0.026441113  0.026857206            2 
  606000    1.0384741   -7.4729883    192.55442   0.02647888  0.026839042            2 
  607000    1.0162709   -7.4706528    193.05823  0.026504425  0.026821137            2 
  608000    1.0288262   -7.4581263     193.2675  0.026489515  0.026803237            2 
  609000    1.0240466   -7.4879025    193.79198  0.026517786  0.026785367            2 
  610000   0.99333179   -7.4705114    193.56767  0.026443671  0.026767513            2 
  611000    1.0220619   -7.4692339    194.07022  0.026468934   0.02675012            3 
  612000    1.0094785   -7.4615991    194.82751  0.026528801  0.026732672            1 
  613000    1.0281289   -7.4775994    194.56585  0.026449952  0.026715789            3 
  614000    1.0086117   -7.4989517    194.97456  0.026462345  0.026698563            1 
  615000   0.99929764   -7.4468622    195.02513  0.026426169  0.026681468            2 
  616000    1.0033523   -7.4519638    195.37497  0.026430597  0.026664742            2 
  617000    1.0136065   -7.5007728    195.75474  0.026439052  0.026647821            3 
  618000    1.0027949    -7.494231    196.05957  0.026437374   0.02663054            1 
  619000    1.0241658   -7.5003851    195.51746  0.026321683  0.026613437            4 
  620000    1.0192101   -7.5082836    195.60911  0.026291546  0.026596345            2 
  621000   0.99054398   -7.4855251    196.55478  0.026376112  0.026578811            3 
  622000    1.0101684   -7.4695672    196.26772  0.026295247  0.026561602            1 
  623000    1.0079071   -7.5237374    196.06716  0.026226211  0.026544212            2 
  624000     1.016095   -7.4733966    197.07181  0.026318351  0.026526584            1 
  625000     1.017703   -7.4653882    196.85531  0.026247375  0.026509259            3 
  626000    1.0145122   -7.4429678    197.26837  0.026260433  0.026492654            3 
  627000    1.0005232   -7.4882547    197.92819  0.026306246  0.026476119            3 
  628000   0.99538068   -7.4740441    198.26973  0.026309677  0.026459437            3 
  629000   0.99116257   -7.4772949    198.19227  0.026257588  0.026442744            1 
  630000   0.99716359   -7.4530492    199.06375  0.026331184  0.026426346            2 
  631000    1.0008789   -7.4655873    198.76254  0.026249675  0.026410081            1 
  632000    1.0021869   -7.4502743    199.74374  0.026337518  0.026393712            1 
  633000    1.0003656   -7.4764298    199.30358  0.026237965  0.026377307            2 
  634000    1.0012304   -7.4774255    199.69277  0.026247735   0.02636073            3 
  635000    1.0173738   -7.5135076    198.86991  0.026098414   0.02634395            2 
  636000    1.0083757   -7.4803869    199.65294  0.026159976  0.026327481            1 
  637000   0.99483345   -7.5312578    199.44977   0.02609233  0.026311198            1 
  638000    1.0019446   -7.4662438     200.1449  0.026142228  0.026294673            1 
  639000     1.017996   -7.4974585    200.44949   0.02614104  0.026278198            1 
  640000    1.0073805   -7.4823192    200.16223   0.02606279  0.026261843            2 
  641000   0.99114448   -7.4924361    200.44105  0.026058378  0.026245621            3 
  642000    1.0138919   -7.4681003    200.82013  0.026066995  0.026229163            3 
  643000   0.99754558   -7.5156033    201.01973  0.026052324  0.026212713            2 
  644000     1.006121   -7.5149436    200.92374  0.025999449  0.026195848            4 
  645000   0.99963746   -7.4610687    201.09298  0.025981005  0.026178949            3 
  646000   0.99915464   -7.4688703    201.86056  0.026039804  0.026162699            1 
  647000   0.99926558   -7.4554542    202.02979  0.026021354  0.026146347            1 
  648000   0.98713057   -7.5235146    201.46841  0.025909003  0.026129646            2 
  649000    1.0128716   -7.4894357     201.6916   0.02589774  0.026112909            1 
  650000   0.98407106   -7.5058934     202.3307  0.025939833  0.026096098            2 
  651000   0.99770287   -7.5145918    202.33909  0.025901062  0.026079522            2 
  652000    1.0052134    -7.525622    202.35871  0.025863843  0.026062672            1 
  653000     1.008843   -7.4921427     202.3657  0.025825127  0.026045846            1 
  654000    0.9849333   -7.5212515    202.00152  0.025739236  0.026029008            1 
  655000    1.0037414   -7.4825341    203.01509  0.025828892  0.026011895            2 
  656000   0.98449213   -7.5017246    203.40277  0.025838766  0.025995074            4 
  657000   0.98501561   -7.5200339     203.6716  0.025833536  0.025978324            1 
  658000   0.98476952   -7.5064016    203.34093  0.025752397  0.025961176            1 
  659000   0.99864163   -7.5231844    203.63494  0.025750498   0.02594398            1 
  660000    1.0073993   -7.5518514    202.95893  0.025626127  0.025926751            2 
  661000   0.98719722   -7.5265825    203.58601  0.025666415  0.025909483            2 
  662000   0.99195963   -7.5217569    203.51996   0.02561933  0.025892239            2 
  663000    1.0007866   -7.5132379    204.02602  0.025644297  0.025874962            1 
  664000   0.97758107   -7.5343598    204.08804  0.025613459  0.025857815            1 
  665000   0.98312771   -7.5279484    204.81023  0.025665443  0.025840797            2 
  666000   0.98399857    -7.487951    205.21772  0.025677893  0.025824058            1 
  667000   0.97997238   -7.5133043     205.2004  0.025637232  0.025807387            2 
  668000   0.95546752   -7.5320871    205.61909  0.025651085  0.025791027            1 
  669000   0.97702595   -7.4750831    205.52763  0.025601349  0.025774829            3 
  670000   0.96008515   -7.5074887      205.905  0.025610075  0.025758593            4 
  671000   0.98374874   -7.5355854      205.769  0.025555018  0.025742155            2 
  672000   0.98647774   -7.5773208    205.79789  0.025520571  0.025725244            2 
  673000   0.97745964    -7.563492     206.5908  0.025580832  0.025708637            2 
  674000   0.98873345   -7.5590395    206.72926  0.025559997  0.025692393            4 
  675000   0.97593161   -7.5284375    206.97015   0.02555187  0.025675839            5 
  676000   0.98111767   -7.5244535    206.80433  0.025493631  0.025659396            2 
  677000    0.9721771   -7.5057326    207.39268  0.025528394  0.025642838            2 
  678000   0.98933135   -7.4809557    207.60042  0.025516276  0.025626427            1 
  679000   0.97659128   -7.5137562     207.4271  0.025457425  0.025610216            3 
  680000   0.96814624   -7.5301182    207.86293  0.025473398  0.025594081            3 
  681000    0.9652282   -7.5108645    207.97242  0.025449391  0.025577522            2 
  682000    1.0053961    -7.534944    208.05244  0.025421852  0.025561315            3 
  683000   0.99054732   -7.5235854    208.44319  0.025432307  0.025545054            1 
  684000   0.96771963   -7.5333428    208.62464  0.025417232  0.025528832            2 
  685000    1.0013971   -7.5413812    208.62537  0.025380216   0.02551262            1 
  686000   0.99090706   -7.5383924    208.47628  0.025325106  0.025496549            2 
  687000   0.98871247   -7.5351915    209.04042  0.025356674  0.025480299            2 
  688000   0.97429499   -7.5419656    209.00566  0.025315608  0.025463912            2 
  689000   0.98081732   -7.5403129     209.4024  0.025326851  0.025447604            2 
  690000   0.95965334   -7.5727012    209.38089  0.025287547  0.025431248            2 
  691000   0.98078726   -7.5080738    209.65281  0.025283745  0.025414984            2 
  692000   0.98033435   -7.5127584    210.07457  0.025297997  0.025398705            3 
  693000    0.9712453   -7.5305392    210.40866  0.025301667    0.0253825            1 
  694000   0.99920276   -7.5824512    209.80962  0.025193278  0.025366174            1 
  695000   0.97360552   -7.5103223    210.33451  0.025219965  0.025349925            2 
  696000     0.967664    -7.530874    210.48794    0.0252021  0.025333675            1 
  697000   0.96647695   -7.5393035    211.11137  0.025240479  0.025317305            1 
  698000    0.9836867   -7.5143733    211.26702  0.025222902  0.025301095            2 
  699000   0.97781951   -7.5523646    212.02253  0.025276887  0.025284831            1 
  700000   0.97258045   -7.5619031    211.05572  0.025125681  0.025268556            1 
  701000   0.97323144   -7.5444481    211.88895  0.025188891  0.025252298            1 
  702000   0.98237997   -7.5291166    211.99062  0.025165079  0.025236088            2 
  703000    0.9868223   -7.5439399    211.98275  0.025128349  0.025220016            1 
  704000   0.98201426   -7.5492178    212.29151  0.025129204  0.025204048            2 
  705000     0.973722   -7.5490006    213.22662  0.025204092  0.025188233            2 
  706000   0.97906961   -7.5616768    213.01209   0.02514307  0.025172472            2 
  707000   0.98237017   -7.5635251    212.72896  0.025074135  0.025156784            1 
  708000   0.95914753   -7.5492316    213.02756  0.025073866   0.02514089            2 
  709000   0.98324359   -7.5896612     213.4073  0.025083133  0.025125164            2 
  710000   0.96336791   -7.5651348    213.48351   0.02505675  0.025109418            1 
  711000   0.98206939   -7.5709199    213.55988  0.025030459  0.025093467            1 
  712000   0.98349104   -7.5911609    213.66341  0.025007422  0.025077812            1 
  713000   0.96674887   -7.5316028     214.0645  0.025019226  0.025061659            2 
  714000    0.9846566   -7.5663575    214.16982  0.024996477   0.02504595            4 
  715000   0.95680212   -7.5631104    214.04924  0.024947464  0.025030118            1 
  716000    0.9705824   -7.5889952    214.22907   0.02493355  0.025014099            2 
  717000   0.98093538   -7.5551361    214.58331  0.024939947  0.024998293            1 
  718000   0.97554742   -7.5545435    214.72034  0.024921117  0.024982312            1 
  719000   0.98220664   -7.5533122    214.43286  0.024853136  0.024966286            2 
  720000   0.98686781   -7.5811015    215.08335  0.024893906  0.024950203            1 
  721000   0.95998556   -7.5844401     215.7176  0.024932686  0.024934167            1 
  722000   0.95389748    -7.566227    216.07072   0.02493891  0.024918546            2 
  723000   0.97187593    -7.596864    215.89312  0.024883946  0.024902565            1 
  724000   0.95018591   -7.6322184    215.21682  0.024771734  0.024886582            2 
  725000   0.97264412   -7.5826603     216.5652  0.024892552  0.024870609            1 
  726000   0.96961677   -7.6068401    215.95392  0.024788099  0.024854746            2 
  727000   0.97265193   -7.5967746    216.04983  0.024764996  0.024838726            3 
  728000   0.97139042   -7.5515656    216.14866  0.024742292   0.02482277            2 
  729000   0.97798719   -7.6196565    216.52665   0.02475156  0.024806876            2 
  730000   0.94739568   -7.5979701    216.56919   0.02472251  0.024791048            1 
  731000   0.96592218   -7.6023202    216.51473  0.024682482  0.024775298            2 
  732000   0.95614721     -7.59367    217.21066  0.024727989  0.024759377            2 
  733000   0.96543149   -7.5695935    217.34844  0.024709919  0.024743524            2 
  734000    0.9678197   -7.6142222    217.66845  0.024712585  0.024727807            2 
  735000   0.95888248   -7.5857147    217.45681  0.024654968   0.02471193            1 
  736000   0.95604861    -7.593774    217.89537  0.024671125  0.024696139            4 
  737000   0.94756908   -7.5613259    218.27917  0.024681045  0.024680418            2 
  738000   0.94906323   -7.5942516    218.44491  0.024666318  0.024664809            2 
  739000   0.95702376   -7.6051513    218.16254  0.024601098  0.024649106            3 
  740000   0.96287759   -7.5741887    218.99151  0.024661206  0.024633704            3 
  741000   0.95922412   -7.5595515    219.02644  0.024631853  0.024618185            3 
  742000   0.96034376    -7.605561    218.50576  0.024540179  0.024602544            2 
  743000   0.95366549   -7.6278385    218.93246  0.024555009  0.024586944            2 
  744000   0.96031668   -7.6166939    218.79609  0.024506731  0.024571355            3 
  745000   0.96861478   -7.5614568    219.56277  0.024559594   0.02455579            3 
  746000   0.95369257   -7.5689652     220.1626  0.024593677  0.024540418            2 
  747000   0.95187071   -7.6169422    219.93906  0.024535816  0.024525095            1 
  748000   0.92479796   -7.5926585    219.81764  0.024489488    0.0245097            1 
  749000   0.94497344   -7.5915118    220.79005  0.024564981  0.024494271            3 
  750000   0.95254155   -7.6053681    220.38703  0.024487448  0.024479039            1 
  751000   0.96590452   -7.6065769    220.29227  0.024444327   0.02446366            1 
  752000   0.96007676   -7.6151043    220.43333  0.024427452  0.024448349            2 
  753000   0.96222581   -7.5651837    221.15219  0.024474568  0.024433066            2 
  754000    0.9510684   -7.6259898    221.45399  0.024475463  0.024417918            2 
  755000   0.94894499   -7.5859085    222.35223  0.024542189  0.024402786            2 
  756000   0.96900113   -7.5796542    222.04863   0.02447626  0.024387689            1 
  757000   0.95625419   -7.6104088    221.64305  0.024399279  0.024372528            2 
  758000   0.97312016   -7.5534243    222.16967  0.024424986  0.024357573            1 
  759000   0.94799858   -7.5889371    221.87655  0.024360622  0.024342643            2 
  760000   0.95945349   -7.5898492    222.57433   0.02440508  0.024327649            1 
  761000   0.93536385   -7.6306701    222.31553  0.024344671  0.024312643            1 
  762000   0.95326236   -7.6087921    222.65746  0.024350116  0.024297627            2 
  763000   0.95570569   -7.5855773    222.95277  0.024350455  0.024282486            3 
  764000   0.94879763   -7.6116368    222.78948  0.024300772  0.024267486            2 
  765000   0.94734437   -7.5824806    223.46179  0.024342243  0.024252367            3 
  766000   0.95662679   -7.6315623    222.87624  0.024246762  0.024237232            2 
  767000   0.93025177   -7.6090173    222.60831   0.02418604  0.024221952            2 
  768000    0.9580512   -7.6440745    223.32107  0.024231887   0.02420669            1 
  769000   0.94010404   -7.6339573    223.24931  0.024192599  0.024191312            2 
  770000   0.94593887   -7.6075793    223.51993  0.024190469  0.024175992            1 
  771000   0.95186588   -7.6064737    223.64645  0.024172768  0.024160649            2 
  772000   0.94708351   -7.5824651    224.27573  0.024209383  0.024145432            1 
  773000   0.94522991    -7.619761    224.08506   0.02415751  0.024130305            2 
  774000   0.93959739   -7.6114335     224.5458  0.024175905  0.024115079            7 
  775000   0.94241773   -7.6179951    224.95578  0.024188794  0.024100142            3 
  776000   0.95970733   -7.6210752    224.72822  0.024133185  0.024085137            3 
  777000   0.94318024   -7.6006444    224.45526  0.024072851  0.024069913            1 
  778000   0.94834051   -7.6306325    224.96824  0.024096855    0.0240549            2 
  779000   0.91922135   -7.6172847    225.41949  0.024114194  0.024039873            4 
  780000   0.94000323   -7.6579735    225.52729  0.024094796  0.024024751            2 
  781000   0.93364165    -7.637869    225.35212  0.024045254  0.024009402            2 
  782000   0.93614265   -7.6169507    225.71027  0.024052672  0.023994065            2 
  783000    0.9354766   -7.6389902    225.31098  0.023979457  0.023978625            2 
  784000   0.95706218   -7.6241197     226.2613  0.024049883  0.023963126            3 
  785000   0.93452416   -7.6455254    225.44929  0.023933045   0.02394762            4 
  786000   0.94060802   -7.6440085    226.08674   0.02397018  0.023932126            3 
  787000   0.93079311   -7.6221554    226.19208  0.023950877  0.023916514            3 
  788000   0.93732678   -7.6433943    225.36647  0.023833172  0.023900961            3 
  789000    0.9037255   -7.6265633    225.68603  0.023836716   0.02388513            2 
  790000   0.92535302   -7.6388464    226.10176  0.023850397  0.023869572            1 
  791000   0.92873472   -7.6715391     225.9866  0.023808112  0.023854054            2 
  792000   0.93704523   -7.6589276    225.88328   0.02376718  0.023838406            4 
  793000    0.9351169   -7.6574979     226.3213  0.023783239  0.023822639            1 
  794000   0.94026987   -7.6457863    226.42858  0.023764545  0.023807037            3 
  795000   0.92628463   -7.6517701     226.5272   0.02374499  0.023791441            2 
  796000   0.93279358   -7.6264711    227.09937  0.023775059  0.023775691            3 
  797000   0.93570085   -7.6019597    227.80515  0.023819025   0.02376008            2 
  798000   0.93720378   -7.6455052    227.18374  0.023724284   0.02374467            3 
  799000   0.90420341    -7.639503    227.96311  0.023775877  0.023729211            2 
  800000   0.93144618   -7.6683356    228.06395  0.023756661  0.023713661            1 
  801000   0.93400906     -7.65188    228.30454  0.023752033  0.023698389            3 
  802000   0.93825751   -7.6584792    228.34638  0.023726764  0.023683113            2 
  803000    0.9346197    -7.687308    227.98645  0.023659864  0.023667715            3 
  804000   0.91968024   -7.6728406    228.76306  0.023710931  0.023652267            3 
  805000   0.93189033   -7.6688396    228.58422  0.023662963  0.023636703            2 
  806000   0.93215426   -7.6562378    229.01448  0.023678089  0.023621473            5 
  807000   0.95097949   -7.6600662    228.89605  0.023636519  0.023606109            2 
  808000   0.94897359   -7.6461049    228.75321  0.023592534  0.023590747            3 
  809000   0.92258053   -7.6591391    229.29711  0.023619397  0.023575488            6 
  810000   0.90082038   -7.6417529    229.82812  0.023644869  0.023560369            1 
  811000   0.93725155   -7.6489925    229.72346  0.023604959  0.023545181            4 
  812000   0.90933864   -7.6809566    229.11333  0.023513273  0.023529891            6 
  813000   0.92886999   -7.6365184     229.9251  0.023567558  0.023514719            1 
  814000   0.93947493   -7.6547383    229.73899  0.023519553  0.023499559            3 
  815000   0.91251378   -7.6341721     231.0154  0.023621207  0.023484394            3 
  816000   0.92283455   -7.6429604    230.91073   0.02358157  0.023469444            3 
  817000    0.9119637   -7.6385808    230.54703  0.023515609  0.023454171            2 
  818000   0.90976425   -7.6747328    229.45626   0.02337574  0.023438885            6 
  819000   0.91181563   -7.6121598    230.67175  0.023470874  0.023423512            2 
  820000   0.90208493   -7.6653399    230.89277  0.023464713  0.023408199            3 
  821000   0.92308971   -7.6755922    230.96521  0.023443485  0.023392806            3 
  822000   0.92433795   -7.7033388    230.22172  0.023339591   0.02337727            3 
  823000   0.93138824   -7.6631964    231.17172  0.023407424  0.023361843            1 
  824000   0.91419086   -7.6573816    231.12423  0.023374214  0.023346688            1 
  825000   0.92148832   -7.6453699    231.85873  0.023420074  0.023331577            1 
  826000   0.92982707    -7.689985    231.44214  0.023349691  0.023316278            2 
  827000   0.92383583   -7.6986173    231.80628   0.02335815  0.023301038            3 
  828000   0.90999901   -7.6366231     232.5645   0.02340625  0.023285872            4 
  829000   0.93145833   -7.6453666    232.19883  0.023341257  0.023270836            2 
  830000   0.89999402   -7.6416949     231.6556  0.023258595  0.023255742            1 
  831000   0.92497854     -7.64031    232.58335  0.023323642  0.023240523            2 
  832000    0.9330816   -7.6950112    232.47811  0.023285067  0.023225238            1 
  833000   0.93828318   -7.7113345    232.03568  0.023212853   0.02320973            3 
  834000   0.91603027    -7.668315    232.23355  0.023204791   0.02319421            2 
  835000   0.93819272   -7.7232565    232.30648  0.023184279  0.023178837            2 
  836000   0.91787349   -7.6857737    232.55235  0.023181056  0.023163414            2 
  837000   0.90876496    -7.666547    233.14939  0.023212803  0.023147933            2 
  838000   0.91076517   -7.6665643    233.16423  0.023186578  0.023132502            1 
  839000   0.92805319   -7.6677645    233.77272   0.02321938  0.023117374            2 
  840000   0.91098174    -7.694492    232.98042  0.023113137  0.023102147            5 
  841000   0.94249465   -7.7018432     233.4399  0.023131183  0.023086871            1 
  842000   0.92572485   -7.6473297     233.5115  0.023110797  0.023071604            1 
  843000   0.90251052   -7.6890194    233.53108  0.023085318  0.023056266            1 
  844000   0.89144837    -7.694411    234.26318  0.023130251  0.023040966            2 
  845000   0.91515729    -7.715169    233.17727  0.022995786  0.023025367            4 
  846000   0.90096464    -7.713261    233.69235  0.023019341  0.023010049            1 
  847000   0.92455915   -7.7200218    233.53233   0.02297642  0.022994549            5 
  848000   0.92336683   -7.7278127    233.79549  0.022975186  0.022979218            1 
  849000   0.91409121   -7.7306528    234.02496  0.022970648  0.022963802            2 
  850000   0.87872773   -7.6875496    234.53657  0.022993782   0.02294819            3 
  851000   0.90801596   -7.6672325    234.98483  0.023010657  0.022932696            2 
  852000   0.90179317   -7.6948152    233.75984  0.022863834  0.022917157            2 
  853000    0.9194798   -7.6904346    234.27111  0.022886978  0.022901656            2 
  854000   0.91412665   -7.6946795    234.34139  0.022867037  0.022886175            1 
  855000   0.92304259   -7.6769222    235.17462  0.022921503  0.022870828            2 
  856000   0.91146587   -7.7172561    234.76278  0.022854632  0.022855383            3 
  857000   0.90990008   -7.6681061    234.82447  0.022833963  0.022839815            2 
  858000   0.90015371   -7.6789858    235.14539  0.022838519   0.02282439            2 
  859000   0.92850482   -7.6950252    235.59147  0.022855207  0.022808868            2 
  860000   0.91389872   -7.7114081    235.00853  0.022772145  0.022793294            3 
  861000   0.90987114   -7.7187879    236.15709  0.022856861  0.022777792            2 
  862000   0.91729847   -7.6820756    236.16494  0.022831104  0.022762382            4 
  863000   0.90418844   -7.7333455    235.82027  0.022771366  0.022747112            1 
  864000   0.89826967   -7.7277057    235.55885  0.022719797  0.022731665            1 
  865000   0.90016173   -7.7309618    235.49174  0.022687065   0.02271617            1 
  866000   0.89445206   -7.7299879    235.99851  0.022709633  0.022700582            2 
  867000   0.91510307   -7.6970131    236.05082  0.022688468  0.022685163            1 
  868000   0.91532292    -7.743097    235.97625   0.02265517   0.02266952            1 
  869000   0.92266161   -7.7312861     236.5048  0.022679786  0.022653746            2 
  870000   0.90528095   -7.7027151    236.94775  0.022696145  0.022638308            1 
  871000   0.89409716   -7.7168183    236.18504  0.022597115  0.022622854            3 
  872000    0.9014343   -7.7024115     236.9931  0.022648423  0.022607358            2 
  873000   0.89387061    -7.729131    236.21412  0.022548122  0.022591716            3 
  874000   0.90264055   -7.6936112    237.28237  0.022624177  0.022575974            3 
  875000   0.88616019   -7.6988602    237.17173  0.022587783  0.022560233            2 
  876000   0.92063237   -7.6889728    236.95974  0.022541832  0.022544599            1 
  877000   0.90685745   -7.7347731    237.07486  0.022527068   0.02252902            1 
  878000   0.91540768   -7.7010393    236.91094  0.022485852  0.022513342            2 
  879000   0.89914915   -7.7030975    236.97918  0.022466741   0.02249749            3 
  880000   0.89667124   -7.7166008    237.79974  0.022518914  0.022481752            1 
  881000   0.88958464   -7.7191036    237.33553  0.022449445  0.022465979            2 
  882000   0.88871486    -7.735475    237.46623  0.022436341  0.022450177            2 
  883000   0.90601665   -7.7605242    237.04078  0.022370779  0.022434214            2 
  884000   0.91444625   -7.7628376    237.16559  0.022357239  0.022418365            1 
  885000   0.90476676   -7.7415668    237.46934  0.022360578   0.02240247            5 
  886000   0.90967792   -7.7210725    237.65558  0.022352857  0.022386512            2 
  887000   0.88762177   -7.7338721    237.95936  0.022356197  0.022370686            1 
  888000   0.89025127   -7.7460723    238.05011  0.022339537  0.022354847            1 
  889000   0.90948288   -7.7632448    238.31285  0.022339037  0.022339142            2 
  890000   0.88646355   -7.7226885    238.93851  0.022372519  0.022323503            1 
  891000   0.89712315   -7.7338528    239.18828  0.022370771   0.02230783            1 
  892000   0.89852702   -7.7299006    238.79207  0.022308676  0.022292202            2 
  893000   0.88069676   -7.7249548    238.76837  0.022281482  0.022276518            1 
  894000   0.88006173   -7.7711995    238.15828  0.022199691  0.022260719            3 
  895000   0.89438685   -7.7292287    239.00892   0.02225409  0.022244951            1 
  896000   0.88926262   -7.7375785     238.1159  0.022146196  0.022229051            2 
  897000    0.8846644   -7.7436091    238.88758  0.022193198  0.022213169            3 
  898000   0.91196203   -7.7453443    239.02271  0.022181024  0.022197301            3 
  899000   0.87689482   -7.7439154    239.61074  0.022210858  0.022181472            2 
  900000   0.89049295   -7.7537176    239.23771   0.02215164  0.022165697            2 
  901000    0.8867761   -7.7082748    239.43404  0.022145212  0.022149953            2 
  902000   0.91173622   -7.7887685    239.14148  0.022093633  0.022134208            2 
  903000    0.8936182   -7.7219323    239.43949  0.022096668  0.022118429            4 
  904000   0.89303805   -7.7679798     239.5905  0.022086145  0.022102563            3 
  905000   0.87885316    -7.745558    239.39453  0.022043696  0.022086852            1 
  906000   0.90182854   -7.7925025    239.82211  0.022058693   0.02207118            2 
  907000   0.86758376   -7.7501121    240.09527   0.02205947  0.022055469            2 
  908000   0.90504168   -7.7784679    240.76662   0.02209679  0.022040096            2 
  909000   0.91204294   -7.7646005    240.24866  0.022024996  0.022024598            2 
  910000   0.87312095   -7.7674685    240.52698  0.022026281  0.022009095            2 
  911000   0.88611114   -7.7230671    240.82524  0.022029386  0.021993657            2 
  912000   0.86895025   -7.7635111    240.74841   0.02199821  0.021978312            3 
  913000   0.89352011   -7.7598661    241.03137  0.021999943  0.021963109            1 
  914000   0.90356085   -7.7707335     241.4539  0.022014396  0.021947893            3 
  915000   0.88373223   -7.7955458    241.76901  0.022019035  0.021932754            2 
  916000   0.88509581   -7.7622599    242.02662  0.022018434  0.021917492            7 
  917000   0.88548209   -7.7434555    241.88424  0.021981483  0.021902334            3 
  918000   0.90428797   -7.7277888     242.1869  0.021985012  0.021887293            2 
  919000    0.8809501   -7.7604653    241.84787  0.021930348  0.021872233            2 
  920000   0.88967316   -7.7611998    242.38599  0.021955253  0.021856999            1 
  921000   0.90271307   -7.7335139    242.08127  0.021903843   0.02184179            2 
  922000   0.85944168   -7.7906537    242.31501  0.021901212  0.021826512            1 
  923000   0.88264801   -7.7676994    242.42466  0.021887384  0.021811322            1 
  924000   0.88287827   -7.7687573     242.4552   0.02186645  0.021796148            1 
  925000   0.87485873   -7.7801073    242.63257  0.021858791  0.021781081            1 
  926000   0.88300652   -7.7537866    243.40531  0.021904726  0.021766085            2 
  927000    0.8987338   -7.7896722    242.99557  0.021844262  0.021750964            1 
  928000   0.87521266   -7.7833714    242.59897  0.021785108  0.021735785            2 
  929000   0.87482188   -7.7821793    243.14674  0.021810794  0.021720702            2 
  930000   0.89427865   -7.7653417    243.36298  0.021806719  0.021705788            4 
  931000   0.86882369    -7.767874     243.1855   0.02176741  0.021690783            2 
  932000   0.86632062   -7.7762369     243.2107  0.021746307  0.021675678            1 
  933000   0.87975466   -7.7785499    242.95551  0.021700206    0.0216605            2 
  934000   0.89479468   -7.7641333    243.99841  0.021770022  0.021645395            1 
  935000   0.86680186   -7.8254154    242.89768  0.021648635  0.021630393            1 
  936000   0.89340825   -7.7973099    243.64364  0.021691919    0.0216154            1 
  937000   0.89288403   -7.7731222    244.01605   0.02170189  0.021600345            2 
  938000   0.88688072   -7.7625731    243.86406   0.02166525  0.021585378            1 
  939000   0.88585721   -7.7810272    244.52046  0.021700431  0.021570465            2 
  940000   0.85713932   -7.7859474    244.59984  0.021684383   0.02155546            1 
  941000   0.87685905   -7.7990841    243.78367  0.021589061  0.021540264            2 
  942000   0.89211293    -7.782307    244.24818  0.021607235  0.021525136            2 
  943000   0.87006097   -7.7538314    244.44121  0.021601379  0.021510035            2 
  944000   0.86957364   -7.7863819    244.68644  0.021600145  0.021495145            1 
  945000   0.87420605   -7.7694101    245.11477  0.021615059  0.021480284            4 
  946000   0.87198132   -7.7929741     245.2445  0.021603638  0.021465389            2 
  947000   0.88294808   -7.7752221    246.01794  0.021648886  0.021450595            1 
  948000   0.86897252   -7.8250572    245.75334   0.02160279  0.021435803            1 
  949000   0.87099741   -7.8104561     245.4517  0.021553539  0.021421006            2 
  950000   0.88171702   -7.8038541    245.16643  0.021505827  0.021406292            3 
  951000   0.86957927    -7.783389    245.87134  0.021544982  0.021391695            2 
  952000   0.88725919   -7.8194305    245.50218  0.021490037  0.021376974            2 
  953000   0.86550706   -7.8422715    245.08616  0.021431109  0.021362176            2 
  954000   0.89335124   -7.8175487    245.84566  0.021474988    0.0213473            4 
  955000   0.86543264   -7.8095684    246.15887  0.021479831  0.021332432            2 
  956000   0.87154225   -7.8371822    245.79211  0.021425393  0.021317526            2 
  957000   0.87353225   -7.8182626    246.21937   0.02144021   0.02130277            2 
  958000   0.86621333    -7.842594    246.34702  0.021428933  0.021287959            1 
  959000   0.86031337   -7.8043346    246.93004  0.021457251  0.021273126            2 
  960000   0.88727732   -7.8083657    246.06738  0.021360016  0.021258281            5 
  961000   0.86639377   -7.8158904    246.66942  0.021389995  0.021243458            2 
  962000   0.84751466   -7.8067406    246.25608  0.021331955  0.021228635            3 
  963000   0.86938679   -7.7865562    246.71188  0.021349245   0.02121378            2 
  964000    0.8681383   -7.7693283    247.37481  0.021384406  0.021198994            1 
  965000    0.8627689   -7.8128705    246.45716  0.021283002  0.021184171            1 
  966000   0.86145372   -7.7982648    246.83916  0.021293924   0.02116927            2 
  967000   0.87763768   -7.8120187    247.39386  0.021319705  0.021154408            2 
  968000   0.87148785   -7.8316163    247.07867  0.021270547  0.021139521            2 
  969000   0.88480826   -7.7839746    247.26428  0.021264558  0.021124646            2 
  970000   0.86836957   -7.7936921     247.5584  0.021267904  0.021109841            2 
  971000   0.86509939   -7.8178546    247.28581  0.021222607  0.021095121            1 
  972000   0.86533188   -7.8447101    247.02782  0.021178654  0.021080199            1 
  973000   0.88775621   -7.8549264    247.69376  0.021213922   0.02106528            3 
  974000   0.87411952   -7.8538707    246.83228  0.021118436  0.021050342            1 
  975000   0.87169908   -7.8265865    247.72026  0.021172672  0.021035605            3 
  976000   0.86384119   -7.8177864    248.21307  0.021193056  0.021020841            1 
  977000    0.8591696   -7.8174948     248.2736  0.021176526  0.021006145            2 
  978000     0.888248   -7.8218936     248.3723  0.021163284  0.020991348            3 
  979000   0.85168799   -7.8150083    248.72661  0.021171826   0.02097666            1 
  980000   0.85745537   -7.8173876    248.18709  0.021104345  0.020961926            2 
  981000   0.87303201   -7.8448153    248.45293  0.021105414  0.020947263            1 
  982000   0.88883674    -7.784393    249.44992  0.021168527  0.020932738            1 
  983000   0.85849886   -7.8355849    248.61249     0.021076  0.020918308            1 
  984000   0.85823762   -7.8104125    249.08549  0.021094639  0.020903773            1 
  985000   0.85957133   -7.8234567    249.18229  0.021081412  0.020889104            2 
  986000    0.8726981    -7.832809    248.91761  0.021037661  0.020874435            5 
  987000   0.85874733    -7.819962    248.79607  0.021006085  0.020859813            2 
  988000   0.89489097   -7.8353882     248.6012  0.020968387  0.020845283            3 
  989000   0.84163901   -7.8414795    249.01946  0.020982429  0.020830619            3 
  990000    0.8719871   -7.8347539    249.39785  0.020993085  0.020816031            3 
  991000   0.86506186   -7.8482897    250.13001  0.021033469  0.020801544            2 
  992000   0.84792061    -7.815177    249.18856  0.020933179  0.020787207            1 
  993000   0.85251245   -7.8469653    249.98517   0.02097895  0.020772744            2 
  994000   0.87504604    -7.833675    249.77529  0.020940249  0.020758233            2 
  995000   0.86571243   -7.8817747    249.18666  0.020869905  0.020743577            2 
  996000   0.86366325   -7.8764162     249.8197  0.020901916  0.020729013            2 
  997000   0.85335886   -7.8838567    249.92317  0.020889599  0.020714281            3 
  998000   0.87008646   -7.8341682    250.25084  0.020896029  0.020699693            1 
  999000   0.85081856   -7.8445714    250.34706  0.020883138  0.020685213            1 
 1000000   0.84936525   -7.8819367    250.00902  0.020834085  0.020670702            1 
 1001000   0.85994266    -7.809408    251.16267  0.020909313  0.020656343            2 
 1002000   0.84225007   -7.8628249    250.84767  0.020862248  0.020641937            1 
 1003000   0.85683617   -7.8514431    250.64253  0.020824404  0.020627541            1 
 1004000   0.84846761   -7.8141505    251.05963  0.020838283  0.020613237            1 
 1005000   0.86459484   -7.8576958    251.05823  0.020817432   0.02059894            1 
 1006000   0.85182348   -7.8618947    251.07982  0.020798527  0.020584619            1 
 1007000   0.85792066   -7.8772741    250.53963  0.020733171  0.020570295            2 
 1008000    0.8410863   -7.8692162    250.48037  0.020707703  0.020555876            3 
 1009000   0.83803577   -7.8496908    251.09012  0.020737539  0.020541403            3 
 1010000    0.8416689   -7.8625988    251.49935  0.020750771  0.020527096            3 
 1011000   0.85800531   -7.8528755    251.09353  0.020696796  0.020512799            4 
 1012000   0.83613374   -7.8426187    252.86981  0.020822613  0.020498639            3 
 1013000   0.85535248   -7.8700231    251.50453  0.020689745  0.020484406            4 
 1014000   0.86110784   -7.8781531    251.52308  0.020670865  0.020470106            3 
 1015000   0.83731198   -7.8712266    251.22484  0.020626013  0.020455716            3 
 1016000   0.85386643    -7.880712    251.60614  0.020636987  0.020441349            4 
 1017000   0.84938778   -7.8573178     251.9008  0.020640839  0.020426944            3 
 1018000   0.87293026   -7.8475348    252.23236  0.020647704  0.020412518            2 
 1019000   0.83491063   -7.8710643    251.71138  0.020584837  0.020398111            3 
 1020000   0.84435792   -7.8775754    251.28244  0.020529611  0.020383753            2 
 1021000   0.83714898   -7.8465763    252.03177  0.020570664  0.020369406            1 
 1022000   0.85149949   -7.8693625    252.28665  0.020571318  0.020354934            2 
 1023000    0.8438705   -7.8706824    252.24535  0.020547846  0.020340423            2 
 1024000   0.85183213   -7.8342049    252.27977   0.02053058     0.020326            3 
 1025000   0.85537649    -7.834446    252.64111  0.020539928  0.020311639            2 
 1026000   0.81850825    -7.870538    252.07001  0.020473522   0.02029721            1 
 1027000   0.83054042   -7.8701024    252.41604  0.020481665  0.020282865            2 
 1028000   0.82537431   -7.8723167    252.14892  0.020440087  0.020268432            1 
 1029000   0.84066481   -7.9060843    251.92417  0.020402022  0.020253937            1 
 1030000    0.8440677   -7.8962514    252.08176  0.020394965  0.020239298            4 
 1031000   0.83342862   -7.8947886    252.20263  0.020384952  0.020224642            2 
 1032000   0.84094268   -7.9146182    252.64806  0.020401168  0.020209998            1 
 1033000   0.86164534   -7.8696804    252.66422  0.020382722  0.020195296            3 
 1034000   0.85073899   -7.8934025    251.94756  0.020305252  0.020180608            1 
 1035000   0.83246592   -7.8691117    252.20492  0.020306354  0.020165962            2 
 1036000   0.81458944   -7.9053792     252.7293  0.020328934   0.02015131            1 
 1037000   0.83687157   -7.8903332    252.99178  0.020330423   0.02013678            1 
 1038000    0.8387426   -7.8919892     252.6033  0.020279648  0.020122293            7 
 1039000   0.84161992   -7.8732321    253.53132  0.020334562  0.020107649            1 
 1040000   0.83129153   -7.8822336    252.81848  0.020257891  0.020093174            1 
 1041000   0.84013599   -7.8847706    253.22046   0.02027061  0.020078669            2 
 1042000   0.84037425   -7.8727722    253.13202  0.020244083  0.020064116            1 
 1043000   0.84501581   -7.8626079    252.57438   0.02018012  0.020049538            1 
 1044000   0.83552041   -7.8648681    253.05313  0.020199005  0.020034918            2 
 1045000   0.83526659   -7.8967306    253.12234  0.020185194  0.020020193            3 
 1046000   0.81878626    -7.913151     252.6984  0.020132123  0.020005453            2 
 1047000   0.83417995   -7.9334433    252.31101  0.020082061  0.019990557            4 
 1048000   0.83346352   -7.8866178    252.96855  0.020115183  0.019975652            3 
 1049000   0.83070232   -7.8807279     252.7948  0.020082206  0.019960919            2 
 1050000   0.83728802   -7.8979994    252.92345   0.02007329  0.019946244            2 
 1051000   0.83776178    -7.883737    253.35216  0.020088183  0.019931601            1 
 1052000   0.83587108   -7.8697761    253.41174  0.020073807  0.019916838            2 
 1053000   0.82105836   -7.8958019     253.2747  0.020043898  0.019902116            2 
 1054000   0.81363491   -7.8671717    252.86971  0.019992862  0.019887362            1 
 1055000    0.8180326   -7.8773108    253.43616  0.020018654  0.019872593            4 
 1056000   0.81815455   -7.8982701    253.42927  0.019999153  0.019857749            2 
 1057000   0.83499092   -7.8958783    253.94023  0.020020516  0.019842922            1 
 1058000   0.82199879   -7.9019865    253.98178  0.020004866  0.019828219            3 
 1059000   0.82959322   -7.8928682    253.87302  0.019977417   0.01981348            1 
 1060000    0.8399942   -7.9257265     253.0303   0.01989232  0.019798715            4 
 1061000   0.82212058    -7.924207    253.71844  0.019927619  0.019783892            2 
 1062000   0.81139009   -7.9239471    253.08745  0.019859342  0.019768923            2 
 1063000   0.82885789   -7.9536476     252.6666  0.019807667  0.019754013            2 
 1064000    0.8422442   -7.9078684    253.04275  0.019818511  0.019739098            2 
 1065000   0.84006231   -7.9477775    253.61804  0.019844917  0.019724147            4 
 1066000   0.83698042   -7.9402977    253.30719  0.019802001  0.019709147            2 
 1067000   0.83434423   -7.8983404    253.85986  0.019826606  0.019694222            2 
 1068000   0.80763906   -7.9284318    253.85144  0.019807384  0.019679393            1 
 1069000   0.82078938   -7.9153976    254.11133  0.019809115  0.019664576            2 
 1070000   0.81572244   -7.9083476    254.42448  0.019814991  0.019649761            1 
 1071000    0.8188694   -7.9086927    254.43239  0.019797104  0.019635044            3 
 1072000   0.84483521   -7.9206509    254.85747  0.019811682  0.019620417            3 
 1073000   0.82904079   -7.9035591    254.88889  0.019795658  0.019605757            1 
 1074000   0.83481582   -7.9263178    254.45471  0.019743537  0.019591054            2 
 1075000   0.84172548   -7.9238728    254.49835  0.019728554  0.019576397            2 
 1076000   0.81147343   -7.9145008    254.28964  0.019694055  0.019561625            2 
 1077000   0.82360483   -7.9110732    254.16546  0.019666161  0.019546882            2 
 1078000   0.81498899   -7.9087848    255.12471  0.019722071  0.019532171            2 
 1079000   0.85156327   -7.9123591    254.20248  0.019632567  0.019517465            5 
 1080000   0.81450335   -7.9390848    254.41922  0.019631113   0.01950269            4 
 1081000   0.82847005   -7.9285479    254.21631   0.01959731  0.019487887            1 
 1082000   0.82488176   -7.9127254    255.02077  0.019641156  0.019473058            3 
 1083000   0.81048162   -7.9248415    254.66339  0.019595521  0.019458196            3 
 1084000   0.82677773   -7.9317577    254.60238  0.019572754   0.01944323            3 
 1085000   0.81322516   -7.9294528    255.60008  0.019631342  0.019428391            3 
 1086000   0.80389106   -7.9140385    254.89892  0.019559462  0.019413503            3 
 1087000   0.82838436   -7.9504461    254.31047  0.019496356  0.019398627            2 
 1088000   0.82233219   -7.9597485    254.23554  0.019472698   0.01938371            4 
 1089000   0.83257372    -7.951079    254.52224  0.019476755  0.019368765            3 
 1090000   0.80753835   -7.9601418    254.52288  0.019458936  0.019353837            7 
 1091000   0.80565819   -7.9507393    254.37364  0.019429701   0.01933889            6 
 1092000   0.81319096    -7.947569    254.62359  0.019430982  0.019323933            2 
 1093000   0.80191434   -7.9487187    254.43861  0.019399101  0.019308954            1 
 1094000   0.80758737   -7.9354003    255.15896   0.01943624  0.019294095            4 
 1095000   0.81850726   -7.9573279     254.2731  0.019351073  0.019279184            1 
 1096000   0.82309096   -7.9737599    254.53863  0.019353607  0.019264196            2 
 1097000   0.83146484   -7.9335669    255.31783  0.019395156  0.019249255            4 
 1098000   0.79749522   -7.9731536    254.76309  0.019335389  0.019234279            3 
 1099000   0.81094438   -7.8976463    255.13849  0.019346261  0.019219399            2 
 1100000   0.80969511   -7.9267189    255.54328  0.019359339  0.019204529            3 
 1101000   0.83029129   -7.9508553    255.25386   0.01931985  0.019189661            4 
 1102000   0.79965506   -7.9433995    255.48022  0.019319436  0.019174759            1 
 1103000   0.80232158   -7.9432067    255.24917  0.019284464  0.019159918            2 
 1104000   0.82853402   -7.9493707    255.31769  0.019272168  0.019145037            1 
 1105000    0.8069662   -7.9668779    255.07847  0.019236687  0.019130176            4 
 1106000   0.80798046   -7.9375483    255.82384  0.019275455  0.019115357            3 
 1107000   0.83904618   -7.9154977    256.04841  0.019274948  0.019100532            5 
 1108000   0.82817379   -7.9493185    255.79659  0.019238612  0.019085772            3 
 1109000   0.80471158    -7.925885    256.52795  0.019276221  0.019071103            3 
 1110000   0.80062763   -7.9204969    255.99618  0.019218933  0.019056356            1 
 1111000   0.80734869   -7.9665662    255.70145  0.019179527  0.019041564            2 
 1112000   0.82645594   -7.9543815    256.24731  0.019203186  0.019026826            1 
 1113000   0.80940757   -7.9719574    256.62314  0.019214071  0.019012086            2 
 1114000   0.80715968   -7.9814905    255.47611   0.01911102  0.018997336            1 
 1115000   0.79902892   -7.9845937    255.61363  0.019104157  0.018982494            1 
 1116000   0.82436861   -7.9778067    255.98702  0.019114921  0.018967709            4 
 1117000    0.8022262   -7.9740781    256.23262  0.019116131  0.018952988            2 
 1118000   0.80564582   -7.9389177    256.17965  0.019095084  0.018938358            2 
 1119000   0.83849447   -7.9743352    256.61205  0.019110221  0.018923798            1 
 1120000   0.81528586   -7.9466493    256.41652   0.01907861   0.01890925            2 
 1121000   0.81416528    -7.917388    257.02576  0.019106881  0.018894625            2 
 1122000   0.81441038   -7.9739153    256.96646  0.019085447   0.01888004            2 
 1123000   0.81162101   -7.9645289    256.66707  0.019046235  0.018865436            2 
 1124000   0.80039959   -7.9552146    256.05991  0.018984275  0.018850764            1 
 1125000   0.81296822   -7.9818696     256.3564  0.018989363  0.018835959            2 
 1126000    0.8163349   -7.9792411    255.92447  0.018940532  0.018821143            2 
 1127000   0.80051198   -7.9780234    256.49276  0.018965747  0.018806405            3 
 1128000   0.79874462   -7.9699958    256.20321  0.018927542  0.018791606            5 
 1129000   0.79325281   -7.9844681    256.26817  0.018915572  0.018776825            3 
 1130000   0.81294388    -7.965726    256.76365  0.018935372   0.01876211            2 
 1131000   0.81350567   -7.9752408    256.52392  0.018900967  0.018747409            2 
 1132000   0.80055435   -7.9910661     256.8713  0.018909842  0.018732774            3 
 1133000   0.79661958    -7.996648    257.23099  0.018919608  0.018718146            4 
 1134000   0.79884782   -7.9959096    256.65493  0.018860591  0.018703474            2 
 1135000   0.80584712   -8.0361162    256.64004  0.018842881   0.01868883            3 
 1136000   0.81613469   -7.9830433    256.78199  0.018836707  0.018674263            2 
 1137000   0.79732101   -8.0030799     257.2097  0.018851488  0.018659698            1 
 1138000   0.81248415     -7.98456    257.40181   0.01884899  0.018645124            1 
 1139000   0.79831915   -8.0130694    256.71214  0.018781983  0.018630541            2 
 1140000   0.80363804   -7.9984151    257.64446  0.018833659  0.018615999            3 
 1141000   0.79009675   -7.9834604    257.65435  0.018817875  0.018601514            1 
 1142000   0.80202775   -7.9946591    257.23127  0.018770524  0.018587043            3 
 1143000   0.78467577   -8.0011175    257.65381  0.018784909  0.018572588            1 
 1144000   0.79954853   -8.0255454    257.25057  0.018739115  0.018558107            3 
 1145000    0.7854542   -8.0142595    258.10436  0.018784888  0.018543569            2 
 1146000   0.79244762   -8.0063861    257.16478  0.018700173  0.018529069            2 
 1147000   0.79257924   -8.0083588    257.40905  0.018701616  0.018514569            2 
 1148000   0.79977805   -7.9860154    257.62593   0.01870107  0.018500129            3 
 1149000   0.81438641   -7.9986107    258.09993  0.018719171  0.018485694            3 
 1150000   0.80156666   -8.0200348    257.38528  0.018651107   0.01847125            3 
 1151000   0.80016494   -8.0127973    257.08822  0.018613396  0.018456792            2 
 1152000   0.80149818   -8.0103792    257.21549  0.018606444  0.018442313            1 
 1153000   0.79015985   -8.0051877    257.28714  0.018595486  0.018427815            2 
 1154000     0.813246   -8.0128279    257.59337  0.018601486   0.01841343            2 
 1155000   0.77188344   -8.0214554    257.54571  0.018581942     0.018399            1 
 1156000   0.79523753   -8.0308232     257.2549  0.018544903  0.018384477            2 
 1157000   0.78104104   -8.0486623     257.8812  0.018573984  0.018369946            2 
 1158000   0.80170888   -8.0427128    256.87831  0.018485774  0.018355449            3 
 1159000   0.78656414   -8.0079518    257.91313  0.018544229  0.018340934            2 
 1160000   0.77397758    -8.036943    256.98769  0.018461759   0.01832649            3 
 1161000   0.79806414   -8.0261114    257.85851  0.018508363  0.018311973            2 
 1162000   0.78069352   -8.0227921     258.7216  0.018554332  0.018297506            2 
 1163000   0.77001218   -7.9839809    257.95948  0.018483769  0.018283091            3 
 1164000   0.79738974   -8.0452534    257.43359   0.01843024   0.01826868            3 
 1165000   0.78465887   -8.0256096    258.15874  0.018466291  0.018254172            2 
 1166000    0.7718727   -8.0243475    257.38414  0.018395093  0.018239633            1 
 1167000    0.7907381   -8.0383456    257.63253  0.018397068  0.018225027            3 
 1168000    0.8018741   -8.0290008    257.84286  0.018396323   0.01821046            3 
 1169000   0.78924845   -7.9971837    258.54752  0.018430818  0.018195919            2 
 1170000   0.77669769   -8.0377911    257.29668  0.018325974  0.018181392            2 
 1171000   0.80569625   -8.0152207     258.2321  0.018376893  0.018166918            2 
 1172000   0.78072596   -8.0482973     258.1208  0.018353299  0.018152482            3 
 1173000   0.79774687   -8.0443999    257.82941  0.018316952  0.018137977            2 
 1174000    0.7966261   -8.0239364    258.21525  0.018328737  0.018123468            2 
 1175000   0.76866631   -8.0450258    258.32446  0.018320884   0.01810891            1 
 1176000   0.79540907   -8.0439135    257.92607  0.018277074  0.018094454            2 
 1177000   0.78491206   -8.0213235    258.32912  0.018290082  0.018080011            1 
 1178000   0.77776442     -8.04472     258.5308  0.018288823  0.018065602            2 
 1179000   0.78995006   -8.0445179    258.70003  0.018285272  0.018051174            2 
 1180000   0.77391766   -8.0344081    258.63353   0.01826508  0.018036725            2 
 1181000   0.78984219   -8.0559333    258.17038  0.018216933  0.018022242            2 
 1182000   0.80543651   -8.0478735    258.14437  0.018199687   0.01800776            2 
 1183000   0.78340048   -8.0330185    258.25087  0.018191805  0.017993289            1 
 1184000   0.78787796   -8.0321544    258.50239  0.018194143  0.017978825            2 
 1185000   0.78250791   -8.0456315    258.29612  0.018164284  0.017964338            3 
 1186000   0.79211734   -8.0479407    257.83148  0.018116321  0.017949816            2 
 1187000   0.76962925   -8.0447716     258.2085  0.018127528  0.017935339            2 
 1188000   0.78008102   -8.0335781    258.72481  0.018148486  0.017921002            2 
 1189000   0.78939695   -8.0216998    259.07895  0.018158042  0.017906673            3 
 1190000   0.78948977   -8.0603472    258.88304  0.018129064  0.017892354            2 
 1191000    0.7787493    -8.012802    258.92722  0.018116934  0.017878014            1 
 1192000   0.77049501   -8.0397854    258.82026  0.018094258  0.017863699            3 
 1193000   0.78675036   -8.0490608    258.82204  0.018079215  0.017849403            2 
 1194000   0.78098225    -8.048474    258.69075   0.01805491  0.017835173            2 
 1195000   0.78556824   -8.0705842    258.98957   0.01806064  0.017820929            2 
 1196000   0.77027585   -8.0319463    259.29092  0.018066535  0.017806679            3 
 1197000   0.78141456   -8.0491914    258.94032  0.018027034   0.01779244            1 
 1198000   0.77631324    -8.027951    258.64939  0.017991749  0.017778157            2 
 1199000      0.79198   -8.0711164    258.33706  0.017955036   0.01776386            2 
 1200000   0.76865787   -8.0499734    258.82595  0.017974024  0.017749574            2 
 1201000   0.76056105   -8.0428891    258.90939  0.017964848  0.017735313            2 
 1202000   0.76763387   -8.0562635    259.27186  0.017975032  0.017721021            2 
 1203000   0.75978359   -8.0191593    259.00703  0.017941745  0.017706774            4 
 1204000   0.77111171   -8.0854791    258.68171  0.017904327  0.017692506            1 
 1205000   0.77061665   -8.0229215    258.94376   0.01790759  0.017678226            4 
 1206000   0.77572872   -8.0496343    259.53025  0.017933268  0.017664039            3 
 1207000   0.76307396   -8.0570341    259.04892  0.017885178  0.017649877            3 
 1208000   0.78804482   -8.1042068    258.67718  0.017844728  0.017635705            2 
 1209000   0.77842763    -8.045284    259.40743  0.017880302  0.017621576            4 
 1210000   0.77494644    -8.052308    259.75094  0.017889183  0.017607437            3 
 1211000     0.759574   -8.0590274    259.26732  0.017841131   0.01759328            1 
 1212000   0.77244642   -8.0627734    259.32582  0.017830433  0.017579142            3 
 1213000   0.77938239   -8.0806622    260.11361  0.017869855  0.017565047            2 
 1214000   0.76031951    -8.070456    259.65728  0.017823811   0.01755091            2 
 1215000   0.78735049   -8.0778396    259.63168  0.017807385  0.017536821            2 
 1216000   0.73987075   -8.0664605    259.72097  0.017798861  0.017522785            1 
 1217000   0.76345215   -8.0993812    260.01805  0.017804577   0.01750869            7 
 1218000   0.76249488   -8.0853538    259.71207  0.017769025  0.017494563            2 
 1219000   0.76620608   -8.0546818    259.90908  0.017767917  0.017480472            4 
 1220000    0.7601217   -8.0602482    259.44187  0.017721439  0.017466381            4 
 1221000   0.75159685   -8.0795836    259.88006  0.017736832  0.017452347            3 
 1222000   0.77679493   -8.0631794    259.86845  0.017721526   0.01743832            4 
 1223000   0.77161367   -8.0910094     259.4116  0.017675906  0.017424296            2 
 1224000   0.77872513   -8.0932606    260.17672  0.017713557  0.017410232            2 
 1225000    0.7628283   -8.0875649    259.58864  0.017659091  0.017396229            2 
 1226000   0.75081969   -8.0527433      260.108  0.017679989  0.017382258            4 
 1227000   0.78675146   -8.0764092     259.8125  0.017645511  0.017368335            2 
 1228000   0.77780243   -8.0807974    259.72736  0.017625364  0.017354417            3 
 1229000    0.7866493   -8.0754001    260.44202   0.01765948  0.017340541            3 
 1230000   0.77572012   -8.0866009    260.30459  0.017635812  0.017326631            2 
 1231000   0.75325149   -8.0660122    260.70027  0.017648272  0.017312748            2 
 1232000   0.75946488   -8.0630915    260.45372   0.01761727  0.017298919            4 
 1233000   0.77071704   -8.0928834    260.07962  0.017577698  0.017285059            3 
 1234000   0.76639808   -8.0998596      260.177   0.01757003  0.017271168            4 
 1235000    0.7708269   -8.0917477    260.08579  0.017549649  0.017257239            3 
 1236000   0.77464705   -8.0958629    260.26397  0.017547463  0.017243262            2 
 1237000   0.76600061   -8.0912786    259.97592  0.017513872  0.017229283            2 
 1238000   0.77756552   -8.0840784    259.83616  0.017490318  0.017215275            3 
 1239000   0.76171562   -8.0633953    260.66287  0.017531804  0.017201346            2 
 1240000   0.75901478   -8.0876203    259.96523  0.017470782  0.017187358            4 
 1241000   0.76599906   -8.1035423    259.97145  0.017457121  0.017173404            1 
 1242000   0.74685104   -8.0629593    260.31778  0.017466303   0.01715948            1 
 1243000   0.76877483   -8.0956506     259.9751  0.017429277  0.017145561            2 
 1244000   0.75551571   -8.0809627    260.45709  0.017447554  0.017131646            2 
 1245000   0.75290307   -8.0987311     260.3332  0.017425247  0.017117806            2 
 1246000   0.75898746   -8.1012925     259.9704  0.017386999  0.017103922            2 
 1247000   0.75819754   -8.0995505    260.68279  0.017420662  0.017090043            1 
 1248000   0.76414791   -8.1031154    260.43652  0.017390259  0.017076297            2 
 1249000   0.75839039   -8.0773723    260.77391  0.017398847  0.017062555            2 
 1250000   0.75590061   -8.0706142    260.47514  0.017365009  0.017048772            2 
 1251000   0.76880139   -8.1226764    260.16177  0.017330254   0.01703501            5 
 1252000   0.75863691   -8.1205837    260.70157  0.017352341  0.017021237            2 
 1253000   0.76180401   -8.1316709    260.91076  0.017352405  0.017007481            3 
 1254000   0.74647052   -8.0992864    261.36149   0.01736852  0.016993754            1 
 1255000   0.74890388   -8.0814724    260.93885  0.017326617  0.016980059            6 
 1256000   0.76554328   -8.0830205    260.79348  0.017303177  0.016966405            1 
 1257000    0.7596412   -8.0925338    260.73549  0.017285567  0.016952692            2 
 1258000   0.75090406   -8.1003128    260.87056  0.017280774  0.016939007            2 
 1259000   0.76184562   -8.1346678    260.58611   0.01724822  0.016925307            2 
 1260000   0.75503479   -8.1085652    260.80938  0.017249298  0.016911545            1 
 1261000   0.75978801   -8.1165249    261.40385  0.017274904  0.016897878            5 
 1262000   0.74182627   -8.1323275    261.06405  0.017238778  0.016884185            1 
 1263000    0.7603254   -8.1504255    260.75721  0.017204883  0.016870488            3 
 1264000   0.74711715   -8.1179768    261.28763  0.017226241  0.016856806            3 
 1265000    0.7462145   -8.1035577    261.59006  0.017232547  0.016843146            3 
 1266000   0.74294198   -8.1537178     261.4628  0.017210558  0.016829589            1 
 1267000   0.73625609   -8.1158757     261.2095  0.017180315  0.016815982            2 
 1268000   0.73641458   -8.0937327    261.16596  0.017163904  0.016802399            2 
 1269000   0.73716293   -8.1179731    261.24666  0.017155678   0.01678881            2 
 1270000   0.75759226   -8.1068285    261.09739  0.017132375  0.016775238            2 
 1271000   0.74044971   -8.1204365    260.75618  0.017096523  0.016761662            4 
 1272000   0.73657541   -8.1132638     261.4264  0.017126992  0.016748136            2 
 1273000   0.73591381   -8.0905646    261.04859  0.017088805   0.01673464            2 
 1274000    0.7383402   -8.0954934    261.88219  0.017129918  0.016721163            3 
 1275000   0.75513416   -8.1024102     261.8816  0.017116445  0.016707747            1 
 1276000   0.74076723   -8.1245017    261.83521       0.0171  0.016694341            1 
 1277000   0.74283772   -8.0841178    262.21346  0.017111293  0.016680969            2 
 1278000   0.73833316   -8.1275116     261.3328   0.01704048  0.016667608            3 
 1279000   0.73824967   -8.1310684      261.053  0.017008926  0.016654169            2 
 1280000    0.7463493   -8.1188969    261.94603  0.017053778  0.016640787            1 
 1281000    0.7496207   -8.1118645    261.86699  0.017035323   0.01662739            3 
 1282000   0.74728193   -8.1323235    261.36913  0.016989673  0.016613966            2 
 1283000    0.7513953   -8.1310662    261.29149  0.016971388  0.016600556            1 
 1284000   0.74623162   -8.1255476    261.65418   0.01698171  0.016587074            2 
 1285000   0.74752485   -8.1507992    261.51024   0.01695916  0.016573624            1 
 1286000   0.74564037   -8.1339052    261.89148  0.016970676  0.016560112            7 
 1287000   0.73132603   -8.1729287      261.041  0.016902421  0.016546599            3 
 1288000   0.73300542   -8.1694296    261.08635  0.016892233  0.016533056            2 
 1289000   0.72897598    -8.178083    261.20594   0.01688686   0.01651951            2 
 1290000   0.75614079   -8.1584054    261.49193  0.016892243  0.016505981            3 
 1291000   0.74827932   -8.1666336    261.08254  0.016852733  0.016492428            1 
 1292000   0.73486548   -8.1630767    260.52664  0.016803834  0.016478875            3 
 1293000   0.71692735   -8.1538488    261.85827  0.016876661  0.016465374            2 
 1294000   0.74750802   -8.1667642    262.16545  0.016883401  0.016451882            2 
 1295000   0.73170592   -8.1491988     260.7876  0.016781699  0.016438423            4 
 1296000    0.7221671    -8.155319    261.35591  0.016805293  0.016424949            3 
 1297000   0.71778882   -8.1700411    261.35501  0.016792277  0.016411479            5 
 1298000   0.73328988   -8.1346852    261.05771  0.016760253  0.016398015            5 
 1299000   0.72948641   -8.1591977    261.24378  0.016759288   0.01638454            2 
 1300000   0.73673765   -8.1884413    261.48173  0.016761649  0.016371026            2 
 1301000   0.72893636   -8.1691743    261.31438  0.016738046  0.016357494            5 
 1302000   0.73756828   -8.1403711    261.48377  0.016736033  0.016343952            2 
 1303000    0.7346185   -8.1650403    261.46605  0.016722055  0.016330369            3 
 1304000   0.72822922    -8.193152    260.86001  0.016670501  0.016316789            2 
 1305000   0.72181225   -8.1705345    261.02905  0.016668522   0.01630321            3 
 1306000    0.7313461   -8.1800366    260.87418  0.016645877  0.016289685            2 
 1307000    0.7359074   -8.1775978    260.99877  0.016641085   0.01627617            2 
 1308000   0.72877814   -8.1447074    261.56719  0.016664577  0.016262677            2 
 1309000   0.72462147   -8.1521031    261.11049  0.016622771  0.016249172            2 
 1310000   0.71964058    -8.167153    261.01022  0.016603704  0.016235642            3 
 1311000   0.73643121   -8.1707217    261.13663  0.016599074   0.01622215            4 
 1312000   0.73552633   -8.1670941    261.16786  0.016588406  0.016208685            2 
 1313000   0.74221494   -8.1699393    261.13995     0.016574  0.016195209            2 
 1314000   0.73339667   -8.1761094    261.76706  0.016601158  0.016181785            2 
 1315000   0.72679781   -8.1753978     261.2357  0.016554861  0.016168368            2 
 1316000   0.71456133   -8.1730235    261.85021  0.016581193  0.016154979            4 
 1317000   0.73596025   -8.1929629    261.11933  0.016522357  0.016141573            1 
 1318000   0.72681572   -8.1788627    261.54996  0.016537048  0.016128167            4 
 1319000    0.7299426   -8.1938517    261.16452  0.016500159  0.016114745            1 
 1320000   0.71413833   -8.1880573    261.08818  0.016482839  0.016101328            2 
 1321000   0.74490643   -8.1783179    261.66217  0.016506571  0.016087896            3 
 1322000   0.74341144   -8.1843418    261.42914  0.016479396  0.016074515            4 
 1323000   0.71641431   -8.1994074    261.32903  0.016460635  0.016061142            1 
 1324000   0.70875248   -8.2190489    261.23452  0.016442253  0.016047775            2 
 1325000   0.73430117   -8.1999421    260.95559  0.016412301  0.016034392            1 
 1326000   0.72027572    -8.187213    261.46909  0.016432195  0.016020995            2 
 1327000   0.70317202    -8.175443     261.4007  0.016415517  0.016007602            1 
 1328000   0.72642693   -8.2273557    260.66438  0.016356952  0.015994146            7 
 1329000   0.72009433   -8.2000444    261.30335  0.016384709   0.01598075            1 
 1330000   0.73735147   -8.2037094    261.17785  0.016364527  0.015967335            2 
 1331000   0.72963048   -8.2101602    261.75275  0.016388226  0.015953916            1 
 1332000   0.70683631   -8.2041166    261.06622  0.016332972  0.015940484            1 
 1333000   0.73272753   -8.1816115    260.57663  0.016290112  0.015927078            3 
 1334000   0.73817288   -8.2389748    260.51978  0.016274349  0.015913653            3 
 1335000   0.73046748   -8.2073828    260.52396   0.01626242  0.015900197            2 
 1336000   0.72563433   -8.1908487    260.58433  0.016254012  0.015886746            2 
 1337000   0.71793764   -8.2387808    261.06581  0.016271865  0.015873361            4 
 1338000   0.72082097   -8.2104133    261.07822  0.016260477  0.015860004            3 
 1339000   0.72611555   -8.2329519    261.24818  0.016258911  0.015846628            3 
 1340000   0.71573348    -8.222176     261.1939  0.016243402  0.015833296            2 
 1341000   0.73443864   -8.2246922    261.09467  0.016225122  0.015819914            3 
 1342000   0.73232147   -8.2224437    260.94379  0.016203663   0.01580656            4 
 1343000   0.71435902   -8.2380696    260.98098  0.016193905   0.01579322            2 
 1344000   0.71509437   -8.2211005    260.98777  0.016182277  0.015779858            2 
 1345000   0.72905618   -8.1991005    260.83485  0.016160771  0.015766514            2 
 1346000   0.71596373   -8.2365511    260.56804  0.016132246  0.015753145            2 
 1347000   0.71423132    -8.223488    261.13821  0.016155544   0.01573978            2 
 1348000   0.72084191   -8.2308456    261.08631  0.016140351  0.015726445            1 
 1349000   0.70545093   -8.2133653    260.98544  0.016122155  0.015713138            1 
 1350000   0.71260407   -8.2338883    261.11243  0.016118051    0.0156998            3 
 1351000   0.70763546   -8.2312372    261.39754  0.016123707   0.01568654            3 
 1352000     0.706617   -8.2306244    260.70748  0.016069248  0.015673271            2 
 1353000   0.72030858   -8.2251975    260.86178  0.016066875      0.01566            4 
 1354000   0.72312127   -8.2194522    260.73183  0.016047011  0.015646745            2 
 1355000   0.69819368   -8.2298121    260.86767  0.016043522  0.015633521            4 
 1356000   0.70826712   -8.2151464    261.64896  0.016079705  0.015620306            1 
 1357000    0.7109976   -8.2436139    261.34721  0.016049325  0.015607055            2 
 1358000   0.72968238   -8.2469212    261.41221  0.016041496  0.015593835            2 
 1359000   0.70251566   -8.2312491    260.46093  0.015971359  0.015580615            3 
 1360000   0.71605864   -8.2468933    260.98429  0.015991685  0.015567389            2 
 1361000   0.72238354    -8.236754    260.56464  0.015954239   0.01555415            5 
 1362000   0.70683951   -8.2259685    261.43606  0.015995843  0.015540892            2 
 1363000   0.72445916   -8.2385782    261.05655  0.015960904   0.01552767            4 
 1364000   0.71547092   -8.2217264    261.78575  0.015993753  0.015514527            2 
 1365000   0.69611736   -8.2398919    261.28659  0.015951562   0.01550139            5 
 1366000   0.69209394   -8.2371127    260.94974  0.015919335  0.015488216            4 
 1367000   0.71769883   -8.2343887    260.91825   0.01590577  0.015475057            2 
 1368000   0.70342355   -8.2617919    261.10763  0.015905679  0.015461932            4 
 1369000   0.71223538   -8.2571996    260.82262  0.015876712  0.015448803            5 
 1370000   0.71491921    -8.239151    261.16295  0.015885824  0.015435644            4 
 1371000   0.71104044   -8.2285996    261.54869  0.015897683  0.015422518            3 
 1372000   0.68634823   -8.2411435    261.17934  0.015863662  0.015409454            5 
 1373000   0.69684501   -8.2338948    261.16887  0.015851473  0.015396403            1 
 1374000   0.70937392   -8.2421619    261.19755  0.015841676  0.015383339            3 
 1375000   0.70328329   -8.2484011    261.54969  0.015851497  0.015370299            3 
 1376000   0.69758528   -8.2434558    261.45483  0.015834232  0.015357284            3 
 1377000   0.71029411   -8.2176904     261.2672  0.015811377   0.01534428            2 
 1378000   0.69328004   -8.2314997    261.10227  0.015789929  0.015331258            1 
 1379000    0.7071495   -8.2441939    260.95879  0.015769808  0.015318238            1 
 1380000   0.71602477   -8.2253203    261.22801  0.015774638  0.015305207            5 
 1381000   0.68808359   -8.2381021    261.29351  0.015767168  0.015292182            2 
 1382000    0.7028291   -8.2383878     260.9246  0.015733514  0.015279157            2 
 1383000   0.69361031   -8.2576668    261.26387  0.015742581  0.015266193            1 
 1384000   0.70217077   -8.2553735     261.8327  0.015765456  0.015253255            3 
 1385000   0.70075689   -8.2214181    261.31377   0.01572285  0.015240308            1 
 1386000   0.69384143   -8.2546959    261.14168  0.015701159  0.015227381            2 
 1387000   0.69338371   -8.2434471    261.47026  0.015709581  0.015214447            3 
 1388000   0.69856718   -8.2504622    261.36765  0.015692102  0.015201556            2 
 1389000   0.70440703   -8.2469194    261.13989   0.01566714  0.015188691            2 
 1390000   0.70501567   -8.2406349    261.40014  0.015671471  0.015175843            2 
 1391000   0.70702344   -8.2723294    261.34384  0.015656832  0.015163013            2 
 1392000   0.70297957   -8.2703525    261.22698  0.015638588  0.015150149            2 
 1393000   0.70346208   -8.2531557    261.71415  0.015656506  0.015137278            1 
 1394000   0.71138886   -8.2825277    261.41901  0.015627631  0.015124412            4 
 1395000   0.69589099   -8.2600183    261.56349  0.015625059  0.015111547            1 
 1396000   0.71228444   -8.2676042    261.19984  0.015592159  0.015098707            1 
 1397000   0.71131221   -8.2556666    261.37544  0.015591472  0.015085852            3 
 1398000   0.70749046   -8.2557141    261.07253  0.015562264  0.015073002            1 
 1399000   0.70550379   -8.2537967    261.76798  0.015592565  0.015060131            2 
 1400000   0.69247195   -8.2752656     261.7237  0.015578791  0.015047331            3 
 1401000   0.70982735   -8.2771534    261.63052   0.01556213  0.015034545            5 
 1402000   0.68625826   -8.2680109    261.59532  0.015548937   0.01502181            8 
 1403000   0.69008195   -8.2493639    261.74256    0.0155466  0.015009052            2 
 1404000   0.69250293   -8.2831137    261.35082  0.015512276  0.014996283            1 
 1405000   0.69224416   -8.2528295    261.52495  0.015511563  0.014983537            3 
 1406000   0.70029046   -8.2603178    261.48802  0.015498342  0.014970815            1 
 1407000   0.68118248   -8.2641452    261.34862   0.01547907  0.014958118            1 
 1408000   0.69435772   -8.2827344    261.22183  0.015460572  0.014945395            3 
 1409000   0.69360536   -8.2561174     261.6052  0.015472274  0.014932678            2 
 1410000   0.69409208   -8.2676412    261.19814  0.015437242  0.014919974            2 
 1411000   0.69320896   -8.2504582     261.2739  0.015430776  0.014907316            2 
 1412000   0.67665607   -8.2609962    261.71897  0.015446115  0.014894672            3 
 1413000   0.67662103   -8.2628625    261.40204  0.015416492  0.014882009            1 
 1414000   0.69564275   -8.2477425    261.05441  0.015385102  0.014869337            2 
 1415000   0.69663666   -8.2667156    261.18107  0.015381688  0.014856682            2 
 1416000   0.69088356   -8.2461413     261.6832  0.015400376  0.014844045            2 
 1417000   0.69155208   -8.2766226    261.85488  0.015399605  0.014831437            2 
 1418000   0.68784038   -8.2837566    261.25119  0.015353267  0.014818831            2 
 1419000   0.69109683   -8.3248236    261.25891  0.015342901  0.014806184            4 
 1420000    0.6928879   -8.2660727    261.36953  0.015338588  0.014793569            2 
 1421000   0.68561992   -8.2925328    261.72429  0.015348598  0.014780971            1 
 1422000   0.68849852   -8.2754255    262.57265   0.01538752  0.014768422            3 
 1423000   0.68302546   -8.2685413     261.4222  0.015309335  0.014755914            6 
 1424000   0.69540888   -8.2880777      262.053  0.015335498  0.014743426            2 
 1425000   0.67558591   -8.2752705    261.94504  0.015318423  0.014730937            1 
 1426000   0.69370587   -8.2975731    261.54098  0.015284069  0.014718476            2 
 1427000   0.68525587   -8.2688243    262.38899  0.015322879  0.014706017            2 
 1428000   0.68294356   -8.2499516    262.60164  0.015324559  0.014693614            1 
 1429000   0.67519087    -8.263895    261.44146  0.015246178  0.014681209            2 
 1430000   0.67948992   -8.3036633    261.81608  0.015257347  0.014668795            4 
 1431000    0.6702347   -8.3126543    261.46361  0.015226159  0.014656387            1 
 1432000   0.67860155   -8.2843411    262.07977  0.015251383  0.014643981            1 
 1433000   0.68034752   -8.2957574    261.79962  0.015224449  0.014631583            2 
 1434000   0.67493463   -8.3011433    261.50249  0.015196565  0.014619183            2 
 1435000   0.67414569   -8.2860046    261.65166  0.015194638  0.014606765            1 
 1436000   0.68304727    -8.279642    262.25094  0.015218834   0.01459441            2 
 1437000   0.69097633   -8.2873686    262.07418  0.015197992  0.014582043            1 
 1438000   0.68863267   -8.2957113    262.08021  0.015187773  0.014569676            1 
 1439000   0.69093687   -8.2869136    261.70103   0.01515526  0.014557316            1 
 1440000   0.68057311   -8.2834353    261.25067  0.015118673  0.014544966            2 
 1441000   0.68429052   -8.3092406     261.4291    0.0151185  0.014532592            2 
 1442000   0.67495266   -8.2907672    261.47385  0.015110602  0.014520196            1 
 1443000    0.6693432    -8.262112    261.80872  0.015119469   0.01450786            2 
 1444000   0.66367796   -8.2975414     262.0087  0.015120539  0.014495514            2 
 1445000   0.68210791   -8.3142123    261.66471  0.015090237  0.014483143            1 
 1446000   0.67155056   -8.2924362    261.73683  0.015083957  0.014470824            2 
 1447000   0.67855205   -8.3149353    261.22243  0.015043909  0.014458519            2 
 1448000   0.67545826   -8.3082321    261.59825  0.015055148  0.014446192            2 
 1449000    0.6782917   -8.3298476    261.44836  0.015036137  0.014433838            3 
 1450000   0.68817508   -8.3413818    261.61249  0.015035201  0.014421504            2 
 1451000   0.67832239   -8.3277273     261.7323   0.01503172  0.014409175            7 
 1452000   0.67309589   -8.3307064    261.39178  0.015001824  0.014396821            1 
 1453000   0.67274708   -8.3106317    261.02396  0.014970404   0.01438446            1 
 1454000   0.66632724   -8.3228687    261.60195  0.014993234  0.014372109            2 
 1455000    0.6764331   -8.3298036    261.65213  0.014985804   0.01435976            1 
 1456000   0.67937967   -8.3383002    260.98961  0.014937592  0.014347433            1 
 1457000   0.67703446   -8.3333874    261.62801  0.014963853  0.014335109            2 
 1458000   0.65863064   -8.3634154    261.08034  0.014922287  0.014322802            3 
 1459000   0.66982272    -8.353789    260.95827  0.014905088  0.014310464            3 
 1460000   0.68590046   -8.3334798    261.33074  0.014916138  0.014298149            2 
 1461000   0.66902266   -8.3374916    260.96707  0.014885185  0.014285841            1 
 1462000   0.66250569   -8.3010474    261.29965  0.014893961  0.014273562            1 
 1463000   0.66472152   -8.3027631    261.57894  0.014899689  0.014261311            1 
 1464000   0.66203606   -8.3204523    261.60565  0.014891032  0.014249107            2 
 1465000   0.65291645   -8.3235541     261.2015  0.014857878  0.014236925            4 
 1466000   0.68861023   -8.3283724    261.94924  0.014890248  0.014224745            1 
 1467000   0.65361447   -8.3363671     261.4402  0.014851182  0.014212556            3 
 1468000   0.66417899   -8.3355694    261.34972  0.014835928  0.014200377            1 
 1469000   0.67732743   -8.3544167    260.97358  0.014804491  0.014188188            1 
 1470000   0.65038483   -8.3422614    261.63228  0.014831762  0.014176018            2 
 1471000   0.67150585   -8.3536513    261.01342   0.01478662  0.014163848            4 
 1472000   0.65199037   -8.3392582    261.14845   0.01478422  0.014151706            3 
 1473000    0.6500163   -8.3641819    261.02675  0.014767297   0.01413957            2 
 1474000   0.65484437   -8.3432937    261.36107   0.01477618  0.014127434            2 
 1475000   0.66811059    -8.351916    261.76388   0.01478892  0.014115289            1 
 1476000   0.65411702   -8.3481962    261.27907  0.014751528  0.014103146            3 
 1477000    0.6667934   -8.3125092    261.61207  0.014760329  0.014091054            2 
 1478000   0.66757449    -8.345269    261.15178   0.01472439  0.014078944            1 
 1479000   0.66729399   -8.3399475     261.5672  0.014737841  0.014066886            1 
 1480000   0.65705757    -8.355337    260.97186  0.014694362  0.014054856            2 
 1481000   0.65994602   -8.3524623    261.67404   0.01472395  0.014042829            2 
 1482000   0.67252664   -8.3494854    261.60474  0.014710118  0.014030825            1 
 1483000   0.65437521   -8.3633495    261.59725  0.014699778  0.014018843            2 
 1484000   0.66555505   -8.3378347    261.39792  0.014678679  0.014006815            2 
 1485000   0.66912027   -8.3608168    261.55227  0.014677456  0.013994797            4 
 1486000   0.64576601   -8.3526217    261.49355  0.014664286  0.013982807            1 
 1487000   0.65535705   -8.3480118    261.43343  0.014651055  0.013970818            1 
 1488000   0.66312098   -8.3696905    261.23124  0.014629886   0.01395884            5 
 1489000   0.64555557   -8.3705233    261.56531  0.014638757  0.013946853            3 
 1490000   0.65119061   -8.3483848    261.06148  0.014600754  0.013934911            2 
 1491000   0.66134206   -8.3409928    261.85121    0.0146351  0.013922984            1 
 1492000   0.66449612   -8.3490316    261.68721  0.014616131  0.013911052            3 
 1493000   0.65141723   -8.3602071    261.70105  0.014607114  0.013899119            2 
 1494000   0.65080577   -8.3468721    261.75088  0.014600116  0.013887181            2 
 1495000   0.64774228   -8.3682028    260.77782   0.01453611  0.013875274            2 
 1496000   0.66387455   -8.3392682    261.41898  0.014562109  0.013863342            3 
 1497000   0.67536038   -8.3665812    261.19316  0.014539811  0.013851477            1 
 1498000   0.64744818   -8.3760574    261.55709   0.01455035  0.013839598            2 
 1499000   0.66400366   -8.3585149    261.35107   0.01452919  0.013827711            4 
 1500000   0.66659103   -8.3651529    260.83447  0.014490804   0.01381584            3 
 1501000   0.63987875    -8.369469    261.41822  0.014513559  0.013803991            4 
 1502000   0.65165609    -8.380205    260.99028  0.014480153  0.013792114            7 
 1503000   0.65865695   -8.3816977    261.22641  0.014483611  0.013780257            1 
 1504000   0.67205892    -8.357028    261.26238  0.014475974  0.013768436            1 
 1505000   0.64732129   -8.3712964    261.47483  0.014478119  0.013756608            2 
 1506000   0.64751475   -8.3707479    261.40997  0.014464917  0.013744796            2 
 1507000   0.64456648    -8.373972    261.63192  0.014467591  0.013732994            1 
 1508000   0.65285253   -8.3721876    261.77447  0.014465875  0.013721194            2 
 1509000   0.65547855   -8.3592266    261.20788  0.014424999   0.01370938            2 
 1510000   0.63906243   -8.3624269    261.15296  0.014412415  0.013697634            2 
 1511000   0.64504149   -8.3653442    261.59804  0.014427423   0.01368587            4 
 1512000   0.64492301   -8.3830592    261.40989  0.014407512  0.013674112            3 
 1513000   0.64393211   -8.4036879    260.74982  0.014361634  0.013662351            1 
 1514000   0.65516262   -8.3835983    261.00951  0.014366442  0.013650552            3 
 1515000    0.6371126   -8.3933646    261.06474  0.014359997  0.013638773            3 
 1516000   0.65067655   -8.3945468    260.98899   0.01434636  0.013627027            1 
 1517000   0.63863152   -8.3707737    261.19463    0.0143482  0.013615287            2 
 1518000   0.65632448    -8.378657    261.36442  0.014348069  0.013603573            5 
 1519000    0.6455603   -8.3868848    261.07257  0.014322612  0.013591867            1 
 1520000   0.65550736   -8.3901935    261.02735   0.01431071  0.013580194            2 
 1521000    0.6501947   -8.3831682    260.95758  0.014297478  0.013568493            4 
 1522000   0.64667213   -8.4148328    260.87617  0.014283627  0.013556793            5 
 1523000   0.64654468   -8.3832891    260.74657  0.014267157  0.013545096            2 
 1524000   0.64635145   -8.3914124    260.94084  0.014268419  0.013533415            1 
 1525000   0.64483535   -8.3982188    261.10041  0.014267782  0.013521731            1 
 1526000   0.64687936   -8.4067083     260.9733  0.014251491  0.013510063            3 
 1527000    0.6513407   -8.3974391    261.34972    0.0142627  0.013498413            1 
 1528000   0.65432088   -8.4125331    260.95649   0.01423192  0.013486785            1 
 1529000   0.63922449   -8.3991586    261.16721  0.014234097  0.013475165            1 
 1530000   0.64877147    -8.411744     261.0371  0.014217707   0.01346355            2 
 1531000   0.64312588   -8.4159509    260.78468  0.014194681  0.013451946            2 
 1532000   0.63823729   -8.4089777    260.57283  0.014173892  0.013440327            3 
 1533000   0.63973193   -8.3956908     261.1358  0.014195249  0.013428722            4 
 1534000   0.63590335   -8.4064725    261.01622  0.014179499  0.013417138            3 
 1535000   0.63183533   -8.4141224    260.78816  0.014157881  0.013405572            5 
 1536000   0.63308906   -8.3973205    260.58751  0.014137777  0.013394011            1 
 1537000   0.63982347   -8.3904234    261.10703  0.014156746  0.013382444            1 
 1538000   0.64120263   -8.4117828    260.71918  0.014126527  0.013370893            3 
 1539000   0.65394817   -8.3894963    260.91234  0.014127807  0.013359392            2 
 1540000   0.65165981   -8.4255948    260.58886  0.014101129  0.013347873            1 
 1541000   0.64523186   -8.3956617    261.03793  0.014116263  0.013336366            2 
 1542000   0.64316146    -8.435726    261.09547  0.014110218  0.013324839            2 
 1543000   0.64631575   -8.4169482     260.2053  0.014052997  0.013313325            1 
 1544000   0.62792978   -8.4224727    260.64341  0.014067542   0.01330181            2 
 1545000    0.6465866   -8.4454215    260.99029  0.014077146  0.013290329            2 
 1546000   0.63691465   -8.4292497    260.46396   0.01403967  0.013278844            2 
 1547000   0.64613997   -8.4194618    260.72863  0.014044852  0.013267364            1 
 1548000   0.63704854   -8.4180675    261.41257  0.014072597  0.013255915            1 
 1549000    0.6354731   -8.4013912    260.86898  0.014034268  0.013244477            2 
 1550000   0.64073517   -8.4261902     260.8545  0.014024435  0.013233027            1 
 1551000   0.63524045   -8.4416673    260.66453  0.014005186  0.013221582            5 
 1552000   0.63610948   -8.4255287    261.02293  0.014015406  0.013210168            1 
 1553000   0.64846384   -8.4559811    261.10568  0.014010822  0.013198767            2 
 1554000   0.63144835   -8.4039327    260.70762   0.01398046  0.013187386            2 
 1555000   0.64508204   -8.4017176    260.95261  0.013984599  0.013176021            2 
 1556000    0.6371398   -8.4466005    260.99207  0.013977724  0.013164646            3 
 1557000   0.63394637   -8.4293137      260.962  0.013967137  0.013153278            1 
 1558000   0.63167081   -8.4145608    261.08147  0.013964563  0.013141916            3 
 1559000   0.62318162   -8.4271669    261.06319  0.013954628  0.013130569            2 
 1560000   0.62983129   -8.4134841    260.86082  0.013934873   0.01311924            1 
 1561000   0.62233632   -8.4276556     261.1638   0.01394212    0.0131079            3 
 1562000   0.62958361    -8.417291    260.58085  0.013902094  0.013096567            3 
 1563000   0.64240536   -8.4256218    260.49506  0.013888626  0.013085244            3 
 1564000   0.64791002    -8.451184    260.30526  0.013869632  0.013073919            3 
 1565000   0.62527787   -8.4533771    259.92809  0.013840686   0.01306259            3 
 1566000   0.62815043    -8.458522    260.54097  0.013864462  0.013051277            3 
 1567000   0.63568505   -8.4583231    260.64563   0.01386118  0.013039961            2 
 1568000   0.62639787   -8.4467006    260.67588  0.013853948   0.01302865            3 
 1569000   0.62240784   -8.4554227    260.58466  0.013840273  0.013017349            3 
 1570000   0.62850536   -8.4493428    260.61569  0.013833105  0.013006058            3 
 1571000   0.64618197   -8.4652738    260.76846  0.013832403  0.012994767            2 
 1572000   0.61281483   -8.4639289    260.26411  0.013796868  0.012983503            1 
 1573000   0.61699431   -8.4552601    260.29154   0.01378955   0.01297224            3 
 1574000   0.63186885   -8.4754958    260.43751  0.013788517  0.012960972            3 
 1575000     0.629176   -8.4672259    260.54118  0.013785248  0.012949705            1 
 1576000   0.63094227   -8.4569683    260.65316  0.013782421  0.012938464            2 
 1577000    0.6320058   -8.4726006    260.12074  0.013745547  0.012927218            7 
 1578000   0.60741802    -8.471537    259.77469  0.013718562  0.012915995            2 
 1579000   0.62553837   -8.4657103     260.5627  0.013751462  0.012904775            2 
 1580000   0.61829526   -8.4625836    260.63819   0.01374674  0.012893576            2 
 1581000   0.62912105   -8.4419853    260.89811  0.013751745  0.012882396            3 
 1582000   0.62137384   -8.4781254    260.11514  0.013701809  0.012871232            2 
 1583000   0.61018738   -8.4489841    260.60215  0.013718791  0.012860077            4 
 1584000    0.6172347   -8.4378725    260.91582  0.013726632  0.012848956            3 
 1585000   0.63888975   -8.4469541    260.52006  0.013697164  0.012837839            3 
 1586000   0.63176994   -8.4687683    260.55721   0.01369048  0.012826743            3 
 1587000   0.62563807   -8.4351585    260.09551  0.013657609  0.012815632            3 
 1588000   0.62054566   -8.4553234     260.2957  0.013659514  0.012804536            2 
 1589000   0.61061805   -8.4849441    260.27257  0.013649705  0.012793441            3 
 1590000    0.6223506   -8.4871835    260.46869  0.013651399  0.012782349            5 
 1591000   0.62770877    -8.466258    260.64603  0.013652107  0.012771274            3 
 1592000   0.61444777   -8.4494896    260.46961  0.013634297  0.012760204            3 
 1593000   0.61879723   -8.4531689    260.47186  0.013625856   0.01274914            3 
 1594000    0.6048269   -8.4495367    260.58531  0.013623239  0.012738094            3 
 1595000   0.61653788   -8.4749966    260.09718  0.013589194  0.012727064            2 
 1596000   0.61049988    -8.460594    260.21229   0.01358669  0.012716041            4 
 1597000   0.61148814    -8.455817    260.55782  0.013596213   0.01270503            2 
 1598000   0.62042519   -8.4810958    260.87798    0.0136044  0.012694032            2 
 1599000   0.61665956   -8.4866435    260.64329  0.013583661  0.012683038            1 
 1600000   0.60427778   -8.4714734    260.66577  0.013576342   0.01267206            1 
 1601000   0.61762926   -8.4854656    260.21258  0.013544274  0.012661109            4 
 1602000   0.60719492   -8.4619851    260.51562  0.013551582  0.012650165            2 
 1603000   0.60463479   -8.4789431    260.30396  0.013532125  0.012639235            1 
 1604000    0.6057802   -8.4864626    260.74276  0.013546486  0.012628304            3 
 1605000   0.61302465   -8.4943473     260.2969  0.013514896  0.012617376            3 
 1606000   0.60247599   -8.4600853    260.12823  0.013497729   0.01260646            2 
 1607000   0.61122411    -8.477788    260.55247  0.013511329  0.012595548            1 
 1608000    0.6173412   -8.4631655    260.02329  0.013475502   0.01258464            1 
 1609000   0.61566457   -8.4659302    260.99418  0.013517412  0.012573746            1 
 1610000   0.60917487    -8.476838    260.12091  0.013463815  0.012562873            1 
 1611000   0.60363992   -8.4777451    260.11997  0.013455409  0.012552007            3 
 1612000   0.61029447   -8.4969394    260.27558  0.013455106  0.012541156            2 
 1613000   0.61829771   -8.4961399    260.30729  0.013448403  0.012530331            1 
 1614000   0.60964362   -8.4713984    260.35743  0.013442659  0.012519499            6 
 1615000   0.59985413    -8.473365    260.46931  0.013440109   0.01250869            2 
 1616000   0.60349215   -8.4772649    260.15905  0.013415793  0.012497892            4 
 1617000   0.60862587   -8.4874976    259.92086  0.013395221  0.012487088            4 
 1618000   0.61230299   -8.4765027    260.13989  0.013398223  0.012476298            5 
 1619000   0.60350628   -8.5118424     260.0405  0.013384831  0.012465511            5 
 1620000   0.60079493   -8.4706166    260.47591  0.013398967  0.012454744            3 
 1621000   0.61470576   -8.4919097    260.66909  0.013400632  0.012443983            4 
 1622000   0.60131703   -8.4833319    260.59575  0.013388602  0.012433221            1 
 1623000    0.6038446     -8.46967    260.53012  0.013376983  0.012422478            7 
 1624000   0.59919558   -8.4831391    260.02875  0.013343019  0.012411754            2 
 1625000   0.61243942   -8.4787732    259.85069  0.013325677  0.012401027            5 
 1626000   0.60586163   -8.4817425    260.53236  0.013352417  0.012390326            7 
 1627000   0.60465254   -8.4827122    260.40814  0.013337848  0.012379619            2 
 1628000   0.60404739   -8.5082903    260.07941  0.013312828  0.012368915            1 
 1629000    0.6041452   -8.4961062     259.9829  0.013299719  0.012358224            4 
 1630000   0.61018404   -8.4701705    260.01646  0.013293275  0.012347551            4 
 1631000   0.60058775   -8.5161666    259.93201   0.01328081  0.012336887            3 
 1632000    0.5993247   -8.4750239    260.32298  0.013292636  0.012326212            3 
 1633000   0.61439484   -8.4976505    260.43579  0.013290253  0.012315558            4 
 1634000   0.59560951   -8.5018608    259.98661  0.013259211  0.012304919            4 
 1635000   0.59958397   -8.5018623    259.95994  0.013249742  0.012294272            5 
 1636000   0.61132078   -8.5003802    260.23278  0.013255541  0.012283654            3 
 1637000   0.59255372   -8.4827121    260.25175  0.013248409  0.012273052            2 
 1638000   0.59942309   -8.4882346     260.0247   0.01322877  0.012262435            7 
 1639000   0.59148085   -8.5037208    260.47154  0.013243418  0.012251847            4 
 1640000   0.60469399    -8.503766    260.39019  0.013231209  0.012241264            8 
 1641000   0.59096202   -8.5013318    259.90083  0.013198295  0.012230675            7 
 1642000   0.58415567   -8.5088636    259.68215  0.013179159  0.012220101           10 
 1643000   0.60272217   -8.4954143    260.15696   0.01319522  0.012209544            3 
 1644000   0.58183565    -8.496502    259.91759   0.01317506  0.012198987            3 
 1645000    0.6028508   -8.4888514    259.80157  0.013161174  0.012188437            5 
 1646000   0.59340979   -8.5051507      260.117  0.013169147  0.012177905            4 
 1647000   0.60415527   -8.5015537    259.83096  0.013146679  0.012167364            3 
 1648000   0.59905334   -8.4922888    260.02704  0.013148616  0.012156846            5 
 1649000   0.59339605   -8.5161489    259.84701  0.013131545  0.012146331            4 
 1650000   0.58077502   -8.4946568    260.17771  0.013140288  0.012135823            3 
 1651000    0.5894147   -8.5302562    259.55551  0.013100924  0.012125321            3 
 1652000   0.60291559   -8.4923952    259.94892  0.013112839  0.012114841            5 
 1653000   0.59808072   -8.5088971    259.85842  0.013100344  0.012104368            3 
 1654000   0.59989586   -8.5103984    259.93513  0.013096288  0.012093907            2 
 1655000   0.58447237   -8.5080753    260.07996  0.013095668  0.012083443            6 
 1656000   0.59096196   -8.5089953    260.02612   0.01308505  0.012073006            4 
 1657000   0.59929126   -8.5024426    260.09605   0.01308067  0.012062574            5 
 1658000   0.60006283   -8.5181199    260.14891  0.013075438  0.012052155            6 
 1659000   0.58178407   -8.5102201    259.91516  0.013055815  0.012041749            5 
 1660000   0.59235331   -8.5139168    259.95154  0.013049776  0.012031366            4 
 1661000    0.5828818   -8.5062042    259.54654  0.013021601  0.012020991            5 
 1662000   0.57967631   -8.5205625    259.43339  0.013008092  0.012010614            9 
 1663000   0.57601259   -8.4916077    259.76283  0.013016778  0.012000275            5 
 1664000   0.59145318   -8.5209251    260.25394   0.01303355   0.01198994            5 
 1665000   0.59890111     -8.50841    259.92039  0.013009029  0.011979612            4 
 1666000    0.5909587    -8.511309    259.91412  0.013000906  0.011969282            7 
 1667000   0.58966679   -8.5067429    260.28119  0.013011457  0.011958951            6 
 1668000   0.58790514   -8.5198959    259.64595   0.01297192  0.011948635            3 
 1669000   0.58644328   -8.5379392     259.3616   0.01294995  0.011938322            4 
 1670000    0.5882332   -8.5192565    259.93149  0.012970633  0.011928023            3 
 1671000   0.60000134   -8.5261617    259.41403  0.012937065   0.01191772            2 
 1672000   0.58475347   -8.5123011    259.29806  0.012923547  0.011907422            2 
 1673000   0.59358302   -8.5092665     259.7252  0.012937099  0.011897129            1 
 1674000   0.58772169   -8.5075243    260.31488  0.012958725   0.01188686            2 
 1675000   0.57933765    -8.536942    260.10759  0.012940676  0.011876599            3 
 1676000     0.575186   -8.5288409    259.39189  0.012897369  0.011866345            2 
 1677000   0.58831942   -8.5144187    259.43345  0.012891744  0.011856102            2 
 1678000   0.57300013   -8.5471894    259.74922  0.012899743  0.011845875            2 
 1679000   0.58560174   -8.5351945    259.63312  0.012886298  0.011835652            2 
 1680000   0.57169441    -8.553545    259.25238  0.012859741  0.011825433            1 
 1681000   0.58333432   -8.5281874    259.87435  0.012882925  0.011815227            6 
 1682000   0.57977563   -8.5500901    259.09949  0.012836875  0.011805035            3 
 1683000   0.58424989   -8.5425872    259.90563  0.012869164  0.011794838            2 
 1684000   0.57500863   -8.5335887    259.28245  0.012830683  0.011784671            3 
 1685000    0.5646942   -8.5314936    258.92986  0.012805631  0.011774496            3 
 1686000   0.59020297   -8.5623561    259.91135  0.012846547  0.011764341            3 
 1687000   0.58626764   -8.5409452       259.56  0.012821577  0.011754216            4 
 1688000   0.59161273    -8.523378    259.62645  0.012817262  0.011744087            4 
 1689000   0.58515371   -8.5576656    259.44796  0.012800867  0.011733966            2 
 1690000   0.57296045   -8.5379838    259.61675  0.012801615  0.011723852            1 
 1691000   0.58112477   -8.5373048    259.51151  0.012788858   0.01171376            3 
 1692000     0.581696   -8.5531891    259.79618   0.01279532   0.01170367            1 
 1693000   0.57932011     -8.53668    259.52918   0.01277462  0.011693587            1 
 1694000   0.57036358   -8.5335508    259.71742  0.012776339   0.01168352            2 
 1695000   0.56845053   -8.5457458    259.27155   0.01274688  0.011673438            1 
 1696000   0.57035466   -8.5428075    259.27199  0.012739386  0.011663375            3 
 1697000   0.56831666   -8.5441031    259.63142   0.01274953  0.011653315            1 
 1698000    0.5785874   -8.5501835    259.31418  0.012726452  0.011643276            3 
 1699000   0.57099087   -8.5382096    259.55544  0.012730795  0.011633246            1 
 1700000   0.57813187   -8.5466943    259.67937  0.012729381   0.01162322            1 
 1701000   0.57387393   -8.5558348    259.31799  0.012704193  0.011613198            1 
 1702000   0.55826433   -8.5498716    259.20116  0.012691008  0.011603182            2 
 1703000   0.56422234   -8.5529304    259.64475  0.012705263   0.01159318            3 
 1704000   0.56655203   -8.5243815    259.19901  0.012676008  0.011583188            1 
 1705000   0.58064373   -8.5387201      259.536  0.012685044   0.01157322            2 
 1706000   0.57463534   -8.5595198    258.94812  0.012648892  0.011563246            2 
 1707000    0.5721033   -8.5643062    259.49528  0.012668194  0.011553275            2 
 1708000    0.5685749   -8.5514153    259.26531  0.012649556  0.011543321            2 
 1709000   0.57058515   -8.5493122     259.2443  0.012641131  0.011533369            2 
 1710000   0.57114226    -8.543139    259.75706  0.012658726  0.011523431            2 
 1711000   0.56625328   -8.5569292    259.41663  0.012634747  0.011513507            3 
 1712000   0.56294655   -8.5495269    259.32572  0.012622942  0.011503598            2 
 1713000   0.56804498   -8.5597392    259.60058  0.012628945  0.011493686            3 
 1714000   0.57756063   -8.5457716    259.17295  0.012600785  0.011483781            1 
 1715000   0.56996848   -8.5696416    259.24826  0.012597097  0.011473905            1 
 1716000   0.57466406   -8.5664869     259.2529  0.012589981  0.011464034            1 
 1717000   0.56881361    -8.570484    258.94799   0.01256785  0.011454173            2 
 1718000   0.55904811   -8.5600786    259.48364  0.012586517  0.011444307            5 
 1719000   0.55960539   -8.5538062    259.08944  0.012560085  0.011434467            3 
 1720000   0.56248703   -8.5822815    259.08761  0.012552694  0.011424629            3 
 1721000   0.57208411   -8.5501581    259.11815  0.012546879  0.011414791            2 
 1722000   0.55888662   -8.5861231    259.10576  0.012538993  0.011404963            2 
 1723000   0.57012553   -8.5850014    259.35641  0.012543839  0.011395156            1 
 1724000   0.57426792   -8.5796421    259.57077  0.012546924  0.011385351            3 
 1725000   0.56994579   -8.5661685    259.06129  0.012515038   0.01137556            2 
 1726000   0.56086075   -8.5597531    259.21701  0.012515306  0.011365777            2 
 1727000   0.55282147   -8.5716938     259.2028  0.012507373  0.011356006            2 
 1728000    0.5663363   -8.5688799    259.22706  0.012501305  0.011346227            1 
 1729000   0.56285199   -8.5814954    258.54418  0.012461162  0.011336467            1 
 1730000   0.55994967   -8.5949198    258.82868  0.012467663  0.011326703            3 
 1731000   0.57414825   -8.5712727    258.99652   0.01246854  0.011316957            3 
 1732000   0.57130086   -8.5888415    259.24367  0.012473233  0.011307222            1 
 1733000   0.55881936   -8.5734339    258.87743  0.012448424  0.011297506            2 
 1734000   0.55106706   -8.5752887    258.99576  0.012446932  0.011287791            1 
 1735000    0.5588825   -8.5784918    258.98911  0.012439439  0.011278095            2 
 1736000   0.55902754   -8.5642221    259.52208  0.012457857  0.011268407            4 
 1737000   0.56470355   -8.5980935    259.54901  0.012451977  0.011258737            1 
 1738000   0.55285279   -8.5797989    259.05258   0.01242101  0.011249061            2 
 1739000   0.55217013   -8.5740716    258.97677  0.012410234  0.011239388            2 
 1740000   0.55685896   -8.5929552    258.66228   0.01238804  0.011229729            1 
 1741000   0.54748742    -8.570845    258.82512  0.012388719   0.01122008            1 
 1742000    0.5706411   -8.5830144    259.30523  0.012404575  0.011210434            1 
 1743000   0.55815209   -8.5784919    258.96783  0.012381327  0.011200806            2 
 1744000   0.55318009   -8.5590168    259.12289  0.012381637  0.011191193            3 
 1745000   0.57446747    -8.593585    258.98851  0.012368124  0.011181602            2 
 1746000   0.55600436   -8.5861758    259.18266  0.012370307  0.011172001            1 
 1747000   0.53748895   -8.5852583    258.91813  0.012350607  0.011162418            3 
 1748000   0.55995177   -8.5858771    258.57368  0.012327121  0.011152834            2 
 1749000     0.551542   -8.5882267    258.83948  0.012332737  0.011143273            1 
 1750000   0.56418757   -8.5599494    258.69899  0.012318999  0.011133715            2 
 1751000   0.55917451   -8.5877527    258.72444  0.012313175  0.011124153            1 
 1752000   0.55788368   -8.6100355    258.77779  0.012308685    0.0111146            2 
 1753000    0.5595734   -8.6028225    259.06669  0.012315397  0.011105059            2 
 1754000   0.54080791   -8.5915894    258.74035  0.012292871  0.011095517            2 
 1755000    0.5368419   -8.5961649     258.9821  0.012297346  0.011085992            4 
 1756000   0.54375991   -8.5980209     259.1305  0.012297385  0.011076483            3 
 1757000   0.55264871   -8.5775413    258.95768  0.012282189  0.011066989            1 
 1758000   0.55113352   -8.5899629    258.92292  0.012273555  0.011057499            1 
 1759000    0.5526335   -8.6099814    258.73415  0.012257635   0.01104802            3 
 1760000   0.55795839   -8.6010588    258.76557  0.012252158  0.011038537            2 
 1761000   0.54320274   -8.5937446      258.951  0.012253975  0.011029072            1 
 1762000   0.55200806   -8.5961035    258.57873  0.012229414  0.011019626            1 
 1763000   0.54352117   -8.5976441    258.62719  0.012224768  0.011010183            5 
 1764000   0.54274127   -8.5965068    258.71652  0.012222058  0.011000756            2 
 1765000   0.54871694   -8.6120778    258.95139  0.012226222   0.01099133            2 
 1766000   0.55126262   -8.5992389    258.72752  0.012208735  0.010981906            3 
 1767000   0.53676791   -8.5971665    258.49866  0.012191033  0.010972491            5 
 1768000   0.55825652   -8.5920806    258.47555  0.012183048  0.010963081            1 
 1769000   0.55194137   -8.5911523    258.87142   0.01219481  0.010953685            3 
 1770000   0.54418403   -8.5998808    258.85446  0.012187122  0.010944297            3 
 1771000   0.55365431   -8.6072972    258.56116  0.012166439   0.01093493            1 
 1772000   0.55911378    -8.621969    258.67539  0.012164945  0.010925574            3 
 1773000   0.55044264   -8.6221872    258.82605  0.012165165  0.010916232            1 
 1774000   0.54739902   -8.6072338    258.57632  0.012146576  0.010906906            3 
 1775000   0.55053396   -8.5892471    258.57771  0.012139799  0.010897581            2 
 1776000   0.54365492    -8.601913    258.80465  0.012143612   0.01088826            3 
 1777000   0.54741439   -8.6215818    258.80997  0.012137027  0.010878954            1 
 1778000   0.53616611    -8.614725    258.84449  0.012131819  0.010869654            2 
 1779000   0.54481611   -8.6056047     258.5978  0.012113444  0.010860362            2 
 1780000   0.53159799   -8.5921056    258.98712  0.012124865  0.010851074            1 
 1781000   0.54980929   -8.6256989    258.71154  0.012105163  0.010841798            3 
 1782000   0.54395374   -8.6018063    258.78156  0.012101644  0.010832523            3 
 1783000   0.52949558   -8.6243733    258.46698  0.012080154  0.010823259            2 
 1784000    0.5429749   -8.6171629    258.46979  0.012073514  0.010814001            1 
 1785000    0.5409191   -8.6071156     258.7773  0.012081106  0.010804763            7 
 1786000   0.55547689   -8.6222819    258.71253   0.01207132  0.010795527            2 
 1787000   0.53680388   -8.6105823    258.49117  0.012054242  0.010786303            3 
 1788000   0.53022655   -8.6146668     258.5931  0.012052251  0.010777084            1 
 1789000   0.53489059   -8.6380315    258.56606  0.012044255  0.010767879            8 
 1790000   0.54214897   -8.6144775    258.85947  0.012051186  0.010758696            4 
 1791000   0.54304235   -8.6306778    258.22024  0.012014714  0.010749515            2 
 1792000   0.53918294   -8.6283016     258.4102  0.012016843  0.010740336            2 
 1793000   0.53459409   -8.6160274    258.36503  0.012008042  0.010731167            6 
 1794000   0.53533857   -8.6195588    258.34346  0.012000346  0.010722004            4 
 1795000   0.52839216   -8.6217712    258.62146  0.012006567  0.010712861            5 
 1796000   0.53477413   -8.6303245    258.86151   0.01201102  0.010703723            1 
 1797000   0.53889217   -8.6035055    258.44731  0.011985129  0.010694605            3 
 1798000   0.54056459   -8.6191053    258.74952   0.01199247  0.010685495            2 
 1799000   0.53420062   -8.6451841     258.6851  0.011982819  0.010676383            5 
 1800000   0.53603469   -8.6057008    258.53367  0.011969151   0.01066729            9 
 1801000   0.52826193   -8.6093922    258.00623  0.011938101   0.01065821            3 
 1802000   0.53795186   -8.6342321    258.60379   0.01195911  0.010649128            4 
 1803000   0.53442201   -8.6340877    258.40536  0.011943306  0.010640062            5 
 1804000   0.53421343   -8.6143193    258.30119  0.011931873  0.010631007            3 
 1805000   0.53641167   -8.6150286    258.29447  0.011924952   0.01062195            4 
 1806000   0.53002956    -8.623212    258.62057  0.011933397  0.010612897            5 
 1807000   0.53319898   -8.6183368    258.46617  0.011919672  0.010603861            7 
 1808000   0.53189066   -8.6281881    258.63402  0.011920816  0.010594829            8 
 1809000   0.53729581   -8.6299155      258.723  0.011918325   0.01058581            7 
 1810000    0.5323868   -8.6274179    258.12163  0.011884053  0.010576792            2 
 1811000   0.53393379   -8.6316888    258.55003  0.011897203  0.010567797            1 
 1812000   0.54172029   -8.6184667    258.42981  0.011885109  0.010558809            5 
 1813000    0.5343138   -8.6171688    258.07294   0.01186215  0.010549828            6 
 1814000    0.5306581   -8.6316405    258.10925  0.011857279  0.010540861            2 
 1815000   0.52762192   -8.6199369    258.50059  0.011868714  0.010531902            3 
 1816000   0.53215274    -8.624629    258.40276  0.011857689  0.010522944            2 
 1817000   0.52133573   -8.6328515    258.49739  0.011855503  0.010513993            2 
 1818000   0.53238272   -8.6268836    258.55693  0.011851711  0.010505051            9 
 1819000   0.53589499   -8.6279271     258.2736  0.011832215  0.010496116            4 
 1820000   0.53291405   -8.6405523    258.23506   0.01182395  0.010487198            7 
 1821000   0.53547898   -8.6428507    258.23217  0.011817324  0.010478283            2 
 1822000   0.52669276   -8.6126076    258.14306  0.011806763  0.010469382            6 
 1823000   0.53835808   -8.6394893    258.43149  0.011813471  0.010460493            2 
 1824000   0.53882259   -8.6479382    258.64695  0.011816838   0.01045162            1 
 1825000    0.5346542   -8.6475852    258.28045  0.011793628  0.010442748            3 
 1826000    0.5239058   -8.6339378    258.18934  0.011783011   0.01043389            5 
 1827000    0.5266106    -8.628959    258.16906  0.011775637   0.01042504            5 
 1828000   0.53015544   -8.6542219    258.26094  0.011773384  0.010416192            2 
 1829000   0.53049604   -8.6265133    257.99835  0.011754982  0.010407351            2 
 1830000   0.52748469   -8.6139353    257.99341  0.011748334  0.010398515            7 
 1831000   0.53547349   -8.6435256    258.25435  0.011753793  0.010389685            5 
 1832000   0.51505701   -8.6202012    258.25057  0.011747206  0.010380864            2 
 1833000   0.52163436    -8.639255    258.19335  0.011738195  0.010372046            6 
 1834000   0.52453378   -8.6248601    258.17175  0.011730814  0.010363249            4 
 1835000    0.5204036   -8.6272564    258.28677  0.011729644  0.010354462            4 
 1836000   0.52336564   -8.6351291    258.15892  0.011717453   0.01034568            2 
 1837000   0.51886514   -8.6316805    258.12986  0.011709756  0.010336916            4 
 1838000   0.52365281    -8.639294    257.90663  0.011693264  0.010328141            7 
 1839000   0.51758337   -8.6468048    257.86789   0.01168515  0.010319384            3 
 1840000   0.51716075    -8.647834    257.77973  0.011674807  0.010310633           11 
 1841000   0.51901282   -8.6484185    258.47115  0.011699762  0.010301905            3 
 1842000   0.52016588   -8.6466407    258.14178   0.01167851  0.010293175            2 
 1843000   0.51301194   -8.6506999     258.0588  0.011668421  0.010284451            7 
 1844000   0.52036604   -8.6586364    258.13902  0.011665719  0.010275738            5 
 1845000   0.51956265   -8.6708217    258.23635  0.011663792  0.010267042            4 
 1846000   0.51948097   -8.6544549    257.60454  0.011628952  0.010258353            4 
 1847000    0.5070866   -8.6392903    258.02833  0.011641776   0.01024967            8 
 1848000   0.51025105   -8.6544262    258.07755  0.011637696  0.010241001           10 
 1849000   0.52050837   -8.6607965    258.08837   0.01163189  0.010232334            8 
 1850000   0.51202489   -8.6661919    257.89166  0.011616741  0.010223669            4 
 1851000   0.51866646   -8.6452498    258.01216   0.01161589  0.010215018            9 
 1852000   0.51882558   -8.6453128    258.13055  0.011614946  0.010206381            4 
 1853000   0.50978213   -8.6648286    258.05693  0.011605367  0.010197739            5 
 1854000   0.51691013   -8.6827146     257.9713  0.011595258  0.010189112            6 
 1855000   0.51503558   -8.6549881     257.7923  0.011580966  0.010180492            7 
 1856000   0.51274757   -8.6422588    257.81698  0.011575834  0.010171892            6 
 1857000   0.50004298   -8.6672674    257.81001  0.011569288  0.010163288            8 
 1858000   0.49871821   -8.6647599    257.84473  0.011564619  0.010154693            3 
 1859000   0.51240371   -8.6633097    257.42803  0.011539718  0.010146112            6 
 1860000    0.5163795   -8.6519716    257.64778  0.011543359  0.010137544            9 
 1861000   0.51894831   -8.6596049    258.01581  0.011553636  0.010128978            7 
 1862000   0.51251729    -8.655038    257.84762  0.011539904   0.01012042           10 
 1863000   0.50248415   -8.6503986    257.96154  0.011538806  0.010111878            5 
 1864000   0.51517036   -8.6793808    257.74617  0.011522987  0.010103344            7 
 1865000    0.5161508   -8.6553268    258.13193  0.011534045  0.010094808            5 
 1866000   0.51218043   -8.6649892      257.618  0.011504912  0.010086288            5 
 1867000   0.50729086   -8.6767406    257.47329  0.011492291  0.010077761            9 
 1868000   0.49227743   -8.6593305    257.93447  0.011506713  0.010069251            5 
 1869000   0.51112447   -8.6791645      257.576  0.011484573  0.010060746            9 
 1870000   0.50054274   -8.6658712    257.85389  0.011490815  0.010052247            5 
 1871000   0.51445516   -8.6678466    257.92589   0.01148788  0.010043759            7 
 1872000   0.50562616   -8.6949054    257.85814  0.011478728  0.010035279            6 
 1873000   0.50000328   -8.6736116    257.69395  0.011465294  0.010026807            7 
 1874000   0.50778117   -8.6573617    257.85569  0.011466368  0.010018347            2 
 1875000   0.49477385   -8.6754164    257.94642  0.011464285  0.010009902            5 
 1876000   0.50340271   -8.6845511    257.66279  0.011445575  0.010001461            5 
 1877000   0.51162556   -8.6632193     257.6649  0.011439571 0.0099930278            2 
 1878000    0.5016757    -8.666069    257.21118  0.011413347 0.0099846091            3 
 1879000   0.50074095   -8.6682182    257.83078  0.011434752 0.0099761969            3 
 1880000   0.50827818   -8.6787361    257.79672   0.01142716 0.0099677865            5 
 1881000   0.49125134   -8.6790533    257.65353  0.011414741 0.0099593883            7 
 1882000   0.50283403   -8.6854448    257.44581  0.011399478 0.0099510023            2 
 1883000   0.50172495   -8.6791065    257.84137   0.01141093 0.0099426239            2 
 1884000   0.50237755    -8.686715    257.45957  0.011387985 0.0099342576            4 
 1885000   0.49110516   -8.6753914    257.26051  0.011373144 0.0099258885            8 
 1886000    0.5032764   -8.6968675     257.2918  0.011368496 0.0099175347            7 
 1887000   0.49904647   -8.6797361    257.60631  0.011376361 0.0099091853            3 
 1888000   0.49932518   -8.6722397    257.26959  0.011355473 0.0099008503            4 
 1889000   0.49778623    -8.666615    257.65293  0.011366373 0.0098925276            2 
 1890000   0.49971485   -8.6797176    257.82025  0.011367736 0.0098842021            5 
 1891000   0.49660206   -8.6696173    257.50102  0.011347657 0.0098759002            3 
 1892000   0.50026866   -8.6847547     257.4937  0.011341336 0.0098676055            4 
 1893000   0.50133369   -8.6846376    257.49277  0.011335304 0.0098593123            7 
 1894000    0.5009348   -8.6725763    257.49108  0.011329245 0.0098510315            4 
 1895000   0.49634274    -8.683033    257.52612  0.011324807 0.0098427521            4 
 1896000   0.49900808   -8.6738206    257.65728  0.011324599 0.0098344851            7 
 1897000   0.49047041      -8.6866    257.02968   0.01129106 0.0098262278            5 
 1898000   0.49198104   -8.6960871    257.63557  0.011311713 0.0098179909            3 
 1899000   0.49901912   -8.6853107     257.5985  0.011304129 0.0098097608            3 
 1900000   0.48720159   -8.6903393    257.58286  0.011297494 0.0098015354            8 
 1901000   0.49589425   -8.6781043    257.43179  0.011284928  0.009793316            3 
 1902000   0.49337042   -8.7006239    257.69189  0.011290391 0.0097850951            6 
 1903000    0.4902364   -8.6968593    257.56773  0.011279021 0.0097768896            6 
 1904000   0.48451399   -8.6854623    257.14653  0.011254663 0.0097686933            7 
 1905000   0.48529048   -8.6924317    257.08468  0.011246049 0.0097605077            7 
 1906000    0.4791913    -8.698721    257.32042  0.011250456 0.0097523248            7 
 1907000   0.49029714   -8.6766678    257.65272  0.011259077 0.0097441542            3 
 1908000   0.48892223   -8.6789292    257.47338  0.011245343 0.0097359995            3 
 1909000    0.4942571   -8.7035364    257.46957  0.011239286 0.0097278497            4 
 1910000   0.50064442   -8.6996407    257.65271  0.011241392  0.009719699            3 
 1911000   0.49213736    -8.696461    257.30676  0.011220424  0.009711565            2 
 1912000   0.48115189   -8.6877149    257.34895  0.011216394 0.0097034317            4 
 1913000   0.48714715   -8.6992459    257.27508  0.011207313 0.0096953125            6 
 1914000   0.49001193   -8.6885749    257.41396  0.011207504 0.0096871997            7 
 1915000      0.48173   -8.6917422    257.25002  0.011194518 0.0096790988            1 
 1916000   0.49744836   -8.6903638    257.25195  0.011188759 0.0096710014            3 
 1917000   0.48932804   -8.6867099    257.77346  0.011205593 0.0096629089            3 
 1918000   0.49442227   -8.6919188    257.14887  0.011172613 0.0096548375            3 
 1919000   0.48727435   -8.7003525    257.47485  0.011180947 0.0096467678            5 
 1920000   0.49581019   -8.7044142    257.25026  0.011165376 0.0096387089            8 
 1921000   0.49819352   -8.7073438    257.28992  0.011161284 0.0096306546            3 
 1922000   0.49499427   -8.6983475    256.87226  0.011137368  0.009622609            9 
 1923000   0.49294858   -8.7063604    257.67019  0.011166155 0.0096145688            7 
 1924000   0.48367274   -8.6867768    257.30125  0.011144372 0.0096065385            6 
 1925000   0.48310442   -8.7000959    257.63207  0.011152903 0.0095985198            3 
 1926000    0.4823095   -8.7172422    257.16767  0.011127019 0.0095905163            5 
 1927000   0.48524767   -8.7034042    257.56301  0.011138341 0.0095825164            6 
 1928000   0.49202347    -8.707728    257.10223  0.011112648 0.0095745352            4 
 1929000   0.48344221   -8.6971972    257.30687  0.011115728 0.0095665515            3 
 1930000   0.47604554   -8.6867217    257.10228  0.011101135 0.0095585694            2 
 1931000   0.47770956    -8.700996    257.36137  0.011106567 0.0095505976            2 
 1932000   0.48874762   -8.7132889    257.39218  0.011102147 0.0095426364            9 
 1933000   0.48594344    -8.702048    257.12746  0.011084991 0.0095346879            8 
 1934000   0.48267966   -8.7009503    257.03916  0.011075455 0.0095267457            3 
 1935000   0.46856383   -8.6901586    257.14375  0.011074236 0.0095188117           10 
 1936000   0.46610765   -8.7209376    257.29242  0.011074915 0.0095108903            2 
 1937000   0.48765979   -8.6969761     257.5171  0.011078863 0.0095029725            6 
 1938000   0.47624933   -8.7247865    257.32125  0.011064725 0.0094950635            8 
 1939000   0.48885872   -8.7010472     257.1838  0.011053112 0.0094871703            6 
 1940000   0.48478527   -8.7108556    257.16132  0.011046448 0.0094792818            8 
 1941000   0.48118512   -8.7125751    257.07161  0.011036906 0.0094713964            3 
 1942000   0.46402044   -8.7112958    256.97443  0.011027052 0.0094635174            3 
 1943000   0.48434108   -8.7013953    257.46702  0.011042504 0.0094556502            4 
 1944000   0.47867191   -8.6966072    256.85043  0.011010392 0.0094477972            2 
 1945000   0.46964946   -8.6896233    257.37709  0.011027296 0.0094399546            4 
 1946000   0.47866384   -8.7026051    257.02643  0.011006613 0.0094321173            5 
 1947000   0.47390843   -8.7177753     257.0284  0.011001044 0.0094242903            6 
 1948000   0.47557451    -8.704449    257.06846  0.010997111 0.0094164606            7 
 1949000   0.48474543   -8.7098238    257.19587  0.010996916 0.0094086435            6 
 1950000   0.46905569   -8.7150548    257.45796  0.011002477 0.0094008276            2 
 1951000   0.47560414   -8.7159833    257.61942  0.011003734 0.0093930316            9 
 1952000    0.4581917   -8.7243424    257.40342  0.010988875  0.009385235            3 
 1953000   0.47375309   -8.7308985    257.17605  0.010973547 0.0093774454            5 
 1954000   0.47740308   -8.7217258    257.18368  0.010968256 0.0093696687            6 
 1955000   0.46437077   -8.7253858     256.7072  0.010942336 0.0093618993            5 
 1956000   0.48086913   -8.7174783     257.1265  0.010954606 0.0093541373            3 
 1957000   0.46765583   -8.7288066    257.33476  0.010957876 0.0093463834            3 
 1958000   0.47183612   -8.7280943    257.05097  0.010940201 0.0093386435            3 
 1959000   0.47500398   -8.7383861    256.90974  0.010928609 0.0093309127            2 
 1960000   0.46584175   -8.7340292    257.44155  0.010945644 0.0093231853            6 
 1961000   0.46803097   -8.7167122     256.9209  0.010917937 0.0093154692            6 
 1962000   0.47850213   -8.7217838    257.60929  0.010941611 0.0093077617            5 
 1963000    0.4660376   -8.7217166    257.10512  0.010914634 0.0093000625            5 
 1964000   0.47924025   -8.7331774    257.01561  0.010905279 0.0092923622            8 
 1965000   0.47206914   -8.7363553    257.31419  0.010912391 0.0092846776            3 
 1966000   0.47005543   -8.7380734    257.16385  0.010900468 0.0092769974            5 
 1967000   0.47833925   -8.7233384    257.29665  0.010900553 0.0092693393            4 
 1968000   0.47006838   -8.7287012    257.21781  0.010891676 0.0092616774            3 
 1969000   0.46267488    -8.727658    257.09475  0.010880936 0.0092540256            2 
 1970000   0.46545905   -8.7254667    257.20024  0.010879875 0.0092463784            5 
 1971000   0.47117629   -8.7482495     257.1954   0.01087415  0.009238744            3 
 1972000   0.47143191   -8.7410867    257.41533   0.01087793  0.009231123            4 
 1973000   0.47422845   -8.7298634     256.9706  0.010853632 0.0092235008            7 
 1974000   0.46198919   -8.7283363    257.25341  0.010860073 0.0092158864            7 
 1975000   0.46507979   -8.7420175    257.26515   0.01085507 0.0092082903            6 
 1976000     0.457217   -8.7238876    257.20779  0.010847157 0.0092006917            3 
 1977000   0.47175854   -8.7425512    257.10802  0.010837465 0.0091931011           10 
 1978000   0.45618713   -8.7298476    256.31386  0.010798528 0.0091855125            5 
 1979000   0.46355747   -8.7528252    257.03765  0.010823549  0.009177936            8 
 1980000   0.45004356   -8.7327539    256.85745  0.010810499 0.0091703582            4 
 1981000   0.45837038   -8.7278359    256.99278  0.010810734 0.0091628006            3 
 1982000   0.46333792   -8.7565084    257.21511  0.010814628 0.0091552447            7 
 1983000   0.45744422   -8.7427407    256.74891  0.010789583 0.0091476945            5 
 1984000   0.46256239   -8.7328525    257.07306  0.010797759 0.0091401579            2 
 1985000   0.44621249   -8.7539627    257.19076  0.010797261 0.0091326238           10 
 1986000   0.44933194    -8.747815    256.78282  0.010774707 0.0091250932            5 
 1987000   0.46137705   -8.7541456    256.60715  0.010761917 0.0091175694            3 
 1988000   0.46551538    -8.752815    256.77658  0.010763606 0.0091100609            5 
 1989000   0.45901941    -8.750891    256.73985  0.010756655 0.0091025537            5 
 1990000   0.46071867   -8.7426641    256.77739  0.010752822 0.0090950625            2 
 1991000   0.46115625   -8.7444501    256.86202  0.010750963 0.0090875798            2 
 1992000   0.46908282   -8.7267759    256.68826  0.010738297 0.0090801093            6 
 1993000   0.45989794   -8.7562366    256.88921  0.010741312 0.0090726417            4 
 1994000    0.4670444   -8.7560219    256.81039  0.010732631 0.0090651829            9 
 1995000   0.46434064   -8.7468579    256.77416  0.010725738 0.0090577258            5 
 1996000   0.45487236   -8.7388231    256.89644  0.010725469 0.0090502748            6 
 1997000     0.461292   -8.7662741    256.76881  0.010714772  0.009042837            9 
 1998000   0.45440633   -8.7568799    256.85805  0.010713132 0.0090354086            6 
 1999000   0.45779405   -8.7470841    256.26715  0.010683139 0.0090279794            7 
 2000000    0.4447624   -8.7480647    256.77472  0.010698947 0.0090205608            3 
 2001000   0.46223777   -8.7524394    256.72759  0.010691637  0.009013153            8 
 2002000   0.45651463   -8.7675873    256.63191  0.010682314 0.0090057488            7 
 2003000   0.45544361    -8.759233    256.25992  0.010661505 0.0089983586            6 
 2004000   0.45257962   -8.7400855    256.92598  0.010683882  0.008990968            3 
 2005000   0.45499977   -8.7587037     256.8644  0.010675993 0.0089835934            8 
 2006000   0.44806047   -8.7501416    256.60135  0.010659744 0.0089762225            9 
 2007000   0.44811099   -8.7514741    256.81611   0.01066335 0.0089688572            6 
 2008000   0.45867925   -8.7718851    256.78589  0.010656785 0.0089615011            9 
 2009000   0.45961314   -8.7542592     256.5875  0.010643251 0.0089541566            2 
 2010000   0.45005124    -8.764373    256.86345  0.010649397 0.0089468107            8 
 2011000   0.44371816   -8.7583299    256.63136  0.010634484 0.0089394805            2 
 2012000   0.43874998   -8.7606848    256.65413  0.010630141 0.0089321562            3 
Loop time of 4843.82 on 48 procs for 2000000 steps with 4000 atoms

Performance: 71348.665 tau/day, 412.897 timesteps/s
99.4% CPU use with 48 MPI tasks x no OpenMP threads

MPI task timing breakdown:
Section |  min time  |  avg time  |  max time  |%varavg| %total
---------------------------------------------------------------
Pair    | 316.86     | 331.13     | 350.92     |  46.4 |  6.84
Neigh   | 31.76      | 33.064     | 34.455     |  12.5 |  0.68
Comm    | 300.97     | 323.01     | 336.5      |  48.9 |  6.67
Output  | 4.2838     | 4.286      | 4.3299     |   0.3 |  0.09
Modify  | 4100.1     | 4109.4     | 4119.7     |   7.9 | 84.84
Other   |            | 42.91      |            |       |  0.89

Nlocal:        83.3333 ave          90 max          73 min
Histogram: 2 0 2 3 7 8 7 11 4 4
Nghost:        2088.65 ave        2103 max        2065 min
Histogram: 1 0 2 5 5 6 12 6 7 4
Neighs:        13652.6 ave       15501 max       11594 min
Histogram: 1 1 2 6 8 15 10 3 1 1
FullNghs:      27305.5 ave       29596 max       23781 min
Histogram: 2 0 1 6 2 10 13 7 3 4

Total # of neighbors = 1310663
Ave neighs/atom = 327.66575
Neighbor list builds = 107074
Dangerous builds = 0

#clear
#
#next RN
#
#jump SELF
Total wall time: 1:20:47
