
units lj                  # Use reduced LJ style units
atom_style atomic         # Uncharged point particles
atom_modify map hash      # Needed for indexing of clusters etc
                          # Used to be able to find where atoms are in relation to each other.

lattice fcc 1.0 spacing 1 1 1
Lattice spacing in x,y,z = 1.5874011 1.5874011 1.5874011
region box block 0 10 0 10 0 10 units lattice
create_box 2 box
Created orthogonal box = (0.0000000 0.0000000 0.0000000) to (15.874011 15.874011 15.874011)
  3 by 4 by 4 MPI processor grid
create_atoms 1 box
Created 4000 atoms
  using lattice units in orthogonal box = (0.0000000 0.0000000 0.0000000) to (15.874011 15.874011 15.874011)
  create_atoms CPU = 0.002 seconds
set type 1 type/fraction 2 0.49 78393
Setting atom values ...
  1962 settings made for type/fraction
mass 1 1.0
mass 2 1.0
pair_style lj/cut  3.5
pair_modify tail  yes
pair_coeff 1  1  1.0  1.0   # Intearaction between 1 and 1 set with epsilon = 1 and sigma = 1
pair_coeff 1  2  1.5  0.8
pair_coeff 2  2  0.5  0.88

write_data data.0
System init for write_data ...
Neighbor list info ...
  update every 1 steps, delay 10 steps, check yes
  max neighbors/atom: 2000, page size: 100000
  master list distance cutoff = 3.8
  ghost atom cutoff = 3.8
  binsize = 1.9, bins = 9 9 9
  1 neighbor lists, perpetual/occasional/extra = 1 0 0
  (1) pair lj/cut, perpetual
      attributes: half, newton on
      pair build: half/bin/atomonly/newton
      stencil: half/bin/3d
      bin: standard
WARNING: Not all mixed pair coeffs generated from mixing. Use write_data with 'pair ij' option to store all pair coeffs. (../write_data.cpp:312)


#############################
#   M E L T   S Y S T E M   #
#############################

velocity all create 2.4 3143649 mom yes dist gaussian # Assign velocities
                                                    # Temperature 2.4, random number seed, zero linear momentum
                                                                                # Gaussian distribution

timestep 0.002   # simulation timestep
thermo 1000       # output thermodynamic data every 1000 steps bf 100

# Define a fix  in this case with index 1 applied to all
# particles in the simulation. This fix is for simulations
# in the anisotropic NPT ensemble. Note that we use the MTK
# correction.
fix 1 all npt temp 2.4 2.4 0.1 iso 5.68 5.68 0.5 mtk yes tchain 5 pchain 5 # Use NPT ensemble
                                                                         # Set temperature and pressure and damping
                                                                         # Numbers of thermostats in chain and in barostat
run 10000          # run for 10000 steps
Per MPI rank memory allocation (min/avg/max) = 3.642 | 3.644 | 3.648 Mbytes
Step Temp E_pair E_mol TotEng Press Volume 
       0          2.4   -5.3537253            0   -1.7546253   -4.2069924         4000 
    1000    2.4703658    -4.891861            0   -1.1872387    5.6027182    3741.3755 
    2000    2.4433616   -4.9244006            0   -1.2602745    5.7705739    3700.5056 
    3000      2.36402   -4.9141277            0   -1.3689842    5.6243186    3712.6527 
    4000    2.3757354   -4.9242734            0   -1.3615612    5.9947265    3692.6324 
    5000    2.3761435   -4.9020937            0   -1.3387695     5.634589      3713.26 
    6000    2.3573509   -4.9334386            0   -1.3982963    5.6220166    3716.6221 
    7000    2.3779364    -4.920921            0   -1.3549082    5.8854692    3686.7992 
    8000    2.4193777   -4.9319063            0   -1.3037471    5.9155608    3692.0652 
    9000    2.4067743   -4.9611809            0    -1.351922    5.6089467    3707.9898 
   10000    2.3999255   -4.8578682            0   -1.2588799    5.7935129    3739.9164 
Loop time of 2.66391 on 48 procs for 10000 steps with 4000 atoms

Performance: 648670.806 tau/day, 3753.882 timesteps/s
99.6% CPU use with 48 MPI tasks x no OpenMP threads

MPI task timing breakdown:
Section |  min time  |  avg time  |  max time  |%varavg| %total
---------------------------------------------------------------
Pair    | 1.1748     | 1.2411     | 1.3809     |   3.5 | 46.59
Neigh   | 0.21342    | 0.22465    | 0.2488     |   1.4 |  8.43
Comm    | 0.76182    | 0.91681    | 1.0004     |   5.0 | 34.42
Output  | 0.00025037 | 0.00025526 | 0.00031714 |   0.0 |  0.01
Modify  | 0.23354    | 0.2657     | 0.31718    |   4.4 |  9.97
Other   |            | 0.01545    |            |       |  0.58

Nlocal:        83.3333 ave          92 max          74 min
Histogram: 2 2 6 8 4 9 5 3 5 4
Nghost:        1716.50 ave        1760 max        1689 min
Histogram: 5 6 5 9 10 6 4 1 0 2
Neighs:        10207.0 ave       11875 max        8848 min
Histogram: 3 4 7 8 8 5 4 6 1 2

Total # of neighbors = 489935
Ave neighs/atom = 122.48375
Neighbor list builds = 910
Dangerous builds = 233

# Equilibrate just above the melting temperature to avoid step fn in T

fix 1 all npt temp 1.25 1.25 0.1 iso 5.68 5.68 0.5 mtk yes tchain 5 pchain 5
run 2000
Per MPI rank memory allocation (min/avg/max) = 3.644 | 3.646 | 3.649 Mbytes
Step Temp E_pair E_mol TotEng Press Volume 
   10000    2.3999255   -4.8578682            0   -1.2588799    5.7935129    3739.9164 
   11000    1.2363001   -7.0176842            0   -5.1636976    5.4904173     2903.745 
   12000    1.2357583   -7.0785341            0     -5.22536    5.5760878    2884.3903 
Loop time of 0.658751 on 48 procs for 2000 steps with 4000 atoms

Performance: 524629.321 tau/day, 3036.049 timesteps/s
99.5% CPU use with 48 MPI tasks x no OpenMP threads

MPI task timing breakdown:
Section |  min time  |  avg time  |  max time  |%varavg| %total
---------------------------------------------------------------
Pair    | 0.2909     | 0.31339    | 0.33835    |   1.7 | 47.57
Neigh   | 0.041229   | 0.042951   | 0.046098   |   0.5 |  6.52
Comm    | 0.22478    | 0.25179    | 0.27791    |   2.2 | 38.22
Output  | 5.3656e-05 | 5.5212e-05 | 7.3031e-05 |   0.0 |  0.01
Modify  | 0.042036   | 0.045633   | 0.049505   |   0.9 |  6.93
Other   |            | 0.004938   |            |       |  0.75

Nlocal:        83.3333 ave          89 max          75 min
Histogram: 1 1 4 5 3 11 4 10 4 5
Nghost:        2053.08 ave        2071 max        2034 min
Histogram: 2 2 6 4 11 5 5 9 3 1
Neighs:        13265.3 ave       14603 max       11042 min
Histogram: 1 0 1 3 5 14 7 7 7 3

Total # of neighbors = 636736
Ave neighs/atom = 159.18400
Neighbor list builds = 142
Dangerous builds = 11

#############################
# L I N E A R  Q U E N C H  #
#############################

# Define solid atoms. This closely follows ten Wolde  Ruiz-Montero and Frenkel  Faraday Discuss  1996  104  93-110
# Compute components of the per-atom q6 vector
compute q6 all orientorder/atom degrees 1 6 components 6 nnn NULL cutoff 1.3 # compute the Q6 parameter.
                                                                             # Use all neighbours within 1.3 unit cell.

# get number of connections
compute coord_number all coord/atom orientorder q6 0.5

# An atom is solid if it has 8 or more connections (of a possible 14)
variable is_solid atom c_coord_number>=8
group solid dynamic all var is_solid    # Must be dynamic to update
dynamic group solid defined

# do clustering
compute cluster solid cluster/atom 1.3 # Create a cluster where all atoms within are solid and max 1.3 units from another member

# define chunks one chunk per cluster
compute clus_chunks solid chunk/atom c_cluster nchunk every compress yes  # Says which atoms are in which chunk

# count the size of each chunk
compute size_chunks solid property/chunk clus_chunks count


# Find the maximum entry in the vector of chunk sizes
variable max_n equal max(c_size_chunks)


# Thermo style which includes this variable
# thermo_style custom step temp pe vol v_max_n

thermo ${N}  # Print the thermo information every 100 steps
thermo 1000  

# Reset the npt fix at a lower temperature (below freezing)
fix 1  all npt temp  ${temp} ${temp}  0.1  iso  5.68  5.68  0.5  mtk yes tchain  5  pchain  5
fix 1  all npt temp  0.45 ${temp}  0.1  iso  5.68  5.68  0.5  mtk yes tchain  5  pchain  5
fix 1  all npt temp  0.45 0.45  0.1  iso  5.68  5.68  0.5  mtk yes tchain  5  pchain  5

dump dmp2 all dcd ${N} traj.dcd
dump dmp2 all dcd 1000 traj.dcd


compute msd all msd com yes
variable twopoint equal c_msd[4]/6/(step*dt+1.0e-6)
fix 9 all vector 10 c_msd[4]
variable fit equal slope(f_9)/6/(10*dt)
thermo_style custom step temp pe c_msd[4] v_twopoint v_fit v_max_n

fix 1 all npt temp 1.25 ${temp} 0.1 iso 5.68 5.68 0.5 mtk yes tchain 5 pchain 5
fix 1 all npt temp 1.25 0.45 0.1 iso 5.68 5.68 0.5 mtk yes tchain 5 pchain 5
run 500000 # 5000000  # Run for this many steps
Neighbor list info ...
  update every 1 steps, delay 10 steps, check yes
  max neighbors/atom: 2000, page size: 100000
  master list distance cutoff = 3.8
  ghost atom cutoff = 3.8
  binsize = 1.9, bins = 8 8 8
  4 neighbor lists, perpetual/occasional/extra = 1 3 0
  (1) pair lj/cut, perpetual
      attributes: half, newton on
      pair build: half/bin/atomonly/newton
      stencil: half/bin/3d
      bin: standard
  (2) compute orientorder/atom, occasional
      attributes: full, newton on
      pair build: full/bin/atomonly
      stencil: full/bin/3d
      bin: standard
  (3) compute coord/atom, occasional
      attributes: full, newton on
      pair build: full/bin/atomonly
      stencil: full/bin/3d
      bin: standard
  (4) compute cluster/atom, occasional
      attributes: full, newton on
      pair build: full/bin/atomonly
      stencil: full/bin/3d
      bin: standard
Per MPI rank memory allocation (min/avg/max) = 9.837 | 9.843 | 9.847 Mbytes
Step Temp PotEng c_msd[4] v_twopoint v_fit v_max_n 
   12000    1.2357583   -7.0785341 1.8064915e-30 1.2545079e-32 8.3333333e+20            2 
   13000    1.2312442   -7.1025721   0.44127893  0.002828711  0.035639727            1 
   14000    1.2572407   -7.0978007   0.83619246 0.0049773359  0.033560444            1 
   15000    1.2205873   -7.1214204    1.2726239 0.0070701325  0.034123958            2 
   16000     1.225912   -7.1434721    1.6625761 0.0086592504  0.034178788            2 
   17000    1.2302884   -7.1554778    2.0659118  0.010127018  0.034256094            1 
   18000    1.2402987   -7.1145456      2.50616  0.011602592  0.034292108            3 
   19000    1.2309949   -7.1566931    2.8493845    0.0124973  0.034030298            2 
   20000    1.2401629   -7.1720864    3.2002208  0.013334253  0.033534644            3 
   21000    1.2343548   -7.1730503     3.581297  0.014211496  0.033212147            2 
   22000    1.2534201   -7.1242695    3.9970243  0.015140243  0.032919186            2 
   23000    1.2214938   -7.1938525    4.3363484  0.015711407    0.0326993            2 
   24000    1.2090154   -7.1956623     4.734785  0.016440225   0.03254643            2 
   25000    1.2030261   -7.2257634    5.1270992   0.01709033  0.032438009            2 
   26000    1.2260101   -7.1185246    5.6059016  0.017967633  0.032476899            1 
   27000    1.2332077   -7.1991971    5.9178386  0.018264934  0.032533878            1 
   28000    1.2355617   -7.2122855    6.3014641  0.018754357  0.032495675            2 
   29000    1.1980508   -7.2056401    6.7391224  0.019365294  0.032499939            1 
   30000    1.2112596   -7.1854713    7.0688023  0.019635562   0.03250762            1 
   31000    1.2157224    -7.205555    7.4673757   0.02007359  0.032469764            3 
   32000    1.2217509   -7.1495911    7.8214638  0.020368395  0.032424534            4 
   33000    1.2133515   -7.1624099    8.2384205  0.020804092  0.032342809            2 
   34000    1.2162606   -7.1660235    8.5216768  0.020886463  0.032258732            1 
   35000    1.2074598    -7.155164    8.8187627  0.020997054  0.032114818            2 
   36000    1.2122119    -7.213892    9.1499426  0.021180422  0.031960749            2 
   37000    1.2215419   -7.1975183    9.4080944  0.021189401  0.031761742            2 
   38000    1.2286548   -7.1846394    9.7597193  0.021402893  0.031547627            3 
   39000    1.2290514   -7.2256316    10.122847  0.021630015   0.03135423            1 
   40000    1.1910852   -7.2028658    10.418938   0.02170612  0.031166775            3 
   41000    1.1846899   -7.2368174    10.737984  0.021825171  0.030992426            3 
   42000    1.2154407   -7.2012563    11.035395  0.021895625   0.03082857            3 
   43000    1.1976488   -7.2527523    11.373805  0.022042257  0.030648987            3 
   44000    1.1726709   -7.2248768    11.799942  0.022348374  0.030511645            2 
   45000    1.1906919   -7.2845248    12.166017   0.02252966   0.03042782            1 
   46000    1.1967054   -7.2876927    12.316158   0.02231188  0.030303676            2 
   47000    1.2114529   -7.2271028    12.668859  0.022462516   0.03014968            4 
   48000    1.1928498   -7.2669165    12.994065   0.02255914  0.030015841            3 
   49000    1.2158842   -7.2992813    13.318917  0.022651219  0.029900314            3 
   50000    1.2094738   -7.2658416    13.613223  0.022688705  0.029777754            1 
   51000    1.1641468   -7.3004518    13.920474  0.022745872   0.02965405            1 
   52000    1.1481451   -7.2675522    14.300272  0.022917103  0.029551291            2 
   53000    1.1495063    -7.302889    14.595025  0.022948152  0.029460292            2 
   54000    1.2044198   -7.2688786    14.920861   0.02302602  0.029359912            1 
   55000      1.17219   -7.3221558     15.28367  0.023157075  0.029277196            1 
   56000     1.162358   -7.2771639    15.626904  0.023254321  0.029204307            2 
   57000    1.1937944     -7.30236    15.904032  0.023251508  0.029132581            3 
   58000    1.1874256    -7.304395    16.180644  0.023248052   0.02904134            2 
   59000    1.1593602   -7.2869684    16.523218  0.023337879  0.028958375            1 
   60000    1.1858455   -7.3102614    16.768114  0.023289048  0.028867544            3 
   61000    1.1590111   -7.3421714    17.023958  0.023256773  0.028772005            2 
   62000    1.1885138   -7.2758237    17.422249  0.023417002  0.028688759            2 
   63000    1.1583766   -7.3044906    17.702181  0.023415583  0.028609254            3 
   64000     1.150877    -7.365741    17.972439  0.023401614   0.02852954            3 
   65000    1.1526677   -7.3381995    18.289289  0.023447806  0.028449857            2 
   66000    1.1542751   -7.3850643    18.543951  0.023414079  0.028374607            4 
   67000    1.1669061   -7.3325991    18.868246  0.023467967  0.028287119            2 
   68000    1.1870457    -7.267526    19.155783  0.023475224  0.028213162            3 
   69000    1.1400476   -7.3516327     19.40268  0.023433188  0.028129516            1 
   70000    1.1701111    -7.322788    19.746638  0.023507902  0.028051749            2 
   71000    1.1467403   -7.3248596    20.100903  0.023592608  0.027981417            3 
   72000    1.1687299   -7.3254916    20.325831  0.023525267   0.02790655            1 
   73000    1.1507739   -7.3857912    20.442198  0.023335843  0.027818052            3 
   74000     1.175819    -7.355024    20.898869  0.023534762   0.02774158            2 
   75000    1.1413348   -7.3794162    21.052351  0.023391501  0.027663821            2 
   76000    1.1676391   -7.3348567    21.318835  0.023375915  0.027578444            4 
   77000    1.1309965   -7.3972185    21.624898   0.02340357  0.027490395            1 
   78000    1.1410913    -7.408985    21.958746  0.023460198  0.027412624            3 
   79000    1.1421866   -7.4004352    22.231093   0.02345052  0.027336191            1 
   80000    1.1733258   -7.3977543    22.488397  0.023425413  0.027262659            1 
   81000     1.143692   -7.4054285    22.768509  0.023424392  0.027192807            2 
   82000    1.1422539   -7.3931073     23.00386  0.023377907  0.027121597            2 
   83000    1.1501726   -7.3854934    23.371927   0.02346579  0.027050221            1 
   84000    1.1027399   -7.4094577     23.42631  0.023240387  0.026973824            2 
   85000    1.1476523   -7.3976309    23.905616  0.023436878  0.026903186            1 
   86000    1.1363597   -7.4112694     23.98767  0.023243866  0.026832146            2 
   87000    1.1346181   -7.3948773    24.317595  0.023292716  0.026760048            4 
   88000    1.1433881   -7.3909784    24.468821  0.023171231  0.026684008            1 
   89000    1.1345566   -7.3907899    24.758054  0.023181698   0.02660186            1 
   90000    1.1129715   -7.4234785    24.820147  0.022981617   0.02651236            1 
   91000    1.1339843   -7.4621917    25.048184  0.022937897   0.02642066            2 
   92000    1.1420971   -7.4322929    25.432799  0.023036956  0.026334819            3 
   93000    1.1029099   -7.4801526    25.616568  0.022953914  0.026251501            1 
   94000    1.1276112   -7.4805451    26.033131  0.023079016   0.02616877            3 
   95000     1.115409   -7.4549741    26.346964  0.023111372  0.026100056            3 
   96000    1.1019878   -7.4969731    26.602481  0.023092431  0.026034634            2 
   97000    1.1262623   -7.4262586    26.824265  0.023044901  0.025965324            1 
   98000    1.0736812   -7.4534782    27.292359  0.023207789  0.025903635            3 
   99000    1.1345579    -7.476818    27.443637  0.023100705  0.025847552            1 
  100000    1.0965019   -7.4620335    27.902624  0.023252187  0.025793052            2 
  101000    1.1049468   -7.4967532    27.952089   0.02306278  0.025741519            4 
  102000    1.0814586   -7.5029221    28.249771  0.023079878  0.025685234            5 
  103000    1.0996924   -7.5097922    28.614562   0.02315094  0.025636147            2 
  104000    1.1219278   -7.5118783    28.789837   0.02306878  0.025586641            1 
  105000    1.0829951   -7.4889746    29.102682  0.023097367  0.025534888            2 
  106000    1.1137953   -7.4827507    29.429417  0.023136334  0.025483209            1 
  107000    1.0980201   -7.4990308    29.617184  0.023066343  0.025433863            1 
  108000    1.1024586   -7.4648424    29.652148  0.022879743  0.025380466            3 
  109000     1.068295   -7.4757819    29.993539   0.02293084   0.02532354            3 
  110000    1.0752694   -7.5181264    30.297347  0.022952535  0.025267865            3 
  111000    1.0956331   -7.5010487    30.538207  0.022926582  0.025212336            2 
  112000    1.0932778   -7.5408775    30.664176  0.022815607  0.025156198            4 
  113000    1.0952392   -7.5410254    30.708466  0.022646361  0.025096384            1 
  114000    1.0700067   -7.5344401    31.070676  0.022712482  0.025037906            2 
  115000    1.1235926   -7.5647892    31.424592  0.022771443  0.024982271            2 
  116000    1.0655792   -7.5671493    31.683316  0.022761003  0.024927479            3 
  117000    1.0815793   -7.5525297    31.853042  0.022687352   0.02487252            2 
  118000    1.0914513   -7.5687381    32.140618  0.022698176  0.024816659            3 
  119000    1.0886072   -7.5772829    32.345733  0.022651073  0.024763229            3 
  120000    1.0756675   -7.5448872    32.756585  0.022747628  0.024714672            1 
  121000    1.0889302   -7.5761472    33.048936  0.022760975  0.024667514            2 
  122000    1.0963925   -7.4894737    33.380497  0.022800886  0.024622547            4 
  123000    1.0757082   -7.5141642    33.503247  0.022698676  0.024577862            3 
  124000    1.0690725   -7.5597742     33.64572  0.022611371  0.024530015            2 
  125000    1.0596605   -7.5950856    33.738872  0.022492582  0.024477079            4 
  126000    1.0748926   -7.5974981    33.923533  0.022436199  0.024424681            3 
  127000    1.0467284    -7.612615      34.1649  0.022417913  0.024369195           11 
  128000    1.0512922   -7.5367311     34.43204  0.022416693  0.024314425            2 
  129000     1.054796   -7.6411707    34.494268  0.022283119  0.024257438            2 
  130000    1.0822399    -7.595315    34.601478  0.022180435  0.024197856            4 
  131000    1.0451881   -7.6070595    34.912137  0.022208739  0.024137407            2 
  132000    1.0697924   -7.5911117    35.108925  0.022164725  0.024078867            3 
  133000    1.0577264   -7.6007805    35.275623  0.022102521  0.024018257            3 
  134000    1.0351205    -7.579908     35.23816  0.021914278  0.023953201            4 
  135000    1.0611604   -7.5865728    35.557941  0.021949346  0.023887827            2 
  136000    1.0462574   -7.6347638    35.890488  0.021991721  0.023825655            1 
  137000    1.0403115   -7.6483541    36.021294  0.021910762  0.023765639            2 
  138000    1.0587111   -7.6530171    36.163957  0.021838138  0.023706208            1 
  139000    1.0383286   -7.6651402    36.318935  0.021773942  0.023646764            4 
  140000    1.0751456   -7.6381806    36.590619   0.02178013  0.023584486            6 
  141000    1.0374163   -7.6399225    36.563354  0.021609547  0.023520557            5 
  142000    1.0359643    -7.627992     36.79773  0.021594912  0.023454007            3 
  143000    1.0297431   -7.6826311    36.895224  0.021500713  0.023384493            3 
  144000    1.0278055   -7.6775952     37.20788  0.021532338  0.023317059            2 
  145000    1.0420443   -7.6479537    37.370093  0.021477065  0.023251791            3 
  146000    1.0306567   -7.6670691    37.495329  0.021401443   0.02318604            2 
  147000    1.0260023    -7.682095    37.461892    0.0212369  0.023119138            2 
  148000    1.0334347   -7.6825418    37.719725  0.021238584  0.023049963            4 
  149000     1.047424   -7.6956322     37.76768  0.021122864  0.022982795            3 
  150000    1.0669272   -7.6965227     38.00324  0.021112911  0.022914784            3 
  151000    1.0477692   -7.7253877    37.979129  0.020959784  0.022844298            2 
  152000    1.0251419   -7.7234138     38.21371  0.020950499  0.022772558            4 
  153000    1.0456192   -7.7133695    38.380994  0.020904681  0.022701766            2 
  154000   0.99755831   -7.6964907    38.604175  0.020889705  0.022631458            7 
  155000   0.99523592   -7.7208949    38.610695  0.020758438   0.02256014            2 
  156000    1.0100313   -7.6879838    38.881345  0.020769949  0.022488006            5 
  157000   0.99987193    -7.736039    38.987705  0.020694111  0.022416635            3 
  158000    1.0273219   -7.7408191    39.260026  0.020706765  0.022345684            3 
  159000    1.0227269    -7.746395    39.404802  0.020652412  0.022277473            2 
  160000   0.98509949   -7.7654879    39.546209  0.020596984  0.022208319            3 
  161000     1.041585   -7.7208718    39.595184  0.020494401  0.022138246            3 
  162000    1.0142653   -7.7489811    39.729346  0.020436906  0.022067206            2 
  163000    1.0182285   -7.7437628    40.085521   0.02049362  0.021998577            3 
  164000    1.0060903   -7.7213229    40.307632   0.02048152  0.021931867            3 
  165000   0.98733786   -7.7561496    40.373415  0.020390614  0.021866445            2 
  166000    0.9916073   -7.7384747    40.466555  0.020314535  0.021799871            4 
  167000    1.0225628   -7.7641063    40.648085  0.020283475  0.021731355            4 
  168000   0.98793435   -7.7495729    40.887856  0.020281674  0.021664738            3 
  169000    0.9819618   -7.7911882    40.809914  0.020123232  0.021599327            2 
  170000    1.0151502   -7.7918717    40.910113  0.020053977  0.021531221            2 
  171000   0.99266365   -7.7913522    41.087768  0.020023279  0.021462835            3 
  172000    1.0117109   -7.8025152    41.354892  0.020036285  0.021395941            3 
  173000   0.99378658   -7.8000338    41.457682  0.019969981  0.021329697            5 
  174000   0.98286359   -7.8256301     41.63774  0.019941446  0.021265534            2 
  175000    0.9952327   -7.8219117    41.742479  0.019877371  0.021200244            2 
  176000   0.95873471   -7.8156232    41.876576  0.019827924  0.021133872            4 
  177000    0.9763069   -7.7926502    41.822107  0.019690258  0.021066865            3 
  178000   0.97751088   -7.7914942    42.058607  0.019690359  0.020999787            3 
  179000   0.95970575   -7.7829607    42.111499  0.019604981  0.020932675            2 
  180000   0.99504751   -7.8560455    42.120868  0.019500402  0.020864535            5 
  181000   0.96408997   -7.8190526    42.450099  0.019544244  0.020796156            7 
  182000   0.98670825   -7.8153148    42.344421  0.019388471  0.020728006            3 
  183000   0.95090622   -7.8286583    42.490646   0.01934911  0.020659222            8 
  184000   0.96534357   -7.8360444    42.579166  0.019284043  0.020590641            6 
  185000   0.95344292   -7.8227867    42.753741  0.019258442  0.020522871            2 
  186000   0.97377936   -7.8551632    42.855737  0.019200599  0.020455043            8 
  187000   0.98959412   -7.8551378    42.865441  0.019102246  0.020387234            2 
  188000    0.9665599   -7.8438699    43.000778  0.019060628  0.020318829            1 
  189000    0.9537738   -7.8695579    43.021341  0.018968845  0.020249939            3 
  190000   0.96406369   -7.8643276    43.223821  0.018957816  0.020181505            5 
  191000   0.96206898   -7.8556083    43.327629  0.018903852  0.020114682            5 
  192000   0.95217686   -7.9174361    43.371596  0.018824478  0.020047305            3 
  193000   0.95495753   -7.8515836    43.657308  0.018850306  0.019979899            3 
  194000    0.9568603   -7.9129361    43.534498  0.018700386  0.019912154            3 
  195000   0.95649013   -7.8900502    43.828568  0.018730157  0.019844218            7 
  196000   0.94984309   -7.8815133     43.80014  0.018622509  0.019776814           10 
  197000   0.95617102   -7.8746933    43.943931  0.018588803  0.019709968            4 
  198000   0.96536827   -7.8903941    44.079154  0.018551832  0.019643426            6 
  199000   0.93266782   -7.9210995    44.221458  0.018518199  0.019577836            5 
  200000   0.94332458   -7.8777438    44.372338  0.018488474  0.019513337            4 
  201000   0.95299566   -7.9150024    44.405226  0.018410127  0.019447986            3 
  202000   0.94007106   -7.9211457    44.559211  0.018382513  0.019382624            3 
  203000    0.9415061   -7.9521996    44.514928   0.01827378  0.019316915            4 
  204000   0.94214468   -7.9335795    44.723598  0.018269444  0.019251266            4 
  205000   0.96931611   -7.9361863    44.801266  0.018211897  0.019186849            3 
  206000   0.96522347   -7.9438771    44.829094  0.018134747  0.019122984            3 
  207000     0.929988   -7.9534201    44.874978  0.018065611  0.019057634            6 
  208000   0.93766776   -7.9540878     44.96943  0.018016599  0.018992764            3 
  209000   0.93679451   -7.9684021    45.009138  0.017946227  0.018927081            5 
  210000   0.91373082    -7.941396     45.14475  0.017914583  0.018862364            2 
  211000   0.93181485   -7.9860194    45.362772  0.017915787  0.018798679            2 
  212000   0.94702419   -7.9604727    45.461619  0.017870133  0.018736023            7 
  213000   0.94342566   -7.9453559    45.396479  0.017760751  0.018672216            4 
  214000   0.90515701   -7.9987976     45.36503   0.01766551  0.018606692            5 
  215000   0.93338618   -7.9564788    45.430427  0.017608692  0.018541122            2 
  216000   0.92972594    -8.022351    45.541162  0.017569893  0.018476335            3 
  217000   0.90075078   -7.9995094     45.46211  0.017458568   0.01841054            8 
  218000   0.89915051   -7.9936985    45.806956  0.017510304  0.018345434            4 
  219000   0.91063379   -8.0136398    45.744699  0.017406659  0.018280745            4 
  220000   0.92577866   -7.9912836    45.753136  0.017330733  0.018215915            3 
  221000   0.92946431   -8.0009131    45.937912  0.017321988  0.018151713            5 
  222000   0.90074864    -8.013619    45.917218  0.017236193  0.018086512            4 
  223000   0.91863849    -8.006927    46.083595  0.017221074  0.018022774            5 
  224000   0.88794949   -7.9904843     46.02902  0.017123891  0.017958182            3 
  225000    0.8909642   -8.0083075     46.26538  0.017135326  0.017894465            3 
  226000   0.90461324   -8.0524024    46.203767  0.017036787  0.017831064           12 
  227000   0.91812038    -8.035119    46.372623  0.017023724   0.01776706            6 
  228000    0.9099007   -8.0487754    46.373284    0.0169493  0.017703363           11 
  229000   0.89566503   -8.0613439     46.38885   0.01688095  0.017639994           13 
  230000   0.89132161   -8.0292504    46.475916    0.0168391  0.017576905            6 
  231000   0.91219893   -8.0208775    46.596793   0.01680981  0.017513935            4 
  232000   0.90837337   -8.0655319    46.473509  0.016693071  0.017450548            3 
  233000   0.89306411   -8.0445638    46.722642   0.01671053  0.017387419            2 
  234000   0.89315356   -8.0299418    46.736798  0.016644159  0.017324414            7 
  235000    0.8999909   -8.0821636     46.67034  0.016549766  0.017261688            9 
  236000   0.87294988   -8.0491371     47.04452  0.016611766  0.017199968            3 
  237000   0.89670369    -8.063801    46.875518   0.01648225  0.017138559            4 
  238000   0.89046385   -8.0934203    46.956337  0.016441294  0.017076808            6 
  239000   0.87222041   -8.1138321    46.979815  0.016380688  0.017015064            6 
  240000   0.88397797   -8.1300404    47.103183  0.016355272  0.016953112            2 
  241000   0.88520159   -8.1068138    47.224815  0.016329466  0.016892069            6 
  242000   0.88709182   -8.1142153    47.243182  0.016268313  0.016831652           18 
  243000   0.88995896   -8.1308085    47.095477  0.016150712  0.016770922            6 
  244000   0.86974057   -8.1281319    47.400838  0.016188811  0.016710519           14 
  245000    0.8863216   -8.1348883    47.387578  0.016118224  0.016651477            5 
  246000   0.89709126   -8.1078801    47.578557  0.016117397  0.016592387            9 
  247000   0.86930972   -8.1489586    47.492776  0.016023204  0.016533135           20 
  248000   0.85618831   -8.1789771    47.486746  0.015956568  0.016473738           10 
  249000   0.88633217   -8.1158289    47.593036  0.015928058  0.016414665           11 
  250000   0.88608325   -8.1311047    47.468454  0.015822818  0.016354937            4 
  251000   0.86417696   -8.1867966     47.57621  0.015795554  0.016294982           12 
  252000   0.87587435   -8.1660957    47.567621  0.015730033   0.01623589            9 
  253000   0.85518411   -8.1845567    47.760057  0.015731244  0.016176652            4 
  254000   0.85825435    -8.178865    47.780011  0.015675856  0.016118434            4 
  255000   0.85510509   -8.1637411    47.827061  0.015629759  0.016060014            2 
  256000   0.86231535   -8.1874704    47.889195  0.015588931  0.016002089            3 
  257000   0.86326686   -8.1932718    47.864776  0.015520355   0.01594426            6 
  258000   0.86609824   -8.1855782    47.845886  0.015454098  0.015886036            2 
  259000   0.84587781   -8.1613806    48.116176  0.015481395  0.015828515            2 
  260000   0.86892551   -8.2171395    48.048442  0.015400142   0.01577141            1 
  261000    0.8737639   -8.1991241    48.186336  0.015385165  0.015714963            7 
  262000   0.84292068   -8.2013461    48.293104  0.015360402  0.015659125           14 
  263000   0.83880684   -8.2194072    48.274278  0.015296032  0.015603451           15 
  264000   0.85352984   -8.2175541    48.217087   0.01522004  0.015546913            7 
  265000   0.83555579   -8.2388459    48.076148  0.015118286  0.015489859            3 
  266000   0.84510029   -8.2139439    48.071001  0.015059837    0.0154327            8 
  267000   0.84703448    -8.261966    48.171419  0.015034775  0.015375793           10 
  268000   0.85067416   -8.2374452    48.274586  0.015010754  0.015319039            5 
  269000   0.84014261    -8.243292    48.232509  0.014941917  0.015262336            8 
  270000   0.84921161   -8.2243787    48.261191  0.014895429  0.015206009            6 
  271000   0.83431366   -8.2421379    48.377483  0.014876225  0.015149699            5 
  272000   0.85768825   -8.2503972    48.496325  0.014857943  0.015094145            5 
  273000    0.8260408   -8.2334428    48.319958  0.014749682  0.015038102            5 
  274000   0.81725904   -8.1959948    48.498644  0.014750196  0.014982085            7 
  275000   0.80050931   -8.2695687    48.420096  0.014672756  0.014926244           15 
  276000   0.82829626   -8.2916661    48.473128  0.014635606  0.014870691           14 
  277000   0.83628212    -8.280371    48.485787  0.014586579  0.014815569            8 
  278000   0.83402209   -8.2483234    48.609706  0.014571255  0.014760963            7 
  279000   0.82544189   -8.2982848    48.494222  0.014484535  0.014706338           11 
  280000   0.81483372   -8.3022696    48.563855  0.014453528  0.014651358            5 
  281000   0.79652243   -8.2991667    48.695134  0.014441024    0.0145972            8 
  282000   0.81313426   -8.3185009    48.781595  0.014415365  0.014543139            5 
  283000   0.79904832   -8.2994523    48.854521  0.014385901  0.014489609            9 
  284000   0.81148623   -8.3233497      48.6655  0.014279783  0.014435922            6 
  285000    0.8096889   -8.3070336     48.84626  0.014282532  0.014382532            9 
  286000   0.81477288   -8.3192745    48.848104   0.01423313  0.014329128            4 
  287000   0.81216724   -8.3146646    48.942069  0.014210821  0.014276331            9 
  288000   0.80798545   -8.3078614    48.984067   0.01417363  0.014223684            8 
  289000   0.81177054   -8.3347018    48.841419  0.014083454  0.014171114            6 
  290000   0.81301288   -8.3587667    48.861286  0.014040599   0.01411883            9 
  291000   0.82364665    -8.336299    49.150147  0.014075071  0.014066924            7 
  292000   0.80764058   -8.3463033    49.001591  0.013984472  0.014015326            5 
  293000   0.81588355   -8.3383836    49.144831  0.013977483  0.013964189            3 
  294000   0.79817318   -8.3262296     49.08475  0.013912911  0.013913177            3 
  295000   0.79570792   -8.3319802    49.036399   0.01385209  0.013862061            9 
  296000   0.79551524   -8.3413938    49.019876  0.013800641  0.013811129            4 
  297000   0.79336521   -8.3529818    49.233615  0.013814146  0.013760449            7 
  298000   0.78690856   -8.3509494    49.154213  0.013745585  0.013710187           16 
  299000   0.78045962   -8.3501036    49.113921  0.013688384  0.013659871           11 
  300000   0.78951005   -8.3762351    49.158539   0.01365515  0.013609536            6 
  301000     0.785473   -8.3447462     49.04835  0.013579277  0.013559437            4 
  302000   0.76933555   -8.3705247    49.113819  0.013552378  0.013509211            9 
  303000   0.77908093   -8.3463903    49.257103  0.013547058  0.013458907            9 
  304000   0.75860849   -8.3703248    49.221028  0.013492606  0.013408977           10 
  305000   0.76351244   -8.3477231    49.339306  0.013480685  0.013359386            5 
  306000   0.77740708   -8.3888208    49.189995  0.013395968  0.013309885            6 
  307000   0.78399024   -8.3856619    49.294896  0.013380808  0.013260514            4 
  308000   0.78433786   -8.4143797    49.364944  0.013356316  0.013211427            5 
  309000   0.78627961   -8.4462073    49.300118  0.013295609  0.013162109            4 
  310000   0.77301612   -8.4201218    49.283627  0.013248287   0.01311307            5 
  311000   0.79166964   -8.4347628    49.235977   0.01319292  0.013064244            8 
  312000   0.76703712   -8.4324973    49.292844  0.013165824  0.013015542            6 
  313000   0.76874189   -8.4300537    49.317332   0.01313028  0.012967102            7 
  314000   0.75253967   -8.4244732    49.290563   0.01308136    0.0129185            5 
  315000   0.77693571   -8.4624847    49.208432  0.013018104  0.012870042            4 
  316000   0.76338055   -8.4828748    49.277078   0.01299501  0.012821723           12 
  317000    0.7664189   -8.4620967    49.292149  0.012957978  0.012773589            4 
  318000   0.74750103    -8.475178    49.262667  0.012909504  0.012725737            6 
  319000   0.74811903   -8.4743979    49.274324   0.01287208  0.012677886            7 
  320000    0.7558337   -8.4300937    49.510668  0.012893403  0.012630432            6 
  321000   0.75474271   -8.4543236    49.432092  0.012832838  0.012583337            7 
  322000   0.74928781   -8.4650238    49.361201  0.012774638  0.012536308            9 
  323000   0.73820459   -8.4522845     49.35771  0.012734187  0.012489301            7 
  324000   0.74043245   -8.4858374     49.25264   0.01266786  0.012442538            9 
  325000   0.74818916   -8.5027782    49.310225  0.012643648  0.012395682            9 
  326000   0.75166834   -8.4782824    49.358797  0.012617279   0.01234928           10 
  327000    0.7468902   -8.4805431    49.336477  0.012573006  0.012302908            8 
  328000   0.75245893   -8.4620633    49.549252  0.012588733  0.012256902           10 
  329000   0.74112341   -8.4972126    49.308608  0.012489516  0.012210969           12 
  330000   0.73498484    -8.481347    49.400423  0.012474854  0.012164855           11 
  331000   0.74880062   -8.4899396    49.419876  0.012442063  0.012119152            7 
  332000   0.72971969   -8.5164648    49.316133  0.012378548  0.012073451           12 
  333000   0.74834331   -8.5426088    49.354562  0.012350992  0.012028077           23 
  334000   0.73028769   -8.4905236    49.481788  0.012345755  0.011982963           31 
  335000   0.74375841   -8.5313228    49.506347  0.012315012  0.011937897           35 
  336000   0.74669289   -8.5235521    49.328812  0.012234328  0.011893147           23 
  337000   0.73958115   -8.4980845    49.529582  0.012247671  0.011848707           20 
  338000   0.73267262   -8.5332231    49.485743  0.012200627  0.011804513           49 
  339000   0.72104393    -8.549251    49.455554  0.012157216  0.011760311           22 
  340000   0.71779912   -8.5483582    49.415794  0.012111714   0.01171639           35 
  341000   0.73683957   -8.5481827    49.343382    0.0120585  0.011672605           37 
  342000   0.72339382   -8.5578832    49.420358  0.012041998  0.011629369           30 
  343000   0.72036577    -8.540646    49.546938  0.012037643  0.011586027           37 
  344000   0.73381583   -8.5628219    49.514292  0.011994741  0.011543041           37 
  345000    0.7302173   -8.5553022    49.485968  0.011953132  0.011500062           37 
  346000   0.71158189   -8.5607532    49.473509  0.011915585  0.011457344           49 
  347000   0.70409488   -8.5874865    49.481288  0.011883114  0.011414526           54 
  348000   0.72138692   -8.5613102    49.458563  0.011843526  0.011372127           48 
  349000   0.71475426   -8.5619229    49.558982  0.011833568  0.011329719           57 
  350000   0.70509326   -8.5951926    49.575314  0.011803646  0.011287488           63 
  351000   0.70743749   -8.5753529    49.571036  0.011769002  0.011245324           50 
  352000     0.704615   -8.5989093    49.552254  0.011731121  0.011203128           46 
  353000   0.70325253   -8.5876922      49.4714  0.011678801   0.01116116           12 
  354000   0.70421046   -8.6105599    49.522496  0.011657838  0.011119253           28 
  355000   0.69609118   -8.5883499    49.497145  0.011619048  0.011077628           42 
  356000   0.68915527   -8.6030946    49.335177  0.011548496  0.011036099           35 
  357000   0.69524752   -8.6253752    49.494512  0.011553341  0.010994717           48 
  358000   0.69949656   -8.6032224    49.553298  0.011534753  0.010953653           28 
  359000   0.69439202   -8.6355105    49.318346  0.011448084  0.010912574           23 
  360000    0.6845197   -8.6255281    49.578683  0.011476547  0.010871573           36 
  361000   0.68856484   -8.6207844     49.53764  0.011435282  0.010831059           43 
  362000    0.6839672   -8.6512101    49.513598  0.011398158  0.010790621           33 
  363000   0.68500901   -8.6504762    49.520579  0.011368361  0.010750358           56 
  364000   0.67822926   -8.6533172    49.451251  0.011321257  0.010710212           52 
  365000   0.68780837   -8.6296106    49.390011  0.011276258  0.010670187           45 
  366000   0.67031499   -8.6625844    49.502786  0.011271126  0.010630375           50 
  367000   0.69432585   -8.6648106    49.406568  0.011218567  0.010590762           27 
  368000   0.67600074   -8.6668583    49.514434  0.011212508  0.010551078           24 
  369000   0.69568791   -8.6592071    49.493373  0.011177365  0.010511755           39 
  370000   0.69591164   -8.6678526    49.456591  0.011138872  0.010472563           41 
  371000   0.66398758   -8.6584338    49.527897  0.011124864  0.010433632           42 
  372000   0.67797874   -8.6886316    49.463902  0.011080623  0.010394656           29 
  373000   0.68643647   -8.6981702    49.530441  0.011065782  0.010356026           33 
  374000   0.67161835    -8.672377     49.47251  0.011023287  0.010317506           42 
  375000   0.65318232   -8.6794828    49.439899  0.010986644  0.010279191           45 
  376000   0.68809319   -8.6911112    49.517963  0.010974726  0.010241068           39 
  377000   0.67433389   -8.7012728     49.47819  0.010936824  0.010203048           34 
  378000    0.6534374   -8.6866833     49.44025  0.010899526  0.010165264           50 
  379000   0.65073611   -8.6923904    49.495691  0.010882958  0.010127506           28 
  380000   0.65728881   -8.6901972    49.468399  0.010848333  0.010089901           48 
  381000   0.65568872    -8.718206    49.495327   0.01082575  0.010052412           23 
  382000   0.64949914    -8.725881    49.506296  0.010799803  0.010015009           66 
  383000   0.64875039      -8.7305    49.359509  0.010739667 0.0099776593           46 
  384000   0.65752272   -8.7282877    49.343093  0.010708136 0.0099404497           55 
  385000    0.6591499   -8.7532595    49.368526  0.010685828 0.0099033321           51 
  386000   0.65813802    -8.721678    49.357244  0.010655709 0.0098666029           34 
  387000   0.64660078   -8.7170951    49.303807  0.010616668  0.009830019           32 
  388000   0.64220614   -8.7373356    49.386031  0.010606965 0.0097935833           23 
  389000   0.64017437   -8.7379429    49.399936  0.010582677 0.0097571994           44 
  390000   0.67152977   -8.7374529    49.451759  0.010566615  0.009720995           36 
  391000   0.62686502   -8.7457321    49.369173  0.010521989 0.0096849702           40 
  392000   0.62103822   -8.7434963    49.448782  0.010512071 0.0096489624           19 
  393000   0.66007039   -8.7539828    49.311989  0.010456317 0.0096131168           25 
  394000   0.65992213   -8.7709073    49.392648  0.010446837 0.0095773472           28 
  395000   0.62776041   -8.7573438    49.335139  0.010408257  0.009541668           30 
  396000   0.64271207   -8.7644917    49.299019  0.010374373 0.0095061109           35 
  397000   0.63354661   -8.7847335     49.22746   0.01033322 0.0094707159           38 
  398000   0.63656629   -8.7815936    49.263416  0.010314786  0.009435553           21 
  399000   0.63005863   -8.7715418    49.347371  0.010306469 0.0094005844           27 
  400000   0.63158234   -8.7706192    49.261029  0.010262714 0.0093658073           39 
  401000   0.61965503   -8.7608069    49.351751  0.010255975 0.0093311282           23 
  402000   0.63869913    -8.760438     49.31801  0.010223468 0.0092967302           29 
  403000   0.61421016   -8.7878112    49.301411  0.010194667 0.0092624709           50 
  404000   0.62486571   -8.7799195    49.210931   0.01015077 0.0092282638           34 
  405000   0.63062943   -8.7838911      49.3161  0.010147346 0.0091943046           46 
  406000   0.61872543   -8.7782807    49.349963  0.010129303 0.0091603912           21 
  407000   0.61118594   -8.8032706    49.282422  0.010090586 0.0091266334           46 
  408000   0.60625855   -8.7801299    49.245191   0.01005825 0.0090930061           31 
  409000   0.61783425    -8.798201     49.25084  0.010034809 0.0090594641           43 
  410000   0.60735727   -8.8014012    49.235899  0.010007297 0.0090260816           29 
  411000   0.61491352   -8.8167362    49.266797 0.0099892127 0.0089927521           31 
  412000    0.6084124   -8.7936705    49.302071 0.0099721017  0.008959542           32 
  413000   0.60008072   -8.8031501    49.105741 0.0099083415 0.0089265406           29 
  414000   0.60612506   -8.8114666    49.267086 0.0099168853 0.0088935413           29 
  415000   0.59712453   -8.8053826    49.217899 0.0098831122 0.0088607634           32 
  416000   0.59739316   -8.8263549    49.163491 0.0098484557 0.0088280764           56 
  417000   0.60310557   -8.8447966    49.041622  0.009800484 0.0087954918           37 
  418000   0.59720802    -8.840154    49.082147  0.009785117 0.0087629983           21 
  419000   0.59820608   -8.8543296    49.088671 0.0097630611 0.0087306029           31 
  420000   0.58698912   -8.8331939    49.127233 0.0097474668 0.0086984048           25 
  421000   0.60104702    -8.850376    49.124296 0.0097237324 0.0086662569           33 
  422000   0.58146486    -8.843822    49.017578 0.0096796166 0.0086342822           57 
  423000   0.59060978   -8.8476612    49.173622 0.0096874747 0.0086024766           48 
  424000   0.58903552   -8.8568148    49.060999 0.0096424918 0.0085707717           46 
  425000   0.59299985   -8.8518502    49.110682 0.0096295454 0.0085393033           37 
  426000   0.57787949   -8.8517175    49.094698 0.0096038142 0.0085079069           30 
  427000   0.58297553   -8.8625481    49.148378 0.0095917989 0.0084767025           43 
  428000   0.57458507   -8.8632241    49.060187  0.009552217 0.0084455688           40 
  429000   0.58988829   -8.8686448    49.119201 0.0095414143 0.0084146794           36 
  430000   0.56793502   -8.8553014    49.053907 0.0095065712  0.008383905           28 
  431000   0.58281405   -8.8685869    48.940537 0.0094625942 0.0083531741           30 
  432000   0.57219051    -8.888285    49.083148 0.0094681998 0.0083226084           30 
  433000   0.59301259   -8.8743857    48.945746 0.0094198896  0.008292141           38 
  434000   0.57012874    -8.895257    49.043806 0.0094170134 0.0082618717           39 
  435000   0.56208989   -8.8904407    49.098406 0.0094058248 0.0082317124           45 
  436000   0.56072491   -8.8932333     49.00659  0.009366703 0.0082016654           40 
  437000   0.56200939   -8.9042346    48.979524 0.0093401075 0.0081717155           42 
  438000   0.56811481   -8.9105734    49.059019 0.0093339078 0.0081419008           39 
  439000   0.57226225   -8.8952334     48.91636 0.0092855657 0.0081122407           32 
  440000   0.56596383    -8.909474    49.021431  0.009284362 0.0080826922           33 
  441000    0.5580713   -8.9181353    48.986764 0.0092567581 0.0080533418           30 
  442000   0.56788851   -8.9172042    48.909518 0.0092212516 0.0080241457           25 
  443000    0.5459648   -8.9161885    49.012105 0.0092197339 0.0079950483           38 
  444000   0.56064315   -8.9031042    48.949339 0.0091871882 0.0079660545           42 
  445000   0.55346085   -8.9297869    48.991492 0.0091744368 0.0079373376           28 
  446000   0.54812735   -8.9341221    49.045664 0.0091639881 0.0079086689           32 
  447000   0.55260714   -8.9255117    48.930888 0.0091220894 0.0078801259           27 
  448000   0.54891487   -8.9211408    48.958419 0.0091068488 0.0078517305           32 
  449000   0.54496761   -8.9146244    48.952565 0.0090854798  0.007823434           35 
  450000   0.54926927    -8.931807    48.859893 0.0090481283 0.0077952404           38 
  451000   0.55437834   -8.9282472    48.992574  0.009052582 0.0077672108           38 
  452000   0.54729786   -8.9245089    48.951817   0.00902504 0.0077392925           54 
  453000   0.56125008   -8.9301281    48.918203 0.0089989335 0.0077115039           31 
  454000   0.54471819   -8.9272178     48.95403 0.0089856884 0.0076837981           38 
  455000    0.5373271   -8.9437692    48.858864 0.0089485098 0.0076562201           39 
  456000   0.54955006   -8.9415448    48.871186 0.0089311378 0.0076288173           39 
  457000   0.53722951   -8.9521457     48.90719 0.0089181601 0.0076015263           31 
  458000   0.54066827    -8.966513    48.843891 0.0088871708 0.0075743286           38 
  459000   0.54717419   -8.9535587    48.963715 0.0088895633 0.0075472471           36 
  460000   0.53021393    -8.944628    48.837316 0.0088473398  0.007520292           49 
  461000   0.54664843    -8.965347     48.89741 0.0088390113 0.0074934526           31 
  462000   0.52791313   -8.9644482    48.936014 0.0088268423 0.0074666997           36 
  463000   0.51749749    -8.955961    48.872243    0.0087963 0.0074400542           35 
  464000   0.53051638   -8.9727585    48.788699 0.0087623381 0.0074135685           35 
  465000   0.52274164   -8.9847591    48.928619 0.0087685696 0.0073871794           31 
  466000   0.51518866    -8.976997    48.842924 0.0087344284 0.0073609542           45 
  467000   0.52503867    -8.980212    48.793711 0.0087069434 0.0073348046           36 
  468000   0.53808707   -9.0124744    48.779576  0.008685822 0.0073087429           38 
  469000   0.51580141   -8.9971637    48.790671 0.0086692735 0.0072828433           40 
  470000   0.51478494   -8.9828793    48.776049 0.0086482356 0.0072570832           42 
  471000   0.52835664   -8.9991087    48.799147 0.0086339609 0.0072313644           57 
  472000    0.5174249   -9.0106582    48.695552 0.0085973785 0.0072058058           36 
  473000   0.52334761   -8.9973164     48.82148 0.0086013882 0.0071803625           36 
  474000   0.51112772   -8.9905113    48.801492 0.0085797278 0.0071550551           31 
  475000   0.50931466   -9.0131157    48.863382 0.0085725232  0.007129824           33 
  476000   0.50369478   -9.0034351    48.772171 0.0085385453 0.0071046999           41 
  477000   0.50591497   -9.0100517    48.784415 0.0085227839 0.0070797388           27 
  478000   0.49029432    -9.003017    48.821285 0.0085113815 0.0070549124           26 
  479000   0.50054046   -9.0027292    48.791749 0.0084884741 0.0070301368           33 
  480000   0.49846902   -9.0132434    48.830977 0.0084776002  0.007005544           37 
  481000   0.50645723   -8.9924246    48.688116 0.0084352245  0.006981039           46 
  482000   0.49232586   -9.0108436    48.710877 0.0084216592 0.0069566495           43 
  483000   0.48846098   -9.0271062    48.762174 0.0084130734 0.0069323459           45 
  484000   0.50087736   -9.0157475    48.701122 0.0083851794 0.0069081544           55 
  485000   0.48681505   -9.0338224    48.704625 0.0083684923  0.006884081           57 
  486000   0.48866115   -9.0343925    48.718119  0.008353587 0.0068601083           33 
  487000   0.48599073   -9.0459268    48.686653 0.0083310495 0.0068361908           35 
  488000   0.47781017   -9.0322192    48.769862 0.0083281867 0.0068124243           29 
  489000   0.48687656   -9.0500935    48.636732 0.0082884682 0.0067887808           29 
  490000   0.48305371   -9.0503188    48.649659 0.0082737515 0.0067651986           43 
  491000   0.47373199   -9.0520845    48.726834  0.008269999 0.0067417569           43 
  492000   0.49287704   -9.0334009     48.76583  0.008259795 0.0067184752           35 
  493000   0.48489499   -9.0517993    48.742918  0.008239168 0.0066952525           31 
  494000   0.47009943   -9.0502954    48.618502 0.0082015017 0.0066721085           31 
  495000   0.47962245   -9.0379045    48.685814  0.008196265 0.0066490794           49 
  496000   0.47079175   -9.0531187    48.734636 0.0081879428 0.0066261591           36 
  497000   0.46677047   -9.0623088    48.634701 0.0081547117 0.0066033239           46 
  498000   0.48307088     -9.06173    48.672213  0.008144614 0.0065806026           42 
  499000   0.47532149   -9.0569996    48.638383 0.0081226425 0.0065579983           49 
  500000   0.47310757    -9.044827    48.702316 0.0081170527 0.0065354464           28 
  501000    0.4664773   -9.0633983    48.644341 0.0080912078 0.0065130443           31 
  502000   0.46942309   -9.0801418    48.633828 0.0080733446 0.0064907557           50 
  503000   0.45871658   -9.0516483    48.635437 0.0080575609 0.0064685531           39 
  504000   0.46133172   -9.0731397    48.614486 0.0080381094 0.0064464525           47 
  505000   0.45855099   -9.0808703    48.637904 0.0080260567 0.0064244171           49 
  506000    0.4533133   -9.0744757    48.667904 0.0080151357 0.0064024776           40 
  507000   0.45858814   -9.0797389    48.564121 0.0079822683 0.0063806432           43 
  508000   0.45395765     -9.08882    48.527571 0.0079605595  0.006358886           50 
  509000   0.44991925   -9.0854494    48.562599 0.0079506546 0.0063372014           40 
  510000   0.43971048   -9.0919388    48.616366 0.0079438506  0.006315706           66 
  511000   0.45076783   -9.0942661    48.577338 0.0079219403 0.0062942781           51 
  512000   0.44789869    -9.093315    48.575718 0.0079062041 0.0062729089           43 
Loop time of 1288.37 on 48 procs for 500000 steps with 4000 atoms

Performance: 67061.233 tau/day, 388.086 timesteps/s
99.4% CPU use with 48 MPI tasks x no OpenMP threads

MPI task timing breakdown:
Section |  min time  |  avg time  |  max time  |%varavg| %total
---------------------------------------------------------------
Pair    | 88.907     | 93.471     | 99.164     |  25.3 |  7.25
Neigh   | 8.5946     | 8.9025     | 9.2131     |   5.0 |  0.69
Comm    | 79.125     | 87.011     | 93.498     |  35.2 |  6.75
Output  | 1.1454     | 1.1465     | 1.1827     |   0.5 |  0.09
Modify  | 1079.7     | 1085.2     | 1090.2     |   8.3 | 84.23
Other   |            | 12.63      |            |       |  0.98

Nlocal:        83.3333 ave          89 max          78 min
Histogram: 3 7 8 1 6 5 6 4 3 5
Nghost:        2296.23 ave        2325 max        2271 min
Histogram: 5 1 7 8 5 5 5 9 0 3
Neighs:        15617.1 ave       17136 max       14042 min
Histogram: 2 4 3 3 11 8 6 7 1 3
FullNghs:      31234.2 ave       33202 max       29091 min
Histogram: 1 5 9 3 7 3 6 4 5 5

Total # of neighbors = 1499243
Ave neighs/atom = 374.81075
Neighbor list builds = 26614
Dangerous builds = 0

#clear
#
#next RN
#
#jump SELF
Total wall time: 0:21:32
