
units lj                  # Use reduced LJ style units
atom_style atomic         # Uncharged point particles
atom_modify map hash      # Needed for indexing of clusters etc
                          # Used to be able to find where atoms are in relation to each other.

lattice fcc 1.0 spacing 1 1 1
Lattice spacing in x,y,z = 1.5874011 1.5874011 1.5874011
region box block 0 10 0 10 0 10 units lattice
create_box 2 box
Created orthogonal box = (0.0000000 0.0000000 0.0000000) to (15.874011 15.874011 15.874011)
  3 by 4 by 4 MPI processor grid
create_atoms 1 box
Created 4000 atoms
  using lattice units in orthogonal box = (0.0000000 0.0000000 0.0000000) to (15.874011 15.874011 15.874011)
  create_atoms CPU = 0.016 seconds
set type 1 type/fraction 2 0.49 78393
Setting atom values ...
  1962 settings made for type/fraction
mass 1 1.0
mass 2 1.0
pair_style lj/cut  3.5
pair_modify tail  yes
pair_coeff 1  1  1.0  1.0   # Intearaction between 1 and 1 set with epsilon = 1 and sigma = 1
pair_coeff 1  2  1.5  0.8
pair_coeff 2  2  0.5  0.88

write_data data.0
System init for write_data ...
Neighbor list info ...
  update every 1 steps, delay 10 steps, check yes
  max neighbors/atom: 2000, page size: 100000
  master list distance cutoff = 3.8
  ghost atom cutoff = 3.8
  binsize = 1.9, bins = 9 9 9
  1 neighbor lists, perpetual/occasional/extra = 1 0 0
  (1) pair lj/cut, perpetual
      attributes: half, newton on
      pair build: half/bin/atomonly/newton
      stencil: half/bin/3d
      bin: standard
WARNING: Not all mixed pair coeffs generated from mixing. Use write_data with 'pair ij' option to store all pair coeffs. (../write_data.cpp:312)


#############################
#   M E L T   S Y S T E M   #
#############################

velocity all create 2.4 6229865 mom yes dist gaussian # Assign velocities
                                                    # Temperature 2.4, random number seed, zero linear momentum
                                                                                # Gaussian distribution

timestep 0.002   # simulation timestep
thermo 1000       # output thermodynamic data every 1000 steps bf 100

# Define a fix  in this case with index 1 applied to all
# particles in the simulation. This fix is for simulations
# in the anisotropic NPT ensemble. Note that we use the MTK
# correction.
fix 1 all npt temp 2.4 2.4 0.1 iso 5.68 5.68 0.5 mtk yes tchain 5 pchain 5 # Use NPT ensemble
                                                                         # Set temperature and pressure and damping
                                                                         # Numbers of thermostats in chain and in barostat
run 10000          # run for 10000 steps
Per MPI rank memory allocation (min/avg/max) = 3.642 | 3.644 | 3.648 Mbytes
Step Temp E_pair E_mol TotEng Press Volume 
       0          2.4   -5.3537253            0   -1.7546253   -4.2069924         4000 
    1000    2.3762938   -4.8514698            0   -1.2879201     5.985552    3723.8203 
    2000    2.4614923   -4.8966423            0    -1.205327    5.8012116    3721.9379 
    3000    2.3802669   -4.9621067            0    -1.392599    5.9505774    3676.0924 
    4000    2.3992689   -4.9619114            0   -1.3639079    6.1472487    3663.4243 
    5000    2.3734883   -4.9794443            0   -1.4201019    5.2294098     3718.009 
    6000    2.4710024   -4.8665834            0   -1.1610064    5.8073107    3728.4567 
    7000     2.399958   -4.8623407            0   -1.2633038    5.7935312    3734.5103 
    8000    2.3877914   -4.9528017            0     -1.37201    5.7765234     3690.011 
    9000    2.4271043   -4.9780522            0   -1.3383059    5.6406779    3697.6232 
   10000    2.4608664    -4.948867            0   -1.2584903    5.3490484    3738.1326 
Loop time of 2.64832 on 48 procs for 10000 steps with 4000 atoms

Performance: 652488.532 tau/day, 3775.975 timesteps/s
99.6% CPU use with 48 MPI tasks x no OpenMP threads

MPI task timing breakdown:
Section |  min time  |  avg time  |  max time  |%varavg| %total
---------------------------------------------------------------
Pair    | 1.1597     | 1.2423     | 1.4306     |   3.9 | 46.91
Neigh   | 0.21278    | 0.22094    | 0.25026    |   1.3 |  8.34
Comm    | 0.72203    | 0.90557    | 1.0125     |   6.2 | 34.19
Output  | 0.00024693 | 0.0002513  | 0.00032175 |   0.0 |  0.01
Modify  | 0.20169    | 0.26355    | 0.33747    |   8.1 |  9.95
Other   |            | 0.0157     |            |       |  0.59

Nlocal:        83.3333 ave          93 max          77 min
Histogram: 7 7 4 7 7 5 4 3 2 2
Nghost:        1713.67 ave        1742 max        1688 min
Histogram: 3 3 5 6 7 12 6 3 1 2
Neighs:        10210.0 ave       11781 max        8869 min
Histogram: 1 3 9 6 9 6 8 4 1 1

Total # of neighbors = 490079
Ave neighs/atom = 122.51975
Neighbor list builds = 902
Dangerous builds = 179

# Equilibrate just above the melting temperature to avoid step fn in T

fix 1 all npt temp 1.25 1.25 0.1 iso 5.68 5.68 0.5 mtk yes tchain 5 pchain 5
run 2000
Per MPI rank memory allocation (min/avg/max) = 3.644 | 3.646 | 3.649 Mbytes
Step Temp E_pair E_mol TotEng Press Volume 
   10000    2.4608664    -4.948867            0   -1.2584903    5.3490484    3738.1326 
   11000    1.2555921   -7.0379443            0    -5.155027    5.8539745    2885.8717 
   12000    1.2551074   -7.1222634            0    -5.240073    5.8422948    2865.3136 
Loop time of 0.640898 on 48 procs for 2000 steps with 4000 atoms

Performance: 539243.494 tau/day, 3120.622 timesteps/s
99.6% CPU use with 48 MPI tasks x no OpenMP threads

MPI task timing breakdown:
Section |  min time  |  avg time  |  max time  |%varavg| %total
---------------------------------------------------------------
Pair    | 0.28459    | 0.31326    | 0.34613    |   2.2 | 48.88
Neigh   | 0.040919   | 0.043544   | 0.049093   |   0.8 |  6.79
Comm    | 0.19798    | 0.23386    | 0.26944    |   3.0 | 36.49
Output  | 5.3046e-05 | 5.4546e-05 | 7.032e-05  |   0.0 |  0.01
Modify  | 0.040015   | 0.045338   | 0.050584   |   1.3 |  7.07
Other   |            | 0.004841   |            |       |  0.76

Nlocal:        83.3333 ave          91 max          76 min
Histogram: 2 2 4 2 14 8 12 1 1 2
Nghost:        2060.62 ave        2077 max        2035 min
Histogram: 3 0 2 3 5 9 10 3 7 6
Neighs:        13344.0 ave       15278 max       11400 min
Histogram: 1 0 4 8 10 13 8 1 2 1

Total # of neighbors = 640510
Ave neighs/atom = 160.12750
Neighbor list builds = 145
Dangerous builds = 17

#############################
# L I N E A R  Q U E N C H  #
#############################

# Define solid atoms. This closely follows ten Wolde  Ruiz-Montero and Frenkel  Faraday Discuss  1996  104  93-110
# Compute components of the per-atom q6 vector
compute q6 all orientorder/atom degrees 1 6 components 6 nnn NULL cutoff 1.3 # compute the Q6 parameter.
                                                                             # Use all neighbours within 1.3 unit cell.

# get number of connections
compute coord_number all coord/atom orientorder q6 0.5

# An atom is solid if it has 8 or more connections (of a possible 14)
variable is_solid atom c_coord_number>=8
group solid dynamic all var is_solid    # Must be dynamic to update
dynamic group solid defined

# do clustering
compute cluster solid cluster/atom 1.3 # Create a cluster where all atoms within are solid and max 1.3 units from another member

# define chunks one chunk per cluster
compute clus_chunks solid chunk/atom c_cluster nchunk every compress yes  # Says which atoms are in which chunk

# count the size of each chunk
compute size_chunks solid property/chunk clus_chunks count


# Find the maximum entry in the vector of chunk sizes
variable max_n equal max(c_size_chunks)


# Thermo style which includes this variable
# thermo_style custom step temp pe vol v_max_n

thermo ${N}  # Print the thermo information every 100 steps
thermo 1000  

# Reset the npt fix at a lower temperature (below freezing)
fix 1  all npt temp  ${temp} ${temp}  0.1  iso  5.68  5.68  0.5  mtk yes tchain  5  pchain  5
fix 1  all npt temp  0.45 ${temp}  0.1  iso  5.68  5.68  0.5  mtk yes tchain  5  pchain  5
fix 1  all npt temp  0.45 0.45  0.1  iso  5.68  5.68  0.5  mtk yes tchain  5  pchain  5

dump dmp2 all dcd ${N} traj.dcd
dump dmp2 all dcd 1000 traj.dcd


compute msd all msd com yes
variable twopoint equal c_msd[4]/6/(step*dt+1.0e-6)
fix 9 all vector 10 c_msd[4]
variable fit equal slope(f_9)/6/(10*dt)
thermo_style custom step temp pe c_msd[4] v_twopoint v_fit v_max_n

fix 1 all npt temp 1.25 ${temp} 0.1 iso 5.68 5.68 0.5 mtk yes tchain 5 pchain 5
fix 1 all npt temp 1.25 0.45 0.1 iso 5.68 5.68 0.5 mtk yes tchain 5 pchain 5
run 500000 # 5000000  # Run for this many steps
Neighbor list info ...
  update every 1 steps, delay 10 steps, check yes
  max neighbors/atom: 2000, page size: 100000
  master list distance cutoff = 3.8
  ghost atom cutoff = 3.8
  binsize = 1.9, bins = 8 8 8
  4 neighbor lists, perpetual/occasional/extra = 1 3 0
  (1) pair lj/cut, perpetual
      attributes: half, newton on
      pair build: half/bin/atomonly/newton
      stencil: half/bin/3d
      bin: standard
  (2) compute orientorder/atom, occasional
      attributes: full, newton on
      pair build: full/bin/atomonly
      stencil: full/bin/3d
      bin: standard
  (3) compute coord/atom, occasional
      attributes: full, newton on
      pair build: full/bin/atomonly
      stencil: full/bin/3d
      bin: standard
  (4) compute cluster/atom, occasional
      attributes: full, newton on
      pair build: full/bin/atomonly
      stencil: full/bin/3d
      bin: standard
Per MPI rank memory allocation (min/avg/max) = 9.838 | 9.842 | 9.847 Mbytes
Step Temp PotEng c_msd[4] v_twopoint v_fit v_max_n 
   12000    1.2551074   -7.1222634 1.9721523e-34 1.3695501e-36 8.3333333e+20            1 
   13000    1.2392728   -7.0799597   0.44968708 0.0028826094  0.036265144            4 
   14000    1.2725607    -7.107053   0.86896095 0.0051723864  0.035551411            2 
   15000    1.2338809   -7.1638515    1.2515715 0.0069531749  0.034280026            2 
   16000    1.2374736   -7.1062184    1.6579826  0.008635326    0.0338265            2 
   17000    1.2488113   -7.1715913    2.0267564   0.00993508   0.03338057            1 
   18000    1.2257254   -7.1064498    2.4519465  0.011351604  0.033231109            2 
   19000    1.2359184   -7.1400846    2.8354379  0.012436131  0.033201212            2 
   20000    1.2315132   -7.1705694    3.2392677  0.013496948  0.033363723            2 
   21000    1.2213523   -7.1799689    3.6120708  0.014333614  0.033280815            1 
   22000    1.2140013   -7.1810968    3.9720192  0.015045527  0.033071511            2 
   23000    1.2509861   -7.1673681     4.360418  0.015798615  0.032892139            2 
   24000    1.2190927   -7.1432303    4.7625677  0.016536693  0.032848484            3 
   25000    1.2495605    -7.190919    5.1192995  0.017064331  0.032727048            1 
   26000    1.2555695   -7.1784254    5.5007434  0.017630587  0.032630942            3 
   27000    1.2138738   -7.2144373    5.9447964  0.018348137  0.032611149            1 
   28000    1.2314704   -7.1653469    6.3785367   0.01898374  0.032634838            3 
   29000    1.1749707   -7.2171169    6.7299545  0.019338949  0.032664912            2 
   30000    1.2014955   -7.2120158    7.0267507  0.019518752   0.03257625            3 
   31000    1.2085861   -7.1892791    7.3718717  0.019816859  0.032439592            4 
   32000    1.2345787   -7.1963237    7.8062811  0.020328857  0.032314628            2 
   33000    1.2121672   -7.1617244    8.2611955  0.020861605  0.032267938            1 
   34000    1.1955101   -7.1966637    8.6175353   0.02112141  0.032245541            2 
   35000    1.1863415   -7.1665669    8.9431544  0.021293224  0.032179758            1 
   36000    1.2092597   -7.2165224    9.2668639  0.021451074  0.032110907            2 
   37000    1.2393507     -7.20554    9.6957187  0.021837204  0.032049468            2 
   38000    1.2283234   -7.1929833    9.9445634  0.021808253  0.031976047            1 
   39000    1.2299644   -7.2418569    10.335832   0.02208511  0.031874302            1 
   40000    1.1965082   -7.2622256    10.656694  0.022201445  0.031769401            1 
   41000    1.2220839   -7.2426347    10.900551   0.02215559  0.031614408            1 
   42000    1.1745257   -7.2355108    11.060332  0.021945103  0.031412474            2 
   43000    1.1950353   -7.2477243    11.497165  0.022281328  0.031217198            2 
   44000    1.1953233   -7.3431712    11.900644  0.022539099  0.031069913            2 
   45000    1.2179882    -7.277407    12.209366  0.022609936  0.030930699            2 
   46000    1.2227487   -7.2454376    12.649005  0.022914865  0.030826725            2 
   47000     1.187692   -7.2651185    12.877296  0.022832084  0.030719716            3 
   48000    1.2114242   -7.2900641    13.268812  0.023036132  0.030602355            4 
   49000    1.2029288   -7.2889721     13.74406  0.023374252  0.030522678            1 
   50000    1.1924542   -7.2348031     14.20494  0.023674899  0.030494078            2 
   51000    1.2040646   -7.2634341    14.526838  0.023736663  0.030476973            4 
   52000    1.1806326   -7.2183321    14.822562  0.023754105   0.03045158            3 
   53000    1.1803373   -7.2963894    15.056673  0.023674014  0.030400917            1 
   54000    1.1942074   -7.2689285    15.467383  0.023869418  0.030335654            2 
   55000    1.1551648   -7.2579956     15.87517  0.024053287  0.030298585            3 
   56000    1.1744677   -7.2861612     16.22863  0.024149748   0.03027705            1 
   57000    1.2069912   -7.2667597    16.675846  0.024379891   0.03024586            1 
   58000     1.173812   -7.2868093    16.955153  0.024360852  0.030235866            2 
   59000    1.1645428   -7.3331665    17.188449   0.02427747  0.030205013            1 
   60000    1.2044856   -7.3215768    17.469166  0.024262731  0.030159811            3 
   61000    1.1443365   -7.2951323    17.829728  0.024357552  0.030106604            3 
   62000    1.1522743   -7.3233655    18.105628  0.024335521  0.030044295            1 
   63000    1.1778475   -7.3329504    18.456402   0.02441323  0.029973624            2 
   64000    1.1607559   -7.3367978    18.846238  0.024539373  0.029912754            1 
   65000    1.1957831   -7.3488586    19.185695  0.024597045  0.029872871            1 
   66000    1.1509627   -7.3144426    19.470453  0.024583906  0.029836731            1 
   67000    1.1856642   -7.3391362    19.810424  0.024639831  0.029784568            3 
   68000    1.1678863   -7.3123617    20.204307   0.02476018  0.029737278            4 
   69000     1.181507   -7.3469231    20.427153  0.024670474   0.02968591            4 
   70000    1.1420574   -7.3613758    20.625988  0.024554747  0.029622725            3 
   71000    1.1668103   -7.3566899     20.83036  0.024448779  0.029546432            1 
   72000    1.1592256   -7.3201148    21.260949  0.024607579  0.029461693            6 
   73000    1.1707535   -7.4019007    21.502945  0.024546741  0.029387728            4 
   74000    1.1450631   -7.3732084    21.866319  0.024624233  0.029316462            2 
   75000    1.1511284   -7.4108404    22.116173  0.024573525  0.029249104            1 
   76000    1.1785794   -7.3778771    22.373253  0.024532076  0.029174977            1 
   77000    1.1483029    -7.386496    22.630406  0.024491781  0.029094541            3 
   78000    1.1579047     -7.38381    22.872773  0.024436724  0.029011876            2 
   79000    1.1688623   -7.3627852    23.227282  0.024501353  0.028931233            3 
   80000    1.1419117   -7.4075216    23.474771  0.024452886  0.028857489            2 
   81000    1.1876762   -7.3875961    23.822336  0.024508576  0.028783021            1 
   82000    1.1466996    -7.415493    24.008581  0.024398965  0.028702692            3 
   83000    1.1329726   -7.4183414     24.21233  0.024309569  0.028616936            3 
   84000    1.1143772    -7.368287    24.583697  0.024388588  0.028537106            2 
   85000    1.0932245   -7.4033554    24.772842    0.0242871  0.028452456            3 
   86000    1.1267871   -7.4721977     24.87977  0.024108304  0.028359364            3 
   87000    1.1350111    -7.453433    25.209172  0.024146717  0.028266105            1 
   88000    1.1360852   -7.4523975    25.404521  0.024057311  0.028171628            5 
   89000    1.1327891   -7.4091377    25.655807  0.024022291  0.028068156            2 
   90000    1.1285815   -7.4149353    25.820286  0.023907672  0.027967422            1 
   91000    1.1176173   -7.4683335    26.057318  0.023862012  0.027863398            6 
   92000    1.0992836   -7.4509631    26.212594  0.023743291   0.02775539            2 
   93000    1.1223859   -7.4259675    26.568628  0.023807014  0.027651388            2 
   94000    1.1203128   -7.4680826    26.839963  0.023794293  0.027550345            3 
   95000    1.1149592   -7.4611468     27.08343  0.023757395  0.027449237            5 
   96000     1.134026   -7.4514981    27.442199  0.023821354  0.027355302            4 
   97000    1.1321517   -7.4747023    27.763774   0.02385204  0.027265175            2 
   98000    1.1010937   -7.4670188    27.795735  0.023635829  0.027174724            5 
   99000    1.1030403   -7.4178416    28.241146  0.023772008  0.027080662            3 
  100000    1.0931191    -7.473839    28.218025  0.023515021  0.026988243            1 
  101000     1.111235   -7.4826253    28.369417   0.02340711  0.026889998            4 
  102000    1.0971873   -7.4729023    28.843316    0.0235648   0.02679502            3 
  103000    1.0977108   -7.4621671    29.110149  0.023551901  0.026707096            2 
  104000    1.1020097   -7.5018692    29.327361  0.023499488  0.026622177            2 
  105000    1.1054627   -7.4691066    29.590157  0.023484251  0.026537487            2 
  106000    1.1024904   -7.4964037    29.886352   0.02349556  0.026459021            3 
  107000    1.0978726   -7.4291489    30.246548  0.023556502  0.026382877            3 
  108000    1.0881073   -7.5300358    30.257884  0.023347133  0.026303134            2 
  109000    1.0913624   -7.5573332    30.578677  0.023378193  0.026219834            2 
  110000    1.0749494   -7.5547817    30.815572   0.02334513  0.026139508            1 
  111000    1.0966222   -7.5343826    31.072644   0.02332781  0.026065785            5 
  112000    1.0950775   -7.5433408    31.468023  0.023413708  0.025994788            2 
  113000    1.0966119   -7.5094545    31.569759  0.023281533  0.025919961            2 
  114000     1.095304   -7.5261899    31.812501  0.023254752  0.025845401            3 
  115000    1.0608687   -7.5589433    31.993783  0.023183901  0.025769704            4 
  116000    1.0577052   -7.5271123    32.271716  0.023183704  0.025695402            3 
  117000    1.0987818   -7.5305998     32.48421  0.023136902  0.025620119            5 
  118000    1.0718917   -7.5327548    32.710722  0.023100792  0.025545888            4 
  119000    1.1051865   -7.5544449    32.875855  0.023022308  0.025471701            1 
  120000    1.0762782   -7.5931162    33.133405  0.023009309   0.02539964            3 
  121000    1.0630389   -7.5721936    33.408948  0.023008917  0.025329318            1 
  122000    1.0550251   -7.5819955    33.435136  0.022838207  0.025254729            2 
  123000    1.0705639   -7.6101358    33.552198  0.022731842  0.025178462            2 
  124000    1.0649288   -7.5845727    34.032322  0.022871184  0.025105419            2 
  125000    1.0672878    -7.581075    34.137131  0.022758087  0.025034263            3 
  126000    1.0656598   -7.5363141    34.323745   0.02270089  0.024960057            1 
  127000    1.0751775   -7.6007382     34.20071  0.022441411  0.024881899            2 
  128000    1.0568734   -7.6092125    34.486384  0.022452073   0.02480167            2 
  129000    1.0308297   -7.6578607    34.633249    0.0223729  0.024723082            2 
  130000    1.0560344   -7.6503264     34.76202  0.022283346   0.02464013           10 
  131000    1.0571169   -7.6253083    35.029526  0.022283413  0.024559087            3 
  132000    1.0531835   -7.6598615    35.282611  0.022274376  0.024481627            6 
  133000     1.064207   -7.6126089    35.514613  0.022252264  0.024403183            3 
  134000    1.0427309   -7.6146392    35.525464   0.02209295  0.024323491            3 
  135000     1.059337   -7.6458035    35.741437  0.022062615  0.024241101            4 
  136000      1.05782    -7.633575    35.916955  0.022007938  0.024160382            1 
  137000    1.0788155   -7.6409339    36.256732  0.022053973  0.024082037            2 
  138000    1.0328702   -7.6249077    36.596426  0.022099291  0.024008897            2 
  139000    1.0447926   -7.6758649    36.500823  0.021882987  0.023932189            2 
  140000    1.0466199   -7.6778834    36.601975   0.02178689  0.023854998            3 
  141000    1.0252051   -7.6603266    36.926303  0.021824056  0.023777255            2 
  142000    1.0533713   -7.6668242    37.033907  0.021733513  0.023699352            2 
  143000    1.0576921   -7.6713654    37.044411  0.021587652  0.023619315            2 
  144000    1.0365214   -7.7232155    37.209925  0.021533521   0.02353952            2 
  145000    1.0252056   -7.7307835    37.446303  0.021520864  0.023460652            3 
  146000    1.0331598   -7.6568492    37.729588  0.021535153  0.023382073            3 
  147000    1.0491908   -7.6737877     37.77899  0.021416661  0.023303635            4 
  148000    1.0380347    -7.657069    37.908167  0.021344689   0.02322418            5 
  149000    1.0086769   -7.7245156    38.143729  0.021333182  0.023144888            1 
  150000    1.0449329   -7.6677475    38.270193  0.021261218  0.023066892            2 
  151000    1.0268995   -7.6985404    38.446993  0.021217987  0.022989677           10 
  152000     1.041395   -7.6782574    38.624368   0.02117564   0.02291355            4 
  153000    1.0308527   -7.7229582    38.770639  0.021116906  0.022836811            4 
  154000    1.0481725   -7.6514318     39.02946  0.021119838  0.022760678            3 
  155000    1.0114796   -7.6804231     39.02058  0.020978806  0.022684638            3 
  156000    1.0293574   -7.6849071    39.133283  0.020904532  0.022607673            2 
  157000   0.98970491   -7.6878662    39.320779  0.020870902  0.022530286            2 
  158000    1.0437444   -7.6699873    39.522618  0.020845262  0.022453815            4 
  159000    1.0020452   -7.7113047    39.603163  0.020756375  0.022378131            7 
  160000     1.018956   -7.7214849    39.728544   0.02069195  0.022301285            2 
  161000   0.98826059   -7.7550816     39.73264  0.020565548  0.022221603            4 
  162000   0.99719487    -7.767413    39.932715   0.02054152  0.022143158            5 
  163000    1.0139841   -7.7216334    40.329528  0.020618368  0.022068206            3 
  164000    0.9955271   -7.7265762    40.460306  0.020559098  0.021995493            4 
  165000    1.0045069   -7.7733163    40.629684  0.020520042  0.021923546            2 
  166000   0.99167497   -7.7526242    40.751496  0.020457578  0.021852407            2 
  167000    1.0021907   -7.8079404    40.751049  0.020334855  0.021780387            7 
  168000    1.0179616   -7.7597755    41.103208  0.020388496  0.021709557            3 
  169000   0.98758345   -7.7557806    41.171531  0.020301544  0.021638715            5 
  170000    1.0039939   -7.7625852     41.09829  0.020146221  0.021567329            2 
  171000   0.98565121   -7.7810501    41.372703  0.020162136  0.021496554            5 
  172000    1.0050009    -7.787248    41.404361  0.020060252  0.021424794            2 
  173000   0.97807819   -7.7952909    41.633964  0.020054896  0.021352397            2 
  174000   0.98619018   -7.7972367    41.725143  0.019983306  0.021281276            4 
  175000   0.98230668   -7.7866344    41.856533  0.019931682  0.021209073            2 
  176000    1.0024869   -7.7949565    41.981086  0.019877408   0.02113785            3 
  177000   0.95766653   -7.8216365    42.078371  0.019810909  0.021067197            2 
  178000   0.98960527   -7.8381231    42.181633  0.019747956  0.020996265           11 
  179000   0.96594289   -7.8080951    42.347944  0.019715058  0.020926209            2 
  180000    0.9520838   -7.8613022    42.380506  0.019620604  0.020855892            6 
  181000   0.98150359   -7.8520498    42.587096  0.019607319  0.020785608            2 
  182000   0.96711514   -7.8607341    42.572036  0.019492691  0.020714132            4 
  183000   0.97544841   -7.8170726    42.835637   0.01950621  0.020644276            4 
  184000   0.97929294   -7.8061331    43.063805  0.019503535  0.020574914            4 
  185000   0.98759186   -7.8318374    43.135591  0.019430446  0.020506198            2 
  186000   0.97344952   -7.8364454    43.182357  0.019346934  0.020435898            4 
  187000   0.96347016   -7.8527441    43.321142  0.019305322  0.020367587            2 
  188000   0.98774659   -7.8756606    43.563435  0.019310033   0.02029962            4 
  189000   0.95583387   -7.8570685    43.678724  0.019258697  0.020232948            4 
  190000   0.98472206   -7.8673925    43.820204  0.019219388  0.020168223            3 
  191000    0.9898468   -7.8887753    43.842369  0.019128433  0.020103242            3 
  192000   0.96987391   -7.8659444    43.959879  0.019079809  0.020038112            2 
  193000   0.96255032   -7.8692883    44.132994  0.019055697  0.019972333            3 
  194000   0.96575804   -7.8963797    44.012959   0.01890591  0.019905617            3 
  195000   0.99369936   -7.9045604    44.106406  0.018848891  0.019838373            4 
  196000    0.9516987   -7.8938832    44.297691  0.018834052  0.019770103           14 
  197000   0.95464464   -7.8998846       44.239  0.018713621   0.01970166            5 
  198000   0.95954243   -7.9079338    44.294511  0.018642471  0.019633603            7 
  199000   0.95993359   -7.9102251    44.388416  0.018588114  0.019565118            3 
  200000   0.94594449   -7.9085162    44.558646  0.018566103  0.019496328            7 
  201000   0.94647908   -7.9135147    44.471184  0.018437473  0.019427468            2 
  202000   0.95111821    -7.942209    44.521486   0.01836695  0.019357623            2 
  203000   0.91908161    -7.930889    44.603114  0.018309981  0.019287791            4 
  204000   0.93260129   -7.9101459    44.679448  0.018251409  0.019217642            4 
  205000   0.93596683   -7.9641382    44.673143  0.018159814  0.019147317            4 
  206000   0.95105665   -7.9523157    44.865293   0.01814939  0.019077054            6 
  207000   0.92317562   -7.9510748    44.975748  0.018106179  0.019007384            4 
  208000   0.90946882   -7.9414142    45.071956  0.018057675  0.018938465           23 
  209000   0.94939683   -8.0071584    45.116556  0.017989057  0.018870141            8 
  210000   0.95229683   -7.9899427    45.277007  0.017967066   0.01880144            5 
  211000   0.92608629   -7.9767157    45.197843  0.017850649  0.018733246            5 
  212000    0.9305712   -7.9380547    45.315744  0.017812792  0.018664403            5 
  213000   0.93372525   -7.9694736    45.320227  0.017730918  0.018595042            3 
  214000   0.92696469   -7.9728156    45.331567  0.017652479  0.018525644            6 
  215000   0.92639364   -7.9891912     45.51916  0.017643085  0.018456507            8 
  216000   0.93526083   -8.0157572    45.542183  0.017570287  0.018387526            5 
  217000   0.92608978   -8.0098005    45.589157  0.017507357  0.018319341            4 
  218000   0.90361164   -8.0155283    45.591932  0.017428109  0.018250724            3 
  219000   0.93263492   -8.0026675    45.481288  0.017306426  0.018181889            4 
  220000   0.89422242   -8.0289196    45.590308  0.017269056  0.018112674            3 
  221000   0.92334504   -8.0083871    45.667013  0.017219839  0.018043146            3 
  222000    0.8966458   -8.0388786    45.726296  0.017164525  0.017973533            5 
  223000    0.9250632   -7.9805874    45.875478  0.017143303  0.017904179           11 
  224000   0.91537562   -8.0160166    45.701462  0.017002032   0.01783426            6 
  225000   0.92524825   -8.0071536    45.829464  0.016973876  0.017764619            7 
  226000   0.92158968   -8.0655102     45.80744  0.016890649   0.01769506            2 
  227000   0.90961723   -8.0155413    46.038983  0.016901242  0.017626061            6 
  228000    0.9172156   -8.0651136    46.151049  0.016868073  0.017558719            4 
  229000   0.90444851   -8.0438399     46.37057  0.016874298  0.017491753            4 
  230000   0.90289272   -8.1205128    46.201256  0.016739585  0.017424851            4 
  231000    0.9022696   -8.0727749    46.250896  0.016685027  0.017357752            9 
  232000   0.90366837   -8.0992219    46.345763  0.016647185  0.017291047            5 
  233000   0.87374456   -8.0917455    46.309303  0.016562698  0.017223743            7 
  234000   0.88760514   -8.0782605    46.368757   0.01651309  0.017156187           12 
  235000   0.88549856   -8.0960817    46.385551  0.016448777   0.01708849            3 
  236000   0.90442207   -8.0914138    46.482407  0.016413279  0.017021635            5 
  237000   0.88351411   -8.0943735    46.623815  0.016393746  0.016956449            2 
  238000   0.88126863     -8.07556    46.686336  0.016346756  0.016891829            7 
  239000    0.8998629   -8.0937367    46.812349  0.016322297  0.016827661            4 
  240000   0.87636265   -8.0907499    46.776286  0.016241766  0.016763428            5 
  241000   0.88067655   -8.1080186    46.873797   0.01620809  0.016699381            7 
  242000   0.87815227   -8.1245531    47.038583  0.016197859  0.016636127           14 
  243000   0.85232302   -8.0993587    47.094445  0.016150358   0.01657333            6 
  244000   0.88113736    -8.095767     47.24558  0.016135785  0.016511593            7 
  245000   0.87394553   -8.1263014    47.182875  0.016048597  0.016449458            8 
  246000   0.85133182   -8.1671208    47.120416    0.0159622   0.01638727            4 
  247000   0.87796924   -8.1146084    47.325402  0.015966735  0.016325435            4 
  248000   0.83190342   -8.1433927     47.30865  0.015896724  0.016264306            8 
  249000    0.8719793   -8.1116411    47.439017  0.015876512  0.016203155            9 
  250000    0.8702714   -8.1398553    47.305335  0.015768445   0.01614259            5 
  251000    0.8686247   -8.1473335    47.527714  0.015779453  0.016081294            5 
  252000   0.87126468   -8.1765443    47.318711  0.015647722  0.016019951            6 
  253000   0.85825979   -8.1563245    47.331739  0.015590164  0.015958455            5 
  254000   0.84873591   -8.1676577    47.371398  0.015541797  0.015896621            4 
  255000   0.85050789   -8.1684455    47.548925  0.015538864  0.015835517            3 
  256000   0.87557782     -8.15122    47.605561  0.015496602  0.015775481            4 
  257000   0.88190056   -8.1863574    47.651653  0.015451249  0.015715205            5 
  258000    0.8627873   -8.1502209    47.678931  0.015400171  0.015655777            2 
  259000   0.86100912   -8.2048058    47.734539  0.015358603  0.015596799            3 
  260000   0.86072366   -8.1970001    47.850823  0.015336802  0.015538075            2 
  261000     0.865983    -8.182549    47.982366   0.01532004  0.015480162            6 
  262000   0.84014463   -8.1961202    48.073967  0.015290702  0.015422836            2 
  263000   0.82846362   -8.1933816    47.919649  0.015183666  0.015365923            4 
  264000   0.83254608   -8.2204722    47.979192  0.015144947  0.015309199            4 
  265000   0.84220506   -8.2167591    48.068953  0.015116023  0.015252199           16 
  266000   0.84567037   -8.2165056    48.184222  0.015095308  0.015195437            5 
  267000   0.83521883   -8.1801737    48.283039  0.015069613  0.015139443           12 
  268000   0.82869699   -8.2327486    48.288732  0.015015153  0.015083864            5 
  269000   0.83401007   -8.2375876    48.332527  0.014972902  0.015027774            3 
  270000   0.84113023   -8.2012949     48.36462  0.014927352  0.014972314            4 
  271000   0.84294379   -8.2361182    48.451576  0.014899008  0.014917585            6 
  272000   0.84395795   -8.2079346    48.662182  0.014908757  0.014863148            6 
  273000   0.83361822   -8.1956525    48.689832  0.014862586  0.014809754            7 
  274000   0.84942097   -8.2291476    48.640843  0.014793444  0.014756577            8 
  275000   0.80995143   -8.2274783    48.834691  0.014798391  0.014703672            5 
  276000   0.83744014   -8.2888864    48.748799   0.01471884  0.014650745           11 
  277000   0.82518641   -8.2384567    48.824702  0.014688538  0.014598061           10 
  278000   0.85116324   -8.2723701    48.761004  0.014616608  0.014545452            5 
  279000   0.82914847   -8.2308737    48.715541  0.014550639  0.014492394            6 
  280000   0.82171943   -8.2603034     48.69664  0.014493048  0.014439211            3 
  281000   0.81265701   -8.2965269    48.758472  0.014459808  0.014386413            6 
  282000   0.82100073   -8.2606194    48.752683  0.014406821  0.014333826            6 
  283000   0.82140607   -8.3030559    48.672819  0.014332397  0.014280902            3 
  284000    0.8177151   -8.2926797    48.812797  0.014323004   0.01422807            8 
  285000   0.81771279    -8.293863    48.932849  0.014307851  0.014175316            6 
  286000    0.7880768   -8.3066071    48.801469  0.014219542  0.014122502            5 
  287000   0.80926812   -8.3129239    48.992231  0.014225387  0.014070251            4 
  288000   0.80909636   -8.3138483    48.897494   0.01414858  0.014018357            4 
  289000   0.82116043   -8.3137003    48.918896  0.014105795   0.01396666            5 
  290000   0.79817937    -8.339593    48.950444   0.01406622  0.013915249            7 
  291000   0.79100822   -8.3250316    49.095942  0.014059548  0.013863887            8 
  292000   0.78219822   -8.3506059    49.139399  0.014023801   0.01381292           18 
  293000   0.80254385   -8.3476013    49.159379  0.013981621  0.013762518            7 
  294000   0.80031531   -8.3284753    49.115663  0.013921673  0.013712382            8 
  295000   0.80461813   -8.3612724     49.19911  0.013898054  0.013662291            9 
  296000   0.78256343   -8.4019868    49.194692  0.013849857  0.013612266           11 
  297000   0.79417496   -8.3634499    49.190779  0.013802126  0.013562002           19 
  298000   0.78711902   -8.3989837    49.076371  0.013723817  0.013511805            7 
  299000   0.79713907   -8.3547947    49.249821   0.01372626  0.013462376           18 
  300000    0.7936643   -8.3550974    49.242067  0.013678352  0.013413009            7 
  301000   0.78373293   -8.3829878    49.400124  0.013676668  0.013364182           15 
  302000   0.78835464   -8.3384863    49.431186  0.013639952  0.013315655           32 
  303000   0.80227815   -8.3934162    49.360121  0.013575391   0.01326726            9 
  304000   0.78909155   -8.3774241    49.452139  0.013555959  0.013218787           32 
  305000   0.75616167   -8.3921303    49.433053  0.013506298   0.01317045           10 
  306000   0.78051481   -8.3728486    49.348606  0.013439163  0.013122206            7 
  307000   0.78202325   -8.3811085    49.438882  0.013419892  0.013074233            3 
  308000   0.78942069   -8.3974712    49.322807  0.013344915   0.01302604            5 
  309000   0.76254086   -8.3936593    49.393705  0.013320848  0.012977824           10 
  310000   0.75195219   -8.4216869    49.341315  0.013263794   0.01292955           12 
  311000   0.77417034   -8.4353606    49.226602  0.013190408  0.012881642            6 
  312000   0.77405409   -8.4372613    49.483214   0.01321667  0.012833756            6 
  313000   0.77284442   -8.4280881    49.423788  0.013158623  0.012786021            9 
  314000   0.76085494   -8.4331095    49.262972  0.013074037  0.012738237            4 
  315000    0.7529969   -8.4463475    49.354688  0.013056796  0.012690759            9 
  316000   0.76430826   -8.4459441    49.443285  0.013038841  0.012643754            9 
  317000   0.76141664    -8.443938    49.315201  0.012964038  0.012596551            5 
  318000   0.77295738   -8.4562304    49.346104  0.012931369   0.01254974            4 
  319000   0.76432505   -8.4824521    49.441134  0.012915657  0.012502913            5 
  320000   0.75189037   -8.4819165    49.354693  0.012852785   0.01245649           13 
  321000    0.7550004   -8.4988791    49.372811  0.012817448  0.012409879           13 
  322000     0.765061   -8.4775605    49.359042  0.012774079  0.012363453            6 
  323000    0.7601264   -8.4799036    49.394818  0.012743761  0.012316919            5 
  324000   0.74228015   -8.4933111    49.367361  0.012697367  0.012270634            6 
  325000   0.73953547   -8.4840314    49.448332  0.012679059  0.012224775            6 
  326000   0.72600855   -8.4833406    49.388266  0.012624812  0.012179137            4 
  327000    0.7335081   -8.4698434    49.470774  0.012607231  0.012133859            5 
  328000   0.73804692   -8.4918178     49.55929  0.012591283  0.012088618            7 
  329000   0.74472625   -8.4824734    49.544515  0.012549269  0.012043516            8 
  330000    0.7670114   -8.4842217    49.587984  0.012522218  0.011998847            5 
  331000   0.74385686   -8.5231309    49.498903  0.012461959  0.011954323            6 
  332000   0.73348173   -8.5187864    49.434866   0.01240835  0.011909506           12 
  333000    0.7286537   -8.5180444    49.422703  0.012368044  0.011865026            9 
  334000   0.74025808   -8.5530943    49.509566  0.012352686  0.011820589            4 
  335000    0.7365409   -8.5308538    49.423133  0.012294312  0.011776126            5 
  336000   0.71144315   -8.5136549    49.504757  0.012277965  0.011732015           17 
  337000   0.73260538   -8.5312348     49.39179  0.012213598  0.011688028           22 
  338000   0.71628484   -8.5429911    49.508899  0.012206336  0.011644318           15 
  339000   0.73010752   -8.5423058    49.437461  0.012152768  0.011600786           17 
  340000   0.71825348   -8.5723305    49.423682  0.012113648  0.011557309            9 
  341000   0.70729153   -8.5537604    49.400266  0.012072401  0.011513857           21 
  342000   0.72415856   -8.5669806    49.523799  0.012067202  0.011470676            5 
  343000   0.72453725   -8.5517453    49.596917  0.012049785  0.011427864           11 
  344000   0.71288438   -8.5567948    49.449988  0.011979164  0.011385083           11 
  345000   0.71772079    -8.537534    49.485209  0.011952949  0.011342496            7 
  346000   0.70952733   -8.5668946    49.496163  0.011921041  0.011299922            8 
  347000   0.73769232   -8.5766135    49.539489  0.011897091  0.011257527           10 
  348000   0.70522791   -8.6096942    49.448166  0.011841036   0.01121539            5 
  349000   0.71764214   -8.5970262    49.430507  0.011802891  0.011173266            8 
  350000   0.69988957    -8.581573    49.630573  0.011816803  0.011131435           12 
  351000   0.70670232    -8.601278    49.483198  0.011748148  0.011089759            9 
  352000    0.7067674   -8.5824889    49.495595  0.011717707  0.011048073            8 
  353000   0.70587915   -8.6022352    49.537036  0.011694296  0.011006727           16 
  354000   0.70710194   -8.6213143    49.477851  0.011647328  0.010965395           12 
  355000   0.69327162   -8.6131593    49.458437  0.011609962  0.010924353            8 
  356000   0.69261676   -8.6160103    49.499525  0.011586967  0.010883521            9 
  357000    0.6959056   -8.6054116    49.646981  0.011588931  0.010842852           14 
  358000   0.69525283   -8.6206258    49.621641  0.011550661  0.010802487            8 
  359000   0.69081212   -8.6253112    49.492157   0.01148843  0.010762217            9 
  360000   0.69530513   -8.6042217    49.571785   0.01147495  0.010722118            6 
  361000   0.69013934   -8.6436174    49.622089  0.011454776  0.010682279           19 
  362000   0.67823913   -8.6281037    49.563219  0.011409581  0.010642335           15 
  363000   0.68809608   -8.6421929    49.532537  0.011371106  0.010602753           17 
  364000   0.69391322    -8.640205     49.50389  0.011333308   0.01056325           14 
  365000   0.68588019   -8.6516624    49.378752  0.011273688  0.010523703            9 
  366000   0.67859529   -8.6550766    49.476935   0.01126524  0.010484468           18 
  367000   0.67674353   -8.6592294    49.458811  0.011230429  0.010445405           15 
  368000   0.69079185   -8.6541474    49.591243  0.011229901  0.010406392            9 
  369000   0.67989553   -8.6612857    49.512718  0.011181734  0.010367598           14 
  370000   0.67142492   -8.6721488    49.509853  0.011150868  0.010328943           11 
  371000   0.68382029   -8.6909212    49.506615  0.011120084  0.010290309           10 
  372000   0.68117186   -8.6793515    49.457324   0.01107915  0.010251807           12 
  373000    0.6607876    -8.678105    49.463802  0.011050894  0.010213529           10 
  374000    0.6763046   -8.6890617    49.464563  0.011021516  0.010175361            5 
  375000      0.67395   -8.7026956    49.511901  0.011002645  0.010137366           10 
  376000   0.66922063    -8.693102    49.414305  0.010951752  0.010099497            6 
  377000   0.66919243   -8.6996657    49.493277  0.010940158  0.010061702           15 
  378000   0.66549712   -8.7045461    49.393224  0.010889159  0.010024122           13 
  379000   0.64570433   -8.6874857     49.56313  0.010897786 0.0099866105           11 
  380000   0.66242747   -8.7040981    49.493015  0.010853731 0.0099493677           32 
  381000   0.67085052   -8.7201462    49.332992  0.010790243 0.0099121817           26 
  382000   0.65322042   -8.7124874    49.307224  0.010756375 0.0098750955           26 
  383000   0.64898364    -8.713491     49.40409  0.010749367 0.0098381473           13 
  384000   0.65817386   -8.7414247    49.389256  0.010718155 0.0098014878           13 
  385000   0.65554034   -8.7163285     49.41978  0.010696922 0.0097648696           21 
  386000   0.63427741   -8.7354163    49.434446  0.010672376 0.0097284331           24 
  387000   0.65244408   -8.7460417    49.276204  0.010610724 0.0096920613           33 
  388000    0.6394114   -8.7420284    49.419963  0.010614253 0.0096559378           30 
  389000    0.6546426   -8.7381199    49.404802  0.010583719 0.0096198884           18 
  390000   0.65251316   -8.7746009    49.344889   0.01054378 0.0095840879           18 
  391000   0.63955686   -8.7627992     49.27458  0.010501829 0.0095484098           25 
  392000   0.63389348   -8.7562266     49.33452  0.010487781 0.0095128686           13 
  393000   0.63316566   -8.7548689    49.353028  0.010465019 0.0094774762           24 
  394000   0.63121535   -8.7717962    49.212278  0.010408688 0.0094421519           18 
  395000   0.63180985   -8.7396888    49.321463  0.010405372 0.0094069375           21 
  396000    0.6379861   -8.7622282    49.364334  0.010388117 0.0093719397           16 
  397000   0.62508629   -8.7434858    49.442152  0.010378285 0.0093371765           16 
  398000   0.63145255   -8.7697565    49.307381  0.010323991 0.0093026216           38 
  399000   0.63959597   -8.7829567    49.224442  0.010280794 0.0092680986           38 
  400000   0.62316881   -8.7667259    49.327845  0.010276634 0.0092337003           24 
  401000   0.62199411   -8.7686661    49.284477  0.010241994 0.0091993975           43 
  402000   0.63545652   -8.8051919    49.275528  0.010214662 0.0091653409           39 
  403000   0.63825977   -8.8138015    49.254969  0.010185064 0.0091313223           39 
  404000   0.61766354   -8.7835872    49.171465  0.010142629 0.0090975054           53 
  405000   0.64187473   -8.7867484    49.355547  0.010155462  0.009063783           27 
  406000   0.62311462   -8.7680802    49.333975  0.010126021 0.0090302775           31 
  407000   0.61677033   -8.8049552     49.35402  0.010105246 0.0089969472           23 
  408000   0.61943109   -8.7851238    49.270347  0.010063388 0.0089637542           35 
  409000   0.60829186   -8.8163008     49.23555  0.010031693 0.0089306551           36 
  410000   0.61528599   -8.8059451     49.26528  0.010013268 0.0088976518           43 
  411000   0.61148951   -8.8279274    49.294564 0.0099948427 0.0088648661           29 
  412000   0.60029516   -8.8129727    49.271357 0.0099658894 0.0088322535           14 
  413000   0.61197101   -8.7978525     49.38995 0.0099656881 0.0087996502           26 
  414000    0.6128196   -8.8150967    49.339795 0.0099315208 0.0087673261           33 
  415000   0.61164448    -8.814874    49.212695 0.0098820673 0.0087351092           46 
  416000   0.59833767   -8.8087743    49.273322 0.0098704571 0.0087030332           39 
  417000   0.60137499   -8.8448323    49.218849 0.0098359011 0.0086710653           36 
  418000   0.60136687   -8.8409963    49.198951 0.0098084033 0.0086392898           48 
  419000    0.6005744   -8.8438765    49.248073 0.0097947638 0.0086076121           27 
  420000   0.58990428   -8.8473383    49.209782 0.0097638455 0.0085760878           34 
  421000   0.59140485   -8.8541452    49.137987 0.0097264425 0.0085446661           12 
  422000   0.59521541   -8.8575148    49.215948 0.0097187891 0.0085134543           48 
  423000   0.60102129   -8.8419819    49.225097 0.0096976157 0.0084823312           22 
  424000     0.569994    -8.857511    49.164176 0.0096627704 0.0084513342           32 
  425000    0.5894481   -8.8602613     49.19886 0.0096468354 0.0084204089           57 
  426000   0.59230073   -8.8524333    49.129439   0.00961061 0.0083896173           31 
  427000   0.60040926   -8.8523685    49.145209 0.0095911805   0.00835897           67 
  428000   0.57485616   -8.8725546    49.106159  0.009561168 0.0083284518           36 
  429000   0.57729676    -8.886187    49.219715 0.0095609393 0.0082981676           49 
  430000   0.58355949   -8.8721624    49.155083 0.0095261788 0.0082679548           49 
  431000   0.57836038   -8.8746525    49.142439 0.0095016317 0.0082379493           47 
  432000   0.57127446   -8.8677081    49.143149 0.0094797742 0.0082080242           53 
  433000   0.57555651   -8.8972045      49.2678 0.0094818707  0.008178165           34 
  434000    0.5772764   -8.8684986    49.217849 0.0094504318 0.0081485144           17 
  435000   0.56803338   -8.8768904    49.109307 0.0094079133 0.0081189274           73 
  436000   0.57272838   -8.9010289    49.222381 0.0094079474 0.0080895095           82 
  437000   0.57081831   -8.8856542    49.155742 0.0093737112 0.0080601928           61 
  438000   0.55774628   -8.8625879     49.18927 0.0093586891  0.008031106           45 
  439000   0.58413142   -8.9160219    49.117108 0.0093236728 0.0080021108           83 
  440000    0.5686345   -8.8822927    49.205636 0.0093192492 0.0079732613           56 
  441000   0.55754649    -8.891779    49.091985 0.0092766411  0.007944545           83 
  442000   0.57295587   -8.9028896    49.078769 0.0092531616 0.0079159219           60 
  443000   0.55998047   -8.9325446    49.131857 0.0092422605 0.0078874271           59 
  444000    0.5595911   -8.8994665    49.091703 0.0092139082  0.007859069           58 
  445000   0.55396982   -8.9271014    49.138171 0.0092019046   0.00783086           37 
  446000   0.55655306   -8.9151483    49.116526 0.0091772283 0.0078027385           37 
  447000   0.55341191   -8.8849027    49.187794  0.009169984   0.00777483           71 
  448000   0.53395679    -8.904344    49.108209 0.0091347115  0.007747051           56 
  449000   0.55506203   -8.9259875    49.101594 0.0091131392 0.0077193523           28 
  450000   0.55217253   -8.9360439    49.049029 0.0090831535 0.0076918635           83 
  451000   0.54427349   -8.9234455    49.122571 0.0090766022 0.0076644062           30 
  452000   0.54881121   -8.9300243    49.069838 0.0090467991 0.0076370535           65 
  453000   0.54612426   -8.9427834    48.923457 0.0089999002 0.0076098281           43 
  454000   0.53817012   -8.9221567    49.065028 0.0090060625 0.0075826319           68 
  455000   0.54149347   -8.9402848    49.065403 0.0089863375 0.0075556216           45 
  456000   0.53235633   -8.9323265    49.110203 0.0089748179 0.0075287939           64 
  457000   0.54532399   -8.9423157    49.040163 0.0089424076 0.0075020592           53 
  458000   0.54475788   -8.9293898    48.989582 0.0089136794 0.0074754582           58 
  459000   0.54939838   -8.9538532    49.021049 0.0088999727 0.0074490352           39 
  460000   0.53717863   -8.9421082    49.089836 0.0088930862 0.0074226525           54 
  461000   0.52873464   -8.9551813    49.076526 0.0088713894  0.007396399           22 
  462000   0.53371156   -8.9393398    48.984098 0.0088355154 0.0073702835           44 
  463000   0.53311901   -8.9737177    49.004936 0.0088201828 0.0073442696           53 
  464000    0.5260941   -8.9637645    48.962558 0.0087935628 0.0073183644           62 
  465000   0.52420937   -8.9505882    48.987443 0.0087791117 0.0072925531           33 
  466000   0.53152933   -8.9664455    48.993668 0.0087613856 0.0072669413           53 
  467000   0.51304144   -8.9549098    49.033848 0.0087497945 0.0072413715           48 
  468000    0.5169639   -8.9669981    49.015528 0.0087278361 0.0072158856           73 
  469000   0.50997839   -8.9816323    48.973147 0.0087016963 0.0071905101           71 
  470000   0.51290795       -8.978    48.969886 0.0086826039 0.0071652652           60 
  471000   0.50643225   -8.9876452    48.900532 0.0086518988 0.0071401657           48 
  472000   0.52706965   -8.9982973    48.975462 0.0086467977 0.0071151846           52 
  473000   0.50935584   -8.9764599    48.946624 0.0086234362 0.0070902122           26 
  474000   0.50215907   -8.9785218    48.987475 0.0086124252 0.0070654442           40 
  475000   0.49812089   -9.0012554    48.958239 0.0085891647 0.0070407351           30 
  476000   0.52241624   -9.0026149    48.876167  0.008556752 0.0070161657           57 
  477000   0.50543738   -9.0023539    48.895663 0.0085422193 0.0069916743           71 
  478000   0.49425521   -9.0007008    48.832096 0.0085132663   0.00696729           45 
  479000    0.4853376   -9.0031006    48.938072 0.0085139303 0.0069430702           47 
  480000   0.49451375   -9.0136543    48.916918 0.0084925205 0.0069189445           40 
  481000   0.50041383   -8.9856621    48.946599 0.0084800067 0.0068948644           27 
  482000   0.49095747   -9.0089312     48.85551  0.008446665 0.0068708907           46 
  483000   0.49987633   -9.0272746     48.92833 0.0084417408 0.0068470061           56 
  484000   0.49184972   -9.0090164    48.889101  0.008417545 0.0068232184           63 
  485000   0.50671211   -9.0255413    48.877029 0.0083981149 0.0067996236           28 
  486000   0.49554757    -9.026665    48.954814 0.0083941725 0.0067760657           59 
  487000   0.47625601   -9.0260493     48.85646  0.008360106 0.0067526513           46 
  488000   0.49322153   -9.0166535    48.944021  0.008357927 0.0067293915           44 
  489000   0.48386891   -9.0221039    48.859964 0.0083265106 0.0067062283           26 
  490000   0.49028031   -9.0445304     48.90843 0.0083177603 0.0066832059           24 
  491000   0.49164525   -9.0419915    48.829052 0.0082873476  0.006660221           33 
  492000   0.48743621   -9.0374412    48.804547 0.0082663527 0.0066373112           55 
  493000   0.48123811   -9.0327714    48.897472 0.0082652928 0.0066145111           33 
  494000   0.48205962   -9.0361541    48.796385 0.0082315089 0.0065918146           39 
  495000   0.47682481   -9.0418225    48.826717 0.0082199861 0.0065691969           38 
  496000   0.48030679   -9.0565552    48.863795 0.0082096429 0.0065467073           24 
  497000   0.47232938   -9.0603971    48.738431 0.0081721045 0.0065243164           44 
  498000   0.47620366   -9.0726025     48.82006  0.008169354   0.00650201           43 
  499000   0.46765902   -9.0554463    48.828961 0.0081544691 0.0064798653           58 
  500000   0.47294874   -9.0558147    48.831104 0.0081385174 0.0064578121           49 
  501000   0.48077255   -9.0458582    48.797668 0.0081167112 0.0064358841           46 
  502000   0.46479782   -9.0640453    48.785409 0.0080985074 0.0064140031           27 
  503000   0.45594232   -9.0626256    48.793535 0.0080837533 0.0063922526           48 
  504000   0.46375975   -9.0609276    48.853328 0.0080776006 0.0063705697           55 
  505000   0.45964555   -9.0764146    48.766152 0.0080472198 0.0063489784           50 
  506000   0.47043713   -9.0535939    48.751574 0.0080289153 0.0063275126           54 
  507000   0.44713868   -9.0723242    48.713762 0.0080068642 0.0063060957           42 
  508000    0.4576838   -9.0897801    48.882073 0.0080187128 0.0062848171           51 
  509000   0.45624608   -9.0703151    48.813445 0.0079917231 0.0062635893           54 
  510000   0.45841444   -9.0828512    48.792272 0.0079725935 0.0062424595           46 
  511000   0.44656229   -9.0802242    48.822081 0.0079618527 0.0062214491           59 
  512000   0.45245429   -9.0770659    48.660559 0.0079200128  0.006200519           31 
Loop time of 1264.99 on 48 procs for 500000 steps with 4000 atoms

Performance: 68301.197 tau/day, 395.262 timesteps/s
99.4% CPU use with 48 MPI tasks x no OpenMP threads

MPI task timing breakdown:
Section |  min time  |  avg time  |  max time  |%varavg| %total
---------------------------------------------------------------
Pair    | 87.939     | 93.64      | 100.67     |  31.8 |  7.40
Neigh   | 8.4798     | 8.8723     | 9.3712     |   6.9 |  0.70
Comm    | 77.913     | 86.005     | 92.706     |  33.1 |  6.80
Output  | 0.89328    | 0.89411    | 0.91763    |   0.4 |  0.07
Modify  | 1061.6     | 1064.4     | 1066.8     |   4.6 | 84.14
Other   |            | 11.22      |            |       |  0.89

Nlocal:        83.3333 ave          91 max          78 min
Histogram: 3 7 7 10 6 4 5 0 3 3
Nghost:        2301.67 ave        2316 max        2288 min
Histogram: 4 3 7 5 5 4 8 7 3 2
Neighs:        15657.9 ave       17456 max       14152 min
Histogram: 1 6 4 11 9 4 6 1 2 4
FullNghs:      31315.5 ave       34493 max       29216 min
Histogram: 3 7 11 6 7 6 1 2 3 2

Total # of neighbors = 1503143
Ave neighs/atom = 375.78575
Neighbor list builds = 26645
Dangerous builds = 0

#clear
#
#next RN
#
#jump SELF
Total wall time: 0:21:08
