
units lj                  # Use reduced LJ style units
atom_style atomic         # Uncharged point particles
atom_modify map hash      # Needed for indexing of clusters etc
                          # Used to be able to find where atoms are in relation to each other.

lattice fcc 1.0 spacing 1 1 1
Lattice spacing in x,y,z = 1.5874011 1.5874011 1.5874011
region box block 0 10 0 10 0 10 units lattice
create_box 2 box
Created orthogonal box = (0.0000000 0.0000000 0.0000000) to (15.874011 15.874011 15.874011)
  3 by 4 by 4 MPI processor grid
create_atoms 1 box
Created 4000 atoms
  using lattice units in orthogonal box = (0.0000000 0.0000000 0.0000000) to (15.874011 15.874011 15.874011)
  create_atoms CPU = 0.002 seconds
set type 1 type/fraction 2 0.37 78393
Setting atom values ...
  1496 settings made for type/fraction
mass 1 1.0
mass 2 1.0
pair_style lj/cut  3.5
pair_modify tail  yes
pair_coeff 1  1  1.0  1.0   # Intearaction between 1 and 1 set with epsilon = 1 and sigma = 1
pair_coeff 1  2  1.5  0.8
pair_coeff 2  2  0.5  0.88

write_data data.0
System init for write_data ...
Neighbor list info ...
  update every 1 steps, delay 10 steps, check yes
  max neighbors/atom: 2000, page size: 100000
  master list distance cutoff = 3.8
  ghost atom cutoff = 3.8
  binsize = 1.9, bins = 9 9 9
  1 neighbor lists, perpetual/occasional/extra = 1 0 0
  (1) pair lj/cut, perpetual
      attributes: half, newton on
      pair build: half/bin/atomonly/newton
      stencil: half/bin/3d
      bin: standard
WARNING: Not all mixed pair coeffs generated from mixing. Use write_data with 'pair ij' option to store all pair coeffs. (../write_data.cpp:312)


#############################
#   M E L T   S Y S T E M   #
#############################

velocity all create 2.4 5300450 mom yes dist gaussian # Assign velocities
                                                    # Temperature 2.4, random number seed, zero linear momentum
                                                                                # Gaussian distribution

timestep 0.002   # simulation timestep
thermo 1000       # output thermodynamic data every 1000 steps bf 100

# Define a fix  in this case with index 1 applied to all
# particles in the simulation. This fix is for simulations
# in the anisotropic NPT ensemble. Note that we use the MTK
# correction.
fix 1 all npt temp 2.4 2.4 0.1 iso 5.68 5.68 0.5 mtk yes tchain 5 pchain 5 # Use NPT ensemble
                                                                         # Set temperature and pressure and damping
                                                                         # Numbers of thermostats in chain and in barostat
run 10000          # run for 10000 steps
Per MPI rank memory allocation (min/avg/max) = 3.642 | 3.644 | 3.648 Mbytes
Step Temp E_pair E_mol TotEng Press Volume 
       0          2.4   -6.0326183            0   -2.4335183   -4.1254262         4000 
    1000    2.4406735   -5.0533157            0   -1.3932207    5.7451235    3952.0394 
    2000    2.3935727   -4.9937718            0   -1.4043104    5.8139326    3972.5267 
    3000    2.4112458   -5.0539386            0   -1.4379741     5.515482    3960.3691 
    4000    2.4229862   -4.9948793            0   -1.3613087    6.0463065    3950.4887 
    5000    2.4265932   -5.0531896            0   -1.4142098    5.3021017    3978.8538 
    6000    2.4002879   -5.0771265            0   -1.4775948    5.3741678    3972.7928 
    7000    2.3940932   -5.0792356            0   -1.4889936     5.306108    3974.5075 
    8000    2.4068761   -5.0252434            0   -1.4158319    5.7906169    3959.0555 
    9000    2.3710457   -5.0506114            0    -1.494932     5.475016    3972.7056 
   10000    2.3961096   -5.0668621            0   -1.4735963    5.5686942    3955.8841 
Loop time of 2.53614 on 48 procs for 10000 steps with 4000 atoms

Performance: 681351.540 tau/day, 3943.007 timesteps/s
99.6% CPU use with 48 MPI tasks x no OpenMP threads

MPI task timing breakdown:
Section |  min time  |  avg time  |  max time  |%varavg| %total
---------------------------------------------------------------
Pair    | 1.1001     | 1.1714     | 1.2413     |   2.6 | 46.19
Neigh   | 0.20756    | 0.2164     | 0.22952    |   0.9 |  8.53
Comm    | 0.81112    | 0.86943    | 0.9492     |   3.3 | 34.28
Output  | 0.00024862 | 0.00025933 | 0.00032809 |   0.0 |  0.01
Modify  | 0.22914    | 0.26308    | 0.29089    |   3.1 | 10.37
Other   |            | 0.01561    |            |       |  0.62

Nlocal:        83.3333 ave          95 max          75 min
Histogram: 3 0 12 7 7 8 6 2 2 1
Nghost:        1650.46 ave        1683 max        1622 min
Histogram: 4 2 7 7 8 4 7 5 2 2
Neighs:        9652.35 ave       11485 max        8505 min
Histogram: 4 7 8 8 7 7 4 1 1 1

Total # of neighbors = 463313
Ave neighs/atom = 115.82825
Neighbor list builds = 903
Dangerous builds = 175

# Equilibrate just above the melting temperature to avoid step fn in T

fix 1 all npt temp 1.25 1.25 0.1 iso 5.68 5.68 0.5 mtk yes tchain 5 pchain 5
run 2000
Per MPI rank memory allocation (min/avg/max) = 3.643 | 3.645 | 3.649 Mbytes
Step Temp E_pair E_mol TotEng Press Volume 
   10000    2.3961096   -5.0668621            0   -1.4735963    5.5686942    3955.8841 
   11000    1.2562956   -6.9499967            0   -5.0660244    6.0584524    3155.4623 
   12000     1.246705   -6.9753141            0   -5.1057241    5.7256936    3161.2136 
Loop time of 0.610631 on 48 procs for 2000 steps with 4000 atoms

Performance: 565972.098 tau/day, 3275.301 timesteps/s
99.6% CPU use with 48 MPI tasks x no OpenMP threads

MPI task timing breakdown:
Section |  min time  |  avg time  |  max time  |%varavg| %total
---------------------------------------------------------------
Pair    | 0.27265    | 0.29251    | 0.31975    |   2.1 | 47.90
Neigh   | 0.039535   | 0.04189    | 0.046017   |   0.6 |  6.86
Comm    | 0.19236    | 0.22509    | 0.24881    |   2.7 | 36.86
Output  | 5.4996e-05 | 5.6486e-05 | 7.2083e-05 |   0.0 |  0.01
Modify  | 0.042778   | 0.046182   | 0.049905   |   0.8 |  7.56
Other   |            | 0.004898   |            |       |  0.80

Nlocal:        83.3333 ave          90 max          75 min
Histogram: 3 1 5 2 8 3 13 4 4 5
Nghost:        1917.08 ave        1942 max        1890 min
Histogram: 3 1 8 0 10 8 5 6 4 3
Neighs:        12090.3 ave       13395 max       10420 min
Histogram: 1 0 6 7 6 7 8 7 3 3

Total # of neighbors = 580333
Ave neighs/atom = 145.08325
Neighbor list builds = 143
Dangerous builds = 13

#############################
# L I N E A R  Q U E N C H  #
#############################

# Define solid atoms. This closely follows ten Wolde  Ruiz-Montero and Frenkel  Faraday Discuss  1996  104  93-110
# Compute components of the per-atom q6 vector
compute q6 all orientorder/atom degrees 1 6 components 6 nnn NULL cutoff 1.3 # compute the Q6 parameter.
                                                                             # Use all neighbours within 1.3 unit cell.

# get number of connections
compute coord_number all coord/atom orientorder q6 0.5

# An atom is solid if it has 8 or more connections (of a possible 14)
variable is_solid atom c_coord_number>=8
group solid dynamic all var is_solid    # Must be dynamic to update
dynamic group solid defined

# do clustering
compute cluster solid cluster/atom 1.3 # Create a cluster where all atoms within are solid and max 1.3 units from another member

# define chunks one chunk per cluster
compute clus_chunks solid chunk/atom c_cluster nchunk every compress yes  # Says which atoms are in which chunk

# count the size of each chunk
compute size_chunks solid property/chunk clus_chunks count


# Find the maximum entry in the vector of chunk sizes
variable max_n equal max(c_size_chunks)


# Thermo style which includes this variable
# thermo_style custom step temp pe vol v_max_n

thermo ${N}  # Print the thermo information every 100 steps
thermo 1000  

# Reset the npt fix at a lower temperature (below freezing)
fix 1  all npt temp  ${temp} ${temp}  0.1  iso  5.68  5.68  0.5  mtk yes tchain  5  pchain  5
fix 1  all npt temp  0.45 ${temp}  0.1  iso  5.68  5.68  0.5  mtk yes tchain  5  pchain  5
fix 1  all npt temp  0.45 0.45  0.1  iso  5.68  5.68  0.5  mtk yes tchain  5  pchain  5

dump dmp2 all dcd ${N} traj.dcd
dump dmp2 all dcd 1000 traj.dcd


compute msd all msd com yes
variable twopoint equal c_msd[4]/6/(step*dt+1.0e-6)
fix 9 all vector 10 c_msd[4]
variable fit equal slope(f_9)/6/(10*dt)
thermo_style custom step temp pe c_msd[4] v_twopoint v_fit v_max_n

fix 1 all npt temp 1.25 ${temp} 0.1 iso 5.68 5.68 0.5 mtk yes tchain 5 pchain 5
fix 1 all npt temp 1.25 0.45 0.1 iso 5.68 5.68 0.5 mtk yes tchain 5 pchain 5
run 5000000 # 5000000  # Run for this many steps
Neighbor list info ...
  update every 1 steps, delay 10 steps, check yes
  max neighbors/atom: 2000, page size: 100000
  master list distance cutoff = 3.8
  ghost atom cutoff = 3.8
  binsize = 1.9, bins = 8 8 8
  4 neighbor lists, perpetual/occasional/extra = 1 3 0
  (1) pair lj/cut, perpetual
      attributes: half, newton on
      pair build: half/bin/atomonly/newton
      stencil: half/bin/3d
      bin: standard
  (2) compute orientorder/atom, occasional
      attributes: full, newton on
      pair build: full/bin/atomonly
      stencil: full/bin/3d
      bin: standard
  (3) compute coord/atom, occasional
      attributes: full, newton on
      pair build: full/bin/atomonly
      stencil: full/bin/3d
      bin: standard
  (4) compute cluster/atom, occasional
      attributes: full, newton on
      pair build: full/bin/atomonly
      stencil: full/bin/3d
      bin: standard
Per MPI rank memory allocation (min/avg/max) = 9.818 | 9.825 | 9.829 Mbytes
Step Temp PotEng c_msd[4] v_twopoint v_fit v_max_n 
   12000     1.246705   -6.9753141 3.9443045e-34 2.7391003e-36 8.3333333e+20            5 
   13000    1.2342656   -7.0547875   0.47507304 0.0030453399  0.039271792            2 
   14000    1.2601246   -7.0434466   0.91985673 0.0054753375  0.037302766            3 
   15000    1.2404575   -7.0835448    1.3508889  0.007504938  0.036811095            1 
   16000    1.2515225   -7.0390448    1.8000751 0.0093753911  0.036658678            1 
   17000    1.2626691    -7.042222    2.2433138  0.010996636  0.036856913            1 
   18000    1.2429402   -7.0286677    2.6890188  0.012449161  0.036752981            2 
   19000    1.2444771   -7.0081635    3.1298866  0.013727572  0.036824771            2 
   20000    1.2411828   -7.0669625    3.5405919  0.014752466  0.036726511            2 
   21000     1.248424   -7.0521965    3.9956448  0.015855733   0.03658906            1 
   22000    1.2298507    -7.069047    4.4494504  0.016853978  0.036630165            1 
   23000     1.253789    -7.071024    4.8136439  0.017440738  0.036466217            1 
   24000    1.2469518   -7.0511075    5.2792233  0.018330636  0.036394469            1 
   25000    1.2314709   -7.0596078    5.6676708  0.018892236  0.036306237            1 
   26000    1.2522013    -7.084349    6.2266381  0.019957173  0.036386332       -1e+20 
   27000    1.2795675   -7.0549509    6.7469891   0.02082404  0.036677444            1 
   28000    1.2403809   -7.0286037    7.2799977  0.021666659  0.036964706            1 
   29000     1.259386   -7.0211402    7.6647056  0.022025016  0.037166547            1 
   30000    1.2402647   -7.1026663    8.0406741  0.022335205  0.037270991            1 
   31000     1.248756   -7.0474272    8.5203972  0.022904293  0.037288105            2 
   32000    1.2368976    -7.079189    8.9890899  0.023409088  0.037301917            1 
   33000    1.2689384   -7.0762188    9.5502197  0.024116716  0.037373151            1 
   34000    1.2702267   -7.0501741    10.032922  0.024590495   0.03753211            1 
   35000    1.2467737   -7.0961688    10.336218  0.024610042  0.037630246            1 
   36000    1.2570765   -7.0344564    10.699997  0.024768511  0.037590371            1 
   37000    1.2517263   -7.0237387    11.157785  0.025130146  0.037526401            1 
   38000    1.2517815   -7.0766031    11.555107  0.025340146  0.037428697            1 
   39000    1.2471302   -7.0794296    11.958589   0.02555254  0.037320316            1 
   40000    1.2304108   -7.0675804    12.475485  0.025990593  0.037290276            2 
   41000    1.2552446   -7.0604632    13.019704  0.026462813  0.037296344            1 
   42000    1.2566709   -7.0939879    13.500091  0.026785895  0.037365835            2 
   43000    1.2709485   -7.0396691    14.034697  0.027199025  0.037432794            1 
   44000    1.2362473   -7.0669199    14.383051  0.027240626   0.03746929            2 
   45000    1.2696864   -7.0042884     14.89151   0.02757687  0.037466634            1 
   46000     1.235274   -7.0507452    15.327715    0.0277676  0.037495861            1 
   47000    1.2577448   -7.0263011    15.767212  0.027956049  0.037520123            1 
   48000    1.2576951   -7.0497599    16.197288  0.028120292  0.037536405            2 
   49000    1.2593437   -7.0387001    16.667871  0.028346718  0.037541951            2 
   50000    1.2498103   -7.0249128    17.235986  0.028726644  0.037568444            2 
   51000    1.2518101   -7.0416404    17.583093  0.028730544  0.037592199            5 
   52000    1.2413555   -7.0367968    18.087889  0.028987001  0.037603818            2 
   53000    1.2779833   -7.0493406    18.471405   0.02904309  0.037608685            1 
   54000    1.2465943   -7.0374689    18.913666  0.029187755  0.037612276            3 
   55000    1.2532693   -7.0906103    19.215534  0.029114446   0.03760334            1 
   56000    1.2427136   -7.0723965    19.629203  0.029210123  0.037589173            2 
   57000     1.237575   -7.1004256    19.934258  0.029143651  0.037530351            2 
   58000     1.243537    -7.089112    20.158778  0.028963762  0.037419933            4 
   59000    1.2421781   -7.0664158    20.698123  0.029234636  0.037312755            2 
   60000    1.2411921   -7.0562589    21.246786  0.029509425  0.037237474       -1e+20 
   61000    1.2585394   -7.1127395    21.509884  0.029385087  0.037169163            2 
   62000    1.2597062   -7.0849758    22.038861  0.029622124  0.037109017            1 
   63000    1.2542149   -7.0554004    22.410063  0.029642941  0.037039282            2 
   64000    1.2310577   -7.0707565    22.719707  0.029582951  0.036961554            1 
   65000    1.2315155   -7.0602974    23.006412    0.0294954  0.036863719            1 
   66000     1.248661   -7.0858391     23.46231  0.029624128  0.036771319            2 
   67000     1.248321   -7.0641608    23.734398  0.029520396  0.036682214            3 
   68000    1.2402507    -7.034872    23.995037  0.029405682  0.036566004            2 
   69000    1.2591752    -7.080268    24.323138  0.029375771  0.036445677            1 
   70000    1.2398398   -7.0287463    24.772291  0.029490823   0.03632279            1 
   71000    1.2460427   -7.0735003    25.234527  0.029617989   0.03621975            3 
   72000    1.2337147   -7.0483534    25.736889  0.029788066  0.036131392            1 
   73000     1.254025   -7.1243766    26.031485  0.029716307  0.036049364            1 
   74000    1.2493456   -7.0907641    26.483659   0.02982394  0.035975644            1 
   75000    1.2353567   -7.1009701    27.020141  0.030022378  0.035907827            2 
   76000    1.2487327   -7.0872864    27.574701  0.030235417  0.035855027            3 
   77000     1.225741   -7.0469126    27.988569  0.030290658  0.035816257            1 
   78000    1.2553538   -7.0919146    28.239536  0.030170444  0.035776805            1 
   79000    1.2483168   -7.0804857    28.728015  0.030303813   0.03574602            2 
   80000    1.2656586   -7.0180234    29.288446  0.030508798  0.035721298            2 
   81000    1.2365132   -7.1167815    29.501669  0.030351511  0.035688366            3 
   82000    1.2068631   -7.0880855    30.008727  0.030496674  0.035651718            1 
   83000    1.2417899   -7.0822827    30.354464  0.030476369   0.03561249            1 
   84000    1.2553135   -7.0403641    30.944773  0.030699179  0.035583312            1 
   85000    1.2342531   -7.0811814    31.286896  0.030673427  0.035552998            2 
   86000    1.2323156   -7.0621791    31.549194  0.030570924  0.035516931            1 
   87000    1.2486612   -7.0941182     32.00355  0.030654741  0.035485681            1 
   88000    1.2095062   -7.1063858    32.662745  0.030930629  0.035461451            4 
   89000    1.2362857   -7.0566763    33.115285  0.031006821  0.035454458            3 
   90000    1.2494775   -7.0590262    33.905971  0.031394418  0.035456981            1 
   91000    1.2491771    -7.078347    34.116161  0.031241906  0.035465274            2 
   92000    1.2238818   -7.0976835    34.462229  0.031215787  0.035467501            2 
   93000    1.2277578   -7.0560159    34.881107  0.031255472  0.035466024            2 
   94000    1.2306498   -7.0696304    35.173687  0.031182346  0.035455565            1 
   95000    1.2374023   -7.0713762    35.587576  0.031217172  0.035439456            2 
   96000    1.2484452   -7.0853855    35.620538  0.030920606  0.035415701            4 
   97000    1.2655377   -7.0861393    35.948006  0.030883167  0.035375469            1 
   98000    1.2352638   -7.0715242    36.458209  0.031001878  0.035336376            1 
   99000    1.2255861   -7.0731227    36.888614  0.031051022    0.0353027            3 
  100000    1.2389606   -7.0132928    37.276968   0.03106414  0.035269881            2 
  101000     1.230521   -7.0663224    37.811532  0.031197634  0.035244526            2 
  102000    1.2178405   -7.0936745    38.149815  0.031168149   0.03521888            1 
  103000    1.2439413   -7.1050278     38.29465  0.030982727  0.035182215            2 
  104000    1.2293157   -7.0758245    38.771957  0.031067273  0.035146639            2 
  105000    1.2557184   -7.1050044    39.126672  0.031052914   0.03511678            1 
  106000    1.2707857   -7.0821653    39.643764  0.031166481  0.035087553            1 
  107000    1.2123766   -7.0765452    40.098218  0.031229142  0.035061869            1 
  108000    1.2187508   -7.0998437    40.470255  0.031227049  0.035034479            1 
  109000    1.2190051   -7.0896415    41.110437  0.031429997   0.03501715            1 
  110000    1.2327673   -7.0621854    41.560264  0.031485048  0.035002461            1 
  111000    1.2189098   -7.0867872    41.863746  0.031429239  0.034982695            3 
  112000     1.225816   -7.0730688    42.264474  0.031446781  0.034965726            1 
  113000    1.2151836   -7.1073682    42.743983  0.031522111  0.034954327            2 
  114000      1.23517   -7.0572174    43.180502  0.031564694  0.034940505            1 
  115000    1.2494356   -7.0789044    43.681199  0.031653043  0.034931571            1 
  116000    1.2530694   -7.0560857    44.227338  0.031772513   0.03493065            3 
  117000    1.2370075      -7.0651    44.665531  0.031813056  0.034930837            1 
  118000    1.2083991   -7.0624621    45.232501  0.031943856   0.03493043            2 
  119000    1.2247455   -7.0598717    45.834178  0.032096763  0.034933644            2 
  120000    1.2441689   -7.1123124    45.971456  0.031924622  0.034937252            1 
  121000    1.2709676   -7.0797303    46.394691  0.031952266  0.034942815            1 
  122000    1.2184193   -7.1050615    46.566584  0.031807776   0.03494412            2 
  123000    1.2350354   -7.0720152    47.120067  0.031924165  0.034936335            1 
  124000    1.2555353   -7.0651309    47.366251  0.031832157  0.034929566            1 
  125000    1.2344374   -7.0570776    47.850549  0.031900366  0.034922158            1 
  126000    1.2721835   -7.0604076    48.011328  0.031753524  0.034912872            1 
  127000    1.2441098   -7.0995226     48.61943  0.031902513  0.034903208            1 
  128000    1.2505991   -7.1093607    48.981538  0.031889022  0.034894729            2 
  129000    1.2276143   -7.0901209    49.225601  0.031799484  0.034882253            1 
  130000    1.2217818   -7.1314466    49.576731  0.031779956  0.034864082            3 
  131000    1.1944627   -7.0885471    50.117413  0.031881306  0.034848029            1 
  132000    1.2543875   -7.1089358      50.1749  0.031676073  0.034829549            1 
  133000    1.2450681   -7.1029497    50.685119  0.031757593  0.034807472            1 
  134000    1.2183231   -7.0532522     51.15273  0.031811399  0.034790362            1 
  135000    1.2239127   -7.0842442     51.39432  0.031724889   0.03477367            1 
  136000    1.2232858   -7.0808936    51.809182  0.031745822  0.034753346            1 
  137000    1.2023458   -7.1275863    52.037495  0.031652978  0.034732017            2 
  138000    1.2391971   -7.0988078    52.548104  0.031731947  0.034708043            2 
  139000    1.2303725   -7.0930527    53.004461  0.031777255  0.034686044            1 
  140000    1.2403269   -7.1013796    53.359944  0.031761871  0.034663025            1 
  141000    1.2217789   -7.1443693    53.825707  0.031811883  0.034642926            1 
  142000    1.2393976   -7.0621738    54.307029  0.031870322  0.034625526            1 
  143000    1.2360307   -7.0993176    54.652195  0.031848599  0.034610654            2 
  144000     1.254093   -7.0583064    55.350856  0.032031745  0.034596128            1 
  145000    1.2224568   -7.0605784    55.405739  0.031842379  0.034578479            1 
  146000     1.227566   -7.1095144    55.671881  0.031776188  0.034561059            3 
  147000    1.2450576    -7.070229    56.104905  0.031805502  0.034540557            1 
  148000    1.2397923   -7.1170405     56.33161  0.031718249  0.034520075            2 
  149000    1.2578889   -7.0835373    56.778614  0.031755377  0.034503987            2 
  150000    1.2299159   -7.1206223    57.116619  0.031731455  0.034486871            2 
  151000    1.2369981   -7.1059347     57.50029  0.031733052  0.034468031            2 
  152000    1.2242876    -7.123142    57.847806  0.031714806  0.034446499            2 
  153000    1.2073593   -7.1167813     58.16347   0.03167945  0.034424033            2 
  154000    1.2262046   -7.1008108    58.752666  0.031792568  0.034403097            3 
  155000     1.205343    -7.052575    59.193317  0.031824364  0.034384154            2 
  156000    1.2180925   -7.1193307    59.556651   0.03181445  0.034366311            1 
  157000    1.2177697    -7.099618    59.865858  0.031775933  0.034350042            1 
  158000    1.2460592   -7.1090153    60.311374  0.031809796  0.034331801            4 
  159000    1.2501116   -7.1227888    60.601167  0.031761618  0.034312744       -1e+20 
  160000    1.2363009   -7.0909646    60.944089  0.031741713  0.034291536            1 
  161000    1.2100295   -7.0864203    61.567829  0.031867406  0.034272151            1 
  162000    1.2181701   -7.0834847    61.799418  0.031789824  0.034253718            1 
  163000    1.2168055   -7.1325698     62.19028  0.031794622  0.034237096            2 
  164000    1.2278951   -7.1280558    62.870191  0.031946235  0.034221238            2 
  165000    1.2233427   -7.0910016    63.334114  0.031986926  0.034206411            1 
  166000    1.2239868   -7.0750854    63.724276  0.031990098  0.034193448            2 
  167000    1.2353893   -7.1095954    63.883925  0.031878206  0.034178533            1 
  168000    1.2554934   -7.0527368    64.618989   0.03205307  0.034164284            1 
  169000    1.2058234   -7.1135971    64.710476  0.031908519  0.034151955            2 
  170000    1.2099317    -7.103073      65.0956  0.031909608  0.034139334            1 
  171000    1.2404644   -7.1347498    65.546079  0.031942534  0.034126017            3 
  172000    1.2244703   -7.1015444    66.124736  0.032037178  0.034115912            1 
  173000    1.2203725   -7.1614875    66.615151  0.032088223  0.034108536            2 
  174000    1.2115769   -7.1769247    66.945756  0.032062143   0.03410244            2 
  175000    1.1923722   -7.0810401    67.222937  0.032010922  0.034096035            2 
  176000     1.225423   -7.1194019    68.052646  0.032221897  0.034090771            2 
  177000     1.229206   -7.0803179    68.333659  0.032172156   0.03408545            1 
  178000    1.2234821    -7.063733    68.684787  0.032155799  0.034080936            2 
  179000    1.2260682   -7.1292098    69.030081  0.032136909  0.034076706            1 
  180000    1.2362151   -7.1328348    69.273718  0.032071166  0.034070475            4 
  181000    1.2284214   -7.1016835    69.861643   0.03216466  0.034063819            4 
  182000    1.2084844    -7.068294    70.352618  0.032212737   0.03405916            1 
  183000    1.2443378   -7.1548472     70.65034  0.032172286  0.034054977            2 
  184000    1.2120773     -7.06405    71.478726  0.032372611   0.03405306            1 
  185000    1.2197737   -7.1087637    72.029201  0.032445586  0.034053461            1 
  186000    1.2556673   -7.1067378    72.270137  0.032379093  0.034056341            2 
  187000    1.2388292   -7.1133163    72.563146  0.032336518  0.034056721            2 
  188000    1.2231582   -7.1344763    73.079442  0.032393369  0.034056413            1 
  189000    1.2080071   -7.1147504    73.501389   0.03240802  0.034058386            2 
  190000    1.2099796   -7.1128198    74.031213   0.03246983  0.034060775            2 
  191000    1.2517943    -7.080022    74.578513  0.032538618  0.034066144            1 
  192000    1.2317245   -7.1178003    75.447661  0.032746381  0.034075006            1 
  193000     1.218938     -7.05373    76.196505  0.032900045  0.034086628            1 
  194000    1.2241651   -7.1363251    76.185341  0.032725662  0.034100272            1 
  195000      1.23498   -7.0903474    76.431143  0.032662882  0.034109809            2 
  196000    1.2355542   -7.1029275    77.025478  0.032748928  0.034118106            4 
  197000     1.204533   -7.1234219    77.227977  0.032668349  0.034126041       -1e+20 
  198000    1.2371396    -7.111321    77.734402  0.032716499  0.034132901            7 
  199000    1.2009183    -7.085386    78.259795  0.032772108  0.034141135            2 
  200000    1.2276549   -7.0887551    78.623443  0.032759768  0.034150452            3 
  201000    1.2015605   -7.1212557    79.044757  0.032771458  0.034160851            1 
  202000    1.2093882   -7.0939426    79.656942  0.032861775   0.03417094            1 
  203000    1.2347857   -7.0655986    80.323645  0.032973582  0.034182387            2 
  204000    1.2193676   -7.1110167    80.622684  0.032934103  0.034195993            3 
  205000    1.2105785   -7.1044472     81.50924  0.033133837  0.034211352            2 
  206000     1.189113   -7.1343634    81.693233  0.033047424  0.034225433            1 
  207000     1.203789   -7.1050277    82.377771  0.033163354  0.034240796            2 
  208000      1.25071   -7.0960567    82.992055  0.033250022  0.034257304            2 
  209000     1.223224   -7.1493923    83.190542  0.033170072  0.034275016            2 
  210000    1.2251793   -7.1205964    83.809875  0.033257887  0.034292855            2 
  211000     1.198357   -7.1139545    84.380756  0.033325733  0.034310233            1 
  212000    1.2263116   -7.1427116    84.273457  0.033126359  0.034323657            1 
  213000    1.2254824   -7.0603688     84.62074  0.033106706  0.034338468            3 
  214000     1.218258   -7.1325703    85.315673  0.033222614  0.034352696            2 
  215000    1.1989527   -7.1286477    85.681208   0.03320977  0.034366817            6 
  216000    1.2006649   -7.1350665    85.830591  0.033113654  0.034379952            2 
  217000    1.2490288   -7.1258432     86.45533  0.033200971  0.034391205            1 
  218000    1.2244108   -7.0907328    87.109884  0.033298885  0.034401731            1 
  219000    1.2116961   -7.1275642    87.244348  0.033198002  0.034413078            3 
  220000    1.2071968   -7.1333449    87.837367   0.03327173  0.034424711            2 
  221000    1.2053074   -7.1263447    87.804453  0.033108768  0.034435176            6 
  222000    1.2248409   -7.1424779    88.368729  0.033171445  0.034443156            1 
  223000    1.1880716   -7.1414113    88.705251  0.033148449  0.034450819            1 
  224000    1.1999479    -7.124672    89.393807  0.033256625  0.034456867            1 
  225000    1.2052995    -7.156638     89.33551  0.033087226  0.034464731            1 
  226000        1.233   -7.0992984    90.343872  0.033312637  0.034472538            4 
  227000    1.2382841   -7.1155917    90.348417  0.033167554  0.034480825            1 
  228000    1.2173506     -7.13563    90.769299  0.033175913  0.034489223            2 
  229000    1.2215577    -7.115386    91.012294  0.033119466  0.034495342            2 
  230000    1.2028827   -7.1337238    91.410212  0.033119642   0.03450014            1 
  231000    1.1954095   -7.0980474    91.891298  0.033149819  0.034502651       -1e+20 
  232000    1.2262958   -7.1400714    91.658831  0.032923431  0.034504433            3 
  233000    1.2135729   -7.1218311    92.522691  0.033091091  0.034507259            1 
  234000    1.1709933    -7.115862    93.077147  0.033147132   0.03450901            1 
  235000    1.2042019   -7.1091689    93.130107  0.033024861  0.034510196            2 
  236000    1.1996303   -7.1270809    93.586138  0.033045952  0.034509136            2 
  237000     1.214651   -7.1063605    93.914563  0.033021998  0.034508801            1 
  238000     1.203561   -7.0580062    94.316475  0.033023976  0.034508367       -1e+20 
  239000    1.1998864   -7.1394353    94.650619  0.033002308  0.034506555            1 
  240000    1.2053604   -7.1252019    95.005993  0.032988192  0.034505086            1 
  241000    1.2259101   -7.1497133    95.411255  0.032991444     0.034503            2 
  242000    1.2137579   -7.1353149    95.691044  0.032951461  0.034500445            2 
  243000    1.2289547   -7.1442761    95.956256  0.032906809  0.034496621            2 
  244000     1.210812    -7.067781    96.559053  0.032977819  0.034493162            2 
  245000    1.2214979   -7.1322355    96.290697  0.032751938  0.034487194            1 
  246000    1.2247148   -7.1536427    96.836083  0.032803551  0.034480567            4 
  247000    1.2030087   -7.1974353    97.114234  0.032764586  0.034474266            2 
  248000    1.2106869   -7.1406319    97.374992  0.032720091  0.034466332            1 
  249000    1.2182732   -7.1677406    97.623552  0.032671871  0.034456968            1 
  250000    1.1986813   -7.1442082    98.264617  0.032754872  0.034447755            3 
  251000    1.1775848   -7.1410737    98.860828   0.03282232   0.03444042            1 
  252000    1.2252804   -7.0958043    99.202208  0.032804963  0.034432627            1 
  253000    1.1984666   -7.1175148    99.695984  0.032837939  0.034424952            3 
  254000    1.2362187    -7.092952    100.32186  0.032913997  0.034419102            2 
  255000    1.2383541   -7.1324212    100.75948  0.032927936  0.034413489            1 
  256000    1.2050557   -7.0844024    101.21099  0.032946285  0.034408571            2 
  257000    1.2054288   -7.1551606    101.22028  0.032821101  0.034403634            1 
  258000    1.1954046   -7.1273831     101.9329  0.032924063  0.034400189            1 
  259000    1.2188396   -7.1470293    101.98835  0.032814785  0.034396339            2 
  260000    1.2168858   -7.1845604    102.57941  0.032878015  0.034390827            3 
  261000    1.2316916   -7.1294944    102.75209  0.032807179  0.034385617            1 
  262000    1.2054802   -7.1518482    103.38042  0.032881814  0.034380163            2 
  263000    1.1902757   -7.1531691    103.88698  0.032917294  0.034373921            4 
  264000    1.1923747   -7.1457642    104.09584  0.032858537  0.034369537            1 
  265000    1.1907106   -7.1806437    104.14974  0.032751491  0.034363004            4 
  266000     1.230887   -7.1584536    104.70021  0.032800818  0.034356649            6 
  267000    1.2245702   -7.1215829    105.20457  0.032835385  0.034349985            1 
  268000    1.1999455   -7.1055832    105.83794  0.032909808  0.034343576            2 
  269000    1.2017981   -7.1288755    106.29539  0.032929178  0.034337768            1 
  270000    1.2356769   -7.1492334    106.20677  0.032779866  0.034330865            4 
  271000     1.200321   -7.1575958    106.83252  0.032851327  0.034324293            2 
  272000    1.2293808     -7.14473    106.93834  0.032762971  0.034317978            1 
  273000    1.1965928    -7.150162    107.35112  0.032768962  0.034311515            3 
  274000    1.1914425   -7.0998342    107.96965  0.032837485  0.034305527            3 
  275000    1.2145689   -7.1583897    108.29998  0.032818177  0.034297964            2 
  276000     1.197319    -7.123258    108.72165  0.032826584  0.034290777            2 
  277000    1.1981387    -7.128964    109.18444  0.032847304  0.034285174            4 
  278000     1.188646   -7.0892267    109.92355  0.032950704  0.034280137            1 
  279000    1.1964954   -7.1726608    110.04588   0.03286914  0.034274132            1 
  280000    1.2028573   -7.1276793    110.35118  0.032842614  0.034269223            1 
  281000    1.1866811   -7.1116639    110.99389  0.032916339  0.034264057            2 
  282000    1.1768859   -7.1786886    110.98686  0.032797536  0.034258485            2 
  283000    1.2107948   -7.1571751    111.19401  0.032742642  0.034251663            2 
  284000    1.2196982   -7.1597382    111.49472  0.032715587  0.034243285            2 
  285000     1.213016   -7.1641675    111.83798  0.032701165  0.034233744            2 
  286000    1.2393625   -7.1481141    112.11007  0.032666103   0.03422481            3 
  287000    1.2678806   -7.1216732    112.91078  0.032784778  0.034216378            1 
  288000    1.2064591   -7.1210782     113.2211  0.032760734  0.034207431            2 
  289000    1.1974551    -7.105254    113.95272  0.032858338  0.034199841            1 
  290000     1.209535   -7.1811192    113.32093  0.032563485  0.034193077            2 
  291000    1.2089627   -7.1340132    114.13139  0.032683674  0.034183953            1 
  292000    1.1981677   -7.1506313    114.67643  0.032727291  0.034174493            1 
  293000    1.2145156    -7.150268    115.16368  0.032754175  0.034166055            2 
  294000    1.2127086   -7.1436479    115.23406  0.032662715  0.034158939            2 
  295000     1.189332   -7.1783617    116.09174  0.032794275  0.034153015            2 
  296000    1.1855895   -7.1548723    116.25917  0.032730623   0.03414689            1 
  297000    1.1915837   -7.1688475    116.82072  0.032777979  0.034139683            2 
  298000    1.1848882   -7.1280226    117.39347  0.032828152  0.034133209            1 
  299000    1.1987178   -7.1526207    117.50211  0.032748637  0.034126014            2 
  300000    1.1841635   -7.1676305    117.84469  0.032734637  0.034118298            2 
  301000    1.2151668   -7.1916249    118.36169  0.032769016  0.034110984            2 
  302000    1.2530046    -7.177627    118.44902  0.032684607  0.034104225       -1e+20 
  303000    1.2232795   -7.2011971    118.37706  0.032556947   0.03409674            4 
  304000    1.2067752   -7.1785297    118.62676    0.0325183  0.034088786            1 
  305000    1.1895891   -7.1672605    119.35184  0.032609793   0.03407953            2 
  306000    1.2358238   -7.1433859    119.76596  0.032616003  0.034070915            2 
  307000    1.2179389   -7.1629772    120.06576   0.03259114  0.034062664            3 
  308000    1.2014767   -7.1568025    120.70422  0.032658067  0.034053509            1 
  309000    1.2113764   -7.1692138    120.96047  0.032621487  0.034043787            2 
  310000    1.2167916   -7.1535345    121.13151  0.032562234  0.034034659            2 
  311000    1.2042692   -7.1829515    121.65817  0.032598652  0.034025784            3 
  312000     1.179199   -7.1618759    121.92527   0.03256551  0.034016605            2 
  313000    1.2146534   -7.1546423    122.48247  0.032609817  0.034005731            2 
  314000    1.2101285   -7.1357231    122.34065  0.032468324  0.033994406            1 
  315000    1.1930957   -7.2046058    122.83131  0.032495055  0.033982652            2 
  316000     1.212677   -7.1732771    123.47688   0.03256247  0.033971778            1 
  317000    1.1815213   -7.2170928    123.92091  0.032576474   0.03396135            2 
  318000     1.200475   -7.2047875    124.36092  0.032589339  0.033950977            2 
  319000    1.2015828   -7.1523173    124.74619  0.032587824  0.033942356            1 
  320000    1.1983161    -7.172734    125.12186  0.032583816  0.033934211            1 
  321000    1.1921674   -7.1585623     125.5422  0.032591433  0.033925617            1 
  322000      1.23009   -7.1624134    125.49955   0.03247918  0.033916676            1 
  323000    1.2050653   -7.1307275    126.76446  0.032704968  0.033908326            2 
  324000    1.1989643   -7.1978899    126.27359  0.032477776  0.033899289            1 
  325000    1.2000076   -7.1370171    127.29177  0.032638916  0.033890577            1 
  326000    1.1734239    -7.156928    127.28997  0.032538337   0.03388195            1 
  327000    1.2013636   -7.1458558    127.96949     0.032612  0.033873758            1 
  328000    1.1841054   -7.1487984    128.59314  0.032671021   0.03386674            1 
  329000    1.1691158   -7.1484761    128.85809  0.032638828   0.03385928            1 
  330000    1.2061601   -7.1664873    129.15813  0.032615689   0.03385211            1 
  331000    1.2189452   -7.1761433    129.79438  0.032677337  0.033844426            2 
  332000     1.206792   -7.1562123    129.65096  0.032542912  0.033836808            1 
  333000    1.1921271   -7.1733789    130.20638  0.032584179  0.033827691            1 
  334000    1.1772324   -7.1443341    130.40201  0.032535431  0.033819369            1 
  335000    1.2131064    -7.153267    130.98078  0.032582283  0.033810435            2 
  336000    1.2040309   -7.1418142    131.40126  0.032589598  0.033801528            2 
  337000    1.1883014   -7.1313364    131.47245  0.032510498  0.033791968            1 
  338000    1.1990798   -7.1749258    131.59254  0.032443921  0.033781848            1 
  339000    1.2062514   -7.1398321    132.56812  0.032588034  0.033771795            1 
  340000    1.1768937   -7.1600721     132.6443  0.032510858  0.033763586            1 
  341000    1.2093431    -7.133038    132.92546  0.032484228  0.033754421            1 
  342000    1.1893528   -7.2189788    133.16919  0.032448633  0.033744262            4 
  343000    1.2051924    -7.166587    134.14625  0.032591411  0.033735049            1 
  344000    1.1788389   -7.1475047    134.71696  0.032634923  0.033727162            1 
  345000    1.2224379   -7.1805459    134.43235  0.032471581  0.033719409            4 
  346000     1.200266   -7.1469511    135.17664  0.032556993  0.033710794            3 
  347000    1.1985232    -7.176826    135.52184  0.032546072  0.033702545            2 
  348000    1.1973096    -7.118664    135.92659  0.032549471  0.033695424            1 
  349000    1.1778351   -7.1667748    135.96968  0.032466494  0.033687995            3 
  350000    1.1754167   -7.1582147    136.90282  0.032595909  0.033681068            2 
  351000    1.1848219   -7.1867051    137.09058   0.03254762  0.033673475            1 
  352000    1.1782613   -7.1852253    137.35549  0.032517872  0.033666302            3 
  353000    1.2047354   -7.1939359    137.33834  0.032421705  0.033658552            1 
  354000    1.1782865   -7.1569546    138.21932  0.032537504  0.033652017            3 
  355000    1.1955377    -7.180529    138.46421  0.032503335  0.033645034            1 
  356000     1.206636   -7.1748023    138.78961  0.032488204  0.033637755            2 
  357000    1.2093194   -7.1930278     138.7257  0.032382283  0.033630596            2 
  358000    1.1932311   -7.1738869     139.6852  0.032515177  0.033622305            3 
  359000    1.1873568   -7.1766627    139.71885  0.032432415  0.033613763            2 
  360000    1.2038927   -7.1740282     140.0206  0.032412176  0.033606043            1 
  361000     1.196428   -7.1249794     141.1583  0.032585018  0.033597929            1 
  362000    1.1968569   -7.2340811    140.16201  0.032265656  0.033590404            1 
  363000    1.1876209   -7.1837374    141.19062  0.032412907  0.033581816            2 
  364000    1.1911663   -7.1533462    141.45488  0.032384359  0.033573031            1 
  365000    1.2059218   -7.1495622    142.22607  0.032471705   0.03356412            1 
  366000    1.2087149   -7.1558759    142.01452  0.032334818  0.033555082            1 
  367000    1.2005709   -7.2129869    141.79291  0.032196391  0.033545045            2 
  368000    1.1913157   -7.1603648    142.94519  0.032369834  0.033535592            1 
  369000     1.190793   -7.1837063    143.38667  0.032381814  0.033526742            4 
  370000    1.1809498   -7.1936041    143.87401  0.032404056  0.033518412            4 
  371000    1.1865838   -7.1752484    144.79354  0.032523256  0.033510797            2 
  372000    1.1842035   -7.1695939    144.94254  0.032469208  0.033502592            1 
  373000    1.2050102   -7.1871703    145.18659  0.032436681  0.033494217            3 
  374000    1.2006008   -7.2006759    145.10934  0.032332741  0.033486074            1 
  375000    1.1949256   -7.1978439    145.42137   0.03231586  0.033478147            4 
  376000    1.2066245   -7.2038276    145.92051  0.032340538  0.033469777            1 
  377000    1.2003308   -7.1940606    146.36673  0.032353388  0.033462051            1 
  378000    1.2060075   -7.1681607    146.71286  0.032344104  0.033453156            3 
  379000    1.1993223   -7.1836854    147.11586  0.032347374  0.033443968            3 
  380000    1.1857397   -7.1993116    147.26043  0.032293954  0.033435114            4 
  381000    1.1766218    -7.178514    147.34668  0.032228057  0.033426761            1 
  382000    1.1485737   -7.2019457    148.17138  0.032323599  0.033417997            3 
  383000     1.176687   -7.1597797     148.5909  0.032330483  0.033408661            4 
  384000    1.1941135    -7.144166    148.95399  0.032325084  0.033400126            2 
  385000    1.1737581   -7.2002095    149.11314  0.032275571  0.033392259            2 
  386000    1.1954102   -7.1806904    149.80321  0.032340936  0.033384344            1 
  387000    1.1636434   -7.1453898    150.14885  0.032331793  0.033376417            1 
  388000    1.1699849   -7.1791487    149.85389  0.032185114  0.033367908            1 
  389000    1.1829936   -7.1844398    150.53172  0.032247584  0.033359153            1 
  390000     1.158548   -7.2417483    150.48441  0.032154789  0.033350302            4 
  391000    1.1804889   -7.1818868    151.29704  0.032245747  0.033340807            2 
  392000    1.1645941   -7.1846502    151.36093  0.032177068  0.033331578            1 
  393000    1.1625616   -7.1712608    152.07187  0.032245943  0.033321591            1 
  394000    1.1729308   -7.1821591    152.31398   0.03221531  0.033312116            2 
  395000    1.1728249    -7.188102    152.35772  0.032142979  0.033302882            2 
  396000    1.1895416   -7.2157953    152.52992  0.032098047  0.033293592            2 
  397000    1.1717519   -7.1883673    153.40037   0.03219991  0.033284027            1 
  398000    1.1806356   -7.1910587    153.85205  0.032213579   0.03327425            1 
  399000    1.1677253   -7.2076353    154.16561  0.032198331  0.033263779            3 
  400000    1.1979215   -7.1644515    153.80857  0.032043452  0.033252731            2 
  401000    1.1872043   -7.1877378    154.62719  0.032133663  0.033241596            3 
  402000    1.1867929   -7.2097458    154.68929  0.032066603  0.033231384            3 
  403000    1.1904499   -7.1884992    154.86967  0.032024333  0.033220957            2 
  404000      1.20079   -7.1653348    155.69847  0.032116022  0.033211084            2 
  405000    1.1723416   -7.1787679    155.91045   0.03208034  0.033201143            1 
  406000    1.1705059   -7.2103729     156.0034  0.032020402  0.033190683            2 
  407000    1.1871758   -7.1644337    156.53578  0.032050732  0.033179893            2 
  408000    1.1806017    -7.188688     156.6642  0.031998407  0.033168416            1 
  409000    1.1734379   -7.2111743    156.90993  0.031970238  0.033156472            1 
  410000    1.1784119   -7.1898927    157.32617  0.031976865    0.0331445            1 
  411000    1.1685918   -7.1846299    157.68084  0.031970973  0.033132952            1 
  412000    1.1988696   -7.2074852    157.96114  0.031950069  0.033121214            3 
  413000    1.1830141   -7.2196583    157.54013  0.031787758  0.033108234            1 
  414000    1.1831558   -7.2193128    158.34372  0.031872729  0.033095668            2 
  415000    1.1658381   -7.2058094    158.60639  0.031848672  0.033083912            1 
  416000    1.1815954   -7.1521802    159.51872  0.031954872  0.033073324            1 
  417000    1.1735979   -7.1770617    159.41344  0.031857202  0.033062996            1 
  418000    1.2057966   -7.1371271    160.37462  0.031972612  0.033052166            1 
  419000    1.1934993   -7.1796331    159.89041  0.031800001  0.033040738            3 
  420000    1.1834355   -7.2316934    160.30054  0.031805663  0.033028776            3 
  421000    1.1939083    -7.195729    161.13458  0.031895205  0.033017389            2 
  422000    1.2055507   -7.1886206    161.33672  0.031859543  0.033006372            1 
  423000    1.1784151   -7.2550108    161.22577  0.031762365  0.032995009            1 
  424000     1.187712   -7.2270672    161.55901   0.03175295  0.032983212            2 
  425000    1.2037425   -7.2167175    161.55722  0.031677886  0.032971171            2 
  426000    1.1767432   -7.1953658    162.82458  0.031851444  0.032959728       -1e+20 
  427000    1.1641104   -7.1811243    163.01154  0.031813337  0.032948603            1 
  428000    1.1637832   -7.2310927    163.26928  0.031789191  0.032938275            1 
  429000    1.2087725   -7.1574282     164.4646   0.03194728  0.032928268            2 
  430000    1.2080865    -7.189486     164.5519  0.031889903  0.032917757            1 
  431000     1.168447   -7.1818437    164.42632  0.031791632  0.032906739            1 
  432000    1.1797047   -7.2163165     164.6279  0.031756926  0.032896043            1 
  433000    1.1599351   -7.2020372    165.14627  0.031783346   0.03288435            2 
  434000    1.1750986   -7.2038512    165.07812  0.031697028  0.032872374            2 
  435000    1.1727371    -7.179517    166.13231  0.031826113   0.03286109            1 
  436000    1.1721361   -7.1840844    166.28416  0.031782141   0.03285054            3 
  437000    1.1829932   -7.2467604    166.34478  0.031720973  0.032838846            2 
  438000     1.174444   -7.1782718    167.35159  0.031840104  0.032827923            3 
  439000    1.1908342   -7.1890831    167.42649  0.031781794  0.032818358            1 
  440000    1.2137135   -7.1806116    168.12204  0.031841295  0.032809504            3 
  441000    1.1892034   -7.2182644    168.23697  0.031790811  0.032800348            2 
  442000    1.1621437    -7.213454    168.77215  0.031819786  0.032789971            4 
  443000    1.1912471   -7.1639912    169.50796  0.031886372  0.032780775            2 
  444000    1.1857296   -7.1999223    169.92244  0.031892349  0.032771798            3 
  445000    1.1844515   -7.2002048    170.15183  0.031863639  0.032762207            1 
  446000    1.1826763   -7.1693926    169.36951  0.031646022  0.032751703            1 
  447000    1.1944251   -7.2010535    170.19788  0.031729657  0.032741154            2 
  448000     1.198037   -7.2388538    170.54212  0.031722865  0.032730835            1 
  449000    1.1873744   -7.2151458    171.45761  0.031822126  0.032721362            3 
  450000    1.1931146   -7.1844547    171.79726  0.031814308  0.032712349            1 
  451000    1.1675825   -7.1590253    172.48203  0.031870293  0.032702581            1 
  452000    1.2230943   -7.1598573    172.02382  0.031715306  0.032692894            1 
  453000    1.1738028   -7.2136008    171.98249  0.031637692  0.032682708            3 
  454000    1.1903325   -7.1977694    172.88726  0.031734079  0.032672471            1 
  455000    1.1936496   -7.2103747    173.22276  0.031725781  0.032662764            1 
  456000    1.1794807   -7.2056153    173.40907  0.031690255  0.032653032            2 
  457000    1.1491131   -7.2119439    173.83426  0.031698443  0.032643953            1 
  458000    1.1789212   -7.2218668    173.88412  0.031638304  0.032633897            1 
  459000    1.1529947   -7.1862823    174.47985  0.031677533  0.032624335            2 
  460000    1.1591423   -7.2203397    175.12072  0.031724768  0.032615303            2 
  461000    1.1574635   -7.1981744    175.74121  0.031768115  0.032606274            5 
  462000     1.179653   -7.2514043    175.33459  0.031626008  0.032597238            1 
  463000     1.161135    -7.221275    175.87074    0.0316542  0.032588162            4 
  464000     1.174621   -7.1767494    176.55944  0.031709669  0.032578415            2 
  465000    1.1793411   -7.2151787    176.43277  0.031618777  0.032569386            1 
  466000     1.182272    -7.232407    177.01316  0.031654713  0.032559711            2 
  467000    1.1672968   -7.2264118    177.87446  0.031740624  0.032550382            2 
  468000    1.2023708   -7.2237807    177.38117  0.031584966  0.032540572            2 
  469000    1.1653428   -7.2380325    177.87956  0.031606176  0.032530604            2 
  470000    1.1532664   -7.2317861    178.65426  0.031676286  0.032521096            2 
  471000    1.1952623   -7.1643164     179.1483  0.031696444  0.032511809            4 
  472000    1.1834919   -7.1617278    179.89794  0.031761641   0.03250292            1 
  473000    1.1857811   -7.1957882    179.74202  0.031667023  0.032494239            1 
  474000    1.1457532   -7.2363625     179.8503  0.031619251  0.032485669            3 
  475000    1.1777036   -7.2377628     180.1812  0.031610737  0.032477581            2 
  476000    1.1918588   -7.1938917    181.55372  0.031784615  0.032469429            2 
  477000    1.1600142   -7.2193072    181.41985  0.031694593  0.032461751            2 
  478000    1.1709729   -7.2485034    181.09306  0.031571315  0.032454254            1 
  479000     1.165303   -7.2471977    181.62818    0.0315985  0.032445789            2 
  480000    1.1851206   -7.1865016    182.50358  0.031684649  0.032437429            1 
  481000    1.1801977   -7.2055437    182.03731  0.031537995  0.032429207            1 
  482000    1.1615159   -7.2462227    182.88477  0.031619082   0.03242029            2 
  483000    1.1909098   -7.2075538    183.49415  0.031658756  0.032411571            2 
  484000    1.1866903   -7.2437858    182.84839  0.031482162  0.032402367            1 
  485000    1.1839803    -7.218642    183.72713  0.031568235  0.032392418            1 
  486000     1.191547   -7.2297169    183.44467  0.031454847  0.032383115            1 
  487000    1.1627894   -7.2285046     183.9659  0.031479449  0.032373208            1 
  488000    1.1766817   -7.1968329    184.03467  0.031426686  0.032362967            1 
  489000     1.157381   -7.2158364    184.69888  0.031475611  0.032352971            1 
  490000    1.1757631   -7.2505446     184.7085   0.03141301  0.032343881            2 
  491000    1.1997826   -7.2264138    185.17728  0.031428594  0.032334425            2 
  492000    1.1861946   -7.1922207    185.85106  0.031478838   0.03232534            1 
  493000    1.1685464   -7.2331067    186.34152  0.031497891  0.032316753            2 
  494000     1.167924   -7.2489912      186.046  0.031384278  0.032308193            1 
  495000     1.177973   -7.1770069    187.48626  0.031563344  0.032299662            2 
  496000    1.1780351   -7.1783561    188.08446  0.031600211   0.03229095            2 
  497000    1.2000568   -7.1952035    188.42251  0.031593311   0.03228254            1 
  498000    1.1781411   -7.2248027    187.90425  0.031443148  0.032274075            1 
  499000    1.1708266   -7.2670929    187.84287  0.031369884  0.032265045            1 
  500000    1.1760854   -7.2413323    187.97622   0.03132937  0.032255876            1 
  501000    1.1688799   -7.2151376    189.11793  0.031456742  0.032247311            3 
  502000    1.1786684   -7.2731006    189.55921  0.031467332    0.0322389            1 
  503000    1.1851738    -7.259363    189.31268   0.03136393  0.032230117            2 
  504000     1.183647   -7.2218954    189.70385  0.031366377  0.032221549            2 
  505000    1.1698232   -7.1935726    190.95999  0.031511549  0.032212342            2 
  506000    1.2069936   -7.2633281     190.0351  0.031296953  0.032203253            2 
  507000    1.1320204   -7.2436486    191.26635  0.031437599  0.032194446            2 
  508000    1.1683325    -7.204019    191.64618  0.031438022  0.032185512            2 
  509000    1.1659986   -7.2222013    192.11735  0.031453396  0.032177651            2 
  510000    1.1691039   -7.2140906    192.98849  0.031534067  0.032170642            1 
  511000     1.180717   -7.2245354    192.98063  0.031471075   0.03216325            1 
  512000    1.1829017   -7.2290963    192.59469  0.031346793  0.032154962            2 
  513000    1.1717797   -7.2116682    193.78374  0.031478841  0.032146331            1 
  514000    1.1670381   -7.2234217    194.03841  0.031458886  0.032138512            6 
  515000    1.1734621   -7.2263107    193.64032  0.031333385  0.032129935            2 
  516000     1.193899   -7.1823808    194.58144  0.031424651  0.032121436       -1e+20 
  517000    1.1508722   -7.2077401    194.38944   0.03133292  0.032112216            4 
  518000    1.1762032   -7.2623204    193.90443  0.031194406  0.032103073            3 
  519000    1.1420559   -7.2691111    194.46524  0.031224349  0.032093533            2 
  520000    1.1774237   -7.2147108    195.84725  0.031385777  0.032084093            1 
  521000    1.1788609   -7.2232039    195.26618  0.031232594  0.032074427            4 
  522000    1.1613865   -7.2104978    195.38338  0.031191471  0.032065604            1 
  523000    1.1676438   -7.1928933    195.93206  0.031219258  0.032056265            2 
  524000    1.1670812   -7.2034915    196.80425  0.031298386  0.032046565            2 
  525000    1.1803594   -7.2138286    197.45643  0.031342291  0.032037289            1 
  526000    1.1715122   -7.2674917    196.21735  0.031086399  0.032027635            1 
  527000    1.1518555   -7.2490636    197.28668  0.031196502  0.032018132            2 
  528000     1.158821   -7.2141977    197.98945  0.031248336  0.032009011            2 
  529000    1.1453409   -7.2072377    199.49403  0.031426281  0.032000431            2 
  530000    1.1723738   -7.2180388    198.94647  0.031280891  0.031991831            2 
  531000    1.1709887   -7.2667268    198.81943  0.031202045  0.031982532            2 
  532000    1.1576313   -7.2388283    199.19562  0.031202321  0.031973432            1 
  533000    1.1804171   -7.2578176    199.70982  0.031224174   0.03196407            3 
  534000    1.1501136   -7.2217567    199.70167  0.031164431  0.031954704            2 
  535000    1.1518151   -7.2242734    199.70419  0.031106572  0.031945411            1 
  536000    1.1827629   -7.2605679    200.73524  0.031208836  0.031936217       -1e+20 
  537000    1.1456712   -7.2767352    200.36268  0.031092904  0.031926933            2 
  538000    1.1421616   -7.2313687    201.60229   0.03122712  0.031918037            1 
  539000    1.1645322   -7.2556468    200.81138  0.031046905  0.031908771            2 
  540000    1.1606569   -7.2280997    201.43582  0.031085774  0.031899312            1 
  541000    1.1689684   -7.2983989    201.40507  0.031023579  0.031889435            1 
  542000    1.1678643   -7.1706645    203.32669  0.031261791  0.031880383            1 
  543000    1.1735304   -7.2595913    203.09671  0.031168925  0.031871174            1 
  544000    1.1727754   -7.2253382     203.5288  0.031177818  0.031861922            1 
  545000    1.1478187   -7.2148426    202.98889  0.031038056  0.031852308            1 
  546000    1.1193853   -7.2491009    203.57276  0.031070324  0.031843017            1 
  547000    1.1533787   -7.2281968    204.59248  0.031168873  0.031833828            1 
  548000    1.1903928   -7.2364947    204.53314  0.031102972  0.031824727            3 
  549000    1.1420155   -7.2422073     204.6839  0.031069202  0.031815849            1 
  550000    1.1801593   -7.1734404    205.27449  0.031102195  0.031807374            1 
  551000    1.1534018   -7.2025951    205.65519  0.031103325  0.031798246            1 
  552000     1.152639   -7.1962434    206.15274  0.031122093  0.031788987            1 
  553000    1.1621755   -7.2524307    205.38071  0.030949473    0.0317796            1 
  554000    1.1748849   -7.2324076    205.93192  0.030976522  0.031770072            1 
  555000    1.1582056   -7.2326631    206.51142  0.031007721   0.03176077            1 
  556000    1.1539363   -7.2401538     206.4624  0.030944604  0.031751515            1 
  557000    1.1522519   -7.2364332    207.50929  0.031045675  0.031742711            2 
  558000    1.1668576   -7.2373273    207.66114  0.031012716  0.031733394            1 
  559000    1.1412596   -7.2335563    208.79098  0.031125668  0.031724415            2 
  560000    1.1412337   -7.2150361    209.25198  0.031138688  0.031715879            1 
  561000    1.1635514   -7.2541248    209.34016  0.031096281  0.031707321            2 
  562000    1.1671498   -7.2275938    208.48456   0.03091408   0.03169822            2 
  563000    1.1474187   -7.2110253    209.30596  0.030980753  0.031689024            1 
  564000    1.1656956   -7.2620149    209.21699  0.030912675  0.031679613            2 
  565000    1.1731965    -7.204208    210.67663  0.031073249  0.031670507            2 
  566000    1.1663355   -7.2585388    210.34044  0.030968852  0.031661751            1 
  567000    1.1345248    -7.205204    210.40345  0.030923494  0.031652022            3 
  568000    1.1466346   -7.2222692    210.41154  0.030870238  0.031642758            3 
  569000    1.1549766   -7.2598805    210.73288  0.030863046  0.031633295            1 
  570000    1.1706878   -7.2423733    211.02566  0.030851705  0.031623853            1 
  571000     1.158017   -7.2652833    211.84727  0.030917582   0.03161493            2 
  572000    1.1727358    -7.237319    211.89092  0.030869889  0.031605777            3 
  573000    1.1354352       -7.234    213.39268  0.031034421  0.031597248            1 
  574000    1.1647646   -7.2645111    212.44285  0.030842458  0.031588789            4 
  575000    1.1592749   -7.2261273    214.46674  0.031082136  0.031580814            2 
  576000    1.1405601   -7.2392946    214.14428  0.030981521  0.031573261            2 
  577000    1.1690178   -7.2613271    215.63014  0.031142424  0.031565911            1 
  578000    1.1563404   -7.2509573    215.59562  0.031083567  0.031559051            2 
  579000    1.1459852   -7.2441116     215.6247  0.031034068  0.031552147            2 
  580000    1.1746313   -7.2311476    216.35249  0.031085128  0.031545741            3 
  581000    1.1540742   -7.2577835     216.5995  0.031067053  0.031539115            2 
  582000    1.1675681   -7.2357803    217.06451  0.031080256  0.031532423            2 
  583000    1.1453405   -7.2500236    217.11699  0.031034447  0.031525634            1 
  584000    1.1809209   -7.2968775    216.11052  0.030837688  0.031517601            2 
  585000    1.1414452   -7.2696326    217.11921  0.030928663  0.031510068            1 
  586000    1.1662798    -7.233467    218.67176  0.031096667  0.031502622            1 
  587000    1.1689491   -7.2529257    218.37111   0.03100101  0.031495575            1 
  588000    1.1654223   -7.2094436    219.06953  0.031047269  0.031488291            1 
  589000    1.1296158   -7.2668765     218.5901  0.030926727  0.031481556            1 
  590000    1.1471518   -7.2826731    219.60509  0.031017669  0.031474777            2 
  591000    1.1703921   -7.2445153    220.48018  0.031088576  0.031468624            1 
  592000    1.1592974   -7.2762771    220.04999  0.030975505  0.031462491            6 
  593000    1.1433371   -7.2628466    220.55336  0.030994008  0.031455993            3 
  594000    1.1780822   -7.2802236    220.07867  0.030875234  0.031449299            3 
  595000     1.158806   -7.2350393    221.93452  0.031083266  0.031443412            2 
  596000    1.1768962   -7.2236601       222.23  0.031072427  0.031437539            1 
  597000    1.1658933   -7.2716383    222.13186  0.031006681  0.031430927            1 
  598000    1.1454598   -7.2680242    221.78073  0.030905899  0.031424403            3 
  599000    1.1430949   -7.2297118    223.20922  0.031053036  0.031418495            2 
  600000     1.147288   -7.2537823    223.78039   0.03108061  0.031412934            1 
  601000    1.1691108   -7.2533993    224.53617  0.031133689  0.031407679            2 
  602000    1.1434184   -7.2867598    224.07325  0.031017891  0.031401916            2 
  603000    1.1646719   -7.2603919    224.04234  0.030962181   0.03139588            1 
  604000    1.1325194   -7.2779782    224.58303  0.030985517  0.031390439            2 
  605000    1.1615322   -7.2350517    225.82202  0.031104962  0.031384648            1 
  606000     1.146609   -7.2144678    225.88346  0.031062081  0.031379127            2 
  607000    1.1477174   -7.3172012    225.83812  0.031004684  0.031373704            3 
  608000    1.1359908   -7.2377034    226.88746  0.031097514  0.031368396            1 
  609000    1.1497965   -7.2683377    226.85826  0.031042455  0.031363092            2 
  610000    1.1485944   -7.2515599    226.91788   0.03099971  0.031357764            1 
  611000    1.1252725   -7.2574233    227.00793  0.030961257  0.031352176            1 
  612000    1.1687748     -7.21874    228.04186  0.031051452  0.031346437            1 
  613000    1.1626042   -7.2482251    228.28561  0.031033933  0.031341468            2 
  614000    1.1340788   -7.2630493     228.5362  0.031017399  0.031336499            1 
  615000    1.1568347   -7.2779662    229.37697   0.03108089  0.031331453            2 
  616000    1.1556986   -7.3162899    229.21035  0.031007893  0.031326011            2 
  617000    1.1306796   -7.2506946      229.786  0.031035386   0.03132026            1 
  618000    1.1692554   -7.2528843    229.66704  0.030969126  0.031314836            1 
  619000    1.1547703   -7.2732067    229.50986  0.030897934  0.031309741            2 
  620000    1.1265812   -7.2777329    230.06335  0.030922494   0.03130442            1 
  621000    1.1644643    -7.272508    230.61948  0.030947326  0.031299552            2 
  622000    1.1215501   -7.1920806    232.91856  0.031205595  0.031295041            1 
  623000    1.1644082   -7.2615937    232.01942  0.031035236  0.031290303            2 
  624000     1.155767   -7.2393816    232.33914  0.031028197  0.031285324            1 
  625000    1.1530264   -7.2883987    231.84353   0.03091247  0.031280012            2 
  626000    1.1685132   -7.2487977    232.75195   0.03098402  0.031274448            1 
  627000    1.1684742   -7.2317578    233.01894  0.030970088  0.031269423            3 
  628000     1.144982   -7.2798699    233.09576  0.030930966  0.031263721            1 
  629000    1.1610165   -7.2774529    233.31536  0.030910885  0.031257852            1 
  630000    1.1537683    -7.276853    233.59012  0.030898164  0.031252283            1 
  631000    1.1313298   -7.2978411    234.45747  0.030963744   0.03124655            1 
  632000    1.1514754   -7.2149534     235.3886  0.031037526  0.031241279            2 
  633000    1.1627981   -7.2135132    235.73335  0.031033879  0.031236306            2 
  634000    1.1723547   -7.3035695    234.68887  0.030847643  0.031230563            3 
  635000    1.1946559   -7.2903237    235.33919  0.030884408  0.031224613            1 
  636000    1.1264265     -7.32221    235.61308  0.030871734   0.03121848            1 
  637000     1.144577   -7.2987455    236.40999  0.030927523  0.031212682            1 
  638000    1.1385467   -7.3259385    236.37919  0.030875025  0.031207017            1 
  639000     1.169004   -7.2559091    236.81454  0.030883483  0.031201714            2 
  640000    1.1509599   -7.2600875    236.90662  0.030847217  0.031196578            1 
  641000    1.1325128   -7.2731021    237.32141  0.030853017  0.031190773            1 
  642000    1.1587785   -7.2904404    238.32131  0.030934749  0.031185177            2 
  643000    1.1495773   -7.2557788    237.72477  0.030809328  0.031179953            1 
  644000    1.1332458   -7.2367064    237.99474  0.030796421  0.031173967            2 
  645000    1.1513578   -7.2988922    238.21492  0.030777121  0.031167853            1 
  646000    1.1378292   -7.2801474    239.27513  0.030866245   0.03116167            2 
  647000    1.1461527     -7.23906    239.20367  0.030809334  0.031155591            1 
  648000    1.1255356   -7.3070316    239.43554  0.030791607  0.031149476            1 
  649000    1.1336329   -7.2573327    240.13126  0.030833495  0.031143633            1 
  650000    1.1536151   -7.2439568    240.77261  0.030868283  0.031138443            1 
  651000    1.1560352   -7.2951854    240.51087  0.030787362   0.03113239            1 
  652000    1.1239045   -7.2296576    241.81577  0.030906924  0.031126591            2 
  653000    1.1536185   -7.2568704    241.66466  0.030840309  0.031120801            2 
  654000    1.1295812   -7.2803596    241.98578   0.03083407  0.031115384            2 
  655000    1.1440602   -7.2911795    241.45538  0.030719514  0.031109591            2 
  656000    1.1442132   -7.2525127    242.68921  0.030829422   0.03110352            2 
  657000    1.1487086    -7.294948    242.13628  0.030712364  0.031097677            3 
  658000    1.1555666   -7.2527773    242.74467  0.030742739  0.031091707            1 
  659000    1.1409699   -7.3013622    243.12342  0.030743983  0.031085594            2 
  660000    1.1629424   -7.2842304    243.25547  0.030714074  0.031079803            3 
  661000    1.1462105   -7.2515894    244.25826  0.030794032     0.031074            1 
  662000    1.1635316   -7.2950446    243.81966  0.030692304  0.031068018            1 
  663000    1.1811711   -7.2911707    243.74629  0.030636789   0.03106171            2 
  664000    1.1213647   -7.2504963       245.34  0.030790662  0.031055523            2 
  665000     1.152942   -7.2755097    244.50415  0.030639618  0.031049504            2 
  666000    1.1335749   -7.2935697    245.24055  0.030685755  0.031043045            1 
  667000    1.1489484   -7.2556011    245.16417  0.030630206  0.031036812            1 
  668000    1.1370527     -7.28431    246.50911  0.030752135  0.031030791            1 
  669000    1.1558412   -7.2631541    246.11647  0.030657258  0.031024846            1 
  670000    1.1531065    -7.275885    246.69036  0.030682881  0.031018886            2 
  671000    1.1269556   -7.2972193    246.60753  0.030626866  0.031012918            1 
  672000    1.1218215   -7.2580856    247.60706   0.03070524  0.031006902            1 
  673000    1.1332783   -7.2987938    246.75954  0.030554673  0.031000527            1 
  674000    1.1549809   -7.2911337    247.88921  0.030649012  0.030994002            1 
  675000    1.1539985   -7.3020944    247.71947   0.03058265  0.030987742            2 
  676000    1.1565712   -7.2647918    248.85595  0.030677509  0.030981742            1 
  677000     1.159462   -7.2882927    248.01182   0.03052829  0.030975862            3 
  678000    1.1366188   -7.3140422    248.69945  0.030567779  0.030969763            1 
  679000    1.1299212   -7.2873132      248.795  0.030534487  0.030963321            1 
  680000    1.1545768    -7.257251    249.38251  0.030561582  0.030957026            2 
  681000    1.1569071   -7.2775911    249.51198  0.030532548  0.030950451            4 
  682000    1.1355666   -7.2537739    250.29543  0.030583508  0.030943818            1 
  683000    1.1335852   -7.2823079    250.35021  0.030545413  0.030937436            1 
  684000    1.1344626   -7.2325425    251.71363  0.030666865  0.030930656            2 
  685000     1.140989   -7.3446607    249.92418  0.030404401  0.030923888            2 
  686000    1.1322582   -7.3050445    251.14316  0.030508158  0.030917493            1 
  687000    1.1388194   -7.3185292    251.79848  0.030543241  0.030911017            1 
  688000    1.1269918   -7.2909926    251.80957   0.03050019  0.030904445            1 
  689000    1.1257317   -7.2619176    252.49073  0.030538308  0.030898175            5 
  690000    1.1436368   -7.3053974    252.79754  0.030531104  0.030891803            2 
  691000    1.1509812   -7.2952378    253.84575  0.030613332  0.030885868            2 
  692000    1.1565865   -7.3293103    253.22342   0.03049415  0.030879575            5 
  693000     1.134251   -7.3123533    253.24029  0.030452175  0.030873201            1 
  694000    1.1249802   -7.2583624    254.83148  0.030599362  0.030867168            5 
  695000    1.1590177   -7.3066461    254.44795  0.030509346  0.030861192            2 
  696000    1.1216803   -7.3342584    254.39369  0.030459015  0.030855357            1 
  697000    1.1400075   -7.2943887    254.76392  0.030459579   0.03084868            1 
  698000     1.135446   -7.2709483    255.50143  0.030503991  0.030842294            2 
  699000    1.1417879   -7.2543597    256.66493  0.030599061  0.030836277            3 
  700000    1.1287689   -7.3110187    256.16616  0.030495971  0.030829933            2 
  701000    1.1225562    -7.325493     256.1136   0.03044622  0.030823598            3 
  702000    1.1405922   -7.2829571    257.26057  0.030539004  0.030817845            1 
  703000    1.1125061   -7.3129318    257.22796  0.030491698  0.030811758            3 
  704000    1.1367671   -7.3223845      257.379  0.030466264  0.030805494            2 
  705000    1.1241651   -7.2912874    257.72171  0.030463559  0.030799054            1 
  706000    1.1460937   -7.3101699    257.46148  0.030389693   0.03079291            2 
  707000    1.1280917    -7.309313    256.81879  0.030270956  0.030786677            2 
  708000    1.1315072   -7.2966975    258.44429  0.030419526  0.030780088            3 
  709000    1.1463794   -7.3356877    258.42871  0.030374789  0.030773295            2 
  710000    1.1415291   -7.2695632    259.30615  0.030434994  0.030766452            2 
  711000    1.1446724    -7.270003    258.09852  0.030250647  0.030759499            1 
  712000    1.1293344   -7.3335331    258.34394  0.030236885  0.030752504            2 
  713000    1.1275297   -7.2828548    258.74934  0.030241859  0.030745029            3 
  714000     1.145136    -7.302746    259.32143  0.030266273  0.030738033            2 
  715000    1.1258092   -7.3353915    260.44813   0.03035526  0.030731139            1 
  716000    1.1349114   -7.3361153    260.85795  0.030360562  0.030724074            1 
  717000    1.1549326   -7.2574391    261.29061  0.030368504   0.03071718            1 
  718000    1.1349624   -7.3054361    260.97152  0.030289174  0.030710283            1 
  719000    1.1304296   -7.2819355    261.97351  0.030363179  0.030703411            2 
  720000    1.1329969   -7.3017574    262.69648  0.030404685  0.030696789            1 
  721000    1.1646975   -7.3226211    262.48495  0.030338066  0.030690128            1 
  722000     1.127375   -7.3531387    262.42005  0.030288556  0.030683295            1 
  723000    1.1503051    -7.307088    262.12339   0.03021247  0.030676441            1 
  724000    1.1305948   -7.3001345    263.20253  0.030294951   0.03066928            2 
  725000    1.1338523   -7.3366968    263.25975  0.030259741  0.030662466            2 
  726000    1.1265526   -7.3316445    263.18007  0.030208916  0.030656066            2 
  727000    1.1392311   -7.2555955    263.98943  0.030260136  0.030649537            1 
  728000    1.1601568   -7.2905364    265.26048  0.030364066  0.030643364            2 
  729000    1.1250626   -7.2800203    265.74939  0.030378303  0.030637393            2 
  730000    1.1194132   -7.3370406    265.14136  0.030267278  0.030631087            5 
  731000    1.1216795   -7.3184138    264.92162  0.030200823  0.030624769            2 
  732000    1.1370548   -7.3232123    265.62414  0.030239543  0.030618106            1 
  733000    1.1476944   -7.3270068    266.29983  0.030275105  0.030611611            1 
  734000    1.1238401   -7.3299634    266.08064  0.030208974  0.030604946            2 
  735000    1.1445111   -7.3374801    266.43899  0.030208502   0.03059824            3 
  736000    1.1398801   -7.3211555    267.82267  0.030324124  0.030591645            2 
  737000    1.1429145   -7.2984316    267.95977  0.030298482  0.030585188            1 
  738000    1.1275975   -7.2560948    268.05832  0.030268555   0.03057872            2 
  739000    1.1401898   -7.2870456    269.46191  0.030385872  0.030572645            1 
  740000    1.1339935   -7.2959704    268.38825  0.030223901  0.030566083            1 
  741000    1.1595362    -7.319377    268.43288  0.030188133  0.030559333            1 
  742000    1.1533663   -7.3098392    268.85094    0.0301944  0.030552636            2 
  743000    1.1496438   -7.3527185    268.43423  0.030107024  0.030545879            2 
  744000    1.1194701   -7.3327449    269.16734  0.030148671  0.030539072            2 
  745000    1.1127873   -7.3400378    269.24761  0.030117182  0.030531968            1 
  746000     1.110667   -7.3326968    270.55614  0.030222983  0.030525105            1 
  747000    1.1443171   -7.2990404    270.29601  0.030153505  0.030518092            2 
  748000    1.1295495   -7.3474499    269.54616  0.030029652  0.030510982            1 
  749000    1.1397407   -7.3404023      270.026  0.030042946  0.030503886            1 
  750000    1.1421718   -7.2992786    271.25159  0.030139066  0.030497112            2 
  751000    1.1219957   -7.3041321    270.55658  0.030021814  0.030489847            1 
  752000    1.1392963   -7.2849435    271.55267  0.030092273  0.030483028            1 
  753000    1.1388922   -7.3164591    271.69299  0.030067839  0.030476506            1 
  754000    1.1256539   -7.3653126    271.67269  0.030025717  0.030469547            1 
  755000    1.1055596   -7.3320996    272.72938   0.03010258  0.030462779            2 
  756000    1.1173454   -7.3067838    273.98849  0.030201554  0.030456113            1 
  757000    1.1366138    -7.323682    274.41694  0.030208822  0.030449257            1 
  758000    1.1257441   -7.2999078    273.88986  0.030111022  0.030442911            3 
  759000    1.1178056   -7.2926629    273.74861  0.030055842  0.030436226            2 
  760000    1.1132371   -7.3026076    274.78056  0.030129447  0.030429702            1 
  761000    1.1231663   -7.3082977    274.93331  0.030106583  0.030423088            1 
  762000    1.1374606   -7.3113683    274.73685  0.030045587  0.030416056            1 
  763000    1.1490623   -7.3485891    275.53234  0.030093091  0.030409483            1 
  764000    1.1362295   -7.3231177    276.32511  0.030140174  0.030403072            1 
  765000    1.1413348   -7.2958792    276.25083  0.030092683  0.030396258            1 
  766000    1.1213388   -7.3532341    275.86239  0.030011139  0.030389756            2 
  767000    1.1267483   -7.3411995    276.26274  0.030015509  0.030383256            1 
  768000    1.1170886   -7.3112369    277.29518  0.030088452  0.030376697            1 
  769000    1.1385149   -7.2887909    277.25986  0.030045499   0.03037025            2 
  770000    1.1423069   -7.3161863    278.23965  0.030112516  0.030363945            1 
  771000    1.1337761   -7.3406914    278.75133  0.030128765  0.030357588            2 
  772000    1.1229899   -7.3735204    277.67043   0.02997306  0.030351074            1 
  773000    1.1501584   -7.3034643    278.91966  0.030068959  0.030344886            1 
  774000    1.1666968   -7.3186219    278.89098  0.030027021  0.030338485            1 
  775000    1.1350534    -7.340138    279.55441  0.030059614  0.030332127            1 
  776000    1.1414749   -7.3674241    278.41669    0.0298987  0.030325342            2 
  777000    1.1509498   -7.3519394    279.07323  0.029930634  0.030318874            1 
  778000    1.1272141   -7.3219666     281.0294  0.030101693  0.030312573            1 
  779000    1.1234153   -7.3641717    279.29005  0.029876985  0.030306013            2 
  780000    1.1271509   -7.2992554    281.97277  0.030125295  0.030299803            1 
  781000     1.135593   -7.3210173    280.98331  0.029981147  0.030293698            2 
  782000     1.134795   -7.3294151    281.07824  0.029952924  0.030287411            2 
  783000    1.1373954   -7.3065077     282.0257  0.030015507  0.030280909            1 
  784000    1.1306461   -7.3697664    281.60394  0.029932391  0.030274281            1 
  785000    1.1199007    -7.348798    282.16027   0.02995332  0.030267666            2 
  786000    1.1222066   -7.3205542     281.3004  0.029824045  0.030261305            1 
  787000    1.1395978   -7.3223308    283.75668  0.030046238  0.030254629            3 
  788000    1.1139159   -7.3356303    282.09786  0.029832684  0.030248106            3 
  789000    1.1223661   -7.2741189    283.39217  0.029931577  0.030241381            2 
  790000    1.1322437   -7.2753068    284.06461  0.029964621  0.030234623            1 
  791000    1.1211875   -7.2943411    283.29639  0.029845806  0.030228323            1 
  792000    1.0994706   -7.3561015     283.1774  0.029795602  0.030221681            2 
  793000    1.1503822   -7.3522404    284.70949   0.02991903  0.030214957            1 
  794000    1.1112207   -7.3680257    284.31161   0.02983959  0.030208313            1 
  795000    1.1370668   -7.3538912    284.71413  0.029844248  0.030201879            1 
  796000    1.1527707   -7.3124186    284.76096  0.029811658  0.030195345            1 
  797000    1.1260243   -7.3243065    285.42134  0.029843302  0.030188586            1 
  798000    1.1114787   -7.3469852    285.91375  0.029857326  0.030181824            1 
  799000    1.1140495   -7.3231336    286.11213  0.029840648  0.030174941            2 
  800000    1.1085102   -7.3199316     287.2014  0.029916812  0.030168616            4 
  801000    1.1136628   -7.3310483    286.48236  0.029804657  0.030162365            3 
  802000     1.158025   -7.3265281    286.70685   0.02979082  0.030155756            1 
  803000    1.1395593   -7.3201846    287.54099  0.029840286  0.030149053            3 
  804000    1.1448532   -7.3255983    288.37247  0.029889352  0.030142552            2 
  805000    1.1448202   -7.3511104     288.0739  0.029821315  0.030136381            3 
  806000    1.1321862   -7.3298246    288.32827  0.029810615  0.030129927            1 
  807000    1.1261748   -7.3434622     289.4877  0.029893401  0.030123511            1 
  808000    1.1266521   -7.3310779    289.10492  0.029816927  0.030117258            2 
  809000     1.137935   -7.3856771    289.94099  0.029866191  0.030111273            2 
  810000     1.119614   -7.3330711     290.0216  0.029837613  0.030105038            3 
  811000    1.1155439   -7.3491488    290.69855  0.029870381  0.030098811            2 
  812000    1.1131687   -7.2971279    291.38494  0.029904038  0.030092705            2 
  813000    1.0966951   -7.3135738    290.53064  0.029779688  0.030086523            1 
  814000    1.1083255   -7.3404428    291.53169  0.029845587  0.030080435            1 
  815000    1.1005113   -7.3795833    291.00501  0.029755114  0.030074111            2 
  816000    1.1158561   -7.3058827     292.2378  0.029844547   0.03006759            1 
  817000    1.0991651   -7.3419544    291.12723   0.02969474  0.030061016            2 
  818000    1.1255473   -7.3330932    292.00161  0.029747516  0.030054074            1 
  819000    1.1174041   -7.3516716    291.72495  0.029683044   0.03004715            3 
  820000    1.1135283   -7.3066945    292.42601   0.02971809  0.030040353            2 
  821000    1.0837017   -7.3210433    291.74728     0.029613  0.030033643            2 
  822000    1.0940905   -7.3843994    292.64987  0.029668479   0.03002682            2 
  823000    1.1341472    -7.394268    292.84067  0.029651749  0.030020003            2 
  824000    1.1156828   -7.3054918    294.33769  0.029767162   0.03001346            5 
  825000    1.1085805   -7.3494709    293.77743  0.029674488  0.030006814            1 
  826000    1.1344372   -7.3290209    294.08661  0.029669755    0.0300001            1 
  827000     1.129609   -7.3475103    294.07436  0.029632644  0.029993402            1 
  828000    1.1133464   -7.3448594     295.1598  0.029706099  0.029986895            1 
  829000    1.1216285   -7.3475864    295.10698  0.029664955   0.02998047            1 
  830000    1.1318456   -7.3388687    295.19891  0.029638445  0.029973852            2 
  831000    1.1107262   -7.3263543    294.97542  0.029580367   0.02996737            3 
  832000    1.1208457   -7.3577861    295.63541  0.029610918  0.029960262            1 
  833000    1.1397795   -7.3681819    296.03264   0.02961511  0.029953321            1 
  834000    1.0971184   -7.3126635    297.24357  0.029700596  0.029946487            2 
  835000    1.1255015   -7.3553599    296.85194  0.029625942  0.029939756            4 
  836000    1.1060841   -7.3586855     296.4044  0.029545893   0.02993281            1 
  837000    1.1184644   -7.3345939      296.857  0.029555655  0.029925774            1 
  838000    1.1116333   -7.3708772    297.33813  0.029568231  0.029919045            3 
  839000    1.1529656   -7.3511389    299.31218   0.02972906  0.029912624            1 
  840000    1.1339709   -7.3417696    298.22517  0.029585831  0.029906277            1 
  841000    1.1189398   -7.3693876    299.31979  0.029659115  0.029899849            3 
  842000    1.1036119   -7.3123312    299.65641  0.029657206    0.0298936            1 
  843000    1.1082959   -7.3564855    299.82482  0.029638674  0.029887355            1 
  844000    1.1086849   -7.3455997    299.71521  0.029592734  0.029881248            1 
  845000    1.1339331   -7.3376459    300.60958  0.029645915  0.029875144            2 
  846000    1.1134184   -7.3767981    300.86212  0.029635748  0.029868839            2 
  847000    1.0970388   -7.3628961    299.90309  0.029506404  0.029862412            2 
  848000     1.105885    -7.363623    300.32135  0.029512712  0.029856245            1 
  849000    1.1009269   -7.3864405    301.18976  0.029563188  0.029850191            1 
  850000    1.1100306   -7.3463432    302.18764  0.029626239  0.029844138            1 
  851000    1.1298069    -7.360678    302.30298  0.029602721  0.029838157            1 
  852000    1.0813488   -7.3468797    303.84818   0.02971911  0.029832348            1 
  853000    1.1243856   -7.3608383    302.65091  0.029567303  0.029826461            3 
  854000    1.1089837   -7.3331855      303.822  0.029646955  0.029820632            2 
  855000    1.1365094   -7.3178986    304.30502  0.029659358  0.029814942            2 
  856000    1.1069759   -7.3521805    303.55219   0.02955142  0.029808979            1 
  857000     1.118656   -7.3647467    304.02994  0.029563394  0.029802955            1 
  858000    1.1145714   -7.3456148    304.51928  0.029576464   0.02979677            2 
  859000    1.1285207   -7.3816729    304.16342  0.029507511  0.029790554            2 
  860000    1.1301587   -7.3269589    305.49092  0.029601834   0.02978437            1 
  861000    1.1335593   -7.3840755    304.02166  0.029425248  0.029777736            3 
  862000    1.1242569   -7.3605633    305.67786  0.029551224   0.02977123            1 
  863000    1.1072667   -7.3479994    305.22954  0.029473691  0.029764851            2 
  864000    1.1029088   -7.3595236     305.5318   0.02946873  0.029758205            1 
  865000    1.1282842   -7.3544357    305.51723  0.029433259  0.029751648            3 
  866000    1.1034893   -7.3402374    306.56501  0.029500097  0.029744903            1 
  867000     1.118447   -7.3710453    306.62763  0.029472091  0.029738105            2 
  868000    1.1183377   -7.3296985    306.69467  0.029444572  0.029731217            1 
  869000    1.1101099   -7.3872234    306.76052  0.029417004  0.029724588            2 
  870000    1.1263861   -7.3510518    307.14972  0.029420471  0.029717691            2 
  871000    1.1055419   -7.3426441    307.42901  0.029413414  0.029710898            3 
  872000     1.103952   -7.3452492    307.84772  0.029419698  0.029704236            1 
  873000    1.1068668   -7.3371329    308.10285  0.029410353   0.02969785            1 
  874000    1.1163169   -7.3754238    307.85299  0.029352878  0.029691028            4 
  875000     1.114474   -7.3597553    307.65595  0.029300566  0.029683967            1 
  876000    1.1110342   -7.3691914    308.79188  0.029375179  0.029677172            2 
  877000    1.1000247   -7.3237912    308.89013  0.029351019  0.029670533            2 
  878000    1.1224125    -7.381096    308.75753  0.029305005  0.029663974            1 
  879000    1.1015938   -7.3436228    309.63709  0.029355052  0.029657359            3 
  880000    1.1247914   -7.3496302    309.29876  0.029289656  0.029650851            2 
  881000    1.1153691   -7.3662983    310.35103  0.029355943  0.029644217            1 
  882000    1.1066077   -7.3349301    311.59665  0.029440349  0.029637935            3 
  883000     1.123858   -7.3705573    310.82677   0.02933435  0.029631264            2 
  884000    1.0954992   -7.3665616    310.52801  0.029273002  0.029624566            3 
  885000    1.1326307   -7.4147593    311.83193  0.029362705  0.029617836            1 
  886000     1.109345   -7.3963379    311.08395  0.029259213  0.029611405            1 
  887000    1.1000124   -7.3794817    311.87403  0.029300454  0.029604717            2 
  888000    1.1101205   -7.3716329    310.80896  0.029167508  0.029597936            2 
  889000    1.1021254   -7.3598585    311.74498  0.029222439  0.029590729            2 
  890000    1.1272551   -7.3500406    312.39134  0.029250125   0.02958373            2 
  891000    1.1260704   -7.3883106    312.66752  0.029243128   0.02957657            1 
  892000    1.1108525   -7.3449216    313.40154  0.029278918  0.029569321            2 
  893000    1.1147774    -7.389257    312.62776  0.029173923  0.029562441            2 
  894000    1.1135289   -7.3245385    313.86846   0.02925694   0.02955528            3 
  895000    1.1070873   -7.3667651    313.71857  0.029210295  0.029548167            2 
  896000    1.1255835   -7.3324013    314.32437  0.029234037  0.029541034            1 
  897000    1.1135733   -7.3697446    313.01311  0.029079628  0.029533709            3 
  898000    1.0845583   -7.3749228    314.12101  0.029150056  0.029526648            1 
  899000      1.07241   -7.3783577    314.24531  0.029129154  0.029519409            1 
  900000    1.1226472   -7.3221606    314.98146   0.02916495  0.029512531            1 
  901000    1.1053825    -7.370047    315.25151  0.029157557  0.029505825            2 
  902000    1.0639529   -7.3781364    316.19955  0.029212819  0.029499119            3 
  903000    1.0985043   -7.3946856    315.37407  0.029104288  0.029492418            2 
  904000    1.1183916   -7.3751471    316.75235  0.029199148  0.029485659            2 
  905000    1.1313011   -7.3462887    317.36687  0.029223468  0.029479055            1 
  906000    1.1047586   -7.3408227    317.38109  0.029192521  0.029472376            3 
  907000    1.0819061   -7.3768206    316.31025  0.029061948  0.029465654            2 
  908000    1.1299326   -7.3689598     317.6341  0.029151441  0.029458774            1 
  909000     1.110466   -7.3546425    317.87837  0.029141765  0.029452235            1 
  910000    1.0892828   -7.4289041     317.8227  0.029104643  0.029445764            3 
  911000    1.1133498   -7.3623735    319.05336  0.029185269   0.02943893            1 
  912000    1.1197705   -7.4143584    318.95226   0.02914403  0.029432262            3 
  913000    1.0952813   -7.3911628    319.50634  0.029162682  0.029425915            3 
  914000    1.1202315   -7.3906681    319.50014  0.029130209  0.029419481            1 
  915000    1.1027525   -7.3403464    320.74823  0.029212043  0.029413136            2 
  916000      1.07283   -7.3473287    321.18986  0.029220329  0.029406941            1 
  917000    1.0913185   -7.3607434    321.33558  0.029201706  0.029400717            1 
  918000    1.0887549    -7.372472    320.52153  0.029095999  0.029394071            2 
  919000    1.0970861   -7.3887908    320.30012  0.029044261  0.029387553            1 
  920000    1.1241964    -7.360845    321.13896  0.029088674  0.029381059            2 
  921000    1.1122842   -7.3395104    322.60554  0.029189788  0.029374765            2 
  922000    1.1016831   -7.3783831    322.11038  0.029113375   0.02936834            4 
  923000    1.0962926   -7.3935944    322.78931   0.02914313  0.029361735            2 
  924000    1.0991947   -7.4009046    322.88112   0.02911987  0.029355345            1 
  925000    1.1114256   -7.3809988    322.98374  0.029097634  0.029349036            1 
  926000    1.1053224   -7.3506636    324.17462  0.029173382  0.029342666            1 
  927000    1.0773705   -7.3525702    323.55488  0.029086199  0.029336508            4 
  928000    1.1103674   -7.4202284    323.77566  0.029074682   0.02933022            1 
  929000    1.1027316   -7.4424439    324.13502  0.029075621  0.029324131            1 
  930000    1.0821751   -7.3965368    324.18216  0.029048581  0.029317997            1 
  931000    1.0947855   -7.4191297     324.3727  0.029034434  0.029311753            2 
  932000    1.0672764   -7.3727269    325.44793  0.029099422  0.029305521            1 
  933000    1.1052283   -7.4153335    326.09564  0.029126084  0.029299438            2 
  934000    1.1005475    -7.386659    326.25031    0.0291087  0.029293486            1 
  935000    1.1041481   -7.3597297    326.83698  0.029129855  0.029287477            2 
  936000    1.0945019   -7.3940513    325.81039  0.029007335  0.029281406            3 
  937000     1.114327   -7.3766033    328.66462  0.029230223   0.02927539            1 
  938000    1.1254597   -7.3664741    327.62693   0.02910687  0.029269317            2 
  939000    1.1063039   -7.3736869    327.40206  0.029055916  0.029263486            1 
  940000    1.0889933   -7.3891275    326.76228  0.028968287  0.029257729            8 
  941000    1.0944069   -7.4380049    327.05118  0.028963087  0.029251447            2 
  942000    1.1302881   -7.3950071    327.93474  0.029010504  0.029245138            1 
  943000     1.112941   -7.3919958     328.2173   0.02900471  0.029238722            1 
  944000    1.1181366   -7.3772362    328.23646  0.028975676  0.029232427            1 
  945000    1.0934832   -7.3911775    328.79935  0.028994652   0.02922598            2 
  946000    1.0828279   -7.3846328    328.39761  0.028928612  0.029219772            2 
  947000    1.1112016    -7.372255    328.95651  0.028947246  0.029213256            1 
  948000    1.0998755   -7.3695506    329.62977  0.028975894  0.029206614            1 
  949000    1.1086954   -7.4158022    328.65181  0.028859485  0.029200175            2 
  950000     1.094154   -7.4082818    329.92436  0.028940734  0.029193514            1 
  951000    1.0933601   -7.3460178    329.39319  0.028863757   0.02918684            2 
  952000    1.1042893   -7.3744709    329.50253  0.028843009  0.029179998            2 
  953000    1.0790041   -7.3570177    330.42997  0.028893841  0.029172923            2 
  954000    1.0910591   -7.3694467    330.17819  0.028841561  0.029165892            1 
  955000    1.1084999   -7.3950383     330.5268   0.02884178  0.029158982            6 
  956000    1.0784154   -7.3566121    331.66118  0.028910493  0.029152106            1 
  957000    1.1017074   -7.4140718    330.79192   0.02880459  0.029145232            2 
  958000    1.0995005   -7.3559292    331.00059  0.028792675  0.029138412            2 
  959000    1.1056579   -7.3953338    332.01067  0.028850423  0.029131662            3 
  960000    1.1045854   -7.3814786    332.17395  0.028834545  0.029124991            2 
  961000    1.1209606   -7.4013893    331.57751  0.028752819  0.029118086            1 
  962000    1.1226011   -7.3751603    332.71185  0.028821193  0.029111702            1 
  963000    1.0862853   -7.3883298    333.51821  0.028861043  0.029105169            1 
  964000    1.0641222   -7.4339766    331.82786  0.028684981  0.029098437            3 
  965000    1.0791339   -7.3999117    333.67266  0.028814565  0.029091804            1 
  966000    1.0991918   -7.3950074    333.47023  0.028767273  0.029084976            1 
  967000     1.084296   -7.3845767    334.07642  0.028789764   0.02907803            2 
  968000    1.0825069   -7.4000296    334.78007  0.028820598  0.029071229            2 
  969000    1.1030918    -7.389445    334.81752  0.028794076  0.029064597            1 
  970000    1.1141717   -7.4032906    335.49169   0.02882231  0.029057876            2 
  971000    1.0907212   -7.4171711    335.97871  0.028834424  0.029051102            2 
  972000    1.0549924   -7.4601203    334.57866  0.028684728  0.029044241            1 
  973000    1.0809234   -7.4095039    335.44313  0.028729285  0.029037449            1 
  974000    1.0897553   -7.4445437    336.48564  0.028788983  0.029030849            3 
  975000    1.0868084   -7.3756825    336.27264  0.028741252  0.029024171            1 
  976000    1.0990633   -7.3941873     337.7565  0.028838499  0.029017367            2 
  977000    1.0954816   -7.4035954    336.42906  0.028695757  0.029010576            2 
  978000    1.0913377    -7.383957    337.11549  0.028724906  0.029003959            1 
  979000    1.0932104   -7.4098547    337.86014   0.02875895  0.028997267            1 
  980000    1.0729233   -7.3978832    337.36642  0.028687621  0.028990606            5 
  981000    1.0724284   -7.4184585    336.72722  0.028604079  0.028983844            1 
  982000    1.0995738   -7.3908694    338.63667  0.028736988   0.02897717            2 
  983000    1.1011195   -7.3742172    338.58756  0.028703591  0.028970466            1 
  984000    1.1047125   -7.4266965    338.11044  0.028634014  0.028963435            3 
  985000    1.0775802   -7.4526358    338.57161  0.028643961  0.028956431            1 
  986000    1.1031547   -7.3958371    339.39249  0.028684287  0.028949453            4 
  987000    1.0791243   -7.4276011    339.19805  0.028638809  0.028942519            2 
  988000    1.1088729   -7.4372029    339.54033  0.028638692  0.028935675            1 
  989000    1.0901512   -7.4647969    339.36528  0.028594985  0.028928853            1 
  990000    1.1022223   -7.3982885    339.71036  0.028595148  0.028922057            1 
  991000    1.0764462   -7.4196874    339.31495  0.028533043  0.028914991            1 
  992000    1.0812866   -7.3871661    339.81106  0.028545956  0.028907955            1 
  993000    1.0755997   -7.4265838    340.06408  0.028538442  0.028900568            1 
  994000    1.0941602   -7.4062422    340.05329  0.028508827  0.028893095            2 
  995000    1.1158652   -7.3865611    341.73222  0.028620789  0.028885822            1 
  996000    1.0844493   -7.4415843    340.70832  0.028506386  0.028878539            1 
  997000     1.084093   -7.4423381    340.24534  0.028439096  0.028871289            1 
  998000    1.0965209    -7.420066    342.20742  0.028574434  0.028864173            2 
  999000    1.0963557   -7.4450062    340.62119  0.028413513  0.028856783            2 
 1000000    1.0810804   -7.4199637    340.22834  0.028352362  0.028849266            4 
 1001000    1.0858574   -7.4535337     340.9359  0.028382942  0.028841757            1 
 1002000    1.0657975    -7.399235    341.13659  0.028371307  0.028834268            3 
 1003000    1.0914679   -7.3676203    342.52457  0.028458339  0.028826821            2 
 1004000     1.103979   -7.4376827    341.40956  0.028337446  0.028819388            2 
 1005000    1.1221512   -7.4261243    341.34438  0.028303845   0.02881179            1 
 1006000    1.0879969   -7.4070844    342.71948  0.028389619  0.028803998            2 
 1007000    1.0992456   -7.4028389    343.90423   0.02845947  0.028796693            1 
 1008000    1.0810996   -7.3972868    343.57236    0.0284038  0.028789548            2 
 1009000    1.0809692   -7.4294621    344.47176   0.02844993   0.02878228            2 
 1010000    1.0693564   -7.3719796    344.52986  0.028426556  0.028774921            2 
 1011000    1.0649938   -7.3988274    344.76052  0.028417451  0.028767577            2 
 1012000    1.1130303   -7.3678125    345.41825  0.028443532  0.028760236            2 
 1013000    1.0933607   -7.4282997    345.21233  0.028398513  0.028752606            2 
 1014000    1.0881233    -7.447808    343.67491  0.028244157  0.028744777            2 
 1015000    1.0935117   -7.4442249    344.33728  0.028270713  0.028736871            2 
 1016000     1.099113   -7.4056498    345.58307  0.028345068  0.028729325            3 
 1017000     1.086076   -7.4046726     345.2979   0.02829383   0.02872165            3 
 1018000    1.1134971   -7.3839164    345.05797  0.028246396  0.028713934            1 
 1019000    1.0952954   -7.3708394     346.0427  0.028299207  0.028706255            2 
 1020000    1.0710215     -7.41609     345.4708  0.028224738   0.02869871            1 
 1021000    1.0708033   -7.4452107    346.22731   0.02825884  0.028690893            1 
 1022000    1.0875693   -7.4335736    347.11883  0.028303884   0.02868313            2 
 1023000     1.106676   -7.4315982    346.35714  0.028214169  0.028675281            1 
 1024000    1.1047104   -7.4197512    346.77473    0.0282206  0.028667497            1 
 1025000    1.0970976   -7.4150419    347.40266  0.028244119   0.02865976            2 
 1026000    1.0759136   -7.4248748    348.28503  0.028288258  0.028651956            1 
 1027000    1.0941064   -7.4156557    348.94566  0.028314318  0.028644262            1 
 1028000    1.0780233   -7.4245039    348.60733  0.028259349  0.028636661            1 
 1029000    1.0930814   -7.3907846    347.71391  0.028159532  0.028628865            2 
 1030000    1.0885994    -7.420576    348.91764  0.028229583  0.028620946            2 
 1031000    1.0881642   -7.4336189    348.64909  0.028180496  0.028613283            1 
 1032000    1.0597692   -7.4148833    348.94905  0.028177411  0.028605683            2 
 1033000    1.1104128   -7.4154584    349.53584  0.028197471  0.028598018            2 
 1034000    1.0578322   -7.4271711    348.39832  0.028078523  0.028590293            1 
 1035000    1.0936043   -7.4539997     349.4662  0.028137375  0.028582572            3 
 1036000    1.0684815   -7.4184984    350.50765  0.028193987  0.028574896            2 
 1037000     1.081497   -7.4109931    350.88615  0.028197215  0.028567314            1 
 1038000    1.0893048    -7.449233     350.7942  0.028162668  0.028559791            2 
 1039000     1.090795   -7.4196624    351.21583   0.02816938  0.028552258            2 
 1040000    1.0788436   -7.4047284    351.11524  0.028134234  0.028544863            6 
 1041000    1.0796221   -7.4089625    352.40498  0.028210453  0.028537408            3 
 1042000    1.0606898   -7.3960834    352.35738  0.028179573  0.028530009            2 
 1043000    1.0913988   -7.4523284    351.70845  0.028100707  0.028522642            1 
 1044000    1.0861287   -7.4290841    353.20388  0.028193158   0.02851521            2 
 1045000    1.0628825   -7.4224737    351.86945  0.028059765  0.028507631            2 
 1046000    1.0670301   -7.4395595    353.47926   0.02816119  0.028499977            1 
 1047000    1.0888103   -7.4328359    352.93804  0.028091216  0.028492218            2 
 1048000    1.0865147   -7.4452655    352.19986  0.028005714  0.028484339            1 
 1049000    1.0866317   -7.4315332    353.44103  0.028077616  0.028476624            2 
 1050000     1.077343   -7.4788956    353.59447  0.028063053  0.028469234            3 
 1051000    1.0960651   -7.4376761    353.86993  0.028058193  0.028461972            2 
 1052000    1.0820037   -7.3931922    356.06231   0.02820519  0.028454579            1 
 1053000    1.0572428   -7.4158443    355.32739  0.028120243   0.02844738            2 
 1054000    1.0714245   -7.4162422    355.08846  0.028074673  0.028440161            2 
 1055000    1.0716562   -7.4491251    354.93717  0.028036111  0.028432827            2 
 1056000    1.0958202   -7.4500806     355.3614  0.028043039  0.028425512            4 
 1057000    1.0797953   -7.4175992    357.21054  0.028162294  0.028418216            1 
 1058000    1.0755707    -7.468368    356.66305  0.028092553  0.028411025            2 
 1059000    1.0853667   -7.4045799    355.98439  0.028012621   0.02840392            2 
 1060000    1.0503159   -7.4031962    357.37498  0.028095517  0.028396815            3 
 1061000    1.0741264   -7.4616721    356.13791  0.027971875  0.028389599            1 
 1062000    1.0755654   -7.4292753    356.75943  0.027994306   0.02838233            2 
 1063000    1.0875628   -7.4373263    357.32439   0.02801226  0.028375107            3 
 1064000    1.0520113   -7.4267062    357.98257  0.028037482  0.028367776            1 
 1065000    1.0790926   -7.4183275    357.42311  0.027967379  0.028360495            2 
 1066000    1.0774502   -7.4399957    357.93792  0.027981389  0.028353015            2 
 1067000     1.061222   -7.3934529    358.89896  0.028030222  0.028345694            1 
 1068000    1.0390929   -7.4717356    358.27551   0.02795533  0.028338056            5 
 1069000    1.0496514   -7.4716981    357.68733  0.027883328  0.028330269            2 
 1070000    1.0882852    -7.452843    358.98625   0.02795843  0.028322814            1 
 1071000    1.0745728   -7.4300379    358.18346  0.027869862  0.028315078            1 
 1072000    1.0676119   -7.4315966    359.38367  0.027937163   0.02830741            1 
 1073000    1.0778666    -7.443247    358.86081   0.02787052  0.028299871            1 
 1074000    1.0675943    -7.425182    359.98414   0.02793173  0.028292211            1 
 1075000    1.0814478   -7.4468213    359.68076  0.027882229  0.028284678            3 
 1076000     1.083241   -7.4164942     362.6069  0.028082938  0.028277264            2 
 1077000    1.0683602   -7.4748257    359.93817  0.027850369  0.028269721            4 
 1078000    1.0952398   -7.4260443    362.29185  0.028006482   0.02826227            1 
 1079000    1.0666428   -7.4640459    361.01817  0.027882157  0.028255018            3 
 1080000    1.0954342   -7.4562276    361.87462  0.027922425  0.028247574            1 
 1081000    1.0884604   -7.4390932     362.1265  0.027916011  0.028240459            1 
 1082000    1.0887264   -7.4434776    363.40812  0.027988919  0.028233406            1 
 1083000    1.0774416   -7.4773642    362.94553   0.02792748   0.02822643            3 
 1084000    1.0724164   -7.4039051     364.7077  0.028037185  0.028219561            2 
 1085000    1.0512223   -7.4345905    366.44013  0.028144403  0.028212809            1 
 1086000    1.0715542   -7.4641094    364.49408  0.027969159  0.028206005            2 
 1087000    1.0603432   -7.4294751    364.95553  0.027978805  0.028199021            1 
 1088000    1.0707578   -7.4269848    364.94071  0.027951954  0.028192014            2 
 1089000    1.0730116   -7.4606602    365.10438  0.027938811  0.028185053            1 
 1090000    1.0836869   -7.4170832     365.4831  0.027942133  0.028178181            1 
 1091000    1.0911707   -7.4411298    366.37115  0.027984353  0.028171384            2 
 1092000    1.0780218   -7.4413059    364.91531  0.027847627  0.028164563            3 
 1093000    1.0720708   -7.4452072    366.10691     0.027913   0.02815766            3 
 1094000    1.0886644   -7.4413841    366.89788  0.027947736  0.028150617            1 
 1095000    1.0757499     -7.43964    366.21222  0.027870032  0.028143648            1 
 1096000    1.0610417   -7.4687565    365.90547   0.02782128  0.028136703            2 
 1097000    1.0373368    -7.433737    366.77292  0.027861814  0.028129606            5 
 1098000    1.0722698    -7.397136    367.04704  0.027857243  0.028122378            1 
 1099000    1.0851173   -7.4279036    366.26435  0.027772547  0.028115305            1 
 1100000    1.0704426   -7.4323791    367.90119  0.027871302  0.028108064            3 
 1101000    1.0902726   -7.4573004    368.19183  0.027867986  0.028100904            1 
 1102000    1.0988144   -7.4589066    367.76759  0.027810616   0.02809389            1 
 1103000     1.078375   -7.4662445    368.11249   0.02781146  0.028086778            2 
 1104000    1.0937036   -7.4702401    368.03373  0.027780324  0.028079709            2 
 1105000    1.0805901   -7.5128726    367.82199  0.027739215  0.028072802            1 
 1106000    1.0857404   -7.4743284     369.7691  0.027860842  0.028065611            2 
 1107000    1.0768934   -7.4798694    368.90662  0.027770748  0.028058426            2 
 1108000     1.113899   -7.4443513    369.78232  0.027811546  0.028051427            2 
 1109000    1.0776212   -7.4327458    370.07498   0.02780846  0.028044388            2 
 1110000    1.0705784   -7.4418684    369.29009  0.027724482  0.028037361            1 
 1111000    1.0830075   -7.4794673    370.67996  0.027803777  0.028030291            1 
 1112000    1.0801131    -7.468685    369.70316  0.027705573  0.028023444            1 
 1113000    1.0822646   -7.4387273    371.32366  0.027802011  0.028016731            2 
 1114000    1.0727702   -7.4148413    372.21312  0.027843591  0.028009889            1 
 1115000    1.0466996   -7.4382446    372.00629  0.027803161  0.028003025            1 
 1116000    1.0634225   -7.4398742    371.96036  0.027774818     0.027996            2 
 1117000    1.0890501   -7.4597997    372.65826  0.027802019  0.027989258            3 
 1118000     1.081888   -7.5039698    370.25727  0.027598186  0.027982338            2 
 1119000    1.0936122   -7.4337143     373.0018  0.027777912  0.027975316            1 
 1120000    1.0802772   -7.4456119      372.632  0.027725595  0.027968372            2 
 1121000    1.0886216   -7.4459623    373.30852  0.027751153  0.027961454            1 
 1122000    1.0808591   -7.4744273     372.7664  0.027686155  0.027954684            4 
 1123000    1.0842694   -7.4244788    373.97963  0.027751531  0.027947676            2 
 1124000    1.0677014   -7.4569494    372.92889  0.027648939  0.027940552            2 
 1125000    1.0844779   -7.4530057    373.12716  0.027639049  0.027933351            3 
 1126000    1.0788387   -7.5106756    372.62259   0.02757716  0.027926112            3 
 1127000    1.0959028   -7.4336834    374.62083  0.027700446  0.027918906            1 
 1128000      1.07406   -7.4613645    374.34338  0.027655391  0.027911744            3 
 1129000    1.0633016   -7.4499501    374.65442  0.027653854  0.027904711            3 
 1130000    1.0632314   -7.4710489    375.60467  0.027699459  0.027897741            2 
 1131000    1.0666476   -7.4867752    374.32005  0.027580316  0.027890759            3 
 1132000    1.0544867     -7.45712    375.17304  0.027618745  0.027883976            1 
 1133000    1.0669987    -7.449306    375.82549  0.027642357  0.027877072            3 
 1134000    1.0524486   -7.4502425    374.74869  0.027538851   0.02787016            1 
 1135000    1.0515916   -7.5240258    374.48603  0.027495303  0.027863128            2 
 1136000    1.0728526   -7.4738239    374.82771  0.027496164  0.027856056            3 
 1137000     1.056004   -7.4489869    375.43167  0.027516247  0.027848955            1 
 1138000    1.0596809   -7.4588564    377.42093  0.027637736   0.02784198            4 
 1139000    1.0865402   -7.4899487    376.74172  0.027563778  0.027835123            1 
 1140000    1.0580944   -7.4578169    377.69609  0.027609363  0.027828059            1 
 1141000    1.0719498   -7.4520729    376.56353  0.027502449  0.027820935            4 
 1142000    1.0486748   -7.4781753    375.79043  0.027421952   0.02781372            3 
 1143000    1.0976785    -7.434993    377.73685   0.02753987  0.027806305            1 
 1144000    1.0795521   -7.4511422    377.91542  0.027528804  0.027799201            2 
 1145000    1.0724197   -7.4671547    378.33646  0.027535404  0.027792139            2 
 1146000    1.0699671   -7.4723717    377.79574  0.027472058  0.027784969            1 
 1147000    1.0637365   -7.4770378    378.14078  0.027473175  0.027777449            2 
 1148000    1.0591767    -7.433877    379.38985  0.027539914  0.027770217            2 
 1149000    1.0776552   -7.4528944    378.31476  0.027437972  0.027763133            2 
 1150000    1.0548979   -7.4531474    378.66459  0.027439463  0.027756045            2 
 1151000    1.0896585   -7.4487462    379.21671  0.027455597  0.027748901            1 
 1152000    1.0325378   -7.4529681    381.07624  0.027566279  0.027741805            3 
 1153000    1.0686263   -7.4354103    380.44268   0.02749658  0.027734781            2 
 1154000    1.0645189   -7.4519421    380.56052  0.027481262  0.027727602            1 
 1155000    1.0824449   -7.4616923    379.97645  0.027415328   0.02772033            2 
 1156000    1.0556305   -7.4623023    381.35798  0.027491204  0.027713006            2 
 1157000     1.067916    -7.456413    380.70435  0.027420365  0.027705664            1 
 1158000    1.0353812   -7.4828619    380.62718  0.027391133  0.027698349            1 
 1159000     1.085967   -7.4404203    381.19682  0.027408457  0.027691106            2 
 1160000    1.0636212   -7.4940576    379.44283  0.027258824   0.02768383            4 
 1161000    1.0575942   -7.4509064    382.05962  0.027423171  0.027676609            1 
 1162000    1.0613197   -7.4846907    380.23727  0.027268881  0.027669351            2 
 1163000    1.0700049   -7.4612361    380.90686  0.027293412  0.027661964            1 
 1164000    1.0759675   -7.4433333    382.84113  0.027408443  0.027654538            2 
 1165000    1.0633114   -7.5113341     381.9351  0.027320107  0.027646987            2 
 1166000    1.0660512   -7.4498564    383.09832  0.027379812  0.027639588            1 
 1167000    1.0955417    -7.472453    382.47956  0.027312165  0.027632247            3 
 1168000    1.0598643     -7.47026     383.5318  0.027363856  0.027624991            2 
 1169000    1.0652523   -7.4832704     382.8497  0.027291823  0.027617669            2 
 1170000    1.0800004   -7.4513869    383.45416   0.02731155  0.027610435            4 
 1171000    1.0434451   -7.4828307    383.89212  0.027319394  0.027603175            1 
 1172000    1.0511672   -7.4943764    383.79738  0.027289347  0.027595898            2 
 1173000    1.0659996   -7.4394174      385.609  0.027394785  0.027588718            2 
 1174000    1.0724093   -7.5037881     385.0136  0.027329188   0.02758161            2 
 1175000    1.0687792   -7.4998739    384.40594  0.027262833  0.027574343            4 
 1176000    1.0547825   -7.4617623    385.21573  0.027297033  0.027567158            3 
 1177000     1.088923   -7.4721878    386.44698  0.027361015   0.02756014            1 
 1178000    1.0882555   -7.4983223    386.16692  0.027317977  0.027553163            2 
 1179000    1.0841065   -7.4174968    387.59717  0.027395898  0.027546212            3 
 1180000    1.0694493   -7.4901193    386.62318  0.027303897   0.02753938            1 
 1181000     1.048923   -7.4346434    387.24304  0.027324516  0.027532402            4 
 1182000    1.0588943   -7.4491487    388.17222  0.027366908  0.027525416            2 
 1183000    1.0863411   -7.4839408    386.08899  0.027197027   0.02751865            4 
 1184000    1.0883935   -7.4760186    387.98156  0.027307261  0.027511594            1 
 1185000    1.0616422   -7.5048886    386.54287  0.027183043  0.027504471            1 
 1186000     1.057567   -7.4852689    387.00288  0.027192445  0.027497548            2 
 1187000     1.065041   -7.4692823    387.98146  0.027238238  0.027490572            6 
 1188000    1.0573509   -7.4811127     389.0568  0.027290741  0.027483765            3 
 1189000    1.0541827   -7.4686262    389.62626    0.0273077  0.027477052            1 
 1190000    1.0642716   -7.5135737    389.53299  0.027278221   0.02747012            1 
 1191000    1.0846274   -7.4997808    389.87757  0.027279427  0.027463394            3 
 1192000    1.0647829   -7.4411803    390.05629  0.027269036  0.027456776            2 
 1193000    1.0684372    -7.465742    390.89508   0.02730477  0.027450219            1 
 1194000    1.0594659   -7.4820394    391.09755  0.027296032   0.02744365            2 
 1195000    1.0363446   -7.4966017    391.19508  0.027279991  0.027437058            2 
 1196000    1.0732631   -7.4855477    391.22177  0.027259042  0.027430362            2 
 1197000    1.0464586   -7.4734077    391.89376  0.027283052  0.027423607            2 
 1198000    1.0562525    -7.463006    392.29764  0.027288372   0.02741692            2 
 1199000    1.0896654   -7.4809221    390.91516  0.027169528  0.027410055            1 
 1200000    1.0628399   -7.5036929    391.91947   0.02721663  0.027403245            2 
 1201000    1.0548961   -7.4977677    391.32644   0.02715282  0.027396417            1 
 1202000    1.0671154   -7.4887972    391.05167  0.027111181   0.02738964            4 
 1203000    1.0575319   -7.4699211    391.30198  0.027105984  0.027382703            1 
 1204000    1.0541259   -7.4839354    391.83374  0.027120276  0.027375636            6 
 1205000    1.0585607      -7.4896    391.93303  0.027104635  0.027368595            1 
 1206000    1.0409838   -7.4958984    392.77199  0.027140132  0.027361589            2 
 1207000    1.0567267   -7.4815841      392.479  0.027097418   0.02735476            2 
 1208000    1.0518893   -7.4973198     393.4887   0.02714464  0.027347932            6 
 1209000    1.0457801   -7.5052052    394.63199  0.027200992  0.027341189            1 
 1210000     1.057562   -7.4367678    394.42664  0.027164369  0.027334295            1 
 1211000    1.0546752   -7.4875025    394.08564  0.027118472  0.027327643            2 
 1212000    1.0387918   -7.4956994    393.97921   0.02708878  0.027320874            2 
 1213000    1.0639245   -7.4655014    393.63247  0.027042627  0.027313887            2 
 1214000    1.0658775    -7.490207    393.70976  0.027025657  0.027306746            3 
 1215000    1.0635764   -7.5073216    393.82526  0.027011335  0.027299542            1 
 1216000    1.0781876   -7.5175942    394.46879  0.027033223  0.027292436            1 
 1217000    1.0891654   -7.5434447    393.33954  0.026933686  0.027285352            2 
 1218000    1.0581622   -7.5387468    396.08813  0.027099626  0.027278244            1 
 1219000    1.0883018   -7.4821813    395.50973  0.027037854  0.027271223            1 
 1220000    1.0521711   -7.4654247    395.55087  0.027018502  0.027264111            3 
 1221000       1.0427   -7.5177829    394.30335  0.026911231   0.02725691            1 
 1222000    1.0705113   -7.5012374    394.77867  0.026921622  0.027249541            2 
 1223000    1.0584475   -7.4412974    396.42554  0.027011825  0.027242177            1 
 1224000    1.0526271   -7.5544817    395.66105  0.026937708  0.027234951            1 
 1225000    1.0533728   -7.4985209    396.02755   0.02694065  0.027227609            1 
 1226000    1.0466722   -7.5473305     394.8511   0.02683871  0.027220272            1 
 1227000    1.0573075   -7.4785968    397.65922  0.027007554  0.027212958            2 
 1228000    1.0419632   -7.4737251    397.63691  0.026984046  0.027205855            2 
 1229000    1.0536918    -7.511199    396.30253  0.026871612  0.027198672            2 
 1230000    1.0518658   -7.4852314    397.68874  0.026943682  0.027191583            3 
 1231000    1.0425478   -7.4801614    398.03139   0.02694499  0.027184379            1 
 1232000    1.0754722   -7.4856367    398.34313  0.026944205  0.027177209            3 
 1233000    1.0553593    -7.517475    397.83911  0.026888288  0.027170082            1 
 1234000     1.061745   -7.4967932    399.22426  0.026960039  0.027162901            2 
 1235000    1.0723356   -7.4735152     398.8839  0.026915243   0.02715579            1 
 1236000    1.0500714   -7.4647863    400.02802  0.026970605  0.027148681            2 
 1237000    1.0499206   -7.5067557    399.13597  0.026888707  0.027141695            1 
 1238000    1.0527003    -7.505874    399.88275  0.026917255  0.027134495            2 
 1239000    1.0561243   -7.5330382    398.70932  0.026816607  0.027127245            2 
 1240000    1.0571028   -7.5116861      400.145  0.026891465  0.027119988            1 
 1241000    1.0297117   -7.4937739    399.85674  0.026850439  0.027112755            2 
 1242000    1.0676536   -7.5363603    399.23211   0.02678691  0.027105583            2 
 1243000    1.0789462   -7.4987047    400.12476  0.026825205  0.027098271            1 
 1244000     1.045784   -7.4942706    399.95202   0.02679207  0.027091123            3 
 1245000    1.0555666   -7.4962736    400.37382  0.026798783  0.027084014            2 
 1246000    1.0441202   -7.5017792    401.36688  0.026843691  0.027076887            1 
 1247000    1.0416986   -7.5049739    401.41595  0.026825444   0.02706977            2 
 1248000    1.0616329   -7.5502233    399.83344   0.02669828  0.027062636            3 
 1249000    1.0554172   -7.5578105    400.67447  0.026733018   0.02705532            2 
 1250000    1.0563672    -7.498838    401.34679  0.026756453  0.027048132            3 
 1251000    1.0505931   -7.5397592    402.02277  0.026780094  0.027040944            1 
 1252000    1.0602652   -7.4955169    402.85753  0.026814266  0.027033852            2 
 1253000    1.0489488    -7.497943    403.65037  0.026845595  0.027026759            2 
 1254000    1.0684928   -7.5216536    403.00625  0.026781383  0.027019814            3 
 1255000    1.0601473    -7.515865    403.71185  0.026806896  0.027012783            1 
 1256000    1.0405719   -7.5138182    402.76671  0.026722844  0.027005769            1 
 1257000    1.0660228    -7.519619     403.1797  0.026728964  0.026998874            2 
 1258000    1.0447557   -7.5290889    405.16674  0.026839344  0.026991954            2 
 1259000    1.0409481   -7.4886184    405.95161  0.026869977  0.026985145            1 
 1260000    1.0370495   -7.4803084    405.88284  0.026844103  0.026978355            2 
 1261000      1.03793   -7.5108389    406.19577  0.026843495  0.026971696            2 
 1262000    1.0555248   -7.4997009     405.7004  0.026789514  0.026965115            2 
 1263000    1.0616849    -7.526878    405.77786  0.026773414  0.026958542            2 
 1264000    1.0491171   -7.4871281    406.35623  0.026790364  0.026951775            2 
 1265000    1.0344753   -7.5015684    406.27578  0.026763885  0.026944943            1 
 1266000    1.0514353   -7.4849917    406.96728  0.026788262  0.026938249            2 
 1267000    1.0439552   -7.5162088    407.21264  0.026783257  0.026931448            3 
 1268000     1.045788   -7.5200891    405.78747  0.026668472  0.026924533            1 
 1269000    1.0473953   -7.5158156    408.15368  0.026802842  0.026917542            1 
 1270000    1.0484826   -7.5423917    407.41446  0.026733232  0.026910722            1 
 1271000    1.0673399     -7.53121    406.46136  0.026649709  0.026903645            2 
 1272000      1.04739   -7.4690876    408.18848  0.026741908  0.026896872            3 
 1273000    1.0585795   -7.5369114    407.40388  0.026669539  0.026890054            1 
 1274000    1.0638682   -7.5373598     407.8877  0.026680252  0.026883018            5 
 1275000    1.0551062   -7.4980329    407.76164  0.026651087  0.026875921            3 
 1276000    1.0337147   -7.5243499    408.21923  0.026660086  0.026869028            2 
 1277000    1.0514064   -7.5331816    407.73192  0.026607408   0.02686209            2 
 1278000     1.055453   -7.5714782    406.83427  0.026528056  0.026855082            5 
 1279000    1.0557076   -7.4873827     409.6775  0.026692566  0.026848078            1 
 1280000    1.0521434   -7.5155911    409.80368  0.026679927  0.026841166            3 
 1281000    1.0410912   -7.4779266    409.77762  0.026657404  0.026834251            1 
 1282000    1.0329185   -7.5395352    409.19068  0.026598458  0.026827314            1 
 1283000    1.0540741   -7.4992139    409.12984  0.026573775  0.026820337            2 
 1284000    1.0543722   -7.5391104    408.84745  0.026534751  0.026813387            2 
 1285000    1.0584724   -7.5228866    409.82412   0.02657744  0.026806459            2 
 1286000    1.0719321   -7.5431382    409.94368  0.026564521  0.026799489            1 
 1287000    1.0498935   -7.5216384    410.45534   0.02657701  0.026792602            2 
 1288000    1.0308978   -7.4684505    411.86409  0.026647521  0.026785753            3 
 1289000    1.0398677   -7.5078872    411.17735  0.026582451  0.026779165            3 
 1290000    1.0325006   -7.5270761    412.58543  0.026652806   0.02677246            5 
 1291000    1.0523017   -7.5141322    412.47492  0.026625027  0.026765726            2 
 1292000    1.0505869   -7.5712941    412.20947  0.026587298  0.026759034            1 
 1293000    1.0447219   -7.5423466    413.69078  0.026662205  0.026752341            7 
 1294000    1.0481334   -7.5223706     412.9292  0.026592555  0.026745692            2 
 1295000    1.0384792   -7.5197197    412.65045  0.026554083  0.026739045            1 
 1296000    1.0464672   -7.5106362    414.65042  0.026662193  0.026732473            1 
 1297000    1.0371179   -7.5703963    413.11847  0.026543206   0.02672561            1 
 1298000    1.0611673   -7.5331265     413.6321  0.026555733  0.026718744            2 
 1299000    1.0439828    -7.516874    413.19558  0.026507286  0.026711945            3 
 1300000    1.0312671   -7.5378334    413.91198  0.026532819  0.026705128            2 
 1301000    1.0280092   -7.5317233     414.2775  0.026535838  0.026698401            1 
 1302000    1.0277915   -7.5436404    413.62385  0.026473621  0.026691682            2 
 1303000    1.0511378    -7.564099    413.45286  0.026442367  0.026684926            1 
 1304000    1.0528339   -7.5703084    414.29845  0.026476128  0.026678097            2 
 1305000    1.0541661   -7.5269467    414.74102  0.026484101   0.02667129            2 
 1306000     1.026455   -7.5611767    414.64751  0.026457855  0.026664446            1 
 1307000    1.0247282   -7.5453236    415.43891  0.026488071  0.026657651            3 
 1308000    1.0772708   -7.5498711    415.41343  0.026466197  0.026651022            3 
 1309000    1.0720155   -7.5151664    416.18264  0.026494948  0.026644509            1 
 1310000    1.0293764   -7.5277154    416.93448   0.02652255  0.026637878            1 
 1311000    1.0493699   -7.5628452    416.26248  0.026459604  0.026631226            2 
 1312000     1.043605   -7.5231886    417.07441  0.026491007  0.026624525            4 
 1313000    1.0394037    -7.534477    416.42632  0.026429698  0.026617796            2 
 1314000    1.0556958    -7.583919    416.68264   0.02642584  0.026611169            2 
 1315000    1.0530729   -7.5114522     417.9848  0.026488264  0.026604485            1 
 1316000    1.0541835   -7.5540747    417.62545  0.026445381  0.026597884            3 
 1317000    1.0572809   -7.5678064    417.22441  0.026399925  0.026591216            1 
 1318000    1.0405213   -7.5758337    416.08893  0.026308101  0.026584334            2 
 1319000    1.0308711   -7.5323412     419.2655  0.026488849  0.026577593            3 
 1320000    1.0382761   -7.5184234    419.47825  0.026482213  0.026571005            2 
 1321000    1.0444868   -7.5098352    419.16819  0.026442606  0.026564569            2 
 1322000    1.0309527   -7.5310436    418.97036  0.026410134   0.02655805            1 
 1323000    1.0363175   -7.5472982    418.52495  0.026362116  0.026551371            4 
 1324000    1.0357589   -7.5253087    421.07378   0.02650263  0.026544753            1 
 1325000    1.0382184   -7.5035432    420.94135  0.026474299  0.026538377            2 
 1326000    1.0264238   -7.5053081    422.33729  0.026542062  0.026532022            2 
 1327000    1.0717109   -7.5593209    420.00684  0.026375712  0.026525475            4 
 1328000    1.0517226   -7.5716934    420.46199  0.026384412   0.02651888            2 
 1329000    1.0299908    -7.500483    422.72448  0.026506426  0.026512325            1 
 1330000    1.0639939   -7.5201426    422.11648  0.026448401  0.026505758            2 
 1331000    1.0327673   -7.5490917    422.17358  0.026432105  0.026499387            2 
 1332000    1.0295404    -7.519067    422.98827   0.02646323  0.026492963            3 
 1333000    1.0176044   -7.5669879    421.31487  0.026338764  0.026486518            4 
 1334000    1.0369506   -7.4988134    422.85192  0.026415037  0.026480108            1 
 1335000    1.0619162   -7.5013462    423.44121  0.026432035  0.026473864            2 
 1336000    1.0494286   -7.5451991    423.62905  0.026423968  0.026467507            3 
 1337000    1.0369949   -7.5571549    423.19246  0.026376992  0.026461138            2 
 1338000    1.0168448   -7.5495213    423.32586  0.026365587  0.026454702            1 
 1339000    1.0264847   -7.5307484    424.58243  0.026424099  0.026448375            3 
 1340000    1.0319526   -7.5036121    425.19925  0.026442739  0.026442204            1 
 1341000    1.0220984   -7.5165943    424.07465  0.026353135  0.026436006            2 
 1342000    1.0344938   -7.5541503    424.16361  0.026339022  0.026429683            2 
 1343000    1.0215028   -7.4907625    425.91271  0.026427942  0.026423412            2 
 1344000    1.0171897   -7.5509967    424.88343  0.026344459  0.026417118            4 
 1345000    1.0301865   -7.5618163    424.94592  0.026328743  0.026410845            2 
 1346000    1.0379121   -7.5474983    425.24114   0.02632746  0.026404613            1 
 1347000    1.0474659   -7.5869988     425.8528  0.026345756  0.026398373            1 
 1348000    1.0281206   -7.5470608    426.66331  0.026376317  0.026392207            1 
 1349000    1.0285239   -7.4734753    427.28463  0.026395146  0.026386198            1 
 1350000    1.0383063   -7.5116595    427.03005  0.026359879  0.026380116            3 
 1351000     1.044847   -7.5612725    426.99651  0.026338299  0.026373911            2 
 1352000    1.0464522    -7.567071    426.42834  0.026283798  0.026367705            2 
 1353000    1.0521432    -7.546263     427.2112  0.026312589  0.026361441            1 
 1354000    1.0287252   -7.5686872    425.98219  0.026217516  0.026355123            1 
 1355000    1.0134006   -7.5207353    427.53574  0.026293711  0.026348868            1 
 1356000    1.0455756   -7.5458819    428.07913  0.026307714  0.026342767            2 
 1357000    1.0173692   -7.5357569    428.31797  0.026302995  0.026336532            1 
 1358000    1.0144036    -7.556685    427.69603  0.026245461  0.026330062            1 
 1359000    1.0563378   -7.5431451    427.07642  0.026188154  0.026323609            1 
 1360000    1.0476974   -7.5634246    427.16687   0.02617444  0.026317129            1 
 1361000    1.0261471   -7.5500145    428.03814  0.026208556  0.026310673            1 
 1362000    1.0199634   -7.5446318    429.00483   0.02624846  0.026304188            3 
 1363000    1.0438267   -7.5209604    427.41598  0.026132061  0.026297669            4 
 1364000    1.0414778   -7.5606577    427.84885  0.026139348  0.026291263            2 
 1365000    1.0453317   -7.5586463    429.17824  0.026201358  0.026284793            2 
 1366000    1.0049625   -7.5071192    430.68714  0.026274228  0.026278287            2 
 1367000    1.0294964   -7.5590028    428.54629  0.026124499  0.026271762            1 
 1368000    1.0280974   -7.5414075    429.83672  0.026184011  0.026265194            2 
 1369000    1.0445066   -7.5444728    429.13004  0.026121868   0.02625863            2 
 1370000    1.0266744   -7.5669675    427.89207  0.026027498  0.026251954            1 
 1371000     1.033795   -7.5646871    429.16143  0.026085669  0.026245043            1 
 1372000    1.0305255   -7.5301226    430.21186  0.026130458  0.026238228            1 
 1373000    1.0549945   -7.5847605    430.10808  0.026105127  0.026231511            1 
 1374000    1.0396001   -7.5838651    429.70126  0.026061455  0.026224711            1 
 1375000    1.0342579   -7.5482116    430.19019  0.026072133  0.026217918            1 
 1376000    1.0174334   -7.5756553    429.38946  0.026004691  0.026211148            1 
 1377000    1.0144208    -7.552215    431.24712  0.026098228  0.026204429            2 
 1378000    1.0232234   -7.6085727    430.86019   0.02605589   0.02619761            1 
 1379000     1.045299   -7.5846954    430.86689    0.0260374  0.026190865            3 
 1380000     1.026146   -7.5475589     430.8337  0.026016528  0.026184068            5 
 1381000    1.0098078   -7.5760542    430.86572  0.025999621  0.026177383            3 
 1382000    1.0187941   -7.5508327    432.24843  0.026064184  0.026170664            3 
 1383000    1.0303152   -7.5661885    432.64469  0.026069215  0.026163932            2 
 1384000    1.0158537   -7.5587995    431.98589  0.026010711  0.026157185            1 
 1385000    1.0445976   -7.5465432    431.63342  0.025970723  0.026150544            1 
 1386000    1.0333911   -7.5712167    433.28347  0.026051194  0.026143889            1 
 1387000    1.0181392   -7.5475598    432.79545  0.026003091  0.026137302            2 
 1388000    1.0567138   -7.5419034    433.07523  0.026001154  0.026130661            2 
 1389000    1.0212863    -7.534257    433.18585  0.025989072  0.026124043            1 
 1390000    1.0090061   -7.5442102    434.23215  0.026033102  0.026117354            2 
 1391000    1.0263496   -7.5704824    433.53854  0.025972834  0.026110772            1 
 1392000   0.99839693   -7.5725856    433.54035  0.025954283  0.026104131            2 
 1393000    1.0193784    -7.543118    433.60536   0.02593954  0.026097425            3 
 1394000    1.0199236   -7.5699039    433.88758  0.025937804  0.026090804            2 
 1395000    1.0248111   -7.5342396    434.95544  0.025983001  0.026084207            1 
 1396000    1.0408998   -7.5215385    436.22042  0.026039901  0.026077582            2 
 1397000    1.0225306   -7.5791638    434.02358  0.025890216  0.026071001            1 
 1398000    1.0223803   -7.5680425    432.94643  0.025807488  0.026064172            3 
 1399000    1.0231708   -7.5578404    434.88168  0.025904317  0.026057307            1 
 1400000    1.0183387   -7.4806673     434.8065  0.025881339  0.026050389            1 
 1401000    1.0161701   -7.5569133    434.90157   0.02586852  0.026043446            1 
 1402000    1.0354777   -7.6076186    432.18423  0.025688554  0.026036388            1 
 1403000    1.0380968   -7.5462964    433.09368  0.025724262  0.026029373            2 
 1404000    1.0375073   -7.5185402    435.49425  0.025848424  0.026022343            2 
 1405000    1.0413598   -7.6011247    434.20243  0.025753406  0.026015206            4 
 1406000    1.0247771   -7.5591112    435.85859  0.025833249  0.026007995            2 
 1407000    1.0310162   -7.5818047    434.91191  0.025758819  0.026000894            3 
 1408000    1.0418403   -7.5462724    435.37376   0.02576786  0.025993834            1 
 1409000    1.0117446   -7.5435408    435.91065  0.025781325  0.025986811            1 
 1410000    1.0348871   -7.5559191    436.08786  0.025773514  0.025979755            3 
 1411000    1.0325574   -7.5685198    435.97786  0.025748752  0.025972883            4 
 1412000    1.0228217   -7.5327355    437.25191  0.025805708  0.025965902            1 
 1413000   0.99757275   -7.5582295    437.59809  0.025807861  0.025959023            1 
 1414000    1.0284091    -7.543693    437.84223  0.025803997  0.025952201            1 
 1415000    1.0200232   -7.5252884     437.0194  0.025737303  0.025945231            2 
 1416000    1.0148267   -7.5200701    437.66675  0.025757224  0.025938214            2 
 1417000    1.0374542   -7.6241593    436.51058  0.025671053  0.025931153            3 
 1418000    1.0103775   -7.5716373    436.75747  0.025667458  0.025924007            3 
 1419000    1.0133803   -7.5812431    437.85933  0.025714079  0.025916819            1 
 1420000    1.0298223   -7.5700624    435.91631  0.025581943  0.025909668            2 
 1421000    1.0231102   -7.5708534    436.06923  0.025572908  0.025902409            4 
 1422000    1.0585177   -7.5531919    438.50705  0.025697788  0.025895288            2 
 1423000    1.0248317   -7.5486163    437.92765  0.025645798  0.025888061            1 
 1424000     1.016117   -7.5910997    439.03575  0.025692635  0.025880956            2 
 1425000    1.0208464   -7.5956166    438.27503  0.025630119  0.025873866            2 
 1426000    1.0067312   -7.5782362    439.61321  0.025690347  0.025866851            2 
 1427000    1.0224524   -7.6003556    438.28533  0.025594798   0.02585985            1 
 1428000    1.0389978   -7.5948112    439.37725  0.025640596  0.025852834            1 
 1429000    1.0331589   -7.5801688    438.72878  0.025584837  0.025845921            2 
 1430000    1.0209636   -7.5730161    440.26232  0.025656313  0.025838949            2 
 1431000    1.0043349   -7.6446483    438.43921  0.025532216  0.025831862            1 
 1432000    1.0272123   -7.5457832    440.00056  0.025605246  0.025824735            4 
 1433000   0.98775644   -7.5634966    439.75092  0.025572861  0.025817792            1 
 1434000    1.0372957   -7.5382153    441.41965  0.025652002   0.02581081            2 
 1435000    1.0055573    -7.590249     440.1381  0.025559704  0.025803776            1 
 1436000    1.0228736    -7.636746    440.03494  0.025535918  0.025796624            1 
 1437000    1.0320607   -7.5720889    440.60441  0.025551172  0.025789647            3 
 1438000    1.0324063   -7.5715931    440.98746  0.025555602  0.025782541            2 
 1439000    1.0195747    -7.587794    440.97408  0.025537067   0.02577546            2 
 1440000    1.0407644   -7.5727289    442.58669  0.025612656   0.02576855            3 
 1441000    1.0196352    -7.568921    443.46639  0.025645755  0.025761681            5 
 1442000    1.0071588   -7.5718584    444.14341  0.025667095  0.025754777            2 
 1443000    1.0331202   -7.5572829    443.42071  0.025607572  0.025747902            6 
 1444000     1.035935   -7.6119085    441.73699   0.02549267  0.025741053            1 
 1445000    1.0068392   -7.5187448    443.48702  0.025575953  0.025734136            2 
 1446000    1.0326339   -7.5828476    441.41713  0.025438977  0.025727263            2 
 1447000    1.0141039   -7.5870365    443.44026   0.02553791  0.025720358            3 
 1448000   0.99611641   -7.5938317    443.98941  0.025551877  0.025713484            2 
 1449000    1.0266109   -7.5725543    444.02231  0.025536134  0.025706492            2 
 1450000    1.0302689   -7.6206172    442.58735  0.025436054  0.025699392            3 
 1451000    1.0271453   -7.6365627      442.753  0.025428038   0.02569227            2 
 1452000     1.013705   -7.5885394    443.82317  0.025471945   0.02568498            5 
 1453000    1.0085854   -7.6263324    443.48203  0.025434849  0.025677814            2 
 1454000    1.0188834   -7.5575474    446.41278  0.025585327  0.025670871            2 
 1455000   0.99521095   -7.5619165    445.25162  0.025501238  0.025663934            2 
 1456000    1.0210383   -7.6263128    443.89684  0.025406183  0.025656954            2 
 1457000    1.0031697     -7.60177    445.90449  0.025503574  0.025650036            2 
 1458000    1.0123095    -7.573356    447.36884  0.025569778  0.025643214            1 
 1459000    1.0385396    -7.577815    447.14952  0.025539726  0.025636309            2 
 1460000    1.0209887   -7.5504798    446.90844  0.025508473  0.025629507            2 
 1461000    1.0064507   -7.5988389    446.29396  0.025455964  0.025622755            1 
 1462000    1.0205583   -7.6369462     446.6915  0.025461212  0.025615826            3 
 1463000    1.0208515   -7.5455392    447.18011   0.02547164  0.025608874            2 
 1464000     1.039871   -7.6372953    446.77396  0.025431122     0.025602            7 
 1465000    1.0116825   -7.5912392    447.24225  0.025440401  0.025595123            2 
 1466000   0.99695194   -7.6218578    447.21501  0.025421499  0.025588176            1 
 1467000    1.0159215   -7.6209628    447.04206  0.025394346  0.025581234            1 
 1468000    1.0188462   -7.5944405    448.20518  0.025443073  0.025574221            1 
 1469000    1.0140566   -7.5956354    446.90029   0.02535173  0.025567294            2 
 1470000    1.0175004   -7.5653472     447.9551   0.02539428  0.025560418            4 
 1471000    1.0102326    -7.600464    448.25701   0.02539412  0.025553636            1 
 1472000    1.0301657   -7.5966447    449.06512  0.025422618  0.025546785            2 
 1473000    1.0101929   -7.5694962    449.61424  0.025436425  0.025539911            2 
 1474000    1.0217594    -7.608324    447.60715  0.025305696  0.025533054            3 
 1475000    1.0161682   -7.6053957    449.43872  0.025392018  0.025526162            2 
 1476000    1.0158691   -7.6350461    448.70295  0.025333274  0.025519273            3 
 1477000    1.0555887   -7.5762017    449.86123  0.025381473  0.025512263            1 
 1478000    1.0326433    -7.618219    448.79951  0.025304438  0.025505374            1 
 1479000    1.0258012    -7.629221    449.47624  0.025325459  0.025498402            5 
 1480000    1.0224077   -7.5898031    450.11487  0.025344306  0.025491393            2 
 1481000    1.0325951   -7.5436746    451.43166  0.025401286   0.02548461            2 
 1482000    1.0061268   -7.5321189    451.01125  0.025360507  0.025477813            2 
 1483000    1.0154815   -7.5815098    450.19534  0.025297558  0.025471001            4 
 1484000    1.0305876   -7.5560523     449.8821  0.025262921  0.025464159            1 
 1485000    1.0325295    -7.595066    450.31055  0.025269952  0.025457304            2 
 1486000    1.0157574   -7.6048813    451.59976  0.025325245  0.025450379            2 
 1487000    1.0105377    -7.599001    449.33753  0.025181435  0.025443484            1 
 1488000    1.0106357   -7.6167688    449.52353  0.025174929  0.025436449            1 
 1489000    1.0083635   -7.6179542    450.80669  0.025229835   0.02542957            4 
 1490000    1.0192471   -7.6061372    451.13827  0.025231447  0.025422741            4 
 1491000    1.0083784   -7.5898378    451.63474  0.025242272  0.025415917            2 
 1492000    1.0000804   -7.5837929    452.64707  0.025281896  0.025409061            1 
 1493000    1.0217648   -7.5640959    453.28469  0.025300552  0.025402287            1 
 1494000      1.00459   -7.5688357    453.02377  0.025269064  0.025395514            2 
 1495000    1.0147867   -7.6045522     454.2535  0.025320708  0.025388785            2 
 1496000    1.0365908   -7.5802079    452.82078  0.025223974  0.025382076            1 
 1497000     1.014868   -7.5956251    452.92628  0.025212997  0.025375321            1 
 1498000   0.99971077   -7.5801013    454.14834  0.025264149  0.025368371            1 
 1499000    1.0268085   -7.6035604    453.98633  0.025238289  0.025361493            1 
 1500000    1.0140614   -7.6319118    453.88656   0.02521592  0.025354656            1 
 1501000    1.0114376   -7.6200629    453.63855  0.025185351  0.025347679            2 
 1502000   0.99901597   -7.6040799    454.16435  0.025197756  0.025340835            2 
 1503000    0.9940278   -7.5789675    455.26558  0.025242048  0.025333972            1 
 1504000    1.0118174   -7.5830712    454.37764  0.025176066  0.025327192            1 
 1505000    1.0232773   -7.6050894    455.54876  0.025224184  0.025320383            1 
 1506000    1.0015023   -7.6433336     454.5794  0.025153796    0.0253135            3 
 1507000    1.0305178   -7.5846275    454.44418  0.025129627  0.025306583            3 
 1508000    1.0187209   -7.5898573    455.19389  0.025154393  0.025299731            1 
 1509000    1.0149439   -7.6334434    454.46107  0.025097254  0.025292868            1 
 1510000   0.99721927    -7.605028    454.44544  0.025079771  0.025285854            1 
 1511000   0.98859404   -7.6382794    453.38556  0.025004719  0.025278778            1 
 1512000    1.0142497   -7.6173623     454.9302  0.025073314  0.025271727            2 
 1513000    1.0122532   -7.6206028    454.29875  0.025021962  0.025264763            2 
 1514000    1.0046278   -7.6032506    454.97175  0.025042478  0.025257697            1 
 1515000   0.99954915   -7.6175991     455.5457  0.025057519  0.025250623            1 
 1516000    1.0044196   -7.6325288     455.6576  0.025047142   0.02524365            1 
 1517000    1.0130686   -7.6033048     456.2598  0.025063711  0.025236637            2 
 1518000    1.0212019   -7.5661861    457.20621  0.025099155  0.025229623            1 
 1519000    1.0012087    -7.633657    455.45208  0.024986399   0.02522267            2 
 1520000    1.0042008   -7.6077961    456.32372  0.025017748  0.025215714            2 
 1521000    1.0363113   -7.5836699    457.64849  0.025073882  0.025208792            3 
 1522000   0.98835884    -7.573506    459.13817  0.025138971    0.0252018            2 
 1523000    1.0139475    -7.593759    456.80749  0.024994938  0.025194866            2 
 1524000    1.0261935   -7.6323259    457.32682  0.025006935  0.025187979            1 
 1525000    1.0007117   -7.6363928    456.99321  0.024972307  0.025181011            6 
 1526000   0.99739361   -7.6028441     458.5991  0.025043638  0.025174133            2 
 1527000    1.0096189   -7.6292925    457.71873  0.024979193  0.025167295            2 
 1528000    1.0122436   -7.5610214    459.48541  0.025059195  0.025160455            1 
 1529000    1.0009592    -7.584956    459.61578  0.025049912  0.025153612            2 
 1530000    1.0079086   -7.6058395    459.53996   0.02502941  0.025146754            3 
 1531000    1.0117261    -7.635249    458.70227  0.024967465  0.025139787            2 
 1532000    1.0353441   -7.6143562     459.5176  0.024995518  0.025133063            1 
 1533000    1.0230027   -7.5993929    459.26261  0.024965352   0.02512623            3 
 1534000   0.98658563   -7.6201678    458.68899  0.024917916  0.025119381            1 
 1535000   0.98779632   -7.6430267    458.30367  0.024880764  0.025112323            1 
 1536000    1.0015022   -7.6011223    459.81282  0.024946442  0.025105228            2 
 1537000    1.0106616   -7.6365858    459.48279  0.024912318  0.025098125            1 
 1538000    1.0004114   -7.5758997    460.79381  0.024967155  0.025091115            2 
 1539000    1.0224495   -7.5904326    459.12851   0.02486076  0.025084054            1 
 1540000    1.0197187   -7.6049977    460.11429  0.024897959  0.025077046            1 
 1541000    1.0163973   -7.6101132    461.50334  0.024956919  0.025069883            2 
 1542000   0.98338797   -7.6244989     458.9028  0.024800194  0.025062633            2 
 1543000    1.0038464   -7.5946586    459.61721  0.024822705  0.025055348            1 
 1544000   0.98731109   -7.6098764     459.4365  0.024796875   0.02504811            1 
 1545000    1.0005785   -7.6113276     459.8688  0.024804143  0.025040773            1 
 1546000    1.0024298   -7.6237532    459.96754  0.024793421  0.025033403            2 
 1547000    1.0003331   -7.6531615    459.09352  0.024730312  0.025025955            2 
 1548000   0.97343975   -7.6098398    459.24766  0.024722635   0.02501862            4 
 1549000    1.0151999   -7.6301204    459.05389   0.02469625  0.025011239            2 
 1550000    1.0307411   -7.6046318    460.08507  0.024735756  0.025003885            4 
 1551000   0.99634781   -7.6286906    460.28209  0.024730394  0.024996412            2 
 1552000    1.0035903   -7.5935652    461.01883  0.024754018  0.024989017            4 
 1553000    1.0063082   -7.6589321    458.90493  0.024624647  0.024981633            1 
 1554000    1.0038733   -7.5886392    461.28879  0.024736636  0.024974271            4 
 1555000    1.0086608   -7.6498059    461.90465  0.024753733  0.024966919            1 
 1556000    1.0005172   -7.6037847    463.49666  0.024823086  0.024959704            2 
 1557000   0.99064917   -7.5748217    461.60095  0.024705682  0.024952456            1 
 1558000    1.0145464   -7.6198006    461.19514  0.024668118  0.024945168            2 
 1559000    1.0062459    -7.642274    461.99171  0.024694874  0.024937859            1 
 1560000    1.0012615   -7.6091584    461.77675  0.024667561  0.024930599            3 
 1561000    1.0042978   -7.6365174    460.92301  0.024606182  0.024923215            1 
 1562000    1.0102148    -7.579702    462.95725  0.024698957  0.024915857            3 
 1563000    1.0124002   -7.6500341    462.07663  0.024636203   0.02490858            1 
 1564000   0.97789017   -7.6503421    462.99011  0.024669123  0.024901368            5 
 1565000    1.0128935   -7.6195688    463.06232  0.024657206  0.024894085            2 
 1566000    1.0170739   -7.6329436    464.27618  0.024706054   0.02488689            2 
 1567000   0.98229682   -7.6330083    464.55242  0.024704979  0.024879649            2 
 1568000    1.0207655   -7.6612581    462.61814  0.024586423  0.024872302            1 
 1569000    1.0187578   -7.6525586    462.99548  0.024590795  0.024864978            1 
 1570000   0.98742324   -7.6148161    464.37631  0.024648424  0.024857786            1 
 1571000    1.0123612   -7.6377742    462.87049  0.024552859  0.024850619            1 
 1572000   0.99343212   -7.6456145    464.35576  0.024615975  0.024843337            3 
 1573000     1.004286   -7.6605457    463.62113  0.024561408  0.024836028            2 
 1574000    1.0194178   -7.6529038    463.84916  0.024557876   0.02482875            2 
 1575000    0.9873864   -7.6417971    464.41485  0.024572214   0.02482144            1 
 1576000    1.0155287    -7.656203    464.23808  0.024547276   0.02481415            2 
 1577000    1.0117982   -7.6132141    465.48708  0.024597711   0.02480691            2 
 1578000   0.99944758   -7.6092441    466.34081  0.024627208  0.024799739            1 
 1579000    1.0093585   -7.6216741    465.03951  0.024542934  0.024792522            2 
 1580000   0.96570015   -7.6196556    465.25539  0.024538786   0.02478525            1 
 1581000   0.99204821   -7.6610548    464.98034  0.024508768   0.02477791            2 
 1582000    1.0039368   -7.6401794    465.86399  0.024539823  0.024770527            1 
 1583000    1.0072167   -7.6421194    466.70178  0.024568424  0.024763229            1 
 1584000    1.0062814    -7.630783    467.45015  0.024592285  0.024756017            2 
 1585000   0.99582024   -7.6095865    465.78239  0.024489085  0.024748773            2 
 1586000    1.0198387    -7.630354    465.96125  0.024483042  0.024741508            2 
 1587000    1.0043996   -7.6367526    465.73543  0.024455757  0.024734196            3 
 1588000   0.99590195   -7.6277261    466.56733  0.024484012  0.024726874            2 
 1589000   0.99041728   -7.6645235    466.16667  0.024447591  0.024719596            1 
 1590000   0.97712478   -7.6288295    467.60427  0.024507562   0.02471228            2 
 1591000    1.0035911   -7.6169025     467.4166  0.024482328  0.024705179            2 
 1592000   0.97942636   -7.6378538    466.02698   0.02439421  0.024697957            3 
 1593000   0.99347195   -7.6461395    468.52115  0.024509372  0.024690697            1 
 1594000    1.0283905   -7.6480211    466.94734  0.024411718  0.024683486            6 
 1595000   0.99636056    -7.634389    468.08208  0.024455699  0.024676278            1 
 1596000   0.99047954   -7.6370771    468.02903  0.024437606  0.024669111            2 
 1597000    1.0156242   -7.6648416    468.56528  0.024450286  0.024661941            3 
 1598000   0.99393577   -7.6478571    467.88381  0.024399448  0.024654639            2 
 1599000   0.99337843    -7.648586    468.61418  0.024422252  0.024647354            2 
 1600000    1.0037436   -7.6241891    468.95134  0.024424549  0.024640118            1 
 1601000   0.97807741   -7.6415433    467.90256  0.024354703  0.024632991            2 
 1602000   0.98261185   -7.6272377    469.70185  0.024433096  0.024625812            1 
 1603000     1.004274   -7.6664671    469.68526  0.024416992  0.024618648            4 
 1604000    0.9967059   -7.6269605    470.91369   0.02446559  0.024611536            2 
 1605000    1.0139265   -7.6251964    471.80664  0.024496711  0.024604498            1 
 1606000   0.98917258     -7.64072    470.34059  0.024405385  0.024597393            2 
 1607000   0.97391346    -7.649203    470.75092  0.024411477   0.02459029            1 
 1608000    1.0015286    -7.647648    471.08544  0.024413632  0.024583252            2 
 1609000    1.0003423   -7.6652048    470.66769  0.024376822  0.024576132            2 
 1610000    1.0005135   -7.6549538     472.0667  0.024434094  0.024568956            2 
 1611000    1.0072749   -7.6723382    471.43103  0.024386045  0.024561815            1 
 1612000    1.0047152   -7.6513361    472.18332  0.024409808  0.024554682            5 
 1613000   0.99160592   -7.6548929    471.15133  0.024341358  0.024547565            1 
 1614000   0.99295556   -7.6444926    472.50419  0.024396127  0.024540558            1 
 1615000   0.99197987   -7.6626849    471.47213  0.024327767  0.024533414            3 
 1616000    0.9758237   -7.6459333    471.79584  0.024329406  0.024526351            2 
 1617000    0.9858861   -7.6602427    471.95347  0.024322484  0.024519328            3 
 1618000   0.99188941   -7.7047295    472.22317  0.024321342  0.024512198            2 
 1619000   0.99120579    -7.652952    473.06963  0.024349888  0.024504956            3 
 1620000    0.9871244   -7.6738094    472.25425  0.024292914  0.024497845            2 
 1621000    0.9757847   -7.6272533    473.95401   0.02436531  0.024490811            1 
 1622000    1.0041213   -7.6944341    472.10617  0.024255352  0.024483801            3 
 1623000   0.99501076   -7.6475339    473.15037  0.024294022  0.024476761            2 
 1624000    1.0172527   -7.6499259    473.41019  0.024292395  0.024469824            1 
 1625000    1.0055745   -7.6056056    473.80689  0.024297789  0.024462846            2 
 1626000   0.99229389   -7.6964865    474.34049  0.024310193   0.02445592            2 
 1627000   0.99107078   -7.6783504    474.17512  0.024286781  0.024448932            3 
 1628000   0.97914649   -7.6568179    475.03763  0.024316013  0.024441965            2 
 1629000   0.98121103   -7.6662642    474.97912  0.024298093  0.024434944            2 
 1630000   0.99668791   -7.6362788    475.43598  0.024306543   0.02442797            1 
 1631000   0.98090724   -7.7033797    474.83049  0.024260703  0.024421028            1 
 1632000    0.9935457   -7.7024376    474.80676  0.024244626  0.024414046            1 
 1633000   0.99214208   -7.6529382    476.45706  0.024313996  0.024406987            1 
 1634000    0.9995952   -7.6338273     475.0892  0.024229355  0.024399953            1 
 1635000     0.967498   -7.6299434    475.82473  0.024252025  0.024392988            1 
 1636000   0.99842337   -7.6833266    476.07655  0.024250028  0.024386008            1 
 1637000   0.98483163   -7.6235377    476.58133  0.024260911  0.024378995            2 
 1638000   0.98329061   -7.6538011    476.52901  0.024243438  0.024371923            2 
 1639000   0.96177067   -7.6616139    475.41827  0.024172172  0.024364876            1 
 1640000   0.99382339   -7.7290803    474.44903  0.024108183  0.024357783            3 
 1641000   0.99980059    -7.693962    475.03562   0.02412328  0.024350699            2 
 1642000    1.0013074   -7.6529936    475.60243  0.024137354  0.024343674            5 
 1643000    1.0003462   -7.6525343    476.38774  0.024162495  0.024336621            1 
 1644000   0.98980108   -7.6397747    476.57709  0.024157395  0.024329564            2 
 1645000   0.97481859    -7.675276    476.03157  0.024115074  0.024322498            1 
 1646000   0.96626077   -7.6845134    477.48512  0.024174014  0.024315537            3 
 1647000    1.0092224   -7.6719015     476.1673  0.024092658    0.0243086            2 
 1648000   0.98487895   -7.6591408    477.35928  0.024138313  0.024301677            2 
 1649000    1.0059303   -7.6339299    477.97349  0.024154715  0.024294772            3 
 1650000    1.0096099   -7.6819187     476.9251  0.024087126  0.024287754            2 
 1651000   0.98225218   -7.6961601    477.96045  0.024124796  0.024280881            1 
 1652000   0.95787282   -7.7123963    477.24312  0.024074007  0.024273809            2 
 1653000   0.97787164   -7.6294044    477.80429  0.024087734  0.024266818            1 
 1654000    0.9612241   -7.6803049    477.37719  0.024051652  0.024259809            3 
 1655000   0.99654131   -7.6651895    479.06639  0.024122175  0.024252722            2 
 1656000   0.97783982   -7.6472049    478.66619  0.024087469   0.02424568            3 
 1657000   0.99049316   -7.6593564    480.03487  0.024141766  0.024238572            4 
 1658000   0.98365423   -7.6819199    478.89914  0.024070122  0.024231488            3 
 1659000   0.98322544   -7.6752821    476.60513  0.023940382  0.024224436            4 
 1660000   0.99409684   -7.6793037    478.38501  0.024015312  0.024217419            4 
 1661000   0.98509329   -7.6696668    480.23961    0.0240939   0.02421039            7 
 1662000   0.96841389   -7.6643275     477.5949  0.023946796  0.024203308            3 
 1663000   0.97616432   -7.6852871     478.9107  0.023998331  0.024196241            1 
 1664000    1.0152554   -7.6381633    481.18024  0.024097568  0.024189238            2 
 1665000    0.9953703   -7.6807926     479.7611  0.024012067   0.02418222            4 
 1666000   0.98408021   -7.6354593    479.90513  0.024004858  0.024175126            3 
 1667000   0.98875887   -7.6651861    479.47177  0.023968795  0.024168133            3 
 1668000   0.97639254   -7.6889411    479.08031  0.023934867  0.024161088            2 
 1669000   0.99117688   -7.6950777    478.75052   0.02390406  0.024153968            4 
 1670000   0.98505988    -7.648353     481.3532  0.024019621  0.024146923            2 
 1671000    1.0120251   -7.6825717    480.19246   0.02394736  0.024139832            2 
 1672000   0.97885555   -7.6824016    480.72405  0.023959532  0.024132785            3 
 1673000   0.98682927   -7.6873894    479.74879  0.023896632  0.024125725            6 
 1674000   0.98653559   -7.6654302    481.51137    0.0239701  0.024118725            2 
 1675000   0.99533772   -7.6691608    482.36671  0.023998344  0.024111745           10 
 1676000   0.98133769   -7.6806305    481.48694  0.023940281  0.024104768            2 
 1677000   0.98029948   -7.6951786    483.39676  0.024020908  0.024097772            2 
 1678000   0.96389827   -7.6917207    482.04063  0.023939245  0.024090753            2 
 1679000   0.98277257   -7.6864191    483.15356  0.023980224  0.024083764            1 
 1680000   0.99381661   -7.6633049    483.58067  0.023987137  0.024076893            3 
 1681000   0.99739071   -7.6995272    482.09088  0.023899012  0.024069954            3 
 1682000   0.97239136   -7.6889889    482.51244   0.02390569  0.024063047            2 
 1683000     0.952166   -7.6956314    483.52097  0.023941422  0.024056116            1 
 1684000   0.98393761   -7.7275659    481.83364  0.023843708  0.024049128            5 
 1685000   0.97961915    -7.715627    482.50461   0.02386274   0.02404222            1 
 1686000   0.98886976   -7.6441142    485.57539  0.024000365  0.024035278            2 
 1687000   0.95877133   -7.6630447    484.73476  0.023944614  0.024028385            2 
 1688000   0.97945885   -7.6456448    483.83117   0.02388582  0.024021361            1 
 1689000   0.98513973   -7.6916092    483.10031  0.023835618  0.024014361            1 
 1690000    0.9959462   -7.6553397    484.28931  0.023880144  0.024007376            1 
 1691000   0.98236741   -7.6547685    484.44377  0.023873633  0.024000384            2 
 1692000    0.9773502   -7.6424839    484.46674  0.023860655  0.023993398            1 
 1693000   0.95949794    -7.698004    483.57265  0.023802552  0.023986391            2 
 1694000   0.97816921   -7.6821611     484.4118  0.023829782  0.023979355            1 
 1695000    1.0033388   -7.6791018    484.01662  0.023796294  0.023972249            2 
 1696000   0.97068612   -7.6669386    483.70279  0.023766843  0.023965178            2 
 1697000   0.98258004    -7.672709    484.32015  0.023783154  0.023958068            1 
 1698000   0.98221315   -7.6988062    483.40502  0.023724235  0.023950987            1 
 1699000   0.99063208   -7.6610949    484.82155   0.02377975  0.023943895            2 
 1700000   0.97340268   -7.6700669    485.46781  0.023797442  0.023936905            3 
 1701000   0.98021049   -7.7013452    484.45914  0.023734036  0.023929871            4 
 1702000   0.96018554    -7.671823    485.59274  0.023775594  0.023922873            1 
 1703000   0.97582656   -7.7109232    484.97908  0.023731605  0.023915686            2 
 1704000    1.0081913   -7.6701861    484.18868  0.023679024  0.023908568            2 
 1705000   0.98417537   -7.6799563    486.30738  0.023768689  0.023901433            2 
 1706000   0.98099648   -7.6804902    485.46204  0.023713464  0.023894417            1 
 1707000   0.98175944   -7.7011541    484.68752  0.023661761   0.02388741            3 
 1708000   0.97210843   -7.6779454    484.95272  0.023660847   0.02388022            2 
 1709000   0.96680227   -7.6852355    485.31706  0.023664768  0.023873093            1 
 1710000    0.9931143   -7.6811226    485.36616  0.023653322  0.023865821            1 
 1711000   0.96631547   -7.6957875    485.61559  0.023651646  0.023858607            2 
 1712000   0.95192449   -7.6640779     486.0973  0.023661278  0.023851477            2 
 1713000   0.97878256   -7.6695326    486.26469  0.023655608  0.023844345            4 
 1714000    0.9596268   -7.7082995    486.57862   0.02365707  0.023837232            2 
 1715000    0.9906709   -7.6583697    486.02057   0.02361616  0.023830098            3 
 1716000   0.97247065   -7.7049498    486.57846   0.02362949  0.023823056            1 
 1717000   0.98336145   -7.6796633    486.22786  0.023598712  0.023815906            3 
 1718000   0.98741033   -7.6846363    487.23822  0.023633984  0.023808752            2 
 1719000   0.94434807   -7.7047901    487.26669  0.023621616  0.023801583            2 
 1720000   0.98088929   -7.6762855    488.03837   0.02364527  0.023794409            2 
 1721000   0.97686355   -7.7004914    486.84422  0.023573708  0.023787352            2 
 1722000    0.9783215   -7.6632182      488.112  0.023621371  0.023780174            2 
 1723000    0.9649523   -7.6798072    487.95171  0.023599909  0.023773137            4 
 1724000   0.97028554   -7.7014384    488.74865  0.023624741  0.023766092            2 
 1725000   0.98054955   -7.6671658    488.28806  0.023588795  0.023759046            3 
 1726000   0.94331874   -7.6916502    487.88082  0.023555466  0.023751959            1 
 1727000   0.97030549   -7.6769272    489.53108  0.023621457  0.023744946            2 
 1728000   0.97234121   -7.7050924    487.95453  0.023531758  0.023737901            1 
 1729000   0.97826577   -7.6800248     488.4398  0.023541536  0.023730928            1 
 1730000   0.96845529   -7.6883581    488.32617  0.023522455  0.023723891            2 
 1731000    0.9776886   -7.6494724    489.63589  0.023571919  0.023716862            5 
 1732000   0.99378009   -7.6775316    490.52137  0.023600913  0.023709882            2 
 1733000    1.0001227   -7.6642019    490.21971  0.023572788  0.023702881            1 
 1734000   0.96125054   -7.6917716    490.05064  0.023551069   0.02369586            1 
 1735000   0.97559354   -7.6525061    490.53831  0.023560918  0.023688922            1 
 1736000   0.93726412   -7.6608366    489.45062  0.023495134   0.02368183            3 
 1737000   0.97215189   -7.7067576    487.99582  0.023411813  0.023674647            2 
 1738000   0.96309934   -7.6942003    489.02303  0.023447595  0.023667536            2 
 1739000   0.96173469   -7.7084289    489.72872  0.023467928  0.023660465            1 
 1740000   0.98302957   -7.6802115    491.29018  0.023529223  0.023653398            5 
 1741000    0.9787173   -7.6802535     491.4044  0.023521176  0.023646394            2 
 1742000   0.95866002   -7.6945527    490.42997  0.023461059  0.023639379            3 
 1743000   0.98291612   -7.6907754    490.70544  0.023460769  0.023632355            1 
 1744000   0.97350248    -7.718929    491.11061  0.023466677  0.023625219            2 
 1745000   0.96895304   -7.6827351    491.51394   0.02347249  0.023618134            3 
 1746000   0.96120344   -7.6748853    491.30592  0.023449118  0.023611137            4 
 1747000   0.98243737   -7.7318879    491.69551  0.023454279  0.023604104            3 
 1748000   0.99811957   -7.6711001    492.43567  0.023476147  0.023597064            2 
 1749000   0.98702825    -7.694166    493.21558  0.023499884   0.02359011            2 
 1750000   0.97904366   -7.6817492    492.27396  0.023441617  0.023583179            2 
 1751000   0.98388712    -7.690216     492.6143  0.023444427  0.023576252            2 
 1752000   0.98513449   -7.7181661     491.9942   0.02340155  0.023569251            3 
 1753000   0.95024536   -7.6526671    493.43505  0.023456695  0.023562241            3 
 1754000   0.97737378   -7.7072946    493.22973  0.023433567  0.023555318            3 
 1755000   0.97338972   -7.6922765    493.74294  0.023444584  0.023548388            2 
 1756000   0.97281424   -7.6592322    494.53698  0.023468915  0.023541417            3 
 1757000   0.97389054   -7.6767413    492.52865  0.023360304  0.023534488            2 
 1758000   0.96111362   -7.7244627    493.47569  0.023391908  0.023527476            3 
 1759000    0.9922338   -7.7023064    492.76609  0.023344992  0.023520406            2 
 1760000   0.99562788   -7.7293073    492.41968  0.023315326   0.02351332            4 
 1761000   0.98207465   -7.6820461    493.44657   0.02335068  0.023506235            1 
 1762000   0.94777898   -7.7519231    491.81985  0.023260492  0.023499106            1 
 1763000   0.97975871   -7.7340718    493.76039  0.023339024  0.023491938            4 
 1764000   0.97175713   -7.7022413    492.44689  0.023263742  0.023484793            2 
 1765000   0.96356555   -7.7208155    493.11666  0.023282184  0.023477562            6 
 1766000   0.96476459   -7.7122298    493.99188    0.0233103  0.023470348            2 
 1767000   0.96359119   -7.7128493    492.88384  0.023244852  0.023463126            4 
 1768000    0.9642274   -7.6968109    492.91964  0.023233392  0.023455915            2 
 1769000   0.95240677   -7.7588087    493.50533  0.023247849  0.023448707            5 
 1770000   0.96668783    -7.718042    493.60878  0.023239585   0.02344145            1 
 1771000   0.95804775   -7.7167828    493.00876  0.023198229  0.023434264            2 
 1772000   0.97454362   -7.7402401     492.7138  0.023171266     0.023427            5 
 1773000   0.95649132    -7.689631    494.81315  0.023256869   0.02341979            2 
 1774000   0.95478326   -7.7391817    493.42046  0.023178338   0.02341253            1 
 1775000   0.94446379   -7.7334357    494.24391  0.023203939  0.023405354            2 
 1776000    0.9781962   -7.7332456    493.97258  0.023178143  0.023398191            2 
 1777000   0.96509175   -7.7738124    493.18443  0.023128139  0.023390915            2 
 1778000   0.95851028   -7.7435151    493.87821  0.023147647   0.02338367            2 
 1779000   0.94939892   -7.7284105    494.20062  0.023149738   0.02337645            2 
 1780000   0.97399676   -7.6978549    496.13433  0.023227263  0.023369224            2 
 1781000   0.97969474   -7.7124704    495.30588  0.023175458  0.023362046            2 
 1782000   0.98834572   -7.7259984    494.92843  0.023144801  0.023354913            3 
 1783000   0.94397277   -7.6820678    495.98594  0.023181246  0.023347845            2 
 1784000   0.97466377   -7.7136777     495.4148  0.023141573  0.023340724            3 
 1785000   0.98034077   -7.7062997    496.14542  0.023162718  0.023333623            1 
 1786000   0.98014199   -7.7275251    496.16613  0.023150715  0.023326555            2 
 1787000   0.99638377   -7.7201414    496.62286  0.023159059  0.023319458            3 
 1788000   0.98045845   -7.7023006    497.47594  0.023185866  0.023312354            5 
 1789000   0.96994779     -7.70794    498.98064  0.023242996  0.023305391            2 
 1790000   0.96353734   -7.7273649    497.89367  0.023179407  0.023298386            2 
 1791000   0.96211892   -7.7458071    496.87362  0.023119004  0.023291366            2 
 1792000   0.97658467   -7.7289999    497.69719  0.023144401   0.02328431            2 
 1793000   0.96818512   -7.7492741    497.85178  0.023138677  0.023277223            1 
 1794000   0.96133677   -7.7151625    498.10735  0.023137651  0.023270182            2 
 1795000    0.9536152   -7.6906698    498.14144  0.023126344  0.023263216            3 
 1796000   0.95437023   -7.7333534    497.46541    0.0230821  0.023256297            2 
 1797000   0.96743032   -7.6834829    499.27518   0.02315318  0.023249341            2 
 1798000    0.9495312   -7.6999009    499.82519  0.023165795  0.023242336            2 
 1799000   0.96383491   -7.7072302    499.83788  0.023153506  0.023235434            1 
 1800000   0.97301136   -7.7019522    501.22251  0.023204746  0.023228612            1 
 1801000   0.96368551   -7.6992245    500.59635  0.023162888  0.023221676            3 
 1802000   0.97252112   -7.7219086    500.24806  0.023133928  0.023214807            3 
 1803000    0.9780828   -7.7471108    500.06445  0.023112611  0.023207932            1 
 1804000   0.94184799   -7.7025526    500.67468  0.023127988  0.023201102            4 
 1805000   0.96636554   -7.7097209    501.65854  0.023160597  0.023194298            1 
 1806000   0.94950078   -7.7233371    501.08236  0.023121187  0.023187498            1 
 1807000   0.96512677   -7.7355579    499.94921  0.023056134  0.023180675            1 
 1808000   0.96521754   -7.7225245    500.86721  0.023085694  0.023173818            2 
 1809000   0.95375765   -7.7239872    501.26324  0.023091176  0.023166969            1 
 1810000   0.97689041    -7.701696     503.2233   0.02316866  0.023160196            2 
 1811000   0.95767286   -7.7125792    501.15389  0.023060643  0.023153433            1 
 1812000    0.9509743   -7.6939435    501.61051  0.023068916  0.023146673            2 
 1813000   0.94627161   -7.7049883    503.45107  0.023140792  0.023139912            2 
 1814000   0.95315057   -7.7196637    503.27205  0.023119811  0.023133248            2 
 1815000   0.94550916    -7.728032    502.12719  0.023054508  0.023126493            2 
 1816000    0.9736004   -7.7360063    501.99826  0.023035896  0.023119617            1 
 1817000   0.96511726   -7.7555382     502.1878  0.023031911  0.023112795            4 
 1818000   0.95406472     -7.71023    503.64255  0.023085926  0.023106015            3 
 1819000   0.95280458   -7.7511396    502.38143  0.023015458  0.023099236            1 
 1820000   0.98477147   -7.7400352    502.66819  0.023015943  0.023092457            2 
 1821000   0.94412529   -7.7194899    504.92123  0.023106408  0.023085761            1 
 1822000   0.97525008   -7.7120931    503.96235   0.02304987  0.023079141            2 
 1823000   0.94748648   -7.6937075    505.32965  0.023099728  0.023072547            1 
 1824000   0.95615399   -7.7378725    504.36567  0.023043022  0.023065958            3 
 1825000   0.95286883   -7.6933806    505.61048  0.023087237  0.023059293            2 
 1826000   0.97922912   -7.7433145    503.85486  0.022994472  0.023052615            2 
 1827000   0.95942271   -7.7460275    503.75022  0.022977113  0.023045896            3 
 1828000   0.96220083    -7.727469    503.81578  0.022967532  0.023039209            2 
 1829000   0.96323583   -7.6740495    506.04393  0.023056494  0.023032566            2 
 1830000   0.95179937   -7.6987547    504.55582   0.02297613  0.023025952            1 
 1831000    0.9257816   -7.7480353    503.75969  0.022927348   0.02301925            4 
 1832000   0.94704079   -7.7222055    504.89986  0.022966697  0.023012509            8 
 1833000   0.98717488   -7.7024177     505.4893  0.022980965  0.023005788            4 
 1834000   0.95025292   -7.7000732    505.07101  0.022949428  0.022999105            1 
 1835000   0.95146045   -7.7382028     504.8383  0.022926353  0.022992335            2 
 1836000   0.97470274   -7.7188809    503.98819  0.022875281  0.022985528            2 
 1837000   0.94640308   -7.7503314    505.77437  0.022943857  0.022978742            2 
 1838000   0.95045982   -7.7728236    505.04508  0.022898308  0.022971945            1 
 1839000   0.96011085   -7.6887849    507.22106   0.02298446  0.022965297            3 
 1840000   0.97063617   -7.7624686    505.92829  0.022913419  0.022958626            1 
 1841000   0.94335625   -7.7336998    505.15364  0.022865908  0.022951875            1 
 1842000   0.96433449   -7.7824952    505.95194   0.02288961  0.022945066            3 
 1843000   0.98323266   -7.7225907    506.75112  0.022913326  0.022938258            1 
 1844000   0.95072659   -7.7764877    505.87233  0.022861186  0.022931523            2 
 1845000   0.96537764   -7.7498084    505.35078  0.022825239  0.022924741            4 
 1846000   0.95481512   -7.7150564    505.81539  0.022833848  0.022918015            3 
 1847000   0.95138563   -7.7412317    507.40161  0.022893052  0.022911266            3 
 1848000   0.97562648   -7.7301324    506.49732  0.022839886  0.022904516            5 
 1849000   0.94107217   -7.7490613    506.17518  0.022813015  0.022897706            4 
 1850000   0.96143361   -7.7960555    505.05679  0.022750306  0.022890891            4 
 1851000   0.97317728   -7.7586914    507.46486  0.022846428  0.022884123            1 
 1852000    0.9419967   -7.6992227    508.49551  0.022880468  0.022877333            2 
 1853000   0.92985727    -7.754345    505.33238  0.022725867  0.022870592            4 
 1854000   0.95952186   -7.7614836    506.32168  0.022758076  0.022863766            3 
 1855000   0.95641732   -7.7593955     505.9746  0.022730216  0.022856979            3 
 1856000   0.94377423   -7.7610635    507.37612  0.022780896  0.022850174            3 
 1857000   0.95056566   -7.7330769    507.61251  0.022779237  0.022843442            3 
 1858000   0.97421029   -7.7909128    506.60912  0.022721974  0.022836723            5 
 1859000   0.95569781    -7.782448     506.7513  0.022716124  0.022829882            1 
 1860000   0.94269157   -7.7348803    508.25222  0.022771157   0.02282306            2 
 1861000   0.95449705   -7.7525231    507.94141  0.022745003  0.022816277            3 
 1862000   0.95079705   -7.7690569    506.49753  0.022668167  0.022809446            2 
 1863000   0.94944469   -7.7815541    506.67843  0.022664092  0.022802677            2 
 1864000   0.96271687   -7.7533023    508.31016  0.022724882  0.022795893            2 
 1865000   0.97628198    -7.756401    509.11339  0.022748587  0.022789045            2 
 1866000   0.94911568   -7.7618947    509.49375  0.022753383  0.022782251            2 
 1867000   0.95258846   -7.7590703    509.61053  0.022746408  0.022775466            2 
 1868000   0.95253937   -7.7367634    510.00455  0.022751809  0.022768729            1 
 1869000   0.95524535   -7.7526647    509.31403  0.022708848  0.022762014            1 
 1870000   0.95809515   -7.7703633    508.41615  0.022656691  0.022755195            1 
 1871000   0.93926175   -7.7663925    510.43687  0.022734583  0.022748392            2 
 1872000   0.95572278   -7.7555825    509.26481  0.022670264  0.022741615            2 
 1873000   0.94985233   -7.7401765    509.20936  0.022655693  0.022734846            2 
 1874000   0.93414191   -7.7849297    510.03389  0.022680269   0.02272808            2 
 1875000   0.95570728   -7.7579687    509.99045  0.022666242  0.022721278            1 
 1876000   0.96968592   -7.7410147    509.76092  0.022643964  0.022714469            2 
 1877000   0.95895044   -7.7353875     511.4399  0.022706442  0.022707861            1 
 1878000   0.95949059   -7.7406297    509.29599  0.022599219  0.022701246            2 
 1879000    0.9425164   -7.7387664    510.92609  0.022659486  0.022694554            1 
 1880000   0.97765851     -7.78216     511.0981  0.022655058  0.022687846            2 
 1881000   0.94079046   -7.7685641    511.38624  0.022655779  0.022681158            2 
 1882000   0.95913262   -7.7630758    511.76782  0.022660637  0.022674476            2 
 1883000   0.95350883   -7.7510049    511.99117  0.022658487  0.022667865            1 
 1884000   0.94425827   -7.7377567     513.1023  0.022695608  0.022661292            2 
 1885000   0.95765771    -7.767883    511.39773  0.022608211  0.022654688            4 
 1886000   0.95633911   -7.7672812    511.87282  0.022617216  0.022648072            2 
 1887000   0.93892039   -7.7842023     511.3053  0.022580167  0.022641391            3 
 1888000   0.95766983   -7.7435024    513.37256  0.022659453  0.022634751            2 
 1889000   0.93544018   -7.7620452     512.4381  0.022606234  0.022628122            1 
 1890000   0.93804183   -7.7699726    512.31758  0.022588959  0.022621467            2 
 1891000    0.9333619   -7.7387788    513.45142   0.02262698  0.022614964            2 
 1892000   0.97260738   -7.7693719    512.46031  0.022571367  0.022608394            3 
 1893000   0.95485957   -7.7642678    512.42224  0.022557767  0.022601723            2 
 1894000   0.95187473    -7.753106    513.67134  0.022600816  0.022595113            3 
 1895000   0.95234766   -7.7412526    514.38764  0.022620389  0.022588605            3 
 1896000   0.95346661   -7.7993546    513.61934   0.02257469  0.022581993            6 
 1897000     0.947574    -7.792707     513.8309  0.022572083   0.02257533            1 
 1898000   0.94221942   -7.7605119    514.68596  0.022597733  0.022568716            3 
 1899000   0.93550832   -7.7619805    512.90585  0.022507717  0.022562129            1 
 1900000   0.95045863   -7.7774633    514.04745  0.022545941  0.022555524            1 
 1901000   0.97226837   -7.7736626     515.5143  0.022598383  0.022548947            1 
 1902000   0.94592754   -7.7522328     514.7019  0.022550907  0.022542447            2 
 1903000   0.94081125   -7.7329445    515.28041   0.02256439  0.022535983            1 
 1904000   0.94359508   -7.7715532      514.224  0.022506302   0.02252943            3 
 1905000   0.95729679   -7.7884232    514.70433    0.0225155  0.022522856            3 
 1906000   0.95249041    -7.765357    515.34038  0.022531496  0.022516284            2 
 1907000   0.96119987   -7.7903042    515.74062  0.022537171  0.022509769            1 
 1908000    0.9375569   -7.7673464    514.35712  0.022464934  0.022503203            1 
 1909000   0.96038257   -7.7544821    515.00696  0.022481533  0.022496685            2 
 1910000   0.94361571    -7.800499    516.88909   0.02255188  0.022490238            3 
 1911000   0.94383009    -7.765676     516.7346  0.022533342   0.02248379            1 
 1912000   0.92426444    -7.786668    515.15591  0.022452751  0.022477366            1 
 1913000   0.95103075   -7.7383088    516.08416   0.02248145  0.022470905            1 
 1914000   0.95092895    -7.749652    516.42679  0.022484622  0.022464482            1 
 1915000   0.94054209   -7.7336016    518.50042  0.022563117  0.022458074            4 
 1916000   0.92186768   -7.7834973    516.47516  0.022463255  0.022451662            3 
 1917000    0.9398343   -7.7889302    516.33423  0.022445411  0.022445164            1 
 1918000   0.93443726   -7.7622302    517.61846  0.022489505   0.02243873            2 
 1919000   0.93023216   -7.7929533     517.6182  0.022477775  0.022432305            1 
 1920000    0.9234312   -7.7176685     517.7399   0.02247135  0.022425883            2 
 1921000   0.93403984   -7.7722359    518.98106  0.022513494   0.02241955            2 
 1922000   0.93625846    -7.765186    518.49952  0.022480902  0.022413191            2 
 1923000    0.9492712   -7.7900067    516.81636  0.022396271  0.022406758            2 
 1924000   0.96148252   -7.7606531    518.40874  0.022453601  0.022400287            1 
 1925000   0.93650174   -7.7572699    518.65793  0.022452724  0.022393982            2 
 1926000   0.94988058   -7.7491932    518.87304  0.022450374  0.022387644            7 
 1927000   0.97280773   -7.7650012    517.87203  0.022395434  0.022381255            2 
 1928000   0.94997184    -7.762241    518.34295  0.022404173  0.022374899            4 
 1929000   0.94940084    -7.741742    520.82525  0.022499795  0.022368554            3 
 1930000   0.95370967   -7.7758152    517.92648  0.022362974  0.022362181            2 
 1931000   0.92989208   -7.7839742    518.54443  0.022378061  0.022355718            2 
 1932000   0.96334554   -7.7408405    520.27601  0.022441167  0.022349312            3 
 1933000   0.93073135   -7.7885459     518.4581  0.022351185  0.022342879            2 
 1934000   0.93899823   -7.8165658    518.02524  0.022320977  0.022336408            1 
 1935000   0.94570179    -7.817746    518.87879  0.022346201  0.022329911            4 
 1936000   0.94036569   -7.7855149    519.96272  0.022381316  0.022323388            3 
 1937000   0.98082499   -7.7778587    518.75693  0.022317885   0.02231696            3 
 1938000   0.94727206     -7.77657    519.73715  0.022348519  0.022310587            3 
 1939000   0.94649663   -7.7692115    520.47355  0.022368642  0.022304152            2 
 1940000   0.93380965   -7.7628912    522.12893  0.022428219  0.022297786            2 
 1941000   0.93316961   -7.7864486    520.73106  0.022356649    0.0222913            1 
 1942000   0.93869255   -7.7607234     521.0271   0.02235784  0.022284824            6 
 1943000   0.93822094   -7.7725366    520.74055  0.022334043  0.022278381            2 
 1944000   0.93123735   -7.8190121    520.44746  0.022309991   0.02227192            4 
 1945000   0.96666531   -7.8107117    520.51888   0.02230158  0.022265358            1 
 1946000   0.91882448   -7.7592737    520.69269  0.022297563   0.02225882            2 
 1947000   0.93943153    -7.785659     521.5367  0.022322235  0.022252315            4 
 1948000   0.92032899   -7.7318942    521.32322  0.022301644  0.022245806            5 
 1949000   0.94012423   -7.7916349    519.89067   0.02222895  0.022239287            2 
 1950000   0.93596239   -7.7765313    521.48467   0.02228567  0.022232695            2 
 1951000   0.92764459   -7.8102129    520.13163  0.022216454  0.022226084            2 
 1952000   0.94619545   -7.7935607    520.69947  0.022229315  0.022219488            1 
 1953000     0.947813   -7.7748298    520.57849   0.02221277  0.022212947            2 
 1954000   0.94244853   -7.7686889    520.17604  0.022184239  0.022206394            6 
 1955000   0.91010369   -7.7699223    520.83925  0.022201162  0.022199798            2 
 1956000   0.92011992   -7.7505681    520.95336  0.022194673   0.02219321            3 
 1957000   0.94972461   -7.8102493     519.1409  0.022106153  0.022186578            2 
 1958000   0.94169651   -7.7987066     521.5561  0.022197655  0.022179948            3 
 1959000    0.9497843   -7.7845188    520.83309  0.022155568  0.022173357            2 
 1960000   0.93812244   -7.7670125    521.68254   0.02218038  0.022166765            4 
 1961000   0.95852703   -7.7690395    521.86982  0.022177028  0.022160229            2 
 1962000    0.9383343   -7.8100084    521.64512  0.022156181  0.022153617            3 
 1963000   0.94579568   -7.7683589    521.60182  0.022143056  0.022147071            1 
 1964000   0.93469917   -7.7693683    521.81718  0.022140919  0.022140518            3 
 1965000   0.96188017   -7.7580168    522.48592  0.022158012  0.022133961            1 
 1966000   0.93849892   -7.7995035    522.00995  0.022126566  0.022127398            2 
 1967000   0.93467103   -7.8343564    522.10456  0.022119325  0.022120817            1 
 1968000   0.92832543    -7.811497    521.77028  0.022093931  0.022114269            4 
 1969000   0.95496276   -7.8143381     521.2169   0.02205929  0.022107733            2 
 1970000   0.93271524   -7.8074436    521.46693  0.022058669  0.022101167            3 
 1971000   0.93850131   -7.7914232    523.30415  0.022125154  0.022094574            1 
 1972000   0.93794455   -7.8278733    522.37919  0.022074847  0.022087948            3 
 1973000   0.93534576   -7.7838684     523.1849   0.02209769  0.022081419            1 
 1974000   0.93383711   -7.7835485    524.90867  0.022159265  0.022074922            6 
 1975000   0.95407252   -7.8427512    523.18528  0.022075328  0.022068436            1 
 1976000   0.95569552   -7.7985363    524.17523  0.022105906  0.022061871            2 
 1977000   0.94448276   -7.8110431    524.78311  0.022120347   0.02205537            2 
 1978000   0.93206561   -7.7920484    525.43372  0.022136574  0.022048898            1 
 1979000   0.93762709   -7.7958416    523.45396  0.022042023  0.022042467            1 
 1980000   0.93902468   -7.8204233    523.23071  0.022021494  0.022036019            5 
 1981000   0.93178501   -7.8303756    522.00306  0.021958736  0.022029467            1 
 1982000    0.9502349   -7.8024229    525.06332  0.022076325  0.022022923            2 
 1983000   0.93849629   -7.7947881    523.75273  0.022010116  0.022016407            2 
 1984000   0.94824705   -7.8121959    523.92244  0.022006151  0.022009812            1 
 1985000   0.94552571   -7.8038117    525.18248  0.022047963  0.022003275            2 
 1986000   0.94971325   -7.7925238    524.25269  0.021997847  0.021996725            3 
 1987000   0.95680228   -7.7997021    525.43575  0.022036393   0.02199019            1 
 1988000   0.93326053   -7.8129579    524.84627  0.022000598  0.021983678            1 
 1989000   0.92253873   -7.7767705    524.75138  0.021985561  0.021977185            3 
 1990000   0.94152982   -7.8178865    524.97562  0.021983904  0.021970646            2 
 1991000    0.9217895   -7.8057802    525.45103   0.02199276  0.021964098            1 
 1992000   0.94500071   -7.7986806    524.78163  0.021953716  0.021957553            2 
 1993000   0.93170588   -7.8107919     525.8422  0.021987046   0.02195105            3 
 1994000   0.92460269   -7.7731428    526.57162  0.022006504  0.021944588            2 
 1995000   0.93980389   -7.7923824    525.70791  0.021959395  0.021938145            3 
 1996000   0.91463181   -7.7767341    525.88134  0.021955634  0.021931645            2 
 1997000   0.93648852   -7.8139984    525.89237    0.0219451  0.021925183            5 
 1998000   0.93148331   -7.8161751    526.48005  0.021958627   0.02191876            4 
 1999000   0.93819369   -7.8089971    526.99236  0.021968999  0.021912293            2 
 2000000    0.9494143   -7.7689708    527.94925  0.021997886  0.021905861            1 
 2001000   0.93813859    -7.787688    527.79354  0.021980407  0.021899473            1 
 2002000   0.93154504   -7.7983395     528.7291  0.022008371  0.021893097            2 
 2003000   0.92233611   -7.8169669    526.44189  0.021902226  0.021886707            1 
 2004000     0.920255   -7.8046358    526.58541  0.021897264  0.021880254            2 
 2005000   0.95339121   -7.8104458    528.65964  0.021972554  0.021873806            1 
 2006000   0.92307213   -7.8239079    527.56309  0.021916047  0.021867321            1 
 2007000   0.93623119   -7.8161307    527.10903  0.021886274  0.021860803            1 
 2008000   0.95003286   -7.8346056    525.83244  0.021822396  0.021854301            3 
 2009000    0.9288388   -7.7871731     529.9063  0.021980517  0.021847811            1 
 2010000   0.91319707   -7.8216079    529.44009  0.021950253  0.021841414            4 
 2011000   0.94595411   -7.8259073    527.64646  0.021865012  0.021834975            3 
 2012000   0.93175301    -7.831864    528.03024   0.02187004  0.021828648            3 
 2013000   0.93741586   -7.8184313     529.6313  0.021925455  0.021822231            2 
 2014000     0.924728   -7.8177805    529.69136  0.021917054  0.021815877            3 
 2015000   0.93302534   -7.7887951    530.00425  0.021919117  0.021809593            2 
 2016000   0.91306013   -7.8094453    528.21498  0.021834283  0.021803231            2 
 2017000   0.92635738   -7.8289768    528.95562  0.021854058  0.021796884            2 
 2018000   0.93372008    -7.825659    530.90916    0.0219239  0.021790629            1 
 2019000   0.93983763   -7.8144614    530.05373  0.021877734  0.021784297            5 
 2020000   0.93422491   -7.8318836    529.22459  0.021832698  0.021777988            2 
 2021000     0.930157   -7.8390911    530.08369  0.021857318  0.021771768            2 
 2022000    0.9324828   -7.8214233    529.90003   0.02183894  0.021765517            1 
 2023000   0.93370593   -7.8219824    530.43142  0.021850034  0.021759178            5 
 2024000   0.95344379   -7.8396277    530.42203  0.021838852  0.021752863            2 
 2025000   0.94697347    -7.839466    530.01846  0.021811459  0.021746447            2 
 2026000   0.95806799    -7.848562    529.72604  0.021788666   0.02174008            1 
 2027000     0.934269    -7.807928    530.79534  0.021821877  0.021733703            6 
 2028000   0.93535224   -7.7953207    531.68504  0.021847676  0.021727377            3 
 2029000   0.93877544   -7.8340573    531.02819   0.02180993  0.021721029            2 
 2030000   0.91663319   -7.8168254     530.6711  0.021784528  0.021714689            1 
 2031000   0.90636591   -7.8357417    530.69297  0.021774699  0.021708335            2 
 2032000   0.93199983   -7.8243783    531.41201  0.021793471  0.021701955            1 
 2033000   0.93975021   -7.8103642    530.55187  0.021747494  0.021695581            2 
 2034000   0.94293164   -7.8432182    530.91986  0.021751879  0.021689209            1 
 2035000   0.92380899   -7.7859997    532.19786  0.021793524  0.021682856            3 
 2036000   0.93133242   -7.8268769    530.96545  0.021732378  0.021676509            1 
 2037000    0.9373476   -7.8221757    533.35873  0.021819617  0.021670182            3 
 2038000   0.92901385   -7.8733403    532.47197  0.021772652  0.021663855            3 
 2039000   0.92827542   -7.8159181    532.50827  0.021763457    0.0216576            3 
 2040000   0.93192614   -7.8074355    532.03067  0.021733279  0.021651207            6 
 2041000   0.93166316   -7.8130807    532.55854  0.021744184  0.021644841            3 
 2042000   0.91060503   -7.8243294    532.51683  0.021731833  0.021638524            1 
 2043000    0.9213011   -7.8061974    533.62387  0.021766351  0.021632178            1 
 2044000    0.9376814   -7.8021382    533.29746  0.021742395  0.021625914            2 
 2045000    0.9401785   -7.8492173    533.04026  0.021721282   0.02161961            1 
 2046000   0.94177534   -7.8120477    533.37963  0.021724488   0.02161335            2 
 2047000   0.92866662   -7.7946602    533.87868  0.021734192  0.021607081            3 
 2048000   0.93441171   -7.8286597    532.95872  0.021686146   0.02160083            2 
 2049000   0.90904196   -7.8051236    534.16649  0.021724682  0.021594613            1 
 2050000   0.93328238   -7.8505787    532.10352  0.021630225  0.021588338            1 
 2051000   0.90495433   -7.8353632    534.32848   0.02171008  0.021582028            2 
 2052000   0.93076927   -7.8502008     533.3147  0.021658329  0.021575738            2 
 2053000   0.91590363   -7.8144451    534.53713  0.021697399  0.021569461            1 
 2054000   0.90379355   -7.8404932    533.77931   0.02165609  0.021563239            2 
 2055000   0.91772713   -7.8334782    534.96464  0.021693619  0.021557041            2 
 2056000     0.921222   -7.8704064    534.72176  0.021673223   0.02155088            4 
 2057000   0.92683249   -7.8241502    534.91797  0.021670636  0.021544721            2 
 2058000   0.93597954   -7.8203168    536.40786  0.021720435  0.021538607            1 
 2059000    0.9242782   -7.8232022    535.91162  0.021689802  0.021532466            2 
 2060000   0.91705067    -7.842937    536.38891  0.021698581   0.02152632            2 
 2061000   0.90333622   -7.8383274    533.22854  0.021560268  0.021520157            2 
 2062000   0.92182683   -7.8181914    535.07478  0.021624425  0.021513926            2 
 2063000   0.92942698    -7.816977    536.28394  0.021662787  0.021507742            2 
 2064000   0.92402678   -7.8126442    536.28208  0.021652216  0.021501561            2 
 2065000   0.92931078   -7.8365817    536.46471    0.0216491  0.021495352            1 
 2066000   0.90449031   -7.8262392    536.76357  0.021650676  0.021489223            4 
 2067000   0.93926593   -7.8162371    536.18097  0.021616714  0.021483082            1 
 2068000   0.90963104   -7.8240446     536.4502   0.02161711  0.021476889            3 
 2069000   0.91981559   -7.8145131    536.90634  0.021625034  0.021470684            1 
 2070000    0.9171053   -7.8508365    535.63471  0.021563394   0.02146456            2 
 2071000   0.90691833    -7.852949    536.44933  0.021585761   0.02145838            1 
 2072000   0.91816538   -7.8066829    537.62946  0.021622806  0.021452256            1 
 2073000   0.91493978   -7.8047755    537.84043  0.021620857  0.021446137            2 
 2074000   0.91260966   -7.8376927    537.06398  0.021579234   0.02143994            2 
 2075000   0.92613706   -7.8408351     536.5789  0.021549353  0.021433775            4 
 2076000   0.91886555   -7.8495357    536.52155  0.021536671  0.021427614            3 
 2077000     0.923139   -7.8299192    535.98316  0.021504701  0.021421386            1 
 2078000   0.91582583   -7.8088777    536.63801  0.021520613   0.02141521            4 
 2079000   0.92740885   -7.8551173    536.67553  0.021511766  0.021409066            4 
 2080000   0.90381427   -7.8122945     538.7061  0.021582777  0.021402872            1 
 2081000   0.89858628   -7.8481008    537.57607  0.021527153  0.021396668            7 
 2082000   0.91608711   -7.8436375    535.67782  0.021440835  0.021390456            2 
 2083000   0.92053389   -7.8559876     536.5643  0.021466007  0.021384178            1 
 2084000   0.91296741   -7.8310196    537.45333  0.021491256  0.021377958            2 
 2085000   0.90867472    -7.791881    538.19542  0.021510608  0.021371725            2 
 2086000   0.92738415   -7.8349694    537.52101  0.021473355  0.021365463            2 
 2087000   0.89593714   -7.8192956    538.82608  0.021515177  0.021359245            2 
 2088000   0.91959708   -7.8441001    538.38721  0.021487357  0.021353006            2 
 2089000   0.92764103   -7.8508577     536.4584  0.021400128  0.021346764            1 
 2090000   0.91296856   -7.8299568    539.09072  0.021494845  0.021340539            1 
 2091000    0.9273507   -7.9010364    536.70613  0.021389532  0.021334293            2 
 2092000   0.91826499   -7.8312753    538.01546  0.021431463  0.021327984            3 
 2093000   0.90862412   -7.8714191    537.02279    0.0213817  0.021321696            2 
 2094000   0.91017355   -7.8939782    536.31311  0.021343247  0.021315406            2 
 2095000   0.89994127    -7.830718    537.97337    0.0213991  0.021309133            1 
 2096000   0.93022761   -7.8448936    538.29874  0.021401827  0.021302836            1 
 2097000   0.89305454    -7.828867    538.02288  0.021380658  0.021296569            2 
 2098000   0.92706034   -7.8752531    538.57895  0.021392554  0.021290278            3 
 2099000   0.91304079   -7.8028002    540.14854  0.021444678  0.021284014            3 
 2100000   0.91155543   -7.8219766    538.94796  0.021386824  0.021277791            2 
 2101000   0.90170287   -7.8395885    539.68488  0.021405874  0.021271536            1 
 2102000   0.93157331   -7.8428566    538.16428  0.021335406  0.021265296            2 
 2103000   0.89859504   -7.8522544    540.71416  0.021426302  0.021259034            2 
 2104000   0.90891629   -7.8791695    539.36927  0.021362851  0.021252784            1 
 2105000   0.88910945   -7.8386588    539.16779  0.021344726  0.021246516            3 
 2106000   0.93517303   -7.8797926    538.58778  0.021311641  0.021240285            3 
 2107000   0.90891558   -7.8585836    540.35136  0.021371277  0.021234028            1 
 2108000   0.90961846    -7.841835    540.16249  0.021353672  0.021227791            3 
 2109000   0.90959384   -7.8622843    540.84364  0.021370461  0.021221628            1 
 2110000   0.91372973   -7.8455763    540.07227  0.021329869  0.021215436            1 
 2111000   0.90924255   -7.8292533    541.12681  0.021361393  0.021209301            3 
 2112000   0.91427091   -7.7984445    542.92796  0.021422347   0.02120326            1 
 2113000   0.92294738   -7.8601162    541.79875  0.021367674    0.0211972            2 
 2114000   0.89971036   -7.8554981    541.09658  0.021329887   0.02119106            6 
 2115000    0.9057452   -7.8246865    541.96785  0.021354131  0.021184867            3 
 2116000   0.91392705   -7.8436395    541.96169  0.021343797  0.021178771            3 
 2117000   0.90828717   -7.8330361     541.7433  0.021325118  0.021172609            2 
 2118000   0.90114864   -7.8593389    542.08614  0.021328539  0.021166489            1 
 2119000   0.91208985   -7.8063947    541.40707  0.021291768  0.021160338            3 
 2120000   0.89033226    -7.842855    542.19478  0.021312688  0.021154155            1 
 2121000   0.89821742   -7.8961994    540.75716  0.021246156  0.021147928            1 
 2122000   0.89210854   -7.8650111    543.87087  0.021358422  0.021141828            3 
 2123000   0.90997871   -7.8528538    541.63508  0.021260602  0.021135748            1 
 2124000   0.89282078   -7.8561862    541.13289  0.021230889  0.021129675            1 
 2125000   0.90725872   -7.8365889    543.28912  0.021305456   0.02112357            2 
 2126000   0.91002391   -7.8816011     542.6795  0.021271539  0.021117504            5 
 2127000   0.91354322   -7.8403026     542.5825  0.021257738   0.02111146            1 
 2128000   0.91045452   -7.8379707     544.8148  0.021335166  0.021105459            1 
 2129000   0.90265443   -7.8445714     543.7165  0.021282155   0.02109941            1 
 2130000   0.90580235   -7.8683045     541.5719  0.021188259  0.021093319            3 
 2131000   0.90057753   -7.8435775    543.05346  0.021236253  0.021087209            3 
 2132000   0.91309235   -7.8607145    544.26275   0.02127356  0.021081124            4 
 2133000   0.90582452   -7.8386963    543.96259  0.021251859  0.021075026            1 
 2134000   0.90581865   -7.8514724    543.30556  0.021216244  0.021068966            6 
 2135000   0.93190983   -7.8553739     543.7755  0.021224649  0.021062876            3 
 2136000   0.91217544   -7.8560024    544.05047   0.02122544  0.021056784            1 
 2137000   0.91550949   -7.8357534    544.43133  0.021230359  0.021050715            1 
 2138000    0.9054566   -7.8391915    544.11985  0.021208289  0.021044652            4 
 2139000   0.91784353   -7.8627105    545.58919  0.021255617  0.021038625            5 
 2140000   0.91494826   -7.9004018     543.9461  0.021181702   0.02103251            1 
 2141000   0.90613734     -7.89588    544.12522   0.02117878  0.021026403            2 
 2142000   0.90255872   -7.8618725    543.36221  0.021139208  0.021020306            1 
 2143000    0.9003232   -7.8701587    544.44082  0.021171287  0.021014185            1 
 2144000   0.89800929    -7.871622     544.5005  0.021163732  0.021008012            3 
 2145000   0.92106526   -7.8828787    544.09421  0.021138081  0.021001912            6 
 2146000   0.90605048   -7.8625737     546.3695  0.021216585  0.020995832            1 
 2147000    0.9041326   -7.8821438    545.54878  0.021174848  0.020989832            3 
 2148000   0.90235152   -7.8563887    543.75174  0.021095272  0.020983744            4 
 2149000   0.91532067   -7.8528203    545.95962  0.021171073   0.02097768            3 
 2150000   0.90454323   -7.8365305    546.75529  0.021192065  0.020971647            4 
 2151000   0.92057503   -7.8620425    545.96124   0.02115145  0.020965619            2 
 2152000    0.9123209   -7.8389416    546.14597  0.021148775  0.020959627            5 
 2153000   0.90432063   -7.8139946    548.24456  0.021220179  0.020953639            2 
 2154000   0.89776562   -7.8899478    547.08794  0.021165581  0.020947654            3 
 2155000   0.91179025   -7.8519798    547.57164  0.021174464  0.020941669            1 
 2156000   0.90635433   -7.8607089    547.29472  0.021153939  0.020935689            2 
 2157000   0.89724847   -7.8912416     545.9298    0.0210914  0.020929698            1 
 2158000   0.90262228   -7.8591934    548.55651   0.02118306  0.020923724            2 
 2159000   0.93056797   -7.8649922    547.86928  0.021146722  0.020917778            1 
 2160000   0.90080996   -7.8599606    546.84878  0.021097561  0.020911847            2 
 2161000   0.90078649    -7.872053    548.92858     0.021168  0.020905911            3 
 2162000   0.89788394   -7.8478844    549.18445  0.021168072  0.020899965            2 
 2163000   0.91975935   -7.8555311     548.5693  0.021134585  0.020894063            2 
 2164000   0.90362369   -7.8571949    549.87828  0.021175227  0.020888124            2 
 2165000   0.89505544   -7.8747099    546.78397  0.021046342  0.020882197            2 
 2166000   0.91010961   -7.8394632    549.74407  0.021150511  0.020876304            2 
 2167000   0.91010451   -7.8675434    548.08186  0.021076829  0.020870423            1 
 2168000   0.91485928   -7.8991052    548.05344  0.021066015  0.020864442            3 
 2169000   0.88960919   -7.8599263    548.75503  0.021083258  0.020858484            2 
 2170000    0.8990248   -7.8618283    549.31186  0.021094926  0.020852598            1 
 2171000   0.91531464   -7.8763272    548.33662  0.021047774   0.02084672            2 
 2172000   0.89109409   -7.8816702    549.04081  0.021065102   0.02084087            2 
 2173000   0.90578545   -7.8573125     550.1421  0.021097641  0.020835001            1 
 2174000   0.91252595    -7.859121    549.99129  0.021082156  0.020829141            4 
 2175000   0.90975082   -7.8754494    549.12884  0.021039419  0.020823298            2 
 2176000   0.90800734   -7.8505845    550.12799  0.021068014  0.020817439            2 
 2177000   0.90228283   -7.8843223    549.78035  0.021045029  0.020811542            4 
 2178000   0.91289128   -7.8731781    549.49565  0.021024474   0.02080566            3 
 2179000   0.90521861    -7.903344    549.29472  0.021007141  0.020799757            3 
 2180000   0.91255638   -7.8617103    549.41697  0.021002178  0.020793829            3 
 2181000   0.90113747   -7.8875628     549.0613  0.020978958  0.020787892            2 
 2182000   0.89557332   -7.8792286    548.57165  0.020950643  0.020781962            2 
 2183000   0.91160059   -7.8970309    548.33683  0.020932082  0.020776045            1 
 2184000   0.90301291   -7.8746603    549.91387  0.020982672  0.020770087            2 
 2185000   0.88551884   -7.8636451    549.63766  0.020962535  0.020764158            1 
 2186000   0.90167171   -7.8873771    549.39504  0.020943696  0.020758212            2 
 2187000   0.88627497    -7.881795    551.66329  0.021020549  0.020752247            3 
 2188000   0.90385178   -7.8673793    549.02582   0.02091049   0.02074629            1 
 2189000   0.91316003   -7.8926121    549.97371  0.020937023  0.020740292            2 
 2190000   0.89412549   -7.8395727    551.89607  0.021000611  0.020734368            2 
 2191000   0.92338814   -7.8692767    550.72932   0.02094665  0.020728441            2 
 2192000    0.8905804   -7.8510491    552.33167   0.02099801  0.020722479            2 
 2193000   0.91819666   -7.8621577    550.67122  0.020925339  0.020716509            2 
 2194000   0.88463727   -7.9087623    548.99739  0.020852225  0.020710509            2 
 2195000   0.90081303   -7.8851208    552.13064  0.020961679  0.020704469            1 
 2196000   0.89418753   -7.8606108    551.83997  0.020941104  0.020698478            1 
 2197000   0.89244137   -7.9095918    549.96564  0.020860478  0.020692442            2 
 2198000    0.8908817   -7.8801327    551.60034  0.020912964  0.020686425            4 
 2199000    0.8918474   -7.9314357    549.77537  0.020834295  0.020680436            3 
 2200000   0.91162835   -7.8728815     550.8222  0.020864477  0.020674424            2 
 2201000   0.90064134   -7.8961099     550.2648  0.020833894  0.020668445            1 
 2202000   0.88359564   -7.9137228    551.01705  0.020852901  0.020662366            1 
 2203000   0.89579896   -7.8896775    551.77843  0.020872236  0.020656303            4 
 2204000   0.90201492    -7.876357    551.70553  0.020860009  0.020650312            3 
 2205000   0.92608473   -7.8935043    551.85058  0.020856031  0.020644359            4 
 2206000    0.9022992   -7.8929679    550.01365  0.020777185  0.020638405            3 
 2207000   0.90157452   -7.8931881    551.90629  0.020839234  0.020632457            1 
 2208000   0.89344029   -7.8985394     551.3099  0.020807288  0.020626432            2 
 2209000   0.88955973   -7.8871862    551.77191  0.020815298  0.020620402            2 
 2210000   0.89183242    -7.898692     551.7255  0.020804129  0.020614436            2 
 2211000   0.91466293   -7.9030797    551.62623  0.020790978  0.020608495            3 
 2212000    0.8918263   -7.8909077    551.84207   0.02078971  0.020602533            2 
 2213000   0.88528462   -7.8714055     552.8873  0.020819675   0.02059658            2 
 2214000   0.90427774   -7.9083745    552.58824  0.020799015  0.020590653            2 
 2215000   0.89898724   -7.8828145    552.79145   0.02079727  0.020584756            1 
 2216000   0.88579013   -7.8796295    554.04021  0.020834846  0.020578844            4 
 2217000   0.90604114   -7.8850004    552.99515  0.020786166  0.020572966            1 
 2218000   0.90199326   -7.8874236    553.00222   0.02077706  0.020567055            1 
 2219000   0.89476749   -7.9203294    552.66199  0.020754919  0.020561148            2 
 2220000   0.89706958   -7.8688025    552.82985  0.020751871  0.020555209            2 
 2221000   0.90330221   -7.9132756    553.78254  0.020778273  0.020549272            2 
 2222000   0.89200209   -7.9071583    553.63174  0.020763267  0.020543285            4 
 2223000   0.90534062   -7.8862697    554.55517  0.020788543  0.020537358            2 
 2224000   0.89030192   -7.8736242    553.58889  0.020742989  0.020531493            3 
 2225000   0.88862838   -7.9016039    553.89584  0.020745162  0.020525597            2 
 2226000   0.90287406   -7.9021893    552.55656  0.020685705  0.020519574            1 
 2227000   0.89637562   -7.9192524     552.4022  0.020670641   0.02051352            2 
 2228000   0.90994403   -7.9218502    551.59418  0.020631141  0.020507444            1 
 2229000   0.88085849   -7.9041311    552.71904  0.020663939  0.020501367            1 
 2230000   0.89462615   -7.9130047     554.2549  0.020712066  0.020495333            2 
 2231000   0.89108149    -7.887889     553.4038  0.020670992  0.020489267            5 
 2232000   0.89590979   -7.8861278    551.87865  0.020604788  0.020483245            2 
 2233000   0.88783351   -7.9056297    552.44111  0.020616551  0.020477186            2 
 2234000   0.91809411   -7.8890837    553.43791  0.020644506  0.020471162            4 
 2235000   0.86743626    -7.929662    551.83516  0.020575509  0.020465087            2 
 2236000   0.89642133   -7.9382905    552.25514   0.02058196  0.020458987            2 
 2237000   0.91080693   -7.9070744    554.22969  0.020646315  0.020452896            1 
 2238000   0.87903271   -7.9027801    553.08784  0.020594573  0.020446816            1 
 2239000   0.90943589   -7.9404429     553.1281  0.020586873  0.020440747            2 
 2240000   0.90856288   -7.9163373    553.28381  0.020583475  0.020434635            2 
 2241000   0.90052639   -7.9126421     553.0948  0.020567262  0.020428594            3 
 2242000   0.90166686    -7.885237     555.5628  0.020649821  0.020422612            3 
 2243000   0.91177534   -7.8981804    553.80104  0.020575161  0.020416558            2 
 2244000   0.89991262   -7.9071842    554.53145  0.020593117  0.020410584            2 
 2245000    0.8722365   -7.8619479     554.5163  0.020583382  0.020404626            2 
 2246000   0.88031611     -7.89547     555.9161  0.020626154  0.020398592            1 
 2247000   0.89283096   -7.9183956    554.27567  0.020556137  0.020392601            2 
 2248000   0.88976254   -7.9262675    554.72355  0.020563595  0.020386616            5 
 2249000   0.88604819    -7.931291    554.97774  0.020563871  0.020380633            1 
 2250000   0.87638378   -7.9216467    555.47569  0.020573174  0.020374699            2 
 2251000   0.89373498   -7.8945373    556.38371  0.020597649  0.020368721            1 
 2252000   0.90036864   -7.8764977     556.4874   0.02059234  0.020362756            2 
 2253000   0.88635279   -7.8923691    556.04767  0.020566936   0.02035681            2 
 2254000   0.85700123   -7.9036845     555.2386  0.020527898  0.020350831            1 
 2255000   0.88152509   -7.8670784    556.16993  0.020553212    0.0203449            1 
 2256000   0.91411081   -7.9060045    556.00584  0.020538041  0.020338985            1 
 2257000   0.90159553   -7.8815032    555.97898  0.020527949  0.020333027            1 
 2258000    0.9052338   -7.9140974    556.19212  0.020526724  0.020327097            2 
 2259000   0.89174254    -7.923841    554.53143  0.020456376   0.02032109            2 
 2260000   0.87584094   -7.8893603    556.54618  0.020521614  0.020315066            1 
 2261000    0.8798601   -7.9089784    555.07193  0.020458202  0.020309048            2 
 2262000   0.88977906   -7.8823212    558.42223  0.020572584  0.020303062            2 
 2263000   0.86667334   -7.8998192    556.46389  0.020491379  0.020297084            2 
 2264000   0.88682126    -7.898324    555.59475  0.020450337  0.020291089            4 
 2265000   0.88588879   -7.9388565    556.72308  0.020482821  0.020285051            3 
 2266000   0.89050018   -7.9189404     555.1088  0.020414416  0.020279017            2 
 2267000   0.87746152   -7.8948626    555.29592  0.020412289     0.020273            3 
 2268000   0.89448959   -7.9145662    557.71799  0.020492283  0.020267022            2 
 2269000   0.90146668   -7.8979572     556.9616  0.020455472  0.020261037            2 
 2270000   0.90008171   -7.9138983    557.68796  0.020473126  0.020255074            1 
 2271000   0.89646496   -7.9288803    556.48573  0.020419996  0.020249034            2 
 2272000   0.89867829   -7.9181346    556.30551  0.020404398  0.020243022            2 
 2273000   0.88639149   -7.9484122    556.19111  0.020391227  0.020236989            3 
 2274000   0.89326211    -7.931476    556.34087  0.020387748  0.020231006            2 
 2275000   0.87771833   -7.9093387    558.08537  0.020442688  0.020225051            1 
 2276000   0.89479752   -7.9181753    557.20009  0.020401292  0.020219111            3 
 2277000   0.88667813   -7.9204226    558.25138  0.020430807  0.020213129            2 
 2278000   0.87103604   -7.9024162    557.05804  0.020378184   0.02020716            3 
 2279000    0.9076579   -7.9164099    558.13179  0.020408505  0.020201173            3 
 2280000   0.89732819   -7.8920246    558.12665  0.020399366  0.020195198            2 
 2281000   0.87284197   -7.9117078    558.22763  0.020394112  0.020189198            2 
 2282000   0.88451477   -7.9232674    557.47416   0.02035766  0.020183149            3 
 2283000   0.88758033    -7.896826    559.08292  0.020407465  0.020177157            2 
 2284000   0.89769263    -7.928797    557.68969  0.020347697  0.020171179            4 
 2285000   0.87693324   -7.9111633     557.7651  0.020341543  0.020165189            3 
 2286000   0.88266804   -7.9252655    558.43323     0.020357  0.020159162            2 
 2287000    0.8792844   -7.9188996    558.90048  0.020365125  0.020153147            2 
 2288000   0.88920123   -7.9683625    557.10783  0.020290932  0.020147175            1 
 2289000   0.89379889    -7.954886    556.53116  0.020261073   0.02014118            3 
 2290000   0.88131295   -7.9490263    559.09034  0.020345354  0.020135165            3 
 2291000   0.89171382   -7.9267926    559.15472  0.020338816  0.020129215            1 
 2292000   0.88917343   -7.9313172    559.04428  0.020325926  0.020123268            2 
 2293000   0.88903912   -7.8871847    558.92527  0.020312737  0.020117311            1 
 2294000   0.85792652   -7.9440046    559.12743  0.020311226  0.020111358            2 
 2295000   0.88214959   -7.9081434    559.95225  0.020332326  0.020105411            3 
 2296000    0.8718704   -7.9066616    558.65122  0.020276249  0.020099472            2 
 2297000   0.86158891   -7.9844855    559.26754  0.020289782  0.020093487            2 
 2298000   0.88558732   -7.9192253    559.90041  0.020303902  0.020087556            2 
 2299000   0.89560881   -7.9508071    559.97672  0.020297837  0.020081624            1 
 2300000   0.87401137   -7.9350713    562.09646  0.020365814  0.020075701            3 
 2301000   0.89173575   -7.9454196    561.03718    0.0203186  0.020069792            1 
 2302000   0.88283787   -7.9456722    559.47689   0.02025329  0.020063852            1 
 2303000   0.87979212   -7.9296125    561.53123  0.020318832  0.020057921            4 
 2304000   0.88111828   -7.9099996    560.58545  0.020275805  0.020051999            3 
 2305000    0.8934223   -7.9262438    560.20152  0.020253128    0.0200461            1 
 2306000   0.90133078   -7.9382115    560.07641  0.020239824  0.020040191            3 
 2307000   0.86899722   -7.9224576    561.68627  0.020289202   0.02003427            1 
 2308000   0.87307089   -7.9488581    559.78707  0.020211838  0.020028363            2 
 2309000   0.89343593   -7.8859987    561.44942   0.02026308  0.020022468            2 
 2310000   0.88366691   -7.9162016    560.54462  0.020221667  0.020016579            2 
 2311000   0.88608004   -7.9017803    561.25523  0.020238541  0.020010719            2 
 2312000   0.88629165   -7.9098338    561.56943  0.020241113  0.020004859            2 
 2313000   0.87865553   -7.9500915    562.00174  0.020247937  0.019998997            2 
 2314000   0.87722523   -7.9308495    561.19544   0.02021015  0.019993123            3 
 2315000   0.86915694   -7.9243678    563.03196  0.020267529   0.01998727            2 
 2316000   0.87287671   -7.9303232    561.42477  0.020200949  0.019981448            4 
 2317000   0.89473821   -7.9370914    562.11021  0.020216883  0.019975602            1 
 2318000   0.89350889    -7.957129    561.65526  0.020191805  0.019969754            1 
 2319000   0.89031129   -7.9298224    561.09045  0.020162802  0.019963871            3 
 2320000    0.8620591   -7.9623611    560.74497  0.020141702  0.019957966            1 
 2321000   0.87264395   -7.9342614    562.77218  0.020205809  0.019952043            2 
 2322000   0.86210363   -7.9343146     562.0562  0.020171411  0.019946177            3 
 2323000   0.86756775   -7.9868782    560.78193  0.020117016  0.019940202            2 
 2324000   0.88323267   -7.9758422    560.86139  0.020111209  0.019934228            4 
 2325000   0.87786638   -7.9348309    562.14147   0.02014844  0.019928277            1 
 2326000    0.8962786   -7.9749824    561.42782   0.02011421  0.019922372            1 
 2327000   0.86755242   -7.9561075    562.49774  0.020143881  0.019916497            1 
 2328000    0.8676385   -7.9348061     562.6433  0.020140439  0.019910631            1 
 2329000    0.8787746   -7.9265532    563.30683  0.020155533  0.019904744            2 
 2330000   0.89005838   -7.9217161      565.167  0.020213412  0.019898873            3 
 2331000   0.89755556   -7.9009643    563.74332  0.020153844  0.019893077            3 
 2332000    0.8816195   -7.9673323    562.66562   0.02010669  0.019887266            1 
 2333000   0.88991855   -7.9025773    564.21742  0.020153501  0.019881411            3 
 2334000   0.88107159   -7.9390198    563.41575  0.020116243   0.01987559            2 
 2335000   0.85971144   -7.9559062    562.80472  0.020085822  0.019869745            2 
 2336000   0.90365983   -7.9354171    563.39042  0.020098117  0.019863876            2 
 2337000   0.87682022   -7.9495701    563.29683   0.02008618  0.019858059            3 
 2338000   0.88644372   -7.9611395    563.32139  0.020078464  0.019852214            2 
 2339000   0.87989321   -7.9563498    563.21384  0.020066048  0.019846347            2 
 2340000   0.86937356   -7.9225948    565.21486  0.020128734  0.019840543            1 
 2341000    0.8788622   -7.9032545    565.78748   0.02014052  0.019834786            3 
 2342000   0.88688695   -7.9404013    565.02713  0.020104865  0.019828996            2 
 2343000    0.8692551    -7.954943    563.87842  0.020055428  0.019823231            2 
 2344000   0.86209924   -7.9373851    566.09079  0.020125526  0.019817438            1 
 2345000   0.89459514    -7.924608    565.09682  0.020081621  0.019811647            2 
 2346000   0.87815256   -7.9417752    564.57209  0.020054422  0.019805779            2 
 2347000   0.86282152    -7.931084    564.93064  0.020058608  0.019799913            2 
 2348000    0.8798328   -7.9545252    563.46668  0.019998107  0.019794045            1 
 2349000   0.89339632   -7.9299618    564.98451  0.020043441  0.019788233            2 
 2350000   0.88864763   -7.9611428    564.10068   0.02000357  0.019782424            1 
 2351000   0.89266059    -7.938286    564.61151  0.020013168  0.019776575            1 
 2352000   0.88766646   -7.9681129    563.82741  0.019976878  0.019770742            3 
 2353000    0.8571999   -7.9390885    565.64993  0.020032934  0.019764935            5 
 2354000   0.86970886    -7.939297    565.08051  0.020004266  0.019759116            2 
 2355000   0.87569474    -7.948737    565.33209  0.020004674  0.019753294            1 
 2356000   0.87345524   -7.9293192    565.74897  0.020010928   0.01974748            2 
 2357000   0.86874451   -7.9568566    565.05452  0.019977886  0.019741679            2 
 2358000   0.85438939   -7.9360035    566.03304  0.020003995  0.019735843            2 
 2359000   0.89440859    -7.977717    564.59775  0.019944813  0.019729985            2 
 2360000   0.87537822   -7.9825481    565.43943  0.019966082  0.019724157            3 
 2361000   0.88550296   -7.9744546    565.94901  0.019975611  0.019718319            2 
 2362000   0.86979311   -7.9744807    565.89962  0.019965411  0.019712475            2 
 2363000   0.87758098   -7.9742553    566.09707  0.019963925  0.019706638            2 
 2364000   0.87661554   -7.9535518    566.10754  0.019955849  0.019700815            1 
 2365000   0.86155844   -7.9813723    564.18162   0.01987955  0.019694954            1 
 2366000   0.86631898   -7.9530814    565.49145  0.019917281  0.019689058            1 
 2367000   0.89424884   -7.9404339    566.88422  0.019957901  0.019683231            1 
 2368000   0.89866506   -7.9345971    568.34252  0.020000793  0.019677471            2 
 2369000   0.87297592   -7.9407127    568.01169  0.019980712  0.019671711            2 
 2370000   0.87264257     -7.93365    565.74071   0.01989243  0.019665939            1 
 2371000   0.86256516   -7.9288474    567.74903  0.019954627   0.01966015            1 
 2372000   0.88108906   -7.9613183    566.67996  0.019908655  0.019654391            4 
 2373000   0.88571243   -7.9270493    567.59908  0.019932543  0.019648619            3 
 2374000   0.87552484   -7.9550326    567.15951  0.019908716  0.019642848            4 
 2375000   0.88119101   -7.9400074    567.87477   0.01992543  0.019637073            1 
 2376000   0.88247685   -7.9448479    568.48193  0.019938339  0.019631282            3 
 2377000   0.87628758     -7.94137    568.29175  0.019923284  0.019625507            3 
 2378000   0.86897221   -7.9610492    567.79399  0.019897463  0.019619706            2 
 2379000   0.86549258   -7.9490463    567.22988  0.019869339  0.019613919            2 
 2380000    0.8524208   -7.9573257    566.48201  0.019834804  0.019608152            2 
 2381000   0.86878597   -7.9492008     568.5138  0.019897585  0.019602367            2 
 2382000   0.86610158   -7.9755993    567.53216  0.019854889  0.019596553            2 
 2383000   0.85880662     -7.95447    568.12545  0.019867305  0.019590745            1 
 2384000   0.87213902   -7.9687319    566.27531  0.019794299  0.019584888            3 
 2385000   0.87684642   -7.9462113    566.09658  0.019779755   0.01957908            3 
 2386000   0.87110146   -7.9574308    568.57276  0.019857948  0.019573259            1 
 2387000   0.86760481   -7.9168915    568.30409  0.019840249  0.019567512            5 
 2388000    0.8649059   -7.9540536    568.23888  0.019829665  0.019561741            2 
 2389000   0.88684586    -7.987473     567.7601  0.019804664  0.019555942            1 
 2390000   0.88594729   -7.9883945    567.91529  0.019801788  0.019550117            3 
 2391000   0.86512657   -7.9752428    569.15249  0.019836627   0.01954432            3 
 2392000   0.86395254   -7.9685226    568.91093  0.019819918  0.019538468            2 
 2393000   0.84912568   -7.9809476    567.58187  0.019765353  0.019532645            2 
 2394000   0.86417145   -7.9365828    569.05913  0.019808519  0.019526855            2 
 2395000   0.89087479    -7.936059    568.84559  0.019792818  0.019521069            2 
 2396000   0.89593572   -7.9775561     568.2287  0.019763102    0.0195153            2 
 2397000   0.88267429   -7.9170853    570.28149  0.019826224  0.019509515            3 
 2398000   0.87086057   -7.9520403      568.356  0.019751043  0.019503766            2 
 2399000   0.88003856   -7.9564476    569.91748   0.01979705  0.019498004            3 
 2400000   0.88072679   -7.9443675    569.95438  0.019790083  0.019492245            3 
 2401000   0.87179226   -7.9422515    569.75736  0.019775002  0.019486559            3 
 2402000   0.87111309    -7.984715    569.49868  0.019757795  0.019480831            5 
 2403000   0.87371366   -7.9539545    569.58356  0.019752516   0.01947505            2 
 2404000   0.86171137   -7.9502045     569.5808  0.019744204  0.019469306            1 
 2405000   0.88513825   -7.9772742    568.29414  0.019691412   0.01946357            2 
 2406000   0.86944843   -7.9861903    568.77988  0.019700051  0.019457784            2 
 2407000   0.88638481   -7.9698523    569.34618  0.019711473  0.019452035            2 
 2408000   0.85587624   -7.9684162    569.28435  0.019701147  0.019446222            1 
 2409000   0.84286036   -7.9902824    569.80256  0.019710895  0.019440396            2 
 2410000   0.88354077   -7.9860197    569.23277  0.019683014  0.019434603            1 
 2411000   0.87865825   -7.9682503    569.17185  0.019672745  0.019428842            2 
 2412000   0.88170908   -7.9294233    570.36953  0.019705968  0.019423083            2 
 2413000   0.86105157   -7.9111193     570.5865  0.019705294   0.01941735            4 
 2414000   0.86632089   -7.9766646    570.01329  0.019677344   0.01941157            2 
 2415000   0.85968176   -7.9837195    570.98361  0.019702678  0.019405757            2 
 2416000   0.86708193   -7.9551681    570.66166  0.019683418  0.019399968            2 
 2417000   0.85516519   -7.9799782    569.78402  0.019645015  0.019394232            1 
 2418000   0.85210956    -7.997148    568.23201  0.019583402  0.019388418            5 
 2419000    0.8715848   -7.9725969    570.17368  0.019642197  0.019382582            2 
 2420000   0.86066696   -7.9956782    569.84944  0.019622915  0.019376754            1 
 2421000   0.88232299   -8.0061586    569.95789  0.019618542  0.019370935            2 
 2422000   0.86690085   -7.9891089    570.31253  0.019622644  0.019365123            3 
 2423000   0.85781035   -7.9834367    570.00772  0.019604062   0.01935931            2 
 2424000   0.88422449   -8.0090372    570.28042   0.01960535  0.019353473            3 
 2425000    0.8706476   -8.0064291    569.53325  0.019571589  0.019347657            2 
 2426000    0.8627888   -7.9637129    571.36474  0.019626434  0.019341863            1 
 2427000   0.86322876   -7.9935329    570.86288  0.019601115  0.019336074            2 
 2428000   0.84400461   -7.9826451    571.17103  0.019603618  0.019330252            2 
 2429000   0.85735941   -7.9907751    569.92875  0.019552928  0.019324445            3 
 2430000   0.86348965    -7.981818    570.39229  0.019560778  0.019318671            3 
 2431000   0.84175471   -7.9515845    571.40272  0.019587369  0.019312892            2 
 2432000   0.85927902   -7.9834944    570.99042  0.019565187  0.019307139            1 
 2433000   0.86004463   -7.9879579    572.35993  0.019604053  0.019301347            1 
 2434000    0.8582752   -7.9741695    570.58779  0.019535326  0.019295538            3 
 2435000    0.8580193   -7.9547295     571.7201  0.019566054  0.019289764            3 
 2436000   0.85606574   -8.0002139    572.04313  0.019569073  0.019283976            4 
 2437000   0.86303175   -7.9871509    571.75539  0.019551203  0.019278188            4 
 2438000   0.87489666   -8.0029092    570.43861  0.019498175  0.019272416            1 
 2439000   0.87218282   -7.9716327    571.88422  0.019539573  0.019266664            1 
 2440000   0.86619385   -7.9703393    570.88674  0.019497498  0.019260926            2 
 2441000   0.85624419   -7.9627424    572.41226   0.01954159  0.019255153            4 
 2442000   0.85121241   -7.9863816    570.18991   0.01945775  0.019249363            3 
 2443000   0.86942883   -8.0344571    570.23259  0.019451241   0.01924359            3 
 2444000   0.86827786   -8.0130499    571.59833   0.01948985    0.0192378            2 
 2445000    0.8661546   -8.0042522     572.2237  0.019503194  0.019232038            2 
 2446000   0.87145872   -7.9839186    572.00132  0.019487644  0.019226301            2 
 2447000   0.86738015    -7.997616    574.51321  0.019565223  0.019220606            3 
 2448000   0.87540437   -7.9692938    572.95903  0.019504324  0.019214892            2 
 2449000   0.85418672   -7.9954117    571.50905  0.019447021  0.019209159            3 
 2450000   0.84085567    -7.975744    572.15803  0.019461157  0.019203418            2 
 2451000   0.85768392   -8.0296065    570.90888  0.019410747  0.019197624            2 
 2452000   0.88013801   -8.0117132    571.91674  0.019437083  0.019191853            2 
 2453000   0.85967962   -7.9891817    573.97155  0.019498966  0.019186113            1 
 2454000   0.85558844   -7.9987363    572.03137  0.019425135  0.019180375            1 
 2455000   0.84644672   -8.0001305    572.71216  0.019440331  0.019174594            2 
 2456000   0.86932565   -8.0129625    573.27606  0.019451549  0.019168811            3 
 2457000   0.84287331   -8.0031961    572.53694  0.019418564  0.019163035            3 
 2458000   0.87497143   -8.0116633    572.93621    0.0194242  0.019157252            1 
 2459000   0.85394867   -7.9939657    574.12641  0.019456636  0.019151486            4 
 2460000   0.83672911   -8.0061676    572.67403  0.019399527  0.019145719            2 
 2461000   0.85703085   -8.0197385    572.36179  0.019381071  0.019139946            2 
 2462000   0.86654353   -7.9844225    573.35345  0.019406764  0.019134179            1 
 2463000   0.86103133   -8.0038436    573.25797  0.019395655  0.019128405            4 
 2464000   0.85794034   -8.0275688    572.87219  0.019374736  0.019122595            5 
 2465000   0.85929633   -7.9991883    572.01266  0.019337818  0.019116782            2 
 2466000   0.89082589    -8.002655    572.19477  0.019336131  0.019110959            3 
 2467000    0.8486328   -8.0110094    574.22738  0.019396952  0.019105125            2 
 2468000    0.8625822   -7.9713603    573.75065  0.019372996  0.019099323            2 
 2469000   0.85616189   -8.0258199    572.72026  0.019330372  0.019093514            2 
 2470000   0.85797657   -7.9846434    573.13373  0.019336496  0.019087713            1 
 2471000   0.85574228   -7.9662404    575.37502  0.019404257  0.019081953            3 
 2472000   0.87593982   -7.9929471    574.23196  0.019357873    0.0190762            1 
 2473000   0.86586401   -7.9769764    574.37767  0.019354956  0.019070463            1 
 2474000   0.84852505   -8.0101489    573.54546    0.0193191  0.019064694            2 
 2475000   0.84651644   -7.9956489    573.53581   0.01931097  0.019058909            4 
 2476000   0.85983127   -8.0173842    572.30144  0.019261626  0.019053104            1 
 2477000   0.84507849   -8.0263793    574.62679  0.019332082  0.019047273            3 
 2478000   0.85046514    -8.016904    573.46039  0.019285055  0.019041471            3 
 2479000   0.85714213   -8.0105044    573.75564    0.0192872  0.019035673            1 
 2480000   0.84614919   -7.9770977    573.34328  0.019265567  0.019029881            2 
 2481000   0.84209753   -8.0066872    574.72971   0.01930437  0.019024112            1 
 2482000   0.84651396    -8.009534     574.9615  0.019304375  0.019018315            2 
 2483000   0.84818023   -8.0108515    575.29386  0.019307755  0.019012543            2 
 2484000   0.84853043   -7.9530195    573.77853  0.019249145  0.019006791            2 
 2485000   0.87461314   -8.0120995    575.11043  0.019286064  0.019001031            2 
 2486000   0.84575091   -8.0034562    574.22775  0.019248718  0.018995251            1 
 2487000   0.87301606   -7.9717743    573.19864  0.019206495  0.018989492            1 
 2488000   0.85654654   -7.9742764    574.57567  0.019244898  0.018983771            3 
 2489000    0.8559346   -8.0264221    575.52807  0.019269053  0.018978055            1 
 2490000   0.85570335   -8.0172177    573.19962  0.019183387  0.018972299            2 
 2491000   0.86058649   -8.0137946    574.97288  0.019235009  0.018966584            2 
 2492000   0.84291429   -7.9872828    574.94775   0.01922645  0.018960841            2 
 2493000   0.84740477   -8.0111092    575.07824  0.019223099  0.018955062            3 
 2494000   0.85102772   -8.0361429    573.82589  0.019173546  0.018949279            6 
 2495000   0.85071717   -8.0174446    575.44329  0.019219883  0.018943456            4 
 2496000   0.85492828   -8.0171648    575.06472  0.019199543  0.018937618            2 
 2497000   0.86441395   -8.0208749     574.8971   0.01918626   0.01893181            2 
 2498000   0.86265534   -7.9891837    575.51302  0.019199127  0.018926069            1 
 2499000   0.86607411   -8.0001077    575.48542  0.019190523  0.018920345            1 
 2500000     0.855411     -8.00601    576.02297  0.019200766  0.018914584            3 
 2501000   0.84649172   -7.9965452    574.94799   0.01915727  0.018908846            1 
 2502000   0.84421276   -8.0112388    575.37103  0.019163703  0.018903123            2 
 2503000   0.86079762   -8.0226371    575.17658  0.019149573  0.018897353            1 
 2504000   0.87288351   -8.0117865    575.04397  0.019137512  0.018891527            1 
 2505000   0.86912351   -8.0219395    575.30276  0.019138482  0.018885742            4 
 2506000   0.85440032   -7.9996344    575.08711  0.019123674  0.018879945            4 
 2507000   0.85365746   -8.0105157    575.89296  0.019142832  0.018874154            2 
 2508000   0.83967913   -8.0171849    577.53903  0.019189893  0.018868395            2 
 2509000   0.86052658   -7.9816167    577.94167  0.019195618  0.018862647            3 
 2510000   0.85499919    -7.973526     577.3609  0.019168689  0.018856961            2 
 2511000   0.84328389   -8.0150726    576.38154  0.019128552  0.018851225            2 
 2512000   0.84122689   -8.0020016    577.22383   0.01914888  0.018845454            3 
 2513000    0.8673748   -8.0447479    575.97115   0.01909972  0.018839662            1 
 2514000   0.83082057   -7.9711605    577.55081  0.019144485   0.01883389            1 
 2515000   0.84502981   -8.0291845    575.36321  0.019064387  0.018828083            1 
 2516000    0.8435379   -8.0115023    575.97584  0.019077101  0.018822314            3 
 2517000     0.854069   -8.0061124    576.05491   0.01907214  0.018816551            5 
 2518000   0.84790363   -8.0210786    575.64805    0.0190511   0.01881076            2 
 2519000   0.83943493   -8.0334653    577.22631  0.019095749  0.018804991            3 
 2520000   0.85611236   -8.0419552    577.02375  0.019081473  0.018799226            1 
 2521000   0.85037722   -8.0065565    576.21717  0.019047242  0.018793452            2 
 2522000   0.85919058    -7.985975    577.10147  0.019068909   0.01878772            3 
 2523000   0.85121744    -8.009629    577.04398  0.019059452  0.018782011            2 
 2524000    0.8437158   -8.0218204    576.24307  0.019025458  0.018776261            2 
 2525000   0.84570078   -8.0523614    576.93444  0.019040741  0.018770538            2 
 2526000   0.84364095   -8.0335181      577.232  0.019043019  0.018764811            2 
 2527000   0.85043755   -8.0268448    577.52427  0.019045122  0.018759084            2 
 2528000   0.86926997   -8.0309757    577.61977  0.019040736  0.018753358            2 
 2529000   0.84358141   -8.0406187    576.75843  0.019004825  0.018747663            2 
 2530000   0.83808774    -8.021401    577.83727  0.019032848  0.018741908            1 
 2531000   0.82902245   -8.0306913    575.57212  0.018950748  0.018736155            2 
 2532000   0.84630137   -8.0215476    577.82764  0.019017497  0.018730454            3 
 2533000   0.84056797   -8.0181199     577.3249   0.01899345  0.018724784            1 
 2534000   0.87321068   -8.0059204    578.41516  0.019021809  0.018719084            3 
 2535000   0.85464553   -8.0254557    578.19137  0.019006949  0.018713427            3 
 2536000   0.83488821   -8.0504658    577.65117  0.018981702  0.018707774            4 
 2537000   0.84285291   -8.0296839    577.60605  0.018972738  0.018702106            1 
 2538000   0.83310528   -8.0617339    577.63557  0.018966232  0.018696415            2 
 2539000   0.84022199   -8.0374433    576.32121  0.018915623  0.018690726            1 
 2540000   0.83741191   -8.0426476    578.01428  0.018963723  0.018685011            2 
 2541000   0.83306537   -8.0270102    579.83216  0.019015878  0.018679308            4 
 2542000    0.8513897   -8.0233071     578.6638  0.018970096  0.018673623            3 
 2543000   0.85865163   -8.0421453    577.98207  0.018940296  0.018667896            2 
 2544000   0.85174919   -8.0330236    578.60397  0.018953222  0.018662174            2 
 2545000   0.83497932   -8.0173044    577.25744  0.018901684  0.018656432            2 
 2546000   0.85709702   -8.0580683    577.68296  0.018908188  0.018650707            2 
 2547000   0.84272046   -8.0081165    578.11408   0.01891487  0.018645018            3 
 2548000   0.85014151   -8.0304954    579.88125  0.018965242    0.0186393            1 
 2549000   0.82148502   -8.0458709    578.23591  0.018904012  0.018633574            2 
 2550000   0.84022684   -8.0210981    578.08998  0.018891829  0.018627849            3 
 2551000   0.85540824   -8.0244971     579.3726  0.018926323  0.018622149            2 
 2552000   0.83362598   -8.0467934    577.85551  0.018869368  0.018616441            6 
 2553000   0.84252904   -8.0367204    578.91495  0.018896558  0.018610761            1 
 2554000   0.83551709   -8.0336814     579.5766  0.018910748   0.01860509            4 
 2555000   0.85520163   -7.9996329    579.49021  0.018900529  0.018599422            1 
 2556000   0.84972791   -8.0341657    578.41895  0.018858208  0.018593757            3 
 2557000   0.83466309   -8.0208842      578.069  0.018839428  0.018588051            2 
 2558000   0.82882673   -8.0488921    578.77548  0.018855078  0.018582345            4 
 2559000   0.84420383   -8.0316278    578.62332  0.018842755  0.018576642            4 
 2560000   0.82674413   -8.0158421    579.44545  0.018862156   0.01857092            1 
 2561000    0.8286172   -8.0928495    578.51377  0.018824475  0.018565197            2 
 2562000   0.81573498   -8.0442666     578.7094  0.018823491  0.018559462            2 
 2563000   0.84930863   -8.0343555    578.92834  0.018823265  0.018553718            3 
 2564000   0.83838099   -8.0439918     579.5367  0.018835696  0.018548019            2 
 2565000   0.83114664   -8.0412418    579.99734  0.018843318  0.018542347            2 
 2566000   0.82739771   -8.0673619     580.3591  0.018847723  0.018536648            3 
 2567000   0.83120595   -8.0442564      579.291  0.018805707  0.018530922            2 
 2568000   0.84774093   -8.0739982    578.04891  0.018758077  0.018525185            3 
 2569000   0.84430716   -8.0658059    579.61536  0.018801588  0.018519434            1 
 2570000   0.83390072   -8.0299018    579.49558  0.018790389  0.018513694            1 
 2571000   0.85411428   -8.0157917    579.71977  0.018790347  0.018508024            2 
 2572000   0.83428299   -8.0653533    579.01031  0.018760054  0.018502327            4 
 2573000   0.84733793   -8.0596636    578.14626  0.018724779  0.018496609            1 
 2574000   0.85423845   -8.0540194    579.43039  0.018759078  0.018490944            4 
 2575000   0.83524435   -8.0509683    581.27766  0.018811575  0.018485266            1 
 2576000   0.83696022   -8.0425557    581.69085  0.018817639  0.018479624            2 
 2577000   0.84314479   -8.0259611    580.98921  0.018787647     0.018474            1 
 2578000   0.84028238   -8.0188229    580.69604  0.018770883  0.018468345            2 
 2579000   0.84496001   -8.0635433     581.5612   0.01879156  0.018462729            2 
 2580000   0.83744339   -8.0649485    581.34619  0.018777332  0.018457111            1 
 2581000   0.82999023   -8.0190874    582.33454  0.018801968  0.018451498            2 
 2582000   0.84342722   -8.0375615    580.81904  0.018745773  0.018445871            4 
 2583000   0.84902129   -8.0149887    580.97615  0.018743585  0.018440248            2 
 2584000   0.83711895    -8.044804     581.1032  0.018740428  0.018434602            2 
 2585000   0.82672033   -8.0534818    580.20726  0.018704296  0.018428946            2 
 2586000   0.83461392   -8.0464785    580.91151  0.018719757  0.018423279            2 
 2587000   0.83917646    -8.067486     581.5717  0.018733788  0.018417614            2 
 2588000   0.84552541   -8.0408917    580.08141  0.018678562  0.018411935            1 
 2589000   0.83832477   -8.0783099    581.09401   0.01870394  0.018406227            3 
 2590000   0.82894369   -8.0501223    580.56286  0.018679629  0.018400518            4 
 2591000   0.84078319   -8.0667139    580.00748  0.018654557  0.018394777            2 
 2592000   0.84048943   -8.0357282    581.75367    0.0187035  0.018389075            1 
 2593000    0.8331096   -8.0241345    582.14003  0.018708704  0.018383432            3 
 2594000   0.82964537   -8.0484204    581.84889  0.018692139  0.018377774            3 
 2595000   0.84117458   -8.0618506    580.06054  0.018627506  0.018372083            3 
 2596000   0.84065772   -8.0587809    580.49922  0.018634412  0.018366412            1 
 2597000   0.83435274   -8.0522113    581.54917  0.018660928  0.018360784            3 
 2598000   0.85976598    -8.021147    583.20534  0.018706869  0.018355134            3 
 2599000   0.82112443   -8.0170144    581.49081  0.018644697  0.018349508            2 
 2600000   0.83654304   -8.0142451    582.50984  0.018670187  0.018343867            1 
 2601000   0.85379186    -8.009702    583.10808  0.018682176  0.018338212            1 
 2602000   0.82308151   -8.0301526    581.30905  0.018617379  0.018332609            3 
 2603000   0.84505438   -8.0209801    582.12923  0.018636485     0.018327            1 
 2604000     0.823819   -8.0619963    582.08337   0.01862786  0.018321392            3 
 2605000   0.84057034   -8.0276071    582.82411  0.018644405  0.018315759            1 
 2606000   0.83955896   -8.0211602    581.10119  0.018582156  0.018310123            1 
 2607000    0.8516902   -8.0398429    581.52824  0.018588679  0.018304509            2 
 2608000   0.83563692   -8.0703497     580.0584  0.018534586  0.018298822            1 
 2609000   0.84360803   -8.0627692    581.27377  0.018566301  0.018293102            1 
 2610000   0.82646463   -8.0843243    580.91734  0.018547808  0.018287415            3 
 2611000   0.84074084   -8.0582556    582.79078  0.018600497  0.018281706            4 
 2612000   0.82890419    -8.067498    580.96326  0.018535071  0.018276039            3 
 2613000   0.85592312   -8.0319021    581.01105  0.018529501  0.018270362            1 
 2614000   0.83611987   -8.0603949    581.69726  0.018544289  0.018264679            2 
 2615000   0.82897508   -8.0459975    583.18542  0.018584621  0.018259006            3 
 2616000    0.8379223   -8.0612119     581.9974  0.018539673  0.018253322            1 
 2617000   0.83323906    -8.074797    581.06056  0.018502756  0.018247615            4 
 2618000   0.84961458   -8.0739602    582.04385  0.018526988  0.018241899            2 
 2619000   0.82572987   -8.0619902    582.07903  0.018521033  0.018236218            2 
 2620000   0.83059137   -8.0397938     582.5875  0.018530137  0.018230497            2 
 2621000   0.82837421   -8.0596985    581.90619  0.018501405  0.018224776            3 
 2622000   0.82439711   -8.0663317    582.89197  0.018525679  0.018219062            2 
 2623000   0.83322945   -8.0702357    582.56749  0.018508308  0.018213339            2 
 2624000    0.8231853   -8.0683574    581.33394  0.018462079  0.018207609            4 
 2625000    0.8413301   -8.1087582    581.29516  0.018453815  0.018201876            3 
 2626000   0.83761639   -8.0669121    583.58046  0.018519309  0.018196173            2 
 2627000   0.84715147   -8.0841769    582.15629  0.018467082  0.018190435            4 
 2628000   0.85173141    -8.089694    581.85043  0.018450356  0.018184705            2 
 2629000   0.82798348   -8.0624253    583.30892  0.018489569  0.018179012            2 
 2630000   0.81639261   -8.0687871    581.99753  0.018440986  0.018173329            3 
 2631000   0.83018233   -8.0461575    582.68918  0.018455884  0.018167632            3 
 2632000   0.83218115   -8.0719271    582.94052   0.01845683   0.01816194            3 
 2633000    0.8305475   -8.0708695    582.29891  0.018429514  0.018156242            2 
 2634000   0.82413615   -8.0711216    582.19855  0.018419342  0.018150529            3 
 2635000   0.82319848   -8.0661796    583.61124  0.018457028  0.018144809            2 
 2636000   0.83854739   -8.0894083    583.30121  0.018440225  0.018139089            2 
 2637000    0.8342772   -8.0965409    581.75922  0.018384503  0.018133356            1 
 2638000    0.8358874   -8.1175809    581.64692  0.018373987  0.018127653            3 
 2639000   0.85008395    -8.089448    582.96415  0.018408619  0.018121979            2 
 2640000   0.83490308   -8.0687095    584.78839   0.01845923   0.01811631            4 
 2641000   0.83542556   -8.0640002    583.13385  0.018400033  0.018110616            1 
 2642000   0.81728156   -8.0576004    580.88898  0.018322261  0.018104928            2 
 2643000   0.84089656   -8.0957047    582.44815   0.01836449  0.018099231            1 
 2644000   0.84155846   -8.0740484    582.06015  0.018345315  0.018093545            4 
 2645000     0.843502   -8.0697615    583.02435  0.018368757  0.018087861            4 
 2646000   0.82482539   -8.0870123    584.48941  0.018407956  0.018082175            2 
 2647000   0.81734625   -8.0989439    583.61523   0.01837348  0.018076492            3 
 2648000   0.81691217   -8.0986578    584.18026  0.018384323  0.018070807            1 
 2649000   0.83496694   -8.0705124    584.39251   0.01838406  0.018065156            1 
 2650000   0.83471183   -8.0637282    583.96527  0.018363688  0.018059501            1 
 2651000   0.80196445   -8.0953933    583.36614  0.018337927  0.018053841            2 
 2652000   0.83711641   -8.0990767    583.45669  0.018333858  0.018048135            3 
 2653000   0.84235035   -8.0754818    584.42838  0.018357469  0.018042455            2 
 2654000   0.83034802   -8.0944081    583.00347  0.018305811  0.018036799            3 
 2655000   0.84369349   -8.0940266     583.9359  0.018328183  0.018031103            1 
 2656000    0.8253401   -8.0944774    583.14891   0.01829659  0.018025401            4 
 2657000   0.81767438    -8.102952    582.92373  0.018282641  0.018019717            2 
 2658000   0.82250127   -8.0755773    582.96133  0.018276942  0.018014017            1 
 2659000   0.82995215   -8.0943126    583.12723  0.018275267  0.018008327            4 
 2660000   0.81820497    -8.137912    582.24434  0.018240738  0.018002624            2 
 2661000   0.81580463   -8.0963501     583.2193  0.018264415   0.01799688            1 
 2662000   0.82062977   -8.1026767     582.8044  0.018244565  0.017991167            3 
 2663000    0.8396818   -8.1043243    584.19028  0.018281083  0.017985467            4 
 2664000   0.81625923   -8.1173018    584.13292  0.018272426  0.017979765            2 
 2665000   0.80459304   -8.1125723    582.68657  0.018220343  0.017974051            3 
 2666000   0.83105781   -8.1356452    583.34473  0.018234081  0.017968306            2 
 2667000   0.83323109   -8.0866397    582.70405  0.018207226  0.017962552            1 
 2668000   0.82243366   -8.1173779    581.93105  0.018176257  0.017956794            2 
 2669000   0.83697374   -8.0754698    584.80386  0.018259144  0.017951058            3 
 2670000   0.84004663   -8.0718733    584.75252  0.018250703  0.017945361            2 
 2671000   0.81896413   -8.1125157    584.01828  0.018220962  0.017939653            2 
 2672000   0.83162364   -8.0958716    582.70933   0.01817332  0.017933936            2 
 2673000   0.82975876   -8.0789143    584.37593  0.018218479  0.017928225            3 
 2674000   0.82469104   -8.0851776    584.27003  0.018208366  0.017922524            1 
 2675000   0.83441046   -8.0987541    583.52075  0.018178217  0.017916829            3 
 2676000   0.82838336   -8.0992705    582.61213  0.018143128  0.017911137            1 
 2677000   0.81491974   -8.0807576    582.59701   0.01813588  0.017905447            2 
 2678000   0.83024499   -8.0922255    584.07755  0.018175179  0.017899692            3 
 2679000   0.82355498   -8.0979831    584.97836  0.018196415  0.017893986            2 
 2680000    0.8268758    -8.062588    584.72702   0.01818181   0.01788833            1 
 2681000    0.8062364   -8.0540832    585.20717  0.018189953  0.017882689            3 
 2682000   0.84244078   -8.0701164    584.94496  0.018175024  0.017877051            1 
 2683000   0.82312779   -8.0852637    585.33162  0.018180259  0.017871398            2 
 2684000   0.82759757   -8.0657001    584.73979   0.01815511  0.017865733            1 
 2685000   0.83094421   -8.0894665     584.2106  0.018131924  0.017860071            2 
 2686000   0.81085665    -8.069341    585.46832  0.018164194  0.017854418            3 
 2687000   0.82133536   -8.0878226     584.4818  0.018126839   0.01784875            2 
 2688000   0.82185527   -8.1155143    584.66141  0.018125664  0.017843071            2 
 2689000   0.83164245   -8.1128868    584.96277  0.018128262  0.017837395            1 
 2690000   0.82650524   -8.0669955    583.95664  0.018090354  0.017831718            6 
 2691000   0.82684126   -8.0992182    584.99559  0.018115805  0.017826054            1 
 2692000   0.82072258   -8.0417137    585.36948   0.01812065  0.017820416            1 
 2693000   0.82471205    -8.097582    584.73577  0.018094312  0.017814767            2 
 2694000   0.82377199   -8.1138696    584.20698  0.018071238  0.017809074            1 
 2695000   0.81420582   -8.1011021    585.79696  0.018113697  0.017803358            2 
 2696000   0.83380997   -8.1046211    584.51666  0.018067404  0.017797669            4 
 2697000    0.8225159   -8.1144073     584.4865  0.018059773  0.017791975            2 
 2698000   0.81871648   -8.1147333    584.91064   0.01806618  0.017786282            3 
 2699000   0.81849008   -8.1120304    583.75606  0.018023838  0.017780564            3 
 2700000   0.80981079   -8.1181802    583.71168  0.018015792  0.017774839            2 
 2701000   0.80903824   -8.1178434    584.85065  0.018044263  0.017769085            3 
 2702000   0.81556587   -8.1203059    584.73284  0.018033951  0.017763377            3 
 2703000   0.81948475   -8.1127232    584.52311  0.018020814    0.0177577            2 
 2704000   0.80335862   -8.1018565    584.56635  0.018015482  0.017752007            4 
 2705000   0.81225286   -8.1223394     585.4996  0.018037572  0.017746306            3 
 2706000    0.8080848   -8.1200925    584.32326   0.01799468  0.017740591            2 
 2707000   0.81500823   -8.1048427    585.12924  0.018012844  0.017734889            1 
 2708000   0.82112838   -8.1008695     583.9031  0.017968461  0.017729175            2 
 2709000   0.80778939   -8.0905891    584.14061  0.017969134  0.017723473            1 
 2710000   0.82099857   -8.0744711    585.14295  0.017993326  0.017717786            1 
 2711000   0.80818894   -8.1229016    585.64719  0.018002188  0.017712118            1 
 2712000   0.83280584   -8.1028184    584.14072   0.01794926  0.017706424            3 
 2713000   0.82668413   -8.0548671     586.9263  0.018028207  0.017700772            3 
 2714000    0.8267415   -8.1062423     586.3467  0.018003767  0.017695098            2 
 2715000   0.81511804   -8.0888749    585.85947  0.017982181  0.017689431            1 
 2716000   0.82613516   -8.0730159    586.09501  0.017982788  0.017683803            2 
 2717000   0.80670324   -8.1042099    586.04677  0.017974689  0.017678173            5 
 2718000   0.81418094   -8.1071122    584.84241  0.017931151  0.017672494            2 
 2719000   0.82663353   -8.0788454    585.24887  0.017937013  0.017666856            1 
 2720000   0.81144546    -8.122495    585.01501  0.017923254  0.017661194            3 
 2721000   0.82858265   -8.0857465    586.45555  0.017960785  0.017655551            2 
 2722000   0.81507779   -8.1059102    586.83066  0.017965671  0.017649891            5 
 2723000   0.81322103   -8.1434112     585.7902  0.017927231  0.017644241            2 
 2724000   0.81575237   -8.0818438    586.36492  0.017938232  0.017638565            1 
 2725000   0.83209461   -8.0747981    586.26031   0.01792845  0.017632897            1 
 2726000   0.82689496   -8.0986359    585.36596  0.017894533  0.017627231            3 
 2727000   0.81363349   -8.1070401    584.94518  0.017875112  0.017621556            2 
 2728000   0.80964427   -8.0941966      587.316  0.017940983  0.017615901            6 
 2729000   0.81893033   -8.1171256    586.30252   0.01790346  0.017610269            4 
 2730000   0.80728075   -8.1080687    587.09697  0.017921153  0.017604613            2 
 2731000   0.81968189   -8.1065146    586.66889  0.017901528   0.01759895            4 
 2732000   0.81218076   -8.1307486    586.11147  0.017877973  0.017593306            3 
 2733000   0.79298892   -8.1356987    586.32466  0.017877932  0.017587647            3 
 2734000   0.81741468   -8.1182358    586.96274  0.017890842  0.017581979            1 
 2735000    0.8064018   -8.0889483    586.36795  0.017866178  0.017576331            1 
 2736000   0.81466306   -8.0916669    587.38648   0.01789067  0.017570697            2 
 2737000   0.81187842   -8.0764828    586.68675  0.017862829  0.017565062            2 
 2738000   0.80705157   -8.1099613    586.41344  0.017847986  0.017559427            4 
 2739000   0.81255472   -8.1041225    587.04253   0.01786061  0.017553811            2 
 2740000   0.81739406   -8.0999811     587.7689  0.017876183  0.017548172            2 
 2741000    0.8237624   -8.0938778     586.1634   0.01782085  0.017542534            2 
 2742000   0.82547439   -8.1106144     586.8683  0.017835774  0.017536901            2 
 2743000    0.8081947   -8.1294375    587.99038  0.017863361  0.017531246            2 
 2744000   0.79678832   -8.0918238     587.6598  0.017846811  0.017525607            3 
 2745000   0.80965911   -8.1147172    586.44872  0.017803543  0.017519967            2 
 2746000   0.82505611   -8.1083799    588.19662  0.017850104  0.017514314            2 
 2747000    0.8340891   -8.1300117    585.90413  0.017774061  0.017508673            3 
 2748000   0.79328145   -8.1310207    586.42597  0.017783417  0.017503022            3 
 2749000   0.79543924   -8.1091965     587.6057  0.017812711  0.017497379            3 
 2750000   0.81728299   -8.1086042    586.71138  0.017779133  0.017491755            1 
 2751000    0.8265208   -8.1077357    587.50589  0.017796737  0.017486114            1 
 2752000   0.81128744   -8.1276736    587.69364  0.017795956   0.01748049            2 
 2753000   0.82215097   -8.1254194    587.27087  0.017776694  0.017474867            2 
 2754000   0.82514493   -8.1067935    587.05883  0.017763823   0.01746925            4 
 2755000   0.81313664   -8.1039638    588.69682  0.017806921  0.017463684            2 
 2756000   0.78613832   -8.0840008    587.93358  0.017777382  0.017458095            1 
 2757000   0.81269643   -8.1027183    587.71344   0.01776428  0.017452484            1 
 2758000   0.78144004   -8.1159296    587.98927  0.017766173  0.017446878            1 
 2759000   0.79242557    -8.123823    587.46264  0.017743827   0.01744125            2 
 2760000   0.80137689   -8.1435908     586.6943    0.0177142  0.017435636            2 
 2761000   0.80394879   -8.1504661     587.2009  0.017723074  0.017429999            2 
 2762000   0.82356393   -8.1068363    587.19484  0.017716475  0.017424352            2 
 2763000   0.81086311   -8.1536908    586.06661  0.017676035    0.0174187            1 
 2764000   0.80605794   -8.1756106    586.05509  0.017669292  0.017413036            3 
 2765000   0.82004863   -8.1270642    587.33266  0.017701406  0.017407389            2 
 2766000    0.8114177   -8.1480912    585.49033  0.017639501  0.017401746            4 
 2767000   0.81279099      -8.1456    587.19473  0.017684458  0.017396071            5 
 2768000   0.80920402   -8.1463719    587.81513  0.017696746   0.01739041            1 
 2769000   0.81565649   -8.1497906    587.36958  0.017676946  0.017384724            2 
 2770000    0.8195776   -8.1267829    586.42655  0.017642195   0.01737902            2 
 2771000   0.81584691   -8.1804174    585.68292  0.017613464  0.017373332            4 
 2772000    0.8240261   -8.1769224    587.02235  0.017647377  0.017367634            2 
 2773000   0.82214453   -8.1562297    586.70966  0.017631616  0.017361973            3 
 2774000   0.79825932   -8.1598124    586.64006  0.017623169  0.017356283            3 
 2775000   0.82086574   -8.1692378    587.50563  0.017642812  0.017350599            3 
 2776000   0.79262746   -8.1426195    587.42251  0.017633961   0.01734492            3 
 2777000   0.80237415    -8.133974    587.95644  0.017643633  0.017339255            4 
 2778000   0.80242534   -8.1578143    586.98005  0.017607993  0.017333615            4 
 2779000   0.80388204   -8.1746824    587.39591  0.017614127  0.017327987            2 
 2780000    0.8126552    -8.123656    588.71429  0.017647311  0.017322326            2 
 2781000   0.79332717   -8.1363433    588.68788  0.017640174  0.017316709            6 
 2782000   0.79502101   -8.1391451    588.49296  0.017627994  0.017311096            2 
 2783000   0.79616441   -8.1385221    588.78457  0.017630392  0.017305499            3 
 2784000   0.81383281   -8.1328167    588.59367  0.017618345   0.01729989            4 
 2785000   0.81539962   -8.1321755     587.5992  0.017582262  0.017294288            1 
 2786000   0.80543101   -8.1186678    587.31438  0.017567432  0.017288709            1 
 2787000   0.80230635   -8.1384705    589.18326  0.017617009  0.017283118            2 
 2788000   0.80408192   -8.1364054    589.28323  0.017613679  0.017277512            5 
 2789000   0.79835581   -8.1345754    588.89626  0.017595801  0.017271922            2 
 2790000   0.79989677   -8.1280666    587.21894  0.017539395  0.017266329            4 
 2791000   0.79194558   -8.1223267    588.38275   0.01756786  0.017260722            2 
 2792000   0.81791216    -8.119577    588.05361  0.017551743  0.017255138            2 
 2793000   0.79205556    -8.115591     589.7407  0.017595796  0.017249581            7 
 2794000   0.80905417   -8.1406079    588.73768  0.017559582  0.017244011            2 
 2795000   0.82322135   -8.1433767    588.82417  0.017555879  0.017238445            2 
 2796000   0.80049617   -8.1109076    589.17189  0.017559963  0.017232863            2 
 2797000   0.79280987   -8.1523954    588.08317  0.017521248  0.017227305            2 
 2798000   0.80002487   -8.1626929    587.80539  0.017506713   0.01722173            4 
 2799000   0.79880658   -8.1537191    589.37782  0.017547273  0.017216141            1 
 2800000   0.79234913   -8.1194288    589.51235   0.01754501  0.017210577            4 
 2801000   0.79127393   -8.1446374    589.54544  0.017539731  0.017204999            6 
 2802000   0.80112556   -8.1023472    589.69396  0.017537888   0.01719945            6 
 2803000   0.80798231   -8.1435754    590.14361     0.017545  0.017193897            4 
 2804000   0.81200508   -8.1403315    589.71595  0.017526033  0.017188356            2 
 2805000   0.79157515   -8.1189092     589.6978  0.017519245  0.017182806            4 
 2806000   0.79785113   -8.1375971    591.07913  0.017554025  0.017177281            2 
 2807000   0.80194539   -8.1599831    589.01514  0.017486496  0.017171697            2 
 2808000   0.80410225   -8.1705811    589.35727  0.017490422  0.017166126            1 
 2809000   0.79272917   -8.1349369    587.33742  0.017424274  0.017160543            5 
 2810000   0.79963333   -8.1640012    589.35266  0.017477837  0.017154971            2 
 2811000   0.81033488   -8.1387167    589.44449  0.017474341  0.017149399            4 
 2812000   0.80223166   -8.1671297    588.96932  0.017454046  0.017143818            2 
 2813000   0.81288655   -8.1732524    589.52707  0.017464364  0.017138233            6 
 2814000   0.81178761   -8.1584228    588.51482  0.017428181   0.01713264            2 
 2815000   0.80841169   -8.1626955    589.62796  0.017454943  0.017127073            2 
 2816000   0.81279277   -8.1849524    588.66733  0.017420316  0.017121486            2 
 2817000   0.80732827    -8.114676    589.93142  0.017451527  0.017115919            2 
 2818000   0.80748081   -8.1497906    590.28486  0.017455786  0.017110378            2 
 2819000   0.79057806   -8.1366518    589.71752  0.017432822  0.017104834            1 
 2820000   0.79514499   -8.1622247    588.57563  0.017392897  0.017099286            1 
 2821000   0.79549008   -8.1849084    588.32001   0.01737918  0.017093724            3 
 2822000   0.80206478   -8.1387264    589.07113  0.017395202  0.017088172            3 
 2823000   0.78655677   -8.1709693    590.22034  0.017422964  0.017082614            4 
 2824000   0.79421401   -8.1454183    589.60465  0.017398626   0.01707704            2 
 2825000   0.80497786   -8.1673232    590.26518  0.017411952  0.017071497            4 
 2826000   0.80951169   -8.1371621    590.07779  0.017400265  0.017065954            7 
 2827000   0.80465029   -8.1674668    590.43356  0.017404597  0.017060433            1 
 2828000   0.80940814   -8.1570072    589.40059  0.017368004  0.017054906            4 
 2829000   0.79039887    -8.150373    590.65149  0.017398712  0.017049393            5 
 2830000   0.81206355   -8.1462511    591.49459  0.017417391   0.01704389            3 
 2831000   0.80780171    -8.117264    591.03901  0.017397828  0.017038386            2 
 2832000   0.79357126   -8.1413999    591.66175  0.017410009  0.017032902            2 
 2833000   0.81028394   -8.1719459    590.67146  0.017374734  0.017027409            2 
 2834000   0.79232502   -8.1493551    591.24603  0.017385498   0.01702194            2 
 2835000   0.79667471   -8.1425882     591.1114  0.017375409  0.017016461            1 
 2836000    0.7838835   -8.1220365    592.10962  0.017398614  0.017010994            1 
 2837000   0.79998404   -8.1649488    591.53862  0.017375709  0.017005547            3 
 2838000   0.78605921   -8.1657053    592.21527  0.017389455    0.0170001            5 
 2839000   0.77950617   -8.1685815    590.44569  0.017331387  0.016994626            3 
 2840000    0.7988532   -8.1545606    590.34744  0.017322401  0.016989166            2 
 2841000   0.80125204   -8.1612646    591.04617    0.0173368  0.016983704            1 
 2842000   0.81687266   -8.1608694     590.7582  0.017322256  0.016978221            2 
 2843000   0.80644721   -8.1901286    590.27199  0.017301911  0.016972735            1 
 2844000   0.80088982   -8.1496584     592.4384  0.017359306  0.016967253            3 
 2845000   0.80445778   -8.1566151    591.92678  0.017338218  0.016961773            3 
 2846000   0.81377356   -8.1802607    591.75587  0.017327122  0.016956318            2 
 2847000   0.78958571   -8.1405641    591.45514  0.017312233  0.016950869            1 
 2848000   0.79763583    -8.147604    591.27209  0.017300799  0.016945429            3 
 2849000   0.79495191   -8.1731327    591.76449  0.017309129  0.016939952            2 
 2850000   0.77898387    -8.165123    592.60355  0.017327589  0.016934482            1 
 2851000   0.79306005   -8.1395111    592.29724  0.017312558  0.016929022            2 
 2852000   0.79375107   -8.1418221    589.91756  0.017236955  0.016923586            3 
 2853000   0.78201351   -8.1756223    591.53496  0.017278156  0.016918127            3 
 2854000   0.80088493   -8.1553984    590.85405  0.017252221  0.016912682            2 
 2855000   0.79620441   -8.1083354    592.27797   0.01728774  0.016907258            4 
 2856000   0.79253455   -8.1486365    593.40998  0.017314717  0.016901817            1 
 2857000   0.77284543   -8.1464009    593.22676  0.017303312  0.016896407            1 
 2858000   0.79754611   -8.1663656    591.80898  0.017255919  0.016890975            2 
 2859000   0.79680576   -8.1467508    592.10582  0.017258535  0.016885531            1 
 2860000   0.78751972   -8.1338168    592.65441  0.017268485  0.016880099            3 
 2861000   0.76767466   -8.1760659    593.15833  0.017277127  0.016874697            3 
 2862000    0.7983874   -8.1758931    591.78762  0.017231179  0.016869277            1 
 2863000   0.80185717   -8.1586275    593.03402   0.01726144  0.016863902            5 
 2864000   0.80077419   -8.1531089    592.99648   0.01725432  0.016858506            3 
 2865000   0.79424105   -8.1556987     593.9754  0.017276771  0.016853128            2 
 2866000   0.79245723   -8.1631041    593.51236   0.01725728  0.016847709            1 
 2867000   0.80859765   -8.1460417    593.16414  0.017241139  0.016842289            1 
 2868000   0.77657607   -8.1849209    592.81742  0.017225053  0.016836859            2 
 2869000     0.782945   -8.1687467    593.33137  0.017233977  0.016831461            1 
 2870000   0.78770006   -8.1560279    591.61638  0.017178176  0.016826041            3 
 2871000   0.79978257   -8.1701581    592.75631   0.01720528  0.016820633            3 
 2872000   0.78096732   -8.1578913    592.19246  0.017182929  0.016815198            3 
 2873000   0.78584122   -8.1637579    594.03748  0.017230464  0.016809794            1 
 2874000    0.7898737   -8.1775734    593.73705  0.017215758  0.016804372            6 
 2875000   0.78524084   -8.1913347     592.3426  0.017169351  0.016798948            4 
 2876000   0.76833995   -8.1627061    592.64685  0.017172197  0.016793548            2 
 2877000   0.80652898   -8.1495437    593.43368  0.017189019  0.016788158            1 
 2878000   0.78976035   -8.1526533    594.43791  0.017212124  0.016782778            2 
 2879000   0.80665605   -8.1598034    593.53654  0.017180055  0.016777395            2 
 2880000   0.79601033   -8.1991378    594.53568     0.017203  0.016772008            3 
 2881000   0.77416796   -8.1487408    593.68529  0.017172431  0.016766599            2 
 2882000   0.79273629   -8.1502601    592.95469  0.017145347   0.01676121            4 
 2883000   0.78030344   -8.1562274    594.27963  0.017177698  0.016755804            2 
 2884000    0.7904729   -8.1455802    593.76335  0.017156824  0.016750404            1 
 2885000   0.77928632   -8.2053178    593.35222  0.017139001  0.016745003            3 
 2886000    0.7791454    -8.165902    593.44324  0.017135691  0.016739605            4 
 2887000   0.78854923   -8.1894325    592.35582  0.017098367   0.01673421            2 
 2888000   0.78996835   -8.1907862    592.12111  0.017085674  0.016728775            3 
 2889000   0.79844781   -8.1963454    594.96894  0.017161905  0.016723353            3 
 2890000   0.78367432   -8.1993256    594.29978  0.017136672   0.01671793            2 
 2891000   0.79756338   -8.1723234    592.93884  0.017091515  0.016712513            2 
 2892000   0.80281431   -8.1989789    592.42165  0.017070702  0.016707116            2 
 2893000   0.78784779   -8.2086944    592.49956  0.017067046  0.016701681            1 
 2894000   0.77830554   -8.2010557    593.63278   0.01709378  0.016696257            3 
 2895000   0.77859329   -8.1738559    593.51771  0.017084563  0.016690861            4 
 2896000   0.80042317   -8.1737547    593.44778  0.017076651  0.016685473            2 
 2897000    0.8119905   -8.1419698    594.47919  0.017100425  0.016680076            3 
 2898000   0.77883851   -8.1812197    592.37073  0.017033895  0.016674683            2 
 2899000   0.78232717   -8.2211708    591.62581  0.017006606  0.016669254            3 
 2900000   0.77585985   -8.1856981    592.92707  0.017038134  0.016663829            2 
 2901000   0.78819196   -8.1911577     593.7801  0.017056765  0.016658404            3 
 2902000   0.79315276   -8.1809565    594.06808  0.017059157  0.016653012            2 
 2903000   0.78911641   -8.1663263     593.3251  0.017031952  0.016647634            1 
 2904000   0.78466152   -8.1757168    594.92071  0.017071875  0.016642242            2 
 2905000   0.78297674   -8.1836427    594.57342  0.017056036  0.016636867            3 
 2906000   0.76965815   -8.2002348    594.51126  0.017048384  0.016631487            1 
 2907000   0.79500453   -8.1977465    593.54494  0.017014819  0.016626103            1 
 2908000   0.78775234   -8.1912737    593.98034  0.017021445  0.016620704            4 
 2909000    0.7812015   -8.1932694    592.83753  0.016982856  0.016615311            2 
 2910000   0.79186514   -8.2111857     593.7113  0.017002042   0.01660991            2 
 2911000    0.7930569    -8.226174    593.40721  0.016987496  0.016604492            1 
 2912000   0.79245728   -8.1868639    593.65441  0.016988736  0.016599059            2 
 2913000   0.79824501   -8.2020957    593.37922  0.016975032  0.016593648            8 
 2914000   0.78954461   -8.2142399    594.70173  0.017007027  0.016588222            3 
 2915000   0.77815379   -8.2221316    592.48079  0.016937701  0.016582793            1 
 2916000    0.7948078    -8.242161    592.98604  0.016946332  0.016577374           10 
 2917000   0.77383184    -8.243619    593.84711  0.016965122  0.016571953            3 
 2918000   0.77311168   -8.2056218    593.15569  0.016939562  0.016566535            2 
 2919000   0.78110957   -8.2245072    592.67784  0.016920116  0.016561115            5 
 2920000   0.77894421   -8.2525154    592.81305  0.016918181  0.016555719            3 
 2921000   0.78642018   -8.1927013    593.83392  0.016941513  0.016550314            5 
 2922000   0.78476124   -8.2080893     595.6379  0.016987163  0.016544931            2 
 2923000   0.79623228   -8.2397656     593.6143   0.01692366  0.016539552            6 
 2924000   0.78998886   -8.2028181     593.7136  0.016920702  0.016534169            2 
 2925000   0.77884859   -8.2078199    594.06684  0.016924981  0.016528785            1 
 2926000    0.7826685   -8.1992287    595.11785   0.01694913  0.016523394            3 
 2927000   0.77326883   -8.2193732    594.60595  0.016928765  0.016518016            2 
 2928000   0.76909534   -8.2052492    593.82808  0.016900845  0.016512632            2 
 2929000    0.7944046   -8.1934536     594.8776  0.016924934  0.016507239            2 
 2930000   0.77861046   -8.2120472    594.64285  0.016912482  0.016501847            2 
 2931000   0.78993098   -8.2115539    594.89616  0.016913913   0.01649647            1 
 2932000    0.7838549   -8.2099251     595.1248  0.016914643  0.016491124            4 
 2933000   0.77414488   -8.2152767    593.76347  0.016870197  0.016485742            4 
 2934000    0.7930771   -8.2186649    594.14402  0.016875256  0.016480358            1 
 2935000    0.7941901   -8.2164504    594.85276   0.01688963  0.016474981            1 
 2936000   0.78124003   -8.2524366    594.59959  0.016876691  0.016469604            2 
 2937000   0.78183606   -8.2160341    593.89088  0.016850836  0.016464247            2 
 2938000   0.77386261   -8.2250691    595.73052   0.01689728  0.016458874            1 
 2939000   0.76857723   -8.1982722    595.20337  0.016876584   0.01645352            4 
 2940000   0.79428832      -8.1995    594.85493  0.016860967  0.016448154            3 
 2941000   0.77250636   -8.2000951    594.54066  0.016846329  0.016442796            1 
 2942000   0.78601802   -8.2007519    593.95677  0.016824064  0.016437439            1 
 2943000   0.78014402   -8.2064963    594.84088  0.016843382   0.01643208            1 
 2944000   0.76633033   -8.2151951     593.1713  0.016790402  0.016426722            3 
 2945000    0.7849736   -8.2173249    595.63503  0.016854415  0.016421362            6 
 2946000   0.77392335   -8.2501202    594.37061  0.016812927  0.016416009            1 
 2947000   0.77954317   -8.2044352    594.41893  0.016808589  0.016410641            4 
 2948000   0.77994305   -8.2373987    595.79044  0.016841657  0.016405283            6 
 2949000    0.7795512   -8.2423082    593.44046  0.016769539  0.016399912            3 
 2950000   0.79498928   -8.2173002    595.14764   0.01681208  0.016394549            2 
 2951000    0.7678145   -8.2242839    594.75501  0.016795296  0.016389187            4 
 2952000   0.77551178   -8.2529465    592.38579  0.016722724  0.016383803            1 
 2953000   0.77602529   -8.2129853    594.25583  0.016769834   0.01637845            3 
 2954000   0.77076271   -8.2258727    594.31677  0.016765876  0.016373111            1 
 2955000   0.78390832   -8.1944026    594.59237  0.016767974  0.016367765            4 
 2956000   0.76206723   -8.2144687    595.55912  0.016789556  0.016362428            2 
 2957000   0.79040085   -8.2148041    595.34615  0.016777876  0.016357081            3 
 2958000   0.78254631   -8.2193552    594.80454  0.016756946  0.016351749            3 
 2959000   0.78418455   -8.2242061    596.19768  0.016790517  0.016346399            3 
 2960000   0.78587239   -8.2135921    595.53862   0.01676629   0.01634109            2 
 2961000   0.78202862   -8.2215105    594.81556  0.016740278  0.016335787            4 
 2962000   0.76790758   -8.2203597     594.7553  0.016732931  0.016330464            5 
 2963000   0.78084673   -8.2285439    595.97822  0.016761678  0.016325156            1 
 2964000   0.77575699   -8.2045985    596.68533  0.016775903  0.016319824            1 
 2965000   0.75839672   -8.2027177    597.11147  0.016782222  0.016314497            1 
 2966000   0.76756987   -8.2293368    596.41373   0.01675696  0.016309152            1 
 2967000    0.7708309   -8.2332796    594.76773  0.016705082   0.01630382            1 
 2968000   0.78259095   -8.2578939    596.15391  0.016738373  0.016298492            3 
 2969000   0.78103085   -8.2267896    595.68718  0.016719636  0.016293168            2 
 2970000   0.79642855   -8.2294934    595.87294  0.016719218  0.016287874            3 
 2971000    0.7742859   -8.2444383    595.98685  0.016716786  0.016282592            1 
 2972000   0.77504742   -8.1727514    596.14371  0.016715559  0.016277297            8 
 2973000   0.81196351   -8.1773199    596.68173  0.016725018  0.016272041            1 
 2974000   0.76988049   -8.2315801    595.49422  0.016686119  0.016266785            2 
 2975000   0.77421782   -8.2273912    596.77778  0.016716464  0.016261505            4 
 2976000   0.77178265   -8.2285723    595.97425  0.016688347  0.016256164            5 
 2977000   0.78476724   -8.2287594    596.14578  0.016687543  0.016250853            1 
 2978000   0.77067203   -8.1837636    595.35009  0.016659674  0.016245577            2 
 2979000   0.75934762   -8.2079068    596.65677  0.016690633  0.016240297            2 
 2980000   0.76103678   -8.2064065    596.51893  0.016681178  0.016235053            3 
 2981000   0.77495133   -8.1979525    596.74884  0.016682009  0.016229808            3 
 2982000   0.78265455   -8.2144276    596.74837  0.016676402  0.016224557            2 
 2983000   0.79446472   -8.2156193    596.64124  0.016667819  0.016219311            1 
 2984000   0.78494972   -8.2401646    596.51003  0.016658569  0.016214051            1 
 2985000   0.78738305   -8.2352451    595.68354  0.016629915  0.016208788            1 
 2986000   0.77423825    -8.210517    596.67686  0.016652067  0.016203519            1 
 2987000   0.77300831   -8.2150518    597.27996  0.016663318  0.016198243            3 
 2988000   0.78505152   -8.2029349    597.53275  0.016664791  0.016192988            4 
 2989000   0.79671892   -8.2046649    596.11074   0.01661957  0.016187733            2 
 2990000   0.77729414   -8.2392825    596.73149  0.016631313  0.016182464            1 
 2991000   0.76895045   -8.2388003    596.83004  0.016628498  0.016177188            1 
 2992000   0.77310503   -8.2530033    596.81045  0.016622395  0.016171918            3 
 2993000   0.78406184    -8.270288    596.55774  0.016609805  0.016166646            1 
 2994000   0.77854767   -8.2155678    596.90568  0.016613941  0.016161375            1 
 2995000   0.76934662   -8.2287103    596.38198  0.016593822  0.016156111            2 
 2996000    0.7699519   -8.2149601    597.94711  0.016631818  0.016150864            2 
 2997000   0.77535381     -8.22846     596.7929  0.016594175  0.016145621            6 
 2998000   0.75763482   -8.2349366    598.35935  0.016632181  0.016140388            2 
 2999000   0.76252075   -8.2198652    598.30309  0.016625072  0.016135138            1 
 3000000   0.78173897   -8.2411818    597.34815  0.016593004   0.01612988            2 
 3001000    0.7787085   -8.2500186    595.28177  0.016530095  0.016124624            1 
 3002000   0.75149642   -8.2461907    597.31349  0.016580987  0.016119373            1 
 3003000   0.76291504   -8.2526922    597.78919  0.016588667  0.016114113            1 
 3004000   0.76349819    -8.239088    596.44997  0.016545994  0.016108865            1 
 3005000   0.76323767   -8.2342691    596.11896  0.016531308  0.016103606            1 
 3006000    0.7778869   -8.2620484    596.01894  0.016523036  0.016098329            3 
 3007000   0.76648219   -8.2157872    597.12954  0.016548319  0.016093075            5 
 3008000    0.7637502   -8.2656298    595.87612  0.016508093  0.016087798            3 
 3009000   0.76924777   -8.2386504    597.10687  0.016536692  0.016082538            1 
 3010000   0.76026072   -8.2544977    597.09633  0.016530906  0.016077279            1 
 3011000   0.78893037   -8.2285987    598.71372  0.016570179  0.016072045            1 
 3012000   0.77515204   -8.2362179    598.06171  0.016546639   0.01606682            6 
 3013000   0.78186899   -8.2569324    596.24737  0.016490966  0.016061586            3 
 3014000    0.7522824   -8.2412456    597.94881  0.016532537  0.016056341            1 
 3015000   0.78311016   -8.2440832    596.26242  0.016480443  0.016051098            2 
 3016000   0.76234246    -8.232908     596.7139  0.016487453  0.016045845            1 
 3017000   0.77348513   -8.2322858    596.16339  0.016466782  0.016040625            1 
 3018000   0.78014978   -8.2138821    597.49254  0.016498027  0.016035381            2 
 3019000   0.77552187   -8.2498923    597.39862   0.01648997  0.016030127            3 
 3020000    0.7667508   -8.2584214    597.77775  0.016494971  0.016024864            2 
 3021000   0.75053734   -8.2386899    597.59446  0.016484455  0.016019613            3 
 3022000   0.76215138   -8.2344416    597.71952  0.016482449  0.016014363            2 
 3023000   0.75705116   -8.2402011    597.45548  0.016469718  0.016009132            2 
 3024000   0.77161036   -8.2254979     598.0803   0.01648149  0.016003889            3 
 3025000   0.75662061    -8.224835    597.36348  0.016456294  0.015998633            4 
 3026000   0.75709268   -8.2483199    597.84329  0.016464069  0.015993356            2 
 3027000    0.7652214   -8.2108826    596.67894  0.016426576  0.015988111            1 
 3028000   0.75098137   -8.2334149    598.45224  0.016469954  0.015982899            2 
 3029000   0.77891671   -8.2446276    596.23217  0.016403438  0.015977666            4 
 3030000    0.7720658   -8.2509012     597.3504  0.016428779  0.015972413            1 
 3031000    0.7527963   -8.2329576    597.04065  0.016414842  0.015967177            3 
 3032000   0.76358165    -8.221487    597.71685  0.016428014  0.015961952            5 
 3033000   0.76616235   -8.2579171    597.70941  0.016422393  0.015956707            3 
 3034000   0.77523291   -8.2487063    597.10051  0.016400256  0.015951448            3 
 3035000   0.76995276   -8.2745716    596.56704  0.016380204  0.015946207            3 
 3036000   0.75972512    -8.265475    596.51004  0.016373244  0.015940935            2 
 3037000   0.75653699   -8.2508467    596.40543  0.016364983  0.015935661            4 
 3038000   0.77316748   -8.2678369    595.77394  0.016342274  0.015930385            2 
 3039000   0.76594497   -8.2901876    596.24571  0.016349833   0.01592509            2 
 3040000   0.76838396    -8.295838    596.08345  0.016340007  0.015919795            2 
 3041000   0.76340633   -8.2895674    596.94978  0.016358374  0.015914516            2 
 3042000   0.75493407   -8.2643124    596.01195  0.016327305  0.015909247            1 
 3043000    0.7799215   -8.2410509    597.68207  0.016367676  0.015903984            2 
 3044000   0.76502053   -8.2488048     596.4548  0.016328701  0.015898732            1 
 3045000   0.78133402   -8.2864476    596.24801   0.01631768  0.015893479            2 
 3046000   0.76827328   -8.2805128    596.94615  0.016331422  0.015888226            2 
 3047000   0.76825919   -8.2645638    596.79427  0.016321909  0.015882975            1 
 3048000   0.75923356   -8.2768339    597.09799  0.016324858  0.015877739            3 
 3049000     0.763903   -8.2726839    597.71876   0.01633647  0.015872491            1 
 3050000    0.7602197   -8.2620243    597.06409  0.016313227  0.015867244            2 
 3051000   0.75578132   -8.2363364    597.28228  0.016313839  0.015861998            2 
 3052000   0.76729567   -8.2730582    596.84687  0.016296605  0.015856764            2 
 3053000   0.76396853   -8.2825988    597.47766  0.016308485  0.015851516            2 
 3054000   0.77515134   -8.2184478    598.08739  0.016319783  0.015846277            2 
 3055000   0.76560559   -8.2398671    598.04261  0.016313219  0.015841041            3 
 3056000   0.75051614    -8.248935    597.50107  0.016293114  0.015835782            3 
 3057000   0.77235891   -8.2531596    598.13667   0.01630511  0.015830541            4 
 3058000   0.76892417   -8.2812709    597.15432  0.016273009  0.015825291            2 
 3059000   0.75670441   -8.2697218    596.25329  0.016243143  0.015820031            1 
 3060000    0.7571525   -8.2526861    597.64523  0.016275742  0.015814777            1 
 3061000    0.7591803   -8.2738528    598.05744  0.016281647  0.015809525            2 
 3062000     0.751443   -8.2586992    598.48009  0.016287832  0.015804286            3 
 3063000   0.77131359   -8.2561578     597.2013  0.016247723  0.015799045            2 
 3064000   0.76740436    -8.283347    596.58992  0.016225792  0.015793811            4 
 3065000   0.76382323   -8.2821172    596.81974  0.016226747  0.015788557            4 
 3066000   0.77603703   -8.2860609     596.6928  0.016218004  0.015783314            6 
 3067000   0.76658849    -8.271524    596.61834  0.016210693  0.015778077            3 
 3068000   0.75045894   -8.2554914    597.33347  0.016224833  0.015772837            1 
 3069000   0.75629959   -8.2764918    596.76107  0.016204004  0.015767606            4 
 3070000   0.76029717   -8.2710592    596.95945  0.016204111  0.015762343            2 
 3071000   0.75617761   -8.2808102    595.86792  0.016169215  0.015757104            4 
 3072000   0.75380912   -8.2489242    599.31918  0.016257573  0.015751867            1 
 3073000   0.76944284   -8.2790295    597.46725  0.016202062  0.015746664            2 
 3074000    0.7558402   -8.2550492    598.89867  0.016235596  0.015741443            2 
 3075000   0.76307278   -8.2609941    598.25718  0.016212932   0.01573624            1 
 3076000   0.75269871   -8.2571586     597.9042  0.016198098  0.015731028            2 
 3077000   0.77535355   -8.2819926     596.4246  0.016152762  0.015725839            2 
 3078000   0.77658657   -8.2474805    598.20932  0.016195834   0.01572063            5 
 3079000    0.7579498   -8.2722994    597.49582  0.016171263  0.015715439            3 
 3080000   0.75883466   -8.2451321    598.04735  0.016180935  0.015710215            4 
 3081000   0.75078534   -8.2412011    597.48952  0.016160595  0.015705031            3 
 3082000   0.75789964   -8.2555618     597.2554  0.016149021   0.01569984            5 
 3083000   0.74338949   -8.2509464     598.1737  0.016168605  0.015694648            2 
 3084000   0.77789882    -8.262176    597.69961  0.016150552  0.015689472            4 
 3085000   0.74816539   -8.2526083    597.33518  0.016135472  0.015684287            2 
 3086000    0.7449255   -8.2520498    598.41706  0.016159458  0.015679114            1 
 3087000   0.76854431   -8.2462457    598.78624   0.01616419  0.015673946            3 
 3088000   0.77085068   -8.2616112     597.7323  0.016130513  0.015668748            3 
 3089000    0.7713827   -8.2476018    596.54468  0.016093252  0.015663559            2 
 3090000   0.77749706   -8.2738144    598.04891  0.016128611  0.015658361            2 
 3091000   0.76029001   -8.2512777    598.22423   0.01612812  0.015653173            2 
 3092000     0.773415   -8.2381697    598.62675  0.016133752  0.015647999            2 
 3093000   0.75587551   -8.2842492    597.83005  0.016107071  0.015642804            3 
 3094000   0.73996575   -8.2848004    597.32551  0.016088276  0.015637617            2 
 3095000   0.74474557   -8.2789144    598.08012  0.016103396  0.015632434            6 
 3096000   0.76508207   -8.2651962    599.05603  0.016124463  0.015627257            1 
 3097000   0.77472669   -8.2466123    598.29757  0.016098848  0.015622086            3 
 3098000   0.75599495   -8.2633909    599.66042  0.016130311   0.01561692            2 
 3099000   0.73929022   -8.2696412     597.9382  0.016078794  0.015611752            1 
 3100000   0.77894646   -8.2837592    597.89246  0.016072378  0.015606565            3 
 3101000   0.74782115   -8.2893719     597.5974  0.016059266  0.015601395            3 
 3102000   0.75051521    -8.287465    597.38343   0.01604834  0.015596227            3 
 3103000   0.75528013   -8.2656782    598.78305  0.016080757  0.015591059            2 
 3104000    0.7649976   -8.2795756    598.78762  0.016075699  0.015585911            2 
 3105000   0.73699058   -8.2630669    599.52546  0.016090324  0.015580776            2 
 3106000   0.75351259   -8.2749808    598.15788  0.016048451  0.015575639            3 
 3107000   0.77715137   -8.2570277    599.81503  0.016087733  0.015570506            4 
 3108000   0.75374959    -8.272966    599.32721  0.016069477  0.015565376            7 
 3109000   0.74616562   -8.2722581    599.73581   0.01607526  0.015560233            2 
 3110000   0.75163915   -8.2933138    597.70638  0.016015712  0.015555095            1 
 3111000   0.76083064   -8.2595844    598.44537  0.016030359  0.015549937            1 
 3112000   0.73471925   -8.2768753    599.06822  0.016041887  0.015544777            5 
 3113000   0.75762822    -8.312557    597.59078  0.015997183  0.015539591            2 
 3114000   0.74714271   -8.3069306    597.64908  0.015993606  0.015534406            2 
 3115000   0.74767407   -8.2825097    598.63885   0.01601495  0.015529219            5 
 3116000   0.73854204   -8.2952145    598.20401  0.015998182  0.015524046            1 
 3117000   0.73228119   -8.2990781    597.07752  0.015962932   0.01551886            2 
 3118000   0.75190758   -8.3031744    598.00574  0.015982621   0.01551366            1 
 3119000   0.74222773   -8.2964469    598.05388  0.015978783  0.015508497            4 
 3120000   0.75873204   -8.2822279    598.57224  0.015987506  0.015503355            3 
 3121000   0.74320712   -8.2666359    599.19335  0.015998968   0.01549822            2 
 3122000   0.76347109   -8.2988271    599.43377  0.016000261  0.015493093            2 
 3123000   0.74586027   -8.2747973    598.84819  0.015979512  0.015487944            1 
 3124000   0.74195488   -8.2802588    598.70475  0.015970571  0.015482771            3 
 3125000   0.75245063   -8.2943523    598.09792  0.015949278  0.015477602            2 
 3126000   0.75661864   -8.2652945    597.79869  0.015936199  0.015472428            2 
 3127000    0.7623463   -8.2746869    598.06251  0.015938133  0.015467262            1 
 3128000   0.74587627   -8.3198011    599.18014  0.015962813  0.015462126            2 
 3129000   0.73915052   -8.3004098    597.99238  0.015926078  0.015456992            4 
 3130000   0.75841265   -8.2878921     598.0731  0.015923139  0.015451833            5 
 3131000   0.74191728   -8.3137334    598.75646  0.015936241  0.015446679            2 
 3132000   0.74080851   -8.3112402    597.44976  0.015896386  0.015441524            6 
 3133000   0.75728167   -8.2966884     599.2964   0.01594043  0.015436355            1 
 3134000   0.75445948   -8.2995267    598.61753  0.015917292  0.015431196            3 
 3135000   0.74496322   -8.2879585    598.46212  0.015908084   0.01542605            2 
 3136000   0.73115601   -8.2738507     598.8772  0.015914041  0.015420906            3 
 3137000   0.74195023   -8.3168796     597.6184  0.015875529  0.015415745            1 
 3138000   0.75090105     -8.32396    598.76441  0.015900903  0.015410597            1 
 3139000   0.73810034   -8.3047089    598.86713  0.015898565  0.015405427            2 
 3140000   0.75064251   -8.2865576    598.15459  0.015874591  0.015400284            1 
 3141000   0.75044235   -8.3110865    598.55672  0.015880206  0.015395137            4 
 3142000   0.74822416   -8.3025709    598.95884  0.015885817  0.015389987            2 
 3143000   0.75546895   -8.3055647    599.45472   0.01589391  0.015384814            4 
 3144000   0.75115833   -8.3199308    599.14518   0.01588065  0.015379644            2 
 3145000   0.73533492   -8.3065868    597.74431  0.015838482  0.015374471            4 
 3146000   0.75044309   -8.2898775    597.66088  0.015831238  0.015369307            2 
 3147000   0.75939622   -8.2928374    598.23727   0.01584147  0.015364148            2 
 3148000   0.74569366   -8.3117619    598.99761  0.015856565     0.015359            3 
 3149000   0.74504876    -8.301623     599.9498  0.015876728  0.015353836            1 
 3150000   0.75444435   -8.3236154    598.48657  0.015832978  0.015348699            2 
 3151000   0.75822142   -8.2899451    599.83284  0.015863558  0.015343567            2 
 3152000   0.74617884   -8.2909365     599.5103  0.015849997  0.015338409            2 
 3153000    0.7521428    -8.289362    598.15091  0.015809042  0.015333268            3 
 3154000    0.7537934   -8.3187142    598.18791  0.015805007  0.015328118            2 
 3155000   0.74698765   -8.3061289    597.15372  0.015772682  0.015322961            1 
 3156000   0.76259989   -8.2980304    598.40438  0.015800707   0.01531781            2 
 3157000   0.76629252   -8.3059299    597.51466  0.015772217  0.015312649            5 
 3158000   0.74504654   -8.2861005    597.39805  0.015764145  0.015307476            1 
 3159000   0.74577049   -8.2973569    598.37394  0.015784899  0.015302304            3 
 3160000   0.73946614   -8.2836521    599.24224  0.015802802  0.015297131            2 
 3161000   0.75220411   -8.3157977    597.89429  0.015762266  0.015291946            4 
 3162000   0.73529663   -8.3179304    596.68291  0.015725356  0.015286755            2 
 3163000   0.75068531   -8.3150981    597.90751  0.015752648  0.015281591            3 
 3164000   0.75764339    -8.321214    597.14191  0.015727505   0.01527641            2 
 3165000   0.74798103   -8.3313647    597.32898  0.015727461  0.015271233            3 
 3166000   0.72482313   -8.3306499    596.62985  0.015704092   0.01526607            1 
 3167000   0.74410804   -8.3380352    595.47467  0.015668737  0.015260884            1 
 3168000   0.74708334   -8.3108644    599.36292   0.01576607  0.015255706            1 
 3169000   0.75404783    -8.309697    599.07922  0.015753635  0.015250549            4 
 3170000   0.73353793   -8.3160564     597.9187  0.015718157  0.015245384            5 
 3171000    0.7437802   -8.3166899      596.934  0.015687323  0.015240222            3 
 3172000    0.7543232   -8.3250063    597.19166  0.015689146  0.015235069            2 
 3173000   0.72431035   -8.3048421    597.64849  0.015696199  0.015229926            6 
 3174000   0.73740204   -8.3006933    598.09393  0.015702949  0.015224779            3 
 3175000    0.7387331   -8.3244147    597.83054   0.01569109  0.015219631            3 
 3176000   0.75577146   -8.3400762    597.59012  0.015679841  0.015214466            2 
 3177000   0.74712881   -8.3220208    597.13626  0.015663001  0.015209304            1 
 3178000   0.73930523   -8.3101803    599.36662  0.015716557  0.015204153            3 
 3179000   0.73375473   -8.3299525    598.52136  0.015689456  0.015199007            3 
 3180000   0.74068167   -8.3315676    598.11898  0.015673977  0.015193861            2 
 3181000   0.73957838   -8.3425654    598.79834  0.015686847  0.015188723            1 
 3182000   0.73584863   -8.2968331    599.88279  0.015710318  0.015183594            1 
 3183000   0.74941641   -8.3171404    598.92125  0.015680209  0.015178455            1 
 3184000    0.7390366   -8.3053692    598.15712  0.015655285  0.015173319            2 
 3185000   0.74726189   -8.3449112    598.13292  0.015649736  0.015168173            2 
 3186000   0.72807102   -8.3226514     598.4168  0.015652249  0.015163018            2 
 3187000   0.74261303   -8.3304438    598.64859  0.015653399  0.015157875            2 
 3188000   0.73703175   -8.3573394    598.20271  0.015636834  0.015152741            2 
 3189000   0.74862898    -8.314985    598.18084  0.015631359  0.015147613            2 
 3190000   0.75367978   -8.3328766    596.55988  0.015584114  0.015142496            3 
 3191000   0.74935799   -8.3412704     599.3469  0.015652014   0.01513735            4 
 3192000   0.75852208   -8.3291207    598.20491  0.015617296  0.015132207            4 
 3193000   0.74526583   -8.3000451    598.13106  0.015610478  0.015127046            4 
 3194000   0.73881349   -8.3482617    597.07269  0.015577977  0.015121894            2 
 3195000   0.74651952    -8.336356    597.94328  0.015595808  0.015116737            3 
 3196000   0.74052785   -8.3334682    597.26568   0.01557326  0.015111571            3 
 3197000   0.73026866   -8.3427959    598.09704  0.015590059   0.01510641            2 
 3198000   0.74630492   -8.3579885    597.45964  0.015568575  0.015101247            5 
 3199000   0.75159687   -8.3252079     598.3114  0.015585897  0.015096084            2 
 3200000   0.74584811   -8.3293929    599.25354  0.015605561  0.015090924            4 
 3201000   0.74022551   -8.3302999    596.48024  0.015528487  0.015085775            2 
 3202000   0.72423576   -8.3450285     598.0525  0.015564556   0.01508063            4 
 3203000    0.7445418   -8.2986999    598.78699  0.015578806  0.015075509            2 
 3204000   0.74680749   -8.3439524    597.72508  0.015546324  0.015070387            2 
 3205000    0.7345749   -8.3597659    598.49237  0.015561424  0.015065262            7 
 3206000   0.73903153   -8.3196962    599.36147  0.015579161  0.015060142            1 
 3207000   0.72273456   -8.3485847    597.82178  0.015534294  0.015055017            3 
 3208000   0.73621231   -8.3529346    598.47027  0.015546297  0.015049874            2 
 3209000   0.74405866    -8.339776    597.27519  0.015510418  0.015044729            3 
 3210000   0.73853327   -8.3477459    596.75423  0.015492062  0.015039599            1 
 3211000   0.72857927   -8.3786202    597.91948  0.015517478  0.015034449            1 
 3212000   0.74784263   -8.3810793     598.3666  0.015524248  0.015029309            2 
 3213000   0.74254951   -8.3547291    598.19934  0.015515078  0.015024178            2 
 3214000    0.7312689    -8.323782    598.29154  0.015512641  0.015019047            3 
 3215000   0.73958901   -8.3516877    598.56868  0.015514999  0.015013915            2 
 3216000   0.73843741   -8.3423842    597.93367  0.015493721   0.01500879            3 
 3217000   0.74158141    -8.328084    599.82154  0.015537808  0.015003681            2 
 3218000   0.73605666   -8.3385296    598.32541  0.015494236  0.014998579            4 
 3219000   0.74260397   -8.3604934    597.54306  0.015469169  0.014993472            2 
 3220000   0.73726813   -8.3394651    597.53224  0.015464085  0.014988365            1 
 3221000   0.74250668   -8.3544239    597.29916  0.015453254  0.014983266            2 
 3222000   0.74744532   -8.3232025    598.98531  0.015492068  0.014978168            2 
 3223000   0.73247056   -8.3352792    599.20367  0.015492907  0.014973076            1 
 3224000   0.73861738   -8.3074307     597.8584  0.015453329  0.014967984            3 
 3225000   0.75889015   -8.3335971    598.80131  0.015472902  0.014962892            5 
 3226000   0.74315796   -8.3106035    600.97772  0.015524326  0.014957824            2 
 3227000   0.73229454   -8.3179143    599.17629  0.015472996  0.014952746            1 
 3228000   0.73538056   -8.3399516    598.35546  0.015447012  0.014947667            2 
 3229000   0.73727764    -8.307551    599.23452  0.015464915  0.014942604            6 
 3230000   0.75282713   -8.3262399    599.82161  0.015475274   0.01493753            5 
 3231000   0.74405887   -8.3020546     598.7288  0.015442299   0.01493247            1 
 3232000    0.7431344   -8.3253292    599.29953  0.015452236  0.014927408            1 
 3233000   0.73491067   -8.3647962    597.74353   0.01540735  0.014922335            2 
 3234000   0.72157139   -8.3188934    599.08114  0.015437053  0.014917267            2 
 3235000   0.72077711   -8.3610787    598.24869  0.015410837  0.014912201            2 
 3236000    0.7332938   -8.3309744    597.53832  0.015387781  0.014907133            2 
 3237000   0.75632371   -8.3447699    598.53124  0.015408589  0.014902073            2 
 3238000   0.72173686   -8.3231062    599.71738  0.015434357  0.014897018            2 
 3239000   0.73299523   -8.3574119    599.22315  0.015416876  0.014891951            1 
 3240000   0.73854646   -8.3601997    598.99833  0.015406336  0.014886892            5 
 3241000   0.73424022   -8.3184431    598.42918  0.015386948  0.014881833            4 
 3242000   0.73340792   -8.3313159    599.16599  0.015401141  0.014876767            2 
 3243000   0.73903851   -8.3652369    599.09846  0.015394657  0.014871689            1 
 3244000   0.74991157   -8.3618646    598.81458  0.015382619  0.014866625            1 
 3245000   0.72570218   -8.3362599    599.05389  0.015384024  0.014861561            1 
 3246000   0.73124263   -8.3593055    599.85958  0.015399969  0.014856499            4 
 3247000   0.73001293   -8.3560085    598.97062  0.015372411  0.014851445            1 
 3248000    0.7182802     -8.34379    599.16592  0.015372689  0.014846392            2 
 3249000   0.73128843   -8.3397161    599.83195   0.01538504  0.014841346            3 
 3250000    0.7334329   -8.3611565    598.44859  0.015344836  0.014836283            1 
 3251000   0.72694217   -8.3531161    597.91103  0.015326336  0.014831232            4 
 3252000   0.72802503   -8.3500798    599.41349  0.015360124   0.01482618            3 
 3253000    0.7198245   -8.3395988    598.67938  0.015336596  0.014821139            2 
 3254000   0.72265979   -8.3495005    598.24718  0.015320815  0.014816087            2 
 3255000    0.7280679   -8.3875515     598.0299  0.015310545  0.014811008            2 
 3256000   0.75080978   -8.3773272    599.15179  0.015334556  0.014805935            4 
 3257000    0.7292188   -8.3691496    598.93803  0.015324379   0.01480089            3 
 3258000   0.71797974   -8.3674073     598.8842  0.015318299  0.014795846            3 
 3259000   0.74926828   -8.3694859    599.41799  0.015327247  0.014790808            1 
 3260000    0.7526791   -8.3405373    598.87514  0.015308669  0.014785771            1 
 3261000   0.72188982   -8.3449167    600.77451  0.015352512  0.014780742            1 
 3262000   0.73516867   -8.3586117    599.67755  0.015319782  0.014775718            2 
 3263000   0.72054519   -8.3471074    598.96497  0.015296889  0.014770684            1 
 3264000   0.74668792   -8.3821428     599.0894  0.015295379   0.01476564            3 
 3265000   0.74116664   -8.3621834    598.60581  0.015278351  0.014760606            2 
 3266000   0.73288807   -8.3703636    600.00903  0.015309477  0.014755576            3 
 3267000    0.7324591   -8.3810538    599.77708  0.015298875  0.014750541            6 
 3268000   0.73524251   -8.4071153    598.04975  0.015250147  0.014745506            2 
 3269000   0.73261157   -8.3684229    599.60094  0.015285024  0.014740471            1 
 3270000   0.71490303   -8.3664699    599.85656  0.015286864  0.014735453            2 
 3271000   0.72247795   -8.3584588    599.32235  0.015268581  0.014730432            1 
 3272000   0.73890831   -8.3802309    599.29659  0.015263259  0.014725435            3 
 3273000    0.7395135    -8.369649    599.55006  0.015265049  0.014720426            2 
 3274000   0.71832788   -8.3630684      598.993  0.015246207  0.014715433            2 
 3275000   0.73097487   -8.3479357    600.03458  0.015268056  0.014710444            5 
 3276000   0.72123487   -8.3148726    600.34009  0.015271166  0.014705455            5 
 3277000   0.73460566   -8.3354742    599.33146  0.015240857   0.01470048            4 
 3278000   0.72146237   -8.3374588    599.45096  0.015239245  0.014695489            2 
 3279000   0.71953724   -8.3236623    599.68512  0.015240549  0.014690516            1 
 3280000   0.72780506   -8.3438657    599.58033   0.01523324  0.014685524            4 
 3281000   0.73474143   -8.3579826    598.33129  0.015196873   0.01468053            2 
 3282000   0.72968025   -8.3469279    599.83964  0.015230541  0.014675532            3 
 3283000   0.73171631     -8.39144    598.16474  0.015183388  0.014670527            3 
 3284000   0.73084353   -8.3438108    599.13266  0.015203326  0.014665522            2 
 3285000   0.75097257   -8.3570315    599.22746  0.015201103   0.01466053            7 
 3286000   0.71300799    -8.376214    600.09749  0.015218541  0.014655518            2 
 3287000   0.73101706   -8.3699041    599.02712  0.015186774    0.0146505            3 
 3288000   0.71978661   -8.3674779    599.79263  0.015201557  0.014645484            4 
 3289000   0.72808851   -8.3678361    599.20394  0.015182019  0.014640468            1 
 3290000   0.72294683   -8.3486017    599.20963  0.015177549   0.01463547            3 
 3291000   0.73667709   -8.3712592    598.49433  0.015154825  0.014630476            6 
 3292000   0.73037489   -8.3785245     598.4353  0.015148727  0.014625473            2 
 3293000   0.71808209   -8.3715061    599.14931  0.015162195  0.014620497            2 
 3294000   0.72669448   -8.3571852    599.07195  0.015155635  0.014615486            1 
 3295000   0.73361481   -8.3851087    598.35383  0.015132874  0.014610477            1 
 3296000   0.72327029   -8.3442399    599.21814  0.015150135  0.014605487            2 
 3297000   0.73182891   -8.3770207    598.97135  0.015139302   0.01460049            1 
 3298000   0.71821256   -8.3580388    598.25238  0.015116545  0.014595506            1 
 3299000   0.71153184   -8.3694788    598.43944  0.015116688  0.014590511            2 
 3300000   0.72906817   -8.3737864    599.35138  0.015135136  0.014585514            1 
 3301000   0.72838286   -8.3571115    598.79483  0.015116501  0.014580515            2 
 3302000   0.71729082   -8.3880254     598.6766  0.015108939  0.014575508            1 
 3303000   0.69902014   -8.3820629    599.26295  0.015119158  0.014570505            1 
 3304000   0.71705712   -8.3862793    599.70179  0.015125651  0.014565509            5 
 3305000   0.70339299   -8.3721413    599.42315  0.015114048  0.014560521            5 
 3306000    0.7022236   -8.3710148    599.61911  0.015114416  0.014555526            4 
 3307000   0.72502154    -8.364664    599.10483  0.015096886  0.014550534            2 
 3308000   0.72356448    -8.372262     598.1107  0.015067279  0.014545534            4 
 3309000   0.73206028   -8.3429227    599.95694  0.015109221  0.014540554            3 
 3310000   0.73240869   -8.3739147    598.77881  0.015074995  0.014535563            3 
 3311000   0.72636037    -8.364215    600.78712  0.015120988   0.01453058            1 
 3312000   0.72473169   -8.3653191    598.50887    0.0150591  0.014525589            3 
 3313000   0.72080605   -8.3685538    598.84129  0.015062916  0.014520594            2 
 3314000   0.72271812   -8.3743676    600.69009   0.01510486  0.014515603            4 
 3315000    0.7227433    -8.401754    598.77241  0.015052097   0.01451061            2 
 3316000   0.71859441   -8.3875277    599.76614  0.015072531  0.014505615            1 
 3317000   0.71090056   -8.3878118    597.80617  0.015018746  0.014500625            2 
 3318000   0.73696937   -8.3819599    599.18889  0.015048947   0.01449564            4 
 3319000   0.71940173   -8.3648593    599.17618  0.015044094  0.014490662            3 
 3320000   0.70720042   -8.4052249    598.33409  0.015018426  0.014485673            1 
 3321000   0.73453285   -8.3673728    599.57744  0.015045103  0.014480704            1 
 3322000   0.73037265    -8.355897    599.72124  0.015044181  0.014475754            3 
 3323000   0.71831188   -8.3595814    600.56479  0.015060808  0.014470801            1 
 3324000   0.71185646   -8.3774868     599.4077  0.015027269  0.014465843            4 
 3325000   0.71241835   -8.3821448     599.8287  0.015033301  0.014460876            2 
 3326000   0.71649483   -8.3807567    598.72129  0.015001034   0.01445591            2 
 3327000   0.71161316   -8.3585019    598.29145  0.014985759  0.014450949            2 
 3328000   0.71957481   -8.3708712    599.69029  0.015016283  0.014446001            2 
 3329000   0.70948626   -8.3905655    599.01371  0.014994836  0.014441041            3 
 3330000   0.71107684   -8.3895935    599.17696  0.014994419  0.014436079            1 
 3331000   0.73318974   -8.3691171     599.0912  0.014987771  0.014431122            1 
 3332000   0.71767901   -8.3880777    599.69927  0.014998481  0.014426181            1 
 3333000    0.7306276   -8.3837257    599.92208  0.014999552  0.014421231            1 
 3334000   0.71293348   -8.3839678    598.71719  0.014964937  0.014416276            3 
 3335000   0.71699342   -8.3844214    598.68704  0.014959696   0.01441133            3 
 3336000   0.72015535   -8.4109547    597.60153  0.014928096  0.014406382            1 
 3337000   0.72061362    -8.403811    598.40649  0.014943724   0.01440143            4 
 3338000      0.70701   -8.4038184     600.1486  0.014982739  0.014396484            2 
 3339000   0.71919038   -8.4051264    599.63573  0.014965452  0.014391532            4 
 3340000   0.71194577   -8.4009304    599.05543  0.014946493  0.014386582            2 
 3341000   0.71170955   -8.3775695    598.85154  0.014936934  0.014381637            2 
 3342000   0.71363474   -8.3798971    600.23923  0.014967066  0.014376687            2 
 3343000   0.72113853    -8.374815    600.09705  0.014959045   0.01437174            1 
 3344000    0.7049056   -8.3968641    599.86219  0.014948719  0.014366796            2 
 3345000   0.70480332   -8.3982335    598.92143  0.014920813  0.014361849            2 
 3346000   0.69732372   -8.4108024    598.70711  0.014911016  0.014356889            1 
 3347000   0.71315802    -8.397584    599.56432  0.014927904  0.014351939            2 
 3348000   0.72164625   -8.3957138    598.61373  0.014899784  0.014346986            2 
 3349000   0.70890661   -8.4119368    599.07304  0.014906764  0.014342025            1 
 3350000   0.70446617   -8.3963978    598.68477  0.014892656  0.014337064            2 
 3351000   0.71005403   -8.3844318    599.78205  0.014915499  0.014332104            1 
 3352000   0.73040256    -8.416044    599.39555  0.014901441  0.014327146            4 
 3353000     0.711157   -8.4266979    599.08596  0.014889302  0.014322177            4 
 3354000   0.70006345   -8.4081259    598.59904  0.014872765  0.014317206            3 
 3355000   0.70751086   -8.4217501    598.11786   0.01485638  0.014312239            2 
 3356000   0.71578002   -8.4258144    598.63524    0.0148648  0.014307281            3 
 3357000   0.72336748   -8.4193441    598.63259  0.014860307  0.014302334            3 
 3358000   0.71234479   -8.3641932    599.55093  0.014878671  0.014297392            4 
 3359000   0.74040819   -8.4021533    598.75118  0.014854401  0.014292448            3 
 3360000   0.71446712   -8.3896114    599.20813  0.014861313  0.014287496            1 
 3361000   0.71960645   -8.4253232     598.0178  0.014827378  0.014282524            2 
 3362000   0.72562887   -8.4449984    598.87742  0.014844275   0.01427756            3 
 3363000   0.69880443   -8.4157853    597.73967  0.014811668  0.014272598            2 
 3364000    0.7062502   -8.4245835    598.56791  0.014827782  0.014267628            4 
 3365000   0.71737387   -8.4158711    599.17356  0.014838374  0.014262661            5 
 3366000   0.70380267   -8.4306687    598.56922  0.014819004  0.014257698            2 
 3367000   0.71411693   -8.4115827    598.10597  0.014803138  0.014252749            3 
 3368000   0.70696904   -8.4418164    598.49968  0.014808484  0.014247797            2 
 3369000    0.7025681   -8.4137702     599.1474   0.01482011  0.014242855            2 
 3370000   0.70139534   -8.4226667    598.58756  0.014801868  0.014237915            2 
 3371000   0.70682553   -8.3929377     601.2137  0.014862397  0.014232993            2 
 3372000   0.71257441   -8.4167767    600.06374   0.01482957   0.01422807            2 
 3373000   0.71304641   -8.3972879    599.42485   0.01480939  0.014223139            4 
 3374000   0.71014555   -8.4171241    598.11206  0.014772576  0.014218208            2 
 3375000     0.720995   -8.4106843     598.9064  0.014787812   0.01421328            2 
 3376000   0.70753649   -8.4386817    596.76235  0.014730508  0.014208348            1 
 3377000   0.71855907   -8.4023914    598.73829  0.014774906  0.014203418            2 
 3378000   0.70450036   -8.3869794    599.19511  0.014781802  0.014198497            3 
 3379000   0.71046589   -8.4409198    598.52947  0.014761011   0.01419358            2 
 3380000   0.70755196   -8.4235412    599.01516  0.014768618  0.014188653            1 
 3381000    0.6999413   -8.4265995    599.95269  0.014787358  0.014183733            4 
 3382000   0.70733994   -8.3994644    598.44394   0.01474581  0.014178826            2 
 3383000   0.68917532   -8.4434011    597.88162  0.014727599  0.014173905            3 
 3384000    0.6988194   -8.4216294    598.49613   0.01473838  0.014168991            1 
 3385000   0.70102588    -8.424444    598.85571  0.014742878  0.014164086            2 
 3386000   0.71122133   -8.4160796    599.53255  0.014755182  0.014159166            5 
 3387000   0.71077237   -8.4125206    599.14075  0.014741186  0.014154241            2 
 3388000   0.71325095   -8.4075287    599.37033  0.014742482  0.014149316            3 
 3389000   0.71871761   -8.4297084    598.96028  0.014728049  0.014144382            3 
 3390000   0.70807254   -8.4037522    599.58289  0.014739009  0.014139438            1 
 3391000   0.71481616   -8.4203105    598.26758  0.014702339  0.014134508            3 
 3392000   0.70225571   -8.4229289    598.63963  0.014707145   0.01412958            5 
 3393000   0.69175464   -8.3982492    597.78994  0.014681942  0.014124662            1 
 3394000   0.70452022   -8.4249808    599.56824  0.014721279  0.014119747            3 
 3395000   0.69357257   -8.4302202    598.59484   0.01469305  0.014114827            1 
 3396000   0.72167583   -8.4020475     599.1253   0.01470174  0.014109898            1 
 3397000   0.70302857   -8.4305528    599.48521  0.014706241  0.014104984            2 
 3398000    0.7060374   -8.4480794    598.57684  0.014679636  0.014100066            3 
 3399000   0.69827438   -8.4205556    597.94743  0.014659886  0.014095132            3 
 3400000      0.69817   -8.4508123    597.43196   0.01464294  0.014090196            2 
 3401000   0.71031747   -8.4592575    597.95761  0.014651515  0.014085263            2 
 3402000   0.68888214   -8.4471691    596.40997  0.014609298  0.014080319            2 
 3403000    0.7148962    -8.459568    598.41701  0.014654153  0.014075374            4 
 3404000   0.71205631   -8.4513393      598.244  0.014645613  0.014070433            3 
 3405000   0.72234169   -8.4782771    596.86838  0.014607645  0.014065484            3 
 3406000   0.70315078   -8.4621255    598.13304  0.014634298  0.014060545            2 
 3407000   0.71477909   -8.4562495    597.74373  0.014620481  0.014055628            1 
 3408000   0.69902356   -8.4594356    598.77104  0.014641311  0.014050709            3 
 3409000   0.70112882   -8.4311054      597.453  0.014604796   0.01404578            2 
 3410000   0.70202409   -8.4535142    597.32685   0.01459743  0.014040868            3 
 3411000   0.71806361     -8.44932    597.67482  0.014601652  0.014035948            1 
 3412000   0.72199377   -8.4297114    597.75477  0.014599325  0.014031042            2 
 3413000   0.70154267   -8.4451834    597.16122  0.014580555  0.014026128            3 
 3414000   0.68969455   -8.4388548    598.22895  0.014602347   0.01402121            2 
 3415000    0.7084572   -8.4409476     597.8343  0.014588441  0.014016288            3 
 3416000   0.70272747   -8.4505079    598.05164  0.014589472  0.014011362            5 
 3417000   0.70771172   -8.4298816    596.78703  0.014554361  0.014006438            2 
 3418000   0.69643851   -8.4478742    598.16548  0.014583711  0.014001527            2 
 3419000   0.70723522   -8.4524421     596.7844  0.014545783  0.013996605            3 
 3420000   0.70136584    -8.456849    597.02695   0.01454744  0.013991688            2 
 3421000   0.70288481   -8.4389771    596.81796  0.014538097  0.013986776            2 
 3422000   0.70832866   -8.4292832    598.04269  0.014563673  0.013981874            4 
 3423000   0.70702402   -8.4334166    597.81912  0.014553976  0.013976964            3 
 3424000   0.71183878   -8.4466027    597.97091   0.01455342  0.013972075            2 
 3425000   0.69656529    -8.431575    599.25677  0.014580457  0.013967195            1 
 3426000   0.71223862   -8.4815411    597.41822   0.01453148  0.013962302            1 
 3427000   0.70299001   -8.4417477    597.51172  0.014529514  0.013957411            5 
 3428000    0.6992555   -8.4488417    597.08529  0.014514909  0.013952512            2 
 3429000   0.69987723   -8.4224071    599.07625  0.014559061  0.013947635            2 
 3430000   0.71385725   -8.4402717    597.91319  0.014526559  0.013942745            1 
 3431000   0.69013203   -8.4307262    598.77933  0.014543363  0.013937855            3 
 3432000   0.69576545   -8.4305242    598.26311  0.014526591  0.013932967            1 
 3433000   0.69347106   -8.4139362    598.28722  0.014522944  0.013928076            2 
 3434000   0.70770936   -8.4515966    598.81222  0.014531455  0.013923185            8 
 3435000     0.694436   -8.4268057    598.47777  0.014519111  0.013918294            1 
 3436000   0.69945278   -8.4377444    597.38781  0.014488451  0.013913406            1 
 3437000   0.69309557   -8.4462675    597.87518  0.014496052  0.013908518            2 
 3438000   0.71764677   -8.4551777    599.06554  0.014520689  0.013903643            3 
 3439000   0.69762304   -8.4213479    597.81163  0.014486082  0.013898768            4 
 3440000   0.69652807   -8.4283151    598.59794  0.014500919  0.013893897            1 
 3441000   0.71352299   -8.4279129    596.89433  0.014455447  0.013889026            1 
 3442000   0.69944578   -8.4625142    597.32802  0.014461748  0.013884148            1 
 3443000   0.69208836   -8.4257401    598.45747  0.014484884  0.013879272            1 
 3444000    0.6948071   -8.4596366    597.11713  0.014448246  0.013874393            1 
 3445000   0.70064718   -8.4406319    598.12022  0.014468317  0.013869525            3 
 3446000   0.68070964   -8.4301152    596.09604  0.014415168  0.013864655            1 
 3447000   0.70132888   -8.4506531    596.89248  0.014430241  0.013859788            1 
 3448000   0.71580809   -8.4344449    598.31028  0.014460322  0.013854924            1 
 3449000   0.69699287   -8.4599661    598.64841  0.014464299  0.013850059            3 
 3450000   0.72044042   -8.4424626    597.74181  0.014438208  0.013845194            2 
 3451000   0.70797938   -8.4500559    597.86033  0.014436886  0.013840324            2 
 3452000   0.69123811   -8.4551611    597.84422  0.014432315  0.013835462            1 
 3453000   0.69284419   -8.4492215    596.65937  0.014399541    0.0138306            1 
 3454000   0.69639759   -8.4424833    597.49168  0.014415452  0.013825734            4 
 3455000   0.69795628   -8.4728142    598.47362  0.014434964  0.013820879            2 
 3456000   0.68993187   -8.4604829    597.58205  0.014409289   0.01381601            2 
 3457000    0.7104463   -8.4591447    597.51782  0.014403573  0.013811137            3 
 3458000   0.69643956   -8.4720385    598.17521   0.01441525  0.013806261            3 
 3459000   0.69845296   -8.4807505    596.98015  0.014382291  0.013801394            5 
 3460000   0.68382619   -8.4493862    598.76793  0.014421193  0.013796544            8 
 3461000    0.6879931   -8.4533216    598.29189  0.014405564  0.013791688            3 
 3462000   0.70092037    -8.470026    597.48062  0.014381875  0.013786827            2 
 3463000   0.68760146   -8.4635965    597.28959  0.014373125  0.013781958            2 
 3464000   0.69683335   -8.4959249     596.7858  0.014356856  0.013777101            3 
 3465000   0.68917554   -8.4473326    597.94205  0.014380521   0.01377224            1 
 3466000    0.6905574   -8.4558643    597.65016  0.014369354  0.013767371            3 
 3467000   0.69796255   -8.4652624    598.29483  0.014380705  0.013762526            2 
 3468000   0.69664306   -8.4822375    597.73772  0.014363171  0.013757675            9 
 3469000    0.7143606    -8.471315    597.38912  0.014350656  0.013752827            2 
 3470000    0.7116619   -8.4515445    597.82118  0.014356897  0.013747975            3 
 3471000   0.67863802   -8.4658288    598.55624  0.014370408  0.013743122            2 
 3472000    0.6944359   -8.4505299    596.89338  0.014326358  0.013738277            2 
 3473000   0.70456688   -8.4447908    598.05144   0.01435002  0.013733432            5 
 3474000   0.70328543    -8.470091    598.74178  0.014362449  0.013728607            3 
 3475000   0.70533848   -8.4654748     597.5135  0.014328861  0.013723777            3 
 3476000   0.68869891   -8.4770936    598.69385  0.014353036  0.013718958            8 
 3477000   0.70253969   -8.4620922    598.81159   0.01435173  0.013714138            1 
 3478000   0.69340571   -8.4660708    597.14506  0.014307674  0.013709315            7 
 3479000   0.70677655    -8.471976    598.36383  0.014332754    0.0137045            2 
 3480000   0.70213375   -8.4726532    598.91139  0.014341748  0.013699668            2 
 3481000   0.69862765   -8.4727897    598.11396  0.014318538  0.013694845            4 
 3482000   0.68851793    -8.474628    597.06254  0.014289262  0.013690023            3 
 3483000   0.69345837   -8.4534898    597.55423  0.014296924  0.013685202            3 
 3484000   0.68331295   -8.4521506     597.7224  0.014296843  0.013680397            2 
 3485000   0.69645905    -8.441013    598.70958  0.014316346    0.0136756            1 
 3486000   0.68446033    -8.455302    598.16024  0.014299107  0.013670796            1 
 3487000   0.69195694   -8.4393343    598.50079  0.014303145  0.013665993            3 
 3488000   0.69225819     -8.49438    597.69216  0.014279725  0.013661191            2 
 3489000   0.67946392   -8.4724289     598.2787  0.014289641  0.013656387            2 
 3490000   0.70055117   -8.4590271     598.0517  0.014280127   0.01365159            2 
 3491000   0.68390494   -8.4548019    598.42809  0.014285021  0.013646795            1 
 3492000   0.69764657   -8.4740751    598.37948   0.01427977  0.013642002            2 
 3493000   0.69136775   -8.4930777    598.10406  0.014269111  0.013637189            2 
 3494000    0.6834924   -8.5001173    597.38386   0.01424785  0.013632379            2 
 3495000   0.68792457   -8.4665456    597.34816  0.014242922  0.013627568            4 
 3496000   0.68442366   -8.4857089    595.54987  0.014195983  0.013622755            1 
 3497000   0.70078197   -8.4701589    596.84219  0.014222719  0.013617956            2 
 3498000   0.68790537    -8.480229    597.52148  0.014234836  0.013613139            2 
 3499000   0.70769221    -8.474425    598.43821  0.014252601  0.013608331            1 
 3500000   0.69412367   -8.4788417    598.05778  0.014239471  0.013603532            2 
 3501000   0.68667666   -8.4704575    598.20142  0.014238823  0.013598735            3 
 3502000   0.69761036   -8.4933974    598.86266  0.014250492  0.013593942            2 
 3503000   0.69249804   -8.4838283    598.57871  0.014239669  0.013589148            2 
 3504000   0.67204348   -8.5057297    597.35751  0.014206562  0.013584349            4 
 3505000   0.68476317   -8.4991075      597.248  0.014199905  0.013579549            2 
 3506000   0.69312749    -8.479064    597.55495  0.014203151  0.013574763            1 
 3507000    0.6910227   -8.4623362    597.50433  0.014197898  0.013569967            3 
 3508000   0.68512671   -8.4922434    596.62021  0.014172848  0.013565177            2 
 3509000   0.69488973   -8.4628866    598.02268  0.014202116  0.013560394            2 
 3510000    0.7064731   -8.4759771    599.01632   0.01422166  0.013555628            3 
 3511000   0.68575543   -8.4925839    597.55946  0.014183031   0.01355086            1 
 3512000   0.69449524   -8.4894116    598.23452   0.01419501  0.013546089            2 
 3513000   0.68853398   -8.4609118     598.0581  0.014186785  0.013541326            2 
 3514000   0.70186082   -8.4896949    598.08998  0.014183504  0.013536564            3 
 3515000   0.69099357   -8.4984839    597.38753  0.014162815  0.013531799            1 
 3516000   0.68979395   -8.4854324    598.24645  0.014179144  0.013527023            2 
 3517000   0.68897357   -8.5060074    596.55716  0.014135086  0.013522248            5 
 3518000   0.68862457   -8.4945888    598.41386  0.014175049  0.013517482            5 
 3519000   0.69067557   -8.4805758    598.44073  0.014171657  0.013512724            2 
 3520000   0.69982241   -8.4896058    598.55354  0.014170302   0.01350798            2 
 3521000   0.68379829   -8.4732895    597.95882  0.014152202  0.013503218            2 
 3522000   0.69250206   -8.4700854    598.37269  0.014157976  0.013498458            3 
 3523000   0.68826253    -8.461263    597.76097  0.014139487  0.013493693            1 
 3524000   0.69066544   -8.4494259    597.85851  0.014137782  0.013488953            3 
 3525000    0.7067672   -8.4958577    598.16426  0.014140999  0.013484202            1 
 3526000   0.68387977    -8.474164    597.27819  0.014116047  0.013479454            1 
 3527000   0.66443021   -8.4996348    597.36725  0.014114149  0.013474691            5 
 3528000   0.69135639   -8.4881123     598.6955  0.014141523   0.01346993            3 
 3529000   0.69353178    -8.482518    597.61368  0.014111969  0.013465177            3 
 3530000    0.6876872   -8.4759456    597.04201  0.014094476  0.013460414            6 
 3531000   0.69260582   -8.4825646    597.02615   0.01409011  0.013455647            7 
 3532000   0.70044976   -8.5048015    597.32387  0.014093145  0.013450897            8 
 3533000   0.68331415    -8.463206    598.09193  0.014107273  0.013446149            3 
 3534000   0.68417554   -8.4907404     597.0956  0.014079787  0.013441398            5 
 3535000   0.69615586    -8.481826    597.54802  0.014086469  0.013436649            2 
 3536000    0.6825103   -8.4947085    597.86654  0.014089992  0.013431911            2 
 3537000   0.67156083   -8.4784745    597.79589  0.014084344  0.013427173            2 
 3538000   0.67629084      -8.4733    597.94493  0.014083873  0.013422432            4 
 3539000   0.68390556   -8.4622245    597.90069  0.014078852  0.013417701            1 
 3540000   0.67381256    -8.473177    596.39786  0.014039498  0.013412972            4 
 3541000   0.69305309   -8.4919451    597.76998  0.014067824  0.013408244            1 
 3542000   0.69016839   -8.4889745    597.21075  0.014050695  0.013403526            1 
 3543000   0.69083783   -8.4920105    596.76002  0.014036128  0.013398808            6 
 3544000   0.67885112   -8.4948268    597.44219  0.014048208  0.013394074            3 
 3545000   0.68648455   -8.4710796    598.98554  0.014080525   0.01338935            4 
 3546000   0.68386939   -8.4853387     597.3978  0.014039241  0.013384618            2 
 3547000    0.6840889   -8.5059112    598.03708  0.014050303   0.01337989            5 
 3548000   0.68575632   -8.5135989      597.786  0.014040445  0.013375166            4 
 3549000   0.68576746   -8.4918745    597.79668   0.01403674  0.013370448            6 
 3550000   0.67815015   -8.4790682    598.04919  0.014038713  0.013365733            1 
 3551000   0.69451276   -8.5078154    597.81132  0.014029178  0.013361013            2 
 3552000   0.68090378   -8.4898079     597.4098  0.014015808  0.013356298            3 
 3553000   0.71281468   -8.5189995    596.51846  0.013990957  0.013351579            2 
 3554000   0.68720132   -8.5201559    597.61507  0.014012734  0.013346862            5 
 3555000   0.69072854   -8.5175058    597.69653  0.014010702  0.013342146            2 
 3556000   0.66749868   -8.4947667    597.72839  0.014007508  0.013337425            4 
 3557000   0.68301482   -8.5200279    598.34256  0.014017959  0.013332703            2 
 3558000   0.69043896   -8.5074791    596.59831  0.013973166  0.013327983            5 
 3559000   0.68755081   -8.5371852    597.01362  0.013978965  0.013323275            1 
 3560000    0.6725548   -8.5238116    597.48071  0.013985972  0.013318554            3 
 3561000   0.69829169   -8.4995773    598.24158   0.01399985  0.013313849            2 
 3562000   0.67983199   -8.5236114    597.11479  0.013969558  0.013309138            3 
 3563000   0.68074844   -8.5198445    597.54166  0.013975621  0.013304426            1 
 3564000   0.68153231   -8.5216989    598.04236  0.013983407    0.0132997            2 
 3565000   0.69124539   -8.4992812     597.1388  0.013958364  0.013294969            1 
 3566000   0.68629984   -8.5220482    596.04366  0.013928857  0.013290248            1 
 3567000   0.69320061    -8.516173    596.45537  0.013934571  0.013285519            3 
 3568000   0.66354862   -8.5092536    598.35081  0.013974935  0.013280793            2 
 3569000   0.67689051   -8.5240527    596.00384  0.013916219  0.013276081            3 
 3570000   0.68839945   -8.5248369    597.36036  0.013943986  0.013271367            1 
 3571000   0.69656191   -8.5144428    597.68563  0.013947672  0.013266651            4 
 3572000   0.68860358   -8.5203889    597.29996   0.01393477  0.013261933            2 
 3573000   0.68178978   -8.5256576    596.04902  0.013901694  0.013257222            3 
 3574000   0.67185798    -8.532644    596.76071  0.013914398  0.013252497            5 
 3575000   0.67725123   -8.5150514    596.44531  0.013903154  0.013247786            3 
 3576000   0.68874011   -8.5485147    596.00974  0.013889116  0.013243078            2 
 3577000     0.679708   -8.5393234    597.14672  0.013911721  0.013238368            1 
 3578000   0.69065332     -8.52068     595.8787    0.0138783  0.013233652            5 
 3579000   0.68187644    -8.518143    596.94392  0.013899225  0.013228944            4 
 3580000    0.6847334   -8.5375467    596.91297  0.013894622  0.013224235            2 
 3581000   0.68295675   -8.5320703    597.19337  0.013897267  0.013219543            5 
 3582000   0.67142192   -8.5240263    596.30497  0.013872719  0.013214853            2 
 3583000    0.6810267   -8.5231874    598.26361  0.013914402  0.013210163            3 
 3584000   0.67892487   -8.5178049    597.45906  0.013891812  0.013205468            2 
 3585000   0.67446396   -8.5062366    596.68505  0.013869945  0.013200777            2 
 3586000   0.67397567   -8.5201781    595.69113   0.01384298  0.013196082            3 
 3587000   0.66926236   -8.5183551    596.28949  0.013853022    0.0131914            2 
 3588000   0.66460269    -8.498948    596.50081  0.013854069  0.013186714            1 
 3589000   0.68373159   -8.5326223    597.28031  0.013868308  0.013182021            1 
 3590000   0.68118907   -8.5233793      595.641  0.013826393   0.01317733            2 
 3591000   0.67381543   -8.5282232    597.00162  0.013854117  0.013172637            2 
 3592000   0.66917156   -8.5267256     595.7164  0.013820444  0.013167955            1 
 3593000     0.666981   -8.5128385    596.77875  0.013841236  0.013163275            2 
 3594000   0.67995556   -8.5171536    597.72004  0.013859211  0.013158592            1 
 3595000    0.6721315   -8.5173455    596.43892  0.013825659  0.013153916            1 
 3596000   0.65795129   -8.5241393    597.51151   0.01384667   0.01314924            2 
 3597000   0.68807213   -8.4963826    597.33188  0.013838659  0.013144567            4 
 3598000    0.6713527   -8.5260477    596.72863  0.013820841  0.013139892            2 
 3599000   0.67844124   -8.5105731    596.83729  0.013819517  0.013135215            1 
 3600000   0.69474247   -8.5476613    596.55956  0.013809249  0.013130548            2 
 3601000   0.68650473   -8.5405607    597.40784  0.013825045  0.013125882            2 
 3602000   0.65894972   -8.5353673    596.10264  0.013791011  0.013121219            2 
 3603000   0.66971079   -8.5337992    597.55291  0.013820726   0.01311655            2 
 3604000   0.67552706   -8.5207605    597.02392   0.01380466  0.013111889            5 
 3605000   0.66910542   -8.5272479    596.10591   0.01377961  0.013107225            1 
 3606000   0.66795829   -8.5294792    597.84944  0.013816081  0.013102569            5 
 3607000   0.66470097   -8.5070132    597.23168  0.013797978  0.013097909            5 
 3608000   0.68051644   -8.5313574    596.28081  0.013772192  0.013093251            2 
 3609000    0.6858809   -8.5167814     596.4073  0.013771296  0.013088591            1 
 3610000   0.67105297   -8.5459166    596.26959  0.013764303  0.013083943            1 
 3611000   0.66325503   -8.5129247    598.07394  0.013802131  0.013079291            4 
 3612000   0.67401496   -8.5151364      596.912  0.013771502  0.013074645            2 
 3613000   0.68029972   -8.5308023    597.33885  0.013777536  0.013070005            1 
 3614000   0.67388388   -8.5190295    597.16173   0.01376964  0.013065363            2 
 3615000   0.67402202   -8.5235418    596.50822  0.013750766  0.013060723            2 
 3616000   0.69137883   -8.5212743    596.65813  0.013750418  0.013056079            2 
 3617000   0.68045741   -8.5251946    596.94598  0.013753248  0.013051441            3 
 3618000   0.67257951   -8.5346633    597.56955  0.013763809  0.013046801            1 
 3619000   0.67822799    -8.514278    596.78005  0.013741827  0.013042163            2 
 3620000   0.67010792   -8.5570605    594.46461  0.013684729   0.01303752            2 
 3621000   0.66601515   -8.5270859    595.82999  0.013712372  0.013032877            2 
 3622000   0.68128056   -8.5200685    596.31286  0.013719696  0.013028239            3 
 3623000   0.67613447   -8.5347345    596.34819  0.013716722  0.013023599            3 
 3624000   0.67454474   -8.5339859    595.84345   0.01370133  0.013018946            3 
 3625000   0.67252891   -8.5060086    596.90765  0.013722015  0.013014299            4 
 3626000   0.67522369   -8.5232891     597.2777  0.013726735  0.013009657            2 
 3627000   0.66307572    -8.542731    596.49225  0.013704904  0.013005022            1 
 3628000    0.6580707   -8.5168574    597.52475  0.013724843  0.013000396            1 
 3629000   0.66873697   -8.5441767    596.80713  0.013704582  0.012995775            1 
 3630000    0.6800709    -8.521317    597.22948  0.013710502  0.012991156            4 
 3631000   0.67448896    -8.519405    596.90924  0.013699377  0.012986536            7 
 3632000   0.66844808   -8.5245676    597.14578  0.013701032   0.01298192            4 
 3633000   0.65555079   -8.5433211    597.08528  0.013695873  0.012977308            2 
 3634000   0.68274886   -8.5358743    596.55539  0.013679953  0.012972693            2 
 3635000   0.68593172   -8.4903036    596.00096  0.013663479  0.012968089            1 
 3636000   0.68181893   -8.5152276    597.41889  0.013692219  0.012963481            2 
 3637000   0.68270821   -8.5329141    595.44087  0.013643132  0.012958865            1 
 3638000   0.67109968   -8.5541598    596.32601  0.013659658  0.012954241            4 
 3639000   0.66499132   -8.5260577    595.68534  0.013641233  0.012949622            2 
 3640000   0.65590602   -8.5216199    595.80635  0.013640255   0.01294501            1 
 3641000    0.6687539   -8.5294199    596.97955  0.013663361  0.012940396            3 
 3642000    0.6706185   -8.4989253    596.78184  0.013655085  0.012935788            2 
 3643000    0.6695261   -8.5436279    596.69605  0.013649374  0.012931172            1 
 3644000   0.67464488   -8.5283502     596.1662  0.013633512  0.012926568            2 
 3645000   0.68006696   -8.5439331    595.28815  0.013609697   0.01292196            3 
 3646000   0.65773616   -8.5343299    595.29067  0.013606022  0.012917353            2 
 3647000   0.65679251   -8.5497498    596.23661  0.013623906  0.012912743            1 
 3648000   0.65664366   -8.5497442    596.09637  0.013616967  0.012908138            1 
 3649000   0.67081048   -8.5123657    597.64613  0.013648628  0.012903544            2 
 3650000   0.66233655   -8.5647505    597.07162  0.013631772  0.012898952            5 
 3651000   0.66813455   -8.5484871    597.26962  0.013632558  0.012894366            2 
 3652000   0.66590639   -8.5429509    597.53699  0.013634926  0.012889785            1 
 3653000   0.65177362   -8.5183213    597.25455   0.01362475  0.012885209            5 
 3654000   0.67111361   -8.5271923    596.75704  0.013609675  0.012880633            1 
 3655000   0.65380461   -8.5343871    596.59695  0.013602302  0.012876056            2 
 3656000   0.65913773   -8.5125509     595.6782  0.013577639  0.012871472            1 
 3657000   0.65821601   -8.5043502    596.70662  0.013597362    0.0128669            1 
 3658000   0.66708878   -8.5062998    596.74255  0.013594463  0.012862326            1 
 3659000   0.66513652   -8.5407938    596.52104  0.013585703  0.012857749            2 
 3660000   0.66454062   -8.5058327     597.4154  0.013602354   0.01285318            2 
 3661000   0.65913215   -8.5398707    596.65645  0.013581363  0.012848613            1 
 3662000   0.66023354   -8.5456141    595.22733  0.013545133  0.012844041            1 
 3663000   0.65559176   -8.5177356    597.23667  0.013587148  0.012839466            3 
 3664000   0.66576641   -8.5316671    596.19245   0.01355969  0.012834908            1 
 3665000   0.66663814   -8.5152608    596.07027  0.013553212  0.012830347            1 
 3666000   0.65060572   -8.5326138    596.75167  0.013565004  0.012825781            2 
 3667000   0.65171366   -8.5291009    596.56157  0.013556985  0.012821213            2 
 3668000   0.65730092   -8.5344113    596.54685  0.013552955  0.012816645            1 
 3669000   0.66208467   -8.5568452    595.40233  0.013523265  0.012812063            2 
 3670000   0.65564079   -8.5564143    596.10113  0.013535448  0.012807487            2 
 3671000   0.67266565   -8.5437642     596.9304  0.013550586  0.012802913            5 
 3672000   0.64904864   -8.5148049    596.63873  0.013540276  0.012798344            2 
 3673000   0.66819032    -8.551011    596.07926  0.013523897  0.012793776            2 
 3674000   0.65771498   -8.5351926    597.26987  0.013547221  0.012789209            1 
 3675000    0.6566881   -8.5427449    595.55656  0.013504684  0.012784644            1 
 3676000   0.66144997    -8.545613    596.53954  0.013523294  0.012780083            1 
 3677000   0.68683946   -8.5480984    597.47134  0.013540734  0.012775526            6 
 3678000   0.66559779    -8.555863    597.08975  0.013528406  0.012770972            1 
 3679000   0.65774013   -8.5468504    596.29625  0.013506756  0.012766415            1 
 3680000   0.64963781   -8.5402649    597.58707  0.013532316  0.012761862            1 
 3681000   0.65111515   -8.5378182     597.3292  0.013522802  0.012757318            2 
 3682000   0.64837719   -8.5436869    595.52639  0.013478327  0.012752785            2 
 3683000   0.66003811   -8.5430372    596.33828  0.013493037  0.012748242            1 
 3684000   0.66428496   -8.5360978    596.26684  0.013487759  0.012743715            1 
 3685000    0.6530501   -8.5216466    596.29049  0.013484634  0.012739186            2 
 3686000   0.67248048   -8.5508789     596.3991  0.013483431  0.012734656            3 
 3687000   0.66870812   -8.5440803    596.70596  0.013486709  0.012730121            1 
 3688000   0.67971449   -8.5575108    596.39406  0.013476005  0.012725604            3 
 3689000    0.6597894    -8.562932    596.60958   0.01347722  0.012721082            2 
 3690000    0.6616807   -8.5540884    595.89186  0.013457359  0.012716553            4 
 3691000   0.65403412   -8.5562064    596.87369   0.01347588   0.01271203            2 
 3692000   0.65787213   -8.5457315     595.7397  0.013446635  0.012707504            3 
 3693000   0.67387183   -8.5473205    597.23998  0.013476848  0.012702988            1 
 3694000   0.65948983   -8.5215918    598.03442  0.013491121  0.012698475            3 
 3695000   0.67639661   -8.5271452    597.29356  0.013470761  0.012693952            4 
 3696000   0.67621626   -8.5228448    597.59359  0.013473882  0.012689445            2 
 3697000    0.6660679   -8.5467456    596.55876  0.013446911   0.01268494            2 
 3698000   0.65542847   -8.5441648    595.91443  0.013428755  0.012680436            2 
 3699000    0.6396766   -8.5324557    597.12401  0.013452375   0.01267593            2 
 3700000   0.67867679    -8.507984     597.7865   0.01346366  0.012671435            3 
 3701000   0.63978722   -8.5499081    597.18652  0.013446513  0.012666933            1 
 3702000   0.67482932   -8.5413302    597.07271  0.013440318  0.012662438            2 
 3703000   0.65352465   -8.5512595    595.76796  0.013407326  0.012657935            1 
 3704000   0.66030041   -8.5434073    596.25689  0.013414707  0.012653435            2 
 3705000   0.64763499   -8.5444276    597.17922  0.013431831  0.012648933            2 
 3706000   0.64848437    -8.553475    596.26402  0.013407628   0.01264443            3 
 3707000   0.64212542   -8.5412903    596.51023  0.013409546   0.01263994            2 
 3708000   0.65638528     -8.56388      595.792  0.013389788  0.012635458            1 
 3709000   0.67260971   -8.5480011    595.94455  0.013389605  0.012630968            2 
 3710000   0.63557529   -8.5468693    597.94689  0.013430972  0.012626484            5 
 3711000   0.66153429   -8.5412869    596.10032  0.013385887  0.012621991            1 
 3712000    0.6571029   -8.5522754    596.45379  0.013390216    0.0126175            1 
 3713000    0.6498615   -8.5356891    596.61762  0.013390287  0.012613004            4 
 3714000   0.65550554   -8.5372173    596.65371  0.013387491  0.012608518            7 
 3715000   0.64294997   -8.5487841    596.45392  0.013379406  0.012604039            2 
 3716000   0.64096553   -8.5655798    595.31381  0.013350238  0.012599553            2 
 3717000   0.64109422   -8.5504521     596.7766  0.013379441  0.012595066            2 
 3718000   0.65440254   -8.5455785     595.8422    0.0133549  0.012590582            3 
 3719000   0.65636463   -8.5280319    596.31108  0.013361815  0.012586103            4 
 3720000   0.65829735   -8.5663462    595.98073  0.013350823  0.012581626            4 
 3721000   0.64612242   -8.5506742     596.4604  0.013357977  0.012577143            3 
 3722000   0.65671218   -8.5632954    595.85812  0.013340904  0.012572657            1 
 3723000   0.67373443   -8.5637255    595.96948  0.013339813  0.012568176            2 
 3724000   0.67038268   -8.5790167    594.84903  0.013311158  0.012563689            2 
 3725000   0.66354655   -8.5822854    595.98352  0.013332965  0.012559208            2 
 3726000   0.65764973   -8.5603158    597.45764  0.013362356  0.012554731            1 
 3727000   0.65761784   -8.5701458    596.73707  0.013342659   0.01255025            4 
 3728000   0.65162098   -8.5771521    596.97017   0.01334429  0.012545775            2 
 3729000   0.66255912   -8.5562556    597.04078   0.01334229  0.012541301            2 
 3730000   0.65172381   -8.5588318    596.17135  0.013319288  0.012536832            1 
 3731000   0.65072109   -8.5711623    595.32578  0.013296832   0.01253235            1 
 3732000   0.65747837   -8.5469632    595.79756  0.013303804  0.012527878            1 
 3733000    0.6590424   -8.5583545    595.97508  0.013304203  0.012523414            2 
 3734000   0.66229819   -8.5567443      596.422  0.013310614  0.012518952            2 
 3735000   0.64196353   -8.5462245    596.78727    0.0133152  0.012514493            2 
 3736000   0.64853757   -8.5656496    595.44742   0.01328175  0.012510035            1 
 3737000   0.66379291   -8.5516711    596.03866   0.01329138  0.012505576            3 
 3738000   0.65257685    -8.553805    596.04574  0.013287983  0.012501114            2 
 3739000   0.64659759   -8.5605927    595.69579  0.013276629  0.012496654            2 
 3740000    0.6602786   -8.5611221    595.91009  0.013277854  0.012492205            3 
 3741000   0.64923602    -8.578509    596.99876  0.013298556  0.012487744            2 
 3742000   0.65371692   -8.5622734    594.71142  0.013244063  0.012483288            2 
 3743000   0.64701093   -8.5538687    597.58408  0.013304481  0.012478834            3 
 3744000   0.65689099   -8.5939873    595.85095  0.013262352  0.012474381            2 
 3745000    0.6621118   -8.5780722    597.35561  0.013292292  0.012469923            1 
 3746000   0.66054419    -8.578682    595.20972  0.013241006  0.012465473            4 
 3747000    0.6427586   -8.5603791    595.75562  0.013249613  0.012461021            1 
 3748000   0.64921377   -8.5699418    595.53052  0.013241074  0.012456576            2 
 3749000   0.65778311   -8.5582595    595.08397  0.013227616   0.01245212            2 
 3750000   0.65479494   -8.5535301     595.5338  0.013234084  0.012447668            1 
 3751000   0.65948196   -8.5703252    596.44612  0.013250825   0.01244322            1 
 3752000   0.66016486   -8.5794109    596.35913  0.013245361  0.012438772            3 
 3753000    0.6388363   -8.5882267    595.69756  0.013227142  0.012434323            3 
 3754000   0.63939787   -8.5427609    596.40286  0.013239275  0.012429883            1 
 3755000   0.67012485   -8.5599379    595.86089  0.013223722  0.012425451            1 
 3756000   0.64511156   -8.5517588    594.64839  0.013193299  0.012421012            1 
 3757000   0.63700092   -8.5690446     595.6546  0.013212106  0.012416569            3 
 3758000   0.65383452   -8.5848411     594.6357  0.013185996  0.012412132            2 
 3759000    0.6397008   -8.5801879    595.13815  0.013193628  0.012407698            2 
 3760000   0.64521419   -8.5575675    596.38294  0.013217707  0.012403267            2 
 3761000    0.6582412   -8.5779291    596.24759  0.013211194  0.012398841            1 
 3762000    0.6571532   -8.5943526    595.61361  0.013193638  0.012394416            2 
 3763000   0.65536258   -8.5563048    595.53154  0.013188315  0.012389994            4 
 3764000   0.65104174   -8.5668015    595.80736  0.013190917  0.012385568            4 
 3765000   0.64839372     -8.58591    596.61072  0.013205195  0.012381149            1 
 3766000   0.65306094   -8.5848037    595.18578  0.013170158  0.012376721            5 
 3767000    0.6438341   -8.5995215    596.04237  0.013185611  0.012372301            4 
 3768000   0.64123994   -8.5760678    596.19809  0.013185556  0.012367886            2 
 3769000   0.63617411   -8.5835921    596.12142  0.013180362  0.012363465            2 
 3770000    0.6477243   -8.5616231    596.01872  0.013174596  0.012359048            4 
 3771000    0.6604445   -8.5831845    595.23512  0.013153786  0.012354636            1 
 3772000   0.65220452   -8.5960913    596.01956  0.013167629  0.012350219            1 
 3773000   0.65499402    -8.577801    596.26577  0.013169577  0.012345803            1 
 3774000   0.67227682   -8.5610915    595.98584  0.013159906  0.012341394            4 
 3775000   0.64596542   -8.5693504    596.80972  0.013174607  0.012336987            3 
 3776000   0.64411048   -8.5718721    596.36041  0.013161203  0.012332576            2 
 3777000   0.64096216   -8.5974722    594.49667  0.013116598  0.012328172            6 
 3778000   0.66418461   -8.5785215    595.30808  0.013131023  0.012323769            3 
 3779000   0.65854974   -8.5814434    596.01184  0.013143068  0.012319365            2 
 3780000   0.65306731   -8.5754257    596.16821  0.013143038  0.012314957            2 
 3781000   0.64252709   -8.6026452     595.7939  0.013131312  0.012310549            2 
 3782000   0.64454528    -8.584119    595.53455  0.013122126  0.012306138            2 
 3783000   0.65577015   -8.5911252    596.30602  0.013135651  0.012301727            2 
 3784000   0.64517125   -8.5874155    594.92331  0.013101729  0.012297323            4 
 3785000   0.65309179   -8.5843962    594.84741  0.013096597  0.012292911            4 
 3786000   0.63504295   -8.5957499    595.34801  0.013104156    0.0122885            2 
 3787000   0.65403738   -8.6059368    594.46972  0.013081369  0.012284095            4 
 3788000    0.6604391   -8.5841875    594.68793  0.013082716  0.012279695            1 
 3789000   0.63182207   -8.5821476    594.75956  0.013080838  0.012275297            2 
 3790000   0.64087594   -8.6221312    595.66903  0.013097384  0.012270891            1 
 3791000    0.6413867   -8.5728695    594.23935  0.013062502  0.012266495            3 
 3792000   0.63280749   -8.5985665    594.25318  0.013059361    0.0122621            5 
 3793000   0.64201155   -8.5998696    595.93961   0.01309297  0.012257704            3 
 3794000   0.63561876   -8.5955433    594.94388  0.013067648  0.012253312            3 
 3795000   0.64208203   -8.6097467    594.77545  0.013060506  0.012248928            2 
 3796000   0.65634323   -8.6069369    596.25564   0.01308956  0.012244551            3 
 3797000    0.6394426   -8.6017518    596.18238  0.013084505  0.012240174            4 
 3798000   0.63518961   -8.6162925    594.87736  0.013052426  0.012235795            2 
 3799000   0.64510227   -8.5960177    595.26332  0.013057456  0.012231414            2 
 3800000   0.63308064   -8.5904876    594.65988  0.013040787  0.012227038            2 
 3801000   0.64778654   -8.5896373    595.96115  0.013065885  0.012222656            2 
 3802000   0.64569058   -8.6004318     595.5905  0.013054324  0.012218285            3 
 3803000   0.64109752   -8.6034942    594.47611  0.013026473  0.012213908            2 
 3804000   0.66200543   -8.5898558     595.3464  0.013042114  0.012209539            1 
 3805000   0.65252456    -8.586749    596.07892  0.013054729  0.012205167            2 
 3806000   0.64617493   -8.6000451    595.42213  0.013036918  0.012200799            3 
 3807000   0.64453862   -8.6008134    595.61256  0.013037662  0.012196436            2 
 3808000   0.64957074   -8.5787826    596.21836  0.013047496  0.012192072            5 
 3809000   0.64439301   -8.6140923    595.08966  0.013019376   0.01218771            3 
 3810000    0.6462126    -8.610196    594.57673   0.01300474  0.012183348            2 
 3811000   0.64104906   -8.5964161    596.20227  0.013036873  0.012178987            2 
 3812000   0.63600313   -8.5966477    594.26562  0.012991116  0.012174628            4 
 3813000    0.6282131   -8.6186579    594.97704  0.013003257  0.012170269            3 
 3814000   0.63059556   -8.6163099    594.44662  0.012988259  0.012165912            7 
 3815000    0.6336875   -8.6367559    592.80991  0.012949103  0.012161556            8 
 3816000   0.63569937   -8.6216472    595.50955  0.013004663  0.012157197            3 
 3817000   0.63763297   -8.5799962    596.32535  0.013019067  0.012152848            3 
 3818000   0.64127138     -8.59966    595.04696  0.012987755  0.012148507            1 
 3819000   0.64947741   -8.6335515    595.17973  0.012987251   0.01214416            2 
 3820000   0.64540218    -8.594633    594.96644  0.012979198  0.012139819            1 
 3821000   0.63864469   -8.5957645    596.46577  0.013008501  0.012135481            3 
 3822000   0.64606056   -8.5957581    595.22187  0.012977976   0.01213114            2 
 3823000    0.6494856   -8.6188784    593.59195  0.012939052    0.0121268            4 
 3824000   0.65179089   -8.6027511    595.19472  0.012970596  0.012122457            4 
 3825000   0.63892916   -8.6109004    595.53214  0.012974556  0.012118124            4 
 3826000   0.64284361   -8.5905751    595.93678  0.012979979   0.01211379            3 
 3827000   0.63759079   -8.5873769    594.49131  0.012945112  0.012109451            4 
 3828000   0.63678773   -8.6209846     595.1832  0.012956792  0.012105109            2 
 3829000   0.62914524   -8.6190631    594.69581  0.012942801  0.012100769            2 
 3830000   0.64413499   -8.5932758    596.38045  0.012976076  0.012096433            2 
 3831000   0.64014744   -8.6032637    594.98873  0.012942416  0.012092091            4 
 3832000   0.63142695   -8.6422646    593.93629  0.012916151  0.012087754            4 
 3833000   0.64746421   -8.6101581     596.0627  0.012959012   0.01208342            2 
 3834000   0.63764749   -8.6421663    593.99634  0.012910719  0.012079089            3 
 3835000   0.65534437   -8.6219998    594.37021  0.012915476   0.01207476            3 
 3836000   0.63690646   -8.6242346    594.76253  0.012920632  0.012070435            2 
 3837000   0.65298581   -8.6197013    595.37478  0.012930562  0.012066107            6 
 3838000   0.63944257   -8.6053602    595.49383  0.012929777  0.012061785            3 
 3839000   0.66235835   -8.6235989    594.24032  0.012899199  0.012057464            3 
 3840000   0.64678625   -8.6206955     594.5311  0.012902151  0.012053148            2 
 3841000   0.62327999    -8.601092    595.60595  0.012922111  0.012048828            4 
 3842000   0.64509858   -8.6207629    595.50723  0.012916607  0.012044509            4 
 3843000   0.62954179   -8.6153585     594.1926  0.012884738  0.012040198            1 
 3844000   0.64119141   -8.6091688    594.47467  0.012887501  0.012035893            3 
 3845000   0.64130012    -8.593173    595.29781   0.01290199  0.012031591            1 
 3846000   0.61579082   -8.6160977    594.59665  0.012883443  0.012027279            1 
 3847000   0.64355444   -8.6129892    594.97497  0.012888289  0.012022971            1 
 3848000   0.64959941   -8.6248405     594.7253  0.012879533  0.012018668            1 
 3849000     0.631884   -8.6182132    594.55831  0.012872571  0.012014366            1 
 3850000    0.6350565   -8.5971091    594.79892  0.012874435  0.012010065            1 
 3851000   0.63591213   -8.6384952    594.66422  0.012868178  0.012005763            3 
 3852000   0.64220952   -8.6375832    594.85639  0.012868994  0.012001469            1 
 3853000   0.62093607   -8.6211165      594.609  0.012860304  0.011997175            1 
 3854000   0.63692059   -8.6098707    595.99506  0.012886937  0.011992885            5 
 3855000   0.63129095   -8.6117855    594.33425  0.012847692  0.011988598            3 
 3856000   0.65078487   -8.6321759    593.51817  0.012826724  0.011984312            2 
 3857000   0.63764073   -8.6346762    594.60716  0.012846927  0.011980024            1 
 3858000   0.65503338   -8.6139356    594.78034  0.012847338  0.011975741            1 
 3859000   0.63189711   -8.6201567    594.89867  0.012846564  0.011971449            2 
 3860000   0.65146277   -8.6356554    595.21239  0.012850008  0.011967158            2 
 3861000   0.63447436   -8.6122762    595.96852     0.012863  0.011962873            2 
 3862000   0.63093623   -8.6272095    594.34697   0.01282468  0.011958588            1 
 3863000   0.63606981   -8.6273987    594.60194   0.01282686  0.011954298            2 
 3864000   0.65372263   -8.6294651    594.86813  0.012829282   0.01195001            2 
 3865000    0.6325815   -8.6173614    595.34788  0.012836306  0.011945721            3 
 3866000   0.64594449   -8.6416129    593.20192  0.012786729  0.011941437            3 
 3867000   0.63468701   -8.6532336      594.342  0.012807991  0.011937149            2 
 3868000   0.63587004   -8.6306121    593.67141  0.012790232  0.011932861            4 
 3869000   0.63345005   -8.6335658    593.60189  0.012785429  0.011928569            3 
 3870000   0.64159505   -8.6296033    594.63791  0.012804434  0.011924286            1 
 3871000   0.62290616   -8.6160094    595.40616  0.012817665  0.011920002            1 
 3872000    0.6462516   -8.6432459    593.87083  0.012781311  0.011915729            2 
 3873000   0.62529095   -8.6441776    593.16553  0.012762835  0.011911459            2 
 3874000   0.62314971   -8.6333916    594.21336  0.012782081   0.01190719            1 
 3875000   0.63309434   -8.6099195      595.036  0.012796473  0.011902923            2 
 3876000   0.63319522   -8.6313877      593.799  0.012766576  0.011898654            2 
 3877000   0.62912277   -8.6409969    595.91351  0.012808733  0.011894391            3 
 3878000   0.61858714   -8.6206924    594.93762   0.01278446  0.011890128            2 
 3879000   0.63303126   -8.6361377    593.95497  0.012760054  0.011885869            3 
 3880000   0.62706554   -8.6159054    595.21063  0.012783733  0.011881615            1 
 3881000    0.6321868   -8.6259545    595.58976   0.01278858  0.011877369            1 
 3882000   0.62541676   -8.6052188     593.9951  0.012751054  0.011873119            2 
 3883000   0.62421704   -8.6221661    594.34818  0.012755348  0.011868872            3 
 3884000   0.62741084    -8.640089    594.53122  0.012755991  0.011864624            7 
 3885000   0.63692405   -8.6250569    594.87566  0.012760096   0.01186038            1 
 3886000   0.64438445    -8.644134    594.13784   0.01274099  0.011856141            4 
 3887000   0.62912934   -8.6149585    594.49748  0.012745422  0.011851904            1 
 3888000   0.63362024   -8.6324574    593.61489  0.012723227  0.011847668            3 
 3889000   0.62213646   -8.6364978    594.76054  0.012744505  0.011843429            3 
 3890000   0.62948845    -8.641485    594.45455  0.012734673  0.011839196            1 
 3891000   0.63583047   -8.6477849    593.60674  0.012713243  0.011834959            2 
 3892000   0.63423388   -8.6124469    594.20898  0.012722871  0.011830727            3 
 3893000   0.63727596    -8.643425    595.11648  0.012739029  0.011826491            3 
 3894000   0.62893838   -8.6319725    594.00557  0.012711984  0.011822259            2 
 3895000   0.63802924   -8.6289228    593.75296  0.012703315  0.011818029            1 
 3896000   0.62458304    -8.635977     594.5059   0.01271616  0.011813799            2 
 3897000   0.62637594   -8.6404213    594.23757  0.012707159  0.011809567            1 
 3898000   0.63617625    -8.647226    595.48195  0.012730502  0.011805342            2 
 3899000   0.62796784     -8.62873    594.31092  0.012702208  0.011801114            4 
 3900000   0.63787947   -8.6388119    594.20382  0.012696663  0.011796891            2 
 3901000   0.61744935   -8.6271195    594.61104  0.012702107  0.011792669            1 
 3902000   0.62466412   -8.6583113     594.5425  0.012697388  0.011788447            6 
 3903000   0.62285334   -8.6377404    594.61137  0.012695605  0.011784226            2 
 3904000    0.6404544   -8.6647351    594.57845  0.012691651  0.011780005            3 
 3905000   0.62678527   -8.6492646    593.82202  0.012672258  0.011775788            2 
 3906000   0.63906102   -8.6592147    594.51127  0.012683719  0.011771568            3 
 3907000   0.62380782    -8.651208    594.40676  0.012678243  0.011767358            1 
 3908000   0.64025803   -8.6753672    594.14989  0.012669522  0.011763142            2 
 3909000   0.62506158   -8.6339466    594.95216  0.012683384  0.011758935            3 
 3910000   0.64184191   -8.6481114    594.56343  0.012671855  0.011754723            3 
 3911000   0.61982164   -8.6441603    593.13723  0.012638226  0.011750515            3 
 3912000   0.62680317   -8.6596748    593.61545  0.012645182  0.011746304            2 
 3913000   0.61558878   -8.6362544    593.99691  0.012650075  0.011742092            2 
 3914000   0.62513703   -8.6633619    593.16094  0.012629044  0.011737887            1 
 3915000   0.62265338   -8.6512104    593.90787  0.012641717  0.011733683            2 
 3916000   0.62839725   -8.6339674    594.79921  0.012657457  0.011729477            1 
 3917000   0.62129898     -8.65931    593.73786  0.012631645  0.011725278            2 
 3918000   0.61873705   -8.6331346    595.22689  0.012660092  0.011721077            2 
 3919000   0.62900154   -8.6252682    593.99638  0.012630696   0.01171688            3 
 3920000   0.62205707   -8.6494256    594.36738  0.012635361  0.011712684            1 
 3921000   0.61640705   -8.6476037    593.18944  0.012607104  0.011708482            2 
 3922000   0.64013944   -8.6483351    593.58146  0.012612219  0.011704287            1 
 3923000   0.60728767   -8.6530152    593.94016  0.012616623  0.011700097            2 
 3924000   0.62936046   -8.6570702    592.90239  0.012591369  0.011695908            1 
 3925000   0.62349518    -8.637969    594.31004  0.012618048  0.011691721            3 
 3926000   0.61699454   -8.6625076      593.575  0.012599232  0.011687525            1 
 3927000   0.61835492   -8.6584793    594.39991  0.012613528  0.011683333            1 
 3928000   0.63226726   -8.6607646    592.72916  0.012574872  0.011679143            3 
 3929000   0.62413893   -8.6388924    593.75625  0.012593456  0.011674957            4 
 3930000   0.61701822   -8.6693792    593.91156  0.012593545  0.011670769            2 
 3931000   0.63397392   -8.6681826    593.41584  0.012579832  0.011666582            2 
 3932000   0.61060066   -8.6576222    593.78792  0.012584518  0.011662397            5 
 3933000   0.62070152    -8.660244    593.35774  0.012572204  0.011658214            3 
 3934000   0.61885364   -8.6475202     593.3681  0.012569228  0.011654033            1 
 3935000   0.62345284   -8.6752328    593.66261  0.012572271  0.011649855            1 
 3936000   0.62276676   -8.6408806    596.03452  0.012619295  0.011645677            1 
 3937000   0.62569699   -8.6802491    593.23708  0.012556877  0.011641502            3 
 3938000   0.61807585   -8.6395275    594.08343  0.012571598   0.01163733            2 
 3939000   0.62596051    -8.674698    592.49119  0.012534721  0.011633158            2 
 3940000   0.62865051   -8.6591134    593.63803  0.012555796   0.01162899            2 
 3941000   0.61682273   -8.6496882    593.23619  0.012544113  0.011624828            1 
 3942000   0.62070443   -8.6472773    594.05021  0.012558139  0.011620665            2 
 3943000    0.6213185   -8.6516076     593.5298  0.012543956  0.011616511            1 
 3944000   0.61552037   -8.6394933    594.11867  0.012553217  0.011612358            3 
 3945000   0.61679178   -8.6571494    592.86716  0.012523599  0.011608195            2 
 3946000    0.6214492   -8.6789559    594.30939  0.012550883   0.01160404            6 
 3947000   0.63144528   -8.6482708     594.5267  0.012552291   0.01159989            3 
 3948000   0.61636992   -8.6467284    593.48216  0.012527063  0.011595743            7 
 3949000   0.63471206   -8.6463139    594.37915   0.01254282  0.011591594            1 
 3950000    0.6215069   -8.6577593    595.16758  0.012556278  0.011587445            1 
 3951000   0.63222064   -8.6379505    593.05193  0.012508477  0.011583297            8 
 3952000   0.61033266   -8.6378072    593.48835  0.012514515  0.011579146            2 
 3953000   0.61690654   -8.6637936    594.86627  0.012540397  0.011575007            3 
 3954000   0.62559799   -8.6497697    594.13069  0.012521723  0.011570867            1 
 3955000   0.61225694   -8.6634174    595.24546  0.012542045  0.011566723            3 
 3956000   0.61640846   -8.6262211    593.26099  0.012497072  0.011562588            3 
 3957000   0.62267143   -8.6615045    594.38368  0.012517557  0.011558452            1 
 3958000   0.61823057    -8.648712    594.39851  0.012514707  0.011554323            3 
 3959000   0.62522626   -8.6444189    594.38628  0.012511288   0.01155019            1 
 3960000   0.61754848   -8.6539024    594.11915  0.012502507  0.011546057            3 
 3961000   0.62723607   -8.6317003     593.8808  0.012494336  0.011541923            5 
 3962000   0.60799252   -8.6575785    594.29214  0.012499835  0.011537803            2 
 3963000   0.62765118    -8.672404    593.30846  0.012475996  0.011533678            1 
 3964000   0.62184339   -8.6422001    593.11343  0.012468749  0.011529551            3 
 3965000   0.63371946   -8.6691103    593.89553  0.012482041   0.01152543            2 
 3966000   0.60658379   -8.6589757    592.41628  0.012447812  0.011521303            2 
 3967000   0.61177994   -8.6635034     592.9109  0.012455065  0.011517175            3 
 3968000   0.60135412    -8.664592    594.34445  0.012482032  0.011513054            3 
 3969000    0.6103826    -8.681082    593.16537  0.012454131  0.011508931            2 
 3970000   0.61544831   -8.6537174    594.65129  0.012482185  0.011504811            4 
 3971000   0.61522934   -8.6882754    592.87007  0.012441662   0.01150069            3 
 3972000   0.62545131   -8.6547478    593.88384  0.012459799  0.011496575            3 
 3973000   0.60898232   -8.6678749     593.9753  0.012458581  0.011492462            2 
 3974000    0.5952765    -8.677623     593.4123   0.01244364  0.011488352            2 
 3975000   0.62723439   -8.6620582    593.33097  0.012438804  0.011484235            2 
 3976000   0.61185692   -8.6590768    593.60448  0.012441408   0.01148013            4 
 3977000   0.60542076   -8.6642084    594.26074  0.012452031  0.011476025            1 
 3978000    0.6119016   -8.6699452    594.48954  0.012453694  0.011471922            1 
 3979000   0.61878533   -8.6678738    593.61411   0.01243223  0.011467821            1 
 3980000   0.61145129   -8.6586513    592.35412  0.012402724  0.011463716            1 
 3981000   0.60401773   -8.6501296    593.25309  0.012418427  0.011459611            1 
 3982000   0.62409022   -8.6480824    593.98859    0.0124307  0.011455521            2 
 3983000   0.60968505   -8.6483849    593.86034  0.012424896  0.011451427            5 
 3984000   0.60020305   -8.6557721    593.59043  0.012416132  0.011447344            1 
 3985000   0.60665365   -8.6539153    593.40443  0.012409127  0.011443254            1 
 3986000   0.62035645   -8.6607375    593.36911  0.012405275  0.011439169            2 
 3987000   0.61213216   -8.6543532    594.37152  0.012423115  0.011435085            1 
 3988000   0.60672788    -8.659077    594.36504  0.012419865  0.011430997            3 
 3989000   0.62010017   -8.6611626    593.65862  0.012401993  0.011426917            2 
 3990000   0.61192998   -8.6502684    592.92437   0.01238355  0.011422829            2 
 3991000   0.61633596   -8.6626122    594.02194  0.012403365  0.011418747            1 
 3992000   0.61410721   -8.6451408    593.33222   0.01238586  0.011414664            3 
 3993000   0.60290384   -8.6444038    593.25302  0.012381105  0.011410583            2 
 3994000    0.6126489   -8.6721353     592.4233  0.012360693  0.011406501            2 
 3995000   0.62040385   -8.6628349    594.22156   0.01239511  0.011402424            2 
 3996000   0.60657031   -8.6797852    592.24348  0.012350757  0.011398344            3 
 3997000   0.60837725   -8.6758095    593.33717  0.012370469  0.011394266            2 
 3998000   0.62339242    -8.679704    593.28144  0.012366213   0.01139019            1 
 3999000   0.60339722   -8.6777288    593.72295  0.012372321  0.011386117            4 
 4000000   0.62859724   -8.6605614    593.13584  0.012356997  0.011382041            2 
 4001000   0.61369474   -8.6686446    592.29116  0.012336315  0.011377972            5 
 4002000    0.6055917   -8.6714688     592.7204   0.01234217  0.011373902            2 
 4003000   0.62362216   -8.6808156    594.49013  0.012375929  0.011369836            2 
 4004000   0.61681745   -8.6500985    593.77478   0.01235795  0.011365779            2 
 4005000   0.63031344   -8.6821185     592.4687  0.012327688  0.011361718            2 
 4006000   0.61242141   -8.6691656    592.96815  0.012335001   0.01135766            2 
 4007000   0.61246741   -8.6818512    594.49377  0.012363651  0.011353605            1 
 4008000   0.61665147   -8.6836366    593.19381  0.012333537  0.011349545            1 
 4009000   0.61128366   -8.6807914    593.94623  0.012346101  0.011345493            4 
 4010000   0.60752447   -8.6650861     593.1665  0.012326818  0.011341443            2 
 4011000    0.6118381   -8.6625683    594.44689  0.012350347  0.011337396            3 
 4012000   0.61271006   -8.6729924    593.82501  0.012334351  0.011333345            1 
 4013000   0.60751146   -8.6621297     592.9721  0.012313566  0.011329288            2 
 4014000   0.60013681   -8.6438677     593.0592  0.012312307  0.011325241            3 
 4015000   0.60630232   -8.6918283    592.76456  0.012303125  0.011321202            2 
 4016000   0.60288723   -8.6806611    593.48525  0.012315016  0.011317157            4 
 4017000   0.63463784   -8.6632753    592.11815   0.01228359  0.011313115            3 
 4018000   0.59725331   -8.6548393    592.88527  0.012296443  0.011309077            3 
 4019000   0.61538634   -8.6753025    593.72955  0.012310889  0.011305037            2 
 4020000   0.60852377   -8.6839714    594.06718  0.012314825     0.011301            1 
 4021000   0.62515164   -8.6695002     593.5573  0.012301196  0.011296964            3 
 4022000   0.60762849   -8.6828876    593.38585  0.012294585  0.011292928            1 
 4023000   0.61219191   -8.6810241    593.28923  0.012289528  0.011288893            3 
 4024000   0.62364203   -8.6745977    594.33371  0.012308104  0.011284863            3 
 4025000   0.61256232   -8.6611314    593.40101  0.012285735  0.011280833            1 
 4026000   0.61276101   -8.6683715    593.39476  0.012282554  0.011276804            2 
 4027000   0.60802662   -8.6730007    593.53466  0.012282399  0.011272764            2 
 4028000   0.59517862   -8.6991462    592.68606  0.012261794  0.011268727            2 
 4029000   0.60225077   -8.6701921    593.19178   0.01226921  0.011264695            2 
 4030000   0.61897168   -8.6703298    593.70639  0.012276807  0.011260658            2 
 4031000    0.6107028   -8.6895523    593.29015  0.012265157  0.011256624            3 
 4032000   0.60542871    -8.689879    593.02907  0.012256718  0.011252591            2 
 4033000   0.60051522   -8.6934015     592.3177   0.01223898  0.011248564            5 
 4034000   0.59631091    -8.672526    594.61787  0.012283463  0.011244537            2 
 4035000   0.60528108   -8.6706674    592.99391   0.01224688  0.011240513            3 
 4036000   0.60607188   -8.6758808    593.77425  0.012259957  0.011236494            8 
 4037000    0.6053563   -8.6731198    593.04021  0.012241768   0.01123248            2 
 4038000   0.61285485   -8.6864326    593.02187  0.012238358  0.011228462            1 
 4039000   0.60423029   -8.7131485     592.8891  0.012232589  0.011224445            2 
 4040000   0.59944992   -8.6967233    592.50754   0.01222169  0.011220427            5 
 4041000   0.60529709   -8.6687705    593.59396   0.01224107  0.011216419            2 
 4042000   0.60016968   -8.6828949    592.71137  0.012219845  0.011212399            2 
 4043000   0.60611233   -8.6555036    592.86687  0.012220028  0.011208391            2 
 4044000   0.61779253   -8.7037658    591.76413  0.012194282  0.011204383            3 
 4045000   0.59838498   -8.6961372    592.28447  0.012201988  0.011200372            5 
 4046000   0.60714014   -8.7006849    591.96347   0.01219236  0.011196366            4 
 4047000   0.60875183   -8.6819012    592.47345  0.012199849  0.011192365            3 
 4048000    0.6111305   -8.6797132    592.28753  0.012193008  0.011188367            2 
 4049000   0.61191044   -8.6931987    592.12929  0.012186739  0.011184363            5 
 4050000   0.61649838   -8.7147031    592.80158  0.012197563  0.011180366            2 
 4051000   0.59088389   -8.6881204    592.50576  0.012188467  0.011176368            7 
 4052000   0.60439143   -8.7109059    593.89658  0.012214063  0.011172371            2 
 4053000   0.61000156   -8.6749939    592.13789  0.012174889  0.011168374            4 
 4054000   0.60114614   -8.6791653    592.78835  0.012185256   0.01116438            1 
 4055000   0.59794298   -8.6890708    592.52775  0.012176896  0.011160387            1 
 4056000   0.61283098   -8.6974017    592.49627  0.012173247  0.011156394            1 
 4057000   0.60913386   -8.6855796    593.60776  0.012193077  0.011152407            2 
 4058000   0.60553345   -8.6933969    591.25974  0.012141854   0.01114842            2 
 4059000   0.60145922     -8.68225      592.586  0.012166092  0.011144434            1 
 4060000       0.6027   -8.6877607    592.55376  0.012162434  0.011140455            2 
 4061000   0.60064088   -8.7156759     592.2598  0.012153406  0.011136471            3 
 4062000   0.61009001   -8.6917836    591.56533  0.012136167  0.011132485            3 
 4063000   0.60934507   -8.6961826    592.75484  0.012157577  0.011128503            1 
 4064000   0.60939037   -8.6760644     593.3282  0.012166343  0.011124523            2 
 4065000   0.59497578    -8.692427    592.98255  0.012156264  0.011120544            1 
 4066000   0.60264313   -8.6987439    591.72469  0.012127494   0.01111657            2 
 4067000   0.59128124   -8.6826738    592.69831  0.012144462  0.011112598            2 
 4068000    0.5960746   -8.6902942    591.96054  0.012126363   0.01110863            1 
 4069000   0.59539298   -8.7048433    592.15357  0.012127336  0.011104655            1 
 4070000   0.58452418   -8.7208655    592.04622  0.012122159   0.01110068            2 
 4071000   0.60552214   -8.7030185    592.23271  0.012122998  0.011096715            2 
 4072000   0.60619247   -8.7115053    591.91694  0.012113559  0.011092745            4 
 4073000   0.59923281   -8.7066267     592.0088  0.012112464  0.011088778            1 
 4074000   0.60647087    -8.700629    591.75785  0.012104358  0.011084809            2 
 4075000   0.59707746   -8.6991536    592.36651  0.012113835  0.011080843            2 
 4076000   0.59954491    -8.716459    592.17923  0.012107034  0.011076882            2 
 4077000   0.59059741   -8.6825805    592.10153  0.012102476  0.011072921            2 
 4078000   0.61213527   -8.7052737    592.17044  0.012100916  0.011068965            2 
 4079000   0.60797305   -8.6877183     592.8112   0.01211104  0.011065014            5 
 4080000   0.59329608   -8.6943777    592.34268  0.012098502  0.011061064            2 
 4081000   0.60254138   -8.6643109    593.27845  0.012114646  0.011057111            1 
 4082000   0.59482061   -8.6779506    592.86568  0.012103252  0.011053164            1 
 4083000   0.60124833   -8.6945705    592.57764  0.012094409  0.011049222            2 
 4084000   0.60648811   -8.6604002    591.91738  0.012077975  0.011045281            4 
 4085000   0.60200906   -8.7012801    592.04768  0.012077676  0.011041335            2 
 4086000   0.59608957   -8.6944342     591.0156  0.012053671  0.011037391            2 
 4087000   0.60049729   -8.6772575    593.21534  0.012095574  0.011033449            3 
 4088000   0.58813858   -8.6944674    592.39555  0.012075904  0.011029509            4 
 4089000   0.59885641   -8.6754765    592.18199  0.012068598  0.011025572            1 
 4090000   0.60145806   -8.6835583    592.86562  0.012079577  0.011021635            2 
 4091000   0.58560401   -8.7115917      592.662  0.012072476  0.011017705            1 
 4092000   0.60927543   -8.6973484    593.20677   0.01208062  0.011013773            2 
 4093000   0.59551229   -8.6985277    591.76791  0.012048373  0.011009845            3 
 4094000   0.59383946   -8.7079319    592.06905   0.01205156  0.011005917            3 
 4095000   0.58929179   -8.6870802    590.91332  0.012025098  0.011001992            1 
 4096000   0.60788105   -8.6833533    592.93466  0.012063287  0.010998072            4 
 4097000   0.59505367   -8.6758279    592.96675  0.012060995  0.010994152            5 
 4098000     0.600443   -8.6830345    592.05743  0.012039561  0.010990232            4 
 4099000   0.59855155   -8.7012664    591.24465  0.012020099  0.010986315            1 
 4100000   0.60240241   -8.6976564    592.71588  0.012047071  0.010982403            2 
 4101000   0.60238121   -8.7258415    592.99921   0.01204989  0.010978486            3 
 4102000   0.59970804   -8.6924992    592.83982  0.012043715  0.010974572            2 
 4103000   0.58421604   -8.7058934    591.73936  0.012018429  0.010970661            3 
 4104000    0.6015273   -8.7048525    593.35056  0.012048216   0.01096675            2 
 4105000   0.60034229   -8.7027611     591.6711  0.012011188  0.010962843            1 
 4106000   0.58698336   -8.7194703     591.9014  0.012012936  0.010958934            5 
 4107000   0.60491443   -8.6915088    592.34056  0.012018922  0.010955031            4 
 4108000   0.59532883   -8.6926504    592.67083  0.012022696  0.010951135            3 
 4109000   0.61174435   -8.7033898    593.57088  0.012038024  0.010947241            4 
 4110000    0.6042174   -8.7056159    592.28404  0.012009003  0.010943346            1 
 4111000   0.59377895   -8.7160999    592.55632  0.012011601  0.010939447            2 
 4112000   0.56979694   -8.6905089    593.42319  0.012026248  0.010935548            2 
 4113000    0.5876481   -8.6950691    592.53203  0.012005269  0.010931653            2 
 4114000   0.57898097   -8.6979111    592.54398  0.012002592  0.010927759            3 
 4115000   0.58882385   -8.7107711    593.34527  0.012015903  0.010923865            2 
 4116000   0.60286637   -8.7172895    592.06881   0.01198714  0.010919971            1 
 4117000   0.58748468   -8.6955061    591.70519  0.011976868  0.010916081            2 
 4118000   0.58233644   -8.7280442    592.13276  0.011982612  0.010912186            2 
 4119000   0.58109075   -8.7005167    592.25794  0.011982236  0.010908299            1 
 4120000   0.60173023   -8.7005376    591.97908  0.011973687  0.010904414            1 
 4121000   0.60563172    -8.719829    591.02703  0.011951529  0.010900526            2 
 4122000   0.61134406   -8.7291834    593.42193  0.011997047  0.010896643            1 
 4123000    0.5870668   -8.6912281    592.67747   0.01197909  0.010892762            1 
 4124000   0.58290058   -8.6955493    592.61541  0.011974932   0.01088888            3 
 4125000    0.5903889   -8.7139524    592.49438  0.011969584  0.010885003            3 
 4126000   0.59842458     -8.69555    591.43854  0.011945357  0.010881127            4 
 4127000   0.59299259   -8.7001604    593.10433  0.011976099  0.010877253            2 
 4128000   0.58005569   -8.7002256    592.96572    0.0119704  0.010873375            2 
 4129000   0.60278712   -8.7057063    591.86786  0.011945343  0.010869504            2 
 4130000   0.58548002   -8.7043151    592.23402  0.011949839  0.010865635            1 
 4131000   0.57866599   -8.7042559    591.80181  0.011938227  0.010861766            2 
 4132000   0.60738115   -8.7012407    591.98459  0.011939025  0.010857903            1 
 4133000   0.59031483   -8.7174073    593.32976  0.011963258   0.01085404            2 
 4134000   0.59800361   -8.7176232    592.09664  0.011935507  0.010850173            2 
 4135000   0.59245717   -8.6992005    592.74951  0.011945778  0.010846311            2 
 4136000   0.58320554   -8.7033598    591.98926  0.011927572  0.010842445            1 
 4137000   0.58510341   -8.6941387    592.13414  0.011927607  0.010838584            2 
 4138000   0.59455631   -8.7177887    591.61748   0.01191432  0.010834725            1 
 4139000   0.59580388    -8.697058    592.76469  0.011934539  0.010830869            2 
 4140000   0.59490192   -8.6988218    592.10487  0.011918375  0.010827017            1 
 4141000   0.60020683   -8.6988768    592.68792   0.01192723  0.010823164            1 
 4142000   0.58869212   -8.7212696     593.1959  0.011934571  0.010819315            4 
 4143000   0.59892695   -8.6912596    592.53382  0.011918373  0.010815466            2 
 4144000   0.58969702   -8.7165947    591.98396  0.011904439   0.01081162            3 
 4145000   0.59966598   -8.7215508    592.11086  0.011904119  0.010807772            1 
 4146000    0.6013713   -8.7274445    592.43996  0.011907862  0.010803925            1 
 4147000   0.59071991   -8.7118719    591.84813  0.011893098  0.010800085            2 
 4148000   0.58850396   -8.7245463    591.62566  0.011885761   0.01079624            2 
 4149000    0.5843443   -8.7278962     591.4291  0.011878949  0.010792397            3 
 4150000   0.58351708   -8.7051332    590.86658  0.011864791   0.01078856            2 
 4151000   0.59200409   -8.6906943     592.4161   0.01189304  0.010784727            1 
 4152000   0.58579548   -8.6957402    591.63143  0.011874427  0.010780893            1 
 4153000   0.58495009   -8.7059018    592.07059  0.011880379  0.010777064            3 
 4154000    0.5767585   -8.6803152    592.41162  0.011884361  0.010773234            1 
 4155000    0.5908335   -8.7082667    593.15933  0.011896497  0.010769406            2 
 4156000   0.59709891   -8.6933158    592.06468  0.011871685   0.01076558            2 
 4157000   0.58754247   -8.7175721    591.63773   0.01186027  0.010761757            1 
 4158000    0.5865315   -8.6993558    592.14635  0.011867612  0.010757934            1 
 4159000   0.58889572   -8.7147522    592.14878  0.011864807  0.010754109            1 
 4160000   0.59484681   -8.7070019    592.95961  0.011878197  0.010750289            2 
 4161000   0.59306466    -8.706911    592.06737  0.011857474  0.010746469            2 
 4162000   0.58067036   -8.6986659    592.77468  0.011868787  0.010742648            6 
 4163000   0.58083095   -8.7030615    592.39494  0.011858334  0.010738832            2 
 4164000     0.590478   -8.7151992    591.64747  0.011840527   0.01073502            2 
 4165000   0.57898848   -8.7035502    593.01608  0.011865068  0.010731209            1 
 4166000   0.57584742   -8.7103497    592.80366  0.011857971  0.010727402            1 
 4167000   0.58963487   -8.7267621    592.43697  0.011847792  0.010723593            2 
 4168000    0.5818994   -8.6991013    592.72484  0.011850705  0.010719784            3 
 4169000   0.58682876   -8.7102151    592.14382  0.011836248  0.010715979            2 
 4170000   0.58915933   -8.7122808    591.47111  0.011819966  0.010712171            2 
 4171000   0.58378797   -8.7146685    591.91286  0.011825958  0.010708362            1 
 4172000   0.58599577   -8.7127059    590.96359  0.011804162  0.010704556            3 
 4173000   0.58576197   -8.7086567    592.51871  0.011832389  0.010700754            2 
 4174000   0.58755893   -8.7320311    591.00751  0.011799383  0.010696953            5 
 4175000   0.59609459   -8.7342136    591.24681  0.011801334   0.01069315            2 
 4176000   0.58290268    -8.686838    591.98485  0.011813235  0.010689353            2 
 4177000   0.57703228   -8.7102399    591.78293  0.011806379  0.010685558            3 
 4178000   0.58189587   -8.7324733    591.81737   0.01180424  0.010681762            6 
 4179000   0.58826016   -8.7018203    592.27897   0.01181062   0.01067797            4 
 4180000   0.58016704   -8.7171991    591.96173   0.01180147  0.010674177            4 
 4181000   0.59597076   -8.7209119    591.83645   0.01179615  0.010670387            3 
 4182000    0.5742983   -8.7155098    593.11076  0.011818722  0.010666598            4 
 4183000   0.59004629   -8.7290638    592.21188  0.011797989  0.010662809            2 
 4184000   0.58641397   -8.7295489    590.30275  0.011757145  0.010659024            3 
 4185000   0.59350623   -8.7266794    591.94323  0.011787002  0.010655244            2 
 4186000   0.58898384   -8.7100278    591.71721  0.011779686  0.010651465            3 
 4187000   0.57723759   -8.7193788    590.58644  0.011754367  0.010647685            5 
 4188000   0.58447312    -8.724531    591.92913  0.011778278  0.010643905            4 
 4189000   0.58277194    -8.731191    591.88818  0.011774651   0.01064013            7 
 4190000   0.57707033    -8.710212    592.01124  0.011774289  0.010636349            1 
 4191000   0.58122593   -8.7407384    591.93231   0.01176991  0.010632569            5 
 4192000   0.58680158   -8.7275211    592.41264  0.011776651  0.010628791            5 
 4193000    0.5892153   -8.7134931    592.03305  0.011766298  0.010625013            2 
 4194000    0.5744169   -8.7305617    592.11203  0.011765062  0.010621233            3 
 4195000   0.59658507   -8.7538851    592.20126   0.01176403  0.010617461            5 
 4196000   0.57756527   -8.7366538    592.20147   0.01176123  0.010613688            1 
 4197000   0.57436304   -8.7331232    590.81508  0.011730901  0.010609921            3 
 4198000   0.57242845   -8.7539078    591.42898  0.011740293  0.010606153            2 
 4199000   0.57595007   -8.7475281    591.62935  0.011741473  0.010602382            3 
 4200000   0.57731269   -8.7472659    591.08286  0.011727835  0.010598617            2 
 4201000   0.58558973   -8.7497077    590.58694  0.011715206   0.01059485            3 
 4202000   0.58572077   -8.7408454    590.82489  0.011717136  0.010591086            2 
 4203000   0.58291419   -8.7276899    591.01068  0.011718032   0.01058732            2 
 4204000   0.58337871   -8.7255442    591.02312  0.011715492  0.010583557            4 
 4205000   0.58732441   -8.7404961    592.16815  0.011735397  0.010579796            2 
 4206000    0.5685267   -8.7455545    590.95741  0.011708619  0.010576035            2 
 4207000   0.59267138   -8.7282418      592.522  0.011736827  0.010572278            4 
 4208000   0.57794638   -8.7286363    591.93479  0.011722409  0.010568523            3 
 4209000   0.58787581   -8.7457258    591.43819  0.011709792  0.010564767            3 
 4210000   0.58077649   -8.7510509    591.90454  0.011716242  0.010561014            2 
 4211000   0.57851238    -8.746838    590.76724  0.011690953  0.010557265            4 
 4212000   0.57486512   -8.7459189    591.94082  0.011711396  0.010553514            4 
 4213000   0.57851426   -8.7341125    591.79405  0.011705713  0.010549763            5 
 4214000   0.56508724   -8.7294811    591.19798  0.011691148  0.010546016            3 
 4215000   0.58320627   -8.7221951    592.44169  0.011712964   0.01054227            3 
 4216000   0.57368586   -8.7489588    591.00978  0.011681882  0.010538527            3 
 4217000   0.56569779   -8.7289069    591.92037  0.011697106  0.010534785            4 
 4218000   0.58228613   -8.7481055    590.37746  0.011663851  0.010531048            2 
 4219000    0.5899497   -8.7459855    590.86204  0.011670657  0.010527308            4 
 4220000   0.59157312   -8.7368425     590.9246  0.011669127  0.010523575            1 
 4221000   0.57761492   -8.7521913    590.94776   0.01166682  0.010519838            2 
 4222000   0.56551371   -8.7592341    591.36473  0.011672287  0.010516107            3 
 4223000   0.58038777   -8.7524551     592.3348  0.011688665  0.010512374            4 
 4224000   0.57385444   -8.7365824    592.05343  0.011680347  0.010508643            6 
 4225000   0.58059155   -8.7667254    591.27875  0.011662303  0.010504913            3 
 4226000   0.56687333   -8.7422647    592.80655   0.01168967  0.010501183            2 
 4227000   0.56960751   -8.7468463    591.16442  0.011654531  0.010497456            2 
 4228000   0.57879083   -8.7410437    591.75792  0.011663472  0.010493732            2 
 4229000     0.573524   -8.7516061    591.28921  0.011651478  0.010489999            1 
 4230000   0.57606799   -8.7353188    590.95991  0.011642236  0.010486273            3 
 4231000   0.57710355   -8.7545885    590.66668  0.011633709  0.010482543            4 
 4232000    0.5716677   -8.7700371    590.38643  0.011625442  0.010478817            4 
 4233000   0.58848575   -8.7546731    590.75809  0.011630012  0.010475092            5 
 4234000   0.57044368    -8.755856    591.60709  0.011643975   0.01047137            4 
 4235000    0.5706544   -8.7552326    591.12445  0.011631729  0.010467649            3 
 4236000   0.56900417   -8.7568233    591.76642  0.011641612   0.01046393            3 
 4237000   0.56914575    -8.746011    590.82143  0.011620278  0.010460212            3 
 4238000   0.57844714   -8.7312511    590.80722  0.011617257  0.010456495            4 
 4239000   0.56676086   -8.7255685    591.32376  0.011624671  0.010452777            3 
 4240000   0.57477858   -8.7511302    589.75079  0.011591014  0.010449062            5 
 4241000    0.5720792   -8.7229441    590.82591  0.011609406   0.01044535            3 
 4242000   0.57185368   -8.7505628    591.43912  0.011618716   0.01044164            2 
 4243000   0.57845365   -8.7543375    592.05455  0.011628065  0.010437932            3 
 4244000   0.56680936   -8.7577954    590.59109  0.011596589  0.010434225            4 
 4245000    0.5637325   -8.7564437    589.86794  0.011579661  0.010430521            4 
 4246000   0.56691712   -8.7603754    590.30676  0.011585546  0.010426813            2 
 4247000   0.57373177   -8.7573281    590.37325  0.011584123   0.01042311            3 
 4248000   0.57137736   -8.7438398    589.96656  0.011573418  0.010419409            2 
 4249000   0.56527541   -8.7390232    590.52442  0.011581635  0.010415706            3 
 4250000    0.5611688    -8.765696    590.73054  0.011582952  0.010412007            3 
 4251000   0.56622105   -8.7643848    589.90376  0.011564019  0.010408311            2 
 4252000   0.56919274   -8.7587988    590.03839  0.011563938  0.010404616            3 
 4253000   0.56925072   -8.7545138    590.09105  0.011562251   0.01040092            3 
 4254000   0.55871087   -8.7251249    591.62846   0.01158965  0.010397232            2 
 4255000   0.56885965   -8.7611424    590.41793  0.011563218  0.010393543            4 
 4256000   0.56684578   -8.7467932    590.35115  0.011559194  0.010389855            3 
 4257000   0.57883771    -8.755448    591.75535  0.011583967  0.010386169            2 
 4258000   0.58656778   -8.7852423    590.74492  0.011561471  0.010382481            3 
 4259000   0.57822334   -8.7449883    590.66174  0.011557129  0.010378796            4 
 4260000   0.56846595   -8.7581155    591.08804  0.011562755   0.01037511            3 
 4261000   0.56031347    -8.759202    591.25459  0.011563299  0.010371428            6 
 4262000   0.56863923   -8.7596975    590.33474    0.0115426   0.01036775            2 
 4263000    0.5639058   -8.7515273    590.79758   0.01154894  0.010364074            4 
 4264000   0.57818806   -8.7531468    591.26208   0.01155531    0.0103604            2 
 4265000   0.59148997   -8.7402947    590.50766   0.01153786  0.010356726            1 
 4266000    0.5734614   -8.7381391     590.9463  0.011543724  0.010353061            3 
 4267000   0.56148585   -8.7248504    590.94142  0.011540923  0.010349391            5 
 4268000   0.58569832    -8.751933    591.54644  0.011550032  0.010345729            3 
 4269000   0.56117934   -8.7492227    589.96533  0.011516462  0.010342063            3 
 4270000    0.5545986   -8.7592456    590.99574  0.011533875  0.010338398            7 
 4271000   0.56290936   -8.7435305    590.70531  0.011525507  0.010334732            3 
 4272000   0.56255761   -8.7422956    590.58202  0.011520405  0.010331076            3 
 4273000   0.57056277   -8.7346991    591.77245  0.011540925  0.010327417            3 
 4274000    0.5647172   -8.7474251    590.84287    0.0115201  0.010323757            2 
 4275000   0.57094588   -8.7712823    590.67888  0.011514208    0.0103201            3 
 4276000   0.57031247    -8.764777    589.45405  0.011487645  0.010316439            2 
 4277000   0.55089637   -8.7647262      591.028  0.011515626   0.01031278            3 
 4278000   0.57450188   -8.7452709    590.44403  0.011501559  0.010309124            3 
 4279000   0.57050894   -8.7508182    590.20433  0.011494203  0.010305471            2 
 4280000   0.56220061    -8.748397    590.84772  0.011504044  0.010301818            3 
 4281000   0.57024248    -8.759851    590.85251   0.01150145  0.010298169            4 
 4282000   0.56903576   -8.7558199     589.9915  0.011482008  0.010294522            5 
 4283000   0.55665983   -8.7573881    589.91164  0.011477773   0.01029087            2 
 4284000   0.55734367   -8.7427245    591.26747  0.011501468  0.010287225            2 
 4285000   0.56972184   -8.7633344     590.4478  0.011482843  0.010283582            2 
 4286000   0.57202771   -8.7655136     590.8043  0.011487096  0.010279938            2 
 4287000   0.56030935   -8.7620482    590.66396  0.011481688  0.010276295            5 
 4288000   0.56233955   -8.7491767    589.91981  0.011464549  0.010272658            4 
 4289000   0.56102381   -8.7665276    592.08487  0.011503942  0.010269016            4 
 4290000   0.57859706   -8.7506745    590.95948  0.011479399  0.010265378            3 
 4291000   0.56218694   -8.7692423    589.41816  0.011446791   0.01026174            4 
 4292000   0.57005888   -8.7518376     591.1627  0.011477996  0.010258104            3 
 4293000   0.56856933   -8.7747883    591.05808  0.011473291  0.010254468            3 
 4294000   0.56441584   -8.7726598    591.09457  0.011471328  0.010250834            1 
 4295000   0.56617097   -8.7791149    590.23775  0.011452032  0.010247207            5 
 4296000   0.56567754   -8.7594885    589.21277  0.011429484  0.010243571            6 
 4297000   0.56854589   -8.7514588    590.62237  0.011454161  0.010239943            3 
 4298000   0.55803156   -8.7715326    590.09793  0.011441328  0.010236318            1 
 4299000    0.5586703   -8.7551895    590.45323  0.011445554  0.010232691            2 
 4300000   0.58000278   -8.7521627    591.44849   0.01146218  0.010229066            5 
 4301000   0.55573097   -8.7669209    590.39001  0.011439007  0.010225445            4 
 4302000   0.56865939   -8.7678219    589.09524  0.011411267  0.010221824            3 
 4303000   0.56153238   -8.7563274    590.46157  0.011435076  0.010218206            6 
 4304000   0.56510843   -8.7738942    590.08915  0.011425208  0.010214585            1 
 4305000   0.57000131   -8.7694456    589.36278  0.011408494  0.010210967            4 
 4306000   0.56096853    -8.787118     589.9897  0.011417977  0.010207353            3 
 4307000   0.55872476   -8.7594055    589.80747    0.0114118  0.010203735            3 
 4308000   0.55982715   -8.7650827    590.23769  0.011417473  0.010200124            5 
 4309000   0.56700725   -8.7690724    589.61525  0.011402786  0.010196513            1 
 4310000   0.55917378    -8.774467    590.01463  0.011407862  0.010192906            4 
 4311000   0.56612361   -8.7726538    589.97023  0.011404358    0.0101893            5 
 4312000   0.56947609   -8.7759009    590.38083  0.011409648  0.010185694            2 
 4313000   0.56728707   -8.7591214    590.19797   0.01140347  0.010182086            4 
 4314000   0.56226017   -8.7724138    590.88212  0.011414042  0.010178487            4 
 4315000   0.55630786    -8.776953    591.14914  0.011416553  0.010174884            3 
 4316000   0.55145305   -8.7597522    591.09176    0.0114128  0.010171283            2 
 4317000   0.56206078   -8.7887557    590.40002  0.011396804   0.01016768            2 
 4318000   0.57002328   -8.7666607    591.00535  0.011405847  0.010164083            3 
 4319000   0.55694509   -8.7768752    589.86254  0.011381156  0.010160487            6 
 4320000   0.56013167    -8.783287    589.61308  0.011373709  0.010156894            2 
 4321000   0.56062814   -8.7694191    590.95772  0.011397009  0.010153305            3 
 4322000    0.5526084   -8.7771969    590.43716  0.011384335  0.010149718            3 
 4323000   0.55661223   -8.7739552    590.79217  0.011388545  0.010146128            3 
 4324000   0.54242626   -8.7721085    590.38529   0.01137807  0.010142537            2 
 4325000   0.55973313    -8.790474    590.42433  0.011376191  0.010138949            2 
 4326000   0.55532768   -8.7718773    590.76663  0.011380155  0.010135359            1 
 4327000   0.55746299   -8.7971787    589.90376  0.011360907  0.010131775            3 
 4328000    0.5591938    -8.767059    589.50647  0.011350633  0.010128195            4 
 4329000    0.5465257   -8.7583064    591.33012  0.011383116   0.01012461            2 
 4330000   0.56036032   -8.7715066    590.69028  0.011368173  0.010121028            4 
 4331000   0.57609379   -8.7768173      589.326  0.011339298  0.010117451            5 
 4332000   0.57389291   -8.7699988    589.59271  0.011341811  0.010113873            1 
 4333000   0.56316131   -8.7944842    589.40986  0.011335677  0.010110298            3 
 4334000   0.57272739   -8.7885513    590.21182  0.011348481  0.010106722            3 
 4335000    0.5544813    -8.774298    590.48136  0.011351045   0.01010315            2 
 4336000    0.5659053   -8.7745235    590.29085  0.011344766  0.010099579            5 
 4337000   0.55624701   -8.7875695    589.68969  0.011330599  0.010096007            6 
 4338000   0.55720202   -8.7689275    589.37088  0.011321863   0.01009244            1 
 4339000   0.55695634   -8.7915573    590.43574  0.011339705  0.010088873            3 
 4340000   0.56032268   -8.7820742    590.07719  0.011330207   0.01008531            3 
 4341000   0.56676604     -8.77667    590.04903  0.011327057  0.010081747            2 
 4342000   0.56287062   -8.7605018    589.35407   0.01131111  0.010078184            2 
 4343000   0.55387171   -8.7770349     590.5397  0.011331255  0.010074621            3 
 4344000   0.55005917   -8.7720912    590.02958  0.011318861  0.010071063            2 
 4345000   0.55067011   -8.7806132    591.06268   0.01133607  0.010067504            3 
 4346000   0.56345355   -8.7844953    589.10924  0.011296005  0.010063945            3 
 4347000   0.55455063   -8.7848047    589.25511  0.011296202  0.010060389            3 
 4348000   0.54987487   -8.7745699    589.73756  0.011302851  0.010056838            3 
 4349000   0.56587065   -8.7814744    589.89504   0.01130327  0.010053281            2 
 4350000   0.55295261     -8.79132    589.63816   0.01129575  0.010049728            5 
 4351000   0.55768282   -8.7822116    589.34127  0.011287468  0.010046176            5 
 4352000   0.54812603   -8.7608821    590.15275  0.011300413  0.010042625            3 
 4353000   0.54848147   -8.7891773    588.51085  0.011266384  0.010039074            7 
 4354000   0.56007153   -8.7784078    589.78037  0.011288095  0.010035521            3 
 4355000   0.56126376   -8.7890234    589.68641  0.011283705  0.010031976            4 
 4356000   0.55844024   -8.7979058    590.52741  0.011297203  0.010028433            2 
 4357000   0.56171967    -8.778407    589.55373  0.011275987  0.010024891            3 
 4358000    0.5412735   -8.7751503    589.64361  0.011275119   0.01002135            6 
 4359000   0.55314664   -8.8052664    590.59206  0.011290664  0.010017814            2 
 4360000   0.55782328   -8.7764275    589.57504  0.011268636  0.010014278            2 
 4361000   0.55110792   -8.7711683    589.49582  0.011264538  0.010010742            4 
 4362000    0.5440892   -8.7892181    589.78409  0.011267463  0.010007206            3 
 4363000   0.54054179   -8.7715976    590.20915  0.011272999  0.010003675            3 
 4364000   0.55345368    -8.770099    590.75729  0.011280883  0.010000147            4 
 4365000   0.55314211   -8.7901775    589.85302  0.011261035 0.0099966201            2 
 4366000   0.56373737   -8.7931084    590.79698  0.011276473 0.0099930903            1 
 4367000   0.55962371   -8.7898787    589.76423  0.011254183 0.0099895648            2 
 4368000   0.55369811   -8.7761351    589.10717  0.011239072 0.0099860404            3 
 4369000   0.56750253   -8.7817592    589.40235  0.011242129 0.0099825175            2 
 4370000   0.55673331   -8.7797774      589.899  0.011249028 0.0099789954            5 
 4371000   0.55802354   -8.8046707    589.00956  0.011229497 0.0099754782            3 
 4372000   0.55129642   -8.7993071     589.6739  0.011239591  0.009971956            2 
 4373000   0.55971759   -8.7882546    589.07603  0.011225628  0.009968439            5 
 4374000   0.54750316     -8.78055    589.74669  0.011235839 0.0099649231            3 
 4375000   0.56717045    -8.800028     590.0161  0.011238402 0.0099614081            3 
 4376000   0.54694738   -8.7881054      590.373   0.01124263 0.0099578962            1 
 4377000   0.55775911   -8.7991685    589.58733  0.011225103 0.0099543873            3 
 4378000   0.55272397   -8.7913163    589.66664  0.011224049 0.0099508787            4 
 4379000   0.53617583   -8.7757728    589.83589  0.011224707 0.0099473755            3 
 4380000   0.54146095   -8.8030902    590.47934  0.011234386 0.0099438722            4 
 4381000    0.5461435   -8.7821983    589.74336  0.011217822 0.0099403694            2 
 4382000    0.5559528   -8.7801285    589.63579  0.011213217  0.009936869            3 
 4383000   0.55486848   -8.7920509    589.57644   0.01120953 0.0099333669            1 
 4384000   0.54527031   -8.7904073    589.58851  0.011207203 0.0099298691            2 
 4385000   0.56474613    -8.793688    589.81708   0.01120899 0.0099263714            3 
 4386000   0.56080231   -8.7910595    589.90268  0.011208061 0.0099228784            2 
 4387000   0.53290138   -8.7998575    588.94034  0.011187226 0.0099193823            2 
 4388000     0.549424   -8.7829948    588.59854  0.011178186 0.0099158885            5 
 4389000   0.54275866    -8.790117    589.90546  0.011200453 0.0099123985            3 
 4390000   0.55319731   -8.8062555    588.92911  0.011179368 0.0099089075            2 
 4391000   0.54763844   -8.7909227    589.74661  0.011192337 0.0099054174            3 
 4392000   0.55899275   -8.7866667    588.72937  0.011170488 0.0099019315            2 
 4393000   0.56080666   -8.7929519    588.71342  0.011167642 0.0098984452            4 
 4394000    0.5513327   -8.8100943    590.03252  0.011190118 0.0098949576            2 
 4395000   0.53885126   -8.7917748    589.51352  0.011177731 0.0098914725            3 
 4396000   0.54223605   -8.7964713    590.09203  0.011186155 0.0098879925            8 
 4397000   0.54604872   -8.7913381    589.60202  0.011174324 0.0098845165            4 
 4398000   0.54498799   -8.8074465    590.07266  0.011180701  0.009881036            5 
 4399000   0.54907071   -8.7833188    589.70391  0.011171174 0.0098775555            2 
 4400000    0.5537078   -8.7910894    589.26006  0.011160228 0.0098740798            3 
 4401000   0.55278357   -8.8027503    589.28498  0.011158164 0.0098706074            4 
 4402000   0.54840944   -8.8040029    589.69114  0.011163319 0.0098671357            3 
 4403000   0.54851621   -8.8089471    589.58875  0.011158845 0.0098636638            3 
 4404000   0.54898971   -8.8069896    589.83009  0.011160878 0.0098601952            2 
 4405000   0.55000833   -8.8141815     588.8812  0.011140394  0.009856726            2 
 4406000   0.53846785   -8.8126557    588.96422  0.011139435 0.0098532581            6 
 4407000    0.5454638   -8.8176622    589.97537  0.011156028 0.0098497927            2 
 4408000    0.5402465    -8.806704    589.27639  0.011140283  0.009846326            2 
 4409000   0.53532226   -8.7981542    590.12995  0.011153889 0.0098428652            6 
 4410000   0.55285449   -8.7876453    589.35739  0.011136761 0.0098394049            4 
 4411000   0.55568862   -8.7949291    588.80104  0.011123726 0.0098359447            7 
 4412000   0.54442618   -8.8091797    588.98845  0.011124744 0.0098324866            3 
 4413000   0.54984122   -8.7877046    589.36966  0.011129422 0.0098290314            1 
 4414000   0.54387081    -8.801228    588.77414  0.011115657 0.0098255781            3 
 4415000   0.53786257   -8.7980578    589.87095  0.011133842 0.0098221213            2 
 4416000    0.5361124   -8.7893722    589.54033  0.011125082 0.0098186663            3 
 4417000   0.55092135   -8.8162935    589.29212   0.01111788 0.0098152151            2 
 4418000   0.55210118   -8.7948338    589.58845  0.011120953 0.0098117648            4 
 4419000   0.53938857   -8.8082827    588.64783  0.011100698 0.0098083152            3 
 4420000   0.55034033   -8.8238462     588.7769   0.01110062 0.0098048693            5 
 4421000    0.5382893   -8.8097649    589.32185  0.011108381 0.0098014252            4 
 4422000   0.53553653   -8.8071375    588.64398  0.011093095 0.0097979817            3 
 4423000   0.54086054   -8.8087836    590.00563  0.011116241 0.0097945404            1 
 4424000   0.54604193   -8.7934459    588.96583  0.011094142 0.0097910997            5 
 4425000   0.55704844   -8.8176039    588.98917  0.011092075 0.0097876592            2 
 4426000   0.54482105   -8.7845185    590.78044  0.011123295 0.0097842218            2 
 4427000   0.55411211   -8.7989111    589.90412  0.011104287 0.0097807884            5 
 4428000   0.53715895   -8.8250167    589.30462  0.011090496 0.0097773513            3 
 4429000   0.54358355     -8.82035     589.8265  0.011097812 0.0097739171            5 
 4430000    0.5541698   -8.8089968    589.35648  0.011086465 0.0097704846            1 
 4431000   0.54547053    -8.791764    588.45587  0.011067025 0.0097670554            1 
 4432000   0.55593374   -8.7874999    589.74271  0.011088724 0.0097636288            3 
 4433000   0.53485694   -8.8145239    589.14871  0.011075057 0.0097601978            2 
 4434000   0.52778822   -8.7954629    590.17765  0.011091897 0.0097567703            5 
 4435000    0.5385567   -8.7973766    589.18594  0.011070762 0.0097533424            6 
 4436000   0.55043768   -8.8090341     588.4745  0.011054901 0.0097499161            4 
 4437000   0.55268457   -8.8045821    589.05381   0.01106329 0.0097464913            4 
 4438000   0.54777325   -8.8126426    589.34756  0.011066313 0.0097430688            4 
 4439000   0.53559769   -8.8132456    588.61689  0.011050103 0.0097396459            5 
 4440000   0.54771513   -8.8129297    588.29744  0.011041619 0.0097362265            3 
 4441000   0.52904462   -8.8035248    589.36023  0.011059075 0.0097328112            6 
 4442000    0.5451408     -8.79664    589.25536  0.011054618 0.0097293961            4 
 4443000   0.53817521   -8.8106135    588.74252  0.011042511 0.0097259843            3 
 4444000   0.52938111   -8.7995412    589.34401  0.011051305  0.009722572            2 
 4445000   0.54242221    -8.814914    589.45484  0.011050897 0.0097191586            4 
 4446000   0.53858751   -8.7939768    589.21651  0.011043944 0.0097157517            2 
 4447000    0.5353534   -8.8013083    589.02507  0.011037873 0.0097123437            5 
 4448000   0.53860288   -8.7932725    589.09062   0.01103662 0.0097089413            5 
 4449000   0.53196944   -8.7983329    589.32918  0.011038608 0.0097055382            3 
 4450000   0.54674226   -8.8061131    589.08731  0.011031598 0.0097021348            2 
 4451000   0.52783365    -8.807142    588.48986  0.011017933 0.0096987302            2 
 4452000   0.54402862   -8.7972661    588.81085  0.011021467 0.0096953291            3 
 4453000   0.53558946   -8.7963532    589.29285  0.011028012 0.0096919268            2 
 4454000   0.53961031   -8.8038347    588.88495  0.011017904 0.0096885273            3 
 4455000   0.53680144   -8.7947091    589.25471  0.011022348 0.0096851276            5 
 4456000    0.5412907   -8.7979968    589.41078  0.011022793 0.0096817343            4 
 4457000   0.54316346     -8.81551    589.03251  0.011013247 0.0096783408            6 
 4458000   0.53005194    -8.812001    588.98275  0.011009847 0.0096749486            4 
 4459000   0.52763459   -8.8175274    588.99337  0.011007576  0.009671558            6 
 4460000   0.53761727   -8.8039309    589.08842  0.011006884 0.0096681687            3 
 4461000   0.54067026   -8.8007701    589.22501  0.011006968  0.009664781            4 
 4462000   0.53812372   -8.8130994    589.00126  0.011000322  0.009661395            4 
 4463000   0.53426986   -8.8107972    588.87556   0.01099551 0.0096580112            2 
 4464000   0.53367904   -8.8096389    589.60698  0.011006701   0.00965463            2 
 4465000    0.5372782   -8.7929457    589.09866  0.010994749 0.0096512493            3 
 4466000   0.54282246   -8.8168606    588.40064  0.010979263  0.009647871            3 
 4467000   0.53283666   -8.8045376    588.90245  0.010986166 0.0096444942            2 
 4468000   0.53283254   -8.8107113    589.21692  0.010989572 0.0096411158            3 
 4469000   0.55020928    -8.803726    588.75478  0.010978496 0.0096377424            2 
 4470000    0.5399693   -8.8271447    589.04058  0.010981368 0.0096343668            4 
 4471000   0.53164732   -8.8187977     589.0593  0.010979261 0.0096309938            5 
 4472000   0.52613206   -8.8199834    588.74303  0.010970912 0.0096276215            3 
 4473000   0.53853869   -8.8093622    587.65993  0.010948281 0.0096242492            5 
 4474000   0.53068752   -8.8168613    588.57007  0.010962786  0.009620882            3 
 4475000    0.5178565   -8.8281203    589.38387  0.010975491  0.009617515            3 
 4476000   0.53027561   -8.8173907    588.97279  0.010965386 0.0096141491            3 
 4477000   0.51787783   -8.8094971    588.75897  0.010958956 0.0096107847            2 
 4478000    0.5296246   -8.8177341    588.43868  0.010950549 0.0096074247            4 
 4479000   0.54098544   -8.8185674    588.73973  0.010953705 0.0096040641            3 
 4480000    0.5490138   -8.8009745    588.58253  0.010948336 0.0096007017            5 
 4481000   0.54060313   -8.8203013    589.08131  0.010955168 0.0095973467            3 
 4482000   0.52784982   -8.8046338    588.38845  0.010939842 0.0095939908            5 
 4483000   0.53401512   -8.8001954    588.87674  0.010946478 0.0095906346            4 
 4484000   0.54422534   -8.8176274    589.25021  0.010950978 0.0095872818            6 
 4485000   0.54189917   -8.8244916    588.60629  0.010936572 0.0095839341            6 
 4486000   0.55739636   -8.8291002     589.3466  0.010947886 0.0095805838            3 
 4487000   0.52797679   -8.8084391    588.98108  0.010938658 0.0095772347            6 
 4488000   0.53429694   -8.8157777    588.43108  0.010926008 0.0095738874            2 
 4489000   0.53576541   -8.7933757    588.11544  0.010917714 0.0095705415            4 
 4490000   0.53729208   -8.8240478    588.84236  0.010928774 0.0095671963            6 
 4491000    0.5340431   -8.8251802    588.82995  0.010926111 0.0095638553            6 
 4492000   0.53614393   -8.8236928    588.98382  0.010926533 0.0095605089            2 
 4493000    0.5300646     -8.80719     589.9223  0.010941507 0.0095571705            3 
 4494000   0.53199225    -8.823682    588.21969  0.010907501  0.009553833            3 
 4495000   0.52478196   -8.8065295     589.4593  0.010928055 0.0095504973            2 
 4496000   0.53774405   -8.8128404    588.26739  0.010903533 0.0095471595            4 
 4497000   0.53410846   -8.8266911    589.02425  0.010915133 0.0095438245            2 
 4498000   0.52705786   -8.8326626    589.11476  0.010914383 0.0095404917            3 
 4499000   0.52958447    -8.806466     588.2648  0.010896214 0.0095371608            3 
 4500000   0.53414946   -8.8194683    587.96135  0.010888173 0.0095338284            4 
 4501000   0.54101327   -8.7973567    588.71605  0.010899727 0.0095304986            6 
 4502000   0.53657721   -8.8089872    588.69338  0.010896886 0.0095271694            3 
 4503000   0.53260436   -8.8333782    588.36203  0.010888334 0.0095238402            7 
 4504000   0.53635882   -8.8297008    588.61069  0.010890517 0.0095205091            6 
 4505000   0.52874425   -8.8204056     588.4875  0.010885821 0.0095171851            2 
 4506000   0.52689549   -8.8166569    588.15989  0.010877347 0.0095138561            6 
 4507000    0.5201745   -8.8083697    588.86448  0.010887961 0.0095105341            1 
 4508000   0.53742353   -8.8384979    587.89386  0.010867603 0.0095072094            7 
 4509000   0.54183268   -8.8297859     587.7951  0.010863368 0.0095038875            4 
 4510000   0.53259889   -8.8077175    587.62655  0.010857845 0.0095005662            6 
 4511000   0.52400355   -8.8214997    588.22522  0.010866497 0.0094972451            2 
 4512000   0.51693145    -8.838214    588.99804  0.010878362 0.0094939315            3 
 4513000   0.53826184   -8.8099448    589.33591   0.01088219 0.0094906199            3 
 4514000   0.53098108   -8.8276837    587.65217  0.010848696 0.0094873076            4 
 4515000   0.53938122   -8.8173252    588.22181  0.010856807 0.0094839985            6 
 4516000   0.52330162   -8.8369188    588.39789  0.010857652 0.0094806876            4 
 4517000   0.53332541   -8.8354818    587.91074  0.010846261  0.009477375            4 
 4518000   0.52810172    -8.819123    588.04954  0.010846421 0.0094740658            1 
 4519000   0.53429483   -8.8343556    588.27133   0.01084811 0.0094707575            6 
 4520000   0.52871794   -8.8316862    588.78528  0.010855186 0.0094674543            2 
 4521000   0.52752383   -8.8202756    588.21257  0.010842228 0.0094641535            4 
 4522000    0.5349417   -8.8365262    588.44333  0.010844083 0.0094608544            5 
 4523000   0.52238745   -8.8171767    588.43272   0.01084149 0.0094575549            3 
 4524000    0.5252883   -8.8251856    588.24952  0.010835719 0.0094542527            3 
 4525000     0.532891   -8.8059185    588.95474  0.010846312 0.0094509567            3 
 4526000   0.52433544   -8.8424514    588.20373  0.010830088 0.0094476589            3 
 4527000   0.52456593   -8.8269388    588.47398   0.01083267 0.0094443615            8 
 4528000   0.52207529   -8.8317157    588.03381  0.010822177 0.0094410699            4 
 4529000   0.52105753   -8.8403119     588.2646  0.010824034 0.0094377762            5 
 4530000   0.52561439   -8.8326412    587.54795  0.010808461 0.0094344852            2 
 4531000   0.52820135   -8.8225392    588.05456  0.010815393 0.0094311949            4 
 4532000   0.52264437   -8.8194865    587.78499   0.01080805 0.0094279052            2 
 4533000   0.53778667    -8.844376    588.51274  0.010819044 0.0094246154            2 
 4534000   0.52533335   -8.8141229    588.05083  0.010808168 0.0094213317            2 
 4535000   0.51505919   -8.8248984    588.79355  0.010819433 0.0094180461            4 
 4536000   0.52789523   -8.8332112    588.83238  0.010817761 0.0094147578            4 
 4537000   0.52565482   -8.8369605    589.55483  0.010828647  0.009411477            3 
 4538000   0.51724378   -8.8217899    588.37371  0.010804571 0.0094081971            6 
 4539000   0.52919289   -8.8435336    588.87627  0.010811417 0.0094049167            1 
 4540000   0.52606417   -8.8485057    588.54259  0.010802911 0.0094016379            6 
 4541000   0.51410797   -8.8076477     588.2528  0.010795214 0.0093983616            5 
 4542000   0.51475091   -8.8278062    588.29623  0.010793634  0.009395087            3 
 4543000   0.52753436   -8.8399477    588.49466  0.010794898 0.0093918138            3 
 4544000   0.53470217   -8.8548038    586.96073  0.010764391 0.0093885404            3 
 4545000   0.51816755   -8.8215076    588.59409  0.010791971 0.0093852684            2 
 4546000   0.52764716   -8.8310598     588.8607  0.010794484 0.0093819989            5 
 4547000   0.52138141   -8.8526346    587.84027  0.010773409 0.0093787315            3 
 4548000   0.52551558   -8.8494002    588.90674  0.010790581 0.0093754627            5 
 4549000   0.51954152   -8.8390596    588.36186  0.010778227 0.0093721976            4 
 4550000   0.52429709   -8.8312878    588.71348  0.010782298 0.0093689369            6 
 4551000   0.51887757    -8.829645    588.98348  0.010784873 0.0093656748            3 
 4552000   0.51896564   -8.8252608    588.02507  0.010764958 0.0093624122            3 
 4553000   0.53484668   -8.8151207    587.74335  0.010757437 0.0093591531            3 
 4554000   0.52291284   -8.8407586    588.86672  0.010775632 0.0093558961            6 
 4555000   0.51650996   -8.8335751    588.49315  0.010766432 0.0093526425            3 
 4556000   0.52562033   -8.8407223    588.57295  0.010765528 0.0093493873            2 
 4557000   0.51449921   -8.8493237    588.12203   0.01075492 0.0093461325            3 
 4558000    0.5199733   -8.8397675    587.97148  0.010749808  0.009342878            3 
 4559000   0.51829174   -8.8421497    587.58526   0.01074039 0.0093396255            3 
 4560000   0.52799393   -8.8398505    587.38095  0.010734301 0.0093363779            1 
 4561000   0.52744062   -8.8368118    588.04831  0.010744141 0.0093331302            4 
 4562000   0.53518188   -8.8244762    587.84747  0.010738117 0.0093298854            3 
 4563000   0.51208664   -8.8534915    588.14504  0.010741198 0.0093266405            5 
 4564000   0.51245244   -8.8581385    587.63879  0.010729601 0.0093233953            5 
 4565000   0.52385635   -8.8139014    588.23739  0.010738178 0.0093201562            6 
 4566000   0.53164146   -8.8426887    587.58692  0.010723955 0.0093169169            7 
 4567000   0.52413344   -8.8437079    588.47391  0.010737791 0.0093136793            3 
 4568000   0.52662366   -8.8229918    587.61713   0.01071981 0.0093104416            4 
 4569000    0.5243638   -8.8411117    588.10438  0.010726351 0.0093072048            2 
 4570000   0.51877447   -8.8184718    588.19881  0.010725726 0.0093039704            2 
 4571000   0.52497822   -8.8483999    588.84115   0.01073509 0.0093007389            3 
 4572000    0.5260834   -8.8388797     588.3757  0.010724258 0.0092975062            2 
 4573000   0.51916362   -8.8176796    587.89489  0.010713151  0.009294273            3 
 4574000   0.53140937   -8.8525958     588.7555  0.010726489 0.0092910429            4 
 4575000   0.50408757   -8.8293542     587.4532  0.010700423 0.0092878158            4 
 4576000   0.52218611   -8.8462281    586.70265  0.010684416 0.0092845881            5 
 4577000   0.51944331   -8.8377808    588.06824  0.010706945 0.0092813589            2 
 4578000   0.52107779   -8.8349427     587.6722  0.010697397 0.0092781339            4 
 4579000   0.51771437   -8.8540931     588.6217  0.010712341 0.0092749088            8 
 4580000   0.52259078   -8.8345086    586.97674  0.010680072 0.0092716872            3 
 4581000    0.5241714    -8.856015    589.16333  0.010717517 0.0092684677            7 
 4582000    0.5146009    -8.867001    586.81244  0.010672422 0.0092652481            3 
 4583000   0.51249726   -8.8359891    587.92896  0.010690395  0.009262031            3 
 4584000   0.52102814   -8.8252003    588.22391  0.010693425 0.0092588175            1 
 4585000   0.52046136   -8.8384156     588.5221  0.010696512 0.0092556048            7 
 4586000   0.51039846   -8.8147694    587.14267  0.010669114  0.009252394            2 
 4587000   0.51350566   -8.8471369    588.32912  0.010688342 0.0092491841            4 
 4588000   0.51040419   -8.8350585    587.90219  0.010678258 0.0092459774            3 
 4589000   0.51411809   -8.8454345    588.17667  0.010680916 0.0092427663            2 
 4590000   0.51279412   -8.8353846    588.06156  0.010676499 0.0092395638            2 
 4591000    0.5104019   -8.8305821    587.42398    0.0106626 0.0092363575            3 
 4592000   0.51841255   -8.8364676    587.98887   0.01067053 0.0092331564            5 
 4593000   0.51969126   -8.8605817    587.72699  0.010663455 0.0092299556            2 
 4594000   0.51357304   -8.8575769    586.98039  0.010647591 0.0092267543            4 
 4595000   0.52714889   -8.8193031    587.36162  0.010652187  0.009223557            3 
 4596000   0.51832418   -8.8530781    587.86247  0.010658951 0.0092203601            2 
 4597000   0.50740697   -8.8308614    586.28142  0.010627971 0.0092171646            5 
 4598000   0.51775328   -8.8250075    588.55262  0.010666823 0.0092139717            7 
 4599000   0.52250305   -8.8253143    588.30537  0.010660023 0.0092107803            2 
 4600000   0.50646359   -8.8382945    587.88948  0.010650172 0.0092075885            3 
 4601000   0.51131927   -8.8448211    587.59235  0.010642475 0.0092043955            4 
 4602000   0.51360715    -8.857728    588.04819  0.010648417 0.0092012018            3 
 4603000   0.51947657   -8.8575927    587.52612  0.010636652 0.0091980145            3 
 4604000   0.52316151    -8.846928    587.27892  0.010629867 0.0091948247            3 
 4605000   0.51321478   -8.8420789    588.20308  0.010644283 0.0091916383            2 
 4606000   0.52225956   -8.8601997    587.05187  0.010621144 0.0091884515            2 
 4607000   0.50325151   -8.8471099     588.0996   0.01063779 0.0091852639            6 
 4608000   0.52497848   -8.8514973    587.24454  0.010620018 0.0091820797            1 
 4609000   0.51146179   -8.8638476    588.39612  0.010638535 0.0091788993            5 
 4610000    0.5233765   -8.8523425    587.64678  0.010622682 0.0091757193            2 
 4611000   0.51750901   -8.8615169    587.89058  0.010624785 0.0091725388            2 
 4612000    0.5262143    -8.848528    587.56622   0.01061662 0.0091693597            6 
 4613000   0.51755767   -8.8571376    587.15784  0.010606941 0.0091661829            7 
 4614000   0.51110719   -8.8436234    588.65714  0.010631721 0.0091630102            2 
 4615000   0.51253557   -8.8579364    587.43485  0.010607346 0.0091598358            3 
 4616000    0.5052039   -8.8522123     588.2653  0.010620041  0.009156666            2 
 4617000   0.49216258   -8.8593139    586.71377  0.010589737 0.0091534966            5 
 4618000   0.52598176   -8.8396557    587.51049  0.010601821 0.0091503293            2 
 4619000   0.51189538   -8.8679048    588.15632  0.010611177 0.0091471636            3 
 4620000   0.51263016   -8.8422578    588.53293  0.010615673 0.0091439998            3 
 4621000   0.51764737   -8.8527076     588.3676  0.010610395 0.0091408366            5 
 4622000   0.51323862   -8.8583645    587.88891  0.010599468 0.0091376693            3 
 4623000   0.51850005   -8.8701688    588.00752  0.010599314 0.0091345077            6 
 4624000   0.49639259   -8.8440764    587.14907   0.01058155 0.0091313447            4 
 4625000    0.5222668   -8.8424235    586.79494  0.010572882 0.0091281874            4 
 4626000   0.50475871   -8.8609633    588.06874  0.010593543 0.0091250273            3 
 4627000   0.50802734   -8.8518765    588.19791  0.010593579  0.009121871            3 
 4628000   0.50860676   -8.8560007    588.56484  0.010597898 0.0091187135            4 
 4629000   0.51466413   -8.8588344    587.73982  0.010580756 0.0091155585            1 
 4630000     0.508544   -8.8672835    587.92798  0.010581857 0.0091124066            4 
 4631000   0.51662756   -8.8479151    587.66856  0.010574904 0.0091092527            3 
 4632000   0.50219872   -8.8556267     587.1809  0.010563848 0.0091061006            2 
 4633000   0.50299001   -8.8395125    587.63294  0.010569698  0.009102948            2 
 4634000   0.51557415   -8.8431941    587.56761  0.010566242 0.0090997998            3 
 4635000   0.51459753   -8.8503552    588.16654  0.010574731 0.0090966523            2 
 4636000   0.51463077   -8.8566962    587.63109  0.010562825 0.0090935055            3 
 4637000   0.50578723   -8.8628269    587.86947  0.010564831  0.009090358            3 
 4638000   0.51264417   -8.8668248    586.97847  0.010546544 0.0090872142            1 
 4639000   0.51132993   -8.8624195    586.81102  0.010541263 0.0090840728            1 
 4640000   0.50930697   -8.8641533    587.38125  0.010549232 0.0090809304            3 
 4641000   0.50990838   -8.8732364    586.41186  0.010529553  0.009077794            5 
 4642000   0.51638332   -8.8604629    587.88239  0.010553683 0.0090746561            3 
 4643000   0.50323538   -8.8597939     587.0729  0.010536882 0.0090715171            2 
 4644000   0.50483658   -8.8601706    588.04648  0.010552083  0.009068385            2 
 4645000   0.51108574   -8.8502321    587.98217  0.010548657 0.0090652535            2 
 4646000   0.50582174   -8.8567265    587.66784  0.010540749 0.0090621212            4 
 4647000   0.51201996   -8.8400955    587.61372   0.01053751 0.0090589909            3 
 4648000    0.5065292   -8.8717165    586.54478  0.010516078 0.0090558616            3 
 4649000   0.51284112   -8.8613634     587.2163  0.010525853  0.009052733            3 
 4650000   0.51239006   -8.8419203    587.16336  0.010522641 0.0090496059            2 
 4651000   0.50945018   -8.8688959    587.72889  0.010530511 0.0090464779            2 
 4652000   0.50704055   -8.8511264    587.89693  0.010531258 0.0090433519            2 
 4653000   0.50127239   -8.8544867    588.19392  0.010534313 0.0090402325            1 
 4654000   0.50634943   -8.8746531    586.28673    0.0104979 0.0090371104            3 
 4655000   0.50339635   -8.8725811    588.03346  0.010526915 0.0090339906            4 
 4656000   0.50579766   -8.8638221      587.952  0.010523196 0.0090308719            3 
 4657000   0.50945322   -8.8601836    587.49666  0.010512788 0.0090277533            3 
 4658000   0.50842836   -8.8532689    587.97987  0.010519176 0.0090246398            2 
 4659000   0.50300851   -8.8679767    587.74176  0.010512659 0.0090215237            5 
 4660000   0.50017903   -8.8553144    587.84159  0.010512189  0.009018413            3 
 4661000   0.51147764   -8.8519055    588.76067  0.010526365 0.0090153006            4 
 4662000   0.51048886   -8.8668481    587.57185  0.010502857 0.0090121882            4 
 4663000   0.50355587   -8.8753841     586.8997  0.010488593 0.0090090764            4 
 4664000   0.51949291   -8.8640636    587.65538  0.010499846 0.0090059688            4 
 4665000   0.50981185   -8.8604762    586.73234  0.010481106 0.0090028607            3 
 4666000   0.50752492   -8.8656034    587.18376  0.010486922 0.0089997556            4 
 4667000   0.50390519   -8.8660042    587.71744  0.010494205   0.00899665            2 
 4668000   0.49498546   -8.8618319    586.87835  0.010476977  0.008993546            2 
 4669000   0.49877099   -8.8637772    588.02943  0.010495278 0.0089904426            2 
 4670000   0.50760198   -8.8774413    587.69763   0.01048711  0.008987342            5 
 4671000   0.51107712   -8.8716387    587.64448  0.010483916 0.0089842425            1 
 4672000   0.51535813   -8.8644293    587.33183  0.010476096 0.0089811476            2 
 4673000   0.49668566   -8.8841927    586.48612  0.010458772 0.0089780497            4 
 4674000   0.49705391     -8.86087    586.83022   0.01046267 0.0089749579            2 
 4675000   0.50714048   -8.8722602    586.81094  0.010460088  0.008971864            5 
 4676000   0.50430308   -8.8835199     586.3024  0.010448788 0.0089687727            3 
 4677000   0.51024675   -8.8657773     586.4967  0.010450016 0.0089656807            3 
 4678000   0.51250047    -8.863612    586.82297  0.010453594 0.0089625902            2 
 4679000   0.49910003   -8.8551101    587.24198  0.010458823    0.0089595            6 
 4680000   0.49008237   -8.8617309    587.47902  0.010460809 0.0089564133            4 
 4681000   0.50343796   -8.8722767     586.9193   0.01044861 0.0089533282            3 
 4682000   0.50844505   -8.8835452    587.27993  0.010452797  0.008950241            4 
 4683000   0.51009959    -8.860514    586.88587  0.010443552 0.0089471584            2 
 4684000   0.49963596   -8.8814708    587.18959  0.010446726 0.0089440741            2 
 4685000    0.4919023   -8.8741049    587.73408  0.010454181 0.0089409923            4 
 4686000   0.49407511   -8.8614659    587.22094  0.010442825  0.008937915            5 
 4687000   0.50964504   -8.8764453    586.61005  0.010429736 0.0089348347            4 
 4688000   0.50479252   -8.8704381    586.21752  0.010420533 0.0089317588            2 
 4689000   0.50452886   -8.8646683    586.99563   0.01043214 0.0089286809            2 
 4690000   0.48716795   -8.8823437    586.86853  0.010427657 0.0089256044            5 
 4691000   0.50231227   -8.8639004    586.57239  0.010420173   0.00892253            3 
 4692000    0.5060135   -8.8668091    587.83974  0.010440461 0.0089194576            3 
 4693000   0.49614267   -8.8770635    587.51534  0.010432476 0.0089163889            4 
 4694000   0.49749732   -8.8774258    587.15841  0.010423917 0.0089133198            3 
 4695000   0.50290731   -8.8784344    587.58794  0.010429321 0.0089102529            2 
 4696000   0.48900074   -8.8739633    586.80785  0.010413257 0.0089071846            2 
 4697000    0.5042184   -8.8747961    588.15452  0.010434932 0.0089041204            4 
 4698000   0.49676648   -8.8673288    587.81526  0.010426693 0.0089010583            3 
 4699000   0.50467205   -8.8639276    587.43278  0.010417691 0.0088979964            4 
 4700000   0.50889514    -8.870965    587.42283  0.010415298 0.0088949346            5 
 4701000   0.49355731   -8.8818233    587.27833  0.010410521 0.0088918748            3 
 4702000   0.49576581   -8.8845742    586.49292  0.010394387 0.0088888126            5 
 4703000   0.49945707   -8.8769172    587.04828  0.010402018  0.008885757            5 
 4704000   0.50038591   -8.8803508    586.95288  0.010398117  0.008882701            4 
 4705000   0.50203843   -8.8759258    586.38877  0.010385915 0.0088796468            1 
 4706000   0.48593407   -8.8836872    587.90431  0.010410545 0.0088765949            4 
 4707000   0.50261957   -8.8915931    586.44478  0.010382494 0.0088735418            1 
 4708000   0.49427572   -8.8728821    587.58675  0.010400502 0.0088704925            5 
 4709000     0.494113   -8.8688409    587.25303  0.010392387 0.0088674427            3 
 4710000   0.51017348   -8.8604818    587.08731  0.010387249 0.0088643971            4 
 4711000   0.49606963   -8.8606358    586.66387  0.010377554 0.0088613523            3 
 4712000   0.49854343   -8.8773015    587.34853   0.01038746  0.008858307            4 
 4713000   0.50233727   -8.8735992    587.34948  0.010385273 0.0088552647            4 
 4714000   0.50327317   -8.8847247    587.69663  0.010389206 0.0088522236            4 
 4715000   0.49973332      -8.8596    587.35662  0.010380994 0.0088491848            2 
 4716000   0.48784035   -8.8860985    586.84819  0.010369808 0.0088461442            2 
 4717000   0.49423102   -8.8651344    586.51266  0.010361682 0.0088431066            3 
 4718000   0.49487355   -8.8667219    586.69466  0.010362701 0.0088400691            2 
 4719000   0.48958643   -8.8821084    587.79903  0.010380007 0.0088370344            4 
 4720000   0.50085222    -8.885261    586.71227  0.010358621 0.0088340009            2 
 4721000   0.49945672   -8.8752003    586.60901  0.010354604 0.0088309689            2 
 4722000    0.4992967   -8.8799573    586.50258  0.010350533 0.0088279352            4 
 4723000   0.49688075     -8.86577    586.83912  0.010354279 0.0088249037            3 
 4724000   0.48824986   -8.8882066    586.37653  0.010343927 0.0088218749            2 
 4725000   0.48356866   -8.8733253    586.91401  0.010351217 0.0088188455            3 
 4726000   0.49285298   -8.8683269    586.47669  0.010341316 0.0088158184            4 
 4727000   0.48383055   -8.8727818    586.63042  0.010341838 0.0088127946            4 
 4728000   0.50694971   -8.8865026     586.7821  0.010342324 0.0088097715            3 
 4729000   0.49981986   -8.8799826    587.67077  0.010355797 0.0088067499            4 
 4730000   0.50210673   -8.8744654    588.12136  0.010361546 0.0088037288            2 
 4731000   0.49799502    -8.899243    586.90087  0.010337858 0.0088007101            4 
 4732000   0.50019057   -8.8927101    587.54625  0.010347039 0.0087976926            5 
 4733000   0.49346485   -8.8822485    586.08948  0.010319204 0.0087946754            2 
 4734000   0.49589726   -8.8893211    586.82908  0.010330043 0.0087916603            2 
 4735000   0.49023007   -8.8768454     585.8753  0.010311075 0.0087886458            2 
 4736000   0.49118359   -8.8795178    586.76556  0.010324563 0.0087856327            1 
 4737000   0.50735459   -8.8828905    586.65465  0.010320432 0.0087826241            3 
 4738000   0.48919725   -8.8948598    586.14422  0.010309276 0.0087796151            9 
 4739000   0.49029098   -8.8956753    587.03994  0.010322852 0.0087766052            2 
 4740000   0.50121175   -8.8855596    586.08354   0.01030386 0.0087735987            3 
 4741000   0.49597599   -8.8869795    586.99811  0.010317762 0.0087705923            4 
 4742000   0.49542937    -8.889529    586.88136  0.010313534 0.0087675862            5 
 4743000   0.48993381   -8.8925481    587.34252  0.010319462 0.0087645832            3 
 4744000   0.48320022   -8.8964928    586.70149  0.010306027 0.0087615808            5 
 4745000   0.49358815   -8.8873074     587.7759  0.010322724 0.0087585797            4 
 4746000   0.49136803    -8.877602    587.53595  0.010316336 0.0087555811            5 
 4747000   0.49377651   -8.8824999    587.22068  0.010308628 0.0087525855            3 
 4748000   0.50847461   -8.8874532    587.15595  0.010305321 0.0087495912            2 
 4749000    0.4929388    -8.886652     586.9366  0.010299302 0.0087465987            3 
 4750000   0.50276577   -8.8949928    587.14208  0.010300738 0.0087436047            2 
 4751000   0.49670713   -8.8885424    587.11933  0.010298171 0.0087406135            3 
 4752000   0.50522651    -8.877745    586.53497  0.010285756 0.0087376228            5 
 4753000   0.49290145   -8.8889808    586.80063   0.01028825 0.0087346374            4 
 4754000   0.48243758   -8.8768897    585.88799  0.010270088 0.0087316502            1 
 4755000   0.48867179   -8.8962359    586.16568  0.010272795 0.0087286636            3 
 4756000   0.49531032   -8.8882582    587.34862  0.010291362 0.0087256777            3 
 4757000   0.48421386   -8.8937799    585.88419  0.010263545 0.0087226928            4 
 4758000   0.48833744    -8.891355    586.75892  0.010276708 0.0087197112            3 
 4759000   0.48205122   -8.8928562    586.80678  0.010275387 0.0087167305            4 
 4760000   0.50351386   -8.8781131    586.33111    0.0102649 0.0087137497            3 
 4761000   0.48135811   -8.8874773    586.62862  0.010267952 0.0087107725            4 
 4762000    0.4741011   -8.8711032    586.87741  0.010270149 0.0087077953            3 
 4763000   0.49880123   -8.8902629    587.09191  0.010271746 0.0087048219            3 
 4764000    0.5119616   -8.8975151    586.71296  0.010262961 0.0087018488            4 
 4765000   0.49642982    -8.888831    586.63396  0.010259426 0.0086988771            3 
 4766000   0.49372002   -8.8770671    586.21837  0.010250006 0.0086959048            1 
 4767000   0.49149177    -8.898495    586.31022  0.010249462 0.0086929329            2 
 4768000   0.49143532   -8.8872683    586.08839  0.010243435 0.0086899666            4 
 4769000   0.49155402   -8.8947964    586.58708  0.010250001  0.008687001            4 
 4770000   0.49497684   -8.9014664    587.03746  0.010255721 0.0086840346            3 
 4771000   0.48961982    -8.881961    585.65714  0.010229462 0.0086810697            2 
 4772000   0.48567821     -8.88344     585.9094  0.010231723 0.0086781033            3 
 4773000   0.48411313   -8.8852355    586.53842  0.010240562 0.0086751376            2 
 4774000   0.50058991   -8.8943574    586.35418  0.010235201 0.0086721769            5 
 4775000   0.49018476   -8.8809712    586.48891  0.010235409 0.0086692139            2 
 4776000   0.48136836   -8.8900942    586.00942  0.010224899 0.0086662568            4 
 4777000   0.48534303   -8.8992954     587.1375  0.010242438  0.008663301            4 
 4778000   0.50160323   -8.8886809     586.3532  0.010226615 0.0086603438            1 
 4779000   0.48638015   -8.8930258    587.04908   0.01023661 0.0086573865            3 
 4780000   0.48631067   -8.8888501    586.19096  0.010219508  0.008654431            3 
 4781000   0.48336383   -8.8836929    586.01502  0.010214304 0.0086514757            5 
 4782000     0.492892   -8.9012707    587.18741  0.010232598 0.0086485232            3 
 4783000   0.47663561   -8.8928101    586.23549  0.010213874 0.0086455712            4 
 4784000   0.48795952   -8.9030236    586.26748  0.010212296 0.0086426241            5 
 4785000   0.48442821   -8.8950968    587.27173  0.010227651 0.0086396753            2 
 4786000   0.48354891   -8.8981547    586.58189  0.010213503 0.0086367276            3 
 4787000   0.49257967   -8.8944302    586.80794  0.010215304 0.0086337796            5 
 4788000   0.47852571   -8.8964878     586.6039   0.01020962 0.0086308323            2 
 4789000   0.49561861   -8.8858177    587.12307  0.010216522 0.0086278896            3 
 4790000   0.48661159     -8.88016    585.94605  0.010193912  0.008624948            3 
 4791000   0.47929845   -8.8954441    586.60817  0.010203301 0.0086220051            4 
 4792000   0.47926918   -8.8984819    586.84892  0.010205358 0.0086190633            5 
 4793000   0.48567574   -8.8983248    587.12682  0.010208061 0.0086161241            2 
 4794000   0.48226716   -8.8886596    586.13222  0.010188642 0.0086131888            5 
 4795000   0.48259097   -8.8927227    586.44891  0.010192021 0.0086102534            3 
 4796000   0.48146067   -8.9078643    586.88502  0.010197474 0.0086073183            4 
 4797000   0.48296009   -8.9180412    586.16505  0.010182841 0.0086043847            4 
 4798000   0.47508469   -8.9116149    587.31786  0.010200741 0.0086014505            5 
 4799000   0.47480707   -8.8934324    586.63838  0.010186816 0.0085985193            4 
 4800000   0.48086022   -8.8978636    585.81614  0.010170419 0.0085955882            2 
 4801000   0.48739898    -8.894929    586.11457  0.010173481 0.0085926577            3 
 4802000   0.49112696   -8.8953018    585.56588   0.01016184  0.008589731            5 
 4803000   0.47111073    -8.903336    586.41126  0.010174392 0.0085868046            2 
 4804000   0.48746188   -8.8846457    586.21736  0.010168911 0.0085838796            3 
 4805000   0.47719386   -8.8966723    586.94007  0.010179328  0.008580958            3 
 4806000   0.48370336   -8.8977896    587.45104   0.01018607  0.008578035            2 
 4807000   0.47755867   -8.8978207    585.89142  0.010156914 0.0085751149            5 
 4808000   0.47142586    -8.872691    586.40699  0.010163737  0.008572197            2 
 4809000   0.47590169   -8.9004502    586.56125  0.010164297 0.0085692798            5 
 4810000   0.48586179   -8.9067845    587.07662  0.010171113 0.0085663631            3 
 4811000    0.4819881   -8.8780844    587.32386  0.010173281 0.0085634485            3 
 4812000   0.49182974    -8.909099    586.30587  0.010153538 0.0085605339            4 
 4813000   0.48024367   -8.8966363    586.11398  0.010148105 0.0085576196            1 
 4814000   0.48846064   -8.8966034    586.29484  0.010149128 0.0085547052            1 
 4815000   0.47942148   -8.8971811    586.42815  0.010149328 0.0085517951            5 
 4816000   0.48074974   -8.9070951    585.72827   0.01013511 0.0085488862            5 
 4817000   0.48476054   -8.8851762    586.68215  0.010149508 0.0085459776            3 
 4818000   0.48878097   -8.8977037    587.07198  0.010154144 0.0085430706            3 
 4819000   0.49163345    -8.887345    586.34003  0.010139379 0.0085401656            3 
 4820000   0.48842257   -8.9130684     586.2355  0.010135469 0.0085372598            6 
 4821000   0.47633129   -8.8932501    586.18645  0.010132518 0.0085343553            1 
 4822000   0.48373041   -8.8912522     586.1786  0.010130281 0.0085314536            2 
 4823000   0.47995792   -8.8983661    585.87528   0.01012294 0.0085285547            4 
 4824000   0.48193274   -8.8930175    585.80426  0.010119615 0.0085256555            4 
 4825000   0.47522461   -8.9090609    585.58427  0.010113718 0.0085227567            4 
 4826000   0.47376162   -8.8988981     586.8633  0.010133708 0.0085198601            5 
 4827000   0.47739753   -8.9082991    585.80573  0.010113351 0.0085169667            5 
 4828000   0.48087554   -8.8955189    586.48979  0.010123063 0.0085140727            5 
 4829000    0.4632531   -8.9056609    586.25089  0.010116844 0.0085111805            2 
 4830000   0.46895943   -8.9063895    586.04499  0.010111197  0.008508288            2 
 4831000   0.48372958   -8.8981521    586.33263  0.010114066 0.0085053981            5 
 4832000   0.47435546   -8.8892122    585.91625  0.010104792  0.008502507            7 
 4833000   0.47816998   -8.8955975    585.95266  0.010103329  0.008499619            3 
 4834000   0.48598884   -8.9151065    586.56587   0.01011181 0.0084967321            3 
 4835000   0.48540855   -8.8976056    586.20691  0.010103532 0.0084938448            2 
 4836000   0.48139876   -8.8948882    586.56948   0.01010769 0.0084909603            3 
 4837000   0.48022768   -8.9035529    586.34551  0.010101742 0.0084880788            5 
 4838000   0.48177536   -8.9049502    585.58274  0.010086515  0.008485196            4 
 4839000   0.48226399   -8.9098397    586.66322  0.010103038  0.008482316            3 
 4840000   0.49190526   -8.8913814    586.04987   0.01009039 0.0084794386            3 
 4841000   0.48414413   -8.9202927    586.27531  0.010092187 0.0084765578            2 
 4842000   0.47268453   -8.9201588    585.48106  0.010076433 0.0084736792            3 
 4843000   0.47489655   -8.9127081    585.56898  0.010075865 0.0084708004            6 
 4844000   0.47956165   -8.8989797    586.17194  0.010084158 0.0084679281            6 
 4845000    0.4762267   -8.9095097    586.33751  0.010084925 0.0084650552            3 
 4846000   0.47803981   -8.8934127     585.1903  0.010063116 0.0084621831            2 
 4847000   0.47792623   -8.9171871     585.4695   0.01006584 0.0084593113            3 
 4848000   0.48590819   -8.9075777    585.50455  0.010064366 0.0084564394            4 
 4849000   0.46325758   -8.9177611    586.02431  0.010071223 0.0084535707            4 
 4850000   0.46794229   -8.9054746    585.98085    0.0100684 0.0084507022            5 
 4851000    0.4740577   -8.9041929    586.85254  0.010081298 0.0084478345            5 
 4852000   0.47157014   -8.9226855    585.83992  0.010061829 0.0084449703            3 
 4853000   0.47109819    -8.906912    586.72846  0.010075013 0.0084421067            3 
 4854000   0.45913804   -8.9060729    585.93949  0.010059393 0.0084392426            3 
 4855000   0.47026688   -8.9146172     585.5066   0.01004989 0.0084363823            2 
 4856000   0.47880859   -8.9107751    586.16667  0.010059148 0.0084335213            2 
 4857000   0.47187988   -8.9077237    585.75186   0.01004996 0.0084306634            3 
 4858000   0.46248562   -8.9082164    585.98461  0.010051884 0.0084278086            2 
 4859000   0.46777662   -8.9050492    586.32508  0.010055654 0.0084249525            4 
 4860000   0.48083053   -8.9009511    586.67664  0.010059613 0.0084220985            3 
 4861000    0.4747149   -8.9203058    586.09883  0.010047638 0.0084192442            4 
 4862000    0.4619918   -8.9048053    585.93035  0.010042684 0.0084163883            3 
 4863000    0.4715359   -8.9022775     586.3192  0.010047282 0.0084135381            3 
 4864000   0.47931226    -8.921212    585.83529  0.010036926 0.0084106906            2 
 4865000   0.47224937   -8.9262947    584.93569  0.010019453 0.0084078412            2 
 4866000   0.46531596   -8.9276716    586.24057  0.010039741 0.0084049909            3 
 4867000   0.47228332   -8.9086634    586.56275  0.010043195 0.0084021411            5 
 4868000   0.48116838   -8.9099768    585.70041   0.01002637 0.0083992957            4 
 4869000   0.48168657   -8.9105523    585.51322  0.010021107 0.0083964498            5 
 4870000   0.48303125   -8.9083173    586.44678  0.010035024 0.0083936088            5 
 4871000   0.46217583   -8.9195505    585.70296  0.010020238 0.0083907671            3 
 4872000   0.47864989   -8.9212331    585.98647  0.010023031 0.0083879272            5 
 4873000   0.47071917   -8.9189856    586.32487  0.010026761 0.0083850867            2 
 4874000   0.46799523   -8.9192868    586.07714  0.010020468 0.0083822507            2 
 4875000   0.46622359   -8.9268849    585.40461  0.010006916 0.0083794119            1 
 4876000    0.4711512   -8.9080391    584.96008  0.009997267 0.0083765767            2 
 4877000   0.47021753   -8.9329323    585.81395  0.010009807 0.0083737426            3 
 4878000   0.46934383   -8.8944235    586.48055  0.010019143  0.008370909            2 
 4879000   0.45419347   -8.9222341     585.3858  0.009998391 0.0083680776            2 
 4880000   0.46556097   -8.9106539    585.86688  0.010004557 0.0083652464            1 
 4881000   0.47122879   -8.9202741    585.44226 0.0099952581 0.0083624163            4 
 4882000   0.46958035   -8.9112055    585.82027 0.0099996633 0.0083595875            4 
 4883000   0.47105275    -8.916605     585.7143 0.0099958068 0.0083567629            2 
 4884000   0.47272398   -8.9105097    586.20852  0.010002193 0.0083539384            3 
 4885000    0.4595952   -8.9219253    585.45757 0.0099873348 0.0083511119            3 
 4886000   0.46982301   -8.9073402    585.07788 0.0099788149 0.0083482883            4 
 4887000    0.4704791   -8.9139841    585.10675 0.0099772653 0.0083454653            1 
 4888000   0.46505234   -8.9167161    586.04484 0.0099912173 0.0083426467            3 
 4889000   0.46334122   -8.9281369     585.8997 0.0099866998 0.0083398289            5 
 4890000   0.46941601   -8.9190915    585.33674 0.0099750637 0.0083370104            2 
 4891000   0.47021273   -8.9071342    585.86185 0.0099819711  0.008334193            7 
 4892000   0.46364456   -8.9187982    585.32012 0.0099707025 0.0083313758            1 
 4893000   0.47333096   -8.9191591    586.19852 0.0099836249 0.0083285608            3 
 4894000   0.47661661   -8.9117921    585.31469 0.0099665354 0.0083257497            3 
 4895000   0.47039335     -8.91164     586.1034 0.0099779264 0.0083229381            5 
 4896000   0.46032375   -8.9034364    586.22398 0.0099779409 0.0083201267            4 
 4897000   0.46372378   -8.9237985    585.59133 0.0099651374 0.0083173173            4 
 4898000   0.46976862   -8.9181734    585.67422 0.0099645131 0.0083145071            3 
 4899000   0.46763755   -8.9032981    585.74911 0.0099637529 0.0083116982            3 
 4900000   0.46444104   -8.9194386    584.90184 0.0099473102 0.0083088897            6 
 4901000   0.47459708   -8.9214197    586.05954 0.0099649652 0.0083060828            3 
 4902000   0.47038627   -8.9160725    586.12363  0.009964022   0.00830328            2 
 4903000   0.45271575   -8.9068521    585.36279 0.0099490582 0.0083004778            3 
 4904000   0.47908871   -8.9085067    586.00313 0.0099579107 0.0082976796            3 
 4905000   0.46790619   -8.9208841    585.10264 0.0099405818 0.0082948797            4 
 4906000     0.465369   -8.9194252    584.72485 0.0099321384 0.0082920817            2 
 4907000    0.4708496   -8.9322713    585.42168 0.0099419482  0.008289286            2 
 4908000   0.46863324   -8.9249983     584.9801 0.0099324249 0.0082864892            3 
 4909000   0.46790594   -8.9078563    585.76226 0.0099436792 0.0082836951            3 
 4910000   0.46457319   -8.9243278    585.49928 0.0099371908 0.0082809018            3 
 4911000   0.45267282   -8.9259964    586.62152 0.0099542103 0.0082781084            3 
 4912000   0.47818501   -8.9098181    586.14646 0.0099441243 0.0082753155            4 
 4913000   0.46748427   -8.9196175     586.3894  0.009946221 0.0082725267            4 
 4914000   0.46663251   -8.9243652     585.3107 0.0099259039 0.0082697379            5 
 4915000   0.46137779   -8.9183516    585.55644 0.0099280509  0.008266952            4 
 4916000   0.46061195   -8.9339745    585.90485 0.0099319375  0.008264165            1 
 4917000   0.46671443   -8.9238382    585.18464 0.0099177113 0.0082613786            2 
 4918000   0.46576708   -8.9186842    585.80477 0.0099262025 0.0082585938            7 
 4919000   0.47508231    -8.928988     586.0169 0.0099277783 0.0082558081            2 
 4920000   0.46267146    -8.929163      585.583 0.0099184112 0.0082530241            4 
 4921000   0.46699472   -8.9144278    585.51328 0.0099152151 0.0082502407            3 
 4922000   0.46861309   -8.9261816    584.77664 0.0099007287 0.0082474588            3 
 4923000   0.47729257   -8.9289202    585.51873 0.0099112792 0.0082446802            2 
 4924000   0.46564154   -8.9244056    585.24566 0.0099046449 0.0082419021            7 
 4925000   0.47635842   -8.9238852    584.70736 0.0098935256 0.0082391224            3 
 4926000   0.45516025    -8.920222    584.98501 0.0098962141  0.008236344            4 
 4927000   0.46659435   -8.9229744    585.54337 0.0099036494 0.0082335678            4 
 4928000   0.45838462   -8.9182137    585.71116 0.0099044771 0.0082307936            2 
 4929000   0.46695678   -8.9125919    585.89926 0.0099056479 0.0082280226            3 
 4930000   0.45743025   -8.9155235    585.53611 0.0098975001 0.0082252523            3 
 4931000   0.46781212   -8.9258533    586.16097 0.0099060531 0.0082224806            4 
 4932000   0.46712945   -8.9167264    584.92016 0.0098830792  0.008219711            3 
 4933000   0.46452578   -8.9381033    585.79945 0.0098959296 0.0082169421            3 
 4934000   0.47237986   -8.9289933    585.79225 0.0098938024 0.0082141777            4 
 4935000   0.46224576   -8.9371199    584.88701 0.0098765115  0.008211411            3 
 4936000   0.46091682   -8.9305966    585.67769 0.0098878594 0.0082086472            3 
 4937000   0.46217729   -8.9215023    584.76599 0.0098704677 0.0082058838            4 
 4938000   0.46193889   -8.9252784    585.86682 0.0098870464 0.0082031194            4 
 4939000   0.46045113   -8.9260238    585.54025 0.0098795345 0.0082003569            1 
 4940000    0.4578816   -8.9284294    585.43739 0.0098757995 0.0081975972            3 
 4941000   0.47043455   -8.9068135     585.1936  0.009869689  0.008194838            2 
 4942000     0.469114   -8.9443931    585.91057 0.0098797816 0.0081920813            6 
 4943000   0.47287918   -8.9284427    584.97571 0.0098620222 0.0081893264            5 
 4944000   0.45969797   -8.9405446    584.84988 0.0098579066 0.0081865732            7 
 4945000    0.4528021   -8.9284496    585.30629 0.0098636044 0.0081838189            3 
 4946000   0.44605313   -8.9120275    585.51597  0.009865143 0.0081810683            2 
 4947000   0.46411043   -8.9292957     585.7714 0.0098674517 0.0081783173            2 
 4948000     0.472233   -8.9187978     585.7529 0.0098651459 0.0081755698            4 
 4949000   0.46267145   -8.9373032    586.09806 0.0098689644 0.0081728203            7 
 4950000   0.45869506   -8.9112546    585.75263 0.0098611553 0.0081700719            3 
 4951000   0.46495876   -8.9263387     585.9249 0.0098620632 0.0081673238            4 
 4952000   0.46374417   -8.9355443    586.34539 0.0098671479 0.0081645785            4 
 4953000   0.45836239   -8.9274067    584.96273 0.0098418927 0.0081618313            4 
 4954000   0.45837477   -8.9275668    585.19572 0.0098438252 0.0081590881            6 
 4955000   0.46310395   -8.9418946    585.70535 0.0098504096 0.0081563445            4 
 4956000   0.45347884   -8.9311606    585.59133 0.0098465048  0.008153603            4 
 4957000   0.46323594   -8.9267198    585.11577 0.0098365235 0.0081508615            4 
 4958000   0.45761801   -8.9179663    585.90239  0.009847761 0.0081481228           10 
 4959000   0.45780196   -8.9269192    584.86812 0.0098283949 0.0081453846            4 
 4960000   0.45135829   -8.9305553    584.42497  0.009818968 0.0081426483            6 
 4961000   0.44630801   -8.9289666    585.84995  0.009840925 0.0081399145            4 
 4962000   0.45603909   -8.9265982    586.25174 0.0098456895 0.0081371796            3 
 4963000   0.45940853   -8.9373042    584.10003 0.0098075766 0.0081344467            2 
 4964000   0.47010305   -8.9387766    584.96868 0.0098201833 0.0081317133            4 
 4965000   0.45399461   -8.9278337    584.09557  0.009803551 0.0081289823            3 
 4966000   0.45709114    -8.933592    585.61475 0.0098270699  0.008126251            3 
 4967000   0.45070987   -8.9397789    584.72883 0.0098102279 0.0081235225            2 
 4968000   0.45870481   -8.9453903    585.30474 0.0098179136 0.0081207954            4 
 4969000   0.45535719   -8.9466324    584.89825 0.0098091207  0.008118066            4 
 4970000   0.46855065   -8.9444132    583.80255 0.0097887752 0.0081153411            3 
 4971000    0.4601217   -8.9368819    584.88781 0.0098049992 0.0081126172            3 
 4972000   0.45051003   -8.9298681    586.37563 0.0098279637  0.008109894            6 
 4973000   0.45810561   -8.9295863    584.63782 0.0097968668 0.0081071725            4 
 4974000   0.45971003   -8.9254454    584.72983 0.0097964386  0.008104453            3 
 4975000   0.44880043    -8.936499    585.96169 0.0098151037 0.0081017325            2 
 4976000   0.44219731   -8.9393183    584.78419 0.0097934115 0.0080990136            5 
 4977000   0.45356353   -8.9372108    585.17598 0.0097980039 0.0080962957            5 
 4978000   0.45920764    -8.938381    585.03688  0.009793707 0.0080935818            2 
 4979000   0.44570466   -8.9451481    584.66359 0.0097854923 0.0080908661            4 
 4980000   0.45092689   -8.9400334    584.94734 0.0097882755 0.0080881533            3 
 4981000   0.46241882   -8.9377612    585.03925 0.0097878479 0.0080854398            4 
 4982000   0.45240995   -8.9408783    584.59571 0.0097784643 0.0080827275            3 
 4983000   0.45668734    -8.956554    584.88253 0.0097812986 0.0080800198            4 
 4984000   0.44585704   -8.9417187    585.16147     0.009784 0.0080773106            2 
 4985000   0.45686145   -8.9322934    585.69346 0.0097909304 0.0080746029            4 
 4986000   0.44990433   -8.9393974     584.9717 0.0097769037 0.0080718953            3 
 4987000     0.443121   -8.9356935    584.93841 0.0097743869 0.0080691879            3 
 4988000   0.46417796    -8.950765    584.77921 0.0097697676 0.0080664834            3 
 4989000   0.46212345   -8.9410976    585.61994 0.0097818524 0.0080637823            3 
 4990000   0.45118723   -8.9463511    584.53404 0.0097617575 0.0080610809            2 
 4991000     0.447486   -8.9388782    585.32443 0.0097729986 0.0080583808            4 
 4992000   0.44858351    -8.961308    584.85145 0.0097631452 0.0080556797            2 
 4993000   0.43854967    -8.946274    584.78168 0.0097600253   0.00805298            2 
 4994000   0.46126858   -8.9583313    583.64872 0.0097391656 0.0080502819            3 
 4995000   0.45870822   -8.9493413    584.36756 0.0097492085 0.0080475849            6 
 4996000    0.4532219   -8.9246421    584.23531 0.0097450513 0.0080448885            4 
 4997000   0.44949149   -8.9467994    584.93378 0.0097547493  0.008042199            4 
 4998000   0.45462774   -8.9519881    584.81865 0.0097508779 0.0080395066            4 
 4999000   0.44954858   -8.9365463    585.66936 0.0097631086  0.008036816            4 
 5000000   0.45572958   -8.9435155    584.91728 0.0097486213 0.0080341261            3 
 5001000   0.44525754   -8.9376934    584.37052 0.0097375611 0.0080314361            3 
 5002000   0.45646169   -8.9497212    584.97908 0.0097457531  0.008028748            5 
 5003000   0.45557181   -8.9341259     584.8913 0.0097423429 0.0080260614            1 
 5004000    0.4514151   -8.9399897    585.24484 0.0097462837  0.008023375            3 
 5005000   0.45543508    -8.942145    584.69538 0.0097351878 0.0080206925            2 
 5006000   0.45718111   -8.9397785    585.45613 0.0097459071 0.0080180086            3 
 5007000   0.44288077   -8.9444668     584.9657 0.0097357983 0.0080153284            2 
 5008000    0.4444579   -8.9344036    585.80107 0.0097477548 0.0080126483            3 
 5009000   0.45112651   -8.9399163    585.53599 0.0097413986 0.0080099706            1 
 5010000   0.45579129   -8.9466153    585.03605 0.0097311385 0.0080072924            2 
 5011000   0.44946707   -8.9417761    584.95346 0.0097278231 0.0080046164            3 
 5012000   0.45229798   -8.9345063    585.19253 0.0097298573 0.0080019412            4 
Loop time of 12316.7 on 48 procs for 5000000 steps with 4000 atoms

Performance: 70148.645 tau/day, 405.953 timesteps/s
99.4% CPU use with 48 MPI tasks x no OpenMP threads

MPI task timing breakdown:
Section |  min time  |  avg time  |  max time  |%varavg| %total
---------------------------------------------------------------
Pair    | 807.77     | 865.89     | 915.31     | 106.4 |  7.03
Neigh   | 80.593     | 84.239     | 88.226     |  20.6 |  0.68
Comm    | 789.31     | 844.3      | 909.18     | 112.2 |  6.85
Output  | 13.955     | 13.96      | 14.041     |   0.3 |  0.11
Modify  | 10369      | 10396      | 10424      |  11.8 | 84.41
Other   |            | 112.2      |            |       |  0.91

Nlocal:        83.3333 ave          89 max          74 min
Histogram: 1 0 2 2 10 5 9 5 8 6
Nghost:        2156.56 ave        2171 max        2136 min
Histogram: 2 3 5 5 5 4 2 3 12 7
Neighs:        14224.4 ave       15580 max       11881 min
Histogram: 1 0 1 5 4 13 7 6 4 7
FullNghs:      28450.2 ave       30457 max       25091 min
Histogram: 1 0 1 3 9 10 6 8 4 6

Total # of neighbors = 1365611
Ave neighs/atom = 341.40275
Neighbor list builds = 267170
Dangerous builds = 0

#clear
#
#next RN
#
#jump SELF
Total wall time: 3:25:20
