
units lj                  # Use reduced LJ style units
atom_style atomic         # Uncharged point particles
atom_modify map hash      # Needed for indexing of clusters etc
                          # Used to be able to find where atoms are in relation to each other.

lattice fcc 1.0 spacing 1 1 1
Lattice spacing in x,y,z = 1.5874011 1.5874011 1.5874011
region box block 0 10 0 10 0 10 units lattice
create_box 2 box
Created orthogonal box = (0.0000000 0.0000000 0.0000000) to (15.874011 15.874011 15.874011)
  3 by 4 by 4 MPI processor grid
create_atoms 1 box
Created 4000 atoms
  using lattice units in orthogonal box = (0.0000000 0.0000000 0.0000000) to (15.874011 15.874011 15.874011)
  create_atoms CPU = 0.016 seconds
set type 1 type/fraction 2 0.03 78393
Setting atom values ...
  125 settings made for type/fraction
mass 1 1.0
mass 2 1.0
pair_style lj/cut  3.5
pair_modify tail  yes
pair_coeff 1  1  1.0  1.0   # Intearaction between 1 and 1 set with epsilon = 1 and sigma = 1
pair_coeff 1  2  1.5  0.8
pair_coeff 2  2  0.5  0.88

write_data data.0
System init for write_data ...
Neighbor list info ...
  update every 1 steps, delay 10 steps, check yes
  max neighbors/atom: 2000, page size: 100000
  master list distance cutoff = 3.8
  ghost atom cutoff = 3.8
  binsize = 1.9, bins = 9 9 9
  1 neighbor lists, perpetual/occasional/extra = 1 0 0
  (1) pair lj/cut, perpetual
      attributes: half, newton on
      pair build: half/bin/atomonly/newton
      stencil: half/bin/3d
      bin: standard
WARNING: Not all mixed pair coeffs generated from mixing. Use write_data with 'pair ij' option to store all pair coeffs. (../write_data.cpp:312)


#############################
#   M E L T   S Y S T E M   #
#############################

velocity all create 2.4 5833274 mom yes dist gaussian # Assign velocities
                                                    # Temperature 2.4, random number seed, zero linear momentum
                                                                                # Gaussian distribution

timestep 0.002   # simulation timestep
thermo 1000       # output thermodynamic data every 1000 steps bf 100

# Define a fix  in this case with index 1 applied to all
# particles in the simulation. This fix is for simulations
# in the anisotropic NPT ensemble. Note that we use the MTK
# correction.
fix 1 all npt temp 2.4 2.4 0.1 iso 5.68 5.68 0.5 mtk yes tchain 5 pchain 5 # Use NPT ensemble
                                                                         # Set temperature and pressure and damping
                                                                         # Numbers of thermostats in chain and in barostat
run 10000          # run for 10000 steps
Per MPI rank memory allocation (min/avg/max) = 3.642 | 3.644 | 3.648 Mbytes
Step Temp E_pair E_mol TotEng Press Volume 
       0          2.4    -8.178823            0    -4.579723   -2.4950487         4000 
    1000    2.3893261   -4.4703059            0  -0.88721276    5.6822934    5092.7353 
    2000     2.379007   -4.3611581            0  -0.79353971    5.6015566    5168.2969 
    3000    2.4412383   -4.4559411            0  -0.79499911    5.5066982    5137.1834 
    4000    2.3861459   -4.3959269            0  -0.81760286    5.8680721     5109.711 
    5000    2.3946829   -4.4905731            0  -0.89944686    5.7930375    5060.1668 
    6000    2.4428877   -4.3345992            0   -0.6711837    5.9461229    5145.2909 
    7000    2.3953139   -4.4037358            0  -0.81166329    5.7358171    5120.8894 
    8000    2.3529016   -4.4966449            0  -0.96817489    5.6758794    5069.2079 
    9000    2.3686974   -4.4446195            0  -0.89246165    5.9168161    5072.1975 
   10000    2.3749128   -4.4107272            0  -0.84924855    5.7597651    5113.0597 
Loop time of 2.10008 on 48 procs for 10000 steps with 4000 atoms

Performance: 822824.996 tau/day, 4761.719 timesteps/s
99.6% CPU use with 48 MPI tasks x no OpenMP threads

MPI task timing breakdown:
Section |  min time  |  avg time  |  max time  |%varavg| %total
---------------------------------------------------------------
Pair    | 0.862      | 0.9298     | 1.0387     |   3.6 | 44.27
Neigh   | 0.16791    | 0.17475    | 0.19788    |   1.3 |  8.32
Comm    | 0.57832    | 0.73136    | 0.81329    |   5.8 | 34.83
Output  | 0.00024538 | 0.00025103 | 0.00031644 |   0.0 |  0.01
Modify  | 0.21679    | 0.24904    | 0.2993     |   3.9 | 11.86
Other   |            | 0.01488    |            |       |  0.71

Nlocal:        83.3333 ave          91 max          73 min
Histogram: 1 2 3 2 6 7 16 6 2 3
Nghost:        1391.83 ave        1416 max        1361 min
Histogram: 1 1 2 7 8 8 6 10 3 2
Neighs:        7437.81 ave        8719 max        6275 min
Histogram: 2 1 4 9 11 10 6 2 2 1

Total # of neighbors = 357015
Ave neighs/atom = 89.253750
Neighbor list builds = 901
Dangerous builds = 197

# Equilibrate just above the melting temperature to avoid step fn in T

fix 1 all npt temp 1.25 1.25 0.1 iso 5.68 5.68 0.5 mtk yes tchain 5 pchain 5
run 2000
Per MPI rank memory allocation (min/avg/max) = 3.643 | 3.645 | 3.649 Mbytes
Step Temp E_pair E_mol TotEng Press Volume 
   10000    2.3749128   -4.4107272            0  -0.84924855    5.7597651    5113.0597 
   11000    1.2266621   -5.9514352            0   -4.1119021    5.8092504    4223.2619 
   12000    1.2549686   -5.9696904            0   -4.0877081    5.6847757    4226.5826 
Loop time of 0.449417 on 48 procs for 2000 steps with 4000 atoms

Performance: 768996.037 tau/day, 4450.209 timesteps/s
99.6% CPU use with 48 MPI tasks x no OpenMP threads

MPI task timing breakdown:
Section |  min time  |  avg time  |  max time  |%varavg| %total
---------------------------------------------------------------
Pair    | 0.19796    | 0.21251    | 0.2333     |   1.3 | 47.29
Neigh   | 0.03067    | 0.031956   | 0.033911   |   0.4 |  7.11
Comm    | 0.13749    | 0.15412    | 0.1699     |   1.9 | 34.29
Output  | 4.8731e-05 | 5.026e-05  | 6.4401e-05 |   0.0 |  0.01
Modify  | 0.040278   | 0.046349   | 0.057921   |   1.8 | 10.31
Other   |            | 0.004428   |            |       |  0.99

Nlocal:        83.3333 ave          91 max          78 min
Histogram: 4 2 10 13 2 6 7 1 1 2
Nghost:        1583.90 ave        1610 max        1560 min
Histogram: 2 3 4 8 5 12 6 5 1 2
Neighs:        9006.92 ave        9861 max        8254 min
Histogram: 4 2 6 6 11 6 7 1 3 2

Total # of neighbors = 432332
Ave neighs/atom = 108.08300
Neighbor list builds = 141
Dangerous builds = 8

#############################
# L I N E A R  Q U E N C H  #
#############################

# Define solid atoms. This closely follows ten Wolde  Ruiz-Montero and Frenkel  Faraday Discuss  1996  104  93-110
# Compute components of the per-atom q6 vector
compute q6 all orientorder/atom degrees 1 6 components 6 nnn NULL cutoff 1.3 # compute the Q6 parameter.
                                                                             # Use all neighbours within 1.3 unit cell.

# get number of connections
compute coord_number all coord/atom orientorder q6 0.5

# An atom is solid if it has 8 or more connections (of a possible 14)
variable is_solid atom c_coord_number>=8
group solid dynamic all var is_solid    # Must be dynamic to update
dynamic group solid defined

# do clustering
compute cluster solid cluster/atom 1.3 # Create a cluster where all atoms within are solid and max 1.3 units from another member

# define chunks one chunk per cluster
compute clus_chunks solid chunk/atom c_cluster nchunk every compress yes  # Says which atoms are in which chunk

# count the size of each chunk
compute size_chunks solid property/chunk clus_chunks count


# Find the maximum entry in the vector of chunk sizes
variable max_n equal max(c_size_chunks)


# Thermo style which includes this variable
# thermo_style custom step temp pe vol v_max_n

thermo ${N}  # Print the thermo information every 100 steps
thermo 1000  

# Reset the npt fix at a lower temperature (below freezing)
fix 1  all npt temp  ${temp} ${temp}  0.1  iso  5.68  5.68  0.5  mtk yes tchain  5  pchain  5
fix 1  all npt temp  0.45 ${temp}  0.1  iso  5.68  5.68  0.5  mtk yes tchain  5  pchain  5
fix 1  all npt temp  0.45 0.45  0.1  iso  5.68  5.68  0.5  mtk yes tchain  5  pchain  5

dump dmp2 all dcd ${N} traj.dcd
dump dmp2 all dcd 1000 traj.dcd


compute msd all msd com yes
variable twopoint equal c_msd[4]/6/(step*dt+1.0e-6)
fix 9 all vector 10 c_msd[4]
variable fit equal slope(f_9)/6/(10*dt)
thermo_style custom step temp pe c_msd[4] v_twopoint v_fit v_max_n

fix 1 all npt temp 1.25 ${temp} 0.1 iso 5.68 5.68 0.5 mtk yes tchain 5 pchain 5
fix 1 all npt temp 1.25 0.45 0.1 iso 5.68 5.68 0.5 mtk yes tchain 5 pchain 5
run 500000 # 5000000  # Run for this many steps
Neighbor list info ...
  update every 1 steps, delay 10 steps, check yes
  max neighbors/atom: 2000, page size: 100000
  master list distance cutoff = 3.8
  ghost atom cutoff = 3.8
  binsize = 1.9, bins = 9 9 9
  4 neighbor lists, perpetual/occasional/extra = 1 3 0
  (1) pair lj/cut, perpetual
      attributes: half, newton on
      pair build: half/bin/atomonly/newton
      stencil: half/bin/3d
      bin: standard
  (2) compute orientorder/atom, occasional
      attributes: full, newton on
      pair build: full/bin/atomonly
      stencil: full/bin/3d
      bin: standard
  (3) compute coord/atom, occasional
      attributes: full, newton on
      pair build: full/bin/atomonly
      stencil: full/bin/3d
      bin: standard
  (4) compute cluster/atom, occasional
      attributes: full, newton on
      pair build: full/bin/atomonly
      stencil: full/bin/3d
      bin: standard
Per MPI rank memory allocation (min/avg/max) = 9.734 | 9.740 | 9.744 Mbytes
Step Temp PotEng c_msd[4] v_twopoint v_fit v_max_n 
   12000    1.2549686   -5.9696904 8.626194e-31 5.9904122e-33 8.3333333e+20            3 
   13000    1.2505338   -5.9362887   0.56362121 0.0036129563  0.046885305            4 
   14000    1.2649604   -5.9675621    1.0728723 0.0063861443  0.044300343            4 
   15000    1.2278421   -5.9507176    1.6441627 0.0091342369  0.043940214            5 
   16000    1.2386806   -5.9996777    2.1649481  0.011275771  0.044939935            4 
   17000    1.2305269   -5.9429744    2.7277411   0.01337128  0.045039733            6 
   18000    1.2279947   -5.9528424    3.2134177  0.014876934  0.044874433            3 
   19000    1.2193319   -5.9889693     3.702777   0.01624025  0.044600273            3 
   20000    1.2311536   -5.9830221    4.1804996  0.017418748  0.044016841            4 
   21000    1.2268504   -5.9774798    4.7198629  0.018729614   0.04363263            2 
   22000    1.2498629   -6.0178307    5.2973253  0.020065626  0.043458845            2 
   23000    1.2190623   -5.9553828    5.9085555  0.021407809  0.043751315            2 
   24000    1.2453848   -5.9623033    6.5254157  0.022657693  0.044272279            3 
   25000    1.2428892   -5.9815998    7.1293349  0.023764449  0.044726709            2 
   26000    1.2395563   -5.9694726    7.7127776  0.024720441  0.045178829            4 
   27000    1.2220151   -6.0194875    8.2969494  0.025607868  0.045580648            3 
   28000    1.2197646   -5.9987684    8.9125505  0.026525447  0.045876877            3 
   29000    1.2321248   -5.9694451    9.3478021    0.0268615  0.046060895            3 
   30000    1.2173218   -5.9812721     9.823834  0.027288427  0.046044566            2 
   31000    1.2194258    -6.005741    10.258513  0.027576649  0.045910794            2 
   32000    1.2183001   -6.0138469     10.75057  0.027996276  0.045724325            3 
   33000    1.2094078   -5.9759153    11.291584    0.0285141  0.045515066            5 
   34000    1.2295878   -6.0104609    11.772026  0.028853004  0.045310688            2 
   35000    1.2266982   -5.9603987    12.220291   0.02909593  0.045107584            4 
   36000    1.2185717   -6.0283396    12.862682  0.029774725  0.044986744            3 
   37000    1.2134927   -6.0106324     13.45587  0.030306013  0.044920466            3 
   38000    1.2120661   -6.0422527    13.903853  0.030490904  0.044872347            2 
   39000    1.2060481    -5.983496    14.402281  0.030774104  0.044798675            2 
   40000    1.1913715   -6.0236872    14.885039  0.031010497  0.044712994            4 
   41000    1.2046394   -6.0570559     15.44049  0.031383109  0.044625049            3 
   42000    1.2032587   -6.0736095    15.866105  0.031480367  0.044502094            2 
   43000    1.2000262    -6.046845    16.340503  0.031667641  0.044373679            3 
   44000     1.219879   -6.0283809     16.96023  0.032121647  0.044259743            5 
   45000     1.208217   -6.0608744    17.563685  0.032525343  0.044215251            5 
   46000    1.1930063   -6.0409854    18.137784  0.032858303  0.044223823            4 
   47000    1.2309657   -6.0193455    18.634466  0.033039833  0.044222023            4 
   48000    1.1784853   -6.0445101    19.025478  0.033030343  0.044192717            3 
   49000     1.180554   -6.0512306    19.664519  0.033443059  0.044159267            2 
   50000    1.1833914   -6.0961706    20.252539  0.033754232  0.044150439            5 
   51000    1.1945979   -6.0397367    20.804545  0.033994354  0.044165632            2 
   52000    1.1897863   -6.0254039    21.344109  0.034205302  0.044179498            6 
   53000    1.1645044   -6.0602232     21.86416  0.034377609  0.044186774            3 
   54000    1.1840255   -6.0282555    22.361421  0.034508365   0.04417173            5 
   55000    1.1896114   -6.0546289    22.621216  0.034274569  0.044130938            2 
   56000    1.1812943   -6.0997181    23.219936  0.034553476  0.044077283            3 
   57000     1.183025    -6.066761    23.720676  0.034679351  0.044043533            3 
   58000    1.1861221    -6.080906    24.004388  0.034489063  0.043976728            3 
   59000    1.1778296   -6.1125768    24.541262  0.034662799  0.043889604            4 
   60000    1.1502107   -6.0950361    25.203476  0.035004827   0.04381284            2 
   61000    1.1757208   -6.0657435    25.669968  0.035068263  0.043756747            3 
   62000    1.1852061   -6.1405309    26.075815  0.035048138  0.043702379            4 
   63000    1.1555091   -6.0858653    26.714958  0.035337246  0.043658547            8 
   64000    1.1828199   -6.0697192    27.041426   0.03521019  0.043604224            3 
   65000    1.1554004   -6.0715978    27.599424  0.035383876  0.043533524            3 
   66000    1.1590746   -6.0905143    28.035119  0.035397877  0.043471212            2 
   67000    1.1754747   -6.1257252    28.599904   0.03557202  0.043416236            5 
   68000    1.1432668   -6.1003956     29.14307  0.035714546  0.043370014            4 
   69000    1.1579585   -6.1097056    29.397138   0.03550379  0.043321813            2 
   70000    1.1654108   -6.1033226    29.983236  0.035694328  0.043252035            5 
   71000    1.1478802   -6.1016737    30.318804   0.03558545  0.043176086            2 
   72000    1.1717199   -6.1078952    30.852787  0.035709244   0.04309757            4 
   73000     1.144063   -6.0928121    31.248554  0.035671865  0.043022437            3 
   74000    1.1476268   -6.1302164    31.675933  0.035671096  0.042933846            4 
   75000    1.1596821   -6.1513871    32.085541    0.0356506  0.042846003            5 
   76000    1.1614862    -6.161973    32.652023  0.035802656  0.042766338            3 
   77000    1.1035174   -6.1234543      33.0973  0.035819588  0.042696251            6 
   78000    1.1499577   -6.1015946    33.517389  0.035809176  0.042623701            3 
   79000    1.1474007   -6.1418829    33.817154  0.035672103   0.04254498            3 
   80000    1.1352415    -6.151428    34.372483   0.03580467  0.042455385            2 
   81000    1.1536926   -6.1706871    34.872216  0.035876765  0.042375542            5 
   82000    1.1243748      -6.1217    34.987792  0.035556699  0.042285137            5 
   83000    1.1172829    -6.173665    35.070497  0.035211343  0.042169159            3 
   84000    1.1320497   -6.1285901    35.600457  0.035317914  0.042031181            2 
   85000     1.133331   -6.1497655    35.817263  0.035114963  0.041892627            7 
   86000    1.1269807   -6.1038594    36.311928  0.035185977  0.041763294            8 
   87000     1.130225   -6.1681849    36.683894  0.035137829   0.04163448            5 
   88000    1.1024845   -6.1348918    37.250518  0.035275112  0.041515944            4 
   89000    1.1374848   -6.1845015    37.708644  0.035307719  0.041400967            2 
   90000    1.1105243   -6.1893877    38.190909  0.035361953   0.04129153            5 
   91000     1.110454   -6.1827512     38.54472  0.035297362  0.041180111            5 
   92000    1.1579581   -6.1818821    38.976523  0.035304821   0.04106473            2 
   93000    1.1180028   -6.1692064    39.362339  0.035270913  0.040949253            4 
   94000    1.1586984   -6.1806538     39.55903  0.035070061  0.040831618            7 
   95000    1.1374273   -6.1682788    39.882434  0.034984591  0.040710978            6 
   96000    1.1088006   -6.1734632    40.251643  0.034940662  0.040589871            4 
   97000     1.112757   -6.1919453    40.771917   0.03502742  0.040475234            2 
   98000    1.1235516    -6.200129    41.401519  0.035205373  0.040373106            3 
   99000    1.1087782   -6.1729373     41.97747   0.03533457  0.040276357            5 
  100000    1.0899625   -6.1485593    42.405471  0.035337892  0.040194654            7 
  101000    1.1431926   -6.1947079    42.677247   0.03521225  0.040117453            5 
  102000    1.1071546   -6.1824097    43.340815  0.035409163   0.04003706            4 
  103000    1.1032737   -6.2275387    43.682917  0.035342165  0.039966372            2 
  104000    1.0976805   -6.2209509      43.9578  0.035222596  0.039890086            4 
  105000    1.1190878   -6.1906808    44.519347  0.035332815  0.039816357            2 
  106000    1.1056131   -6.2414963    45.013454  0.035387935  0.039747724            3 
  107000    1.1068768   -6.2020387    45.373037  0.035337256  0.039680583            5 
  108000    1.0761215   -6.2277898    45.585664  0.035174123  0.039609806            4 
  109000    1.1024051   -6.1956231    46.191516  0.035314614  0.039534417            5 
  110000    1.1069638   -6.2033651    46.646546  0.035338293  0.039461671            5 
  111000    1.0888324   -6.2351558    46.991235  0.035278705  0.039392608            4 
  112000    1.0935064    -6.209668    47.184379  0.035107425  0.039319684            4 
  113000    1.0644534   -6.2118853    47.569941  0.035081077  0.039243465            5 
  114000    1.0813473   -6.2128819    47.734996  0.034894003   0.03916088            3 
  115000    1.0833509   -6.2261367    48.172624  0.034907699  0.039075903            5 
  116000     1.094504   -6.2334268     48.58888  0.034905805  0.038992373            5 
  117000    1.0627318   -6.2290016    48.968873  0.034878114  0.038913207            5 
  118000    1.0853703   -6.2634143    49.178754  0.034730759  0.038832533            3 
  119000    1.0425566   -6.2342739    49.468801  0.034642017  0.038751003            4 
  120000    1.0859956   -6.2315811    49.586585  0.034435128  0.038661533            6 
  121000    1.0843376   -6.2764416    50.096519  0.034501735   0.03856587            4 
  122000     1.074498   -6.2907561    50.493534  0.034490119  0.038475879            5 
  123000     1.037519   -6.2708103    51.004217  0.034555702  0.038392034            6 
  124000    1.0638669   -6.2535301    51.388317  0.034535159  0.038310171            4 
  125000    1.0695354   -6.2753166    51.819912  0.034546608  0.038228805            4 
  126000    1.0446477   -6.2243394    52.321437  0.034604125  0.038153005            4 
  127000    1.0601027   -6.2622225    52.629886  0.034534046  0.038079709            2 
  128000     1.104507   -6.2700796    53.096337  0.034567928  0.038010167            4 
  129000    1.0737425   -6.2589251    53.640178  0.034651278  0.037943662            2 
  130000    1.0661697   -6.2871431    53.701922  0.034424309  0.037874481            4 
  131000    1.0510448   -6.2790715    54.057675  0.034387834  0.037802986           11 
  132000    1.0438529   -6.2660684    54.309697  0.034286425  0.037728607            4 
  133000    1.0695354   -6.3201044    54.798886  0.034335142  0.037651055            8 
  134000    1.0559902   -6.3003156    55.287456  0.034382746  0.037576632            2 
  135000    1.0879293   -6.2792145    55.394251  0.034193982  0.037503802            4 
  136000    1.0403626   -6.2984922    55.795523  0.034188433  0.037428065            6 
  137000    1.0827398   -6.3139852     56.18517  0.034175894  0.037361407            5 
  138000    1.0394563   -6.2659174    56.690856  0.034233608  0.037291591            2 
  139000    1.0382719   -6.2899082    56.777352   0.03403918  0.037219052           13 
  140000    1.0389244   -6.2802837    57.128913  0.034005305  0.037142703            5 
  141000    1.0205332   -6.3084949    57.224494  0.033820623  0.037064688            4 
  142000    1.0353297   -6.3025174    57.519405   0.03375552  0.036985408            5 
  143000    1.0189946   -6.3433608    57.626937  0.033582131  0.036901481           10 
  144000    1.0504676   -6.3064283    58.099536  0.033622416  0.036817798            3 
  145000    1.0156255   -6.3437375    58.542063  0.033644863  0.036737443            6 
  146000      1.04294   -6.3043676    58.877172  0.033605692  0.036657919            4 
  147000    1.0399237   -6.3254467    59.248274  0.033587457  0.036576829            3 
  148000    1.0542597   -6.3590286    59.405222  0.033448886  0.036496064            5 
  149000    1.0285124   -6.3283867    59.658256  0.033365915  0.036415371            5 
  150000    1.0337548   -6.3656569    59.980984  0.033322769  0.036331917            6 
  151000    1.0076895   -6.3065993    60.261227  0.033256748  0.036251932            7 
  152000    1.0521604   -6.3633419    60.412023  0.033120627  0.036170185           12 
  153000    1.0323373    -6.363398    60.879094  0.033158548  0.036086817            2 
  154000    1.0322473   -6.3628923    60.949456  0.032981307  0.036003315           11 
  155000    1.0185624   -6.3326179    61.595146   0.03311567  0.035919855            7 
  156000    1.0418715   -6.3894598    61.664414  0.032940392  0.035838002            4 
  157000     1.015928   -6.3310113    62.054793  0.032937788  0.035753238            2 
  158000    1.0123667   -6.3639585      62.1429  0.032775791   0.03566664            8 
  159000    1.0231525   -6.3858282    62.709957  0.032866854  0.035582388            4 
  160000   0.99308824   -6.3815418    62.916411  0.032768964  0.035502317            4 
  161000    1.0081265   -6.3617656    63.279819  0.032753529  0.035423558           12 
  162000    1.0154165   -6.3582452    63.707242  0.032771215  0.035347115            8 
  163000   0.99716134    -6.385952    63.993929  0.032716732  0.035272041            3 
  164000    1.0014111   -6.4036423    64.202991  0.032623471  0.035194578            5 
  165000    1.0086939   -6.3885545      64.4577  0.032554394  0.035116901            6 
  166000    1.0040934   -6.3907892    64.511739  0.032385411  0.035036017            4 
  167000   0.99599701   -6.3788817     64.92339  0.032396901  0.034954736            6 
  168000    1.0007762   -6.4015777    64.790219  0.032138005  0.034870136            4 
  169000   0.99578418   -6.3658757    64.992719  0.032047692  0.034783772            3 
  170000   0.97132817   -6.3952079    65.505026  0.032110307  0.034697378            7 
  171000    0.9707634   -6.3906842    65.820689  0.032076359  0.034613413            6 
  172000   0.98864292   -6.3918849    66.046533  0.031999289  0.034530338            6 
  173000   0.99580002   -6.4014368    66.319666  0.031945889  0.034446585            2 
  174000   0.99755182   -6.3883073    66.680227  0.031934974  0.034363917           10 
  175000   0.99308829   -6.3998752    66.946785  0.031879421  0.034284161            4 
  176000   0.98729829   -6.3749111    67.337845  0.031883449  0.034204436            9 
  177000   0.97445101   -6.4170138    67.546947  0.031801764  0.034125946            3 
  178000   0.98378546   -6.3783183    67.922082  0.031798727  0.034050154            5 
  179000    0.9803945   -6.4034641    68.104653  0.031706077  0.033972574            5 
  180000   0.96627619   -6.4352486    68.693262  0.031802436  0.033898188            6 
  181000   0.97642277   -6.4032955    68.951778  0.031745754  0.033824485            7 
  182000   0.95432712   -6.4420713    68.963307  0.031576606  0.033749402            7 
  183000   0.98581929   -6.4240937     69.02856   0.03143377  0.033670043            9 
  184000   0.99115332   -6.4349858     69.21709   0.03134832  0.033588429            5 
  185000   0.96135353   -6.3991127    69.250517  0.031193926  0.033506332            4 
  186000   0.99128024   -6.4429035     69.61437  0.031189234  0.033424171            3 
  187000     0.966677   -6.4595943    70.121769   0.03124856   0.03334494            5 
  188000   0.96519775   -6.4448621    70.297044  0.031160037  0.033266587            4 
  189000   0.99772828   -6.4544595     70.42826  0.031053025  0.033187758            7 
  190000   0.96344961   -6.4829179    70.737675  0.031025296  0.033110397           11 
  191000   0.97133268    -6.452492     71.03798  0.030993883  0.033031748            7 
  192000   0.96083772   -6.4812707    71.244712  0.030922184  0.032955238           13 
  193000   0.95115298   -6.4790361    71.723868  0.030968855  0.032879572           14 
  194000   0.96757084   -6.4532617    71.824079  0.030852268  0.032804307            8 
  195000   0.94940466   -6.4571272     71.93343  0.030740782  0.032727934            3 
  196000   0.94028459   -6.4682722    72.265662  0.030725196  0.032650563            4 
  197000   0.93389502   -6.5036987    72.436769  0.030641611  0.032572766            9 
  198000   0.94668047   -6.4860834     72.49367  0.030510804  0.032494144            8 
  199000   0.94360774   -6.4989883    72.527495  0.030371648   0.03241416            9 
  200000   0.96656848   -6.4658945    73.070581  0.030446075  0.032335706            7 
  201000   0.93535451   -6.5113972    73.051708  0.030286778  0.032257994           10 
  202000   0.94410701   -6.4553736    73.609539  0.030366972  0.032180996            8 
  203000   0.93843878   -6.5366806    73.750722  0.030275337  0.032106151            6 
  204000   0.93840479   -6.4743953    74.092891  0.030266704  0.032031693            6 
  205000   0.93421122   -6.4781013    74.287967   0.03019836  0.031955652            5 
  206000    0.9296891   -6.4985833    74.313783   0.03006221  0.031878735            7 
  207000   0.94940829   -6.5147406    74.267842  0.029898487  0.031799389            6 
  208000   0.94041729   -6.5227396    74.557576  0.029870823  0.031720774            7 
  209000   0.93258977   -6.4835253    74.909988  0.029868416  0.031641874            7 
  210000   0.93662419   -6.4794114    75.073142  0.029790929  0.031563921            9 
  211000   0.95020972   -6.4882309     75.36584   0.02976534  0.031486655            9 
  212000   0.92538874   -6.5006081     75.55796  0.029700456  0.031410646            7 
  213000   0.95418619   -6.5261242    75.504814  0.029540225   0.03133399            7 
  214000   0.93350035   -6.4888979    75.848287  0.029535937  0.031255722            6 
  215000    0.9186185   -6.4985759    76.025034  0.029467068  0.031177059           12 
  216000   0.92867308    -6.503267     76.29406  0.029434437  0.031099425            6 
  217000   0.91676204   -6.5376143    76.187967  0.029258052  0.031021126            8 
  218000     0.912949   -6.5146767    76.361541  0.029190191  0.030942265            6 
  219000   0.89929019   -6.5325906    76.741745  0.029201577  0.030863501            8 
  220000    0.9126659   -6.5227636    76.941752  0.029144603  0.030785571            7 
  221000   0.91498666   -6.5464913    77.204619  0.029111847  0.030708089           12 
  222000   0.89437168   -6.5579814    77.193876   0.02897668  0.030630037           13 
  223000   0.91130654   -6.5289745    77.467173  0.028948869  0.030552204            5 
  224000   0.91326585   -6.5565214    77.390755  0.028791203  0.030474143            6 
  225000   0.91812945   -6.5585953    77.852988   0.02883444  0.030396962            5 
  226000   0.89805317   -6.5582355    78.037648  0.028774944  0.030319989            7 
  227000   0.92331909   -6.5682803    78.239341  0.028722225  0.030243425            7 
  228000   0.89958162   -6.5704845    78.399346  0.028654732  0.030167852            5 
  229000   0.91360765   -6.5621894      78.3532  0.028512809   0.03009218            9 
  230000   0.90056929   -6.5905641    78.709532  0.028517946  0.030016201            7 
  231000   0.87910603   -6.6002159    79.182961  0.028565282  0.029942005            4 
  232000   0.88963866   -6.5816074    79.331015  0.028495336  0.029867293            8 
  233000   0.89865203   -6.6096817    79.418149  0.028404202   0.02979232           15 
  234000   0.89916527   -6.5856923    79.480765  0.028305116  0.029717758            9 
  235000   0.89103534   -6.5937673    79.612522  0.028231391  0.029643553            6 
  236000   0.88224363   -6.5833626     80.05572  0.028268263  0.029570576           16 
  237000   0.86868008   -6.5531278    80.447006   0.02828657  0.029498849           11 
  238000   0.89288483   -6.5920998    80.418064  0.028157585  0.029427769           13 
  239000   0.87983708   -6.6120275    80.352763  0.028017002  0.029355532            5 
  240000   0.89435084   -6.6126265    80.626481  0.027995306  0.029283357           12 
  241000   0.89647146   -6.6041592    80.942556  0.027988436  0.029212126           19 
  242000   0.88646129   -6.6420932     81.03034   0.02790301  0.029140178            9 
  243000   0.88728655   -6.6026909    81.264254    0.0278684  0.029067247            5 
  244000    0.8879277   -6.5793378    81.322466  0.027774066  0.028994697            8 
  245000   0.87517454   -6.6327179    81.324374  0.027661352  0.028922422           23 
  246000    0.8686691     -6.62177    81.517279  0.027614254   0.02884963            8 
  247000   0.87034249    -6.628129    81.617755  0.027536354  0.028777981           13 
  248000   0.88862424   -6.6259348    81.870229  0.027510158  0.028705535           18 
  249000    0.8750084   -6.6417666     81.80846  0.027379003  0.028633113            9 
  250000   0.85550685   -6.6584911    82.279974  0.027426658  0.028560282           11 
  251000    0.8583128   -6.6681267    82.073538  0.027248851  0.028487123           11 
  252000   0.85910744   -6.6594101    82.281015   0.02720933  0.028413775           24 
  253000    0.8797823   -6.6509624    82.334303  0.027119336  0.028340261           24 
  254000   0.87787137   -6.6446243    82.731653  0.027142931  0.028268938           12 
  255000   0.85971247   -6.6498225    83.242122  0.027203308  0.028197149           10 
  256000   0.84580797   -6.6429535    82.954696  0.027003482  0.028125824           15 
  257000    0.8414487   -6.6666717    83.077166  0.026938121  0.028053901            6 
  258000   0.85138819    -6.682068    83.183862  0.026868172  0.027981588           10 
  259000   0.83914406   -6.6624791    83.163301  0.026757819  0.027909299           15 
  260000   0.86960098   -6.6545715     83.29891  0.026698369  0.027837529           15 
  261000   0.86169438   -6.6713908    83.507073  0.026662539  0.027765211           11 
  262000   0.84497293    -6.667279    83.543562   0.02657238  0.027693302            4 
  263000   0.85361624   -6.6594733    83.599898  0.026489195  0.027620591           11 
  264000   0.83942163   -6.6742538    83.812581  0.026455992  0.027548326            8 
  265000   0.84561169   -6.6681528    84.000229  0.026415166  0.027475923           12 
  266000   0.84120636   -6.6818902    84.236439  0.026389862  0.027402869            7 
  267000   0.84735315   -6.6900762    84.258117  0.026297789  0.027329624            5 
  268000    0.8260172   -6.6985706    84.039499  0.026131685  0.027256043            9 
  269000   0.84527854   -6.6783057     84.19346  0.026082237  0.027182157           13 
  270000   0.83408778    -6.673896    84.360979  0.026037339  0.027108506           14 
  271000   0.84461048   -6.6921658    84.578918  0.026008277  0.027035416           10 
  272000   0.83399453   -6.7078337    84.437307  0.025869273  0.026962611           14 
  273000   0.83662015   -6.7156422    84.622262  0.025830971  0.026889982           14 
  274000   0.83263645   -6.6940576    85.102438  0.025882737  0.026818037           16 
  275000   0.82975622   -6.7010171    85.165075  0.025807598  0.026745692           13 
  276000   0.83571278   -6.6918685    85.363824  0.025774101  0.026674637           17 
  277000   0.84751273   -6.6891218    85.592221  0.025749766  0.026603486           12 
  278000   0.80125154    -6.738844     85.34787  0.025583894  0.026532392           20 
  279000   0.81106502   -6.7330056    85.529811  0.025546539   0.02646158           15 
  280000   0.82474214   -6.7298012     85.63262  0.025485899  0.026390037           19 
  281000   0.83010333   -6.7343184    85.485757  0.025351648  0.026318422            5 
  282000   0.82094673   -6.7565023    85.689362  0.025321915  0.026246035           13 
  283000   0.79010299   -6.7440144    85.647643  0.025220154  0.026173161           13 
  284000   0.79300441   -6.7438872    85.916431   0.02521022  0.026100666           11 
  285000    0.7966618    -6.729646      85.6874  0.025054795  0.026028272            9 
  286000   0.82358025   -6.7316438    86.046135  0.025071718  0.025956412           19 
  287000   0.80958996   -6.7436843    86.245689  0.025042302  0.025885004           12 
  288000    0.8348522   -6.7352699    86.097166  0.024912374  0.025814108           17 
  289000   0.80863943   -6.7135026    86.203103  0.024856719  0.025743149           10 
  290000   0.78381052   -6.7674371    86.442357  0.024839758  0.025671774           15 
  291000   0.81735929   -6.7557965    86.285481  0.024709473  0.025600854           20 
  292000   0.79283781   -6.7746782    86.591157  0.024712088   0.02552982            9 
  293000   0.81153786   -6.7539997    86.420947  0.024579336  0.025458971           13 
  294000    0.7984306   -6.7620586    86.665839  0.024565147  0.025388118           24 
  295000   0.80162618   -6.7572293    86.851853  0.024534422  0.025318032           28 
  296000   0.79449282   -6.7543075    87.174918  0.024542488  0.025248368           21 
  297000   0.80369677   -6.7422778    87.296373  0.024493932  0.025179431           13 
  298000   0.79220016   -6.7921273    87.290576  0.024410116  0.025110539            9 
  299000   0.80649079   -6.7885691    87.331195  0.024339798  0.025042224           17 
  300000   0.78538032   -6.8130995    87.530334  0.024313982  0.024974128           23 
  301000   0.78938156   -6.7864336    87.540857  0.024236118  0.024906365           16 
  302000   0.79490119   -6.7798645    87.570072  0.024163927  0.024838497           17 
  303000    0.7739187   -6.8157595    87.552783  0.024079423  0.024770369           30 
  304000   0.79275503   -6.8182773     87.70952   0.02404318  0.024702544           14 
  305000   0.77919443   -6.8193472    87.710215  0.023964539   0.02463454           15 
  306000   0.77143692    -6.797311     88.00253  0.023965831  0.024567694            6 
  307000   0.79408766   -6.8120457    88.044973  0.023899287  0.024501005           44 
  308000   0.76016835   -6.7998733    87.978183  0.023803621  0.024434115           24 
  309000   0.77312839    -6.791475    88.308119  0.023815566  0.024366797           11 
  310000      0.77125   -6.7992951    88.204192  0.023710804  0.024299626           22 
  311000   0.77771416   -6.8126418    88.262996   0.02365032  0.024232096           17 
  312000   0.77436686   -6.8484383    88.100996  0.023531249  0.024164135           28 
  313000   0.76672732   -6.8409341    88.642839   0.02360033  0.024096892           21 
  314000   0.75336709   -6.8102567    88.340057  0.023444814  0.024029859           12 
  315000   0.77180949    -6.823644    88.616944  0.023443636  0.023962471           12 
  316000   0.78153278   -6.8336457    88.718368  0.023396194  0.023895668           10 
  317000   0.78011388   -6.8564602     88.40969  0.023241243   0.02382886           20 
  318000   0.73986206   -6.8664265    88.753561  0.023258271  0.023762312           43 
  319000   0.74798835   -6.8835676    88.746366  0.023183481   0.02369618           45 
  320000   0.75486519   -6.8336351    88.977939  0.023171338  0.023629784           30 
  321000   0.75185446   -6.8718246    89.025752  0.023111566  0.023564159           28 
  322000   0.74149341   -6.8459177    89.057116  0.023047908  0.023498426           15 
  323000   0.75901604   -6.8995653    89.026697  0.022968704  0.023432833           15 
  324000   0.76655975   -6.8724605    89.260544  0.022957959  0.023367822           46 
  325000   0.74637793   -6.8976611    89.411123  0.022925929  0.023303056           16 
  326000   0.74601689   -6.8609819    89.448055  0.022865045  0.023237997           30 
  327000    0.7371885   -6.8837235    89.362371  0.022773285  0.023173492           31 
  328000   0.74766005   -6.8544269    89.798582   0.02281468  0.023109293           18 
  329000   0.74989217   -6.8724769    89.983961   0.02279229  0.023045851           34 
  330000   0.72867648   -6.8709124     89.71714  0.022655843  0.022982301           26 
  331000   0.72502395   -6.8898531    89.716833  0.022587319  0.022918451           43 
  332000   0.72723505   -6.9248033       89.724  0.022521084  0.022854286           22 
  333000   0.72716759   -6.8866083    89.764233  0.022463522  0.022790447           10 
  334000   0.74860776   -6.8968968    89.901176  0.022430433    0.0227267           28 
  335000   0.72184435   -6.9091976    89.985016  0.022384332  0.022663201           53 
  336000   0.72202132   -6.9167439      89.8499  0.022284201  0.022599336           37 
  337000   0.72906794     -6.90477     90.09987  0.022279889  0.022536074           36 
  338000   0.73181062   -6.9200109    89.966517  0.022181094  0.022472404           73 
  339000   0.72617126   -6.9120459    90.093913   0.02214698   0.02240894           18 
  340000   0.72724984   -6.9236423    90.134978  0.022091906  0.022346028           45 
  341000    0.7497743   -6.9305896    90.306364  0.022069004  0.022283366           84 
  342000   0.73117196   -6.9075364    90.508102  0.022053631  0.022221005           72 
  343000   0.73764841   -6.9251087    90.477077  0.021981797  0.022158979           36 
  344000   0.73163927   -6.9455028    90.559487   0.02193786  0.022097244           24 
  345000   0.69761419   -6.9349946    90.652229  0.021896674  0.022035798           18 
  346000   0.70777084   -6.9393466    90.650976  0.021833087  0.021974483           16 
  347000   0.70312478   -6.9630428    90.715163  0.021785582  0.021913104           33 
  348000   0.71470989   -6.9678036    90.658299  0.021709363  0.021851415          104 
  349000   0.72303407   -6.9454025    90.666966  0.021649228  0.021790106          103 
  350000   0.71119961   -6.9453338    90.963594  0.021657999  0.021728999           27 
  351000   0.71397248    -6.924688    91.147231  0.021639893  0.021668187           34 
  352000   0.71207289   -6.9530696    90.830216  0.021503365  0.021607467           22 
  353000   0.71582243   -6.9476153    91.053667    0.0214952  0.021546703           63 
  354000   0.70274409   -6.9714768    90.979335  0.021416981  0.021486075           24 
  355000   0.69358456   -6.9729558    90.948363  0.021349381  0.021425707          112 
  356000   0.69610068   -6.9679098    91.126378  0.021331081  0.021365135           42 
  357000   0.70539367   -6.9687928    91.122183  0.021270351   0.02130454           77 
  358000   0.69837423    -6.995728     91.05055  0.021194262  0.021244404           84 
  359000   0.70443994   -6.9759201     91.00482   0.02112461  0.021184233          116 
  360000   0.68185126   -6.9893501    90.859093  0.021032197  0.021124328           43 
  361000   0.69021115   -7.0021424    91.016459  0.021010263  0.021064175           67 
  362000   0.70636463   -7.0059563    90.964637  0.020940294  0.021004161           47 
  363000   0.70865428   -7.0014374    91.004798  0.020891827  0.020944291           53 
  364000   0.68739468    -6.995097    91.181135  0.020874802  0.020884382           71 
  365000   0.69478977   -7.0202573    91.062445  0.020790512  0.020824569           52 
  366000   0.69271623    -7.009523    91.210499  0.020767418  0.020764747           75 
  367000   0.67418726   -7.0189832    91.115414   0.02068924  0.020705152          132 
  368000   0.68237345   -7.0392559    90.999516  0.020606774  0.020645278           75 
  369000   0.67870426   -7.0279479    90.971824  0.020544676  0.020585418          121 
  370000   0.68550614   -7.0424979    90.903891  0.020473849  0.020525322          172 
  371000   0.67164071   -7.0418369     91.09461  0.020461503  0.020465555          173 
  372000   0.67299846   -7.0403728    91.187074  0.020427212  0.020405897          123 
  373000   0.67187442   -7.0325354    91.137098  0.020361282  0.020346129          153 
  374000   0.66012867   -7.0410912    90.851995  0.020243314  0.020286271          199 
  375000   0.66946974   -7.0227438    90.924339  0.020205409   0.02022628          218 
  376000   0.66760687   -7.0377234    90.953605  0.020158157  0.020166519          366 
  377000   0.67164494   -7.0730137    91.014472  0.020118141   0.02010689          186 
  378000   0.64175302   -7.0410065    91.102911  0.020084416  0.020047594          212 
  379000   0.66163426    -7.055974    91.116889  0.020034496  0.019988195          257 
  380000   0.66665114   -7.0730453    91.156714  0.019990507  0.019928901          415 
  381000    0.6649792   -7.0547369    91.191698  0.019945691  0.019869893          210 
  382000   0.64349961   -7.0662583    91.401969  0.019939348  0.019811199          242 
  383000   0.65387658   -7.0776452    91.372896  0.019880961  0.019752726          189 
  384000   0.65804617    -7.095381    91.272529  0.019807406  0.019694365          399 
  385000   0.64272211   -7.1098372    91.149895  0.019729415  0.019636001          420 
  386000   0.64685709   -7.0877823    91.289758  0.019708497  0.019577848          453 
  387000   0.65267409   -7.0902617    91.346643   0.01966982  0.019519782          479 
  388000    0.6453603   -7.1075913    91.190225  0.019585529  0.019461625          485 
  389000   0.64548588   -7.0897225    91.152538  0.019527108   0.01940352          544 
  390000   0.63594318   -7.0873258     91.32191  0.019513229  0.019345698          497 
  391000   0.64865103    -7.086229    91.315108  0.019461873  0.019288217          285 
  392000   0.63870803   -7.0977635    91.228042  0.019393716  0.019230878          262 
  393000   0.64493583   -7.1249285    91.295413  0.019358654  0.019173637          474 
  394000   0.63962345   -7.0961751    91.262764  0.019302615  0.019116302          456 
  395000   0.63003229   -7.1129478    91.260448  0.019253259  0.019059015          345 
  396000   0.63276026   -7.0882151    91.094028  0.019169619   0.01900177          481 
  397000   0.63181762   -7.1037101     91.16426  0.019136075  0.018944562          372 
  398000   0.63077451   -7.1199389    91.281096  0.019112457  0.018887619          365 
  399000   0.62562119   -7.1008777    91.252595  0.019058604  0.018830752          343 
  400000   0.62220675   -7.1341853    91.198172  0.018999619  0.018773913          592 
  401000   0.62205184   -7.1309055    91.189863  0.018950512  0.018717294          612 
  402000   0.64280376   -7.1398062    91.212939  0.018908155   0.01866076          533 
  403000   0.60332875   -7.1335039    91.160166  0.018850324  0.018604399          664 
  404000   0.61583694   -7.1652799    91.149963   0.01880156  0.018547969          664 
  405000   0.61586123   -7.1662523    91.234414  0.018772513  0.018491627          698 
  406000   0.62768598   -7.1525466    91.300469  0.018739834  0.018435372          721 
  407000   0.61722237   -7.1499541     91.45494  0.018725418   0.01837966          698 
  408000   0.61232144   -7.1602174    91.104265  0.018607897  0.018323988          764 
  409000   0.61665811   -7.1536424    91.227644   0.01858754  0.018268476          843 
  410000   0.60514741    -7.161503     91.24759  0.018546258  0.018212965          844 
  411000   0.59952364   -7.1672904    91.245891  0.018500789  0.018157546          834 
  412000    0.6119986   -7.1673019    91.158718  0.018438252  0.018102218          812 
  413000    0.6125404   -7.1919306    91.013386  0.018364283   0.01804681          795 
  414000   0.61651738   -7.2095801     90.92929  0.018302997  0.017991533          794 
  415000   0.61810749    -7.178254    91.121892  0.018297569   0.01793641          811 
  416000   0.60873183   -7.1910038    90.963567  0.018221868   0.01788148          802 
  417000   0.59532226   -7.1687749    91.042325   0.01819391  0.017826658          802 
  418000     0.600936    -7.206827    91.113157  0.018164505  0.017772126          825 
  419000   0.59504885    -7.204952    91.000198  0.018098687  0.017717698          883 
  420000   0.59428413   -7.2234567    91.065072  0.018068467  0.017663568          931 
  421000   0.59647028   -7.2142038    91.134734  0.018039338  0.017609678          964 
  422000    0.5945881   -7.2170349    91.146664  0.017998946  0.017555842          997 
  423000   0.58666511   -7.2258818    91.148941  0.017956844  0.017502244         1022 
  424000   0.58517817   -7.2364759    91.090377  0.017902983  0.017448727         1114 
  425000   0.59543033    -7.240018    91.051336  0.017853203   0.01739532         1114 
  426000   0.58599052   -7.2337486    90.943853  0.017790269  0.017341923         1209 
  427000   0.59522046   -7.2224234    90.972814  0.017754257  0.017288644         1146 
  428000   0.58827845   -7.2401117     90.97821  0.017713826  0.017235538         1368 
  429000   0.58875053    -7.249973    90.886621  0.017654744  0.017182443         1302 
  430000   0.58568204   -7.2472759      90.9614  0.017628178  0.017129686         1356 
  431000   0.57582063   -7.2359585    91.061682  0.017606667  0.017076955         1393 
  432000   0.58622384   -7.2651566    90.793616  0.017514201  0.017024491         1428 
  433000    0.5750977   -7.2624855    90.975491  0.017508755  0.016972157         1384 
  434000    0.5795909   -7.2428896    90.834385  0.017441318  0.016919964         1458 
  435000   0.57114437   -7.2702557    91.091089    0.0174504  0.016867943         1370 
  436000   0.58029835   -7.2577526    90.996618   0.01739232    0.0168161         1447 
  437000   0.56981787   -7.2665266     90.92546  0.017338951  0.016764295         1458 
  438000   0.56699967   -7.2763296     90.82528  0.017280304  0.016712708         1459 
  439000   0.56082764   -7.2978416    90.773728  0.017231156  0.016661124         1502 
  440000   0.55417973   -7.2832131    90.793317  0.017195704  0.016609615         1528 
  441000   0.56845575   -7.2888517    90.937085  0.017183879  0.016558241         1517 
  442000   0.56095147   -7.3057173    90.821999  0.017123303  0.016507187         1528 
  443000   0.56389896   -7.2959331    90.921299  0.017103329  0.016456158         1570 
  444000   0.56534416   -7.3246238    90.817586  0.017045343  0.016405324         1621 
  445000    0.5541488   -7.3284604    90.842205  0.017011649  0.016354544         1632 
  446000   0.55472353   -7.3243277    90.796463  0.016964959    0.0163039         1633 
  447000   0.54458927   -7.3345744    90.838906  0.016934919  0.016253428         1640 
  448000   0.54345391    -7.318597    90.870805  0.016903051  0.016203172         1605 
  449000   0.54216733   -7.3252974    90.850479  0.016861633  0.016153076         1647 
  450000   0.55301461   -7.3101413    90.714898  0.016799055  0.016103104         1624 
  451000   0.54329855   -7.3410489    90.868129   0.01679012  0.016053284         1584 
  452000   0.54895401   -7.3388669     90.77338  0.016735505  0.016003652         1660 
  453000   0.53081123   -7.3299182    90.711784   0.01668723  0.015954137         1599 
  454000    0.5565803   -7.3212419    90.657226   0.01664046  0.015904861         1685 
  455000   0.54947579   -7.3287095    90.730307  0.016617272  0.015855627         1664 
  456000   0.52876318   -7.3547879    90.835998  0.016600146  0.015806637         1700 
  457000   0.54160525   -7.3492051    90.708705   0.01654061  0.015757743         1610 
  458000   0.54214585   -7.3459698    90.710928    0.0165049  0.015709024         1699 
  459000   0.52274362   -7.3425771    90.776031  0.016480761  0.015660484         1730 
  460000   0.55005989   -7.3554124    90.810968  0.016451262  0.015612134         1805 
  461000   0.53523554   -7.3517853    90.640737  0.016384804  0.015563862         1737 
  462000   0.54496018   -7.3556653    90.614692  0.016344641  0.015515755         1711 
  463000   0.52757633   -7.3482729    90.760947  0.016335664  0.015467795         1643 
  464000   0.52523155   -7.3591772     90.59901  0.016271374  0.015419938         1706 
  465000   0.52766859   -7.3624164    90.548124  0.016227262  0.015372242         1687 
  466000   0.52118932   -7.3478464    90.639888   0.01620885  0.015324712         1725 
  467000   0.52089978   -7.3538384    90.408462  0.016132845  0.015277338         1807 
  468000   0.52742167   -7.3644031    90.621604  0.016136326  0.015230152         1769 
  469000   0.51897954   -7.3475055    90.535335  0.016086591  0.015183195         1801 
  470000   0.51070345   -7.3761508    90.496118  0.016045411  0.015136277         1780 
  471000   0.51261081   -7.3800013    90.437193  0.016000919  0.015089524         1835 
  472000   0.52045135   -7.3844481    90.564913  0.015989568  0.015042898         1856 
  473000   0.52313751   -7.3909219    90.566647  0.015956069  0.014996456         1877 
  474000   0.50748627   -7.3766722    90.538665  0.015917487  0.014950141         1889 
  475000   0.51422716   -7.3974609    90.623833  0.015898918  0.014904016         1885 
  476000     0.510785   -7.4019599    90.536251  0.015850184  0.014858044         1839 
  477000   0.51639157   -7.3999705    90.536825  0.015817055  0.014812199         1850 
  478000   0.49853334   -7.4057409    90.456601  0.015769979   0.01476648         1917 
  479000   0.50613998   -7.4177595    90.512326  0.015746751   0.01472096         1956 
  480000   0.49334996    -7.385998    90.360908  0.015687658  0.014675607         1913 
  481000   0.50796291   -7.4036784    90.491499  0.015677668  0.014630423         1996 
  482000   0.49879204   -7.4061931    90.427883  0.015634143  0.014585407         1968 
  483000   0.50730948   -7.4067962    90.465636  0.015608288    0.0145406         2100 
  484000   0.49162836    -7.402623    90.403376   0.01556532  0.014495904         2076 
  485000   0.49973219   -7.4169301    90.463771  0.015543603  0.014451372         2093 
  486000   0.49299948   -7.4087121    90.400933  0.015500846  0.014407043         2091 
  487000   0.49041398   -7.4166236     90.34792  0.015459945  0.014362858         2045 
  488000    0.5028406   -7.4149444    90.253857  0.015412202   0.01431881         2072 
  489000   0.49231868    -7.429353    90.480332   0.01541928  0.014274922         2122 
  490000   0.48860895   -7.4311859     90.36953  0.015368968  0.014231138         2149 
  491000   0.48440259   -7.4432898    90.289916  0.015324154  0.014187407         2120 
  492000   0.48471808   -7.4267478      90.2082  0.015279167  0.014143843         2122 
  493000   0.47460939    -7.450802    90.314429  0.015266131  0.014100423         2025 
  494000   0.47375343   -7.4372966    90.187433  0.015213804  0.014057199         2109 
  495000   0.48167559   -7.4482228    90.237197  0.015191447  0.014014078         2097 
  496000   0.48028096   -7.4585114    90.282572  0.015168443  0.013971157         2122 
  497000   0.46964318    -7.463888    90.220305  0.015127482  0.013928275         2065 
  498000    0.4715126   -7.4484974    90.200978  0.015093872  0.013885588         2110 
  499000   0.46753364    -7.467962     90.23807  0.015069818  0.013842993         2113 
  500000   0.47175229   -7.4501083    90.229616  0.015038269  0.013800649         2143 
  501000   0.46370085   -7.4750871    90.185418  0.015000901  0.013758402         2211 
  502000   0.46881268    -7.460116    90.187846  0.014971422  0.013716272         2157 
  503000    0.4637465   -7.4703771    90.152935  0.014935874  0.013674378         2104 
  504000   0.45618057   -7.4636033    90.097099  0.014897007  0.013632575         2170 
  505000   0.46116839   -7.4719804    90.262906  0.014894869  0.013590922         2221 
  506000   0.45047234   -7.4776983    90.025408  0.014826319   0.01354938         2191 
  507000   0.45456201   -7.4849975    90.161874  0.014819506  0.013508036         2149 
  508000   0.45261281    -7.480085    90.080654   0.01477701  0.013466804         2192 
  509000   0.45733327   -7.4843231    90.134594   0.01475681   0.01342583         2229 
  510000   0.45099591   -7.4722652    90.072129  0.014717668  0.013384974         2185 
  511000   0.44730318   -7.4800456    90.123303  0.014697212  0.013344308         2249 
  512000   0.45285778   -7.4936282    90.116663  0.014667426  0.013303801         2222 
Loop time of 1064.52 on 48 procs for 500000 steps with 4000 atoms

Performance: 81163.368 tau/day, 469.695 timesteps/s
99.4% CPU use with 48 MPI tasks x no OpenMP threads

MPI task timing breakdown:
Section |  min time  |  avg time  |  max time  |%varavg| %total
---------------------------------------------------------------
Pair    | 65.513     | 69.027     | 74.425     |  27.3 |  6.48
Neigh   | 6.6234     | 6.7692     | 6.9223     |   2.9 |  0.64
Comm    | 58.125     | 63.136     | 67.217     |  26.6 |  5.93
Output  | 0.89901    | 0.89954    | 0.90779    |   0.1 |  0.08
Modify  | 907.38     | 911.87     | 917.54     |   9.0 | 85.66
Other   |            | 12.82      |            |       |  1.20

Nlocal:        83.3333 ave          92 max          78 min
Histogram: 4 6 10 10 4 7 2 2 1 2
Nghost:        1741.00 ave        1767 max        1718 min
Histogram: 3 3 6 8 6 6 7 5 3 1
Neighs:        10502.5 ave       11928 max        9665 min
Histogram: 5 4 11 11 5 4 4 2 1 1
FullNghs:      21005.1 ave       23818 max       19480 min
Histogram: 3 10 8 11 7 4 0 2 2 1

Total # of neighbors = 1008243
Ave neighs/atom = 252.06075
Neighbor list builds = 26980
Dangerous builds = 0

#clear
#
#next RN
#
#jump SELF
Total wall time: 0:17:47
