
units lj                  # Use reduced LJ style units
atom_style atomic         # Uncharged point particles
atom_modify map hash      # Needed for indexing of clusters etc
                          # Used to be able to find where atoms are in relation to each other.

lattice fcc 1.0 spacing 1 1 1
Lattice spacing in x,y,z = 1.5874011 1.5874011 1.5874011
region box block 0 10 0 10 0 10 units lattice
create_box 2 box
Created orthogonal box = (0.0000000 0.0000000 0.0000000) to (15.874011 15.874011 15.874011)
  3 by 4 by 4 MPI processor grid
create_atoms 1 box
Created 4000 atoms
  using lattice units in orthogonal box = (0.0000000 0.0000000 0.0000000) to (15.874011 15.874011 15.874011)
  create_atoms CPU = 0.002 seconds
set type 1 type/fraction 2 0.95 78393
Setting atom values ...
  3802 settings made for type/fraction
mass 1 1.0
mass 2 1.0
pair_style lj/cut  3.5
pair_modify tail  yes
pair_coeff 1  1  1.0  1.0   # Intearaction between 1 and 1 set with epsilon = 1 and sigma = 1
pair_coeff 1  2  1.5  0.8
pair_coeff 2  2  0.5  0.88

write_data data.0
System init for write_data ...
Neighbor list info ...
  update every 1 steps, delay 10 steps, check yes
  max neighbors/atom: 2000, page size: 100000
  master list distance cutoff = 3.8
  ghost atom cutoff = 3.8
  binsize = 1.9, bins = 9 9 9
  1 neighbor lists, perpetual/occasional/extra = 1 0 0
  (1) pair lj/cut, perpetual
      attributes: half, newton on
      pair build: half/bin/atomonly/newton
      stencil: half/bin/3d
      bin: standard
WARNING: Not all mixed pair coeffs generated from mixing. Use write_data with 'pair ij' option to store all pair coeffs. (../write_data.cpp:312)


#############################
#   M E L T   S Y S T E M   #
#############################

velocity all create 2.4 6583654 mom yes dist gaussian # Assign velocities
                                                    # Temperature 2.4, random number seed, zero linear momentum
                                                                                # Gaussian distribution

timestep 0.002   # simulation timestep
thermo 1000       # output thermodynamic data every 1000 steps bf 100

# Define a fix  in this case with index 1 applied to all
# particles in the simulation. This fix is for simulations
# in the anisotropic NPT ensemble. Note that we use the MTK
# correction.
fix 1 all npt temp 2.4 2.4 0.1 iso 5.68 5.68 0.5 mtk yes tchain 5 pchain 5 # Use NPT ensemble
                                                                         # Set temperature and pressure and damping
                                                                         # Numbers of thermostats in chain and in barostat
run 10000          # run for 10000 steps
Per MPI rank memory allocation (min/avg/max) = 3.642 | 3.644 | 3.648 Mbytes
Step Temp E_pair E_mol TotEng Press Volume 
       0          2.4   -2.9371918            0   0.66190816   -2.1469233         4000 
    1000    2.4777762   -1.8220566            0    1.8936784      5.73941    4141.6563 
    2000    2.3859607   -1.8387303            0     1.739316    5.3716857    4165.5603 
    3000    2.3722929   -1.7931969            0    1.7643528    5.5806855    4187.7559 
    4000    2.3858437   -1.8357829            0     1.742088    5.5579878    4134.0202 
    5000     2.430801   -1.7985165            0    1.8467734    5.9365514     4110.809 
    6000    2.3963072   -1.7609702            0    1.8325921    5.9027276    4147.3758 
    7000    2.3912336   -1.8322794            0    1.7536743    5.6791445    4118.6785 
    8000    2.4224369   -1.7988149            0     1.833932    5.5681838    4168.8813 
    9000    2.4234027   -1.8391036            0    1.7950918    5.6150151    4137.9267 
   10000    2.3494456   -1.8122166            0    1.7110707    5.6896426     4134.966 
Loop time of 2.47269 on 48 procs for 10000 steps with 4000 atoms

Performance: 698833.477 tau/day, 4044.175 timesteps/s
99.6% CPU use with 48 MPI tasks x no OpenMP threads

MPI task timing breakdown:
Section |  min time  |  avg time  |  max time  |%varavg| %total
---------------------------------------------------------------
Pair    | 1.0455     | 1.1219     | 1.2162     |   3.4 | 45.37
Neigh   | 0.20297    | 0.21287    | 0.2336     |   1.4 |  8.61
Comm    | 0.75801    | 0.85483    | 0.96676    |   5.0 | 34.57
Output  | 0.00024198 | 0.00024765 | 0.00031858 |   0.0 |  0.01
Modify  | 0.22561    | 0.26779    | 0.31872    |   4.3 | 10.83
Other   |            | 0.01508    |            |       |  0.61

Nlocal:        83.3333 ave          93 max          76 min
Histogram: 4 8 7 0 9 10 3 1 4 2
Nghost:        1602.62 ave        1642 max        1576 min
Histogram: 4 7 4 6 10 11 2 2 1 1
Neighs:        9235.56 ave       10950 max        8046 min
Histogram: 5 5 5 9 8 7 5 1 1 2

Total # of neighbors = 443307
Ave neighs/atom = 110.82675
Neighbor list builds = 907
Dangerous builds = 182

# Equilibrate just above the melting temperature to avoid step fn in T

fix 1 all npt temp 1.25 1.25 0.1 iso 5.68 5.68 0.5 mtk yes tchain 5 pchain 5
run 2000
Per MPI rank memory allocation (min/avg/max) = 3.643 | 3.645 | 3.649 Mbytes
Step Temp E_pair E_mol TotEng Press Volume 
   10000    2.3494456   -1.8122166            0    1.7110707    5.6896426     4134.966 
   11000    1.2535486   -2.7543137            0   -0.8744609    5.7192612    3216.0521 
   12000    1.2651872    -2.734478            0  -0.83717158    6.0805657    3195.4001 
Loop time of 0.577057 on 48 procs for 2000 steps with 4000 atoms

Performance: 598901.149 tau/day, 3465.863 timesteps/s
99.7% CPU use with 48 MPI tasks x no OpenMP threads

MPI task timing breakdown:
Section |  min time  |  avg time  |  max time  |%varavg| %total
---------------------------------------------------------------
Pair    | 0.26       | 0.28042    | 0.29939    |   1.7 | 48.59
Neigh   | 0.038884   | 0.040464   | 0.042361   |   0.5 |  7.01
Comm    | 0.18718    | 0.20792    | 0.23268    |   2.3 | 36.03
Output  | 5.0819e-05 | 5.5722e-05 | 0.00016828 |   0.0 |  0.01
Modify  | 0.039515   | 0.043573   | 0.046672   |   0.9 |  7.55
Other   |            | 0.004632   |            |       |  0.80

Nlocal:        83.3333 ave          93 max          74 min
Histogram: 2 2 5 9 6 10 6 5 1 2
Nghost:        1909.85 ave        1946 max        1881 min
Histogram: 1 4 12 5 8 4 6 4 3 1
Neighs:        11946.2 ave       14260 max        9979 min
Histogram: 1 5 5 3 13 12 6 2 0 1

Total # of neighbors = 573416
Ave neighs/atom = 143.35400
Neighbor list builds = 143
Dangerous builds = 12

#############################
# L I N E A R  Q U E N C H  #
#############################

# Define solid atoms. This closely follows ten Wolde  Ruiz-Montero and Frenkel  Faraday Discuss  1996  104  93-110
# Compute components of the per-atom q6 vector
compute q6 all orientorder/atom degrees 1 6 components 6 nnn NULL cutoff 1.3 # compute the Q6 parameter.
                                                                             # Use all neighbours within 1.3 unit cell.

# get number of connections
compute coord_number all coord/atom orientorder q6 0.5

# An atom is solid if it has 8 or more connections (of a possible 14)
variable is_solid atom c_coord_number>=8
group solid dynamic all var is_solid    # Must be dynamic to update
dynamic group solid defined

# do clustering
compute cluster solid cluster/atom 1.3 # Create a cluster where all atoms within are solid and max 1.3 units from another member

# define chunks one chunk per cluster
compute clus_chunks solid chunk/atom c_cluster nchunk every compress yes  # Says which atoms are in which chunk

# count the size of each chunk
compute size_chunks solid property/chunk clus_chunks count


# Find the maximum entry in the vector of chunk sizes
variable max_n equal max(c_size_chunks)


# Thermo style which includes this variable
# thermo_style custom step temp pe vol v_max_n

thermo ${N}  # Print the thermo information every 100 steps
thermo 1000  

# Reset the npt fix at a lower temperature (below freezing)
fix 1  all npt temp  ${temp} ${temp}  0.1  iso  5.68  5.68  0.5  mtk yes tchain  5  pchain  5
fix 1  all npt temp  0.45 ${temp}  0.1  iso  5.68  5.68  0.5  mtk yes tchain  5  pchain  5
fix 1  all npt temp  0.45 0.45  0.1  iso  5.68  5.68  0.5  mtk yes tchain  5  pchain  5

dump dmp2 all dcd ${N} traj.dcd
dump dmp2 all dcd 1000 traj.dcd


compute msd all msd com yes
variable twopoint equal c_msd[4]/6/(step*dt+1.0e-6)
fix 9 all vector 10 c_msd[4]
variable fit equal slope(f_9)/6/(10*dt)
thermo_style custom step temp pe c_msd[4] v_twopoint v_fit v_max_n

fix 1 all npt temp 1.25 ${temp} 0.1 iso 5.68 5.68 0.5 mtk yes tchain 5 pchain 5
fix 1 all npt temp 1.25 0.45 0.1 iso 5.68 5.68 0.5 mtk yes tchain 5 pchain 5
run 500000 # 5000000  # Run for this many steps
Neighbor list info ...
  update every 1 steps, delay 10 steps, check yes
  max neighbors/atom: 2000, page size: 100000
  master list distance cutoff = 3.8
  ghost atom cutoff = 3.8
  binsize = 1.9, bins = 8 8 8
  4 neighbor lists, perpetual/occasional/extra = 1 3 0
  (1) pair lj/cut, perpetual
      attributes: half, newton on
      pair build: half/bin/atomonly/newton
      stencil: half/bin/3d
      bin: standard
  (2) compute orientorder/atom, occasional
      attributes: full, newton on
      pair build: full/bin/atomonly
      stencil: full/bin/3d
      bin: standard
  (3) compute coord/atom, occasional
      attributes: full, newton on
      pair build: full/bin/atomonly
      stencil: full/bin/3d
      bin: standard
  (4) compute cluster/atom, occasional
      attributes: full, newton on
      pair build: full/bin/atomonly
      stencil: full/bin/3d
      bin: standard
Per MPI rank memory allocation (min/avg/max) = 9.819 | 9.824 | 9.830 Mbytes
Step Temp PotEng c_msd[4] v_twopoint v_fit v_max_n 
   12000    1.2651872    -2.734478 1.7096588e-30 1.187263e-32 8.3333333e+20            1 
   13000    1.2552685   -2.7352967    1.1173461 0.0071624746  0.094938615            2 
   14000     1.235165   -2.7590579    2.3350332  0.013899007  0.099019399            1 
   15000    1.2523664   -2.7643392    3.5421568  0.019678648   0.10054975            1 
   16000     1.213952   -2.7579769    4.6697817  0.024321779  0.099142593            1 
   17000      1.24268   -2.7877125    5.8965881  0.028904843   0.09859652            2 
   18000    1.2443664   -2.7386855     7.179895  0.033240254  0.099566179            1 
   19000    1.2369615    -2.751125    8.4197738  0.036928831   0.10043346            2 
   20000    1.2588496   -2.7861583    9.4518006  0.039382501   0.10032983            1 
   21000    1.2549482   -2.7684786    10.635815  0.042205613  0.099818927            1 
   22000     1.249342   -2.7597133    11.820086  0.044773053  0.099357441            1 
   23000    1.2108654   -2.7845771    12.980591  0.047031127  0.099192202            2 
   24000    1.2209397   -2.7640492    14.114653  0.049009212   0.09900576            2 
   25000    1.1987072   -2.7971749    15.479047  0.051596822  0.098852843            2 
   26000    1.2170447   -2.7806851    16.339322  0.052369621  0.098616626            2 
   27000    1.2220407   -2.7565995    17.556063   0.05418538  0.098263514            2 
   28000    1.2357648   -2.7856399    18.612092  0.055393129  0.097872518            2 
   29000     1.229612   -2.7623609    19.721036  0.056669644  0.097444617            2 
   30000    1.2196088   -2.7723256    20.682945  0.057452624   0.09705595            1 
   31000    1.2077149   -2.7969879     21.75066  0.058469515  0.096517635            1 
   32000    1.2173861   -2.8051082    22.902729  0.059642523  0.096077997            1 
   33000    1.2292299   -2.7779061    24.257384  0.061256019  0.095806193            2 
   34000    1.1877524   -2.7821971    25.484714  0.062462533  0.095638614            1 
   35000    1.2181162   -2.7997154    26.473133  0.063031268  0.095562676            1 
   36000    1.2328414   -2.7759565    27.484039  0.063620459  0.095418335            2 
   37000    1.2323757   -2.7937347    28.728652  0.064704169  0.095254452            1 
   38000    1.1856458   -2.7701678    29.690989  0.065111818  0.095090266            2 
   39000     1.229305   -2.7968899    30.975852  0.066187718  0.094971125            2 
   40000    1.2163316   -2.8126032    31.774704    0.0661973  0.094789378            2 
   41000    1.1892837   -2.7985666    32.785518   0.06663723  0.094535766            1 
   42000    1.2064292   -2.7962303    33.790922   0.06704548  0.094268576            1 
   43000    1.2107113   -2.7895785    35.092966  0.068009623  0.094098534            1 
   44000    1.2100741    -2.829773    36.039969  0.068257517  0.093979065            1 
   45000     1.201314   -2.8398157    37.192694  0.068875358  0.093822232            2 
   46000    1.1672274   -2.8217598    38.435923  0.069630295   0.09370464            1 
   47000    1.2130727   -2.8107654    39.411711  0.069878919  0.093635323            1 
   48000    1.1925173   -2.7817179    41.016702  0.071209551   0.09360178            2 
   49000    1.2017879   -2.8280373    42.328071  0.071986515  0.093666978            4 
   50000    1.1812369   -2.8262995    43.196454  0.071994089  0.093717483            3 
   51000    1.2019835    -2.834545    44.458137  0.072644015   0.09378984            5 
   52000    1.1982213   -2.8472664    45.499099  0.072915221  0.093848652            2 
   53000    1.1902213   -2.8099509    46.437115  0.073014331  0.093862605            2 
   54000    1.1770402   -2.8456461    47.754094  0.073694588  0.093866813            1 
   55000    1.1909188   -2.8201113    48.751129  0.073865346  0.093894516            2 
   56000    1.1762626   -2.8444927    50.237587  0.074758313  0.093948797            2 
   57000     1.192924    -2.806997    51.506785  0.075302316  0.094027823            2 
   58000    1.1693205   -2.8069498    52.848376  0.075931574  0.094136813            1 
   59000    1.1829473   -2.8245693    54.376582  0.076803082  0.094284519            2 
   60000    1.1728487   -2.8331035    55.382552  0.076920211  0.094446315            1 
   61000    1.1907413   -2.8492149    56.335064  0.076960469  0.094569358            1 
   62000    1.1716463   -2.8562627    57.521954  0.077314454  0.094642798            1 
   63000    1.1880767   -2.8393676     58.42115  0.077276653  0.094728273            3 
   64000    1.1637888   -2.8473736    59.463129  0.077425949  0.094748733            2 
   65000    1.1575157   -2.8602983    60.746055  0.077879557  0.094789972            2 
   66000    1.1574296   -2.8593411    61.788543  0.078015837  0.094844768            2 
   67000     1.117218   -2.8399657    63.134212  0.078525139  0.094888364            1 
   68000    1.1631025   -2.8364912    64.223281     0.078705  0.094903418            2 
   69000     1.164556      -2.8728    65.158057  0.078693306  0.094918394            3 
   70000    1.1781641   -2.8224847     66.75779  0.079473559  0.094941452            1 
   71000    1.1620619   -2.9008606    67.194176  0.078866403  0.094941739            1 
   72000    1.1541984   -2.8658017    68.407648  0.079175518  0.094920233            6 
   73000    1.1539734   -2.8825405    69.248473  0.079050767  0.094900276            4 
   74000    1.1592726   -2.8756544    70.357944  0.079231919  0.094877069            2 
   75000    1.1529998    -2.871658    71.070585  0.078967316   0.09480792            1 
   76000    1.1511942   -2.8840015    72.048484   0.07900053  0.094705815            2 
   77000    1.1507129   -2.8847194    73.011589  0.079016871  0.094610139            3 
   78000    1.1671141    -2.867402    73.765693  0.078809501  0.094466646            1 
   79000    1.1654234   -2.8805174      74.3816  0.078461603  0.094281138            1 
   80000    1.1261748   -2.8621926     75.67538  0.078828521  0.094086689            4 
   81000    1.1187844   -2.8933026    76.352449  0.078551901  0.093927224            1 
   82000    1.1600404   -2.8457129     77.72726  0.078991117  0.093772538            2 
   83000    1.1675154   -2.8785701    78.628152  0.078943927   0.09361423            5 
   84000     1.138141   -2.9064814    79.610927  0.078979093  0.093436355            3 
   85000    1.1444044   -2.9202416    80.145479  0.078573998  0.093251608            2 
   86000    1.1324112   -2.8935179    80.858089  0.078350861  0.093038243            2 
   87000    1.1331691   -2.9188732    81.254721  0.077830192   0.09281986            3 
   88000    1.1175913   -2.8922727    83.134202  0.078725569  0.092607958            2 
   89000     1.139847   -2.9007463    83.527625  0.078209386  0.092411426            2 
   90000    1.1525576   -2.9028938    84.766683  0.078487669  0.092197565            1 
   91000    1.1135412   -2.9245156    85.621044  0.078407549  0.091981734            4 
   92000    1.1157873   -2.9396976    86.402702  0.078263317  0.091766376            2 
   93000    1.1286673   -2.8807747    87.443755  0.078354619  0.091567459            1 
   94000    1.1174846   -2.9225202    87.958974  0.077977814  0.091366469            3 
   95000    1.1182804   -2.9015659    89.243677  0.078283927  0.091141262            2 
   96000    1.1184453   -2.9141301    89.336209  0.077548792   0.09090671            1 
   97000    1.1338774   -2.9173666    90.500535    0.0777496  0.090678857            1 
   98000    1.0959178   -2.9215511    92.066902  0.078288182  0.090451641            1 
   99000     1.118772   -2.9098145    92.839817  0.078147993  0.090241855            1 
  100000    1.1125589   -2.9324015    93.717888  0.078098239  0.090034983            2 
  101000    1.1062537   -2.9211926    94.209328  0.077730469  0.089824673            2 
  102000    1.1029947   -2.9022777    95.201172  0.077778735   0.08960598            2 
  103000     1.111414   -2.9132709    96.043731  0.077705284   0.08938164            1 
  104000    1.1059335    -2.943508    96.402096  0.077245269  0.089157855            5 
  105000    1.1119586   -2.9157455    97.584809  0.077448261  0.088933235            3 
  106000      1.10444   -2.9490901     98.32222  0.077297342  0.088720507            3 
  107000    1.1173443   -2.8923321    100.22671  0.078058185  0.088517883            3 
  108000    1.0966742   -2.9249623    100.79827   0.07777644   0.08833067            1 
  109000    1.0775766   -2.9290834    101.76259  0.077800148  0.088147634            1 
  110000    1.0833531   -2.9248588    102.26025  0.077469885  0.087977925            4 
  111000    1.0927997   -2.9558308    103.12932  0.077424415  0.087805574            3 
  112000    1.0699355   -2.9105821    104.22672  0.077549644  0.087632954            1 
  113000    1.0762123   -2.9543418    104.81553  0.077297587  0.087459188            2 
  114000    1.0867492   -2.9322308    105.91079   0.07742017  0.087284831            3 
  115000    1.0677418   -2.9340633    107.28773  0.077744735  0.087112688            2 
  116000    1.0832959   -2.9752458     107.2942  0.077079169  0.086948491            3 
  117000    1.0842585   -2.9729897    108.67368  0.077402909  0.086779317            2 
  118000    1.0730425   -2.9779791    109.70641   0.07747628  0.086609889            2 
  119000    1.0437118   -2.9312827    110.52605  0.077399193  0.086456295            2 
  120000    1.0628248   -2.9486323    111.73132  0.077591192  0.086302628            2 
  121000    1.0818071   -2.9230015    112.23445  0.077296451  0.086150765            4 
  122000     1.106687   -2.9762155    113.09406  0.077250041  0.086005716            2 
  123000    1.0829913   -2.9382973     114.1604  0.077344444  0.085855864            1 
  124000    1.0635236   -2.9668511    115.06578  0.077329154  0.085716315            4 
  125000    1.0635052   -2.9848282     116.1383  0.077425531  0.085578003            3 
  126000    1.0646244   -2.9743794    116.58633  0.077107361  0.085442203            2 
  127000    1.0913029   -2.9533753     118.1631  0.077534842  0.085306954            4 
  128000    1.0575204   -2.9625464    119.08619  0.077530074  0.085166404            1 
  129000    1.0566426   -2.9720018    119.32237  0.077081633  0.085020821            4 
  130000     1.068985   -2.9480405    119.87823  0.076845017   0.08487551            2 
  131000    1.0823466   -2.9829793    120.58571  0.076708465  0.084729377            3 
  132000    1.0454527   -2.9785033    121.33806  0.076602311   0.08457906            2 
  133000    1.0569737   -2.9801503    121.55684  0.076163432  0.084419305            2 
  134000    1.0607416   -2.9679358    122.77646  0.076353521   0.08425429            1 
  135000    1.0634437   -3.0178387    122.79311  0.075798217  0.084078579            5 
  136000    1.0690218   -2.9936067    123.65779  0.075770703  0.083892447            3 
  137000    1.0382375   -2.9915203     124.3121  0.075615631  0.083718093            2 
  138000    1.0417807   -2.9900657    125.04632  0.075511065  0.083538866            3 
  139000    1.0455627   -2.9649808    126.35967  0.075755196  0.083363113            1 
  140000    1.0703848   -2.9714497    126.82346  0.075490154  0.083189368            4 
  141000    1.0295407    -3.027458    127.82466  0.075546491  0.083024178            2 
  142000     1.067092   -3.0248503    127.69765  0.074939936  0.082850024            2 
  143000    1.0236591   -2.9836795    129.04897  0.075203365  0.082679345            2 
  144000    1.0481023   -3.0100483    130.31486  0.075413691  0.082517472            2 
  145000      1.03635    -3.009033    130.47133  0.074983521  0.082352896            2 
  146000    1.0555963   -3.0016466    131.05086  0.074800721   0.08219158            1 
  147000     1.040633   -2.9741282    131.75511  0.074691106  0.082026576            3 
  148000    1.0399237   -3.0028086    132.50219  0.074607089  0.081860005            2 
  149000    1.0335084   -3.0013426    133.60492  0.074723111  0.081695256            2 
  150000    1.0126937   -3.0161637    134.56883  0.074760459  0.081541664            3 
  151000    1.0338014   -3.0174736    135.06653  0.074540025  0.081385663            2 
  152000    1.0234915   -3.0177903    135.94036  0.074528708    0.0812291            3 
  153000    1.0182425   -2.9924368    137.15381   0.07470251  0.081068821            2 
  154000    1.0288351    -3.020002    137.66685  0.074495048  0.080916918            4 
  155000    1.0172518   -2.9953649    139.03713  0.074751146  0.080773434            3 
  156000       1.0167   -3.0215355    139.12821  0.074320625  0.080631006            2 
  157000    1.0085256   -3.0304605    140.10405  0.074365207  0.080486574            1 
  158000    1.0233016   -3.0168052     141.2626  0.074505593  0.080342787            2 
  159000     1.018669   -3.0282067    141.53168  0.074178031  0.080200825            7 
  160000   0.99125425   -3.0379579    142.88851  0.074421097  0.080057934            2 
  161000    1.0106505   -3.0517875    143.05289  0.074043937  0.079919614            2 
  162000    1.0279973   -3.0416105    143.67393  0.073906341  0.079781742            2 
  163000    1.0074035   -3.0364945    144.33195   0.07378934  0.079638169            4 
  164000    1.0086423   -3.0383307    144.92865  0.073642604   0.07949498            5 
  165000    1.0075015    -3.046225    146.04332  0.073759254  0.079360087            3 
  166000    1.0020705   -3.0505542    146.69332  0.073641226  0.079224308            3 
  167000   0.99340272   -3.0503808    146.87969  0.073293258  0.079088548            3 
  168000      1.00257   -3.0306085       147.81  0.073318453  0.078955391            2 
  169000   0.99987373   -3.0514541    149.29519  0.073616957  0.078825144            1 
  170000   0.97220375   -3.0349396    149.86831  0.073464859  0.078695508            1 
  171000   0.98793828   -3.0532371    150.30866  0.073249836  0.078560417            3 
  172000    1.0011292   -3.0617585    150.70146  0.073014271  0.078423338            2 
  173000    0.9882853     -3.04919    151.40437  0.072930815  0.078285758            3 
  174000      1.00988   -3.0747447    152.33177   0.07295583  0.078149525            1 
  175000    1.0061703   -3.0572424    153.82417  0.073249604  0.078023453            2 
  176000   0.99129034   -3.0773212    154.27258  0.073045727  0.077895228            3 
  177000     0.995927    -3.079838    153.95591  0.072483952  0.077765982            2 
  178000   0.97441132   -3.0489022    156.17417  0.073115246  0.077637449            2 
  179000   0.97284887   -3.0542082    156.52818  0.072871591  0.077512887            3 
  180000   0.98976867   -3.0912764    156.83589  0.072609208  0.077393018            2 
  181000    1.0153963   -3.0725287    158.59371  0.073017362  0.077277151            3 
  182000   0.96549786   -3.0787025    159.33259  0.072954484  0.077160972            4 
  183000   0.96933516   -3.0903107    159.21408  0.072501859  0.077047819            2 
  184000   0.97380489   -3.0737081    160.03405   0.07247919  0.076938906            3 
  185000   0.94760813   -3.0969269    161.31472  0.072664286    0.0768282            3 
  186000   0.97029677   -3.0996023     161.5374  0.072373387  0.076715248            1 
  187000   0.96766297   -3.0947553    162.63321  0.072474694  0.076599051            3 
  188000   0.96959102   -3.0836778    163.94454  0.072670453  0.076482659            6 
  189000   0.96603911   -3.0979181    163.74797  0.072199279  0.076372232            3 
  190000    0.9674312   -3.0876265    165.80677  0.072722268  0.076268785            1 
  191000    1.0013644   -3.0958248    166.13809  0.072486079  0.076171916            5 
  192000   0.95752131   -3.1296221    167.13644  0.072541859  0.076074383            2 
  193000   0.96779182   -3.0755811    168.13317  0.072596358  0.075975383            2 
  194000   0.95260677   -3.1038096    168.20337  0.072252308  0.075875423            4 
  195000   0.95729344   -3.1206708      168.627  0.072062821  0.075774166            2 
  196000   0.94331796   -3.0887618    169.91724  0.072243723  0.075674474            3 
  197000   0.94847315    -3.110813     170.0232  0.071921829  0.075574552            1 
  198000   0.95604226   -3.1349292    171.13177  0.072025156  0.075472493            3 
  199000   0.97962908   -3.1205701    171.30296  0.071734909  0.075371632            6 
  200000   0.95827729   -3.1215835    172.51644  0.071881851  0.075267488            3 
  201000   0.94735009   -3.1294901    172.65654  0.071582315  0.075168593            2 
  202000   0.91968961   -3.1256976    173.34388  0.071511501  0.075068552            2 
  203000     0.960606   -3.1533221     173.7225  0.071314655  0.074963393            4 
  204000      0.94743   -3.1388701    173.70905  0.070959578  0.074852318            4 
  205000    0.9485522   -3.1488115    175.34905  0.071280102  0.074740535            3 
  206000   0.92465949   -3.1298833    175.32497  0.070924339  0.074629987            1 
  207000   0.94623093   -3.1361438    176.19563   0.07093222  0.074517681            1 
  208000   0.93981058   -3.1705057    175.96879  0.070500318  0.074403165            2 
  209000   0.92821139   -3.1461962    176.65056  0.070434833  0.074285567            5 
  210000   0.93151786   -3.1141102    177.58094  0.070468625  0.074168064            4 
  211000   0.94415027   -3.1324904    178.61594   0.07054342  0.074051018            3 
  212000   0.93419781   -3.1765126    178.04198  0.069985055  0.073931772            2 
  213000   0.91178905   -3.1472411    178.75236  0.069934414  0.073807803            4 
  214000   0.92659643   -3.1718901    178.49581  0.069507716  0.073686024            2 
  215000   0.93767228   -3.1384985    180.09815  0.069805484  0.073556662            2 
  216000   0.92947219    -3.161246    179.87619  0.069396677  0.073424625            5 
  217000   0.90878702   -3.1394224    180.77819  0.069423267  0.073289783            1 
  218000   0.92419417    -3.150009    179.55918  0.068638829  0.073157033            6 
  219000   0.91064645   -3.1447092    181.86327  0.069202159  0.073022748            3 
  220000   0.92107789   -3.1692921    182.06097  0.068962489  0.072889678            2 
  221000   0.90516187   -3.1475888    183.07028  0.069031024  0.072757977            8 
  222000   0.91985621   -3.1753567    182.72932  0.068592087  0.072623963            3 
  223000   0.91431547   -3.1581464    183.68103  0.068640144  0.072487098            5 
  224000   0.90404872   -3.1839389    183.81587  0.068383879  0.072352668            2 
  225000   0.91813041   -3.1853914    184.18982   0.06821845  0.072218751            6 
  226000   0.90877817   -3.1735156    184.90804   0.06818143  0.072081233            3 
  227000   0.90123784   -3.1988761     184.8368   0.06785492  0.071943492            6 
  228000   0.89606752   -3.1961132    185.33056  0.067737778  0.071805617            2 
  229000   0.90602968   -3.2086342     187.0181  0.068056078  0.071670571            3 
  230000   0.88209575   -3.1673224    187.35382  0.067881817  0.071531847            6 
  231000   0.90185651   -3.1957191    186.96959  0.067449346  0.071394381            4 
  232000   0.89754715   -3.1922934    187.72557  0.067430163  0.071257572            3 
  233000   0.91159455   -3.2021356    187.35897  0.067009646  0.071120534            3 
  234000   0.88759611   -3.1673657    188.68161  0.067194304  0.070982512            2 
  235000   0.89095756   -3.2055512    188.51265  0.066848456  0.070841748            2 
  236000   0.88991603    -3.204867    189.78001  0.067012716  0.070702013            2 
  237000    0.9034629   -3.2320886    189.38866  0.066592357  0.070562778            2 
  238000   0.88569173   -3.2124286    190.33188  0.066642815  0.070422781            3 
  239000   0.90520444   -3.1857301    191.64351  0.066821309  0.070284935            4 
  240000   0.87954609   -3.2160382    191.51008  0.066496556   0.07015069            1 
  241000   0.88455978   -3.2279687     191.9608  0.066376487  0.070013019            3 
  242000   0.87626968   -3.2417672    192.52608  0.066296859  0.069878143            5 
  243000     0.879426    -3.203228    192.46692  0.066003745  0.069742508            2 
  244000   0.86323804   -3.2061699    193.70628  0.066156517  0.069608313            5 
  245000     0.880605   -3.2230041    194.08929  0.066016765   0.06947513            6 
  246000   0.85627705   -3.2256661    194.31179  0.065823778  0.069341765            3 
  247000   0.85653978   -3.1972699    195.16067  0.065843681  0.069208407            4 
  248000    0.8692186   -3.1935005    196.00787  0.065862859  0.069074255            3 
  249000   0.87357959   -3.2371028    195.47134  0.065418789  0.068938618            4 
  250000   0.87572835   -3.2218931    196.08849  0.065362829  0.068804186            2 
  251000   0.85984414   -3.2086126    197.09371  0.065436157   0.06867241            4 
  252000   0.86172879   -3.2625964     196.6354  0.065024932   0.06853723            3 
  253000   0.84841431   -3.2239831    198.31756   0.06532199  0.068404856            4 
  254000    0.8643589   -3.2048935    198.69238   0.06518779  0.068272582            3 
  255000   0.86554125   -3.2430791    198.76985  0.064957468  0.068142729            4 
  256000   0.84127554   -3.2480203    199.56491  0.064962535  0.068014336            2 
  257000   0.85273951   -3.2381218    199.97028  0.064841205  0.067883703            4 
  258000    0.8690574   -3.2415003    200.99044  0.064919393  0.067753557            2 
  259000   0.83923108   -3.2571602    200.60469  0.064544622  0.067623587            4 
  260000   0.83896359   -3.2481943      201.136  0.064466667  0.067493182            6 
  261000   0.85907995   -3.2369256    202.52858  0.064664298  0.067363818            3 
  262000   0.85940607   -3.2602565    202.74844  0.064487417  0.067236395            4 
  263000   0.84271987   -3.2623699    202.45458  0.064149105  0.067106306            2 
  264000   0.83851114    -3.277801    202.63562  0.063963264  0.066973562            6 
  265000   0.85846464   -3.2752104    202.12309  0.063560721   0.06684124           10 
  266000   0.85058306    -3.252635    203.48302  0.063747813   0.06670933            4 
  267000   0.86835798   -3.2736223    203.92684  0.063647578  0.066578345            2 
  268000   0.85185757   -3.2640361    204.72456  0.063658133  0.066446502            1 
  269000   0.83179012   -3.2638495    204.31756  0.063295402  0.066313869            3 
  270000   0.82821833    -3.267276    204.84477  0.063223695  0.066181718            4 
  271000   0.84061862   -3.2849295     205.0189  0.063043942  0.066048107            5 
  272000   0.83560112     -3.30293    205.25243  0.062883711  0.065913161            3 
  273000   0.84369534   -3.2699789    205.78516  0.062815984  0.065779545            4 
  274000   0.83242995   -3.2673071    206.59404  0.062832739  0.065646423            4 
  275000   0.82752372   -3.2976998    206.77702  0.062659703  0.065512549            5 
  276000   0.81908966   -3.2891238     206.5528  0.062364977  0.065377349            3 
  277000   0.82125777   -3.3076229    206.42606  0.062101704  0.065242433            3 
  278000   0.81763016   -3.2991486    207.18685   0.06210637  0.065107545            4 
  279000    0.8387442   -3.2687263    209.31161  0.062518403  0.064973106            5 
  280000   0.80600861   -3.2674672    208.41952  0.062029618  0.064842474            3 
  281000   0.82411637   -3.2883866    210.00148  0.062278019  0.064711842            8 
  282000   0.81628061   -3.2976165    210.23575  0.062126404  0.064582097            3 
  283000   0.81965219   -3.3367275     210.1109  0.061870111   0.06445157            6 
  284000   0.82085175   -3.3008141    210.36815  0.061727745  0.064320272            6 
  285000   0.82071552   -3.3162524    210.72794  0.061616356  0.064191937            4 
  286000   0.80863755   -3.3076446    211.35084  0.061582412  0.064063657            3 
  287000   0.79767775   -3.3159553    211.35748  0.061369768  0.063935335            4 
  288000    0.8264068   -3.3399876    211.37388  0.061161423  0.063805331            2 
  289000    0.8173924   -3.3221155      212.268  0.061207613  0.063679212            2 
  290000   0.79307533    -3.326621    213.33919  0.061304365  0.063551443            5 
  291000   0.81075288   -3.3525156    213.06301  0.061014608   0.06342485           15 
  292000   0.80505766    -3.308316    213.10149  0.060816635  0.063297012            3 
  293000   0.79507862   -3.3681961    213.78485  0.060803429  0.063168624            4 
  294000   0.79175759   -3.3304562    214.36476  0.060760987  0.063041146            3 
  295000   0.78269216   -3.3605047    214.70978  0.060652479  0.062916034            4 
  296000   0.79738917   -3.3206279    215.07454  0.060550264   0.06279196            4 
  297000   0.79519077   -3.3193923    215.07655  0.060346956  0.062666798            4 
  298000   0.79654555   -3.3219937    215.71281  0.060322373  0.062541282            5 
  299000   0.78540006   -3.3373493    216.21198  0.060259749  0.062415241            6 
  300000   0.78737416    -3.346576    215.81682  0.059949116  0.062291083            8 
  301000    0.7694058   -3.3446809    217.06895  0.060096607  0.062163533            3 
  302000   0.79026101   -3.3373192    216.79363  0.059821642  0.062038396            5 
  303000    0.7776305   -3.3505838    218.26873  0.060029903  0.061913254            4 
  304000   0.79270751   -3.3659049    217.53504  0.059631316  0.061789235            5 
  305000   0.79099136   -3.3404869    219.18673  0.059887083  0.061665579            3 
  306000   0.77210035   -3.3592692    217.76364  0.059303823  0.061541444            2 
  307000   0.78261243   -3.3785908    218.87158  0.059411394   0.06141707            5 
  308000   0.77621308   -3.3591193    218.93867  0.059236652  0.061293402            4 
  309000   0.77681134   -3.3738878    219.55718  0.059211753  0.061169529            6 
  310000   0.77724931   -3.3928968     220.2394   0.05920414  0.061045748            4 
  311000   0.78164566   -3.3950357    220.07281  0.058969134  0.060921285            8 
  312000   0.77946308    -3.380183    220.06266   0.05877742  0.060797286            4 
  313000   0.78704417   -3.3859525    220.50168  0.058706518  0.060673622            6 
  314000   0.75813055   -3.4052876    220.13912  0.058423333  0.060551415            7 
  315000   0.77946546   -3.3753301    220.98035  0.058460411  0.060429187            6 
  316000   0.77135821   -3.3806903    222.14726  0.058583138  0.060308004            4 
  317000   0.75432327   -3.3723503    221.80297  0.058307825    0.0601874            3 
  318000   0.75673772   -3.3834208    223.52219  0.058574997  0.060068254            6 
  319000   0.77022896    -3.392422    222.92271  0.058234773  0.059949213            3 
  320000    0.7534356    -3.393555    222.91962  0.058051985  0.059829193            7 
  321000   0.77486498   -3.4240004    223.08478  0.057914012  0.059710839            3 
  322000   0.75821309   -3.4009552    224.49471  0.058099044  0.059590119            4 
  323000    0.7407748   -3.3957632    224.11534  0.057821294   0.05947074            4 
  324000   0.76059411   -3.3942436    224.82464  0.057825266  0.059350912            3 
  325000   0.76813724   -3.4131689    225.16098  0.057733584  0.059232138            8 
  326000   0.75936036   -3.4350451    224.82655  0.057470998  0.059113725            6 
  327000   0.75043172   -3.4037378    225.39032  0.057438919  0.058995606            8 
  328000   0.75140764   -3.4222663     225.8687   0.05738534  0.058879088            2 
  329000   0.75406352   -3.4020541     226.7297  0.057429003  0.058761592            6 
  330000   0.74347285   -3.4156211    226.13503  0.057104805  0.058644789            3 
  331000   0.75682804   -3.4418424     226.0707  0.056916086  0.058527988            5 
  332000   0.73967366   -3.4221337    226.76339  0.056918521  0.058410984            6 
  333000   0.74096463   -3.4225538    227.06805  0.056823836  0.058295233            7 
  334000   0.71593423    -3.413673    227.53405  0.056769972  0.058177867            6 
  335000   0.72906177   -3.4549095    227.54187  0.056602454   0.05806045            5 
  336000   0.73959128    -3.418927    227.70529  0.056474525   0.05794447            3 
  337000    0.7298788   -3.4301385    227.82281  0.056336007   0.05782687            6 
  338000   0.71703558   -3.4180993    227.93372  0.056196677  0.057708915            3 
  339000   0.71727361   -3.4458564    228.25827  0.056110686  0.057592194            3 
  340000   0.72945858   -3.4433865    228.58508  0.056025754  0.057473593            3 
  341000   0.72361689   -3.4439367    228.24998  0.055779565  0.057355073           13 
  342000   0.71756079   -3.4376472    229.25978  0.055862519  0.057237397            3 
  343000   0.74494853     -3.45353    229.31688  0.055713528  0.057118752            6 
  344000   0.72697801   -3.4573622    229.26093  0.055538015   0.05700015           10 
  345000   0.71735221   -3.4551298    228.63655  0.055226219  0.056879691            6 
  346000   0.72281455   -3.4553331    229.63345  0.055306707   0.05675921            3 
  347000    0.7095039   -3.4569036    230.17207  0.055276674  0.056639973            7 
  348000   0.71328326   -3.4729432    230.94863   0.05530379   0.05652185            4 
  349000   0.72466355   -3.4548104    231.93928  0.055381872   0.05640568            5 
  350000   0.70633349   -3.4463396    231.63495  0.055151178  0.056290693            8 
  351000   0.71015462   -3.4756966     231.4783  0.054956861  0.056176196            3 
  352000   0.71503443   -3.4872799    232.05703  0.054937743  0.056062105            4 
  353000   0.71014858   -3.4740492    233.12969  0.055035337  0.055949177            6 
  354000   0.71001457   -3.4880839    232.80796  0.054804134  0.055836446           10 
  355000   0.70940368    -3.461845    232.86066  0.054662127  0.055723879            4 
  356000   0.70329019    -3.477217    232.79053  0.054492166  0.055611199            4 
  357000   0.67064981   -3.4973428    233.43023  0.054488849  0.055498476            7 
  358000    0.6712352   -3.5025011    233.41161  0.054332311  0.055384952            9 
  359000   0.69269116   -3.5202568    233.39749  0.054177691  0.055271655           11 
  360000   0.69359475    -3.492865      233.552  0.054062962  0.055157841            3 
  361000   0.69401467    -3.497326     233.8364  0.053978856  0.055045703            3 
  362000   0.67080848   -3.4797446    234.61336  0.054008601  0.054932408            5 
  363000    0.6938123   -3.5200521     234.5279  0.053840198  0.054818273            6 
  364000   0.69309005   -3.5123272    234.52554  0.053691745  0.054704373            5 
  365000   0.68270007    -3.515209    235.53643  0.053775441  0.054591118            6 
  366000    0.6801953    -3.530787    234.83483  0.053468768  0.054478924           10 
  367000   0.67308076   -3.5178393    236.53694  0.053709568  0.054368236            4 
  368000   0.67081798   -3.5229949    236.10587  0.053466003  0.054256832            9 
  369000   0.69156419    -3.527943    236.27953  0.053360328  0.054146396            5 
  370000   0.67676128   -3.5198468    236.83698  0.053341663   0.05403549            8 
  371000   0.67316347    -3.512691    237.07483   0.05325131  0.053926291            4 
  372000    0.6709909   -3.5170166    237.28524  0.053155295  0.053816947            5 
  373000   0.67641758   -3.5394584    237.43483  0.053046208  0.053706589           10 
  374000    0.6865676   -3.5117361    236.94689  0.052795652  0.053597101            9 
  375000   0.68020437   -3.5466015    237.57724  0.052794942  0.053487567           12 
  376000   0.67679147   -3.5251173    238.36554  0.052829241  0.053378815            4 
  377000   0.66099429   -3.5235422    238.18425  0.052649039  0.053270797            6 
  378000   0.66388994   -3.5491022    238.09168  0.052489348  0.053163359           12 
  379000   0.66391145   -3.5352492    239.13964  0.052581275  0.053056271            5 
  380000   0.65612613    -3.551933    239.50156  0.052522271  0.052950066            6 
  381000   0.63819304   -3.5585528    239.21647  0.052322063  0.052843634           12 
  382000   0.65996632   -3.5593603    240.01409  0.052359094  0.052737278            7 
  383000   0.65576461   -3.5598052    239.85506  0.052187785  0.052632961            9 
  384000   0.66464408   -3.5612535    239.44225  0.051962294  0.052527547            7 
  385000   0.66475166   -3.5530349    239.40126  0.051818455  0.052422169            5 
  386000    0.6531399   -3.5671133    240.35338  0.051889762   0.05231733            4 
  387000    0.6370162   -3.5769242    240.17337  0.051716918  0.052211056            5 
  388000   0.64641015   -3.5871615    240.47124  0.051647603  0.052105445           14 
  389000    0.6556989   -3.5915345    241.00165   0.05162846  0.051999484           13 
  390000   0.64244464   -3.5690512    241.56222  0.051615859  0.051894844            6 
  391000    0.6321212   -3.6002746    241.15991  0.051398106  0.051790266            9 
  392000   0.64170397   -3.6063732    241.44351  0.051327277  0.051685457            9 
  393000   0.63243357   -3.5708336    242.39618   0.05139868  0.051582012            9 
  394000   0.63960043   -3.5915509     241.2339  0.051022399   0.05147796            7 
  395000    0.6418272   -3.5962099    242.04573  0.051064501  0.051374053            6 
  396000   0.64071171   -3.6156482    241.66398  0.050855216  0.051269805           11 
  397000   0.61504703    -3.576697    242.58567  0.050920586  0.051165855            6 
  398000    0.6324515   -3.5953565    242.40436  0.050754681  0.051062285            5 
  399000   0.63052399   -3.5809426    243.41598  0.050838759   0.05095782            6 
  400000   0.63361519   -3.6052074    242.78387  0.050579974  0.050854462            4 
  401000   0.62469484    -3.585162    243.62203   0.05062802   0.05075134           13 
  402000    0.6349341   -3.6231725    243.14467  0.050403123  0.050647879           17 
  403000   0.60414782   -3.6061874    243.16918  0.050283123  0.050544423            5 
  404000   0.61865202   -3.6337085    242.56563  0.050034164  0.050439911            8 
  405000   0.62205416   -3.6223011    243.52685  0.050108406  0.050334819            4 
  406000   0.62207068   -3.6277786    242.44077  0.049762063  0.050229388            7 
  407000   0.61508525   -3.6139002    243.25309   0.04980612  0.050125017            3 
  408000   0.61008405   -3.6210319    243.22368  0.049678039  0.050020086            7 
  409000   0.60871992   -3.6434124    243.31191  0.049574553  0.049914224           10 
  410000   0.62509166   -3.6204414    243.52034  0.049496004  0.049808769           13 
  411000   0.60602605   -3.6274147    243.51319  0.049374126  0.049703332           11 
  412000     0.612634   -3.6303914     244.1484  0.049382768  0.049597618            8 
  413000   0.60746384   -3.6257755    243.60555  0.049153662  0.049492134           14 
  414000   0.60190997    -3.650916    243.54051  0.049021842  0.049386231            7 
  415000   0.61524267   -3.6464258    244.09417  0.049014893  0.049280613            4 
  416000   0.58787063   -3.6340336    243.49268  0.048776579  0.049175036            7 
  417000   0.61557769   -3.6730421    243.62981  0.048687012  0.049068774            8 
  418000   0.58794606      -3.6689    243.08846  0.048462613  0.048961744           16 
  419000   0.58349453   -3.6704173    243.49711  0.048428223   0.04885498            6 
  420000    0.5811025   -3.6552026    244.23646  0.048459614  0.048748577           10 
  421000    0.5992145   -3.6744608    244.24793   0.04834678  0.048642487            6 
  422000   0.59128423   -3.6427259    245.19292  0.048418823  0.048537291            5 
  423000   0.58536102   -3.6715773     244.1394  0.048096808  0.048431341            9 
  424000   0.58133641   -3.6537813    244.27313  0.048009657  0.048324902           11 
  425000   0.58744437   -3.6670459    244.62706   0.04796609  0.048218855            8 
  426000   0.58899167   -3.6694328    245.09385  0.047944806  0.048113249            6 
  427000   0.59344046   -3.6792727    244.96627  0.047807624  0.048008406            6 
  428000   0.59495665   -3.6934959    244.63836   0.04763208  0.047903042           17 
  429000    0.5819912   -3.6644547    244.87378   0.04756678  0.047797721            9 
  430000   0.58150625   -3.6813815    245.29331  0.047537462  0.047692687            6 
  431000   0.57721709   -3.6777859    245.15287  0.047400013  0.047588315           11 
  432000   0.58057252   -3.6874248    245.43599  0.047344905   0.04748413           13 
  433000   0.57768525   -3.6979146    246.11537  0.047366315  0.047379758           13 
  434000   0.57434432   -3.7154176    245.22891  0.047086965  0.047275104           11 
  435000   0.57631343   -3.7197482    245.36714  0.047005199  0.047170181           15 
  436000   0.56213427   -3.7319951    245.09649   0.04684566  0.047064857            9 
  437000   0.55980768   -3.7187476     245.1401  0.046746778  0.046959431            8 
  438000   0.56922208   -3.6865237     244.4417  0.046507173  0.046853969            6 
  439000   0.56833617   -3.7118696    245.10527  0.046527195  0.046749513            7 
  440000   0.56589929   -3.7275874    245.08875  0.046418323  0.046645314           15 
  441000   0.55286744   -3.7238065    245.21783  0.046337457  0.046541004            6 
  442000   0.57379548   -3.7153175    245.89646   0.04636057  0.046437095           10 
  443000   0.54223999   -3.7148964    245.43551  0.046169208   0.04633301           10 
  444000   0.56050207   -3.7307447    245.78662  0.046131122  0.046228983            8 
  445000   0.55323616   -3.7325407    246.00131  0.046067661  0.046125401           10 
  446000   0.55164228   -3.7246906    246.45815   0.04604973  0.046022405            9 
  447000   0.55417787   -3.7260672    246.06989  0.045874327  0.045919634            8 
  448000   0.54970396   -3.7327086    246.37617    0.0458289  0.045817221            9 
  449000   0.53445255   -3.7462698    246.88469  0.045821211   0.04571521            7 
  450000   0.55226812   -3.7549607    246.59773  0.045666246  0.045613117           14 
  451000   0.54818011   -3.7676823    246.83676  0.045609158  0.045510891            8 
  452000   0.53598321   -3.7697084    246.24337  0.045398851  0.045408883           19 
  453000   0.54295552   -3.7514822    246.65005  0.045373445    0.0453075            7 
  454000   0.54553765    -3.756379     246.4409  0.045235113  0.045206268           11 
  455000   0.53586541    -3.747836    246.63676  0.045171567  0.045104777           16 
  456000   0.53742005   -3.7533751    246.51645   0.04505052  0.045002796            8 
  457000   0.53984748   -3.7599071    246.56018  0.044959916  0.044901027           17 
  458000    0.5400117   -3.7854967     246.4989    0.0448506  0.044799486           16 
  459000   0.53642649   -3.7831305    246.31107  0.044718785  0.044697951           10 
  460000    0.5295776   -3.7771261    247.13639  0.044771085  0.044596072           15 
  461000   0.53397338   -3.7801899    246.91675  0.044634264  0.044494908           20 
  462000   0.54161405   -3.7752281    246.98428  0.044549834   0.04439366            8 
  463000   0.52924838   -3.7850447    246.45675  0.044358667  0.044292063            7 
  464000   0.52972229   -3.7967996    246.78983  0.044322887  0.044190481           18 
  465000   0.51693107   -3.8086448    247.10418  0.044283904  0.044088694            9 
  466000   0.53058739   -3.7976044     247.5492  0.044268455  0.043987431           10 
  467000   0.53361286   -3.7905126    246.48563  0.043983873  0.043886216           16 
  468000    0.5120746   -3.7875521    246.34757  0.043865308  0.043785567           11 
  469000   0.52287213   -3.8166806    245.95695  0.043702372  0.043684424            7 
  470000    0.5201959   -3.8062586    246.48297  0.043702654  0.043583148           14 
  471000   0.51432733   -3.8185582    246.55461  0.043622543  0.043482011           15 
  472000   0.51902708   -3.7983137    246.69283  0.043554525  0.043381444           15 
  473000   0.51832495   -3.8214208    247.24829  0.043560304  0.043281037           12 
  474000   0.51544077   -3.8215656    247.80111  0.043565596  0.043181529           11 
  475000   0.50449129   -3.8173012    247.24305  0.043375973  0.043081828           11 
  476000   0.50998728   -3.8270357    247.44693   0.04332054  0.042981946           19 
  477000   0.50932501   -3.8369883    247.42334  0.043225601  0.042882314            9 
  478000   0.51279778   -3.8454344     247.1023  0.043079202  0.042782377           21 
  479000     0.504362   -3.8143464     247.5006   0.04305856  0.042683135           45 
  480000   0.51049183   -3.8276774    247.64782  0.042994413  0.042584203           14 
  481000   0.50451175   -3.8381247    247.81529  0.042934043  0.042485491           11 
  482000   0.50725637   -3.8478952    247.99165  0.042875459  0.042386921           16 
  483000   0.49546216   -3.8461126     247.4853  0.042699327  0.042288562           13 
  484000   0.50344539     -3.84567    247.66491  0.042642029  0.042190753           36 
  485000   0.48794338   -3.8417806    247.11798  0.042460134  0.042092419           38 
  486000   0.49200178   -3.8442531    246.87762  0.042331553  0.041994707           10 
  487000   0.48884902   -3.8307758    247.33405  0.042322733  0.041896911           21 
  488000   0.48681674    -3.868483    246.41206  0.042078561  0.041798496           14 
  489000   0.49264893    -3.869342    247.03302  0.042098334  0.041699951           15 
  490000   0.49182297   -3.8703934    246.69243  0.041954495  0.041601238           15 
  491000   0.48871573   -3.8740105    247.11364  0.041940536  0.041502936           15 
  492000   0.46564735   -3.8581852    247.14134  0.041859983  0.041405009           17 
  493000   0.46790302   -3.8739479    247.03165  0.041756533  0.041307164           15 
  494000   0.47694085   -3.8956979    246.59247  0.041597921  0.041209315           11 
  495000    0.4816078   -3.8856242    246.86516  0.041559792  0.041111236           32 
  496000    0.4695988   -3.8884707    246.97852  0.041495046  0.041013938           45 
  497000   0.47380357   -3.8821425    246.31882  0.041300942  0.040916647           33 
  498000   0.47255607   -3.8865106    246.82539  0.041302776  0.040819401           21 
  499000   0.46623862    -3.895855    246.68505  0.041196568  0.040722032           16 
  500000   0.46665653   -3.9239228    246.30488  0.041050814  0.040625041           42 
  501000   0.45757217   -3.9169503    246.85988  0.041061191  0.040527786           23 
  502000   0.46042613   -3.9028734    246.64875  0.040944347  0.040431128           19 
  503000   0.46116292   -3.8805603    246.63629  0.040860883  0.040334948           54 
  504000   0.47144716   -3.9159543    247.18717  0.040870894  0.040238889           62 
  505000   0.46728156   -3.9308868    246.92411  0.040746552  0.040142541           55 
  506000   0.45610701   -3.9303254    246.63406  0.040618258  0.040046251           26 
  507000   0.46678976   -3.9100653    246.67343  0.040544614  0.039950297           17 
  508000   0.45880479     -3.91421    247.43747  0.040590135  0.039854841           10 
  509000   0.45373847   -3.9163377    247.12019  0.040458446  0.039759898           24 
  510000   0.45666016   -3.9163176    247.13053  0.040380805  0.039664977           23 
  511000   0.45082757   -3.9283926    246.72991   0.04023645  0.039569796           23 
  512000   0.44256928   -3.9298937    246.33728  0.040093958  0.039474429           32 
Loop time of 1213.53 on 48 procs for 500000 steps with 4000 atoms

Performance: 71197.487 tau/day, 412.022 timesteps/s
99.4% CPU use with 48 MPI tasks x no OpenMP threads

MPI task timing breakdown:
Section |  min time  |  avg time  |  max time  |%varavg| %total
---------------------------------------------------------------
Pair    | 78.255     | 83.854     | 88.083     |  26.8 |  6.91
Neigh   | 8.206      | 8.5097     | 8.8519     |   5.5 |  0.70
Comm    | 77.758     | 82.329     | 89.816     |  31.1 |  6.78
Output  | 0.83149    | 0.8321     | 0.84098    |   0.1 |  0.07
Modify  | 1024.3     | 1027.3     | 1029.9     |   3.8 | 84.66
Other   |            | 10.68      |            |       |  0.88

Nlocal:        83.3333 ave          89 max          77 min
Histogram: 1 2 3 3 10 13 8 3 2 3
Nghost:        2206.71 ave        2225 max        2194 min
Histogram: 6 6 5 7 10 5 1 4 1 3
Neighs:        14700.1 ave       16341 max       12986 min
Histogram: 1 1 5 9 9 6 7 5 3 2
FullNghs:      29401.2 ave       31580 max       26847 min
Histogram: 1 1 4 5 8 12 8 4 2 3

Total # of neighbors = 1411259
Ave neighs/atom = 352.81475
Neighbor list builds = 27112
Dangerous builds = 0

#clear
#
#next RN
#
#jump SELF
Total wall time: 0:20:16
