
units lj                  # Use reduced LJ style units
atom_style atomic         # Uncharged point particles
atom_modify map hash      # Needed for indexing of clusters etc
                          # Used to be able to find where atoms are in relation to each other.

lattice fcc 1.0 spacing 1 1 1
Lattice spacing in x,y,z = 1.5874011 1.5874011 1.5874011
region box block 0 10 0 10 0 10 units lattice
create_box 2 box
Created orthogonal box = (0.0000000 0.0000000 0.0000000) to (15.874011 15.874011 15.874011)
  3 by 4 by 4 MPI processor grid
create_atoms 1 box
Created 4000 atoms
  using lattice units in orthogonal box = (0.0000000 0.0000000 0.0000000) to (15.874011 15.874011 15.874011)
  create_atoms CPU = 0.002 seconds
set type 1 type/fraction 2 0.75 78393
Setting atom values ...
  3002 settings made for type/fraction
mass 1 1.0
mass 2 1.0
pair_style lj/cut  3.5
pair_modify tail  yes
pair_coeff 1  1  1.0  1.0   # Intearaction between 1 and 1 set with epsilon = 1 and sigma = 1
pair_coeff 1  2  1.5  0.8
pair_coeff 2  2  0.5  0.88

write_data data.0
System init for write_data ...
Neighbor list info ...
  update every 1 steps, delay 10 steps, check yes
  max neighbors/atom: 2000, page size: 100000
  master list distance cutoff = 3.8
  ghost atom cutoff = 3.8
  binsize = 1.9, bins = 9 9 9
  1 neighbor lists, perpetual/occasional/extra = 1 0 0
  (1) pair lj/cut, perpetual
      attributes: half, newton on
      pair build: half/bin/atomonly/newton
      stencil: half/bin/3d
      bin: standard
WARNING: Not all mixed pair coeffs generated from mixing. Use write_data with 'pair ij' option to store all pair coeffs. (../write_data.cpp:312)


#############################
#   M E L T   S Y S T E M   #
#############################

velocity all create 2.4 6229865 mom yes dist gaussian # Assign velocities
                                                    # Temperature 2.4, random number seed, zero linear momentum
                                                                                # Gaussian distribution

timestep 0.002   # simulation timestep
thermo 1000       # output thermodynamic data every 1000 steps bf 100

# Define a fix  in this case with index 1 applied to all
# particles in the simulation. This fix is for simulations
# in the anisotropic NPT ensemble. Note that we use the MTK
# correction.
fix 1 all npt temp 2.4 2.4 0.1 iso 5.68 5.68 0.5 mtk yes tchain 5 pchain 5 # Use NPT ensemble
                                                                         # Set temperature and pressure and damping
                                                                         # Numbers of thermostats in chain and in barostat
run 10000          # run for 10000 steps
Per MPI rank memory allocation (min/avg/max) = 3.642 | 3.644 | 3.648 Mbytes
Step Temp E_pair E_mol TotEng Press Volume 
       0          2.4    -3.937065            0  -0.33796495   -3.5201857         4000 
    1000    2.4203036   -3.3868767            0     0.242671    5.7980824    3734.4163 
    2000    2.4068568   -3.4766463            0    0.1327363    5.5882337    3702.9934 
    3000    2.4396515    -3.455272            0    0.2032904    5.8670195    3696.7033 
    4000     2.382466   -3.4258729            0   0.14693274    5.4887542    3729.6202 
    5000    2.4072697   -3.4193527            0   0.19064913    5.8663524    3714.4566 
    6000    2.3946653   -3.4726747            0   0.11842519    5.7519834    3686.0706 
    7000    2.3971758   -3.4649014            0   0.12996337    5.4696137    3718.8756 
    8000    2.3730614   -3.4879848            0  0.070717316    5.4186501    3703.2188 
    9000    2.3597195   -3.4443372            0  0.094357142    5.6720912    3695.9315 
   10000    2.4104592    -3.423907            0   0.19087777    5.2883673    3752.3142 
Loop time of 2.67897 on 48 procs for 10000 steps with 4000 atoms

Performance: 645023.289 tau/day, 3732.774 timesteps/s
99.6% CPU use with 48 MPI tasks x no OpenMP threads

MPI task timing breakdown:
Section |  min time  |  avg time  |  max time  |%varavg| %total
---------------------------------------------------------------
Pair    | 1.1776     | 1.2545     | 1.332      |   3.3 | 46.83
Neigh   | 0.21632    | 0.22454    | 0.23864    |   1.0 |  8.38
Comm    | 0.8095     | 0.91776    | 1.0089     |   4.4 | 34.26
Output  | 0.0002497  | 0.0002577  | 0.00032311 |   0.0 |  0.01
Modify  | 0.23548    | 0.2661     | 0.29586    |   3.2 |  9.93
Other   |            | 0.01577    |            |       |  0.59

Nlocal:        83.3333 ave          94 max          74 min
Histogram: 1 3 4 7 15 6 1 6 2 3
Nghost:        1708.42 ave        1739 max        1673 min
Histogram: 1 2 3 6 7 14 4 5 4 2
Neighs:        10176.7 ave       11759 max        8606 min
Histogram: 2 3 2 9 10 10 3 4 2 3

Total # of neighbors = 488481
Ave neighs/atom = 122.12025
Neighbor list builds = 908
Dangerous builds = 204

# Equilibrate just above the melting temperature to avoid step fn in T

fix 1 all npt temp 1.25 1.25 0.1 iso 5.68 5.68 0.5 mtk yes tchain 5 pchain 5
run 2000
Per MPI rank memory allocation (min/avg/max) = 3.644 | 3.646 | 3.649 Mbytes
Step Temp E_pair E_mol TotEng Press Volume 
   10000    2.4104592    -3.423907            0   0.19087777    5.2883673    3752.3142 
   11000    1.2213947   -5.0227195            0   -3.1910854    6.0323296     2836.735 
   12000     1.245749   -5.1401054            0   -3.2719491    5.5630141    2823.0621 
Loop time of 0.664908 on 48 procs for 2000 steps with 4000 atoms

Performance: 519771.243 tau/day, 3007.935 timesteps/s
99.6% CPU use with 48 MPI tasks x no OpenMP threads

MPI task timing breakdown:
Section |  min time  |  avg time  |  max time  |%varavg| %total
---------------------------------------------------------------
Pair    | 0.29847    | 0.32212    | 0.36621    |   2.3 | 48.45
Neigh   | 0.042129   | 0.044084   | 0.047383   |   0.6 |  6.63
Comm    | 0.19962    | 0.2478     | 0.27542    |   2.9 | 37.27
Output  | 5.2677e-05 | 5.459e-05  | 6.975e-05  |   0.0 |  0.01
Modify  | 0.042986   | 0.045796   | 0.048115   |   0.7 |  6.89
Other   |            | 0.005054   |            |       |  0.76

Nlocal:        83.3333 ave          93 max          74 min
Histogram: 2 1 5 4 12 13 6 2 2 1
Nghost:        2069.79 ave        2086 max        2050 min
Histogram: 5 1 1 4 6 9 11 3 2 6
Neighs:        13528.2 ave       15415 max       11433 min
Histogram: 1 1 4 5 10 11 6 6 2 2

Total # of neighbors = 649352
Ave neighs/atom = 162.33800
Neighbor list builds = 144
Dangerous builds = 18

#############################
# L I N E A R  Q U E N C H  #
#############################

# Define solid atoms. This closely follows ten Wolde  Ruiz-Montero and Frenkel  Faraday Discuss  1996  104  93-110
# Compute components of the per-atom q6 vector
compute q6 all orientorder/atom degrees 1 6 components 6 nnn NULL cutoff 1.3 # compute the Q6 parameter.
                                                                             # Use all neighbours within 1.3 unit cell.

# get number of connections
compute coord_number all coord/atom orientorder q6 0.5

# An atom is solid if it has 8 or more connections (of a possible 14)
variable is_solid atom c_coord_number>=8
group solid dynamic all var is_solid    # Must be dynamic to update
dynamic group solid defined

# do clustering
compute cluster solid cluster/atom 1.3 # Create a cluster where all atoms within are solid and max 1.3 units from another member

# define chunks one chunk per cluster
compute clus_chunks solid chunk/atom c_cluster nchunk every compress yes  # Says which atoms are in which chunk

# count the size of each chunk
compute size_chunks solid property/chunk clus_chunks count


# Find the maximum entry in the vector of chunk sizes
variable max_n equal max(c_size_chunks)


# Thermo style which includes this variable
# thermo_style custom step temp pe vol v_max_n

thermo ${N}  # Print the thermo information every 100 steps
thermo 1000  

# Reset the npt fix at a lower temperature (below freezing)
fix 1  all npt temp  ${temp} ${temp}  0.1  iso  5.68  5.68  0.5  mtk yes tchain  5  pchain  5
fix 1  all npt temp  0.45 ${temp}  0.1  iso  5.68  5.68  0.5  mtk yes tchain  5  pchain  5
fix 1  all npt temp  0.45 0.45  0.1  iso  5.68  5.68  0.5  mtk yes tchain  5  pchain  5

dump dmp2 all dcd ${N} traj.dcd
dump dmp2 all dcd 1000 traj.dcd


compute msd all msd com yes
variable twopoint equal c_msd[4]/6/(step*dt+1.0e-6)
fix 9 all vector 10 c_msd[4]
variable fit equal slope(f_9)/6/(10*dt)
thermo_style custom step temp pe c_msd[4] v_twopoint v_fit v_max_n

fix 1 all npt temp 1.25 ${temp} 0.1 iso 5.68 5.68 0.5 mtk yes tchain 5 pchain 5
fix 1 all npt temp 1.25 0.45 0.1 iso 5.68 5.68 0.5 mtk yes tchain 5 pchain 5
run 500000 # 5000000  # Run for this many steps
Neighbor list info ...
  update every 1 steps, delay 10 steps, check yes
  max neighbors/atom: 2000, page size: 100000
  master list distance cutoff = 3.8
  ghost atom cutoff = 3.8
  binsize = 1.9, bins = 8 8 8
  4 neighbor lists, perpetual/occasional/extra = 1 3 0
  (1) pair lj/cut, perpetual
      attributes: half, newton on
      pair build: half/bin/atomonly/newton
      stencil: half/bin/3d
      bin: standard
  (2) compute orientorder/atom, occasional
      attributes: full, newton on
      pair build: full/bin/atomonly
      stencil: full/bin/3d
      bin: standard
  (3) compute coord/atom, occasional
      attributes: full, newton on
      pair build: full/bin/atomonly
      stencil: full/bin/3d
      bin: standard
  (4) compute cluster/atom, occasional
      attributes: full, newton on
      pair build: full/bin/atomonly
      stencil: full/bin/3d
      bin: standard
Per MPI rank memory allocation (min/avg/max) = 9.840 | 9.847 | 9.851 Mbytes
Step Temp PotEng c_msd[4] v_twopoint v_fit v_max_n 
   12000     1.245749   -5.1401054 3.9443045e-34 2.7391003e-36 8.3333333e+20            1 
   13000    1.2562218   -5.1162098   0.69635029 0.0044637837  0.058518129            4 
   14000    1.2521098   -5.1441322    1.4576181 0.0086762979  0.060892368            2 
   15000    1.2386562   -5.1344339    2.1965661  0.012203144  0.061465536            4 
   16000    1.2521502   -5.0639493    2.9177844  0.015196793  0.061049933            3 
   17000     1.245453   -5.1343906    3.5858699  0.017577793  0.060450612            3 
   18000    1.2423692   -5.1137977    4.3223934   0.02001108  0.060084418            4 
   19000    1.2511955   -5.0850565    5.0426881  0.022117053  0.059918046            1 
   20000     1.233199   -5.1435156    5.7317699  0.023882374  0.059852912            3 
   21000    1.2416338   -5.1118963    6.4450014  0.025575402  0.059708994            2 
   22000    1.2412876   -5.1036845    7.1274897  0.026998067  0.059367352            2 
   23000    1.2234429   -5.1260323    7.7482295  0.028073295   0.05915029            3 
   24000    1.2149453   -5.1580876    8.3384216  0.028952852  0.058643775            3 
   25000     1.236482   -5.1317663    9.0082795  0.030027598  0.058199196            1 
   26000    1.1978891   -5.1221818    9.6426318  0.030905871  0.057670867            1 
   27000     1.216203   -5.1733735    10.225666  0.031560696  0.057217017            2 
   28000    1.2457327   -5.1354032    10.820608  0.032204191  0.056769684            2 
   29000    1.2610706   -5.2041161    11.469375  0.032957972  0.056352375            2 
   30000    1.2142145   -5.1179811    11.973048  0.033258466  0.055873705            3 
   31000     1.225291    -5.170544    12.675212   0.03407315  0.055498742            2 
   32000    1.2052174   -5.1468531    13.428183  0.034969226  0.055251406            2 
   33000    1.2224398   -5.1348502    14.105379  0.035619643  0.055135529            1 
   34000    1.2200364   -5.1976091    14.552242   0.03566726  0.054976467            6 
   35000    1.2173457   -5.1495913      15.2742  0.036367142  0.054766558            3 
   36000    1.2291419    -5.200678    15.866092  0.036727063  0.054594452            2 
   37000    1.2037208   -5.1949863    16.487293  0.037133543  0.054436215            4 
   38000    1.1973825   -5.1797899    17.134892  0.037576517  0.054294155            2 
   39000    1.2051997   -5.1350548    17.790194  0.038013235  0.054143979            1 
   40000    1.1861053   -5.2074427    18.198904  0.037914383   0.05396736            3 
   41000    1.1948989   -5.2221834    18.711777  0.038032067  0.053771415            5 
   42000    1.2001454   -5.1823553    19.412073  0.038516018  0.053565386            4 
   43000    1.1991768   -5.1826794    19.881724  0.038530472  0.053377551            2 
   44000    1.2032442   -5.2131403    20.469059  0.038767156  0.053144055            3 
   45000    1.2107057   -5.2040739      20.9112  0.038724444  0.052918746            1 
   46000    1.2013968   -5.2508149    21.361264  0.038697941  0.052662178            2 
   47000    1.1977683     -5.20531    22.043713  0.039084598  0.052422093            3 
   48000    1.1919748   -5.2074264    22.606637  0.039247634  0.052207437            2 
   49000    1.1631781   -5.2315169    23.102877  0.039290607  0.051964152            6 
   50000    1.2113838   -5.1779041    23.563843  0.039273071  0.051714118            2 
   51000     1.191375   -5.2512119    24.193567  0.039531972  0.051491961            5 
   52000    1.1861801   -5.2027433    24.791126  0.039729368  0.051294359            3 
   53000    1.1858493   -5.2284958     25.20126  0.039624623  0.051093818            2 
   54000    1.1809467   -5.2480428    25.855574  0.039900577  0.050920472            3 
   55000    1.1911641   -5.2094023    26.562166  0.040245706  0.050750122            2 
   56000    1.1805462   -5.2222451    27.021658    0.0402108  0.050601207            2 
   57000    1.1421346   -5.2030165    27.682491  0.040471478  0.050469939            3 
   58000    1.1834014   -5.2648558    28.082653  0.040348639  0.050339514            3 
   59000    1.1599852   -5.2718337    28.783075  0.040654061  0.050233127            2 
   60000    1.1660241   -5.2220596    29.530823  0.041015031  0.050146557            1 
   61000    1.1917716   -5.2435261    30.282418  0.041369423  0.050079914            3 
   62000    1.1568648   -5.2633182    30.784154   0.04137655  0.050035855            2 
   63000    1.1818688   -5.3075875    31.122133  0.041166842  0.049968035            6 
   64000    1.1779623   -5.2354569    31.820898   0.04143346  0.049895486            2 
   65000    1.1684716   -5.2738632    32.167757  0.041240714   0.04982859            3 
   66000    1.1767836    -5.259342    32.717903  0.041310483  0.049724506            2 
   67000    1.1652843   -5.2703714    33.354418  0.041485594  0.049627646            1 
   68000    1.1608718   -5.2827004    33.966066  0.041625081   0.04954702            3 
   69000    1.1525486   -5.3067236    34.606786  0.041795634  0.049479853            3 
   70000    1.1823641   -5.3196329       35.126  0.041816666   0.04943963            4 
   71000    1.1411439   -5.3270807    35.720551  0.041925529  0.049390687            4 
   72000    1.1415083   -5.2859893    36.338679  0.042058656  0.049330288            5 
   73000    1.1546729   -5.3127998    36.705005   0.04190069  0.049276032            1 
   74000    1.1287222   -5.2708204    37.585915  0.042326481   0.04922274            4 
   75000    1.1553344   -5.3286517    37.720399  0.041911554  0.049165291            2 
   76000     1.187342   -5.3431983    38.388212  0.042092338  0.049101522            2 
   77000    1.1379391   -5.2923696     38.99096  0.042198009  0.049042139            2 
   78000    1.1406868   -5.3310066    39.415238  0.042110297  0.048984649            3 
   79000    1.1388992   -5.3024306    40.245028  0.042452561  0.048931818            2 
   80000    1.1366873   -5.3040271    40.602734  0.042294514  0.048882851            1 
   81000    1.1377459   -5.3419032    41.114291  0.042298653   0.04883849            4 
   82000    1.1512571   -5.3199146    41.719677  0.042398045  0.048777962            5 
   83000    1.1058944    -5.359911    42.279176  0.042448972  0.048725968            4 
   84000    1.1245325   -5.3264626    42.881587  0.042541257  0.048673772            2 
   85000    1.1237737   -5.3370982    43.377551   0.04252701  0.048625456            4 
   86000    1.1255336   -5.3713774    43.755099  0.042398352  0.048572463            3 
   87000     1.123037   -5.3542429    44.262883  0.042397397  0.048508638            2 
   88000    1.1079183   -5.3346021    44.796385  0.042420819  0.048452092            1 
   89000    1.1285787    -5.345304    45.543776  0.042643985  0.048398851            1 
   90000    1.1200664   -5.3370087    45.880542  0.042481983  0.048339316            2 
   91000    1.1209924   -5.3338095    46.429959  0.042518278  0.048284656            2 
   92000    1.1105074   -5.3135491    46.848828  0.042435532  0.048218853            4 
   93000    1.1411799   -5.3480775    47.290238  0.042374765  0.048145199            2 
   94000      1.11672   -5.3901145    47.615436  0.042212266  0.048068212            3 
   95000    1.1296368   -5.3490394    48.373141  0.042432579  0.047987834            7 
   96000    1.1223072   -5.3786287    48.850769  0.042405181  0.047920504            3 
   97000    1.1311116   -5.3640733    48.992074   0.04208941  0.047843707            4 
   98000    1.1207219   -5.3554292    49.649033  0.042218565   0.04775182            2 
   99000    1.1284812   -5.3582696    50.085335  0.042159373  0.047664607            4 
  100000    1.0940728   -5.3413408    50.562037   0.04213503  0.047574692            4 
  101000    1.0953585   -5.3337457    51.333115  0.042354055  0.047483684            2 
  102000    1.1070998    -5.353821    51.650002  0.042197714   0.04739784            5 
  103000    1.1045633   -5.3694429    52.182824  0.042219113  0.047315776            1 
  104000    1.1245158    -5.397965     52.29579  0.041903678  0.047227036            1 
  105000    1.0812124   -5.3902403    52.708394  0.041832059  0.047132903            2 
  106000    1.1084312   -5.4134673    53.022005  0.041683966  0.047030328            3 
  107000    1.0956004    -5.391078    53.777563  0.041882837  0.046932074            3 
  108000     1.083798   -5.4194254     54.04002  0.041697546  0.046838235            4 
  109000    1.0921041   -5.4100709    54.719417  0.041834417  0.046746961            3 
  110000    1.0748964   -5.4455692    55.089559  0.041734514  0.046653407            3 
  111000     1.090595   -5.4046105    55.874892  0.041948117  0.046565331            2 
  112000     1.100038   -5.4308739    56.189401   0.04180759  0.046484976            2 
  113000    1.0800661   -5.4333744    56.701408  0.041815197  0.046402031            2 
  114000    1.0797811   -5.4121947    57.698046  0.042176934  0.046330352            3 
  115000    1.1074334   -5.4376114     57.77201  0.041863775  0.046262938            3 
  116000    1.0807148   -5.4077539    58.584603   0.04208664  0.046189784            3 
  117000    1.0820091   -5.4625034    58.733766  0.041833167  0.046122041            2 
  118000     1.071026   -5.4546099    59.619946  0.042104481  0.046059059            6 
  119000      1.07519   -5.4525462    60.057527  0.042057092   0.04600306            2 
  120000    1.0759767   -5.4765684    60.107624  0.041741405  0.045939379            4 
  121000    1.0770232   -5.4265353    60.906818  0.041946844  0.045876177            2 
  122000    1.0580884   -5.4157808    61.427926  0.041958966  0.045815413            3 
  123000    1.0746224   -5.4334069    62.099563  0.042072875  0.045756134            4 
  124000    1.0661358   -5.4557864    62.167228  0.041779051  0.045698483            6 
  125000    1.0636439   -5.4779979    62.799161  0.041866107  0.045631907            2 
  126000    1.0660262   -5.4452341    63.443526  0.041960004  0.045570064            5 
  127000    1.0586397   -5.4483405    63.604702  0.041735369   0.04551026            5 
  128000    1.0522886   -5.4808135    64.001027  0.041667335  0.045442984            5 
  129000    1.0770166   -5.4639545    64.260192  0.041511752  0.045371316            2 
  130000    1.0581789   -5.4665574    64.601758  0.041411383   0.04529487            5 
  131000    1.0723439   -5.4670277    65.241823  0.041502432  0.045216857            2 
  132000    1.0403972   -5.4871245     65.45762  0.041324255  0.045143341            3 
  133000    1.0535863   -5.5242857    65.805057  0.041231238  0.045066891            4 
  134000    1.0703268   -5.5014968    66.412732   0.04130145  0.044994843            6 
  135000    1.0781529   -5.5385783    66.656812   0.04114618  0.044918438            6 
  136000    1.0719713   -5.5131604    66.878162  0.040979266  0.044833533            5 
  137000    1.0567242   -5.5391822    67.496702  0.041056388  0.044751879            3 
  138000    1.0350458    -5.482699    67.867131  0.040982567  0.044672567            3 
  139000    1.0528763   -5.5296282    68.434384  0.041027808  0.044598907            5 
  140000    1.0624719   -5.4871265    68.772685  0.040936122   0.04452026            3 
  141000    1.0616904   -5.5298617    69.018591  0.040791129  0.044436187            5 
  142000    1.0484931   -5.5447542    69.369701  0.040709918  0.044346288            3 
  143000    1.0652592   -5.5315973     69.86147  0.040711812  0.044263258            2 
  144000    1.0403999   -5.5440149    69.973217   0.04049376  0.044179369            3 
  145000    1.0610549   -5.5406046    70.278273  0.040389812  0.044095063            2 
  146000    1.0169354   -5.5310176    70.758585   0.04038732   0.04400854            2 
  147000    1.0262369    -5.518979    71.387337  0.040469011  0.043923516            6 
  148000    1.0376295   -5.5504839     71.43071  0.040219994  0.043836361            4 
  149000    1.0216125   -5.5249608    72.164265  0.040360327  0.043749138            2 
  150000    1.0243013   -5.5229519    72.642325  0.040356847  0.043662566            1 
  151000    1.0209929   -5.5296383    72.735755  0.040141145  0.043577039            5 
  152000    1.0051103   -5.5190573    73.158946  0.040109071  0.043489503            4 
  153000     1.024264   -5.5586137    73.779369  0.040184841  0.043403384            9 
  154000    1.0291218   -5.5814837    74.171029  0.040135838  0.043321606            3 
  155000    1.0309683   -5.5707682    74.413807  0.040007423  0.043237455           10 
  156000    1.0297054   -5.5950594    74.678878  0.039892563  0.043151547            2 
  157000    1.0090853   -5.5223014    75.467293   0.04005695  0.043067877            4 
  158000    1.0418326   -5.5852397    75.435127  0.039786459  0.042986685            2 
  159000   0.99925401   -5.5691123    75.949356  0.039805742  0.042901419            3 
  160000    1.0107699    -5.571783     75.91314  0.039538093  0.042814364            6 
  161000    1.0072091   -5.6010936    76.638122  0.039667765   0.04272868            4 
  162000     1.001015   -5.5622003    76.821563  0.039517265  0.042643302            5 
  163000   0.99404919   -5.5730503    77.288271  0.039513431  0.042558566            2 
  164000    1.0209736   -5.5818496    77.704574  0.039484031  0.042475236            4 
  165000    1.0123603   -5.5924515    77.723476  0.039254281  0.042389692            3 
  166000    1.0026817   -5.6138495    78.106246  0.039209963  0.042303122            2 
  167000    1.0170708   -5.6030642    78.450648   0.03914703  0.042212393            4 
  168000   0.98666171   -5.6246639    78.656843  0.039016291  0.042123317            5 
  169000    0.9916884   -5.5854797    79.377866  0.039140959  0.042033206            4 
  170000   0.98762061   -5.5977234    79.392564  0.038917923  0.041941754            4 
  171000   0.98523014   -5.6663617    79.331047  0.038660354  0.041848004            3 
  172000    1.0163921   -5.5950492    80.385144   0.03894629  0.041755856            5 
  173000   0.98898748   -5.6524722    80.190621  0.038627467  0.041666597            5 
  174000    0.9992312   -5.6053815    81.065646  0.038824543  0.041579106            2 
  175000   0.98485513    -5.651887    81.184786  0.038659422  0.041491571            6 
  176000   0.99084256   -5.6175179    81.815251  0.038738281  0.041404389            6 
  177000   0.98301738   -5.6356807     82.14907  0.038676587  0.041318962            4 
  178000   0.97499903   -5.6621292    82.240083  0.038501912  0.041231985            4 
  179000   0.97678368   -5.6764523    82.450885  0.038384956  0.041142973            4 
  180000    1.0158009    -5.669726     82.48351   0.03818681  0.041055944            4 
  181000   0.99222448   -5.6448973    83.305171   0.03835413   0.04096958            2 
  182000   0.97098247   -5.6631706    83.536911  0.038249501  0.040882336            4 
  183000   0.98293672   -5.6516813    83.759476  0.038141838  0.040797011            5 
  184000   0.97337598   -5.6366934    84.041424  0.038062239  0.040711002            8 
  185000   0.97272527    -5.685985      84.2527  0.037951666  0.040622319            2 
  186000   0.97141654   -5.6902307    84.816684  0.038000306   0.04053338            7 
  187000   0.97555811   -5.6541107    85.091035  0.037919356  0.040446901            4 
  188000    0.9719286   -5.6983712    85.210882  0.037770781  0.040360626            7 
  189000   0.97976948   -5.6878428    85.095238  0.037519946  0.040268232           10 
  190000   0.96455497   -5.6900018    85.644416   0.03756334  0.040172407            5 
  191000   0.95484947   -5.7010969    85.765787  0.037419628  0.040078609            4 
  192000    0.9560066   -5.7013143    85.984748  0.037319769  0.039985103            5 
  193000   0.97209481   -5.7220129    86.549198   0.03737012  0.039891628            4 
  194000   0.95596273   -5.6948277    86.787515   0.03727986  0.039798844            4 
  195000   0.98462298   -5.6818975    87.225968  0.037276054  0.039705179            6 
  196000   0.94178745   -5.7418817    86.961491  0.036973423  0.039613268            2 
  197000   0.94522219   -5.6923133    87.608213  0.037059312  0.039519709            2 
  198000   0.93693529   -5.7597303    87.506235  0.036829224  0.039424978            8 
  199000   0.94653493   -5.7335858    88.064839  0.036878073  0.039330881            3 
  200000   0.92577759   -5.7709921      88.2711  0.036779625  0.039234122            5 
  201000   0.95788007   -5.7295297    88.356555  0.036632071  0.039139212            4 
  202000   0.94060955   -5.7454761    88.537383  0.036525323   0.03904516            4 
  203000   0.93339879   -5.7279124     89.08028   0.03656826  0.038950994            6 
  204000   0.93921331   -5.7281425    88.974822  0.036345924  0.038857369            2 
  205000   0.93456892   -5.7843032    89.130018  0.036231714  0.038760784            5 
  206000   0.93024024   -5.7692116     89.38417  0.036158645  0.038663673            4 
  207000   0.96358812   -5.7673188     89.51494   0.03603661  0.038565156            4 
  208000   0.94005482   -5.7701491      89.5959  0.035895793  0.038465975            4 
  209000   0.94122198   -5.7770701    89.970132  0.035873258  0.038365952            6 
  210000   0.94857711   -5.7587487    90.525888  0.035922971  0.038268489            4 
  211000   0.93837608    -5.761777    90.915353  0.035906538  0.038172529            3 
  212000    0.9192426   -5.7560823    91.144248  0.035827141  0.038078059            3 
  213000   0.92072792   -5.7929102    91.336404  0.035734117  0.037984919            5 
  214000    0.9249497   -5.8001775    91.799822  0.035747594   0.03789443            5 
  215000   0.92116296   -5.7419977    92.283307  0.035768723  0.037804439            2 
  216000   0.92085768   -5.7845066    92.434785  0.035661568  0.037714156            4 
  217000   0.93380342   -5.8287862    92.490606  0.035518666  0.037623846            8 
  218000    0.9392309   -5.7894023    92.689591  0.035431801  0.037532819            5 
  219000   0.92519954   -5.7997541    93.355704  0.035523479  0.037444542            4 
  220000   0.91209765   -5.7908044    93.438495  0.035393369   0.03735763            3 
  221000   0.91049877   -5.8101603    93.733943  0.035344624  0.037269707            6 
  222000   0.91994807   -5.7757819    94.031255  0.035297018  0.037181625            2 
  223000   0.90740846   -5.8102611    93.823771    0.0350612  0.037091266            7 
  224000   0.91710922   -5.7955028    94.065178  0.034994486  0.037000947            8 
  225000    0.8770081   -5.8088116    94.483603  0.034993927   0.03691078            3 
  226000   0.92302079   -5.8144892    94.675392  0.034909805  0.036822917            2 
  227000   0.90806576   -5.8684361    94.498214  0.034690974  0.036733517            2 
  228000     0.910445   -5.8221883    94.937151  0.034699251  0.036642066           12 
  229000   0.91234253   -5.8201073     94.93601  0.034547311  0.036550979           13 
  230000   0.90983327   -5.8003491    95.426247  0.034574727  0.036458806            3 
  231000   0.90895964   -5.8159443    95.684766  0.034518314  0.036368092           10 
  232000    0.8971772   -5.8224805    95.642862  0.034354476  0.036277041            4 
  233000   0.89378937   -5.8598463    95.849653  0.034280992  0.036184641            4 
  234000   0.88405369   -5.8327953    96.065645  0.034211412  0.036093719            5 
  235000   0.90329382   -5.8548476    96.279838  0.034141787  0.036001766            8 
  236000   0.88557214   -5.8401167    96.386042  0.034034619  0.035908591            3 
  237000   0.89091989   -5.8612188    96.704469  0.034002978  0.035815979            6 
  238000   0.88450688   -5.8509414     96.79494  0.033891786  0.035723556            5 
  239000   0.91110254   -5.8751979    97.135934  0.033868875  0.035632716            4 
  240000    0.8923618   -5.8394608     97.39767  0.033818635  0.035542125            5 
  241000   0.89154313   -5.8732136    97.204579  0.033611542  0.035451317           13 
  242000   0.87524312   -5.8910375    97.308452   0.03350842  0.035359467            5 
  243000   0.87409311   -5.8770969     97.81695  0.033544907  0.035267968            4 
  244000   0.87690844   -5.8927606     97.55108  0.033316626  0.035175791            6 
  245000   0.86991028    -5.873109    98.337786  0.033448226  0.035085467            5 
  246000   0.88495325   -5.9211455    98.334251   0.03331106  0.034995143            8 
  247000   0.87143259   -5.8846386     98.84605   0.03334887  0.034905965            4 
  248000   0.86817208    -5.901275    99.095071  0.033298075   0.03481976            6 
  249000   0.85998756   -5.9030246    99.278848  0.033225853  0.034732983            4 
  250000   0.85416823   -5.8645418     99.81232  0.033270773  0.034648693            7 
  251000    0.8848119   -5.9466068    99.667702  0.033090207  0.034564285            6 
  252000   0.85723977   -5.9171813    99.923391  0.033043449  0.034479658            4 
  253000   0.86824715   -5.9000815    99.960071  0.032924924  0.034394686            7 
  254000   0.86173179   -5.9228577    100.12106  0.032848118  0.034309913            5 
  255000   0.88115407   -5.8829653    100.35741   0.03279654  0.034223446            3 
  256000   0.86136708   -5.9720297    99.898946  0.032519188  0.034136001           14 
  257000   0.85288992   -5.9545525    100.29807  0.032522071  0.034047168            6 
  258000   0.85619324   -5.9198919    100.75053  0.032542161  0.033959903            5 
  259000   0.87366565   -5.9162039    100.66554  0.032389171  0.033873031            3 
  260000   0.85834388   -5.9709346    100.61194  0.032247418    0.0337848            4 
  261000   0.84604941   -5.9130267    101.15128  0.032296068  0.033696882            6 
  262000   0.84358929   -5.9303315    100.83414  0.032071926  0.033609372            6 
  263000   0.88089453   -5.9108571    101.69803  0.032223709  0.033522659            7 
  264000   0.84301411   -5.9753252    101.48611  0.032034758  0.033435688           12 
  265000   0.83694897   -6.0019537    101.56205  0.031937751  0.033349059            6 
  266000   0.84926778   -5.9711202    101.82925  0.031901395  0.033262096            6 
  267000   0.83483963   -5.9913967    102.06684  0.031856068  0.033176206            4 
  268000   0.83144414   -5.9928805    102.49094  0.031869075  0.033091809            7 
  269000   0.84763648   -5.9758579    102.36265  0.031710859  0.033007196           12 
  270000   0.83939425   -5.9796654    102.98039  0.031784072   0.03292297            4 
  271000   0.83916979   -6.0050233    103.08055  0.031697587  0.032839981            7 
  272000   0.83436096   -5.9976971    102.95855  0.031543672  0.032757043            8 
  273000   0.81291846   -5.9915742    103.42098  0.031569287  0.032675032            7 
  274000   0.82117048   -5.9687931    103.76456  0.031558565  0.032593793            3 
  275000   0.81932335   -6.0003572    103.74318  0.031437328  0.032512743            6 
  276000    0.8218512   -5.9972307     104.0872  0.031427296  0.032431873            6 
  277000   0.84561775   -6.0069611    104.07805  0.031311085  0.032350902            4 
  278000   0.82959124    -6.014947    104.22833  0.031243505  0.032269848            5 
  279000   0.83586322   -6.0395318    104.37161  0.031174316  0.032190264            9 
  280000   0.81977716   -6.0107215    104.85642  0.031207268  0.032110852           12 
  281000   0.80736527   -6.0438561    104.74587  0.031063424  0.032031071            6 
  282000   0.81211772   -6.0315897    104.98104  0.031022765  0.031951524            7 
  283000   0.83649403   -6.0270708    104.76635  0.030849927   0.03187168            7 
  284000   0.82030508   -6.0589376    105.08207  0.030833942   0.03179188            5 
  285000   0.84517323   -6.0689117       105.05  0.030716374  0.031711716            7 
  286000   0.80861717   -6.0489178    105.23646  0.030663305  0.031632011            7 
  287000   0.81041233   -6.0701611    105.40157  0.030604404  0.031552364            6 
  288000   0.83114568    -6.047196    105.43743  0.030508515   0.03147255           14 
  289000   0.82117732   -6.0880307    105.45389  0.030407695  0.031392672            4 
  290000   0.79026973   -6.0871671    105.53951  0.030327444  0.031312456            5 
  291000   0.82693316   -6.0835485    105.90945  0.030329167  0.031232914            7 
  292000   0.80291631   -6.0562652    106.38826  0.030361946  0.031154225            7 
  293000   0.79374531   -6.0664241    106.46092  0.030278986  0.031075713            5 
  294000   0.77709496   -6.0511036    106.67436  0.030236496  0.030998341            9 
  295000    0.8178949   -6.0806847    106.63835  0.030123829  0.030920398            3 
  296000    0.7961611   -6.0992033    106.53362  0.029992572  0.030842273            6 
  297000   0.78618692   -6.1180103    106.77962  0.029960611  0.030763491           13 
  298000   0.79459744   -6.0958925    107.18325  0.029972944  0.030684693            6 
  299000   0.78198578   -6.0777515    107.07291  0.029841948  0.030606753            9 
  300000   0.81152699   -6.0923336    106.99258   0.02972016  0.030528957            7 
  301000   0.78037137   -6.1013807    107.45192  0.029748595   0.03045129           12 
  302000   0.79502171   -6.0950135    107.02634  0.029532654  0.030374558            9 
  303000   0.79229829   -6.1074629    107.40815  0.029540194  0.030296763            9 
  304000     0.776967   -6.1086458    107.52916  0.029476195    0.0302193            9 
  305000   0.77317525   -6.1010138     107.6508  0.029412787  0.030141116           11 
  306000   0.77404601   -6.1481833    107.58407  0.029298494  0.030062755            8 
  307000    0.7765574   -6.1143051    107.68935  0.029231638  0.029984247           11 
  308000    0.7791085   -6.1397745    107.72751  0.029147054  0.029906259            8 
  309000   0.78816452    -6.151367    107.87677   0.02909298  0.029827762            5 
  310000   0.78222966   -6.1280814    108.09118  0.029056768  0.029749577            7 
  311000   0.76754572   -6.1436107    108.11194  0.028968901  0.029671921            4 
  312000   0.76947614   -6.1335872    108.14029  0.028883626  0.029594543            5 
  313000   0.76626551   -6.1402278    108.27976  0.028828476  0.029517083            5 
  314000   0.76165924   -6.1677712    108.47253  0.028787827  0.029439462            8 
  315000   0.74612215   -6.1724052    108.48121  0.028698733  0.029361791            6 
  316000    0.7789128   -6.1555901    108.67664  0.028659452  0.029284164            7 
  317000   0.77735619   -6.1682306    108.53703  0.028532341  0.029206649            7 
  318000   0.75820011   -6.1717556    108.59974  0.028459052  0.029129202            9 
  319000   0.77630668   -6.1704437    108.81182   0.02842524  0.029051369            7 
  320000   0.77212186   -6.1791948    109.07176  0.028404103  0.028974374            8 
  321000   0.74356386   -6.2096998    108.70781  0.028221133  0.028896148            7 
  322000   0.75468723   -6.2237058    108.90779  0.028185246  0.028818739           10 
  323000   0.76457397   -6.1668908    109.31641  0.028203407   0.02874187            6 
  324000   0.74587225   -6.1769641    109.36123  0.028127888  0.028665349            6 
  325000   0.74610465   -6.1961573    109.26433  0.028016495  0.028588742           12 
  326000   0.75436127   -6.1798578    109.24647  0.027925989  0.028511589            3 
  327000   0.73394353   -6.2188705    109.13799  0.027812942  0.028434532            5 
  328000   0.74285346   -6.2230182     109.3229  0.027775126  0.028357488            8 
  329000   0.73846211   -6.2056611    109.28278  0.027680543  0.028280374           10 
  330000   0.73586299   -6.2324456    109.23812  0.027585384  0.028203559           13 
  331000   0.74147092   -6.2023019    109.98147  0.027689191  0.028127553            9 
  332000     0.757506   -6.2347176    109.86488  0.027576526  0.028052046            6 
  333000   0.74744298   -6.2418718    109.95148  0.027515386  0.027976372           30 
  334000   0.73369224   -6.2415731    110.24166  0.027505404   0.02790102            8 
  335000   0.72428914   -6.2465206    110.13881  0.027397714  0.027826283           10 
  336000   0.73307583   -6.2594089    110.15847  0.027321048  0.027751281           10 
  337000   0.72787001   -6.2626949    110.12386   0.02723142  0.027676576            9 
  338000   0.73177032   -6.2514524    110.05939  0.027134958  0.027601625           14 
  339000   0.73079583   -6.2558039     109.9765  0.027034539  0.027526364           10 
  340000   0.74040241   -6.2574049    109.97422  0.026954466  0.027450765            7 
  341000   0.72364871   -6.2781678    110.18806  0.026927678  0.027376025           11 
  342000   0.72614114   -6.2597753    110.27158  0.026869293  0.027301311           14 
  343000   0.73138161   -6.2713733    110.34783  0.026809482   0.02722648           11 
  344000   0.70324934   -6.2688497    110.46026  0.026758783  0.027151929           26 
  345000   0.71711387   -6.2838702    110.80615   0.02676477  0.027077552           11 
  346000   0.74448631   -6.2657549    110.79131  0.026683841  0.027003986           12 
  347000   0.70588119   -6.2936245    110.70047  0.026585127  0.026930153            7 
  348000   0.69145939   -6.2723647    110.91368  0.026559789  0.026856265           10 
  349000   0.72739619   -6.2718986     110.8315  0.026464064  0.026783134            6 
  350000   0.70716941   -6.2871895    111.28602  0.026496672  0.026710405           13 
  351000   0.69991359   -6.3028836    110.76473  0.026297418  0.026637383            8 
  352000   0.70942946   -6.3011276    111.14927  0.026313748  0.026564691           25 
  353000   0.71303371   -6.3484284    111.04153   0.02621377   0.02649173            6 
  354000   0.70499313   -6.3099484    111.02636   0.02613615  0.026418792           16 
  355000   0.70244522   -6.3334667    111.17881  0.026098311  0.026345883           13 
  356000   0.68737682   -6.3260102    111.36042  0.026067515  0.026272898            7 
  357000    0.6974233    -6.304243     111.4431  0.026013796  0.026200583            7 
  358000   0.69255713   -6.3342039    111.49719  0.025953721  0.026128633            8 
  359000   0.68708751   -6.3174347      111.388  0.025856081  0.026055936           15 
  360000   0.69858547    -6.331752    111.33278  0.025771477  0.025983597           20 
  361000   0.68483372   -6.3427048     111.5273   0.02574499  0.025911274           12 
  362000    0.6916054   -6.3693522    111.45035  0.025656159   0.02583895           16 
  363000   0.69187578   -6.3505752    111.54457   0.02560711  0.025767131           10 
  364000   0.70093594   -6.3818554    111.62393   0.02555493  0.025695096           27 
  365000   0.67416133   -6.3693549    111.38873  0.025431216  0.025623203           15 
  366000   0.67890737   -6.3701393    111.51797  0.025391159   0.02555158           27 
  367000    0.6869244   -6.3705329    111.42515  0.025300896   0.02547977           14 
  368000   0.68556906   -6.3862002    111.52007  0.025253639    0.0254079           32 
  369000   0.68275174   -6.4019008    111.43916  0.025166929  0.025335954           38 
  370000   0.66702835   -6.3998838    111.68906  0.025155195  0.025264554           46 
  371000   0.65227492   -6.3933895    111.78597  0.025109157  0.025193699           38 
  372000   0.67576711   -6.4042709    111.81212  0.025047518  0.025122895           27 
  373000   0.65420207   -6.3887779    111.71775  0.024959283  0.025052237           11 
  374000   0.66259561   -6.3991906    111.69551  0.024887592  0.024981713           11 
  375000   0.68487195   -6.4091607    111.88934  0.024864298  0.024911451            9 
  376000   0.66708086   -6.3849495    111.97258  0.024816618  0.024840937           33 
  377000   0.66940332   -6.4067661    111.95374  0.024746628  0.024770803           30 
  378000   0.65977656   -6.4175989    112.03206  0.024698426  0.024700813           17 
  379000   0.65189328   -6.4329888    111.70187  0.024560658  0.024630771           15 
  380000   0.66054873   -6.4233913    111.87306  0.024533566  0.024560765           18 
  381000   0.66482658   -6.4398491    111.90836  0.024476893  0.024491265           21 
  382000   0.65023494    -6.445903    111.89283   0.02440943  0.024421402           29 
  383000   0.65958336   -6.4446222     111.7406  0.024312576  0.024351642           16 
  384000   0.65714671   -6.4431558     111.9479  0.024294249  0.024281926           10 
  385000   0.65592567   -6.4527166    111.71971  0.024181755  0.024212353           13 
  386000   0.67185977   -6.4711087     111.7168  0.024118479  0.024142558           28 
  387000    0.6467347   -6.4825631    111.79076  0.024072084  0.024072842           21 
  388000   0.65274548   -6.4886409    111.82908  0.024018272  0.024003418           22 
  389000   0.63883799   -6.4820722    112.00388  0.023993976  0.023934151           37 
  390000   0.65148214   -6.4741011    111.88504   0.02390706  0.023865248           23 
  391000   0.62925555    -6.473099    111.95676  0.023861201  0.023795882           41 
  392000   0.63141796   -6.4772919    112.04734  0.023819588  0.023726921           11 
  393000   0.64366999   -6.5047938    111.77065  0.023700307  0.023657767           16 
  394000   0.62972592   -6.4936536    112.06585  0.023702591  0.023589102           27 
  395000   0.63688722    -6.504436    111.81559  0.023589786  0.023520454           22 
  396000     0.644861   -6.4985888    111.98941  0.023566796  0.023451702           19 
  397000    0.6358682   -6.5076597    112.09062  0.023528677   0.02338336           22 
  398000   0.62426325    -6.501881    111.76334  0.023401034  0.023315098           15 
  399000   0.63121682   -6.4987996    111.87094  0.023364857  0.023246717           26 
  400000   0.63256273   -6.5118012    111.87429  0.023307143  0.023178664           27 
  401000   0.63076508   -6.5045887    111.66236  0.023204979  0.023110771           19 
  402000   0.63691765   -6.5128748    111.86305  0.023188857  0.023043205           32 
  403000   0.62075417   -6.5251525    111.89699  0.023138336  0.022975642           35 
  404000   0.62422786    -6.531339    111.73579  0.023047811  0.022908131           26 
  405000   0.64087033   -6.5207066    111.91946  0.023028695  0.022840525           26 
  406000   0.61290794   -6.5402802    111.90489  0.022968984  0.022772994           36 
  407000    0.6316463   -6.5606122    111.93524  0.022918763  0.022705608           22 
  408000   0.62778397   -6.5467657    111.74728    0.0228242  0.022638433           56 
  409000   0.60223866   -6.5329165    111.91772  0.022803122  0.022571271           35 
  410000   0.61720434   -6.5336817    111.78551  0.022720631   0.02250444           26 
  411000   0.60737623   -6.5618344    111.75345  0.022658851  0.022437337           33 
  412000   0.61595866   -6.5595355    111.73093  0.022599297  0.022370585           53 
  413000   0.60343047   -6.5694549    111.73273  0.022544942  0.022303949           58 
  414000   0.60632662   -6.5747069    111.72165  0.022488256  0.022237302           42 
  415000   0.60575398   -6.5803059    111.60926  0.022411498  0.022170837           45 
  416000   0.61014601   -6.5895444    111.71675  0.022379156  0.022104552           42 
  417000    0.5937241    -6.590988    111.59733  0.022301626  0.022038002           85 
  418000   0.59633365   -6.6190664    111.67931  0.022264615  0.021971608           52 
  419000   0.59009999   -6.6064459    111.59286  0.022194283   0.02190563           48 
  420000     0.595726   -6.6021538    111.62798  0.022148408  0.021839796           38 
  421000   0.59466687   -6.6232158    111.57116  0.022084553  0.021774002           68 
  422000   0.58737057    -6.643371    111.49249  0.022016685  0.021708139           97 
  423000   0.59404702   -6.6135055    111.66322  0.021998271  0.021642513           61 
  424000   0.59207531   -6.6252839    111.50019  0.021914345  0.021576978           67 
  425000   0.60416772   -6.6239441    111.43947  0.021850877  0.021511466           61 
  426000   0.58672964   -6.6201618    111.43049  0.021797827  0.021446176           46 
  427000    0.5898521    -6.623178    111.65095  0.021789804  0.021381228           54 
  428000   0.59658833   -6.6390281     111.3516  0.021680607  0.021316602           44 
  429000   0.58012505   -6.6124319    111.80568  0.021718275  0.021252119           60 
  430000   0.58670686   -6.6175633    111.79376  0.021665458  0.021188126           50 
  431000   0.57589213   -6.6158304    111.59243  0.021576263  0.021124129           36 
  432000   0.58175258   -6.6590903    111.47478  0.021503623  0.021060144           61 
  433000   0.56457467   -6.6480148    111.47207   0.02145344  0.020996289           42 
  434000   0.57522721     -6.64884    111.64176  0.021436589  0.020932728           49 
  435000   0.57056601   -6.6606247    111.41951  0.021344733  0.020869247           97 
  436000   0.56691825   -6.6644678    111.45129  0.021301852   0.02080593           57 
  437000   0.57261387    -6.662757    111.42877  0.021248812  0.020742719           62 
  438000   0.56130522    -6.684435    111.29308  0.021174483  0.020679742           60 
  439000    0.5756299   -6.6573892    111.25665  0.021119334  0.020616829           63 
  440000   0.55534842   -6.6831835    111.33089  0.021085396  0.020553981          120 
  441000   0.55539208   -6.6846068    111.49983  0.021069507  0.020491151          100 
  442000   0.56380829   -6.6888033    111.51527  0.021024749   0.02042866           60 
  443000   0.56586433   -6.6866677    111.26221  0.020929686  0.020366414           64 
  444000    0.5525961   -6.6837765    111.08336   0.02084898  0.020304085           41 
  445000   0.55514816   -6.6896585    111.36938   0.02085569  0.020241894           47 
  446000   0.55913499   -6.6925354    111.22653  0.020782237  0.020180151           91 
  447000   0.55824538   -6.7017126    110.89009  0.020673022  0.020118358           89 
  448000   0.54852423   -6.6992416    111.07936  0.020662083  0.020056798          220 
  449000   0.54666641   -6.7083833    111.21561  0.020641353  0.019995304          210 
  450000   0.54424952   -6.6965374    111.16244  0.020585636  0.019934093          172 
  451000   0.55561837   -6.7130773    111.08958  0.020526531   0.01987288          134 
  452000   0.55963874   -6.7169678    111.06521  0.020476624  0.019812079           99 
  453000   0.56765397   -6.7135056    111.23076  0.020461877  0.019751247          147 
  454000   0.54610138   -6.7234441    111.06382  0.020386164  0.019690712          171 
  455000   0.52197252   -6.6973836    110.94675  0.020319917  0.019630167          222 
  456000   0.53466445   -6.7306482    111.04375  0.020293083    0.0195699          154 
  457000   0.53916526   -6.7449463    110.89896  0.020222276  0.019509819          241 
  458000   0.53455383   -6.7257511    111.02771  0.020201548   0.01944983          344 
  459000   0.54642957   -6.7353873    110.97702  0.020148333  0.019390048          212 
  460000   0.53303594   -6.7546061    110.68437  0.020051517  0.019330194          135 
  461000   0.53150672   -6.7422675    110.82106   0.02003273  0.019270479          280 
  462000   0.52079856   -6.7423793    110.82539   0.01999015  0.019211004          301 
  463000   0.52716381   -6.7424442    110.79195  0.019940955  0.019151777          131 
  464000   0.52532308   -6.7589244    111.13879  0.019960271  0.019092697          339 
  465000   0.52408926   -6.7641757    110.70729  0.019840016  0.019033937          226 
  466000   0.52651484   -6.7582919    110.74268   0.01980377  0.018975424          180 
  467000   0.52972596   -6.7681228    110.76362  0.019765099  0.018917123          302 
  468000   0.51009498   -6.7563621    110.80295   0.01972987  0.018858967          163 
  469000   0.51364611   -6.7852205    110.48084  0.019630569  0.018801024          313 
  470000   0.52211969   -6.7871187    110.88508  0.019660475  0.018743093          315 
  471000   0.50172101     -6.79505    110.63251  0.019574047  0.018685206          467 
  472000   0.50622061    -6.787867    110.48142  0.019505901  0.018627473          199 
  473000   0.51549373   -6.7900194    110.41755  0.019453409  0.018569944          171 
  474000   0.50449717   -6.7998482    110.52137  0.019430621   0.01851253          267 
  475000   0.51849461   -6.8038501     110.5232  0.019390036  0.018455319          367 
  476000   0.50849976   -6.8186354    110.56502  0.019356622  0.018398241          444 
  477000   0.50131678   -6.8062598     110.5554  0.019314361  0.018341383          405 
  478000   0.50940805    -6.784704    110.33664  0.019235817  0.018284793          291 
  479000   0.49397075   -6.8146074    110.47803  0.019220255  0.018228269          274 
  480000   0.49531411   -6.8381736    110.42851  0.019171616  0.018171867          255 
  481000    0.5100755   -6.8194141    110.30693  0.019110694   0.01811577          158 
  482000   0.49347567   -6.8002485    110.55358  0.019113689  0.018059929          334 
  483000   0.50346001   -6.8286335    110.38576  0.019045162  0.018004057          457 
  484000   0.48365449   -6.8394025    110.37656  0.019004229  0.017948482          219 
  485000   0.48936366   -6.8279284    110.46934  0.018980987  0.017893103          319 
  486000   0.49573283   -6.8375939    110.10261  0.018879049  0.017837895          542 
  487000   0.49131443   -6.8372747     110.2996  0.018873991   0.01778281          215 
  488000   0.48163507   -6.8442349    110.33675  0.018841659  0.017727906          452 
  489000   0.48239944   -6.8389646    110.27726  0.018792989  0.017673346          366 
  490000   0.49006266   -6.8647202     110.2176   0.01874449  0.017618835          388 
  491000   0.48238931   -6.8366229    110.21386   0.01870568  0.017564614          341 
  492000   0.49048177   -6.8544651     110.2551  0.018674645  0.017510526          425 
  493000   0.47605621   -6.8563996     110.1109  0.018612391  0.017456578          374 
  494000   0.47320927   -6.8445348    110.21409   0.01859212  0.017402781          464 
  495000   0.47160386   -6.8606891    110.17512  0.018548001  0.017349135          178 
  496000   0.47730087   -6.8797992    110.07996  0.018494618  0.017295536          529 
  497000   0.46063751   -6.8775305     110.1307  0.018465912   0.01724223          405 
  498000   0.47144279   -6.8903235    110.11132  0.018425589   0.01718906          419 
  499000   0.46845767   -6.8543702    110.23743  0.018409724  0.017136099          333 
  500000   0.45578032   -6.8724858    110.14652  0.018357753  0.017083348          566 
  501000   0.46735593   -6.8833988    109.90391  0.018280757   0.01703074          497 
  502000   0.46818492   -6.8905842    109.91734   0.01824657  0.016978347          368 
  503000   0.47518342   -6.8779353    109.81466  0.018193284  0.016926095          529 
  504000   0.46645981   -6.8813269    110.05032  0.018196151  0.016874008          537 
  505000   0.47147932   -6.9019029     109.9319  0.018140578  0.016822124          620 
  506000   0.45950944   -6.8982683    109.77263  0.018078496  0.016770312          468 
  507000   0.45338352   -6.8914018    109.87158  0.018059102  0.016718784          446 
  508000   0.45030859   -6.9111967    109.94466  0.018035541  0.016667296          589 
  509000   0.45987089   -6.9198505    109.83758  0.017982578  0.016616046          557 
  510000   0.45572133   -6.8999888    109.67004  0.017919941  0.016564928          392 
  511000   0.45383734   -6.9138656    109.80823  0.017907409  0.016514059          379 
  512000   0.44738812   -6.9039725     109.6864  0.017852603  0.016463328          607 
Loop time of 1291.67 on 48 procs for 500000 steps with 4000 atoms

Performance: 66890.289 tau/day, 387.097 timesteps/s
99.4% CPU use with 48 MPI tasks x no OpenMP threads

MPI task timing breakdown:
Section |  min time  |  avg time  |  max time  |%varavg| %total
---------------------------------------------------------------
Pair    | 91.601     | 97.077     | 104.05     |  29.3 |  7.52
Neigh   | 8.8676     | 9.2223     | 9.503      |   5.2 |  0.71
Comm    | 83.63      | 89.991     | 95.914     |  33.2 |  6.97
Output  | 0.96256    | 0.96369    | 1.0032     |   0.6 |  0.07
Modify  | 1078.1     | 1081.9     | 1086.3     |   6.0 | 83.76
Other   |            | 12.5       |            |       |  0.97

Nlocal:        83.3333 ave          90 max          77 min
Histogram: 2 1 5 11 7 7 8 2 1 4
Nghost:        2400.40 ave        2414 max        2380 min
Histogram: 1 1 1 3 5 15 7 8 5 2
Neighs:        16569.9 ave       19222 max       14165 min
Histogram: 2 6 7 5 4 8 5 7 3 1
FullNghs:      33137.2 ave       35955 max       30325 min
Histogram: 2 1 8 6 8 8 6 3 3 3

Total # of neighbors = 1590586
Ave neighs/atom = 397.64650
Neighbor list builds = 26781
Dangerous builds = 0

#clear
#
#next RN
#
#jump SELF
Total wall time: 0:21:35
