
units lj                  # Use reduced LJ style units
atom_style atomic         # Uncharged point particles
atom_modify map hash      # Needed for indexing of clusters etc
                          # Used to be able to find where atoms are in relation to each other.

lattice fcc 1.0 spacing 1 1 1
Lattice spacing in x,y,z = 1.5874011 1.5874011 1.5874011
region box block 0 10 0 10 0 10 units lattice
create_box 2 box
Created orthogonal box = (0.0000000 0.0000000 0.0000000) to (15.874011 15.874011 15.874011)
  3 by 4 by 4 MPI processor grid
create_atoms 1 box
Created 4000 atoms
  using lattice units in orthogonal box = (0.0000000 0.0000000 0.0000000) to (15.874011 15.874011 15.874011)
  create_atoms CPU = 0.003 seconds
set type 1 type/fraction 2 0.56 78393
Setting atom values ...
  2252 settings made for type/fraction
mass 1 1.0
mass 2 1.0
pair_style lj/cut  3.5
pair_modify tail  yes
pair_coeff 1  1  1.0  1.0   # Intearaction between 1 and 1 set with epsilon = 1 and sigma = 1
pair_coeff 1  2  1.5  0.8
pair_coeff 2  2  0.5  0.88

write_data data.0
System init for write_data ...
Neighbor list info ...
  update every 1 steps, delay 10 steps, check yes
  max neighbors/atom: 2000, page size: 100000
  master list distance cutoff = 3.8
  ghost atom cutoff = 3.8
  binsize = 1.9, bins = 9 9 9
  1 neighbor lists, perpetual/occasional/extra = 1 0 0
  (1) pair lj/cut, perpetual
      attributes: half, newton on
      pair build: half/bin/atomonly/newton
      stencil: half/bin/3d
      bin: standard
WARNING: Not all mixed pair coeffs generated from mixing. Use write_data with 'pair ij' option to store all pair coeffs. (../write_data.cpp:312)


#############################
#   M E L T   S Y S T E M   #
#############################

velocity all create 2.4 6583654 mom yes dist gaussian # Assign velocities
                                                    # Temperature 2.4, random number seed, zero linear momentum
                                                                                # Gaussian distribution

timestep 0.002   # simulation timestep
thermo 1000       # output thermodynamic data every 1000 steps bf 100

# Define a fix  in this case with index 1 applied to all
# particles in the simulation. This fix is for simulations
# in the anisotropic NPT ensemble. Note that we use the MTK
# correction.
fix 1 all npt temp 2.4 2.4 0.1 iso 5.68 5.68 0.5 mtk yes tchain 5 pchain 5 # Use NPT ensemble
                                                                         # Set temperature and pressure and damping
                                                                         # Numbers of thermostats in chain and in barostat
run 10000          # run for 10000 steps
Per MPI rank memory allocation (min/avg/max) = 3.642 | 3.644 | 3.648 Mbytes
Step Temp E_pair E_mol TotEng Press Volume 
       0          2.4   -4.9459583            0   -1.3468583   -4.1435722         4000 
    1000    2.3938994   -4.6158866            0   -1.0259352    6.0677426    3628.4127 
    2000    2.4117164   -4.6479469            0   -1.0312767    5.6680667    3638.5536 
    3000    2.3806998   -4.6572167            0   -1.0870598    5.5775601    3639.5017 
    4000    2.3929737   -4.7143676            0   -1.1258045    6.0161929    3587.6027 
    5000    2.3965696   -4.7072607            0    -1.113305    5.5424037    3618.6673 
    6000    2.4534435   -4.7105468            0   -1.0313016    5.7689738    3610.6899 
    7000    2.3928371   -4.6711143            0   -1.0827559    5.9062304    3612.0986 
    8000    2.4313807   -4.6862367            0   -1.0400774    5.6285543    3627.2553 
    9000    2.3658161    -4.753366            0    -1.205529    5.2451926    3620.6392 
   10000    2.3637522   -4.6399546            0   -1.0952126    5.6874315    3646.7283 
Loop time of 2.6229 on 48 procs for 10000 steps with 4000 atoms

Performance: 658812.517 tau/day, 3812.572 timesteps/s
99.7% CPU use with 48 MPI tasks x no OpenMP threads

MPI task timing breakdown:
Section |  min time  |  avg time  |  max time  |%varavg| %total
---------------------------------------------------------------
Pair    | 1.2126     | 1.2696     | 1.3583     |   2.5 | 48.41
Neigh   | 0.21536    | 0.22317    | 0.23196    |   0.7 |  8.51
Comm    | 0.77198    | 0.87646    | 0.93665    |   3.5 | 33.42
Output  | 0.00024623 | 0.00025614 | 0.00032556 |   0.0 |  0.01
Modify  | 0.21914    | 0.23752    | 0.26079    |   2.3 |  9.06
Other   |            | 0.01586    |            |       |  0.60

Nlocal:        83.3333 ave          94 max          75 min
Histogram: 4 2 3 12 7 12 4 1 2 1
Nghost:        1741.35 ave        1789 max        1702 min
Histogram: 3 1 4 10 15 5 4 5 0 1
Neighs:        10468.3 ave       11957 max        8708 min
Histogram: 1 2 2 4 10 10 6 10 1 2

Total # of neighbors = 502477
Ave neighs/atom = 125.61925
Neighbor list builds = 903
Dangerous builds = 192

# Equilibrate just above the melting temperature to avoid step fn in T

fix 1 all npt temp 1.25 1.25 0.1 iso 5.68 5.68 0.5 mtk yes tchain 5 pchain 5
run 2000
Per MPI rank memory allocation (min/avg/max) = 3.644 | 3.646 | 3.650 Mbytes
Step Temp E_pair E_mol TotEng Press Volume 
   10000    2.3637522   -4.6399546            0   -1.0952126    5.6874315    3646.7283 
   11000     1.234769   -6.7330666            0   -4.8813761    5.6570655    2810.2135 
   12000    1.2689594   -6.8795574            0   -4.9765941    5.8455193    2772.7797 
Loop time of 0.674346 on 48 procs for 2000 steps with 4000 atoms

Performance: 512496.727 tau/day, 2965.838 timesteps/s
99.6% CPU use with 48 MPI tasks x no OpenMP threads

MPI task timing breakdown:
Section |  min time  |  avg time  |  max time  |%varavg| %total
---------------------------------------------------------------
Pair    | 0.29305    | 0.32525    | 0.38467    |   2.4 | 48.23
Neigh   | 0.041475   | 0.04367    | 0.049932   |   0.7 |  6.48
Comm    | 0.19495    | 0.25394    | 0.28661    |   3.0 | 37.66
Output  | 5.2032e-05 | 5.3876e-05 | 7.0878e-05 |   0.0 |  0.01
Modify  | 0.039909   | 0.046444   | 0.051626   |   1.7 |  6.89
Other   |            | 0.00499    |            |       |  0.74

Nlocal:        83.3333 ave          90 max          78 min
Histogram: 6 2 7 4 6 14 2 3 3 1
Nghost:        2110.92 ave        2132 max        2090 min
Histogram: 4 4 3 5 9 6 7 2 4 4
Neighs:        13771.4 ave       15280 max       12427 min
Histogram: 2 0 7 10 10 8 6 2 1 2

Total # of neighbors = 661027
Ave neighs/atom = 165.25675
Neighbor list builds = 142
Dangerous builds = 11

#############################
# L I N E A R  Q U E N C H  #
#############################

# Define solid atoms. This closely follows ten Wolde  Ruiz-Montero and Frenkel  Faraday Discuss  1996  104  93-110
# Compute components of the per-atom q6 vector
compute q6 all orientorder/atom degrees 1 6 components 6 nnn NULL cutoff 1.3 # compute the Q6 parameter.
                                                                             # Use all neighbours within 1.3 unit cell.

# get number of connections
compute coord_number all coord/atom orientorder q6 0.5

# An atom is solid if it has 8 or more connections (of a possible 14)
variable is_solid atom c_coord_number>=8
group solid dynamic all var is_solid    # Must be dynamic to update
dynamic group solid defined

# do clustering
compute cluster solid cluster/atom 1.3 # Create a cluster where all atoms within are solid and max 1.3 units from another member

# define chunks one chunk per cluster
compute clus_chunks solid chunk/atom c_cluster nchunk every compress yes  # Says which atoms are in which chunk

# count the size of each chunk
compute size_chunks solid property/chunk clus_chunks count


# Find the maximum entry in the vector of chunk sizes
variable max_n equal max(c_size_chunks)


# Thermo style which includes this variable
# thermo_style custom step temp pe vol v_max_n

thermo ${N}  # Print the thermo information every 100 steps
thermo 1000  

# Reset the npt fix at a lower temperature (below freezing)
fix 1  all npt temp  ${temp} ${temp}  0.1  iso  5.68  5.68  0.5  mtk yes tchain  5  pchain  5
fix 1  all npt temp  0.45 ${temp}  0.1  iso  5.68  5.68  0.5  mtk yes tchain  5  pchain  5
fix 1  all npt temp  0.45 0.45  0.1  iso  5.68  5.68  0.5  mtk yes tchain  5  pchain  5

dump dmp2 all dcd ${N} traj.dcd
dump dmp2 all dcd 1000 traj.dcd


compute msd all msd com yes
variable twopoint equal c_msd[4]/6/(step*dt+1.0e-6)
fix 9 all vector 10 c_msd[4]
variable fit equal slope(f_9)/6/(10*dt)
thermo_style custom step temp pe c_msd[4] v_twopoint v_fit v_max_n

fix 1 all npt temp 1.25 ${temp} 0.1 iso 5.68 5.68 0.5 mtk yes tchain 5 pchain 5
fix 1 all npt temp 1.25 0.45 0.1 iso 5.68 5.68 0.5 mtk yes tchain 5 pchain 5
run 2000000 # 5000000  # Run for this many steps
Neighbor list info ...
  update every 1 steps, delay 10 steps, check yes
  max neighbors/atom: 2000, page size: 100000
  master list distance cutoff = 3.8
  ghost atom cutoff = 3.8
  binsize = 1.9, bins = 8 8 8
  4 neighbor lists, perpetual/occasional/extra = 1 3 0
  (1) pair lj/cut, perpetual
      attributes: half, newton on
      pair build: half/bin/atomonly/newton
      stencil: half/bin/3d
      bin: standard
  (2) compute orientorder/atom, occasional
      attributes: full, newton on
      pair build: full/bin/atomonly
      stencil: full/bin/3d
      bin: standard
  (3) compute coord/atom, occasional
      attributes: full, newton on
      pair build: full/bin/atomonly
      stencil: full/bin/3d
      bin: standard
  (4) compute cluster/atom, occasional
      attributes: full, newton on
      pair build: full/bin/atomonly
      stencil: full/bin/3d
      bin: standard
Per MPI rank memory allocation (min/avg/max) = 9.846 | 9.851 | 9.856 Mbytes
Step Temp PotEng c_msd[4] v_twopoint v_fit v_max_n 
   12000    1.2689594   -6.8795574 1.828974e-30 1.2701208e-32 8.3333333e+20            3 
   13000     1.260588   -6.9182438   0.45658677 0.0029268382  0.037496679            4 
   14000    1.2318947   -6.8588134   0.86292647 0.0051364669   0.03466594            1 
   15000    1.2392699   -6.8549068     1.279651 0.0071091719  0.034385455            3 
   16000    1.2429254    -6.875441    1.7373957 0.0090489358  0.034983604            2 
   17000    1.2553862   -6.8831056    2.1531243   0.01055453  0.035419633            1 
   18000    1.2622879   -6.8675032    2.5443863  0.011779566  0.035287617            2 
   19000    1.2529374   -6.8930878    3.0229107   0.01325838  0.035471791            2 
   20000    1.2438319   -6.9238622     3.453845   0.01439102  0.035792571            2 
   21000    1.2371479   -6.8667676     3.898586  0.015470579   0.03597562            4 
   22000    1.2368574   -6.8813665    4.3110973  0.016329914   0.03598098            3 
   23000    1.2298138    -6.854951    4.6128109  0.016713083  0.035659749            1 
   24000    1.2615492   -6.8936196    5.0425653  0.017508907  0.035235807            3 
   25000    1.2244899   -6.9419432    5.4048285  0.018016095  0.034974814            2 
   26000    1.2565339   -6.9136324     5.850428  0.018751372  0.034804057            4 
   27000    1.2606841    -6.890926    6.2642131  0.019333991  0.034631072            1 
   28000    1.2544916   -6.9267956     6.595126  0.019628351  0.034458473            2 
   29000    1.2414381   -6.9330807    6.9293849  0.019912025  0.034243543            3 
   30000     1.239919   -6.9024208    7.3339578  0.020372105  0.034037369            6 
   31000    1.2528537   -6.9001371    7.7109631  0.020728395  0.033890773            2 
   32000    1.2350273   -6.8669144     8.143335  0.021206601  0.033758214            2 
   33000    1.2255096   -6.8768335    8.4855875  0.021428251  0.033649168            1 
   34000    1.2389594   -6.9052841    8.8368835  0.021659028  0.033461732            2 
   35000     1.247399   -6.8804731    9.1565944  0.021801415  0.033276313            3 
   36000    1.2497288   -6.9601342    9.5581518  0.022125351  0.033098775            6 
   37000    1.2354971   -6.8770023    9.9059371  0.022310669  0.032949891            1 
   38000    1.2083492   -6.9683512    10.258919  0.022497629  0.032796941            6 
   39000    1.2504579   -6.9433783    10.606929  0.022664378  0.032666831            3 
   40000    1.2519202   -6.9098171    11.107848   0.02314135  0.032582362            3 
   41000    1.2348487   -6.9093303       11.472  0.023317073  0.032516791            2 
   42000      1.22858   -6.8841987     11.87532  0.023562143  0.032473301            2 
   43000    1.2184783   -6.9148164    12.338507  0.023911834  0.032467616            2 
   44000    1.2469572   -6.8993675    12.771902  0.024189208    0.0324707            3 
   45000    1.2241903   -6.9292302    13.166346  0.024382121  0.032509722            2 
   46000    1.2302877   -6.9237049    13.579629  0.024600777  0.032548099            1 
   47000    1.2653893   -6.8751066    14.014946  0.024849195  0.032580292            2 
   48000    1.2219938    -6.912175    14.464752  0.025112417  0.032617081            2 
   49000    1.2514559   -6.8738724    14.765685  0.025111709  0.032664728            3 
   50000    1.2503381   -6.9249307      15.1945  0.025324166  0.032697243            3 
   51000    1.2282003   -6.9187844    15.706065  0.025663505  0.032729536            1 
   52000    1.2293809   -6.9645135    16.100457  0.025802015   0.03277873            1 
   53000    1.2457055   -6.9048572    16.499944  0.025943308  0.032816485            2 
   54000    1.2595391   -6.9486644    16.850979  0.026004597  0.032852493            1 
   55000     1.245712   -6.9263706    17.150138  0.025985058  0.032866907            2 
   56000    1.2336667   -6.9640015    17.520917  0.026072793  0.032879196            2 
   57000     1.205363    -6.919297    17.993844  0.026306789  0.032896049            2 
   58000    1.2418749   -6.9435335    18.311994  0.026310336  0.032898947            3 
   59000    1.2499009   -6.9038018    18.812226   0.02657094  0.032911518            2 
   60000    1.2420978   -6.9632406    19.290317  0.026792107  0.032934871            2 
   61000    1.2113129   -6.9201914    19.742926   0.02697121  0.032968268            2 
   62000    1.2134704   -6.9076669    20.268453  0.027242544  0.033008933            3 
   63000    1.2209005    -6.882461    20.761144   0.02746183  0.033062413            2 
   64000    1.2165197   -6.9586218    21.071409   0.02743673   0.03311752            2 
   65000    1.2260737   -6.9415431    21.542168  0.027618163  0.033160491            1 
   66000    1.2199064   -6.9531585    21.906434  0.027659639  0.033200232            1 
   67000    1.2351891   -6.9510838    22.261341  0.027688235  0.033228088            3 
   68000    1.2313263    -6.955166     22.64012  0.027745244  0.033259741            2 
   69000    1.2349009   -6.9178627    23.346969  0.028196823  0.033307017            4 
   70000    1.1952022   -6.9371912    23.458854  0.027927207  0.033353793            2 
   71000    1.2316755   -6.9149342    24.010793  0.028181682  0.033385872            3 
   72000    1.2334931   -6.9531533    24.258855  0.028077379  0.033403726            3 
   73000    1.2302145   -6.9337946    24.758671  0.028263323  0.033418109            2 
   74000      1.22017   -6.9682654    25.039393  0.028197514   0.03343653            3 
   75000    1.2228561   -6.9722355     25.41363  0.028237367  0.033453243            2 
   76000    1.2555251   -6.9514951    25.933606  0.028435971  0.033471962            1 
   77000    1.2149546   -6.9771772    26.077121  0.028221992  0.033475045            2 
   78000    1.2122406   -6.9454581    26.441109  0.028249048  0.033468955            1 
   79000    1.2148962   -6.9610238    26.909032  0.028385055  0.033461963            3 
   80000    1.2147956   -6.9660837    27.210792  0.028344575  0.033450133            1 
   81000    1.2236952   -6.9363643    27.583646  0.028378237  0.033439681            7 
   82000    1.1964814   -6.9281769    27.724135  0.028174934  0.033407592            2 
   83000    1.2311976   -6.9745363    28.109137  0.028222025  0.033363458            3 
   84000    1.2195426   -6.9208824    28.493046  0.028266911  0.033319486            3 
   85000     1.251576   -6.9579919    28.747796  0.028184113  0.033276036            2 
   86000    1.2002174   -6.9264339    29.219547  0.028313514   0.03323513            2 
   87000    1.2157202   -6.9896125    29.447094  0.028206029   0.03319134            2 
   88000    1.2071971   -6.9515634    29.945797  0.028357763  0.033147589            2 
   89000    1.2321713   -6.9491465    30.329368  0.028398285  0.033108106            3 
   90000    1.2415887    -6.891902    30.693472  0.028419881  0.033070933            2 
   91000    1.2132414   -6.9735412    30.914398  0.028309888  0.033029732            4 
   92000    1.2502112   -6.9625129    31.630575  0.028650883  0.033000032            3 
   93000    1.2379007   -6.9525892    32.003252  0.028676749  0.032982586            2 
   94000    1.2188541   -6.9830793     32.64181  0.028937774  0.032981232            2 
   95000    1.1910657   -7.0230156    33.007616  0.028954049  0.032982498            2 
   96000    1.2206206   -6.9624961    33.296606  0.028903304  0.032976722            2 
   97000     1.232679   -6.9638354    33.688086  0.028941655  0.032968969            2 
   98000    1.2182618   -6.9757057    34.233073  0.029109756  0.032958796            4 
   99000    1.2333971   -7.0065602    34.523545  0.029060223  0.032956179            7 
  100000    1.2254753   -6.9731829    34.956671  0.029130559  0.032952766            3 
  101000    1.2039275   -6.9983742    35.081986  0.028945533   0.03294509            3 
  102000    1.1851443   -6.9602053    35.661321  0.029135066  0.032932323            3 
  103000    1.2042194   -6.9569892    36.231572   0.02931357  0.032928812            3 
  104000     1.225788   -6.8985004    36.498921   0.02924593  0.032927286            2 
  105000    1.2049498   -6.9433938    36.827134  0.029227884  0.032915307            3 
  106000    1.2210054   -6.9667511    37.234847  0.029272678  0.032905538            2 
  107000    1.2092144   -6.9760225    37.739594  0.029392207  0.032901189            3 
  108000    1.2014922   -6.9733562    38.095216  0.029394456  0.032898983            1 
  109000    1.1911279   -6.9599276    38.302175  0.029283008  0.032890621            4 
  110000     1.224822   -6.9923994    38.892729  0.029464188  0.032886723            1 
  111000    1.1984939   -7.0237139    38.916354  0.029216482  0.032877152            3 
  112000      1.20423   -6.9930434    39.378218  0.029299269    0.0328648            3 
  113000     1.211323   -6.9805254    39.970085  0.029476464  0.032857636            4 
  114000    1.2138802   -6.9858201    40.336989  0.029486103  0.032847634            2 
  115000    1.2350957   -7.0379367    40.530067  0.029369614  0.032840636            1 
  116000    1.2161108   -6.9746352    41.029175  0.029474982  0.032830367            5 
  117000    1.2169368   -6.9667525    41.648054  0.029663856  0.032822356            3 
  118000      1.18888   -7.0549295    41.546986  0.029341092  0.032813387            1 
  119000    1.2272343   -7.0180249    41.934534   0.02936592  0.032798495            2 
  120000    1.2181612   -7.0174756    42.456101  0.029483403  0.032785951            3 
  121000    1.2216854    -6.981881    42.822296  0.029491939  0.032770359            2 
  122000      1.21775   -6.9706012    43.104851  0.029443204  0.032755995            2 
  123000    1.2092677   -6.9252145    43.669824  0.029586602  0.032739734            1 
  124000     1.164912   -6.9908818    43.853583  0.029471494  0.032722312            2 
  125000    1.2301166   -6.9900213    44.241895  0.029494596  0.032705913            3 
  126000    1.1800063   -7.0012078    44.773492  0.029612098  0.032690403            1 
  127000    1.2014683   -6.9953667    44.959179  0.029500773  0.032673449            3 
  128000    1.2180925   -7.0148958    45.261717  0.029467263   0.03266028            4 
  129000    1.2161103   -6.9836028    45.848603  0.029617961  0.032642559            3 
  130000    1.1973115   -7.0344288    46.008993  0.029492944  0.032625195            2 
  131000     1.210953   -6.9743363    46.425661  0.029532863   0.03260417            2 
  132000    1.1977162    -7.025611    46.613232  0.029427545  0.032582769            1 
  133000    1.1977713   -6.9879181    47.025797  0.029464785  0.032564546            2 
  134000     1.217008   -7.0124704    47.424117   0.02949261  0.032546174            2 
  135000    1.2125924   -7.0408121    47.728216  0.029461862   0.03252104            2 
  136000    1.2219916   -7.0257561      48.0533  0.029444424  0.032496298            2 
  137000    1.1753837   -7.0191201    48.236806  0.029341123  0.032475845            3 
  138000    1.2004859   -6.9898103    48.855104  0.029501874  0.032450663            1 
  139000    1.2231552   -7.0622279     48.82316   0.02927048  0.032422855            1 
  140000    1.2309819   -7.0314876    49.265177   0.02932451  0.032396475            1 
  141000    1.1910884   -6.9943149    49.869113  0.029473471  0.032372353            2 
  142000    1.1952703   -7.0214537    50.087273  0.029393939  0.032349287            5 
  143000    1.2125763   -7.0207214    50.765057  0.029583367   0.03232986            2 
  144000    1.2010248   -7.0317958    50.630854  0.029300262   0.03230708            1 
  145000    1.1661609   -6.9537566    51.408557  0.029545148  0.032285107            2 
  146000    1.2009892   -7.0952418    51.317978  0.029291083  0.032259477            1 
  147000    1.1950393   -7.0325782    51.880233  0.029410563  0.032231422            1 
  148000    1.2021469   -6.9837599    52.122828  0.029348439  0.032203144            1 
  149000    1.1976633   -7.0530356    52.260553  0.029228497  0.032172277            4 
  150000     1.202666   -6.9867852    52.826394  0.029347996   0.03214451            8 
  151000    1.1611379   -7.0033378    53.505838  0.029528608  0.032120881            2 
  152000    1.2207226   -6.9933817    53.870036  0.029534011  0.032102395            2 
  153000    1.1552134   -7.0750992    53.812261   0.02930951  0.032079522            2 
  154000    1.2174756   -7.0052703    54.466936   0.02947345   0.03205854            2 
  155000    1.1945764   -7.0273292    54.758554  0.029440083   0.03203754            1 
  156000    1.2057565   -6.9957775    55.564307  0.029681788  0.032022254            4 
  157000    1.1974141   -7.0342011    56.134926  0.029795608   0.03200743            2 
  158000    1.1661089   -7.0072616    56.037822  0.029555813  0.031992528            3 
  159000    1.1894279   -7.0023139    56.421785  0.029571166  0.031974394            2 
  160000    1.1737327   -7.0373786    56.624052  0.029491694  0.031957356            1 
  161000     1.191632   -7.0801621    57.039807   0.02952371  0.031937915            5 
  162000    1.2217358    -6.991673    57.502267  0.029579356  0.031920314            3 
  163000    1.2049201   -7.0590271     57.36162  0.029325982  0.031898698            2 
  164000    1.1961139   -7.0493674    57.948432  0.029445341  0.031876488            3 
  165000    1.1798046   -7.0187169    58.400675   0.02949529   0.03185422            3 
  166000    1.1978448    -7.031135    58.508215  0.029371594  0.031834042            2 
  167000    1.1727968   -7.0667716    58.985941  0.029434102  0.031813886            4 
  168000    1.1899357   -7.1072366    59.303522  0.029416429  0.031794278            1 
  169000    1.1703573   -7.0368007    59.574429  0.029375951  0.031773909            2 
  170000    1.1574533   -7.0024669    60.138879  0.029479843  0.031753585            2 
  171000     1.199983   -7.0393519    60.227159  0.029350467   0.03173319            1 
  172000    1.1771992   -7.0605334    60.871998  0.029492247  0.031712474            1 
  173000     1.179305   -7.0315776    61.123636  0.029442984  0.031691987            3 
  174000    1.1841882   -7.0471266    61.107494  0.029266041  0.031671499            2 
  175000    1.1639482   -7.0045171    61.472936  0.029272827  0.031650891            2 
  176000    1.2009144   -7.0448234     61.88294  0.029300634  0.031627462            2 
  177000    1.1647014   -7.0339206    62.120313  0.029246852  0.031604602            4 
  178000    1.1851178   -7.0168686     62.34554  0.029187987  0.031579466            3 
  179000     1.189026   -7.0454213    62.657008  0.029169929  0.031552826            3 
  180000    1.1751123   -7.0583987    63.104173  0.029214895  0.031526181            2 
  181000    1.1704633   -7.0353018    63.356268  0.029169553  0.031500491            4 
  182000    1.1506749   -7.0713603     63.47027  0.029061479  0.031473238            3 
  183000    1.1783269   -7.0565324    63.930402  0.029112205  0.031444024            2 
  184000    1.1865156   -7.0155716    64.450573  0.029189571  0.031417152            3 
  185000    1.1795229    -7.082577    64.762655  0.029172367  0.031388533            2 
  186000    1.1764904   -7.1240394      64.7035  0.028989023  0.031359398            2 
  187000    1.1627642   -7.0292569    65.221445  0.029064815  0.031329007            1 
  188000    1.1767518   -7.0680972    65.371879  0.028976897  0.031298017            2 
  189000    1.1613282   -7.0486348    65.742754  0.028987105  0.031267143            3 
  190000    1.1778877   -7.0313983    65.969745  0.028934098  0.031236258            3 
  191000    1.1689684   -7.1017071    66.013884  0.028801869  0.031206034            2 
  192000    1.1389969   -7.1072496     66.50359  0.028864405  0.031172913            2 
  193000    1.1695816   -7.0738767    66.735888   0.02881515  0.031142179            2 
  194000    1.1864345   -7.0593644    67.180311  0.028857522  0.031112011            4 
  195000    1.1577163   -7.0780147    67.614562  0.028895112  0.031082894            2 
  196000    1.1875715   -7.1073455     67.75395  0.028806951  0.031052536            2 
  197000    1.1487799   -7.0608374    68.181622  0.028841634  0.031023753            5 
  198000    1.1893945   -7.0816831    68.507684    0.0288332  0.030993153            4 
  199000    1.1865038   -7.0445874    68.784856  0.028804378  0.030961964            2 
  200000    1.1841255   -7.1341442    69.014239  0.028755933  0.030931593            1 
  201000    1.1784969   -7.1078651    69.240022  0.028706477  0.030898557            3 
  202000    1.1608248   -7.1129656    69.740641  0.028770892  0.030868221            2 
  203000    1.1702573   -7.0634676    70.314872   0.02886489  0.030840025            1 
  204000    1.1618596   -7.1220963    70.437792  0.028773608  0.030815425            2 
  205000     1.186995    -7.111138    70.805018  0.028782528  0.030789628            1 
  206000    1.1621833   -7.0531728    71.079307  0.028753765  0.030762346            1 
  207000    1.1608388   -7.0523742    71.297527  0.028702708  0.030733299            2 
  208000    1.1924243   -7.1013169    71.595541  0.028684111  0.030705694            4 
  209000    1.1625323   -7.1101721     71.83009  0.028640387  0.030676726            6 
  210000    1.1732598   -7.0969014    72.140529  0.028627194   0.03064863            1 
  211000    1.1661644   -7.1154736    72.370802  0.028582465  0.030619306            6 
  212000    1.1404126   -7.0872235    73.001888   0.02869571  0.030591185            1 
  213000    1.1570367   -7.1279992    72.871673  0.028510044  0.030562038            4 
  214000    1.1561885   -7.0715486    73.543048  0.028638258  0.030532309            4 
  215000    1.1658634   -7.0800062    73.636842  0.028541412  0.030504095            2 
  216000     1.171854   -7.1140909    73.841169  0.028488105  0.030475221            7 
  217000    1.2030981   -7.1592289    73.856887   0.02836286  0.030445058            3 
  218000    1.2034505   -7.1292012    74.427234  0.028450777  0.030414372            2 
  219000    1.1555731   -7.0809328    74.631522    0.0283986  0.030384242            2 
  220000     1.172675   -7.1032467    75.086529  0.028441867  0.030354066            2 
  221000    1.1445744   -7.1211596    75.316035  0.028399711  0.030324901            3 
  222000    1.1488631   -7.1331875    75.592877  0.028375705  0.030296391            2 
  223000    1.1617568    -7.089743    75.927843  0.028373633  0.030268208            3 
  224000    1.1720345   -7.0785602     76.31485  0.028390941  0.030239155            1 
  225000    1.1832231   -7.1105246    76.600079    0.0283704  0.030211474            4 
  226000    1.1408714   -7.1310158    76.631458  0.028256437  0.030182413            5 
  227000    1.1536908   -7.1081963     77.01698  0.028273488  0.030153304            1 
  228000    1.1976792   -7.1085304    77.294239  0.028250818  0.030122186            3 
  229000    1.1767303   -7.1010563    77.543784  0.028218262  0.030091628            3 
  230000    1.1749974    -7.101467    77.694014  0.028150005  0.030060625            2 
  231000    1.1553256   -7.0955274    78.300606  0.028246972  0.030030934            3 
  232000    1.1573547   -7.0952642    78.538138  0.028210538  0.030000537            1 
  233000    1.1719799   -7.1108805    78.610197  0.028115235  0.029969148            2 
  234000    1.1816029   -7.1381747    78.907307  0.028100893  0.029938451            5 
  235000    1.1793209   -7.1578253    78.856015  0.027963126  0.029906014            5 
  236000     1.157842   -7.0879234    79.687442  0.028138221  0.029874471            4 
  237000    1.1584958   -7.0803218    80.210401  0.028203376  0.029844922            4 
  238000    1.1472142   -7.1192554    80.273095  0.028106826  0.029816841            1 
  239000    1.1761234   -7.1283035    80.641453  0.028117662  0.029788303            4 
  240000    1.1015571   -7.1081407    81.098508  0.028159204  0.029760537            2 
  241000    1.1802232    -7.146556    81.087834   0.02803867  0.029732623            7 
  242000    1.1806078   -7.1200103     81.33375   0.02800749  0.029703009            5 
  243000    1.1357534   -7.1735451    81.306338  0.027882832  0.029672037            3 
  244000    1.1536879   -7.1545683    81.486719  0.027830164  0.029640531            3 
  245000     1.156919   -7.1251991    81.856242  0.027842259   0.02960756            2 
  246000    1.1490635   -7.1447491     82.09113  0.027808648  0.029574762            3 
  247000    1.1853869   -7.1511353    82.348232  0.027782804  0.029541874            2 
  248000    1.1573612   -7.1062961    82.917493  0.027862061  0.029511925            3 
  249000    1.1868994   -7.1825727    83.242363   0.02785889  0.029482588            2 
  250000    1.1582135    -7.142911    83.466782  0.027822261  0.029452883            4 
  251000    1.1502376   -7.1170342    84.202835  0.027955789  0.029425723            6 
  252000    1.1242002   -7.1548638    84.242051  0.027857821   0.02939916            2 
  253000    1.1614604   -7.1055067    84.597656   0.02786484  0.029372781            2 
  254000    1.1325658   -7.1620289    84.754098  0.027806463  0.029345121            2 
  255000    1.1459855   -7.1260042     84.74858  0.027695614  0.029317486            8 
  256000    1.1445732    -7.155246     84.88167  0.027630752  0.029287642            6 
  257000    1.1679144   -7.1525086    85.255901  0.027644585  0.029258782            3 
  258000    1.1274982    -7.127916    85.595783  0.027647217    0.0292296            4 
  259000     1.135384   -7.1775479    86.220944  0.027741617  0.029201235            2 
  260000    1.1635312   -7.1622575    86.255273  0.027645921   0.02917279            6 
  261000    1.1372242   -7.1032965    86.792192  0.027711428  0.029145671            2 
  262000    1.1437656   -7.1776485    86.762653  0.027596264  0.029117578            1 
  263000    1.1428964   -7.1903693    86.974676  0.027558516  0.029088911            2 
  264000    1.1618123   -7.1646756    87.257333   0.02754335  0.029060407            2 
  265000    1.1475712   -7.1275579    87.690893  0.027575753  0.029032921            5 
  266000    1.1438806   -7.1439525    87.892402  0.027535214  0.029005319            2 
  267000    1.1251982   -7.1243252    87.996716  0.027464643  0.028976917            2 
  268000    1.1229662   -7.1661389    88.614615  0.027554296  0.028948682            4 
  269000    1.1505588    -7.168161    89.267661   0.02765417  0.028922733            1 
  270000    1.1220088    -7.119667    89.455267   0.02760965  0.028897693            2 
  271000    1.1422655   -7.1654062    89.944062  0.027658076  0.028872612            5 
  272000    1.1447034   -7.1783314    89.696814  0.027480641  0.028846951            3 
  273000    1.1587324   -7.1747958    89.976174  0.027465255  0.028821207            2 
  274000     1.148292   -7.1628216    90.394491  0.027492242  0.028796571            2 
  275000    1.1647014    -7.145354    90.791009  0.027512427  0.028771938            3 
  276000    1.1421161   -7.1706737    90.834228  0.027425793  0.028746929            2 
  277000    1.1242405   -7.1757737     91.43437  0.027507331  0.028723874            3 
  278000    1.1288262   -7.1696517    92.043062  0.027590846  0.028701102            2 
  279000    1.1280529   -7.1984262    92.179701  0.027532766  0.028680058            2 
  280000    1.1358315   -7.1380897    92.901643  0.027649298  0.028659193            2 
  281000    1.1380703   -7.1670742    92.622654  0.027468165  0.028637928            4 
  282000    1.1275971   -7.1961652    93.027871  0.027490505  0.028615533            2 
  283000    1.1350636   -7.1830727    93.324408  0.027480686  0.028593917            3 
  284000    1.1366591   -7.1627138    93.641577  0.027476988  0.028573092            3 
  285000    1.1423535   -7.1460714    93.964914  0.027475121  0.028552344            3 
  286000    1.1537214   -7.1351056    94.356185  0.027493061  0.028531669            6 
  287000    1.1277672   -7.1535583    94.514324  0.027443183  0.028511047            8 
  288000     1.124093    -7.198396    94.819795  0.027436283  0.028490467            4 
  289000      1.12145   -7.1816369     95.35648  0.027496101  0.028470366            2 
  290000    1.1468277   -7.1849713    95.501033  0.027442825  0.028451309            2 
  291000    1.1325233    -7.165432    95.899503   0.02746263   0.02843173            3 
  292000    1.1615234   -7.2019448    96.139258  0.027437003  0.028412472            3 
  293000    1.0964577   -7.1636074     96.53682  0.027456433  0.028392609            2 
  294000    1.1426317    -7.183272     96.51611  0.027357174  0.028372701            2 
  295000    1.1239317   -7.1613368    96.654919  0.027303649   0.02835163            3 
  296000    1.1268349   -7.1542629    97.139445  0.027347817  0.028329891            3 
  297000    1.1582877   -7.1828086    97.157541  0.027260814  0.028308432            1 
  298000    1.1248519   -7.1871967    97.064182  0.027143228  0.028286499            5 
  299000    1.1504396   -7.2276403    97.317426  0.027123028  0.028262756            2 
  300000    1.1615749   -7.2380992    97.937545  0.027204873  0.028240236            3 
  301000    1.1516833   -7.1967688    98.229091  0.027195208  0.028218518            2 
  302000    1.1205699    -7.210079    98.308071  0.027126951  0.028196123            2 
  303000    1.1068568   -7.2069245    98.441723  0.027074181  0.028173427            4 
  304000    1.1411678   -7.1645706    99.130387    0.0271739  0.028150877            3 
  305000    1.1291158   -7.1639721    99.378311  0.027152544  0.028129416            2 
  306000    1.1258981   -7.2061732    99.106328  0.026989741  0.028106579            1 
  307000    1.1027962   -7.1732643    99.676972  0.027056724  0.028083685            7 
  308000    1.1423692   -7.1749251     99.86572  0.027019946  0.028059443            4 
  309000    1.1095376   -7.2276426    99.882022  0.026936899  0.028036814            5 
  310000    1.1458392   -7.1553869    100.47195   0.02700859  0.028014087            2 
  311000     1.135595   -7.2757872    100.24224  0.026860193  0.027991482            5 
  312000    1.1306677   -7.1431382    101.35972  0.027072575  0.027968828            3 
  313000     1.134738    -7.213337    101.14663  0.026929348  0.027947263            2 
  314000    1.1435639   -7.2466721    101.22833  0.026865269  0.027925011            3 
  315000    1.1296861   -7.2003098    101.74517  0.026916712   0.02790277            2 
  316000    1.0990734   -7.1878999    101.97046  0.026890945  0.027880527            4 
  317000     1.135842    -7.186648    101.94699  0.026799944  0.027858197            2 
  318000    1.1231799   -7.1933128    102.54917  0.026873472   0.02783567            3 
  319000    1.1283874   -7.1937214    102.50873  0.026778665  0.027812984            3 
  320000    1.1365969   -7.1916371    103.03657  0.026832439  0.027790443            3 
  321000    1.1366615   -7.2499188    102.95741  0.026728298  0.027766965            2 
  322000    1.1212179   -7.2107416    103.48339  0.026781416  0.027744376            1 
  323000    1.1264215   -7.2122115    103.80634  0.026781821  0.027722387            3 
  324000    1.1102557   -7.1905882    104.16057   0.02679027  0.027700873            3 
  325000     1.139336    -7.242025    104.31078  0.026746354  0.027679368            5 
  326000    1.1421494   -7.2070944     104.8888  0.026812066  0.027658458            7 
  327000    1.1349255   -7.2129003    104.99328  0.026756696  0.027637428            2 
  328000    1.1387708    -7.197767    105.45151  0.026791542  0.027616673            5 
  329000    1.1103309   -7.2305782    105.01969  0.026600733  0.027595669            3 
  330000    1.1110866   -7.2090166    105.62366  0.026672642  0.027573418            2 
  331000    1.1364641   -7.2417464    105.80148  0.026636828  0.027551559            2 
  332000    1.1107069   -7.2077534    105.93811  0.026590892  0.027528891            8 
  333000    1.1284232   -7.2428116    106.23706   0.02658585  0.027507208            4 
  334000    1.1222482   -7.2279884    106.63041  0.026604394  0.027485404            4 
  335000    1.1315098   -7.2665367    106.35925  0.026457525  0.027463233           10 
  336000    1.1238103   -7.2439432    106.84345  0.026498872  0.027440792            3 
  337000    1.0979456   -7.2405723    106.98172  0.026454432  0.027418001            2 
  338000     1.121736   -7.2518041    107.14037  0.026415279   0.02739544            1 
  339000    1.1318073   -7.2424765     107.7728  0.026492821  0.027372293            5 
  340000    1.1174581   -7.2408084    107.78941  0.026418972  0.027348785            2 
  341000    1.1141554   -7.2457868     108.0051  0.026394209  0.027326594            4 
  342000    1.1089251   -7.2687663    108.07133   0.02633317   0.02730381            4 
  343000    1.1175322    -7.269162     108.2794  0.026306949  0.027280888            1 
  344000    1.1008265   -7.2109804     109.1968  0.026452714  0.027258417            6 
  345000    1.1382007   -7.2566599    108.86091  0.026294905  0.027236186            5 
  346000    1.1280825   -7.2040466     109.3464  0.026335839  0.027214047            1 
  347000    1.1124081   -7.2814249    109.24031  0.026234465  0.027191206            2 
  348000     1.124016   -7.2139772    109.74381  0.026279648  0.027169091            2 
  349000    1.1235728   -7.2763526    109.53243  0.026153874  0.027147027            3 
  350000    1.1354218   -7.2122286    110.32271  0.026267312  0.027123636            3 
  351000    1.1000709   -7.2493999    110.20234  0.026163899   0.02710104            1 
  352000    1.1225027   -7.2533509    110.82547  0.026237091  0.027078972            1 
  353000    1.1085238   -7.2435386     110.9244  0.026186119  0.027057934            3 
  354000    1.1400894   -7.2639448    111.15136  0.026165574   0.02703583            2 
  355000    1.1158096   -7.2635966     111.5645  0.026188851  0.027014666            3 
  356000    1.1234725    -7.218157    112.08204  0.026236432  0.026993768            2 
  357000    1.1197775   -7.2481945    112.42288  0.026242503  0.026973355            3 
  358000     1.110743   -7.2280012    112.76946  0.026249874  0.026953463            1 
  359000     1.102998   -7.2590173    113.40106  0.026323366   0.02693423            2 
  360000    1.1073547    -7.248519    113.31603  0.026230562  0.026915033            1 
  361000    1.1305519   -7.2542009    113.50728   0.02620205  0.026894909            2 
  362000    1.1086183   -7.2455959    113.77006  0.026190162  0.026874237            4 
  363000    1.1212792   -7.2737515    113.70092  0.026102139  0.026854498            3 
  364000    1.1047575   -7.2712397    114.46474  0.026205297  0.026834108            3 
  365000    1.1063675   -7.2920002    114.23013  0.026079937  0.026814211            6 
  366000    1.1060039   -7.2575031    114.52524  0.026075875  0.026793802            6 
  367000    1.1336104   -7.2774206    114.79107  0.026065184  0.026774165            2 
  368000     1.108815    -7.271095    115.59834   0.02617716  0.026754725            5 
  369000    1.1142359   -7.2661892     115.4303  0.026068269  0.026735519            2 
  370000    1.1149524   -7.2797327    115.17215  0.025939672  0.026715764            3 
  371000    1.1133086   -7.2838914    115.80245  0.026011332  0.026695681            2 
  372000    1.0826229   -7.2874432    116.11293  0.026010962  0.026677063            2 
  373000      1.12862   -7.2379544    116.47479  0.026022071  0.026658439            4 
  374000    1.1214934   -7.2575948    116.57587  0.025975016  0.026639184            3 
  375000    1.0864998   -7.2665521    117.12992  0.026028871  0.026619468            4 
  376000    1.1179595    -7.277312    117.48731  0.026038854  0.026600145            2 
  377000    1.1270314    -7.221682    117.57424  0.025989001  0.026581015            1 
  378000    1.0852146   -7.2547302    118.05607   0.02602647  0.026562047            4 
  379000    1.1026331   -7.2513808    117.83066  0.025908237     0.026543            6 
  380000    1.0897337   -7.2711265    118.08402  0.025895618  0.026523438            4 
  381000    1.0869662   -7.2801209    118.27016  0.025868365  0.026504288            2 
  382000    1.0582551   -7.2446564    119.22879   0.02600977  0.026484713            3 
  383000    1.1167256   -7.2803586    118.66144  0.025818415  0.026465274            3 
  384000    1.0772633   -7.2762587    119.07939  0.025841881  0.026446113            6 
  385000    1.1158122   -7.2521505    119.51821  0.025869743  0.026427247            3 
  386000    1.0747937   -7.3052903    119.48302  0.025795125  0.026408154            2 
  387000    1.1022994   -7.2685509    119.82585  0.025802294  0.026388846            2 
  388000    1.0884389   -7.3142485    119.61481  0.025690467  0.026369386            6 
  389000    1.1241445   -7.2946018    119.89086   0.02568356  0.026348612            4 
  390000    1.1160877   -7.2830888    120.35479  0.025716834  0.026329275            5 
  391000    1.1005811   -7.2600337    120.70358  0.025725402  0.026310589            3 
  392000    1.0987861   -7.3035982    120.84167   0.02568913  0.026291705            7 
  393000    1.0915235   -7.3303547    120.72026  0.025598019  0.026272723            2 
  394000    1.0963933   -7.3246337    120.90994  0.025573168  0.026252898            3 
  395000    1.0939425   -7.2384244    121.88213   0.02571353  0.026233498            4 
  396000    1.1109276   -7.2817643    121.82197  0.025635936  0.026214916            3 
  397000    1.1104821   -7.2920338    122.07807   0.02562512  0.026195784            6 
  398000    1.1106046   -7.3354579    122.11723  0.025568934  0.026176594            1 
  399000     1.093684   -7.3214809    122.16109  0.025514011  0.026157342            5 
  400000    1.0901317   -7.3011828    122.73189  0.025569144  0.026138213            3 
  401000    1.0704143   -7.3140282    123.04255  0.025569939  0.026119555            8 
  402000    1.0839709   -7.3166401    123.61528  0.025625057  0.026100904            3 
  403000    1.0852387   -7.3214543    123.35041  0.025506701  0.026081539            2 
  404000    1.0894446   -7.3175977    123.33626  0.025440647  0.026062038            6 
  405000    1.0944137   -7.2967532    123.95874  0.025505915  0.026042077            4 
  406000    1.1314634   -7.2641591    124.30969  0.025515126  0.026022875            2 
  407000    1.0958287    -7.295783    124.07294   0.02540396  0.026003639            4 
  408000    1.1091173   -7.2867427    124.30687  0.025389475  0.025984705            3 
  409000    1.0797635   -7.3232793    124.60621  0.025388389  0.025965843            1 
  410000    1.1031209   -7.3077237    124.70618  0.025346784  0.025947065            8 
  411000    1.0756683   -7.3213511    124.80553  0.025305257  0.025927721            7 
  412000    1.0632882   -7.3274852    125.30903  0.025345678  0.025907866            2 
  413000    1.0848487   -7.2990699    125.45267   0.02531329  0.025889001            3 
  414000    1.0990185   -7.3172972    125.74811  0.025311616   0.02586957            2 
  415000    1.1095618   -7.3085225    126.12602  0.025326509  0.025850006            2 
  416000    1.0738664   -7.3172712    126.26723  0.025293915  0.025831035            4 
  417000    1.0974779   -7.2630944    126.91896  0.025363502  0.025811846            1 
  418000    1.0848367    -7.308122    126.91516  0.025302065  0.025793165            1 
  419000    1.0868748    -7.314623    127.18502  0.025295351  0.025774291            3 
  420000    1.0732829   -7.3126039    127.03902  0.025206154  0.025755295            2 
  421000    1.0916511   -7.3168464    127.74987  0.025286989  0.025735657            3 
  422000    1.0945471   -7.3211836    127.56031  0.025189634  0.025716308            3 
  423000    1.0979809   -7.3232554    127.27599  0.025074071  0.025696975            5 
  424000    1.1034763   -7.3081649    127.73618   0.02510538  0.025677433            3 
  425000     1.108975    -7.271732    128.74763  0.025244633  0.025658262            4 
  426000    1.1016341   -7.2626131    129.01258  0.025237204  0.025639636            3 
  427000    1.0665013   -7.3127711    128.99004    0.0251737  0.025620592            3 
  428000    1.0788095   -7.3012041    128.91554  0.025100378   0.02560125            7 
  429000    1.0663556   -7.2943249    129.26197  0.025109163  0.025582605            2 
  430000    1.0852946    -7.351829    129.07883  0.025015276   0.02556381            1 
  431000     1.093515   -7.2593897    129.98381  0.025132214  0.025545122            8 
  432000    1.0988547   -7.3322546    129.98853  0.025074948  0.025526989            8 
  433000    1.0732369   -7.3100338     130.6989  0.025153752  0.025508416            4 
  434000    1.0648874   -7.3318348    130.18214  0.024996571  0.025490636            4 
  435000     1.065481    -7.309751    130.68088  0.025034651  0.025472619            3 
  436000    1.0767183   -7.3179639     131.0259  0.025043176   0.02545453            5 
  437000    1.1098797    -7.345205    131.24898  0.025028409  0.025436495            4 
  438000    1.0735235   -7.3368043     131.2189  0.024965543  0.025418315            3 
  439000    1.0871043   -7.3314217    131.60368  0.024981716  0.025400615           15 
  440000    1.0843416   -7.3593777    131.86734  0.024974876  0.025382754            3 
  441000    1.0628511   -7.3514597    131.81176   0.02490774  0.025365195            6 
  442000    1.0474883   -7.3524778    132.57704  0.024995672  0.025348175            3 
  443000    1.0893133   -7.3463899    132.82891  0.024986627  0.025331162            3 
  444000      1.08758   -7.4048117    132.55265  0.024878501  0.025313845            5 
  445000     1.059869   -7.3132554    133.26761  0.024956482  0.025296546            2 
  446000     1.107452   -7.3940663    133.47376  0.024939044  0.025278984            4 
  447000    1.0606793   -7.3655691    132.95681  0.024786878  0.025260735            3 
  448000    1.0546273   -7.3212326    133.81574  0.024891321  0.025243218            3 
  449000    1.0759693   -7.3371858    133.96937  0.024864397  0.025225881            3 
  450000    1.0919484   -7.3443824    134.68345   0.02494138  0.025209184           10 
  451000    1.0631994   -7.3299087     134.7713   0.02490231  0.025192518            3 
  452000    1.0899545   -7.3416844    134.58413  0.024812708  0.025176038            5 
  453000    1.0747401   -7.3667205    134.74377  0.024787302  0.025158938            5 
  454000     1.065018   -7.3399475    135.13003  0.024803604  0.025142139            3 
  455000    1.0554868   -7.4018628    134.86028  0.024699685  0.025125016            2 
  456000     1.065812   -7.3875463    135.27229  0.024720813  0.025107646            3 
  457000    1.0803428    -7.330126    136.30375  0.024854805  0.025090871            3 
  458000    1.0732557   -7.3450961    136.32039  0.024803564  0.025075238            1 
  459000    1.0698756   -7.3549053    136.68459  0.024815648  0.025059453            4 
  460000    1.0574254   -7.3666854    136.51176  0.024730391  0.025042764            6 
  461000     1.067335   -7.3524254    136.88084  0.024743464   0.02502636            2 
  462000    1.0538158   -7.3954228    136.68164  0.024653975  0.025009546            4 
  463000    1.0762608   -7.3412571    137.57602  0.024761703  0.024993211            2 
  464000    1.0621996   -7.3784251    137.30146  0.024659027  0.024976614            3 
  465000     1.082347   -7.3635377    137.53232   0.02464737  0.024960246            2 
  466000    1.0490397   -7.3823862    138.13286  0.024701871  0.024943415            2 
  467000    1.0769353   -7.4125614    137.97144  0.024620171  0.024926807            2 
  468000    1.0664433    -7.396866    137.71887  0.024522591  0.024909696            4 
  469000    1.0711703    -7.373392     137.9973  0.024519776  0.024892484            2 
  470000    1.0660006   -7.3870936    138.09595  0.024485097  0.024875076            3 
  471000    1.0667989   -7.3829413    138.27583  0.024464938  0.024857505            5 
  472000    1.0392322   -7.3783116    139.18369  0.024573391  0.024840575            5 
  473000    1.0631828   -7.3630181    139.26836  0.024536357  0.024823883            6 
  474000    1.0481975   -7.3912222    139.12693  0.024459727  0.024806528            2 
  475000     1.062145   -7.3693489    139.62806   0.02449615  0.024789528            4 
  476000    1.0732227   -7.3842902    139.75783  0.024467407  0.024772768            5 
  477000    1.0544457   -7.3686923    140.32552   0.02451529  0.024755446            4 
  478000    1.0660231   -7.3939896    139.92588  0.024394331  0.024738108            3 
  479000     1.064436    -7.374245     140.0387   0.02436303   0.02472053            3 
  480000    1.0436824   -7.4010273    139.59433  0.024235127  0.024702239            2 
  481000    1.0479091   -7.4003696    140.10014  0.024272373  0.024683793            8 
  482000    1.0645142   -7.4118479     140.2223  0.024243137  0.024665313            2 
  483000    1.0489608   -7.3637968    141.02261  0.024331023  0.024646992            5 
  484000     1.059456    -7.426241    140.79426  0.024241436  0.024628693            4 
  485000    1.0470089   -7.4409056    140.34793  0.024114765  0.024610009            3 
  486000    1.0915292    -7.404014    140.91799  0.024162893  0.024591731            4 
  487000    1.0702231   -7.3888436    141.33307  0.024184304  0.024573472            2 
  488000    1.0528771   -7.3888498    141.72267  0.024201276  0.024555471            9 
  489000    1.0575451   -7.4198718    141.81735  0.024167919  0.024537462            2 
  490000     1.047953   -7.3968604    142.02384  0.024153715  0.024519594            4 
  491000    1.0632805   -7.4009292    142.46923  0.024180113  0.024501526            4 
  492000    1.0681952   -7.4356132    142.79021  0.024185333  0.024483377            4 
  493000    1.0358426   -7.4370189    142.57798  0.024100402  0.024465226            6 
  494000    1.0369076   -7.4300692    142.69078  0.024070645  0.024447286            9 
  495000    1.0571033   -7.4159957    143.18437  0.024105114  0.024429864            3 
  496000    1.0576008   -7.4349687    143.45582   0.02410212  0.024412587            6 
  497000    1.0818453   -7.4204693    143.75574  0.024103913  0.024395488            6 
  498000    1.0637104   -7.4241571    143.94002  0.024086349  0.024378482            5 
  499000    1.0785449   -7.4425261    144.29698  0.024097692  0.024361351            2 
  500000    1.0327052   -7.4394101    143.83914  0.023973191  0.024344405            4 
  501000     1.070806   -7.3997905    144.79344  0.024084072  0.024327177            4 
  502000     1.071124   -7.4286235    144.63721  0.024010161  0.024310805            3 
  503000    1.0636774   -7.3910392    145.32312  0.024076063  0.024294004            4 
  504000    1.0689479   -7.4244994    145.21604  0.024010589  0.024277375            3 
  505000    1.0252723   -7.3832883     145.6375  0.024032591  0.024260255           11 
  506000    1.0415812    -7.414285    145.31228  0.023931535  0.024243356            2 
  507000     1.054236   -7.4360994    145.42322  0.023902567  0.024226772            3 
  508000    1.0591042   -7.4444265    145.76118  0.023910954   0.02420986            2 
  509000    1.0591433   -7.3702265    146.33992   0.02395873  0.024193313            3 
  510000    1.0701692   -7.3756252    146.71392  0.023972862  0.024176935            3 
  511000    1.0374371   -7.4255642    146.75161  0.023932096  0.024160162            5 
  512000    1.0587376   -7.4106837    147.10986  0.023943663  0.024143301            3 
  513000    1.0170724   -7.3728239    147.51104  0.023962157  0.024126676            5 
  514000    1.0403115   -7.4014178    147.19271  0.023863928   0.02411019            4 
  515000    1.0291944   -7.4206801    147.40631  0.023852153  0.024093363            5 
  516000    1.0594309   -7.4194828    147.29613  0.023788135  0.024076858            2 
  517000    1.0637594   -7.4831733    147.61181  0.023793006  0.024060225            9 
  518000    1.0505501   -7.4070907    148.12389  0.023829455  0.024043403            3 
  519000    1.0373538    -7.438406    147.77277  0.023727163  0.024026029            2 
  520000    1.0507477   -7.4665748     147.8062  0.023686892  0.024008427            3 
  521000    1.0530361    -7.425866    147.78366  0.023637821  0.023990933            7 
  522000    1.0319517   -7.4356701    148.67305  0.023734523  0.023973588            2 
  523000    1.0308852   -7.4264848    148.54554  0.023668824  0.023956144            3 
  524000    1.0486811   -7.4199928    149.28711  0.023741589  0.023939017            3 
  525000    1.0568517   -7.4627458    148.83709  0.023624935  0.023921718            5 
  526000    1.0284203   -7.4592318    149.10734  0.023622835  0.023904472            2 
  527000    1.0409636   -7.4189722    149.80245  0.023687927  0.023887425            3 
  528000    1.0370009   -7.4510127    149.51757  0.023598101  0.023870415            4 
  529000    1.0621053   -7.4606712     150.1191  0.023648252  0.023853371            7 
  530000    1.0382574   -7.4592561    149.87027  0.023564508  0.023836688            5 
  531000    1.0514447   -7.4670812    150.33851  0.023593614  0.023820221            4 
  532000    1.0290172   -7.4599898    150.47039  0.023569923  0.023803711            4 
  533000    1.0574966   -7.4623619    150.36405  0.023509077  0.023786961            2 
  534000    1.0467017    -7.448753     151.1045  0.023580602  0.023770406            2 
  535000    1.0360075    -7.453895    151.48108  0.023595184  0.023753839            3 
  536000    1.0279225   -7.4212779    151.52118  0.023557398  0.023737482            3 
  537000    1.0294045   -7.4418698    151.60108  0.023525928  0.023721083            3 
  538000    1.0308581   -7.4368583    152.14229   0.02356603  0.023704739            3 
  539000    1.0457321   -7.4540914    152.01168  0.023502114  0.023688713            3 
  540000    1.0263254   -7.4607877    151.98511  0.023454492  0.023672773            3 
  541000    1.0338587   -7.4419983    152.28164  0.023456814  0.023656483            5 
  542000      1.06235   -7.4465212    153.13973  0.023545468  0.023640462            3 
  543000    1.0403761   -7.4683957    152.56248  0.023413517  0.023624453            3 
  544000    1.0408464   -7.4714493    153.05808  0.023446397  0.023608822            3 
  545000    1.0273036   -7.4796177    152.93566  0.023384657  0.023592773            5 
  546000     1.025361   -7.4513233    153.22027  0.023385267  0.023576915            3 
  547000    1.0408152   -7.4563606    153.86659  0.023440979  0.023561254            6 
  548000    1.0268754   -7.4428851    153.92292   0.02340677  0.023545691            5 
  549000    1.0359524   -7.4134226    154.66568  0.023476879  0.023529991            6 
  550000     1.030314   -7.4845395    154.05893  0.023342262  0.023514198            3 
  551000    1.0477036   -7.4537903    154.58575  0.023379575  0.023498722            5 
  552000    1.0156732   -7.4691485    154.18175   0.02327623  0.023483204            8 
  553000    1.0302756   -7.4730984    154.77815  0.023324012  0.023467583            6 
  554000    1.0445882   -7.4537114    155.42013   0.02337848  0.023452027            5 
  555000    1.0439802   -7.4747935    154.85297  0.023251197  0.023436514            4 
  556000    1.0223991   -7.4641285    155.33705  0.023281932  0.023420409            4 
  557000    1.0600146   -7.4910293    155.33299  0.023239526  0.023404156            4 
  558000    1.0300193    -7.466722    156.00171  0.023297746   0.02338778           11 
  559000    1.0353876   -7.4832883    155.56481  0.023190937  0.023371854            3 
  560000    1.0296313   -7.4666019    156.03404  0.023219351  0.023355625            3 
  561000    1.0356405   -7.4744828    156.24217  0.023208879  0.023339463            4 
  562000    1.0213391    -7.481582    156.30607  0.023177056   0.02332369            5 
  563000    1.0392134   -7.5117882    156.19736  0.023119799  0.023307512            5 
  564000     1.051169   -7.4825705    156.66546  0.023147969  0.023291622            3 
  565000    1.0283707   -7.4584076     157.2762   0.02319708  0.023276037            4 
  566000    1.0308376    -7.482382    157.14222  0.023136369  0.023260078            3 
  567000    1.0267003   -7.4977969    156.68337  0.023028126  0.023243611            6 
  568000    1.0373404   -7.5168051     157.2739  0.023074222  0.023227278            2 
  569000    1.0398691   -7.4644313     157.5891  0.023079834  0.023210851            9 
  570000    1.0223283   -7.5026033    157.26115  0.022991396  0.023194266            4 
  571000    1.0384359   -7.4813761    157.29387  0.022955906  0.023177905            8 
  572000    1.0220706   -7.5271794    157.52698  0.022949735  0.023161446            2 
  573000    1.0135472   -7.5178281    157.70177  0.022935103  0.023144695            3 
  574000   0.99409358    -7.474226    157.85477  0.022917359  0.023128163            6 
  575000    1.0069367   -7.4962009    158.21524  0.022929745  0.023111802            2 
  576000    1.0226005   -7.4957066    158.61442  0.022947688  0.023095591            3 
  577000    1.0205728   -7.5103109    159.15166  0.022985509  0.023079184            1 
  578000   0.99533396   -7.5023078    158.48855  0.022850138  0.023062872            7 
  579000   0.99998099   -7.5349486    158.60618  0.022827602  0.023046529            5 
  580000    1.0225687   -7.4878905    159.81054  0.022961284  0.023030652            6 
  581000    1.0373398   -7.5448772     159.5103    0.0228787  0.023014625            4 
  582000    1.0415312    -7.443506    159.74002  0.022872283  0.022998424            3 
  583000     1.037528   -7.4951138    159.93226  0.022860529  0.022982479            4 
  584000    1.0390672   -7.4566726    160.53385  0.022907227  0.022966537            1 
  585000    1.0166141   -7.5163846    159.45407  0.022714255  0.022950236           10 
  586000    1.0166909    -7.485638    160.07573  0.022763898  0.022933515            3 
  587000     1.003488   -7.5120155    159.94863  0.022707074   0.02291694            3 
  588000    1.0254088   -7.5279665    160.36914  0.022728053  0.022900221            6 
  589000    1.0168106   -7.4580579    160.64976  0.022729168   0.02288359            2 
  590000    1.0141975   -7.4673167    160.82007  0.022714699  0.022867202            5 
  591000    1.0067318   -7.5450094    160.42947  0.022621189  0.022850346            7 
  592000    1.0180693   -7.5556521    160.19693  0.022550244  0.022833096            7 
  593000    1.0049773   -7.5140852    160.66836  0.022578466  0.022816071            2 
  594000    1.0297456   -7.5528864    160.66561  0.022540069  0.022798739            9 
  595000    1.0073503   -7.5432553    160.50635  0.022479881  0.022781183            3 
  596000    1.0186751   -7.5447796    160.51374  0.022443197  0.022763628            3 
  597000    1.0086134   -7.5172098    161.46766  0.022538758  0.022746301            4 
  598000    1.0034761   -7.5132197    161.57046  0.022515393  0.022729225            3 
  599000    1.0083934   -7.5434647    161.55439  0.022475569  0.022711914            4 
  600000     1.030438   -7.4858423    161.92342  0.022489364  0.022694686            3 
  601000    1.0150787   -7.5215365     161.8415  0.022440585  0.022677859            6 
  602000   0.99095691    -7.510324    162.05932   0.02243346  0.022661052            3 
  603000   0.99724691   -7.5011964    162.59256   0.02246995  0.022644024            2 
  604000    1.0048571   -7.5399849    161.89631  0.022336687   0.02262684            4 
  605000    1.0184424   -7.5210714    162.74106  0.022416125  0.022609564            6 
  606000    1.0167621    -7.528833    162.45277   0.02233949  0.022592542            4 
  607000    1.0140896   -7.5114816    162.89885  0.022363928  0.022575464            5 
  608000   0.99256821   -7.5124468    163.44113  0.022401471  0.022558499            8 
  609000    1.0173164   -7.5446903    163.58929  0.022384961  0.022541282            5 
  610000    1.0116502   -7.5570709    163.10432  0.022282011  0.022524145            4 
  611000    1.0105499   -7.5423696    163.82124  0.022343323  0.022507147            7 
  612000    1.0044348   -7.5209993    164.21771    0.0223608  0.022490436            4 
  613000   0.99480252   -7.5339846    163.91501  0.022283172  0.022473885            8 
  614000    1.0152205   -7.5413906    163.90537  0.022245571  0.022457233            4 
  615000     1.021361   -7.5477146    164.40351  0.022276898  0.022440268            8 
  616000    1.0146097    -7.616367    164.28118  0.022224185  0.022423443            3 
  617000   0.99090654   -7.5322518    164.46276   0.02221269  0.022406809            5 
  618000   0.97057376   -7.5878958    164.42952  0.022172266  0.022390215            7 
  619000   0.98319263   -7.5456674    165.08749  0.022225025  0.022373517            3 
  620000    1.0408651   -7.5572697     165.1551  0.022198266  0.022357061            4 
  621000    1.0136086    -7.528467      165.585  0.022220209  0.022340585            4 
  622000    1.0055023   -7.5440097     165.3527  0.022153363  0.022324054            3 
  623000    1.0070116   -7.5764807    165.62441  0.022154147  0.022307284            3 
  624000    1.0037793     -7.53125    165.62336  0.022118505   0.02229061            5 
  625000    1.0020682   -7.5621462    165.95832  0.022127776  0.022274276            5 
  626000   0.99577488   -7.5545199    165.72594  0.022061494  0.022257711            5 
  627000     1.010891   -7.5700674     165.8535  0.022043261  0.022241071            4 
  628000    1.0235339   -7.5684622     166.2589  0.022061956  0.022224406            4 
  629000    1.0198914   -7.5441436    166.58691  0.022070337  0.022207759            5 
  630000   0.97258493   -7.5592856    166.70942  0.022051511  0.022191007            7 
  631000    1.0047427   -7.5420116    166.68017  0.022012701  0.022174219            4 
  632000    1.0275728   -7.5278024    166.86045  0.022001641  0.022157633            4 
  633000    1.0059394   -7.5485442    166.64756  0.021938858  0.022141013            3 
  634000   0.99382389   -7.5508648    167.00657  0.021951441  0.022124315            3 
  635000   0.97406334   -7.5415368    167.11292  0.021930829  0.022107771            4 
  636000   0.99431179   -7.6364999     167.2528  0.021914675  0.022091168            4 
  637000    1.0115494   -7.5620934    167.31402  0.021888281  0.022074641            6 
  638000   0.99959069   -7.5606206    167.65794  0.021898895  0.022057988            9 
  639000   0.99397475   -7.5797365     167.4661  0.021839607  0.022041015            8 
  640000    1.0123303   -7.5808203    167.65828  0.021830506     0.022024            4 
  641000    1.0014563   -7.5299798    168.29443  0.021879151  0.022007106            3 
  642000   0.98564713   -7.5884528    167.91934  0.021796384  0.021990401            7 
  643000   0.99546693   -7.5805651    168.61403  0.021852519  0.021973933            6 
  644000    0.9800359   -7.5745373    168.56338  0.021812031  0.021957162            5 
  645000    1.0026452     -7.56886    168.11258  0.021719971  0.021940169            5 
  646000   0.98698953   -7.6010765     168.2219  0.021700451  0.021922659            6 
  647000    1.0034854    -7.593495    168.54149  0.021708074  0.021905277            9 
  648000   0.98837309   -7.6276225    168.46455  0.021664679  0.021888032            5 
  649000   0.99712421    -7.586582    168.50383  0.021636341  0.021870741            3 
  650000   0.99272666   -7.5696951    168.76599  0.021636666  0.021853282            4 
  651000    1.0101565   -7.5577915    168.88935  0.021619221  0.021835856            4 
  652000   0.99908118   -7.5373233    168.44804  0.021529657    0.0218184            4 
  653000   0.97882466   -7.5746787    169.58999  0.021642419  0.021801051            5 
  654000    1.0039928   -7.6295546    168.66937   0.02149202  0.021783593            5 
  655000    0.9969577   -7.5864779    169.24971  0.021533042  0.021765891            5 
  656000    1.0083307   -7.5743365    169.14286  0.021486644  0.021748405            8 
  657000   0.99756377   -7.5891972    168.62739  0.021388557  0.021730792            4 
  658000   0.98344037    -7.582991    169.54867  0.021472729  0.021713248            6 
  659000   0.99971876   -7.5704625    170.16106  0.021517584  0.021695508            6 
  660000    1.0095487   -7.5610025    169.72057  0.021429365  0.021677889            3 
  661000   0.99929747   -7.6111134    169.48985  0.021367858  0.021660109            4 
  662000   0.99902173   -7.6092191    169.87036  0.021383479  0.021642447            4 
  663000   0.95312349   -7.5938445    170.16308  0.021388019  0.021624795            2 
  664000   0.98151732   -7.6268167    170.15071  0.021354256  0.021607305            2 
  665000    1.0002065   -7.5624798    170.41827  0.021355673  0.021589727            6 
  666000   0.97218185   -7.5517061    170.64022  0.021351379  0.021571888            2 
  667000   0.99366655   -7.6269937    170.04848  0.021245437  0.021553787            4 
  668000   0.97595416   -7.5920614     170.0188   0.02120993  0.021535463            8 
  669000   0.99113612   -7.5836928     171.1798  0.021322845  0.021517482            6 
  670000   0.99812034   -7.6176503    170.13288  0.021160807  0.021499675            5 
  671000   0.97657049   -7.5657817    171.38518  0.021284796  0.021481831            5 
  672000    1.0026357    -7.614767    170.78362  0.021178525  0.021464022            3 
  673000   0.98325049   -7.5943663     171.1234  0.021189129  0.021446032            5 
  674000   0.98621955   -7.6109101    171.31466  0.021181337  0.021428363            4 
  675000   0.99522841   -7.5871566     171.1086  0.021124519  0.021410567            5 
  676000   0.96226809   -7.6246312    171.21222  0.021106043  0.021392855            5 
  677000   0.99621851   -7.6321056    171.10216  0.021061319  0.021374575            4 
  678000   0.96594299   -7.6289355    171.08726  0.021028424  0.021356417            4 
  679000    0.9959858    -7.631078    170.97723   0.02098395   0.02133804            3 
  680000   0.99213141   -7.6759563    170.87888  0.020941039  0.021319609            3 
  681000   0.98808802   -7.6230733    171.57935  0.020996004  0.021300983            5 
  682000   0.98029932   -7.6170642    171.45298  0.020949778   0.02128258            3 
  683000   0.99882499   -7.6030845    171.44332  0.020917926  0.021264378            7 
  684000   0.97498252   -7.5916037    171.91705  0.020945059  0.021246386            4 
  685000   0.98273886   -7.6122312    172.73765  0.021014313  0.021228206            4 
  686000   0.98596288   -7.6202884     172.2838  0.020928548  0.021210157           13 
  687000   0.98383503   -7.6186986     172.1501  0.020881865  0.021192047            5 
  688000   0.97245141   -7.6279058    172.27133  0.020866198  0.021173718            4 
  689000    0.9514743   -7.6253629    172.63881  0.020880359  0.021155714            2 
  690000   0.97988493   -7.6186726    172.52839  0.020836762  0.021137691            2 
  691000   0.97495266   -7.6348699    172.17293   0.02076374  0.021119575            9 
  692000   0.94976808   -7.6054264    173.35844  0.020876498  0.021101344            6 
  693000   0.97128332   -7.6200577    173.14103  0.020820229  0.021083247            4 
  694000   0.97069193   -7.6399778     172.8182  0.020751465  0.021064958            4 
  695000   0.97447959   -7.6745389    172.71273   0.02070896  0.021046659           10 
  696000   0.96851018   -7.6530594    172.68943  0.020676417  0.021028184            6 
  697000   0.99595869   -7.6517978    173.29792  0.020719502  0.021009871            4 
  698000   0.98708798   -7.6038151    173.51595  0.020715848  0.020991511            2 
  699000   0.98326142   -7.6354559    173.62408  0.020699104  0.020973393            2 
  700000   0.98368473   -7.6111579     174.0334  0.020718262  0.020955303            5 
  701000   0.96438653   -7.6667515    174.32358  0.020723203  0.020937573            9 
  702000   0.97180286   -7.6597566    174.18189  0.020676862  0.020919726            3 
  703000   0.95511953   -7.6464272    174.22686  0.020652781  0.020901863            5 
  704000   0.97521973   -7.6734062    174.31705   0.02063412  0.020883877            6 
  705000   0.97891834   -7.6909846    173.89555  0.020555029  0.020865691            3 
  706000   0.97358317   -7.6547341    174.56977  0.020605496  0.020847756            3 
  707000   0.97388477   -7.6655949    174.38308  0.020554347  0.020830003            5 
  708000   0.96938658   -7.6384788    175.31726  0.020635271   0.02081236           20 
  709000   0.95511424   -7.6640283    175.48285  0.020625629   0.02079477            7 
  710000   0.97114695   -7.6686248    175.07269  0.020548438  0.020777098            5 
  711000    0.9777205   -7.6671748    175.17132  0.020531097  0.020759311            7 
  712000   0.96627434   -7.6266622    175.92485  0.020590455  0.020741681            4 
  713000   0.97170121   -7.6569361      175.786  0.020545348  0.020724201            4 
  714000   0.98165672   -7.6840915    175.75372  0.020512806  0.020706652            5 
  715000   0.95485114   -7.6588953    176.09387  0.020523761  0.020689115            8 
  716000   0.96981182   -7.6314529    176.17583  0.020504636  0.020671686            4 
  717000   0.95399433   -7.6579588    176.15292  0.020473375  0.020654141            3 
  718000   0.95990522   -7.6571249    176.25845  0.020457109  0.020636667            4 
  719000   0.97067374   -7.6965128    175.61229  0.020353766  0.020619002            8 
  720000   0.96301522   -7.6728561    176.02155  0.020372865  0.020601302            3 
  721000    0.9571019   -7.6443663    176.30417  0.020377274  0.020583362            4 
  722000   0.96475339    -7.645496    176.20445   0.02033754  0.020565597            4 
  723000   0.96337051   -7.6746966    176.51396  0.020345085  0.020548083            5 
  724000   0.96876908   -7.6186157    177.04002  0.020377534  0.020530592            5 
  725000   0.96930936    -7.675921     177.1503  0.020362103  0.020513299            9 
  726000   0.95469013   -7.6283062    177.52429  0.020376984   0.02049606            8 
  727000   0.95659522   -7.6696428    177.27828  0.020320757  0.020478787           11 
  728000   0.96791233   -7.6647569    177.10995  0.020273574  0.020461719            4 
  729000   0.95154408    -7.656163    177.66163  0.020308828  0.020444757            5 
  730000   0.97268215   -7.6681444    177.61798  0.020276025  0.020427601            6 
  731000   0.95748777    -7.674276    177.59122  0.020245237  0.020410386            3 
  732000   0.97786232   -7.6673589    177.76068  0.020236872    0.0203931            2 
  733000   0.96160519   -7.6796759    177.55345  0.020185704  0.020375958            4 
  734000   0.96320834   -7.7248775    177.69659  0.020174454  0.020358486           11 
  735000   0.95337546   -7.7198694     177.3289  0.020105318  0.020340994            3 
  736000   0.96432649   -7.7034974    178.04135  0.020158668  0.020323707            7 
  737000   0.95739939   -7.7118317    178.47484   0.02018033  0.020306195            3 
  738000    0.9759586   -7.7153393    177.95432  0.020094209  0.020288941            2 
  739000   0.94924566   -7.6779451    178.21506  0.020096421    0.0202716            9 
  740000   0.95892629   -7.6929388     178.8159  0.020136926   0.02025455            3 
  741000   0.95392002   -7.7343251    178.34203  0.020056458  0.020237406            3 
  742000   0.96066679   -7.6992978    178.74229  0.020074381  0.020220216            9 
  743000   0.94069443   -7.7005233    179.49213  0.020131464  0.020203194            4 
  744000   0.95129568    -7.669661    179.67547  0.020124941  0.020186424            3 
  745000   0.95600741   -7.7033033    179.49716  0.020077983   0.02016961            6 
  746000   0.93281325   -7.7426794    179.16542  0.020014011   0.02015273            8 
  747000   0.94696108   -7.6961784    179.68917  0.020045646  0.020135812            9 
  748000    0.9691383   -7.6824582    179.85764  0.020037616  0.020118861            6 
  749000   0.94914829   -7.6840986    179.95376  0.020021558   0.02010207            4 
  750000   0.97268138   -7.6633675    179.90955   0.01998995  0.020085192            5 
  751000   0.95979791   -7.7129104    179.92701   0.01996527  0.020068265            4 
  752000   0.95203125    -7.753959       180.25  0.019974513  0.020051389            3 
  753000   0.96505437   -7.7177958     179.9143  0.019910834  0.020034432            8 
  754000   0.94918919    -7.701424    180.06752  0.019901361  0.020017596            4 
  755000   0.96210139   -7.7101738     180.6498  0.019939271  0.020000807            4 
  756000   0.93608535   -7.7020759    180.15875  0.019858769   0.01998407            4 
  757000    0.9607568   -7.7206953    180.32543  0.019850884  0.019967104            7 
  758000   0.93334527   -7.7175561    180.90752   0.01988869  0.019950161            9 
  759000   0.94268636   -7.7262181    180.54571  0.019822761  0.019933295            7 
  760000   0.93513773   -7.6872201    181.33389  0.019883102  0.019916434            5 
  761000   0.94805906   -7.7219674    180.80669  0.019799243  0.019899465            6 
  762000   0.94896963    -7.746451    180.72318  0.019764127  0.019882365            4 
  763000   0.95949009   -7.6750936    181.91319  0.019868195  0.019865361            5 
  764000   0.96449864   -7.7047776    181.09019   0.01975242  0.019848416            7 
  765000   0.95787194   -7.7349406    181.44925  0.019765714  0.019831643            9 
  766000   0.96778773   -7.7158867    181.36557  0.019730806  0.019814853            6 
  767000   0.96313318   -7.7467577    180.56777  0.019618402     0.019798            4 
  768000   0.94150321   -7.7058934    181.16222  0.019657359  0.019780935            5 
  769000   0.94860379    -7.745677    181.32054  0.019648953  0.019763799            6 
  770000   0.96148431   -7.7284469    181.16901  0.019607035  0.019746834            5 
  771000   0.95959432   -7.7129594    181.60512  0.019628742  0.019729927            3 
  772000   0.93014705   -7.7470705    181.51839  0.019593954  0.019713142            5 
  773000    0.9428819   -7.7235395    181.68719  0.019586804  0.019696363            5 
  774000   0.94975282   -7.7121302    182.61623  0.019661524  0.019679895            7 
  775000   0.93616488    -7.719636    182.00266  0.019570178    0.0196634           21 
  776000   0.94395259   -7.7117415    182.07406  0.019552626  0.019646564            4 
  777000   0.94798352   -7.7220775    182.07669  0.019527745  0.019629777            9 
  778000   0.94435998   -7.7315981    182.28427  0.019524879  0.019613026            5 
  779000   0.93841886   -7.7314368    182.38641  0.019510741  0.019596147           12 
  780000   0.94012665   -7.7426877    182.46767  0.019494409  0.019579248            7 
  781000    0.9512026   -7.7850944    181.85505  0.019404082  0.019562177            7 
  782000   0.92716851   -7.7408575    182.66527  0.019465608   0.01954505            9 
  783000   0.98096838   -7.7455208    182.60192  0.019434006  0.019528005            9 
  784000   0.94808618   -7.7584405    182.54519  0.019403188  0.019510936           12 
  785000   0.92850301   -7.7489168    182.76148  0.019401431  0.019493934            5 
  786000   0.92816386   -7.7155849    183.25428  0.019428995  0.019477071            4 
  787000   0.94188987   -7.7348059    183.29244  0.019408348  0.019460377            9 
  788000   0.95127944   -7.7310642    183.61472    0.0194178  0.019443789            3 
  789000   0.92526556   -7.7545486    183.41546  0.019372144  0.019427052            4 
  790000   0.93006831   -7.7572835    183.21058  0.019326011   0.01941032            7 
  791000   0.93882629   -7.7386138    183.71755  0.019354988  0.019393725            7 
  792000   0.95119897   -7.7168848    184.26408  0.019388056  0.019377248            9 
  793000    0.9357553    -7.735117    183.80168  0.019315015  0.019360681            7 
  794000   0.94500003   -7.7917969    183.75676  0.019285974  0.019343883           18 
  795000   0.94038073    -7.745391     183.6491   0.01925043  0.019327284           13 
  796000    0.9246199   -7.7559422    183.63147  0.019224401  0.019310637            3 
  797000   0.93663572   -7.7186121    184.13605  0.019253037  0.019294016            6 
  798000   0.93987567   -7.7210514    184.33361  0.019249542  0.019277522            4 
  799000   0.95194852   -7.7818254    184.10513  0.019201619  0.019260889           10 
  800000    0.9389087   -7.7492489    184.48664  0.019217358   0.01924437            7 
  801000   0.94046589   -7.7701859    184.59221   0.01920435  0.019227896            9 
  802000   0.94089268   -7.7264718    184.61039  0.019182293  0.019211389            3 
  803000   0.95472488   -7.7343478    184.61868  0.019159265  0.019194892            4 
  804000   0.92058192   -7.7437416    184.07115  0.019078685  0.019178215            2 
  805000   0.93261841   -7.7339793    184.62492   0.01911231  0.019161653            5 
  806000   0.94310638   -7.7712769    184.20877  0.019045571  0.019145039            4 
  807000   0.93204018   -7.7809739    184.60203   0.01906258  0.019128253            9 
  808000   0.93460201   -7.7510416    184.69373  0.019048446  0.019111704           13 
  809000   0.93127901   -7.7756778    184.70446  0.019026005  0.019094982            6 
  810000   0.92534179   -7.7910938    184.89711  0.019022336  0.019078271            6 
  811000    0.9234454   -7.7293734    185.80529    0.0190922  0.019061802            7 
  812000   0.91799676   -7.7726087    185.26909  0.019013658  0.019045394           11 
  813000   0.93235438   -7.7611978    185.65316  0.019029639  0.019029095            8 
  814000   0.93196938   -7.7708688    185.48154  0.018988692  0.019012698            6 
  815000   0.92907291    -7.785057    185.18356  0.018934924   0.01899595           14 
  816000   0.92244273    -7.774499    185.34246  0.018927948  0.018979349            8 
  817000   0.93174108   -7.7908641    185.37624  0.018908226  0.018962654            7 
  818000   0.92481221    -7.800095    185.19849  0.018867001  0.018945914            3 
  819000   0.91847637    -7.797486    185.62369  0.018887229  0.018928942           11 
  820000   0.93240059   -7.8198053    184.86336  0.018786926  0.018911976            8 
  821000   0.92469137    -7.823301    184.99795  0.018777705  0.018894924            9 
  822000   0.92457282   -7.8198067    185.58303  0.018814176   0.01887792           11 
  823000    0.9124059   -7.8193096    185.58043  0.018791052  0.018860842            4 
  824000   0.90672247   -7.8028778    185.30118  0.018740006  0.018843693            4 
  825000   0.92012901    -7.780134    185.20551  0.018707628  0.018826496            9 
  826000   0.93189117     -7.77249    186.16511   0.01878179  0.018809429            3 
  827000   0.92311914   -7.8042969    185.52129  0.018694205  0.018792421            4 
  828000   0.91767328   -7.8025628    185.88126  0.018707856  0.018775542            3 
  829000   0.93101421   -7.7789043    186.08453  0.018705723  0.018758694            4 
  830000   0.91837502   -7.7783643    185.94757  0.018669434  0.018741963            5 
  831000   0.92671974   -7.8358263    185.83174  0.018635353  0.018725201            4 
  832000   0.90022407   -7.8285072    185.41807  0.018571521  0.018708186            4 
  833000    0.9202969    -7.757486     186.5191  0.018659374  0.018691352            9 
  834000   0.94312181   -7.7904501    186.07503  0.018592628  0.018674426           11 
  835000   0.93173297   -7.8498732    185.81484  0.018544395   0.01865749            8 
  836000   0.91051918   -7.7974213     186.7042  0.018610865  0.018640753            8 
  837000   0.93906966   -7.8062182    187.05198  0.018623255  0.018624177            7 
  838000   0.92228971   -7.7895121    187.21999   0.01861774  0.018607509            7 
  839000   0.93004129   -7.8111589    186.26972  0.018501164  0.018590965            6 
  840000   0.92259306    -7.834255    187.14515  0.018565988  0.018574328            5 
  841000   0.94016248    -7.820353     186.7792   0.01850765  0.018557849            6 
  842000   0.92036932    -7.798901    187.61243  0.018568134  0.018541422            2 
  843000   0.90685003    -7.825015    186.93114   0.01847876  0.018524974            9 
  844000   0.89717262   -7.8297312    187.09565  0.018473109  0.018508465            3 
  845000   0.91127052   -7.8069595    187.47439  0.018488598  0.018491983            5 
  846000   0.93164363   -7.8191397    187.47501  0.018466806  0.018475664           12 
  847000   0.93106858    -7.791324    188.25803  0.018522041  0.018459335            7 
  848000   0.92523063   -7.8032545    187.95719  0.018470635  0.018442948            6 
  849000   0.93617804   -7.8373804    187.75986  0.018429511  0.018426507            6 
  850000   0.91752978   -7.8430212    187.52092  0.018384404  0.018410159            6 
  851000   0.91836189   -7.8015001     187.9726  0.018407031  0.018393787            9 
  852000    0.9035344   -7.8329191    188.05694  0.018393676  0.018377629           17 
  853000   0.91139683   -7.8057877    188.72211  0.018437095  0.018361381            9 
  854000   0.90719516   -7.8400365    187.31705  0.018278401    0.0183451            8 
  855000   0.89644883   -7.8442133    187.69802  0.018294154  0.018328598            8 
  856000   0.92040814   -7.8657817    187.65781  0.018268868  0.018312056            6 
  857000   0.90280633   -7.8789242    188.18158  0.018298481  0.018295506            7 
  858000   0.90304433   -7.8399578    187.92999  0.018252719   0.01827905            5 
  859000   0.90860773   -7.8273538    187.81776  0.018220582  0.018262496            9 
  860000   0.91517223   -7.8123175    188.44606  0.018260277  0.018246086            3 
  861000   0.91401856   -7.8788331     187.6936  0.018166241  0.018229614            7 
  862000   0.88796735   -7.8175173    188.27606  0.018201475  0.018213146            5 
  863000   0.89794701   -7.8114996    188.69577  0.018220912  0.018196794            6 
  864000   0.91404599   -7.8328248    188.34929  0.018166405  0.018180467           10 
  865000   0.90791801   -7.8299134    188.33233   0.01814377  0.018164151           20 
  866000    0.9136223   -7.8403861    188.66383  0.018154718   0.01814772           16 
  867000   0.89288119   -7.8254386    188.77424   0.01814439  0.018131431           10 
  868000   0.93033231   -7.8313217    188.68945  0.018115347  0.018115059           15 
  869000   0.91716236   -7.8495392     188.3809  0.018064912  0.018098683            3 
  870000   0.89726027   -7.8819848    188.66417  0.018071281  0.018082094           16 
  871000   0.90087219   -7.8688989    188.11135  0.017997641  0.018065531            5 
  872000   0.89820126   -7.8403402    189.19439  0.018080504  0.018049054           11 
  873000   0.90058636   -7.8321955    188.95932  0.018037354  0.018032528            5 
  874000   0.91057495   -7.8514978     188.4882  0.017971796  0.018016004           13 
  875000   0.90830727   -7.8717152    189.03412  0.018003249   0.01799956            7 
  876000   0.89362813   -7.8784678    188.84402  0.017964613  0.017983118            8 
  877000   0.90720611   -7.8700549    188.30939  0.017893328  0.017966478           13 
  878000   0.90456089   -7.8672214    188.53332  0.017894202  0.017949783            6 
  879000   0.89741833   -7.8944048    188.52354  0.017872918  0.017933137            6 
  880000   0.90243778   -7.9075883    188.71132  0.017870391  0.017916476           12 
  881000   0.90567364   -7.8527556    189.46204  0.017921116  0.017900011            2 
  882000   0.91777696   -7.8563621     189.1413  0.017870493  0.017883553            5 
  883000   0.88160847   -7.8987268    189.38316  0.017873081  0.017867022            7 
  884000    0.8826699   -7.8823222    188.72013  0.017790359  0.017850473            6 
  885000   0.89399473   -7.8949961    189.21912  0.017817243  0.017833946            3 
  886000   0.88917649   -7.8953017    189.34892  0.017809342  0.017817507            8 
  887000   0.89782139   -7.8797128    189.56411   0.01780948  0.017801181           10 
  888000   0.91384599   -7.8568941    189.52368  0.017785631  0.017784983            7 
  889000   0.89963873   -7.8908071    189.80788  0.017792265  0.017768774            8 
  890000   0.89849837   -7.8932473    190.25986  0.017814593  0.017752533            5 
  891000   0.89609127   -7.9016189    189.17871  0.017693482  0.017736218            6 
  892000   0.90309699   -7.8697293    190.06046  0.017756022  0.017719964            5 
  893000   0.90562066   -7.8529485    190.90542  0.017814988  0.017703824           11 
  894000   0.89182217     -7.86696    190.11771  0.017721636  0.017687897            9 
  895000   0.89846035   -7.8448399     190.6923  0.017755335  0.017672115           12 
  896000   0.89886361   -7.9045514    190.12029  0.017682318   0.01765618           16 
  897000    0.8831007   -7.8676805    190.90118  0.017735152  0.017640252            4 
  898000   0.92794567   -7.8787041    190.84666  0.017710343  0.017624275            9 
  899000   0.89574806    -7.855329    191.23459  0.017726602  0.017608303            5 
  900000   0.88599568   -7.8414249    190.72937  0.017660127   0.01759245            4 
  901000   0.89194633   -7.9026224    190.27333  0.017598347  0.017576476            5 
  902000    0.8838126   -7.8744878    190.85968  0.017633008  0.017560457           11 
  903000   0.90237106   -7.9078128      190.582  0.017587855  0.017544388            6 
  904000   0.88089543   -7.8838943     190.8929  0.017597059  0.017528483            9 
  905000   0.89210344   -7.9103035    190.92637  0.017580697  0.017512585           10 
  906000   0.88015318   -7.8845119    190.78144  0.017547962  0.017496639            8 
  907000   0.90588784   -7.8998167    191.19814    0.0175669  0.017480652            8 
  908000   0.89265521   -7.9274706    190.63669  0.017496025  0.017464586           12 
  909000   0.88554138   -7.9375221    190.47109  0.017461596  0.017448377            8 
  910000   0.91476574   -7.9184939    191.08457  0.017498587  0.017432186            9 
  911000   0.88253643   -7.9264486    191.17017  0.017487209   0.01741624            8 
  912000   0.88806266   -7.8889291    191.17464  0.017468443  0.017400338           10 
  913000   0.90127789   -7.9055943    191.65048  0.017492742  0.017384453            4 
  914000   0.89861777   -7.8978431    191.73714  0.017481505  0.017368542            6 
  915000   0.88994771   -7.9067092    191.65125  0.017454576  0.017352703           11 
  916000   0.88471332    -7.918932    191.77002  0.017446326  0.017336639            7 
  917000    0.8884229   -7.9412431    191.69627  0.017420599  0.017320775           12 
  918000   0.88230374   -7.9510364    190.63591  0.017305366  0.017304909            6 
  919000   0.87850705   -7.9442367    191.54322  0.017368808  0.017288977           20 
  920000   0.87781012   -7.9597848    191.57138   0.01735248  0.017272998            9 
  921000    0.8927489   -7.9324466    191.57651  0.017334104    0.0172571           15 
  922000    0.8796579   -7.9086144    192.23794  0.017375085  0.017241286           15 
  923000   0.89122252   -7.9663479    190.81733  0.017228001  0.017225401           18 
  924000   0.90201652   -7.9342779    191.79356  0.017297399  0.017209523           14 
  925000   0.89002429   -7.9358323    191.69919  0.017270198  0.017193558           14 
  926000   0.85774902   -7.9477938    191.67948  0.017249773   0.01717762           19 
  927000    0.9081904   -7.9109354    192.05024  0.017264494  0.017161721           11 
  928000   0.87806274   -7.9477128    192.23688  0.017262651  0.017145817           12 
  929000   0.89841615   -7.9278366    192.04212  0.017226599  0.017129903           13 
  930000   0.88759367   -7.9434811    192.11291  0.017214419  0.017113962           17 
  931000   0.86685379   -7.9361117    191.81271  0.017169058  0.017098018           13 
  932000   0.86394887   -7.9425284    191.92039  0.017160264  0.017082079           42 
  933000   0.86482802   -7.9554217    192.28381  0.017174331  0.017066135           58 
  934000   0.89060246   -7.9183128    192.24186    0.0171522  0.017050352           35 
  935000   0.88889492   -7.9408772    192.30311  0.017139314  0.017034613            5 
  936000   0.88836296   -7.9322687    192.58704  0.017146282  0.017018839            5 
  937000     0.884539    -7.905195    192.55673  0.017125287  0.017003034            5 
  938000   0.89373865   -7.9316884    191.78199  0.017038201  0.016987272           10 
  939000   0.86628087   -7.9543599    192.70647    0.0171021  0.016971382            4 
  940000    0.8733689   -7.9360406    192.66686  0.017080396  0.016955655            8 
  941000    0.8654362    -7.947119     192.5712  0.017053772  0.016939887           10 
  942000   0.87904625   -7.9542151    192.24771  0.017007051  0.016924032           16 
  943000    0.8868924    -7.963257    191.58478  0.016930433  0.016908094            6 
  944000   0.88198567   -7.9488655    192.25347  0.016971528  0.016892233            4 
  945000   0.87268932   -7.9838298    191.96047  0.016927731  0.016876438           10 
  946000    0.8826759   -7.9716451    192.53152  0.016960141  0.016860641           10 
  947000   0.87065539   -7.9691343    192.54206  0.016943159  0.016844968            8 
  948000    0.8951092   -7.9711791    192.73772  0.016942486  0.016829209           10 
  949000   0.87353828    -7.991581    192.80743  0.016930754  0.016813592            9 
  950000   0.88973325   -7.9217363    192.69474  0.016903048  0.016797924           11 
  951000   0.86696156   -7.9477539    193.01923  0.016913708  0.016782229            9 
  952000   0.89111652   -7.9802414    192.63839  0.016862604  0.016766629           10 
  953000     0.854563   -7.9463715    193.05131  0.016881017  0.016751027            8 
  954000   0.88491701    -7.959385    192.91033  0.016851008  0.016735365           11 
  955000    0.8786242    -7.956711    193.40259  0.016876317  0.016719803            5 
  956000   0.87937061   -7.9588006     193.1923  0.016840333  0.016704276            4 
  957000   0.86742015   -7.9468916    193.57643  0.016856185  0.016688732           31 
  958000   0.86742129     -7.97235    193.42036  0.016825014  0.016673311           11 
  959000   0.87057121   -7.9628643    193.29696  0.016796746  0.016657918           14 
  960000   0.88246579   -8.0226179    192.92831  0.016747249  0.016642382            6 
  961000   0.86623995   -7.9642244     193.4248  0.016772875  0.016626757           13 
  962000    0.8840226    -7.949452    193.47793  0.016760042  0.016611214            7 
  963000   0.87199857   -7.9293128    193.83179   0.01677326  0.016595701           10 
  964000    0.8908802   -7.9680828     193.8388  0.016756466  0.016580297           14 
  965000   0.87881401   -7.9757135    193.52929  0.016712374    0.0165649           15 
  966000   0.84703161   -7.9552569    193.53114  0.016695233  0.016549398            7 
  967000   0.86563109    -7.939411    193.70356  0.016692827  0.016533903            9 
  968000   0.87171063   -7.9898365    193.56283  0.016663467  0.016518457            5 
  969000   0.87373831    -7.978657    194.25282  0.016705609  0.016502997           10 
  970000   0.86810332   -8.0146731    193.74131  0.016644442  0.016487657            7 
  971000   0.85951338   -8.0030101    193.91071  0.016641839  0.016472236            6 
  972000   0.87067912   -8.0051046     193.3287   0.01657482  0.016456802            6 
  973000   0.85242039   -7.9916791    193.88297  0.016605256  0.016441364            5 
  974000   0.87151838   -7.9895923    193.79074  0.016580317  0.016425874            6 
  975000   0.86898268   -7.9706084    194.08669  0.016588606  0.016410479            7 
  976000   0.86454074   -7.9869561    194.11218  0.016573786  0.016395157           20 
  977000   0.84184383   -8.0087809    194.15266  0.016560275  0.016379761            8 
  978000   0.84815319   -7.9737958    194.12797  0.016541238  0.016364451            8 
  979000    0.8853868   -7.9877543    194.74993  0.016577284  0.016349269           12 
  980000   0.87193305   -7.9713899    194.54992  0.016543361  0.016334012            9 
  981000   0.85625432   -7.9619787    194.44065  0.016517215  0.016318853            3 
  982000   0.85814323   -8.0010729    194.10806   0.01647217  0.016303632            8 
  983000   0.87823652    -7.991166    194.48449  0.016487325  0.016288378            4 
  984000   0.86450893    -7.975632    194.91242   0.01650681  0.016273237           10 
  985000   0.84960867   -8.0001927    194.11379  0.016422487  0.016258045           18 
  986000   0.86154177   -7.9769507     194.9701  0.016478203  0.016242948            7 
  987000   0.87184218   -7.9922055    194.74345  0.016442372  0.016227888           15 
  988000    0.8589438   -7.9870295    194.64414  0.016417353  0.016212747            6 
  989000   0.87502797   -8.0004847     194.4359  0.016383207  0.016197569            6 
  990000    0.8553826   -8.0024088    194.33084  0.016357815  0.016182422            7 
  991000   0.86255303   -7.9938927    195.12622  0.016408192   0.01616737            7 
  992000   0.85501024   -8.0115709    194.42393  0.016332656  0.016152256           12 
  993000   0.84378584   -8.0286268    194.84495   0.01635154  0.016137169           10 
  994000   0.85914238   -8.0150592    194.79737  0.016331101  0.016122097           11 
  995000   0.85176653   -7.9933506    195.01213  0.016332674  0.016107082           14 
  996000   0.86089442   -8.0233439    194.91762  0.016308368  0.016092091           18 
  997000   0.85276109   -7.9870909    194.90833  0.016291235  0.016077061           19 
  998000   0.87349553   -8.0029443    194.91167   0.01627519  0.016062098           10 
  999000   0.86849651   -7.9967398    195.20858  0.016283665  0.016047064            3 
 1000000   0.84293981   -8.0156194    195.12872  0.016260727  0.016032062            4 
 1001000   0.85665782   -8.0112554     194.7659  0.016214277  0.016017043            9 
 1002000   0.85685008    -7.995561    195.25067  0.016238412  0.016002101            6 
 1003000    0.8458074   -8.0179608    195.67476  0.016257458  0.015987209            7 
 1004000   0.86822399   -8.0224545    195.48365  0.016225402   0.01597239           24 
 1005000   0.86868692    -7.996208    195.30833  0.016194721  0.015957528           16 
 1006000   0.85754213   -7.9989018    195.31515  0.016179187   0.01594261            8 
 1007000   0.84174151   -8.0071303    195.49368  0.016177895    0.0159277           16 
 1008000    0.8408083   -8.0408171    195.59218  0.016169988  0.015912782            9 
 1009000   0.84035272   -8.0414101    195.61972  0.016156237   0.01589787            9 
 1010000   0.85185837   -8.0139336    195.34224  0.016117346  0.015882932           11 
 1011000   0.86570936   -8.0397497    195.57811  0.016120846   0.01586798           14 
 1012000   0.85716577   -8.0290971    196.17492  0.016154061  0.015853106            9 
 1013000   0.86888118   -8.0474579    195.46093  0.016079379  0.015838172           18 
 1014000   0.85557304   -8.0128326    196.08057  0.016114445  0.015823261            4 
 1015000   0.85136946   -8.0135413    195.53056  0.016053412  0.015808385           19 
 1016000   0.83234896   -8.0405575    195.70696   0.01605208  0.015793434            8 
 1017000   0.83579832   -8.0249294    195.58692   0.01602646  0.015778512           12 
 1018000   0.84683465   -8.0583294     195.6837   0.01601864  0.015763613           12 
 1019000   0.85834019   -8.0627936    195.44068  0.015983045  0.015748607           17 
 1020000   0.84459924   -8.0558572    195.73405  0.015991344  0.015733764           18 
 1021000   0.85978521   -8.0301494    195.22909  0.015934467  0.015718889           15 
 1022000   0.84949616   -8.0498833    195.62364  0.015951047  0.015704071           49 
 1023000    0.8306632   -8.0438843     195.5168  0.015926751  0.015689272           21 
 1024000    0.8537619   -8.0726173     195.5246  0.015911832  0.015674441           28 
 1025000   0.82913695   -8.0527207       195.85  0.015922764  0.015659523           15 
 1026000   0.83404051   -8.0705269    195.28395   0.01586127  0.015644643           27 
 1027000   0.85352071   -8.0739352    195.31356  0.015848228  0.015629708           46 
 1028000   0.84343712   -8.0550644    195.82574  0.015874331  0.015614791           24 
 1029000   0.84526385   -8.0625932    195.91619  0.015866228  0.015599955            7 
 1030000   0.83368294   -8.0730294    195.62474  0.015827245  0.015585193           44 
 1031000   0.85044745   -8.0716733    195.62874  0.015812216  0.015570384           10 
 1032000    0.8368192   -8.0565318    195.87388  0.015816689   0.01555556           10 
 1033000   0.83294947   -8.0671894    196.03172  0.015814111  0.015540772           13 
 1034000   0.82510421   -8.0694502    196.04479   0.01579987  0.015525971           21 
 1035000   0.84464712   -8.0547161    196.00288   0.01578123   0.01551119            8 
 1036000   0.86908051   -8.0650556    196.00271  0.015765984  0.015496445           19 
 1037000   0.84545839   -8.0951744    195.68694  0.015725405  0.015481773           23 
 1038000    0.8312773    -8.076104    196.03776   0.01573842  0.015467142           17 
 1039000   0.84418663   -8.0686022    195.84316  0.015707664  0.015452454           33 
 1040000   0.82165746   -8.1171405    195.64458  0.015676649  0.015437746           38 
 1041000   0.83650504   -8.0789433    196.36282  0.015719086  0.015423032           44 
 1042000   0.81958269   -8.0633915    196.35708  0.015703541   0.01540837           28 
 1043000   0.84558806   -8.0778022    196.50801  0.015700544  0.015393719           56 
 1044000   0.83941449   -8.0832285    196.21146  0.015661834  0.015379159           60 
 1045000   0.83316579   -8.1061469    195.89383  0.015621518  0.015364563           42 
 1046000   0.83970062   -8.0557238    196.38784   0.01564594  0.015349902           30 
 1047000   0.83021016   -8.0554055    196.25539  0.015620454  0.015335234           35 
 1048000   0.85319446   -8.1023716    196.21815  0.015602588  0.015320553           39 
 1049000   0.84386081   -8.1096475    195.86157  0.015559387  0.015305879           61 
 1050000   0.83611797   -8.0907852    196.49479  0.015594825  0.015291186           64 
 1051000   0.83137328   -8.1019048    196.32625  0.015566623  0.015276465           58 
 1052000   0.84449806   -8.0835073      196.768  0.015586819  0.015261916           50 
 1053000   0.82782109   -8.0894567    196.48961  0.015549985  0.015247443           16 
 1054000   0.82298958   -8.1052861    196.96458  0.015572785  0.015232993           46 
 1055000   0.84967671   -8.0813695    196.33032  0.015507924  0.015218544           61 
 1056000   0.82943911   -8.0960992     196.2977  0.015490664  0.015204093           66 
 1057000   0.82700211   -8.1027685     196.7648  0.015512835  0.015189617           66 
 1058000   0.84922119   -8.1076602    196.93075  0.015511244  0.015175123           60 
 1059000   0.83561113   -8.1443707    196.45441  0.015459113  0.015160643           70 
 1060000   0.82961594   -8.1015126    196.37708   0.01543845  0.015146125           90 
 1061000   0.81476452   -8.1198076    196.69136  0.015448583  0.015131615           75 
 1062000   0.84290355   -8.1371411    196.94559  0.015453985    0.0151171           67 
 1063000   0.83322863   -8.1074269    197.07602  0.015449672  0.015102603          102 
 1064000   0.81864012   -8.1270715    196.38062  0.015380688  0.015088152           81 
 1065000   0.82141451   -8.1422467    196.41097  0.015368621  0.015073673           69 
 1066000   0.81379455   -8.0996545    196.91111  0.015393301  0.015059264           85 
 1067000   0.84196317   -8.1116255    196.58901  0.015353718  0.015044922          108 
 1068000   0.82806597   -8.1081429    197.56346  0.015415376  0.015030575           87 
 1069000   0.82645369   -8.0942454     196.9179  0.015350631  0.015016184           51 
 1070000   0.81081568   -8.1254224    197.03306  0.015345254  0.015001908           61 
 1071000   0.83759229   -8.1038003    197.09642  0.015335856  0.014987636          116 
 1072000   0.79795145   -8.1169243    197.28291  0.015336047  0.014973401           71 
 1073000   0.82361123   -8.1028122    197.99373  0.015376959  0.014959207           82 
 1074000   0.82377969   -8.1417468    197.08687  0.015292277  0.014945013          153 
 1075000   0.82058226   -8.1098455    196.71331  0.015249094  0.014930816          151 
 1076000   0.81051619   -8.1368742     197.0024  0.015257311  0.014916544          165 
 1077000   0.83480076   -8.1262573    197.24977  0.015262285  0.014902328          102 
 1078000   0.82677116   -8.1343275    197.38168  0.015258324  0.014888079          233 
 1079000   0.81913058   -8.1453355    197.47355  0.015251278  0.014873834          219 
 1080000   0.82419747    -8.148138    197.10917  0.015209041  0.014859619          183 
 1081000   0.82265361   -8.1682219    196.89546  0.015178497  0.014845406          183 
 1082000   0.83133035   -8.1520403    197.56351   0.01521592  0.014831162          200 
 1083000   0.83622086   -8.1790716    196.73911  0.015138436  0.014816962          188 
 1084000   0.80953889    -8.160264    196.95197  0.015140834  0.014802704          209 
 1085000   0.82637164   -8.1836145    196.88033  0.015121377  0.014788498          191 
 1086000   0.81881416   -8.1747103    197.17073  0.015129737  0.014774285          201 
 1087000    0.8270573   -8.1726689     197.4046  0.015133747   0.01476003          214 
 1088000   0.81917124   -8.1480636    196.83236  0.015076008  0.014745821          126 
 1089000    0.8324479   -8.1713653    197.00936  0.015075708  0.014731603          126 
 1090000    0.8185969    -8.212275    197.63916  0.015110027  0.014717404          253 
 1091000   0.81629742   -8.1868793      197.239  0.015065612  0.014703191          216 
 1092000   0.84071276   -8.1901056    197.17947  0.015047274  0.014688975          239 
 1093000   0.82385058   -8.2082015    197.61737  0.015066893  0.014674795          272 
 1094000   0.80844995   -8.1999189    197.09047  0.015012985  0.014660628          255 
 1095000   0.80761005   -8.1923303    197.09534  0.014999646   0.01464649          258 
 1096000   0.81319746   -8.1842308    197.17402  0.014991942  0.014632424          270 
 1097000   0.81662096    -8.213539    196.76437  0.014947157  0.014618211          327 
 1098000   0.82106754   -8.1837764    197.33127  0.014976568  0.014604089          190 
 1099000   0.80236249   -8.1727883    197.34941  0.014964317  0.014589922          407 
 1100000   0.79728613   -8.2148443    196.85491  0.014913251  0.014575756          393 
 1101000   0.81494088    -8.229175    197.16819  0.014923417  0.014561566          426 
 1102000    0.8004569   -8.2013117    197.10775  0.014905305  0.014547403          399 
 1103000   0.80204145   -8.1930916      197.266  0.014903747  0.014533279          384 
 1104000   0.82117224   -8.2144261    197.22083  0.014886838  0.014519203          284 
 1105000   0.82526387   -8.2035982    197.89965  0.014924559  0.014505157          445 
 1106000   0.81843355    -8.239876     196.7277  0.014822762  0.014491132          453 
 1107000   0.81774834   -8.2377233    197.13846  0.014840294  0.014477066          499 
 1108000   0.83134778   -8.2380718    197.36372  0.014843842  0.014463068          490 
 1109000   0.80154573   -8.2166228    197.46589  0.014838134  0.014449075          493 
 1110000   0.80988739   -8.2349234    197.16171   0.01480193  0.014435045          546 
 1111000   0.82191145   -8.2536438    197.43603  0.014809183  0.014420962          553 
 1112000    0.8075616   -8.2516984    197.11195  0.014771579  0.014406795          547 
 1113000   0.81203435   -8.2557925    196.93176  0.014744816  0.014392608          589 
 1114000   0.80463893   -8.2617236    196.89342  0.014728712  0.014378438          575 
 1115000   0.80113473   -8.2613015    197.03562   0.01472613  0.014364297          602 
 1116000   0.80040937   -8.2886864    196.78762  0.014694416  0.014350137          647 
 1117000   0.80745744    -8.296603    196.92897  0.014691806  0.014335965          667 
 1118000   0.82448817   -8.2593619    196.65784  0.014658456  0.014321825          754 
 1119000    0.7948953   -8.3118442    196.67706  0.014646787  0.014307677          748 
 1120000     0.801673   -8.3128244    196.93093  0.014652599  0.014293536          786 
 1121000   0.80523611   -8.3217033    196.48962  0.014606722  0.014279396          802 
 1122000   0.80946443   -8.3322202    196.76191  0.014613927  0.014265215          935 
 1123000   0.82229771   -8.3277135    196.57497  0.014587042  0.014251034          985 
 1124000     0.809584   -8.3483773    196.64871  0.014579531  0.014236847         1146 
 1125000   0.80719376   -8.3555869    196.48795  0.014554663   0.01422264         1154 
 1126000   0.78240249   -8.3319368    196.77625  0.014563074   0.01420836         1098 
 1127000   0.80215718   -8.3479875    196.76589  0.014549386  0.014194111         1264 
 1128000   0.80598265   -8.3586303     196.6915  0.014530991  0.014179882         1286 
 1129000    0.8011504   -8.3746955    196.70396   0.01451904  0.014165693         1279 
 1130000   0.81464733   -8.3732453    196.43038  0.014486016  0.014151472         1331 
 1131000   0.80089926   -8.4118664    196.30686  0.014464107  0.014137196         1340 
 1132000   0.78716826   -8.4174374    196.45289   0.01446208  0.014122905         1312 
 1133000    0.8017842   -8.3924958    196.18323  0.014429481  0.014108604         1281 
 1134000   0.79141874   -8.4000847    196.29631  0.014425067  0.014094248         1374 
 1135000   0.79544061   -8.3999779    195.64498  0.014364536  0.014079968         1384 
 1136000   0.78602232   -8.4333461    196.16682  0.014390172  0.014065614         1405 
 1137000   0.80106467   -8.4292284    196.17801  0.014378335  0.014051229         1445 
 1138000   0.79916512   -8.4306851    195.85598  0.014342119  0.014036878         1497 
 1139000   0.79520524    -8.459061    195.74104  0.014321118  0.014022503         1564 
 1140000   0.77774887   -8.4400402    195.62995  0.014300435  0.014008136         1581 
 1141000   0.79254205   -8.4391341    195.98735  0.014314005   0.01399378         1622 
 1142000   0.80922477   -8.4603413    195.19405  0.014243582  0.013979352         1562 
 1143000   0.78910976   -8.4607791    195.22649  0.014233486  0.013964909         1639 
 1144000   0.79522541    -8.453683    195.89592  0.014269808  0.013950484         1594 
 1145000   0.80278655   -8.4551724    195.68757  0.014242181  0.013936079         1584 
 1146000   0.78916849   -8.4665673    195.76226  0.014235185  0.013921664         1672 
 1147000    0.8067141   -8.4608668    195.73789  0.014221003  0.013907246         1651 
 1148000   0.80746816   -8.4740608     195.3277   0.01417884  0.013892846         1713 
 1149000   0.81375394   -8.4614921    195.63912  0.014189086  0.013878423         1668 
 1150000   0.79224583   -8.4887035    195.37189  0.014157383   0.01386403         1743 
 1151000    0.7882281   -8.4752334    195.79215  0.014175511  0.013849624         1752 
 1152000   0.78521835   -8.5129148      195.457  0.014138961  0.013835206         1749 
 1153000   0.79523057   -8.4842948    195.71257   0.01414517   0.01382079         1701 
 1154000   0.78922691    -8.526479     195.1835  0.014094707  0.013806369         1802 
 1155000   0.78974622   -8.5120872    195.17772  0.014082087  0.013791967         1765 
 1156000   0.78779465   -8.4881534    195.22498  0.014073312  0.013777571         1730 
 1157000   0.77518957   -8.5121107    195.48359  0.014079774  0.013763218         1661 
 1158000   0.78439055   -8.5356601    195.16778   0.01404489  0.013748856         1775 
 1159000   0.79105362   -8.5019704    195.44013  0.014052353   0.01373447         1813 
 1160000   0.80045497   -8.5125652    195.64357  0.014054854   0.01372012         1833 
 1161000    0.7920799   -8.5292047    194.83065    0.0139844   0.01370578         1849 
 1162000   0.80268597   -8.5390947    195.11744  0.013992932  0.013691437         1939 
 1163000   0.80361949   -8.5367272    195.38863  0.014000331  0.013677107         1847 
 1164000   0.77699961   -8.5400282    195.36484  0.013986601  0.013662775         1965 
 1165000   0.78171745   -8.5712578    194.76951  0.013932011  0.013648432         1978 
 1166000   0.78231584   -8.5314282    195.01804  0.013937824  0.013634122         1932 
 1167000   0.79996887     -8.52136    195.36058  0.013950342  0.013619845         2045 
 1168000   0.78795681   -8.5687382    195.23273  0.013929276  0.013605544         1982 
 1169000   0.78059917   -8.5388019    195.37191  0.013927282  0.013591246         1955 
 1170000   0.80084686   -8.5602657    194.92713  0.013883698   0.01357694         2006 
 1171000   0.80182937   -8.5748675     194.6694  0.013853501   0.01356265         2031 
 1172000   0.79667804   -8.5511284    195.29567  0.013886211  0.013548414         2095 
 1173000   0.78217155   -8.5742337    195.18235  0.013866322  0.013534166         2044 
 1174000   0.77968526   -8.5554241    195.09596  0.013848379  0.013519904         2085 
 1175000   0.79035394   -8.5879575    195.33676  0.013853671  0.013505634         2148 
 1176000   0.80080091   -8.5938016    194.94113  0.013813855  0.013491388         2116 
 1177000   0.78742459   -8.5809059    194.63702  0.013780587  0.013477124         2165 
 1178000   0.78547837   -8.5946158    194.96983  0.013792432  0.013462845         2196 
 1179000   0.79285979   -8.5920616    195.32731  0.013806002  0.013448576         2234 
 1180000   0.79041829   -8.6213637    195.12594  0.013780081  0.013434311         2190 
 1181000   0.78026805   -8.6189233      195.112  0.013767429  0.013420028         2228 
 1182000   0.78207906   -8.6003994    195.32212  0.013770595  0.013405782         2204 
 1183000   0.76474422   -8.6042504     194.9473  0.013732551  0.013391523         2222 
 1184000    0.7974933    -8.583695    194.71842  0.013704844  0.013377285         2224 
 1185000   0.76733978   -8.6100176    194.74777  0.013695343  0.013363052         2209 
 1186000   0.78297933   -8.5945028    194.89651  0.013694246   0.01334886         2244 
 1187000   0.78477806   -8.6088794    194.92798  0.013684919   0.01333466         2208 
 1188000   0.76709848   -8.5884189    195.00246  0.013678624  0.013320491         2259 
 1189000   0.77095806    -8.593052    195.24818  0.013684341  0.013306381         2274 
 1190000   0.76133846    -8.618041    194.94031  0.013651282  0.013292245         2288 
 1191000   0.76488879   -8.6134673    195.09656  0.013650753  0.013278104         2390 
 1192000   0.77171229   -8.6455741    194.64372  0.013607642  0.013263971         2366 
 1193000   0.75002487   -8.6332621    194.55113  0.013589769  0.013249841         2388 
 1194000   0.77726504   -8.6573526    194.81727  0.013596962  0.013235698         2378 
 1195000   0.77008175   -8.6427844    194.86266  0.013588749  0.013221595         2518 
 1196000   0.77638515    -8.660991    194.58744  0.013558211  0.013207518         2466 
 1197000    0.7814975   -8.6383839    194.85549  0.013565545  0.013193465         2457 
 1198000   0.77784039   -8.6684822    194.68655   0.01354247  0.013179396         2392 
 1199000   0.78731843   -8.6312117    194.82528  0.013540817  0.013165303         2407 
 1200000   0.76638339   -8.6426902    194.53582  0.013509432  0.013151212         2521 
 1201000    0.7648824   -8.6620077    194.29637  0.013481569  0.013137103         2497 
 1202000   0.78227257   -8.6729883    194.67495  0.013496599   0.01312301         2490 
 1203000   0.76598485   -8.6706611    194.51099  0.013474023  0.013108901         2486 
 1204000   0.76438549     -8.68054    194.30675  0.013448695  0.013094819         2603 
 1205000   0.78630243   -8.6864227    194.34328  0.013440061  0.013080717         2531 
 1206000    0.7622276   -8.6418728    194.48811  0.013438924  0.013066625         2470 
 1207000   0.79540812   -8.6983917    194.46755   0.01342637  0.013052565         2569 
 1208000   0.78496266    -8.685158    194.16878  0.013394645  0.013038503         2574 
 1209000   0.77140955    -8.647686     194.5422  0.013409306  0.013024482         2548 
 1210000   0.76479046   -8.6930392    194.20509  0.013375007  0.013010412         2617 
 1211000   0.76646484   -8.7055133    193.86942  0.013340863   0.01299636         2622 
 1212000   0.76772097   -8.6988458    194.37547   0.01336465  0.012982324         2654 
 1213000    0.7718781    -8.690543    194.00886  0.013328446  0.012968268         2605 
 1214000   0.77341019    -8.714496     194.2977  0.013337294   0.01295423         2565 
 1215000   0.76187368   -8.7118219    193.94811   0.01330234  0.012940231         2666 
 1216000   0.77477683   -8.7158705    194.05171    0.0132985  0.012926232         2613 
 1217000   0.77387301   -8.7020007    193.86918  0.013275074  0.012912249         2684 
 1218000    0.7779907   -8.6905482    194.37479  0.013298768  0.012898253         2672 
 1219000   0.75756968   -8.6958029    194.15478  0.013272818  0.012884269         2599 
 1220000   0.78170958   -8.7026875    194.32903  0.013273841  0.012870295         2705 
 1221000   0.77869886   -8.6947655     194.1008  0.013247393  0.012856335         2635 
 1222000   0.77142906    -8.726081    194.02343  0.013231276   0.01284239         2730 
 1223000   0.76123749   -8.7117169    193.65648  0.013195454  0.012828447         2722 
 1224000   0.77041163   -8.7223517    194.15663  0.013218725  0.012814487         2764 
 1225000   0.77585774   -8.7313198    194.05479  0.013201006  0.012800528         2687 
 1226000   0.76135035   -8.7134016    194.27394  0.013205135  0.012786567         2680 
 1227000   0.77676305    -8.734912    193.73439  0.013157728  0.012772635         2738 
 1228000   0.76275105   -8.7309403    193.81492  0.013152479  0.012758685         2731 
 1229000   0.75656128   -8.7187597    193.89694  0.013147338  0.012744758         2765 
 1230000   0.76460218   -8.7616089    194.01704  0.013144786  0.012730843         2710 
 1231000   0.76002519   -8.7325624    193.50027  0.013099125  0.012716962         2763 
 1232000   0.75826763   -8.7369642    193.58617  0.013094302  0.012703105         2692 
 1233000    0.7613511   -8.7539595    194.19943   0.01312513  0.012689264         2767 
 1234000   0.77323439   -8.7442253    193.64713  0.013077197  0.012675442         2713 
 1235000   0.76743756   -8.7595906    193.80628  0.013077347  0.012661599         2786 
 1236000   0.76699577   -8.7700989    193.51566  0.013047173  0.012647794         2755 
 1237000   0.75385798    -8.774007    193.42719  0.013030665  0.012633985         2770 
 1238000   0.75422692    -8.745459    193.90272  0.013052149   0.01262015         2818 
 1239000   0.75877532   -8.7686597    193.58518  0.013020257  0.012606345         2706 
 1240000   0.75739809   -8.7563399    193.73288  0.013019683  0.012592557         2744 
 1241000   0.76085675   -8.7435005    193.37874  0.012985411  0.012578781         2763 
 1242000   0.76688991    -8.738098    193.54973  0.012986428  0.012565016         2809 
 1243000   0.74444909    -8.755208    193.86014  0.012996791  0.012551279         2815 
 1244000   0.77382609    -8.777479    193.46381  0.012959795  0.012537562         2790 
 1245000   0.76487012   -8.7535992    193.73235   0.01296736  0.012523836         2802 
 1246000   0.75111978   -8.7794683    193.33983    0.0129307  0.012510143         2730 
 1247000   0.75460343   -8.7604803    193.69373  0.012943981  0.012496445         2793 
 1248000   0.75774717   -8.7834154    193.40506  0.012914333  0.012482767         2776 
 1249000   0.75845485   -8.7890683    193.30997   0.01289765  0.012469101         2797 
 1250000   0.74841352   -8.7947844    193.22514  0.012881676  0.012455423         2854 
 1251000    0.7480788   -8.7768363    193.53076  0.012891737   0.01244175         2742 
 1252000   0.76535865   -8.7720778    193.44757  0.012875903  0.012428095         2753 
 1253000   0.76548231   -8.7732332    193.45831  0.012866342  0.012414453         2777 
 1254000   0.74437546   -8.7978272    193.61348  0.012866393  0.012400827         2830 
 1255000   0.73774526   -8.7727575    193.62142  0.012856668  0.012387242         2780 
 1256000   0.75173976   -8.7896479    193.43609  0.012834135   0.01237366         2818 
 1257000    0.7517445   -8.7977951     193.4926  0.012827672  0.012360062         2810 
 1258000   0.77090956   -8.8048802    193.06223  0.012788966  0.012346482         2804 
 1259000    0.7511349   -8.8014425    193.32157  0.012795974   0.01233292         2812 
 1260000   0.75045448   -8.7786438    193.63382  0.012806469  0.012319388         2741 
 1261000   0.74529467   -8.7808048     193.3871  0.012780009  0.012305856         2824 
 1262000   0.75419987   -8.7785879    193.63599  0.012786317   0.01229233         2756 
 1263000   0.74691873   -8.7805352    193.31504  0.012755017  0.012278826         2791 
 1264000   0.73699381   -8.8138711    192.98274  0.012723018  0.012265334         2808 
 1265000   0.75723988   -8.7909981    193.49158  0.012746481  0.012251854         2732 
 1266000   0.75449218   -8.7933406    193.35414  0.012727366  0.012238384         2810 
 1267000   0.75070876   -8.7665971    193.34455   0.01271669  0.012224959         2791 
 1268000   0.74498825   -8.8147639    192.92733  0.012679241  0.012211561         2874 
 1269000   0.76369505   -8.8008137    193.00848  0.012674579  0.012198169         2864 
 1270000   0.74004605    -8.806629    193.02071  0.012665401  0.012184775         2876 
 1271000   0.75152288   -8.8018532    192.86064  0.012644941  0.012171413         2822 
 1272000   0.74723806   -8.7927776    193.16354  0.012654844  0.012158062         2843 
 1273000   0.75424028   -8.8187736    193.25478  0.012650876  0.012144722         2877 
 1274000   0.75363769   -8.8371811    192.79473  0.012610854  0.012131426         2924 
 1275000   0.73700062   -8.8102697    193.02119  0.012615764  0.012118075         2878 
 1276000   0.76519856   -8.8143801    193.09884  0.012610948  0.012104768         2823 
 1277000   0.73319307   -8.8125191    193.42603  0.012622424  0.012091482         2858 
 1278000   0.74212739   -8.8104955    193.24648   0.01260084   0.01207822         2841 
 1279000   0.73406286   -8.8029169    193.35014  0.012597742  0.012064984         2887 
 1280000   0.74690487   -8.8254781    192.92005  0.012559899   0.01205174         2941 
 1281000   0.74471429   -8.8273849    192.96204  0.012552826  0.012038528         2947 
 1282000   0.74913738   -8.8131668    192.87385  0.012537301  0.012025344         2976 
 1283000   0.74644419   -8.7904665    193.76507  0.012585416  0.012012181         2931 
 1284000   0.74215132   -8.8016544    193.67632  0.012569854  0.011999025         2920 
 1285000    0.7392612    -8.835034    192.88589  0.012508812  0.011985853         3006 
 1286000   0.72995506   -8.8446162    193.07374  0.012511259   0.01197269         2931 
 1287000   0.72151082   -8.8175029    192.94207  0.012493011  0.011959546         2916 
 1288000   0.73127651   -8.8338178    192.71118  0.012468374  0.011946417         2937 
 1289000   0.73872814   -8.8372519    192.77651  0.012462924   0.01193332         3000 
 1290000   0.74446976   -8.8424298    193.16433  0.012478316  0.011920234         2931 
 1291000   0.74365998   -8.8229689     193.1514  0.012467816  0.011907139         2975 
 1292000   0.74807706   -8.8246807    193.23045  0.012463264  0.011894064         2991 
 1293000   0.72312897   -8.8386418    193.32253   0.01245956     0.011881         2984 
 1294000    0.7264895   -8.8522833    193.06017  0.012433035  0.011867939         2967 
 1295000   0.72776368    -8.840662    193.07167  0.012424174  0.011854899         2986 
 1296000    0.7374332   -8.8521993     193.1946  0.012422492  0.011841888         2935 
 1297000   0.74886846   -8.8247531     192.8981  0.012393864  0.011828894         2949 
 1298000   0.73588814   -8.8614239    192.83954  0.012380556  0.011815922         3007 
 1299000   0.73628156    -8.840792     193.1671  0.012392039   0.01180294         2999 
 1300000   0.72515441   -8.8464528    193.21106  0.012385324  0.011789965         2982 
 1301000   0.73492201   -8.8426516    193.31065  0.012382184  0.011777008         3016 
 1302000   0.73215297    -8.842367    193.03211  0.012354846  0.011764071         2997 
 1303000   0.73622321   -8.8723493    192.78979  0.012329866  0.011751128         2960 
 1304000   0.72908056   -8.8423391    192.94165  0.012330116  0.011738197         3010 
 1305000   0.74153122   -8.8654806    193.02146  0.012325764  0.011725312         3050 
 1306000   0.72005976   -8.8651495    192.90029  0.012308594  0.011712419         3031 
 1307000   0.73471475   -8.8702646    192.84161  0.012295436  0.011699519         3005 
 1308000   0.73656415   -8.8549337    192.90215  0.012289892  0.011686651         2984 
 1309000   0.73543354   -8.8695125    192.76593  0.012271832  0.011673791         3003 
 1310000   0.72898041   -8.8912393    192.29426  0.012232459   0.01166094         2996 
 1311000   0.73149528   -8.8708276     192.6592  0.012246326  0.011648103         3080 
 1312000   0.72678103   -8.8966489    192.54474  0.012229722  0.011635299         3084 
 1313000   0.73915654   -8.8724108    192.55974   0.01222136  0.011622495         3036 
 1314000   0.73745052   -8.8802748    192.34325  0.012198329  0.011609726         3052 
 1315000   0.72657805   -8.8991267    192.15527   0.01217714  0.011596955         3022 
 1316000   0.72027823   -8.8785781    192.52407  0.012191241  0.011584214         3053 
 1317000   0.71866262   -8.8695669    192.68763  0.012192333  0.011571486         3068 
 1318000   0.71769258   -8.8581316    192.51914  0.012172429  0.011558784         3012 
 1319000   0.70425678   -8.8854461    192.76976  0.012179035  0.011546091         3038 
 1320000   0.72152899   -8.8889028    192.90388  0.012178275  0.011533421         3022 
 1321000   0.72081488   -8.8844132    192.63965  0.012152388  0.011520758         3023 
 1322000   0.72685817   -8.8736947    192.41849  0.012129254  0.011508127         3010 
 1323000   0.72710205   -8.8681006     192.5904  0.012130915  0.011495519         2982 
 1324000   0.72328558   -8.8813439    192.58292  0.012121281  0.011482905         3024 
 1325000   0.72846795   -8.8767288    192.76758  0.012123747  0.011470325         2977 
 1326000   0.74168614   -8.8905191    192.75808  0.012114007  0.011457762         3040 
 1327000    0.7332579   -8.8752935    192.48456  0.012087702  0.011445203         3003 
 1328000   0.74251817   -8.8726465     192.4797  0.012078294   0.01143267         3048 
 1329000   0.71822692   -8.8658678    192.19174   0.01205115  0.011420155         3043 
 1330000   0.69831184   -8.9002227    192.24196  0.012045236  0.011407651         3069 
 1331000   0.71272976   -8.8630285    192.79133  0.012070582  0.011395177         3025 
 1332000     0.726899   -8.8883066    192.84123  0.012064642  0.011382708         3083 
 1333000   0.72864096   -8.8749153    192.48977  0.012033619   0.01137026         3022 
 1334000   0.73346313   -8.8835052    192.52928  0.012027066  0.011357805         3050 
 1335000   0.71291575   -8.8817302    192.57069  0.012020642  0.011345388         3009 
 1336000   0.73965606    -8.891447    192.35486  0.011998182  0.011332974         3050 
 1337000   0.72362744   -8.8779712    192.85133  0.012020153  0.011320584         3049 
 1338000   0.71065012   -8.9113558    192.69828  0.012001637  0.011308201         3068 
 1339000   0.71638243   -8.8823544    192.47741  0.011978928  0.011295841         3036 
 1340000   0.72137608   -8.9053419    192.53274  0.011973429  0.011283511         3101 
 1341000   0.71334831   -8.8688633     192.7519  0.011978119  0.011271196         2980 
 1342000   0.71023009   -8.8683626    192.20952  0.011935514  0.011258879         3062 
 1343000   0.72064595   -8.8904134    192.23482  0.011928197  0.011246584         3075 
 1344000    0.7082524   -8.8852317    192.54555  0.011938588  0.011234309         3061 
 1345000    0.7109768   -8.8892687    192.53474  0.011929042  0.011222013         3078 
 1346000   0.70811513   -8.8891334    192.33352  0.011907722  0.011209742         3069 
 1347000   0.71801225   -8.8871995     192.2938  0.011896424  0.011197487         3032 
 1348000   0.71620766   -8.8983772    192.29626  0.011887751  0.011185256         3065 
 1349000   0.72755169   -8.9035895    192.17507  0.011871452  0.011173039         3005 
 1350000   0.72975427   -8.9011056    192.53648  0.011884968  0.011160847         3006 
 1351000   0.70075105   -8.8948035    192.33581  0.011863793  0.011148664         3029 
 1352000    0.7221218    -8.884881    192.75483  0.011880845  0.011136501         3013 
 1353000   0.71672163    -8.903314    193.12908  0.011895114   0.01112434         2996 
 1354000   0.70303764   -8.8925211    192.53455  0.011849738  0.011112196         3051 
 1355000   0.71921924   -8.9105303    192.45599  0.011836161  0.011100056         3015 
 1356000   0.70782781    -8.877973    192.42349  0.011825436  0.011087949         3020 
 1357000   0.72229115   -8.9089355    192.61852  0.011828698  0.011075861         2996 
 1358000   0.70048344   -8.8745624    192.52128  0.011814021  0.011063788         3019 
 1359000   0.71864033   -8.8762751    192.08308  0.011778457  0.011051718         2996 
 1360000   0.70724344    -8.904038    192.31019  0.011783713  0.011039674         3098 
 1361000   0.72086581   -8.8930512    192.43807  0.011782885  0.011027652         3041 
 1362000   0.71659237    -8.888344    192.53867  0.011780388  0.011015641         3051 
 1363000   0.70098298   -8.9121547    192.23857  0.011753398  0.011003628         3070 
 1364000   0.70576115   -8.9155096     192.3383  0.011750874  0.010991639         3052 
 1365000   0.69864855   -8.9075671    192.10574  0.011728067  0.010979682         2987 
 1366000   0.72697882   -8.9095153    192.02745  0.011714706  0.010967731         3020 
 1367000   0.70875866   -8.8908035    192.41125  0.011729533  0.010955787         3021 
 1368000   0.70833599   -8.9167459    192.23044  0.011709944  0.010943869         3040 
 1369000    0.7111922   -8.9119492    192.22341  0.011700963  0.010931968         3067 
 1370000   0.70499972    -8.902882    191.79671  0.011666467  0.010920045         3066 
 1371000   0.70531115   -8.8875148    192.45728  0.011698109  0.010908179         3036 
 1372000    0.7041177    -8.912264    192.43232  0.011688066  0.010896322         3051 
 1373000   0.70009383   -8.9276729    192.09186   0.01165889  0.010884484         3057 
 1374000   0.71693824    -8.900817    192.42714  0.011670739  0.010872664         3082 
 1375000    0.6993918   -8.9082349    192.57573  0.011671256   0.01086086         3070 
 1376000   0.71431479   -8.9057195    192.43506  0.011654255  0.010849054         3001 
 1377000   0.69296452   -8.9044252    192.25386  0.011634826  0.010837263         3009 
 1378000   0.71539816   -8.9220145    192.09568  0.011616817   0.01082551         3086 
 1379000   0.71752761   -8.9272523    192.07144  0.011606928  0.010813737         3103 
 1380000   0.67854338   -8.9138898    192.28418  0.011611363  0.010801992         2990 
 1381000   0.70506171   -8.8940868    192.00991  0.011586405  0.010790234         3015 
 1382000   0.70750348   -8.9336149    192.05538  0.011580763  0.010778521         3102 
 1383000   0.69306177   -8.9297026    192.31088  0.011587785  0.010766817         3075 
 1384000    0.7039145   -8.9227419    191.86791   0.01155274  0.010755138         3030 
 1385000   0.71305208   -8.9066943     192.4679  0.011580499  0.010743476         2979 
 1386000    0.6934676   -8.9267754    192.47509  0.011572577  0.010731844         3108 
 1387000   0.71027188   -8.9188876    191.99609  0.011535454  0.010720206         3092 
 1388000   0.70838897   -8.9096132    192.18362  0.011538402  0.010708582         3038 
 1389000   0.70055736   -8.9092527    192.59212  0.011554603   0.01069697         3073 
 1390000   0.69547186   -8.9358264    192.14932  0.011519744  0.010685372         3033 
 1391000   0.70417165   -8.9253356    192.39194  0.011525997  0.010673787         3085 
 1392000   0.68341317   -8.9200203    192.37996     0.011517  0.010662211         3037 
 1393000   0.69215123   -8.9278149    192.24945  0.011500924  0.010650651         3064 
 1394000   0.70801792   -8.9173578    192.45991  0.011505255  0.010639115         3091 
 1395000    0.6987651   -8.9389091    191.90939  0.011464121  0.010627573         3053 
 1396000   0.70399595   -8.9248053    192.09293  0.011466866  0.010616039         2992 
 1397000   0.68529163   -8.9193737    192.18513  0.011464157  0.010604529         3047 
 1398000   0.69882955   -8.9381473    192.28311  0.011461797  0.010593016         3094 
 1399000   0.69425483   -8.9394793    192.27047  0.011452851  0.010581529         3109 
 1400000   0.69680294   -8.9297576    191.92305  0.011423991  0.010570069         3045 
 1401000   0.69337697   -8.9215406    191.96447  0.011418301  0.010558617         3083 
 1402000   0.69182611   -8.9327156    191.95532  0.011409613  0.010547186         3060 
 1403000   0.67069679   -8.9496323    191.84772  0.011395089  0.010535758         3113 
 1404000   0.69436237   -8.9598015    191.78096   0.01138301  0.010524343         3135 
 1405000   0.69740824   -8.9475383    192.19136  0.011399251   0.01051295         3090 
 1406000   0.70285777   -8.9214198    192.16256  0.011389436  0.010501571         3012 
 1407000   0.68891637   -8.9307651    192.22995  0.011385332  0.010490206         3106 
 1408000   0.67939071   -8.9284271    192.03186  0.011365522  0.010478852         3089 
 1409000   0.68961644   -8.9526554    191.84863  0.011346619  0.010467516         3126 
 1410000   0.70110819   -8.9391386    191.90818  0.011342091  0.010456204         3125 
 1411000   0.68752103   -8.9515414     191.5983  0.011315751  0.010444905         3064 
 1412000   0.69073946   -8.9476364    191.76853  0.011317784  0.010433625         3045 
 1413000   0.69125715   -8.9529401     192.0811  0.011328208  0.010422362         3117 
 1414000   0.68277297   -8.9676478    191.58711  0.011291084  0.010411106         3106 
 1415000   0.68952039   -8.9562556    191.65547   0.01128713  0.010399849         3103 
 1416000   0.68396691   -8.9393555    191.73645  0.011283925  0.010388616         3099 
 1417000   0.69875804   -8.9600939    191.74516  0.011276474  0.010377388         3156 
 1418000   0.69610926   -8.9609079    191.54209  0.011256587   0.01036617         3121 
 1419000   0.69975148   -8.9629304    191.64884  0.011254924   0.01035497         3160 
 1420000     0.694555   -8.9731891    191.30891  0.011227049  0.010343784         3084 
 1421000   0.70448965     -8.95381    192.08516   0.01126467  0.010332622         3141 
 1422000   0.68730697   -8.9722413    191.90676  0.011246294   0.01032146         3052 
 1423000   0.67816467   -8.9573052    191.73802  0.011228509  0.010310327         3148 
 1424000    0.6781921   -8.9576034    191.64717  0.011215307  0.010299202         3119 
 1425000   0.68131939   -8.9739703    191.97849  0.011226813  0.010288098         3115 
 1426000   0.68895383   -8.9551671    191.74596  0.011205351  0.010277014         3126 
 1427000   0.69062284   -8.9601561      191.877  0.011205151  0.010265936         3054 
 1428000   0.67924985   -8.9691599    191.54664  0.011178025  0.010254865         3116 
 1429000   0.67986685    -8.921807    191.69635  0.011178934  0.010243807         3084 
 1430000    0.7112814   -8.9444685     191.7513  0.011174318  0.010232766         3088 
 1431000   0.69056206   -8.9480927    191.55688  0.011155188  0.010221753         3117 
 1432000   0.69574963   -8.9679418    191.75445  0.011158895  0.010210752         3101 
 1433000   0.70038006   -8.9493645    191.59308  0.011141724  0.010199767         3107 
 1434000   0.68133272   -8.9487159    191.90187  0.011151899  0.010188797         3081 
 1435000   0.67575201   -8.9582074    191.89007  0.011143442   0.01017783         3124 
 1436000   0.69724239   -8.9459169    191.46663  0.011111109  0.010166886         3120 
 1437000   0.67943299   -8.9851378     191.6192  0.011112225  0.010155956         3123 
 1438000   0.69142186   -8.9686435    191.44079  0.011094158  0.010145039         3088 
 1439000   0.69035108   -8.9598874    191.77981  0.011106081  0.010134114         3120 
 1440000   0.67608152   -8.9523507    191.64539  0.011090589  0.010123214         3133 
 1441000    0.6851243   -8.9765752    191.48605  0.011073678  0.010112332         3139 
 1442000   0.67898991   -8.9604612    191.80946  0.011084689  0.010101455         3140 
 1443000   0.66935534   -8.9485186    191.68689  0.011069929  0.010090602         3158 
 1444000   0.67282365   -8.9634971    191.59596  0.011057015  0.010079737         3112 
 1445000   0.68821088   -8.9653526    191.30671  0.011032682  0.010068908         3101 
 1446000   0.68066554   -8.9717204    191.51324  0.011036955  0.010058093         3160 
 1447000   0.68396143   -8.9620115     191.7968  0.011045658  0.010047289         3114 
 1448000   0.67642161    -8.983353    191.72703  0.011034014  0.010036513         3127 
 1449000   0.67980756   -8.9892922    191.52902  0.011015011  0.010025741         3126 
 1450000   0.66725223   -8.9828416    191.74671  0.011019926  0.010014969         3109 
 1451000   0.66271536   -8.9717787    191.53619  0.011000241  0.010004219         3093 
 1452000   0.67852964   -8.9865163    191.16898   0.01097159 0.0099934974         3086 
 1453000   0.66802653   -8.9946479    191.46066  0.010980767 0.0099827934         3105 
 1454000   0.68159836    -9.007362    191.46007  0.010973181 0.0099720936         3160 
 1455000   0.66877393   -8.9809997    191.59911  0.010973603 0.0099614033         3150 
 1456000   0.67885899   -8.9798192     191.5843  0.010965219 0.0099507282         3145 
 1457000    0.6687928   -8.9690087    191.29485  0.010941137 0.0099400619         3065 
 1458000   0.66850249   -8.9740344    191.10454  0.010922756 0.0099294281         3154 
 1459000    0.6690192   -8.9809814    191.33314  0.010928326 0.0099187948         3188 
 1460000   0.66894523   -8.9890693     191.5618  0.010933893 0.0099081873         3138 
 1461000   0.66947262   -8.9941657    191.22265  0.010907064  0.009897587         3136 
 1462000   0.69198628   -8.9941903    191.20821   0.01089878 0.0098869936         3145 
 1463000   0.65973774   -8.9710063     191.6921  0.010918894 0.0098764224         3107 
 1464000   0.67179049   -8.9626506    191.96786  0.010927132 0.0098658747         3059 
 1465000   0.67754908   -8.9839804    191.46761  0.010891218 0.0098553384         3147 
 1466000   0.67894465   -8.9880691    191.59218   0.01089087 0.0098448006         3121 
 1467000   0.67313726   -8.9855215    191.50074  0.010878251 0.0098342921         3125 
 1468000   0.66279021   -8.9843656    191.45644  0.010868327 0.0098237957         3151 
 1469000   0.65739461   -8.9722997    191.89955  0.010886065 0.0098133081         3083 
 1470000   0.66775035   -8.9899771     191.7449  0.010869892 0.0098028447         3142 
 1471000   0.66710673   -8.9911473    191.65157  0.010857215 0.0097923994         3133 
 1472000   0.65940172   -9.0081495    191.64141  0.010849265 0.0097819593         3154 
 1473000    0.6697265   -8.9835523    191.88952  0.010855936 0.0097715477         3095 
 1474000   0.67942129   -8.9634922    191.48468  0.010825683 0.0097611406         3075 
 1475000    0.6621972   -9.0119351    191.41271  0.010814277 0.0097507536         3138 
 1476000   0.67571887   -8.9889142    191.76457  0.010826816 0.0097403776         3113 
 1477000   0.66505701   -8.9884357    191.66486   0.01081386 0.0097300145         3147 
 1478000   0.65813645   -8.9867747    191.70429  0.010808767 0.0097196632         3167 
 1479000   0.65711387   -8.9793619    191.77802  0.010805613 0.0097093236         3137 
 1480000   0.66686918   -8.9998303    191.33993  0.010773645 0.0096989964         3050 
 1481000   0.66233873   -8.9880115    191.52295  0.010776668 0.0096886838         3110 
 1482000   0.66688188   -9.0032237    191.22279  0.010752518 0.0096783868         3129 
 1483000   0.66391429   -8.9775919    191.90203  0.010783436 0.0096681166         3105 
 1484000   0.66324641   -9.0058709    190.82912  0.010715921 0.0096578458         3095 
 1485000   0.66244562   -9.0032663    191.19951   0.01072949 0.0096475892         3194 
 1486000   0.65911702   -9.0049373    191.71202  0.010751011 0.0096373531         3151 
 1487000   0.66874643   -8.9835133    191.73655  0.010745155 0.0096271354         3129 
 1488000   0.65457882   -9.0217297    191.59357  0.010729927 0.0096169168         3068 
 1489000   0.67073662   -8.9999511    191.17514  0.010699303 0.0096067056         3115 
 1490000   0.65826536   -8.9902779    191.26005  0.010696871 0.0095965105         3082 
 1491000   0.64659231   -9.0063653    191.18142  0.010685302 0.0095863164         3128 
 1492000   0.65704564   -9.0094262    191.39277  0.010689945 0.0095761497         3116 
 1493000   0.66503025   -9.0035514    191.33188  0.010679386 0.0095660024         3135 
 1494000   0.67254376   -9.0095107    191.28555  0.010669653 0.0095558583         3148 
 1495000   0.66381869   -9.0051093      191.352  0.010666221 0.0095457404         3096 
 1496000   0.66990355    -9.018085    191.18581  0.010649833 0.0095356208         3126 
 1497000   0.65173406    -9.004473    191.73377  0.010673223 0.0095255062         3166 
 1498000   0.66516172   -9.0128781    191.25992  0.010639738 0.0095154144         3177 
 1499000   0.64978431    -9.034809    190.78873  0.010606445 0.0095053325         3206 
 1500000   0.66281672   -8.9666844    191.54554  0.010641419 0.0094952726         3144 
 1501000   0.66167559   -8.9917532    191.58917  0.010636751 0.0094852239         3174 
 1502000   0.65681248   -9.0101644    191.31459  0.010614436 0.0094751878         3156 
 1503000   0.66889678   -9.0302745    191.33654  0.010608591 0.0094651632         3136 
 1504000   0.64104093   -9.0242685    191.19104  0.010593475 0.0094551505         3169 
 1505000   0.65032902   -9.0281188    191.12774  0.010582931 0.0094451428         3153 
 1506000   0.64547319   -9.0085604    191.33535  0.010587392 0.0094351509         3121 
 1507000   0.65149468   -9.0149173    191.36776  0.010582159 0.0094251752         3208 
 1508000   0.64952609   -9.0276394    190.90373  0.010549499 0.0094152067         3185 
 1509000   0.65790913   -9.0171794    191.13756  0.010555421 0.0094052576         3197 
 1510000   0.64147509   -9.0325979    191.13849  0.010548482 0.0093953217         3160 
 1511000   0.66277667   -9.0379187    190.95014  0.010531113  0.009385393         3168 
 1512000   0.64011141   -9.0268322    191.05985  0.010530194 0.0093754778         3178 
 1513000   0.63825231   -8.9874011    191.41613  0.010542858 0.0093655903         3114 
 1514000   0.64401379   -9.0130976    191.43045  0.010536682 0.0093557084         3146 
 1515000    0.6517132   -9.0130187    191.29517  0.010522287 0.0093458341         3147 
 1516000   0.65961123   -9.0376128    191.07562  0.010503277 0.0093359849         3115 
 1517000   0.65389659   -9.0170045    191.36127  0.010512045  0.009326143         3159 
 1518000   0.65643117   -9.0141738    191.53977  0.010514919 0.0093163142         3153 
 1519000   0.64452758   -9.0155462    191.03681  0.010480404 0.0093064933         3182 
 1520000   0.65154672   -9.0142079    191.14105  0.010479224 0.0092966835         3112 
 1521000   0.64900607   -9.0364427    191.11918  0.010471136 0.0092869083         3134 
 1522000   0.63664422   -9.0430938    191.08638   0.01046246 0.0092771255         3140 
 1523000    0.6402192   -9.0360157    191.29969  0.010467262 0.0092673522         3127 
 1524000   0.64391433   -9.0480088     190.9272  0.010440026 0.0092575947         3098 
 1525000   0.63619749   -9.0075976    191.57018  0.010468316 0.0092478524         3129 
 1526000   0.63241028     -9.01282    190.91884  0.010425887 0.0092381285         3127 
 1527000   0.63529165   -9.0132114    191.03015  0.010425134 0.0092284211         3133 
 1528000   0.65680394   -9.0430474    191.44035  0.010440682 0.0092187225         3179 
 1529000   0.64093301   -9.0336954    191.22002  0.010421845  0.009209034         3173 
 1530000   0.62768166   -9.0421414    191.18552  0.010413155  0.009199357         3137 
 1531000   0.63607387   -9.0384235     191.2224   0.01040836 0.0091896939         3126 
 1532000   0.64474914   -9.0349861    190.85111   0.01038137 0.0091800375         3165 
 1533000   0.64902971   -9.0262606    191.04478  0.010385126 0.0091703913         3130 
 1534000   0.63339284   -9.0518833    191.02043  0.010377033 0.0091607683         3145 
 1535000   0.64633916   -9.0212563    191.54645   0.01039883 0.0091511608         3139 
 1536000   0.65143979   -9.0306338    191.56449  0.010393039 0.0091415754         3175 
 1537000   0.64374236   -9.0364049    191.07972  0.010359993 0.0091319927         3139 
 1538000   0.64441857   -9.0474515    191.13593  0.010356303 0.0091224223         3185 
 1539000   0.65166324   -9.0253348    191.25813  0.010356191 0.0091128588         3136 
 1540000   0.62550022   -9.0427202     191.1309  0.010342581 0.0091033126         3159 
 1541000   0.64167514   -9.0048119    191.29307  0.010344639 0.0090937694         3134 
 1542000   0.63543149   -9.0656257    190.87233  0.010315193 0.0090842471         3133 
 1543000    0.6308694   -9.0429334    190.98473  0.010314578 0.0090747312         3141 
 1544000   0.63773783   -9.0379538    190.98118  0.010307706 0.0090652204         3180 
 1545000   0.63857893   -9.0437718    190.95205  0.010299463  0.009055715         3199 
 1546000    0.6333994   -9.0213609    190.97673  0.010294131   0.00904623         3073 
 1547000    0.6457622   -9.0453202    190.96742  0.010286976 0.0090367611         3139 
 1548000   0.62968638   -9.0383796    190.91542  0.010277531 0.0090272972         3153 
 1549000   0.64301458   -9.0481542    190.99057  0.010274939 0.0090178505         3145 
 1550000   0.63732392   -9.0610371    190.69946  0.010252659 0.0090084133         3166 
 1551000    0.6347526      -9.0518    190.94269  0.010259117  0.008998995         3181 
 1552000   0.63354115   -9.0304773     190.8104  0.010245404 0.0089895876         3146 
 1553000   0.64129753   -9.0403803     190.7378  0.010234911 0.0089801981         3203 
 1554000   0.62590886   -9.0684616    190.93322  0.010238804 0.0089708213         3162 
 1555000   0.62911454   -9.0683327    190.70996  0.010220255 0.0089614484         3237 
 1556000   0.63376427   -9.0634192    191.16578  0.010238099 0.0089520865         3115 
 1557000   0.63270343   -9.0354177    190.95997  0.010220508 0.0089427439         3153 
 1558000   0.63305357   -9.0434277    191.06075  0.010219338 0.0089334209         3153 
 1559000   0.63878882   -9.0627247    190.40292  0.010177621 0.0089241049         3213 
 1560000   0.62610322   -9.0400155    190.74437  0.010189336 0.0089148071         3200 
 1561000   0.62782005   -9.0410515    191.17851  0.010205985 0.0089055113         3183 
 1562000   0.63400872   -9.0546064    190.83098   0.01018091  0.008896225         3192 
 1563000   0.63005636   -9.0524163    190.58681  0.010161378 0.0088869639         3205 
 1564000   0.61874014   -9.0563364     190.9985  0.010176817 0.0088777123         3216 
 1565000   0.62563829   -9.0568959    190.63433  0.010150923 0.0088684604         3168 
 1566000   0.63245648   -9.0472018    190.86906  0.010156932 0.0088592311         3171 
 1567000    0.6334087    -9.073425    190.76718  0.010145032 0.0088500157         3195 
 1568000   0.61604545   -9.0878616    190.64176  0.010131896 0.0088408128         3242 
 1569000   0.62196567   -9.0652358    190.44833  0.010115165 0.0088316105         3170 
 1570000   0.62792795   -9.0595393    190.89612  0.010132491 0.0088224238         3200 
 1571000   0.60705381   -9.0709008    191.20282   0.01014231 0.0088132558         3223 
 1572000   0.63854352   -9.0842087    190.57519  0.010102587  0.008804094         3202 
 1573000   0.62810002   -9.0545457    190.59955  0.010097454 0.0087949528         3191 
 1574000   0.62538567   -9.0661584    190.59967  0.010091045 0.0087858169         3185 
 1575000    0.6147322    -9.083497    190.55939  0.010082508 0.0087766947         3176 
 1576000   0.62150916   -9.0827152    191.14783  0.010107224 0.0087675779         3198 
 1577000   0.61350093   -9.0530876    190.87953  0.010086638 0.0087584743         3194 
 1578000   0.63191538   -9.0671853     190.8669  0.010079579 0.0087493855         3186 
 1579000   0.61831596   -9.0753815    190.54664  0.010056293 0.0087403162         3182 
 1580000   0.62129463   -9.0453229    190.73031  0.010059615 0.0087312457         3209 
 1581000   0.62574292   -9.0641729    190.40473  0.010036091  0.008722186         3227 
 1582000   0.61238652   -9.0771444    190.64081  0.010042183 0.0087131394         3212 
 1583000   0.62195839   -9.0701022    190.97976  0.010053683 0.0087041116         3197 
 1584000   0.62994431   -9.0620348    190.87141  0.010041636 0.0086950837         3176 
 1585000    0.6130309   -9.0767655    190.57148  0.010019531 0.0086860859         3201 
 1586000   0.62191645   -9.0782111    190.87169  0.010028988 0.0086770831         3207 
 1587000   0.61636814   -9.0758315     190.9512  0.010026843 0.0086680868         3256 
 1588000   0.60198788    -9.106025    190.26386 0.0099844597 0.0086591015         3213 
 1589000   0.61552884   -9.0853316    190.99556  0.010016549 0.0086501395         3217 
 1590000   0.61304685   -9.0781442    190.79554 0.0099997661 0.0086411875         3250 
 1591000   0.61798752   -9.0753466    190.23206  0.009963967 0.0086322554         3256 
 1592000   0.61053282   -9.0696267     190.5258  0.009973084 0.0086233316         3220 
 1593000   0.61929677   -9.0832026    190.64217 0.0099729111 0.0086144205         3230 
 1594000   0.60902672   -9.0885815    190.48128 0.0099582436 0.0086055192         3215 
 1595000    0.6198104   -9.0789886    190.07519 0.0099307833 0.0085966212         3205 
 1596000   0.61302459   -9.0611314    190.59398 0.0099516487 0.0085877395         3234 
 1597000   0.61438874   -9.0851473    190.75326 0.0099537289  0.008578867         3215 
 1598000   0.60456692   -9.0928876    190.50924  0.009934775 0.0085700078         3259 
 1599000    0.6174229   -9.0627044    190.54342 0.0099303432 0.0085611592         3188 
 1600000     0.617227    -9.108493     190.2107 0.0099068072 0.0085523196         3221 
 1601000   0.61487915   -9.1082165    190.58502 0.0099201028 0.0085434887         3214 
 1602000   0.60507932   -9.0986477    190.61159 0.0099152931 0.0085346788         3239 
 1603000   0.61810906   -9.0914503    190.78583 0.0099181657 0.0085258821         3212 
 1604000   0.61050586   -9.1005245    190.31436 0.0098874878 0.0085170823         3211 
 1605000   0.60424136   -9.0888638     190.3619 0.0098837954 0.0085083049         3222 
 1606000    0.6283336   -9.0928416    190.05457 0.0098616941  0.008499545         3223 
 1607000   0.61435272   -9.1065006    190.20186 0.0098631956 0.0084907943         3241 
 1608000   0.60978643    -9.103395     190.7484 0.0098853853 0.0084820513         3230 
 1609000   0.60846354   -9.0898329    190.59502 0.0098712977 0.0084733215         3211 
 1610000   0.61414109   -9.1007061    190.55795  0.009863248 0.0084646078         3226 
 1611000    0.6178519   -9.0983454     190.5575 0.0098571021 0.0084558939         3225 
 1612000   0.61789246    -9.095775    190.47114 0.0098465229 0.0084472002         3208 
 1613000   0.60773634   -9.1081318    190.57392 0.0098457283 0.0084385222         3188 
 1614000   0.60190472   -9.0934979    190.70563 0.0098464286 0.0084298592         3214 
 1615000   0.60948298   -9.0817665    190.77964 0.0098441506 0.0084211993         3224 
 1616000   0.60545856   -9.1157305    190.27577 0.0098120754 0.0084125491         3248 
 1617000   0.61650037   -9.1033921    190.39734 0.0098122725 0.0084039143         3230 
 1618000     0.605721   -9.1077759    190.39407   0.00980604 0.0083952963         3246 
 1619000   0.61384052   -9.1237952    190.61504 0.0098113567 0.0083866851         3215 
 1620000   0.59074469   -9.1005016    190.69038 0.0098091761 0.0083780797         3177 
 1621000   0.60526443   -9.1034569    190.55377 0.0097961015  0.008369497         3212 
 1622000   0.61258739   -9.1162252    190.20059  0.009771917 0.0083609217         3244 
 1623000   0.61319734   -9.0971783    190.50875 0.0097817186 0.0083523673         3199 
 1624000   0.60081374   -9.1155887    190.30725 0.0097653554 0.0083438147         3244 
 1625000   0.60763847   -9.1108343    190.38464 0.0097633148  0.008335265         3216 
 1626000    0.6063299   -9.1193296    190.44291 0.0097602967 0.0083267429         3204 
 1627000   0.60023911   -9.1240639      190.494 0.0097569145 0.0083182324         3198 
 1628000    0.5918551   -9.1131553    190.12881 0.0097322282 0.0083097167         3216 
 1629000   0.58816335    -9.113521     190.1107 0.0097253276 0.0083012089         3174 
 1630000   0.60485181   -9.1079649    189.87285  0.009707201   0.00829272         3214 
 1631000   0.60917318   -9.1211928    190.38184 0.0097272552  0.008284247         3241 
 1632000   0.59247921   -9.1167611    190.16182 0.0097100602 0.0082757858         3253 
 1633000   0.60340427   -9.1138576    190.28893 0.0097106006 0.0082673263         3231 
 1634000   0.59983518   -9.1002334    189.80572 0.0096800141 0.0082588807         3265 
 1635000   0.59677672    -9.105847     190.2671 0.0096976094 0.0082504426         3235 
 1636000   0.60538436   -9.1194033    190.24734 0.0096906754 0.0082420131         3267 
 1637000   0.59422179   -9.1298507    190.05882 0.0096751587 0.0082335957         3200 
 1638000   0.59271873   -9.1280722    190.36732 0.0096849472 0.0082251943         3255 
 1639000   0.60230696   -9.1277978    190.29227 0.0096752222  0.008216805         3224 
 1640000   0.59670778   -9.1271062    190.46632 0.0096781669 0.0082084206         3212 
 1641000   0.59879369   -9.1214986    190.09841 0.0096535859 0.0082000518         3236 
 1642000   0.61299812    -9.138258    190.33049  0.009659485 0.0081916945         3201 
 1643000   0.58648863   -9.1317741    190.63738 0.0096691712 0.0081833464         3242 
 1644000    0.6074149    -9.107841    190.17493 0.0096398485 0.0081750136         3190 
 1645000   0.59741438    -9.127494    190.19359 0.0096349337 0.0081666946         3216 
 1646000   0.59897921   -9.1460882     190.0263 0.0096206106 0.0081583849         3185 
 1647000   0.59147952   -9.1342737    190.19707 0.0096234096 0.0081500787         3247 
 1648000    0.5905644   -9.1428338    189.78478 0.0095967223 0.0081417849         3262 
 1649000   0.59000385   -9.1196501    190.00474 0.0096020183 0.0081335042         3259 
 1650000   0.60050222   -9.1097238    190.16016 0.0096040487 0.0081252358         3215 
 1651000   0.58644186   -9.1446028    190.27946 0.0096042529 0.0081169759         3238 
 1652000   0.59594843   -9.1269851    189.94287 0.0095814602 0.0081087292         3252 
 1653000    0.6066744   -9.1319812    190.23474 0.0095903781 0.0081004899         3206 
 1654000   0.59480155   -9.1111418    190.01525 0.0095735214 0.0080922593         3184 
 1655000   0.59216235   -9.1316607    190.04217 0.0095690923 0.0080840435         3258 
 1656000   0.60491311   -9.1195812    190.18883 0.0095706938 0.0080758386         3195 
 1657000   0.60244289   -9.1241449     190.5574 0.0095834539 0.0080676498         3244 
 1658000   0.57954376   -9.1317552    190.13763 0.0095565757 0.0080594684         3286 
 1659000   0.59421841   -9.1375358    190.09714 0.0095487814 0.0080512984         3281 
 1660000   0.59139747   -9.1526552    189.81278 0.0095287541 0.0080431382         3227 
 1661000    0.5815469   -9.1128512    189.95731 0.0095302686 0.0080349851         3250 
 1662000   0.60140359   -9.1477314    190.05288 0.0095293263 0.0080268499         3257 
 1663000    0.5944319   -9.1306034     189.7112 0.0095064741 0.0080187284         3228 
 1664000   0.59749472   -9.1302829    190.32954 0.0095317277  0.008010611         3227 
 1665000   0.59010414   -9.1292509     190.4011 0.0095295848 0.0080025087         3231 
 1666000   0.58887287   -9.1374788    190.11438 0.0095095229 0.0079944202         3232 
 1667000   0.58147695   -9.1224135    190.06237 0.0095012184 0.0079863372         3330 
 1668000   0.59529598   -9.1446797     190.0131 0.0094930605 0.0079782572         3260 
 1669000   0.59180664    -9.126752    190.17801 0.0094956068 0.0079701941         3242 
 1670000   0.58306367   -9.1546813    189.92479 0.0094772848 0.0079621388         3302 
 1671000   0.58089673   -9.1358011    190.03409 0.0094770641 0.0079540945         3185 
 1672000    0.5996054   -9.1338093    189.99486 0.0094694407 0.0079460637         3248 
 1673000   0.58646831   -9.1505814    190.04582 0.0094663191 0.0079380379         3257 
 1674000   0.57453803   -9.1487127    189.88526 0.0094526711  0.007930024         3267 
 1675000   0.58286351   -9.1382798     190.3275   0.00946903 0.0079220202         3257 
 1676000    0.5864199   -9.1507908    190.13707 0.0094539116 0.0079140327         3251 
 1677000   0.57476075   -9.1239041    190.29231 0.0094559883  0.007906055         3238 
 1678000   0.59119631   -9.1343933    190.22967 0.0094472424 0.0078980893         3209 
 1679000   0.57966125   -9.1514457    190.11471 0.0094359097 0.0078901322         3254 
 1680000   0.58731915   -9.1489442    190.35056 0.0094419919 0.0078821818         3275 
 1681000   0.58842283   -9.1412001    189.96518 0.0094172702 0.0078742477         3236 
 1682000   0.56148614   -9.1479319    189.99259 0.0094130294 0.0078663247         3249 
 1683000   0.58275309   -9.1325547    189.80979 0.0093983854  0.007858413         3229 
 1684000   0.58503787   -9.1503025    190.17835 0.0094110426 0.0078505045         3247 
 1685000   0.59236337   -9.1482808    189.89344 0.0093913669 0.0078426146         3242 
 1686000   0.58417875   -9.1651652    189.97673 0.0093899133 0.0078347335         3244 
 1687000   0.59029751   -9.1625595    190.02475 0.0093867195 0.0078268576         3274 
 1688000   0.57762331   -9.1394988    190.20459 0.0093900371 0.0078189962         3223 
 1689000   0.58073894   -9.1425464    189.89091 0.0093690008 0.0078111475         3257 
 1690000   0.57294538   -9.1259136    189.93822 0.0093657899 0.0078033046         3232 
 1691000   0.57508463   -9.1445647    190.00236  0.009363412 0.0077954749         3230 
 1692000   0.58461296   -9.1472809    190.10253 0.0093628118 0.0077876561         3239 
 1693000   0.57660602   -9.1487249    189.82651 0.0093436952  0.007779847         3243 
 1694000   0.56437873   -9.1597792    189.93195 0.0093433665 0.0077720429         3292 
 1695000    0.5907776   -9.1454737     189.9066 0.0093366078 0.0077642528         3251 
 1696000   0.57721025   -9.1501022    190.04962 0.0093381298 0.0077564745         3256 
 1697000   0.57905912   -9.1416795     190.1352 0.0093368296 0.0077487104         3272 
 1698000   0.57443571   -9.1562143    189.78826 0.0093143041 0.0077409449         3235 
 1699000   0.58295615   -9.1640508    190.06997 0.0093226395 0.0077331933         3259 
 1700000   0.57808441    -9.156023    190.04351 0.0093158586 0.0077254548         3272 
 1701000   0.56522327   -9.1615084    189.95187  0.009305892 0.0077177188         3267 
 1702000   0.56896936   -9.1518685    189.96204 0.0093009224 0.0077100057         3284 
 1703000   0.57677225   -9.1574398    189.61134 0.0092782999 0.0077022992         3240 
 1704000   0.57419301   -9.1526486    189.91786 0.0092878454 0.0076946022         3269 
 1705000   0.57000404   -9.1481112    189.72974 0.0092732034 0.0076869135         3255 
 1706000   0.56463301    -9.158714    189.65596 0.0092641638 0.0076792362         3248 
 1707000   0.57535636   -9.1660919     189.9927 0.0092751755 0.0076715688         3262 
 1708000   0.57411295   -9.1592431    189.96855 0.0092685671 0.0076639141         3267 
 1709000   0.57502308   -9.1593346    189.75876 0.0092529142 0.0076562689         3242 
 1710000   0.56723856   -9.1631079    189.83675 0.0092513034 0.0076486349         3245 
 1711000   0.56919013   -9.1510845    189.97647 0.0092527019 0.0076410046         3208 
 1712000   0.57852895   -9.1599243    189.39556 0.0092190208 0.0076333868         3251 
 1713000   0.57451199   -9.1367414    190.19947 0.0092527472 0.0076257875         3231 
 1714000   0.57022192   -9.1646523    189.67148 0.0092216783 0.0076181906         3284 
 1715000   0.57248182   -9.1680632      189.858 0.0092253642 0.0076106025         3263 
 1716000   0.55966872   -9.1579282    190.07489 0.0092305213 0.0076030148         3285 
 1717000   0.55645524   -9.1777716     189.8203 0.0092127886 0.0075954447         3258 
 1718000   0.55793575   -9.1610611    189.85574 0.0092091451 0.0075878916         3206 
 1719000   0.58600133   -9.1873422     189.8166 0.0092018907 0.0075803444         3254 
 1720000   0.56903007    -9.160634     189.8447 0.0091979023 0.0075728093         3270 
 1721000   0.56650608    -9.175061    189.74089 0.0091875308 0.0075652814         3278 
 1722000   0.56540712   -9.1650808    189.61516 0.0091761113  0.007557761         3272 
 1723000   0.56565172   -9.1843849    189.51795 0.0091660837  0.007550259         3231 
 1724000   0.56712464   -9.1812054    189.74629 0.0091718046  0.007542764         3244 
 1725000   0.56486854    -9.151778    189.78307 0.0091682641 0.0075352859         3233 
 1726000    0.5569454   -9.1766708    189.75552 0.0091616222 0.0075278061         3275 
 1727000    0.5643124   -9.1962685    189.60104 0.0091488631 0.0075203364         3240 
 1728000   0.55729093   -9.1710906    189.92749 0.0091593116 0.0075128806         3288 
 1729000   0.55663594   -9.1776754    189.86158 0.0091508375 0.0075054319         3261 
 1730000   0.56575457   -9.1697738    189.82586 0.0091438273  0.007497991         3248 
 1731000   0.56884993   -9.1802543    189.98334 0.0091461267 0.0074905514         3223 
 1732000   0.57606519   -9.1476191    189.88935 0.0091363238 0.0074831366         3208 
 1733000    0.5620324   -9.1692266    190.18731 0.0091453795 0.0074757252         3298 
 1734000   0.56014746   -9.1868314    189.76627 0.0091198708 0.0074683254         3248 
 1735000   0.54588637   -9.1737831    189.76286 0.0091144504 0.0074609353         3287 
 1736000   0.56053558   -9.1807285      189.816  0.009111751  0.007453559         3243 
 1737000   0.56172894   -9.1777079    189.54281 0.0090933992 0.0074461896         3232 
 1738000   0.56489228   -9.1739342     189.8618  0.009103462 0.0074388281         3270 
 1739000   0.55627464   -9.1814006    189.61364 0.0090863348  0.007431479         3254 
 1740000   0.56237249   -9.1669485     189.8767 0.0090937115 0.0074241404         3253 
 1741000   0.55693934   -9.1800904    189.92805 0.0090909463 0.0074168061         3260 
 1742000   0.55066373   -9.1722126    189.67124 0.0090734423 0.0074094853         3225 
 1743000   0.54883909   -9.2071179    189.30827 0.0090508832 0.0074021684         3289 
 1744000   0.57949332   -9.1723807    189.85436  0.009071787 0.0073948626         3271 
 1745000   0.55273078   -9.1831148    189.49297 0.0090493301 0.0073875676         3275 
 1746000   0.54775113   -9.1961912    189.64802 0.0090515472 0.0073802842         3265 
 1747000   0.55757503   -9.1761614    189.24304 0.0090270485 0.0073730116         3231 
 1748000   0.55842016     -9.18998    189.47361 0.0090328761 0.0073657495         3276 
 1749000   0.55032835    -9.187341    189.85075 0.0090456811 0.0073584958         3242 
 1750000   0.56043338   -9.1805967    190.00444 0.0090478306 0.0073512472         3237 
 1751000   0.55419874   -9.1845553    189.57755 0.0090223469 0.0073440149         3270 
 1752000   0.55513283   -9.1648662    189.48062 0.0090125866 0.0073367831         3235 
 1753000   0.56132489   -9.1979551    189.41613 0.0090043799 0.0073295646         3259 
 1754000   0.54862669   -9.1828341    189.61507 0.0090086977 0.0073223508         3241 
 1755000   0.54633105   -9.1718729    189.89905 0.0090170487 0.0073151534         3239 
 1756000   0.55759966   -9.1848886    189.32236 0.0089845465 0.0073079596         3298 
 1757000   0.55289089   -9.1946688    189.34082 0.0089803081 0.0073007722         3290 
 1758000   0.54581665   -9.1920512    189.42568 0.0089792227 0.0072935986         3322 
 1759000   0.54943832   -9.1746122    190.18655 0.0090101643 0.0072864396         3246 
 1760000   0.54681666   -9.2094584    189.52654 0.0089737946 0.0072792869         3288 
 1761000   0.55057942   -9.1914445    189.62786 0.0089734931 0.0072721412         3245 
 1762000    0.5510626   -9.1925261    189.72853 0.0089731617 0.0072650034         3215 
 1763000    0.5492119   -9.1826189    189.71834 0.0089675904 0.0072578788         3284 
 1764000   0.54676493   -9.1910968     189.2437 0.0089400839 0.0072507677         3263 
 1765000   0.54312998   -9.1832256    189.49775 0.0089470135 0.0072436619         3283 
 1766000    0.5368187   -9.1875625    189.72934 0.0089528757 0.0072365658         3242 
 1767000   0.53862274   -9.1915428    189.60585  0.008941985 0.0072294779         3211 
 1768000   0.53729297   -9.1929318    189.45367 0.0089297543 0.0072224006         3252 
 1769000   0.54508182   -9.2002304    189.61889 0.0089324898  0.007215328         3281 
 1770000   0.54843422   -9.1980063    189.45804 0.0089198701 0.0072082613         3272 
 1771000    0.5474021   -9.1929808    189.26295 0.0089056538 0.0072012102         3242 
 1772000   0.55034552   -9.1938018    189.12784 0.0088942741 0.0071941678         3275 
 1773000   0.53949388    -9.204004    189.43689 0.0089037831 0.0071871338         3246 
 1774000   0.54608763   -9.2236675    189.40064 0.0088970613 0.0071801054         3300 
 1775000   0.54057667   -9.2085593    189.40512 0.0088922591 0.0071730895         3288 
 1776000   0.54804101   -9.2114663    189.60835 0.0088967882 0.0071660825         3288 
 1777000   0.54152885   -9.1851387    189.51471 0.0088873901 0.0071590811         3236 
 1778000   0.53510978   -9.1946704    189.72254 0.0088921324 0.0071520926         3289 
 1779000   0.53249449    -9.205686    189.59333 0.0088810816 0.0071451114         3285 
 1780000   0.53463119    -9.171582    189.67329 0.0088798356 0.0071381428         3235 
 1781000   0.54432511   -9.1916779    189.63325 0.0088729762 0.0071311865         3236 
 1782000   0.54107708   -9.2196784    189.20368 0.0088479087 0.0071242324         3263 
 1783000   0.54580887    -9.207387    189.49832 0.0088567172 0.0071172907         3233 
 1784000   0.54090441   -9.2162018    189.19556 0.0088376102 0.0071103595         3259 
 1785000   0.52968424   -9.2166638    189.22046 0.0088338219 0.0071034315         3221 
 1786000    0.5374347   -9.2204069    189.63931 0.0088484185 0.0070965108         3282 
 1787000   0.53800336    -9.211511    189.14546 0.0088204372 0.0070896099         3249 
 1788000   0.53835798    -9.204406    189.05308  0.008811199 0.0070827091         3271 
 1789000   0.54769022   -9.1964999    189.32991 0.0088191684 0.0070758181         3238 
 1790000   0.53184726   -9.1924152    189.39081 0.0088170766 0.0070689442         3245 
 1791000   0.54266125   -9.1950544    189.64292 0.0088238841 0.0070620808         3271 
 1792000   0.53319992    -9.216748    189.58977 0.0088164885 0.0070552214         3354 
 1793000    0.5313358   -9.2210066    189.16135 0.0087916598 0.0070483667         3271 
 1794000   0.53054352   -9.2044945    189.40679 0.0087981602 0.0070415265         3280 
 1795000   0.54101851   -9.2038141    189.10053 0.0087790402 0.0070346874         3307 
 1796000   0.53922499   -9.2268602    189.06563 0.0087725328 0.0070278563         3305 
 1797000   0.53542267   -9.1995846    189.46088 0.0087859802 0.0070210347         3340 
 1798000   0.52174433   -9.2231208    189.43866 0.0087800638  0.007014224         3283 
 1799000   0.53763297   -9.2071691    189.43846 0.0087751741 0.0070074244         3293 
 1800000   0.53566827   -9.2092812    189.79242  0.008786686 0.0070006395         3284 
 1801000   0.53601396   -9.2140292    189.57374 0.0087716888  0.006993859         3264 
 1802000   0.52628309   -9.2193745    189.10402 0.0087450989 0.0069870843         3299 
 1803000     0.525337   -9.2187364    189.33919 0.0087511182 0.0069803177         3274 
 1804000   0.53465084   -9.2203537    189.41202 0.0087496315 0.0069735647         3257 
 1805000   0.53917288     -9.20407    189.77025 0.0087613227  0.006966818         3274 
 1806000   0.52916598   -9.2200387    189.48213 0.0087431769 0.0069600751         3282 
 1807000   0.53145999   -9.2349748    189.14365 0.0087227287 0.0069533466         3273 
 1808000   0.53346361   -9.2128491    189.42171 0.0087307203 0.0069466257         3268 
 1809000   0.53780208   -9.2356279     189.1501 0.0087133821  0.006939914         3282 
 1810000   0.52645444   -9.2245148    189.42448 0.0087212007 0.0069332098         3260 
 1811000   0.52415479   -9.2185417    189.38077 0.0087143737 0.0069265095         3264 
 1812000   0.51655787   -9.2016214    189.29846 0.0087057792 0.0069198246         3271 
 1813000   0.52748269   -9.2322098    189.37565  0.008704525 0.0069131484         3302 
 1814000   0.52529524   -9.2173292    189.48324 0.0087046694 0.0069064812         3317 
 1815000   0.52805869    -9.211643    189.27077 0.0086901182 0.0068998195         3283 
 1816000   0.53341264   -9.2269298    189.31929 0.0086875593 0.0068931647         3239 
 1817000   0.53707357   -9.2287562    189.26578 0.0086803238 0.0068865211         3298 
 1818000   0.54602933   -9.2307846    189.31997 0.0086780329 0.0068798852         3283 
 1819000   0.52317144   -9.2282001    189.10387 0.0086633624 0.0068732596         3231 
 1820000    0.5286543   -9.2201048    189.21362 0.0086636272 0.0068666386         3257 
 1821000   0.51678957   -9.2297545    189.06111 0.0086518906 0.0068600276         3277 
 1822000   0.52182304   -9.2279843    189.32654 0.0086592821 0.0068534236         3279 
 1823000   0.52587302   -9.2307264    189.18585 0.0086481006 0.0068468277         3261 
 1824000   0.51726505   -9.2299497    189.40864 0.0086535379 0.0068402491         3224 
 1825000   0.52745963   -9.2311384    189.16072  0.008637476 0.0068336812         3230 
 1826000   0.52897458   -9.2293515     189.4323 0.0086451396 0.0068271155         3226 
 1827000   0.53826617   -9.2231668    189.15844 0.0086279165 0.0068205563         3264 
 1828000   0.51842369   -9.2298276     189.0791 0.0086195799 0.0068140053         3262 
 1829000    0.5291274   -9.2382067    189.06657 0.0086142961 0.0068074602         3280 
 1830000   0.50448015   -9.2207541    189.19227 0.0086153129 0.0068009278         3313 
 1831000   0.52829436   -9.2395402     189.3584 0.0086181685  0.006794412         3257 
 1832000   0.52346643   -9.2248432    188.91007 0.0085930707 0.0067878941         3270 
 1833000   0.51347767   -9.2418558    189.11476 0.0085976887 0.0067813864         3262 
 1834000   0.52195494   -9.2408708    189.12879 0.0085936383 0.0067748909         3303 
 1835000   0.51228616    -9.236078    188.93033 0.0085799421 0.0067684034         3269 
 1836000    0.5155683   -9.2326001    189.48086 0.0086002571  0.006761924         3288 
 1837000   0.53414747   -9.2619935    189.06352 0.0085766431 0.0067554497         3297 
 1838000   0.51777064   -9.2489157    189.20445 0.0085783663 0.0067489839         3271 
 1839000   0.51402874   -9.2432112     189.0855 0.0085683118 0.0067425324         3312 
 1840000   0.51713525   -9.2359353    189.20767 0.0085691878 0.0067360863         3270 
 1841000   0.51852878   -9.2182844    189.36682 0.0085717373 0.0067296466         3268 
 1842000   0.52184824   -9.2496865     189.0035 0.0085506471 0.0067232115         3268 
 1843000    0.5155861    -9.238965    189.05569 0.0085483671 0.0067167848         3293 
 1844000    0.5131921    -9.230767    189.32995 0.0085561257 0.0067103638         3267 
 1845000   0.51815399   -9.2631837    189.06388 0.0085394708 0.0067039498         3293 
 1846000   0.50685442   -9.2278328     189.1622 0.0085392832  0.006697546         3262 
 1847000    0.5032234    -9.247589    188.84245 0.0085202334 0.0066911456         3272 
 1848000   0.50817437   -9.2443089    189.33259 0.0085377249 0.0066847564         3283 
 1849000   0.50854969   -9.2411304     189.1909 0.0085267217 0.0066783852         3250 
 1850000    0.5157284   -9.2426255    189.12866 0.0085193091 0.0066720151         3287 
 1851000   0.51303751   -9.2465033    189.22786 0.0085191725 0.0066656489         3297 
 1852000   0.50236001   -9.2243692    189.12024 0.0085097299 0.0066592984         3266 
 1853000    0.5154594   -9.2328113    189.00066 0.0084997598 0.0066529489         3304 
 1854000   0.51564713   -9.2499919    189.24212 0.0085060285 0.0066466107         3285 
 1855000    0.5098197   -9.2533403    189.01878 0.0084914097 0.0066402761         3259 
 1856000   0.51360171   -9.2478798    188.89907 0.0084814595 0.0066339557         3261 
 1857000   0.51067924   -9.2426366    188.87717 0.0084759098 0.0066276474         3293 
 1858000   0.50792071   -9.2602554    189.47386   0.00849811 0.0066213405         3254 
 1859000   0.51338719   -9.2491611    189.16977 0.0084799072 0.0066150466         3258 
 1860000   0.50284837   -9.2556952    189.00522 0.0084679756 0.0066087554         3326 
 1861000   0.50927767     -9.26306    188.79625 0.0084540683 0.0066024701         3263 
 1862000   0.51535625   -9.2803468    189.30333 0.0084722219 0.0065961963         3265 
 1863000   0.50904515     -9.25408    189.09393 0.0084583077 0.0065899264         3255 
 1864000   0.49508518   -9.2380091    189.18282 0.0084577442 0.0065836632         3239 
 1865000   0.51289688   -9.2491574    188.87622 0.0084395095 0.0065774066         3289 
 1866000   0.50124904   -9.2579157    189.05643 0.0084430346  0.006571163         3289 
 1867000    0.5093757   -9.2546806    188.97172 0.0084347312 0.0065649294         3291 
 1868000   0.50699684   -9.2517752    189.07329 0.0084347472  0.006558702         3274 
 1869000   0.50396759   -9.2505186     188.8336  0.008419547  0.006552482         3271 
 1870000   0.50090946   -9.2516101    188.86871 0.0084166093 0.0065462725         3260 
 1871000   0.50534612   -9.2588182    189.04202 0.0084198298 0.0065400673         3301 
 1872000      0.50579   -9.2400789    189.05395 0.0084158631 0.0065338773         3297 
 1873000   0.51187759   -9.2485709    188.92657 0.0084057027 0.0065276905         3319 
 1874000   0.49118894   -9.2674559     189.0309 0.0084058566 0.0065215116         3311 
 1875000   0.49363783   -9.2751892    188.73934 0.0083884149 0.0065153361         3316 
 1876000   0.49933189    -9.274407     188.6454  0.008379771  0.006509173         3315 
 1877000   0.50188428   -9.2626775    188.75311 0.0083800882 0.0065030125         3302 
 1878000   0.49144736   -9.2611828    188.95393  0.008384537 0.0064968663         3298 
 1879000    0.5032144   -9.2647742     188.8564 0.0083757497  0.006490727         3287 
 1880000   0.50133329   -9.2457496    188.88046 0.0083723608 0.0064845933         3302 
 1881000   0.49850093   -9.2538437    188.73455 0.0083614457  0.006478465         3297 
 1882000   0.49641136   -9.2510599      188.622 0.0083520192 0.0064723522         3285 
 1883000   0.50343334   -9.2694448    188.63799 0.0083482911 0.0064662417         3262 
 1884000   0.50011856   -9.2700483    188.84574 0.0083530493 0.0064601378         3323 
 1885000   0.49186972   -9.2581945    188.52511 0.0083344432 0.0064540407         3312 
 1886000   0.49092347   -9.2634932    188.96456 0.0083494416 0.0064479533         3287 
 1887000   0.49126462   -9.2457154    188.87491 0.0083410579 0.0064418755         3276 
 1888000   0.49364965   -9.2670605    189.05784 0.0083447139 0.0064358033         3257 
 1889000   0.49182431   -9.2650124    188.86539 0.0083318067 0.0064297328         3274 
 1890000    0.4963437   -9.2624602    189.08153 0.0083369282 0.0064236785         3312 
 1891000   0.49501259    -9.268206    189.04528 0.0083309221 0.0064176324         3292 
 1892000   0.49942613   -9.2642737    188.89577 0.0083199333 0.0064115893         3304 
 1893000   0.50344572   -9.2691389    188.83563  0.008312891 0.0064055583         3317 
 1894000   0.49869171    -9.270916    189.07327 0.0083189575 0.0063995279         3270 
 1895000   0.49808908   -9.2695439    188.75455 0.0083005517 0.0063935074         3277 
 1896000   0.50160056   -9.2678057    188.55768 0.0082875213 0.0063874973         3282 
 1897000    0.5085889   -9.2636032    188.94593 0.0083002079 0.0063814983         3267 
 1898000   0.49770113   -9.2780079    188.96496 0.0082966701 0.0063755036         3329 
 1899000   0.49053951    -9.292121    188.63621 0.0082778748 0.0063695132         3287 
 1900000   0.48563518   -9.2895041    189.00398 0.0082896483 0.0063635294         3299 
 1901000   0.48857287   -9.2752904    188.64943 0.0082697454  0.006357552         3299 
 1902000   0.49989033   -9.2828039    188.98063 0.0082799086  0.006351589         3319 
 1903000   0.48957688   -9.2741077    188.69924  0.008263235 0.0063456339         3252 
 1904000    0.4947429   -9.2819486     188.6846 0.0082582544  0.006339684         3303 
 1905000   0.49603371   -9.2818321    188.83904 0.0082606754 0.0063337367         3271 
 1906000   0.50053316   -9.2789667    189.01788 0.0082641607 0.0063278009         3292 
 1907000   0.49709773   -9.2698074    188.63456 0.0082430762 0.0063218748         3279 
 1908000   0.49146777   -9.2685774    189.00405  0.008254894 0.0063159542         3270 
 1909000   0.50276393   -9.2664072     189.0689 0.0082534006 0.0063100441         3282 
 1910000   0.48996434   -9.2688681    188.83657 0.0082389427 0.0063041438         3316 
 1911000   0.49616501   -9.2887249    188.29673 0.0082110907 0.0062982402         3283 
 1912000   0.48788083   -9.2800078    188.56359 0.0082184269 0.0062923496         3334 
 1913000   0.49603319   -9.2985986     188.6275 0.0082169148  0.006286464         3271 
 1914000   0.50374977   -9.2763766    188.76092  0.008218431 0.0062805895         3281 
 1915000   0.48973408   -9.2713429    188.78464 0.0082151716 0.0062747271         3286 
 1916000   0.48653072   -9.2999704    188.65593 0.0082052856 0.0062688681         3275 
 1917000   0.49056916   -9.2852841     188.8935 0.0082113327 0.0062630092         3317 
 1918000   0.49693222   -9.2821845    188.70315 0.0081987812 0.0062571658         3302 
 1919000   0.49570814   -9.2920094    188.75422 0.0081967265 0.0062513276         3294 
 1920000   0.47300918   -9.2904788    188.72411 0.0081911507 0.0062454884         3252 
 1921000   0.48401973   -9.2907954    188.88223 0.0081937457 0.0062396632         3287 
 1922000   0.49420189    -9.292774    188.76708   0.00818449 0.0062338391         3308 
 1923000   0.48113076   -9.2812877    189.15703 0.0081971325 0.0062280231         3294 
 1924000   0.48919739   -9.2949477    188.79041 0.0081769929 0.0062222228         3285 
 1925000   0.48506278   -9.3024916    188.63575 0.0081660498 0.0062164229         3302 
 1926000   0.48658377   -9.2807941    188.32875 0.0081485265 0.0062106351         3280 
 1927000   0.49443194   -9.2837927    188.54552 0.0081536724 0.0062048563         3302 
 1928000   0.48719609   -9.2739105    188.36615 0.0081416904 0.0061990769         3302 
 1929000   0.47926804   -9.2852223    188.51716 0.0081439933 0.0061933111         3288 
 1930000   0.48517439   -9.2955206    188.67866  0.008146747 0.0061875494         3293 
 1931000   0.47688041   -9.3037883     188.5846 0.0081384687 0.0061817921         3302 
 1932000   0.48391323   -9.3013935    188.64829 0.0081370036 0.0061760435         3325 
 1933000   0.47382673   -9.2791178    188.62531 0.0081318034 0.0061703063         3266 
 1934000   0.48313394   -9.3088179    188.72644 0.0081319564 0.0061645782         3316 
 1935000   0.47774796    -9.289471    188.37767 0.0081127336 0.0061588571         3291 
 1936000    0.4709843   -9.2863695    188.58075 0.0081172844 0.0061531409         3305 
 1937000   0.47184851   -9.2813038    189.07355 0.0081342951 0.0061474338         3281 
 1938000   0.48218051   -9.3107428    188.49522 0.0081052297 0.0061417318         3291 
 1939000   0.47457505   -9.3004709    188.36017 0.0080952453 0.0061360344         3255 
 1940000   0.46388842   -9.2982314    188.36881 0.0080914438 0.0061303443         3302 
 1941000   0.48075891   -9.3129874    188.49237 0.0080925799 0.0061246624         3311 
 1942000   0.47541256   -9.3120577    188.46304 0.0080871539 0.0061189906         3284 
 1943000   0.47628196   -9.2871568    188.76307 0.0080958601 0.0061133201         3322 
 1944000   0.47374804    -9.305316    188.51316 0.0080809825 0.0061076578         3301 
 1945000   0.47717536   -9.3121566    188.21007 0.0080638418  0.006102005         3258 
 1946000   0.47705964   -9.2991298    188.74824  0.008082744 0.0060963593         3310 
 1947000   0.48093641   -9.2955173    188.66399 0.0080749866 0.0060907209         3339 
 1948000   0.47674082   -9.2956859    188.38064 0.0080587199 0.0060850905         3305 
 1949000   0.46699503   -9.3232802    188.41234 0.0080559408 0.0060794688         3306 
 1950000   0.47562515   -9.3029417    188.47104  0.008054318 0.0060738515         3329 
 1951000   0.46882544     -9.29117    188.59945 0.0080556746  0.006068243         3357 
 1952000   0.47765589   -9.3053467    188.70543 0.0080560721  0.006062637         3250 
 1953000   0.46996722   -9.3091543    188.45692  0.008041343 0.0060570449         3301 
 1954000   0.46422317   -9.3098016    188.42954 0.0080360602 0.0060514547         3299 
 1955000   0.47235852   -9.3030576    188.53905 0.0080366175 0.0060458713         3318 
 1956000   0.47542349   -9.3016623    188.80532 0.0080438533 0.0060402961         3310 
 1957000   0.46854666   -9.2895896    188.57219 0.0080298156 0.0060347287         3322 
 1958000   0.47587085   -9.3158928    188.32323  0.008015119 0.0060291687         3330 
 1959000   0.47744056   -9.3054384    188.39865 0.0080142356  0.006023615         3308 
 1960000   0.45602772   -9.3175481    188.37334 0.0080090706 0.0060180637         3287 
 1961000   0.46837117   -9.3217477    188.53622 0.0080119079 0.0060125189         3301 
 1962000   0.46932213   -9.3148745    188.42609  0.008003147 0.0060069873         3299 
 1963000   0.47280479     -9.32114    188.54776 0.0080042352 0.0060014614         3305 
 1964000   0.47248486   -9.3000444    188.48805 0.0079976258 0.0059959405         3330 
 1965000   0.47058214   -9.3249016    188.37726 0.0079888576 0.0059904248         3334 
 1966000   0.46906107   -9.3120234    188.60743 0.0079945504 0.0059849127         3312 
 1967000   0.47759626   -9.3110433    188.23015  0.007974502  0.005979412         3282 
 1968000   0.46565726   -9.3216217    188.68636 0.0079897678 0.0059739208         3291 
 1969000   0.46548875   -9.3163039    188.58204  0.007981295 0.0059684349         3328 
 1970000   0.47157475   -9.3237979     188.4923 0.0079734475 0.0059629556         3302 
 1971000   0.46805451   -9.3160648     188.1438 0.0079546677 0.0059574831         3312 
 1972000   0.46628512   -9.3076731    188.41848 0.0079622415 0.0059520134         3280 
 1973000   0.45982999   -9.3237422    188.52759 0.0079628141 0.0059465512         3270 
 1974000   0.46593288   -9.3328926    188.27184 0.0079479839 0.0059410958         3334 
 1975000   0.46533704   -9.3395322    188.00573 0.0079327312 0.0059356455         3286 
 1976000   0.47054936   -9.3193821    188.25765 0.0079393406 0.0059302065         3335 
 1977000   0.46261618   -9.3172736    188.50443  0.007945727 0.0059247722         3308 
 1978000    0.4630516   -9.3101465    188.59709 0.0079456139 0.0059193428         3308 
 1979000    0.4651899   -9.3261432    188.12336 0.0079216505  0.005913924         3289 
 1980000   0.46391026   -9.3305929    188.37433 0.0079282126 0.0059085109         3328 
 1981000   0.46356781   -9.3000903    188.54217 0.0079312709 0.0059031014         3335 
 1982000   0.44713176    -9.335058    188.15158  0.007910847 0.0058976975         3320 
 1983000    0.4579017   -9.3212607    188.19978  0.007908883 0.0058923009         3310 
 1984000   0.46183138   -9.3301332    188.64269 0.0079235001 0.0058869119         3315 
 1985000   0.45915272    -9.319025    188.29227 0.0079047971 0.0058815286         3311 
 1986000    0.4771739   -9.3279276    188.19686 0.0078968136 0.0058761565         3303 
 1987000   0.45304272   -9.3241047    188.02023 0.0078854316 0.0058707869         3337 
 1988000   0.45779014   -9.3373552    188.60633 0.0079060331 0.0058654239         3294 
 1989000   0.47396298   -9.3342568    188.35264 0.0078914294 0.0058600692         3313 
 1990000   0.46398307   -9.3324839    188.35854 0.0078877111 0.0058547247         3324 
 1991000   0.45379821   -9.3251331    188.34743 0.0078832843 0.0058493817         3318 
 1992000   0.46070567    -9.326967    188.08448 0.0078683264  0.005844048         3341 
 1993000   0.46192866   -9.3332051      188.304 0.0078735573 0.0058387185         3313 
 1994000   0.45086321   -9.3353671    188.47702 0.0078768398 0.0058333964         3320 
 1995000   0.45290158     -9.33184    188.35223  0.007867679  0.005828079         3286 
 1996000   0.44879605     -9.32416    188.26325 0.0078600221 0.0058227708         3327 
 1997000   0.46213133   -9.3240445    188.24136 0.0078551726 0.0058174659         3324 
 1998000   0.45598136   -9.3188074    188.21006 0.0078499358   0.00581217         3350 
 1999000   0.45328158   -9.3255145    187.96087 0.0078356206 0.0058068816         3278 
 2000000   0.44944688   -9.3253395    188.49441 0.0078539339 0.0058015948         3371 
 2001000   0.45737663   -9.3374934    188.40901 0.0078464523 0.0057963185         3308 
 2002000   0.46037882   -9.3229739    188.51029 0.0078467486 0.0057910476         3280 
 2003000   0.45261072   -9.3363711    188.20551  0.007830151 0.0057857835         3311 
 2004000   0.45832807   -9.3399736    188.02129 0.0078185833 0.0057805221         3330 
 2005000   0.44902456   -9.3362177     188.3786 0.0078295346  0.005775271         3327 
 2006000   0.45389834   -9.3476064     188.2385 0.0078198115 0.0057700291         3314 
 2007000   0.44561773   -9.3220632     188.1647  0.007812851 0.0057647896         3284 
 2008000    0.4408289   -9.3419322    188.11121 0.0078067403 0.0057595576         3313 
 2009000   0.45711445   -9.3359139    188.20729 0.0078068398 0.0057543322         3285 
 2010000   0.44556206   -9.3489482    188.32447 0.0078078138 0.0057491133         3332 
 2011000   0.45475533   -9.3344872    188.09939 0.0077946041 0.0057438962         3293 
 2012000   0.44944978   -9.3464368    188.28044 0.0077982291 0.0057386897         3322 
Loop time of 5324.54 on 48 procs for 2000000 steps with 4000 atoms

Performance: 64907.019 tau/day, 375.619 timesteps/s
99.4% CPU use with 48 MPI tasks x no OpenMP threads

MPI task timing breakdown:
Section |  min time  |  avg time  |  max time  |%varavg| %total
---------------------------------------------------------------
Pair    | 363.39     | 404.05     | 445.26     | 113.5 |  7.59
Neigh   | 36.699     | 38.749     | 40.9       |  20.6 |  0.73
Comm    | 322.65     | 378.05     | 431.11     | 154.3 |  7.10
Output  | 6.0131     | 6.0152     | 6.0665     |   0.3 |  0.11
Modify  | 4418.6     | 4443.3     | 4466.3     |  19.1 | 83.45
Other   |            | 54.36      |            |       |  1.02

Nlocal:        83.3333 ave          95 max          73 min
Histogram: 6 5 4 6 6 8 1 0 7 5
Nghost:        2420.83 ave        2442 max        2389 min
Histogram: 1 3 1 5 5 7 10 6 5 5
Neighs:        16792.0 ave       20822 max       13625 min
Histogram: 5 14 5 0 2 5 5 2 7 3
FullNghs:      33582.7 ave       39096 max       29222 min
Histogram: 4 7 6 8 4 7 1 3 4 4

Total # of neighbors = 1611971
Ave neighs/atom = 402.99275
Neighbor list builds = 106425
Dangerous builds = 0

#clear
#
#next RN
#
#jump SELF
Total wall time: 1:28:48
