
units lj                  # Use reduced LJ style units
atom_style atomic         # Uncharged point particles
atom_modify map hash      # Needed for indexing of clusters etc
                          # Used to be able to find where atoms are in relation to each other.

lattice fcc 1.0 spacing 1 1 1
Lattice spacing in x,y,z = 1.5874011 1.5874011 1.5874011
region box block 0 10 0 10 0 10 units lattice
create_box 2 box
Created orthogonal box = (0.0000000 0.0000000 0.0000000) to (15.874011 15.874011 15.874011)
  3 by 4 by 4 MPI processor grid
create_atoms 1 box
Created 4000 atoms
  using lattice units in orthogonal box = (0.0000000 0.0000000 0.0000000) to (15.874011 15.874011 15.874011)
  create_atoms CPU = 0.002 seconds
set type 1 type/fraction 2 0.02 78393
Setting atom values ...
  77 settings made for type/fraction
mass 1 1.0
mass 2 1.0
pair_style lj/cut  3.5
pair_modify tail  yes
pair_coeff 1  1  1.0  1.0   # Intearaction between 1 and 1 set with epsilon = 1 and sigma = 1
pair_coeff 1  2  1.5  0.8
pair_coeff 2  2  0.5  0.88

write_data data.0
System init for write_data ...
Neighbor list info ...
  update every 1 steps, delay 10 steps, check yes
  max neighbors/atom: 2000, page size: 100000
  master list distance cutoff = 3.8
  ghost atom cutoff = 3.8
  binsize = 1.9, bins = 9 9 9
  1 neighbor lists, perpetual/occasional/extra = 1 0 0
  (1) pair lj/cut, perpetual
      attributes: half, newton on
      pair build: half/bin/atomonly/newton
      stencil: half/bin/3d
      bin: standard
WARNING: Not all mixed pair coeffs generated from mixing. Use write_data with 'pair ij' option to store all pair coeffs. (../write_data.cpp:312)


#############################
#   M E L T   S Y S T E M   #
#############################

velocity all create 2.4 2750902 mom yes dist gaussian # Assign velocities
                                                    # Temperature 2.4, random number seed, zero linear momentum
                                                                                # Gaussian distribution

timestep 0.002   # simulation timestep
thermo 1000       # output thermodynamic data every 1000 steps bf 100

# Define a fix  in this case with index 1 applied to all
# particles in the simulation. This fix is for simulations
# in the anisotropic NPT ensemble. Note that we use the MTK
# correction.
fix 1 all npt temp 2.4 2.4 0.1 iso 5.68 5.68 0.5 mtk yes tchain 5 pchain 5 # Use NPT ensemble
                                                                         # Set temperature and pressure and damping
                                                                         # Numbers of thermostats in chain and in barostat
run 10000          # run for 10000 steps
Per MPI rank memory allocation (min/avg/max) = 3.642 | 3.644 | 3.648 Mbytes
Step Temp E_pair E_mol TotEng Press Volume 
       0          2.4   -8.2581388            0   -4.6590388   -2.3989133         4000 
    1000    2.3682642   -4.4477559            0  -0.89624772    5.6623627    5128.4791 
    2000    2.3913623   -4.3888454            0  -0.80269873    5.4819419    5199.3714 
    3000    2.3805075   -4.4277792            0  -0.85791062    5.8264209    5133.5647 
    4000    2.4055946   -4.4015433            0  -0.79405344    5.7506489     5150.142 
    5000    2.4092945   -4.3729997            0  -0.75996144     5.616595    5181.8009 
    6000    2.3686066   -4.4402811            0  -0.88825937    5.5485758    5152.8565 
    7000    2.3939222   -4.3798081            0   -0.7898225    5.7429212     5167.486 
    8000    2.3446911   -4.3913873            0  -0.87522992    5.7529675    5154.9061 
    9000    2.3738089   -4.3859676            0  -0.82614436    5.6722977    5171.8847 
   10000    2.3823276   -4.4360814            0  -0.86348331    5.6968891    5130.5687 
Loop time of 2.06688 on 48 procs for 10000 steps with 4000 atoms

Performance: 836041.416 tau/day, 4838.203 timesteps/s
99.6% CPU use with 48 MPI tasks x no OpenMP threads

MPI task timing breakdown:
Section |  min time  |  avg time  |  max time  |%varavg| %total
---------------------------------------------------------------
Pair    | 0.83559    | 0.91521    | 1.0588     |   3.8 | 44.28
Neigh   | 0.16553    | 0.17124    | 0.19135    |   1.2 |  8.29
Comm    | 0.57288    | 0.73262    | 0.84553    |   5.6 | 35.45
Output  | 0.00024267 | 0.0002468  | 0.00030198 |   0.0 |  0.01
Modify  | 0.19649    | 0.2331     | 0.26981    |   4.9 | 11.28
Other   |            | 0.01447    |            |       |  0.70

Nlocal:        83.3333 ave          90 max          74 min
Histogram: 2 2 2 5 2 11 8 4 8 4
Nghost:        1399.29 ave        1422 max        1375 min
Histogram: 1 0 3 4 13 19 4 2 1 1
Neighs:        7423.50 ave        8593 max        6349 min
Histogram: 1 4 3 7 11 9 9 1 2 1

Total # of neighbors = 356328
Ave neighs/atom = 89.082000
Neighbor list builds = 894
Dangerous builds = 150

# Equilibrate just above the melting temperature to avoid step fn in T

fix 1 all npt temp 1.25 1.25 0.1 iso 5.68 5.68 0.5 mtk yes tchain 5 pchain 5
run 2000
Per MPI rank memory allocation (min/avg/max) = 3.642 | 3.645 | 3.648 Mbytes
Step Temp E_pair E_mol TotEng Press Volume 
   10000    2.3823276   -4.4360814            0  -0.86348331    5.6968891    5130.5687 
   11000    1.2076444   -5.9094757            0   -4.0984621    5.4865832    4290.1596 
   12000    1.2066836    -5.899303            0   -4.0897301    5.7604968    4268.9748 
Loop time of 0.441106 on 48 procs for 2000 steps with 4000 atoms

Performance: 783484.826 tau/day, 4534.056 timesteps/s
99.6% CPU use with 48 MPI tasks x no OpenMP threads

MPI task timing breakdown:
Section |  min time  |  avg time  |  max time  |%varavg| %total
---------------------------------------------------------------
Pair    | 0.19485    | 0.20772    | 0.22664    |   1.4 | 47.09
Neigh   | 0.030742   | 0.031814   | 0.033429   |   0.3 |  7.21
Comm    | 0.13223    | 0.15063    | 0.16895    |   2.1 | 34.15
Output  | 4.8657e-05 | 4.9804e-05 | 6.3968e-05 |   0.0 |  0.01
Modify  | 0.039211   | 0.046632   | 0.052412   |   1.7 | 10.57
Other   |            | 0.004257   |            |       |  0.97

Nlocal:        83.3333 ave          89 max          77 min
Histogram: 3 3 4 5 5 11 2 4 6 5
Nghost:        1574.88 ave        1595 max        1553 min
Histogram: 3 1 4 4 11 8 7 4 3 3
Neighs:        8926.62 ave        9968 max        8034 min
Histogram: 2 4 4 12 9 4 2 9 1 1

Total # of neighbors = 428478
Ave neighs/atom = 107.11950
Neighbor list builds = 143
Dangerous builds = 11

#############################
# L I N E A R  Q U E N C H  #
#############################

# Define solid atoms. This closely follows ten Wolde  Ruiz-Montero and Frenkel  Faraday Discuss  1996  104  93-110
# Compute components of the per-atom q6 vector
compute q6 all orientorder/atom degrees 1 6 components 6 nnn NULL cutoff 1.3 # compute the Q6 parameter.
                                                                             # Use all neighbours within 1.3 unit cell.

# get number of connections
compute coord_number all coord/atom orientorder q6 0.5

# An atom is solid if it has 8 or more connections (of a possible 14)
variable is_solid atom c_coord_number>=8
group solid dynamic all var is_solid    # Must be dynamic to update
dynamic group solid defined

# do clustering
compute cluster solid cluster/atom 1.3 # Create a cluster where all atoms within are solid and max 1.3 units from another member

# define chunks one chunk per cluster
compute clus_chunks solid chunk/atom c_cluster nchunk every compress yes  # Says which atoms are in which chunk

# count the size of each chunk
compute size_chunks solid property/chunk clus_chunks count


# Find the maximum entry in the vector of chunk sizes
variable max_n equal max(c_size_chunks)


# Thermo style which includes this variable
# thermo_style custom step temp pe vol v_max_n

thermo ${N}  # Print the thermo information every 100 steps
thermo 1000  

# Reset the npt fix at a lower temperature (below freezing)
fix 1  all npt temp  ${temp} ${temp}  0.1  iso  5.68  5.68  0.5  mtk yes tchain  5  pchain  5
fix 1  all npt temp  0.45 ${temp}  0.1  iso  5.68  5.68  0.5  mtk yes tchain  5  pchain  5
fix 1  all npt temp  0.45 0.45  0.1  iso  5.68  5.68  0.5  mtk yes tchain  5  pchain  5

dump dmp2 all dcd ${N} traj.dcd
dump dmp2 all dcd 1000 traj.dcd


compute msd all msd com yes
variable twopoint equal c_msd[4]/6/(step*dt+1.0e-6)
fix 9 all vector 10 c_msd[4]
variable fit equal slope(f_9)/6/(10*dt)
thermo_style custom step temp pe c_msd[4] v_twopoint v_fit v_max_n

fix 1 all npt temp 1.25 ${temp} 0.1 iso 5.68 5.68 0.5 mtk yes tchain 5 pchain 5
fix 1 all npt temp 1.25 0.45 0.1 iso 5.68 5.68 0.5 mtk yes tchain 5 pchain 5
run 5000000 # 5000000  # Run for this many steps
Neighbor list info ...
  update every 1 steps, delay 10 steps, check yes
  max neighbors/atom: 2000, page size: 100000
  master list distance cutoff = 3.8
  ghost atom cutoff = 3.8
  binsize = 1.9, bins = 9 9 9
  4 neighbor lists, perpetual/occasional/extra = 1 3 0
  (1) pair lj/cut, perpetual
      attributes: half, newton on
      pair build: half/bin/atomonly/newton
      stencil: half/bin/3d
      bin: standard
  (2) compute orientorder/atom, occasional
      attributes: full, newton on
      pair build: full/bin/atomonly
      stencil: full/bin/3d
      bin: standard
  (3) compute coord/atom, occasional
      attributes: full, newton on
      pair build: full/bin/atomonly
      stencil: full/bin/3d
      bin: standard
  (4) compute cluster/atom, occasional
      attributes: full, newton on
      pair build: full/bin/atomonly
      stencil: full/bin/3d
      bin: standard
Per MPI rank memory allocation (min/avg/max) = 9.731 | 9.738 | 9.744 Mbytes
Step Temp PotEng c_msd[4] v_twopoint v_fit v_max_n 
   12000    1.2066836    -5.899303 4.2923894e-30 2.9808258e-32 8.3333333e+20            3 
   13000    1.2746357    -5.900552   0.55258162 0.0035421897  0.045267891            5 
   14000    1.2305968   -5.9056878    1.1503674 0.0068474247   0.04708543            4 
   15000    1.2556526   -5.9358333     1.702971 0.0094609495  0.047657164            1 
   16000    1.2578858   -5.9375781    2.2439898  0.011687446  0.047351648            6 
   17000    1.2419974   -5.8661067     2.811495  0.013781838  0.046662348            4 
   18000    1.2438704   -5.9337584    3.4048137  0.015763026  0.047125083            4 
   19000    1.2511782    -5.922336    3.9822377  0.017465954  0.047293894            2 
   20000    1.2589452   -5.9652469    4.5304557  0.018876898  0.047372016            3 
   21000    1.2653084      -5.8515    5.0994196  0.020235791  0.047363846            2 
   22000    1.2337979    -5.907387    5.6394086  0.021361396  0.047292743            1 
   23000    1.2801127   -5.9416594    6.1756598  0.022375579  0.046983867            4 
   24000    1.2456593   -5.9292407    6.7890252  0.023573004   0.04701472            2 
   25000      1.22298   -5.9062136     7.347816  0.024492719   0.04701918            3 
   26000    1.2308542   -5.9361812    7.9328455  0.025425786  0.047061987            4 
   27000    1.2453583   -5.8982255    8.5506039  0.026390752  0.047187138            4 
   28000    1.2459255   -5.9164991    9.0815584  0.027028447  0.047296436            3 
   29000    1.2725697   -5.9256471    9.8438646  0.028286967  0.047421466            2 
   30000    1.2586501   -5.8848391    10.379856  0.028832933  0.047653806            2 
   31000    1.2158422   -5.8819543    10.975512  0.029504064  0.047811589            5 
   32000    1.2333207    -5.907863    11.452904  0.029825271  0.047879865            4 
   33000    1.2317256   -5.9030922    11.993276  0.030286051  0.047879841            6 
   34000    1.2551473   -5.9125822    12.587211  0.030851008  0.047865782            4 
   35000    1.2693046   -5.8986655    13.031979  0.031028521  0.047822878            5 
   36000     1.208867   -5.9430939    13.468036  0.031176008  0.047662126            4 
   37000    1.2500727   -5.9328312    13.950311  0.031419618  0.047464374            3 
   38000    1.2617036   -5.9086856     14.49172  0.031780088  0.047259693            3 
   39000    1.2465806   -5.9273353    14.901296  0.031840375   0.04703865            2 
   40000    1.2536291   -5.8688056    15.474127  0.032237764  0.046849498            3 
   41000    1.2456573   -5.8975038    16.022682  0.032566426  0.046620829            4 
   42000    1.2353544   -5.9226001    16.509528     0.032757  0.046425981            4 
   43000    1.2771877   -5.8867143    17.108059  0.033155152  0.046266902            2 
   44000    1.2487786   -5.9347748    17.634439  0.033398559  0.046173342            4 
   45000    1.2420424   -5.9185254    18.049378  0.033424774  0.046032654            2 
   46000    1.2546433   -5.9463779    18.668327  0.033819433  0.045918495            3 
   47000     1.255371   -5.9456211    19.247723  0.034127169  0.045817152            5 
   48000    1.2500202   -5.9037577    19.831612  0.034429882  0.045757675            1 
   49000     1.239643   -5.9479873    20.336369  0.034585661  0.045699788            5 
   50000    1.2473524   -5.9325064    20.866849  0.034778081  0.045649866            2 
   51000    1.2381663   -5.9051633    21.610649  0.035311517  0.045627617            2 
   52000    1.2526203   -5.9601115    22.184907  0.035552735  0.045638571            4 
   53000    1.2566858   -5.8939782    22.576739  0.035498017   0.04561915            5 
   54000    1.2655552   -5.8679419    23.181519  0.035773949  0.045644305            1 
   55000      1.23991   -5.9561693    23.636427  0.035812768  0.045644689            3 
   56000    1.2406685   -5.9053483    24.315843  0.036184289  0.045616502            2 
   57000    1.2563619   -5.8905279     24.81189  0.036274693  0.045617981            2 
   58000     1.219065   -5.8983478    25.260713  0.036294128  0.045600823            4 
   59000    1.2102476   -5.9256704    25.816575  0.036464089  0.045569699            7 
   60000    1.2280746   -5.9364535     26.20035  0.036389374  0.045532234            3 
   61000    1.2036714   -5.9267934    26.625109  0.036373099  0.045473802            2 
   62000    1.2197359   -5.9082908    27.357115  0.036770316  0.045425401            4 
   63000    1.2763027   -5.9274401    27.988142  0.037021351   0.04539594            3 
   64000    1.2675481   -5.9370322    28.425458  0.037012315   0.04537539            3 
   65000    1.2598706   -5.9426497    28.881957   0.03702815  0.045348863            6 
   66000    1.2218931   -5.9103305    29.616721  0.037394849  0.045340155            2 
   67000    1.2766495   -5.8969945    30.091811  0.037427625  0.045324601            2 
   68000    1.2300061   -5.9345929    30.513068  0.037393466   0.04529741            5 
   69000    1.2053017   -5.9169846    31.021399  0.037465457   0.04526261            3 
   70000    1.2513547   -5.9320676    31.692739  0.037729451  0.045241459            2 
   71000     1.225357   -5.9094451    32.124849  0.037705222  0.045229308            2 
   72000    1.2404251   -5.9289438    32.939581  0.038124515  0.045238826            2 
   73000     1.251736   -5.9096477    33.492959  0.038233971  0.045251059            3 
   74000    1.2239015   -5.9008891    33.923618  0.038202272  0.045246943            2 
   75000    1.2260211   -5.9210839    34.162865  0.037958739  0.045232488            3 
   76000    1.2141398   -5.9439845    34.894726  0.038261761  0.045214321            2 
   77000    1.2265258   -5.9341171    35.275114   0.03817653  0.045184651            9 
   78000    1.2358782    -5.935127    35.744677  0.038188757  0.045156689            3 
   79000    1.2384758   -5.9331305    36.426339  0.038424408  0.045129639            5 
   80000    1.2222609   -5.9481132     37.12316  0.038669958  0.045123597            2 
   81000      1.22427    -5.916129    37.864084  0.038954819   0.04513025            2 
   82000    1.2269312   -5.9397867    38.663058  0.039291725  0.045152218            8 
   83000    1.2435552   -5.9409573     39.16627  0.039323564  0.045187792            3 
   84000    1.2196898   -5.9375551    39.918896  0.039602079  0.045227385            2 
   85000    1.2374868   -5.9470011    40.311155   0.03952074  0.045273549            5 
   86000    1.2478628   -5.9684785    41.026864  0.039754713   0.04532965            4 
   87000    1.2433064   -5.9361949    41.558914  0.039807389  0.045371358            3 
   88000    1.2242891   -5.9714318    41.960564  0.039735383  0.045405822            2 
   89000    1.2304525   -5.9522465    42.439187  0.039737066  0.045433407            3 
   90000    1.2403058   -5.9211029    43.163834  0.039966513  0.045456111            8 
   91000    1.2554707   -5.9334611    43.881027   0.04018409  0.045485315            3 
   92000    1.2474722   -5.9080885    44.546177  0.040349797  0.045534749            3 
   93000    1.2664811   -5.9207763    45.037731   0.04035639  0.045586531            3 
   94000    1.2334883   -5.9136711    45.430541  0.040275302  0.045620011            4 
   95000     1.232743   -5.8890065    46.169592  0.040499642  0.045656221            4 
   96000    1.2501091   -5.9216964    46.642646  0.040488408  0.045691662            4 
   97000    1.2140207   -5.8833369    47.253996  0.040596217  0.045724712            2 
   98000    1.2315762   -5.8798755     47.93016  0.040756939  0.045757958            4 
   99000    1.2382928   -5.9433693    48.541062  0.040859479  0.045797799            3 
  100000    1.2336724   -5.8985007    49.082171  0.040901809  0.045834043            1 
  101000    1.2499211    -5.887417    49.998745   0.04125309  0.045880832            3 
  102000    1.1993191   -5.9527018    50.359823  0.041143646  0.045932198            4 
  103000    1.2476231   -5.9188503    50.865113  0.041153004  0.045979321            2 
  104000    1.2484388   -5.9462817    51.426492  0.041207125  0.046018681            3 
  105000    1.2290284   -5.9384839    52.097351  0.041347104  0.046054745            2 
  106000    1.2503708   -5.9296959    52.694604  0.041426575   0.04609302            4 
  107000    1.2394004   -5.9248076    53.352904  0.041552106  0.046131329            1 
  108000    1.2642207   -5.9230538    53.849434  0.041550489  0.046165675            3 
  109000    1.2371924   -5.9389796    54.471065  0.041644545  0.046200097           10 
  110000    1.2294785   -5.9647933     54.99451  0.041662507   0.04623797            6 
  111000    1.2372988   -5.9123322    55.573389  0.041721763  0.046269087            2 
  112000    1.2750062   -5.9360583     55.77297  0.041497746  0.046291005            3 
  113000    1.2310849   -5.9540814     56.18733  0.041436084  0.046301538            4 
  114000    1.2273273   -5.9069347    56.705109  0.041451103  0.046305239            4 
  115000    1.2492519   -5.9783699    57.291813  0.041515807  0.046306502            3 
  116000    1.2464541   -5.9348809    57.512072  0.041316143  0.046305641            3 
  117000     1.222288   -5.9116521    58.102405  0.041383479  0.046301347            2 
  118000    1.2204821   -5.9394252    58.386553  0.041233441  0.046289852            7 
  119000    1.2251428   -5.9757465    58.626362  0.041054875   0.04626813            3 
  120000    1.2462048   -5.9528662    59.021646  0.040987254   0.04623673            3 
  121000    1.2530677   -5.9122179    59.657351  0.041086329  0.046203326            5 
  122000     1.229688   -5.8957524    60.262598  0.041162977  0.046171661            2 
  123000     1.245949   -5.9140027    61.195859  0.041460609  0.046149734            3 
  124000    1.2668696   -5.9402885    61.365615  0.041240332   0.04613283            4 
  125000    1.2243806   -5.9134628    62.317272  0.041544848  0.046112668            2 
  126000    1.2438861   -5.9548947    62.314379  0.041213214  0.046090116            3 
  127000    1.2273806   -5.9381382    62.864516  0.041249682  0.046061703            3 
  128000    1.2163112   -5.9836802    63.205147  0.041149184  0.046029012            4 
  129000    1.2717904    -5.934319    63.513398  0.041029327  0.045991362            2 
  130000    1.2339127   -5.9126327    64.222677  0.041168383  0.045958617            3 
  131000    1.2284443   -5.8956989    64.935318  0.041307454  0.045931108            2 
  132000    1.2370294   -5.9261929    65.244733  0.041189856  0.045898786            2 
  133000     1.258709   -5.9422827    65.688971  0.041158503  0.045861175            2 
  134000    1.2094304   -5.9368189    66.156168  0.041141895  0.045821348            5 
  135000     1.236408   -5.9158897    66.583688  0.041101042  0.045782217            3 
  136000    1.2169012   -5.9273535    67.359225  0.041274034  0.045749771            5 
  137000    1.2038204    -5.965617    67.685394  0.041171164  0.045715835            2 
  138000      1.22949   -5.9372106    68.466215  0.041344333  0.045687504            3 
  139000    1.2208504   -5.9233293    69.157725  0.041461466  0.045661403            2 
  140000    1.2231713    -5.947571    69.649546  0.041458063  0.045640961            3 
  141000    1.2075116   -5.9171081    70.014309  0.041379615  0.045621253            5 
  142000    1.2245431   -5.9407069    70.442503  0.041339497   0.04559707            2 
  143000    1.2491441   -5.9312263    71.019607  0.041386717  0.045568196            3 
  144000    1.2515578   -5.9331589    71.361671  0.041297263  0.045539811            4 
  145000    1.2350137   -5.9607783    72.050027  0.041408061  0.045509008            4 
  146000    1.2360549   -5.9178797    72.519733  0.041392542     0.045485            2 
  147000    1.2225607     -5.93219    72.782705  0.041260037  0.045460455            3 
  148000    1.2248807   -5.9670976    73.483839  0.041376035  0.045432111            3 
  149000    1.2240648   -5.9207961    73.972775  0.041371798  0.045404294            3 
  150000    1.2166529   -5.9488701    74.484867  0.041380482  0.045377281            3 
  151000    1.2237748   -5.9478203     75.42082  0.041622969  0.045354192            3 
  152000    1.2570869   -5.9456314    75.665258  0.041483146    0.0453353            7 
  153000     1.204693   -5.9443462    76.429727  0.041628391  0.045319226            3 
  154000    1.2506522   -5.9187934    77.481089  0.041926996  0.045307913            4 
  155000    1.2153678    -5.925397    77.725231  0.041787758  0.045298901            1 
  156000     1.231106   -5.9411024    78.422593   0.04189241  0.045286208            2 
  157000    1.2305085   -5.9463592    78.466319  0.041648789  0.045275202            5 
  158000    1.2105644   -5.9664049    78.971963  0.041651879  0.045258171            4 
  159000    1.2553449   -5.9204636    79.728129  0.041786231  0.045241388            3 
  160000    1.2640173   -5.9650624    79.898786  0.041613951  0.045223865            4 
  161000    1.2051984   -5.9417373    80.880348  0.041863534  0.045205685            4 
  162000      1.20993   -5.9878062    80.980574  0.041656674  0.045191865            2 
  163000    1.2164559   -5.9226888    82.002294  0.041923463  0.045178072            3 
  164000    1.2084995   -5.9288075     82.45309  0.041896895  0.045169251            3 
  165000    1.2229163   -5.9622049     82.83971  0.041838237   0.04516085            2 
  166000    1.2534477   -5.8982638    83.641778  0.041988844   0.04514949            6 
  167000    1.2095936     -5.94733    84.080995  0.041956584  0.045141418            3 
  168000    1.2260865   -5.9516453    83.929033  0.041631465  0.045123876            2 
  169000    1.2404266    -5.947801    84.104734  0.041471762  0.045103674            2 
  170000    1.2158384   -5.9548389    84.945729  0.041640063  0.045083159            4 
  171000    1.2009137   -5.9184815    85.819635  0.041822434  0.045065669            2 
  172000    1.2048777   -5.9164479    86.318932  0.041821188  0.045048924            3 
  173000    1.2180801   -5.9701609    86.432004  0.041633913  0.045031328            3 
  174000    1.2017679   -5.9137011    87.131641  0.041729713  0.045011521            3 
  175000    1.2167998   -5.9770251    87.020146  0.041438165  0.044989572            2 
  176000    1.2491463   -5.9667457      87.9866  0.041660322  0.044966256            3 
  177000     1.219943    -5.944118    88.123268  0.041489297  0.044945995            2 
  178000    1.2458397   -5.9172092     88.92399  0.041631082  0.044923162            4 
  179000     1.235105   -5.9428631    89.706637  0.041762866  0.044902736            2 
  180000    1.2042022   -5.9619758    89.952676  0.041644757   0.04488225            4 
  181000    1.2141106   -5.9564249    90.779981  0.041795571  0.044860888            1 
  182000    1.2333914   -5.9806345    91.206703  0.041761311  0.044842254            3 
  183000    1.2170315   -5.9685999    91.829981  0.041816931  0.044825786            4 
  184000    1.2428483   -5.9391821    92.651449  0.041961707  0.044813078            3 
  185000    1.2256727   -5.9290636    92.976929  0.041881499  0.044802047            2 
  186000    1.1867554   -5.9880868    93.347848  0.041822513  0.044791307            5 
  187000    1.2141586   -5.9562835    94.235647  0.041994495  0.044780252            4 
  188000     1.224612     -5.94806    95.034558  0.042125247  0.044773187            3 
  189000    1.2253911   -5.9725168    95.557971  0.042133144  0.044769531            3 
  190000    1.2365723    -5.958013    96.247529  0.042213828  0.044763384            2 
  191000    1.2180101   -5.9803889    96.337354  0.042032004  0.044757539            4 
  192000     1.232172   -5.9597017    97.301438  0.042231527  0.044753875            2 
  193000    1.2140732   -5.9378561    97.600349  0.042141774  0.044750625            2 
  194000    1.2315784   -5.9357971    98.178779  0.042173015  0.044745224            4 
  195000    1.2199459   -5.9627274    99.074372  0.042339475  0.044742374            2 
  196000    1.2055983   -5.9528819    99.405842  0.042264388  0.044742097            3 
  197000    1.2202753   -5.9535772    99.817884  0.042224147  0.044740979            5 
  198000    1.2489656   -5.9764929    100.40595  0.042258397  0.044737592            2 
  199000    1.2392798   -5.9311241    101.06294  0.042321163  0.044735158            4 
  200000    1.1954696   -5.9417751    101.51103  0.042296263  0.044731871            4 
  201000    1.2224351    -5.953846    101.90155  0.042247741  0.044728389            3 
  202000    1.2116714   -5.9631654     102.4661  0.042271494  0.044723088            3 
  203000    1.2293065   -5.9160593    103.28384  0.042398951  0.044720476            2 
  204000     1.209177   -5.9506039    103.66713  0.042347683  0.044719681            4 
  205000    1.2026729   -5.9744944    104.23889  0.042373532  0.044716765            3 
  206000    1.2167701   -5.9696435    104.16753  0.042138969  0.044713536            5 
  207000    1.2401995   -5.9744966    105.10623  0.042313297  0.044708379            3 
  208000     1.221713   -5.9341872    105.54957  0.042287487   0.04470397            2 
  209000    1.2456681   -5.9557097    106.00252  0.042265757  0.044699581            4 
  210000    1.2353457   -5.9719201     106.9203  0.042428692  0.044694545            4 
  211000    1.2163747   -5.9232561    107.02451  0.042268765  0.044689771            2 
  212000     1.221121   -5.9804435     107.6648  0.042321067  0.044689644            5 
  213000    1.2244012   -5.9451449    108.89593  0.042604042  0.044687894            3 
  214000    1.2024578   -5.9955792    108.27223  0.042162082  0.044682214            2 
  215000    1.1861697   -5.9863978    109.18643  0.042320322   0.04467735            6 
  216000    1.2268386   -5.9427229    109.74248  0.042338922  0.044672566            3 
  217000    1.1980381   -5.9347168    110.18643  0.042314297  0.044667366            5 
  218000    1.2309437   -5.9355478    111.35797  0.042568033  0.044666006            2 
  219000    1.2392767   -5.9805459    111.56181  0.042451222  0.044661815            2 
  220000    1.2005039   -5.9880072    111.74414  0.042327324  0.044655773            4 
  221000    1.2048751    -5.930403    113.06881  0.042635298  0.044652022            5 
  222000    1.1861504   -5.9638363    112.96546  0.042404452  0.044650216            3 
  223000     1.211112   -5.9128187     113.5447  0.042430753   0.04464722            1 
  224000     1.199787   -5.9595627    113.93657  0.042387118  0.044643668            3 
  225000    1.2323724   -5.9482929    114.99627  0.042591209  0.044639833            2 
  226000     1.212012   -5.9790448    115.05209  0.042423338  0.044635182            3 
  227000    1.2288523   -5.9904823    115.00697  0.042219885  0.044626696            3 
  228000    1.2409756   -5.9911273    115.50988  0.042218523  0.044617945            2 
  229000    1.2361166   -5.9543536       116.35  0.042339882  0.044610126            2 
  230000    1.2165968   -6.0108705    116.74534  0.042299036  0.044601672            4 
  231000    1.1740708   -5.9543714    117.41737  0.042358357  0.044590818            3 
  232000    1.2154116   -5.9925358    117.29857  0.042133108  0.044581025            6 
  233000     1.214657   -5.9695006    118.02663  0.042212673  0.044569359            2 
  234000    1.2352502   -5.9586135    118.39363  0.042162972   0.04455888            2 
  235000     1.210509   -5.9775316    119.07272   0.04222437   0.04454698            2 
  236000    1.2285237   -5.9671526    119.30504  0.042127485  0.044535275            2 
  237000    1.2057672    -5.990524    119.91412  0.042163897  0.044523293            5 
  238000    1.2028635   -5.9783704     119.8046   0.04194839  0.044508758            5 
  239000    1.2004557   -5.9636646    120.90025  0.042154898  0.044494797            3 
  240000    1.2144192   -5.9707858    121.11272  0.042053028  0.044482342            3 
  241000    1.2114844   -5.9826228    121.42756  0.041987401  0.044466532            4 
  242000    1.1844799   -5.9754344    122.20105   0.04208025  0.044451192            3 
  243000    1.1890399   -5.9683585    122.69995  0.042078173  0.044434339            1 
  244000    1.2164719   -5.9287662    123.36007  0.042131171   0.04441864            2 
  245000    1.2198982   -5.9792686    123.41887  0.041979207  0.044402476            2 
  246000    1.2198138   -5.9753226    124.00293  0.042006413  0.044386712            5 
  247000    1.2060831   -5.9637932    124.28159  0.041930359  0.044370928            6 
  248000    1.2002039   -5.9357659    125.20317  0.042070958   0.04435417            3 
  249000    1.2218819    -5.995626    125.07812  0.041860149  0.044337985            4 
  250000    1.2143089   -5.9660707    125.93208   0.04197736  0.044320985            3 
  251000    1.2223808   -5.9850181    126.41182  0.041969396  0.044305971            4 
  252000    1.1922141   -5.9743892    127.13645  0.042042478  0.044290591            1 
  253000    1.2207888   -5.9457047     127.7656   0.04208353  0.044276256            2 
  254000    1.2093675   -5.9657969    128.16788   0.04204983  0.044261872            7 
  255000    1.2117598   -6.0250658    128.25486  0.041913352  0.044247633            4 
  256000    1.2069124   -5.9594809    128.75936  0.041913853  0.044234083            3 
  257000    1.2234219   -5.9640671    129.63433  0.042034477  0.044218911            4 
  258000    1.2131443   -5.9755063    129.82807  0.041934129  0.044204138            3 
  259000    1.2320437   -5.9980563    130.57985  0.042014108  0.044189809            4 
  260000    1.1836005   -5.9447869    131.76612  0.042232729  0.044176734            1 
  261000    1.2001672   -5.9930092    131.95584  0.042131493   0.04416405            2 
  262000     1.234172   -5.9611851    132.46864   0.04213379  0.044152814            5 
  263000    1.1972868    -5.999739    132.69907    0.0420466  0.044140226            2 
  264000    1.1918581   -5.9853912    132.81555  0.041924099  0.044125376            3 
  265000    1.1950296   -5.9820469    132.75827  0.041747884  0.044109078            7 
  266000    1.2180981   -5.9594619    133.76148  0.041905225  0.044094108            3 
  267000    1.1902458   -5.9984386    134.55272  0.041995229  0.044081107            2 
  268000    1.1728971   -6.0001341    135.07521  0.042000998  0.044068721            2 
  269000    1.1958558   -5.9234928    135.79147  0.042066751  0.044057724            4 
  270000    1.2007099   -5.9747915    136.45624  0.042116124  0.044049169            3 
  271000      1.22585   -5.9952861    137.64333  0.042325748   0.04404243            2 
  272000     1.197149   -6.0223803    137.90976  0.042251766   0.04403611            3 
  273000    1.2160685   -6.0315467    137.70818  0.042035463  0.044028156            4 
  274000    1.2274222   -5.9974039    138.93774  0.042256004  0.044020416            5 
  275000    1.1939361   -5.9890859    139.91377  0.042398111  0.044014654            3 
  276000    1.2074771   -5.9492938    140.31937  0.042366959  0.044010243            4 
  277000    1.2376445   -5.9607874    140.49604   0.04226716  0.044006926            3 
  278000    1.1933503   -5.9575202    141.35737  0.042373312  0.044000898            2 
  279000     1.201841   -5.9660908    142.42745  0.042541054   0.04399709            2 
  280000    1.2267622   -6.0306971    142.38002  0.042375007  0.043994418            4 
  281000    1.2125977   -5.9952028     142.8545  0.042364917   0.04398889            2 
  282000    1.1941027   -5.9573308    143.57449   0.04242745  0.043986186            3 
  283000    1.2184162   -6.0150049    143.87245  0.042365267  0.043982112            2 
  284000    1.1915307   -5.9558135    144.52483   0.04240752  0.043976282            5 
  285000    1.1967693   -5.9844831    144.73007  0.042318733  0.043971349            1 
  286000    1.2007872     -5.98573    145.16885  0.042298614  0.043965622            5 
  287000    1.2171437   -5.9776938    145.27968  0.042183413   0.04395977            3 
  288000    1.2153922   -5.9924719    146.45747  0.042377741   0.04395298            3 
  289000    1.1889168   -5.9709977    146.76819    0.0423207  0.043946533            7 
  290000    1.1860465   -6.0052459    146.61939  0.042132007   0.04394001            4 
  291000    1.2011116   -5.9681186    147.68771  0.042293157  0.043932001            3 
  292000    1.2048963   -5.9596923     147.9755  0.042230452  0.043922889            3 
  293000    1.2278694   -5.9727928    147.92414  0.042071712  0.043912889            4 
  294000    1.2115288   -5.9809732      148.823  0.042183389  0.043901576            3 
  295000    1.2202847   -6.0253869    149.12501   0.04212571  0.043892196            3 
  296000    1.2254855   -5.9615977    149.48654  0.042085175  0.043883188            3 
  297000    1.1768303   -5.9345421    150.29208  0.042169495  0.043875361            5 
  298000    1.1802746   -5.9958022    150.36323  0.042047883  0.043865411            6 
  299000    1.1962669   -5.9693794     150.8728  0.042049275  0.043854875            7 
  300000    1.2146882   -5.9505469    151.63114   0.04211976  0.043844628            3 
  301000    1.2116989   -6.0048062    151.32693  0.041895607  0.043833482            4 
  302000    1.2048715   -5.9690076    152.67447  0.042128717   0.04382101            2 
  303000    1.1864573   -5.9811165    153.33334  0.042170884  0.043812402            6 
  304000     1.191606   -5.9945923    154.05542  0.042230104  0.043803139            2 
  305000    1.2540205   -5.9748741    154.59841  0.042240002  0.043795833            4 
  306000    1.1949569   -5.9774365    155.16937  0.042257453  0.043789762            6 
  307000    1.2370916   -5.9469093    155.95793  0.042333858  0.043785639            1 
  308000    1.1894119   -5.9720797     156.7601  0.042413446  0.043782168            4 
  309000    1.1912665   -5.9759622    157.36253  0.042438655  0.043779399            2 
  310000    1.1835693   -5.9960389    157.65068  0.042379216  0.043777434            7 
  311000    1.2070368   -5.9808889    158.54178   0.04248172  0.043775651            3 
  312000    1.2141875   -5.9671879    158.77025  0.042406585  0.043772367            3 
  313000    1.2004634   -5.9783396    159.44739  0.042451381  0.043769368            2 
  314000    1.2268741   -5.9875285    160.09029  0.042486808  0.043766508            4 
  315000    1.1871957   -6.0176163    160.62682  0.042493868  0.043764645           10 
  316000    1.1957367   -6.0220678    160.47048  0.042318164  0.043763401            3 
  317000    1.1825165   -5.9789774    161.47283  0.042448167  0.043762086            2 
  318000     1.197576   -5.9862892    161.96039   0.04244245  0.043759959            2 
  319000    1.2001493   -5.9852959    162.74475  0.042514302  0.043757916            3 
  320000    1.2200664   -5.9671973    163.70043  0.042630319  0.043757372            6 
  321000     1.205077   -5.9785864    163.57428  0.042464767  0.043755109            5 
  322000    1.1997827   -6.0013388    164.08876  0.042466036   0.04375283            5 
  323000    1.2067484   -5.9733161    164.60013  0.042466494  0.043751361            3 
  324000    1.1748173   -6.0137408    165.43423  0.042549957  0.043750611            5 
  325000    1.1720029   -6.0152071    165.56713  0.042453111  0.043748633            3 
  326000    1.1949008   -6.0349902    166.35735  0.042524884  0.043748042            8 
  327000     1.217817   -5.9857268    166.91849  0.042537842  0.043747693            2 
  328000    1.1951823   -5.9895977    168.03419  0.042691613   0.04374739            3 
  329000     1.195516   -5.9847663    168.58222  0.042700665  0.043749304            3 
  330000     1.201294   -5.9737011    169.43208  0.042785879  0.043752489            2 
  331000    1.1764319   -5.9971936    169.39172  0.042646456  0.043754281            6 
  332000    1.2055323    -6.004426     169.4992  0.042544979  0.043754254            3 
  333000    1.1887284   -6.0206361     170.1378  0.042577026  0.043754565            6 
  334000    1.2033807   -5.9938146     170.6537  0.042578269  0.043754765            4 
  335000    1.2023211   -5.9702821     171.5284  0.042668757  0.043754097            8 
  336000     1.179014   -5.9938453     170.9314  0.042393699  0.043752793            4 
  337000    1.1674004   -5.9835097    171.66369  0.042448984  0.043750954            2 
  338000    1.1954383   -5.9649322    172.59326  0.042552578  0.043750333            2 
  339000    1.2009194   -5.9872103    173.41839   0.04262989  0.043750505            4 
  340000    1.1837575   -5.9302279    174.58561  0.042790589  0.043751601            4 
  341000    1.2042939   -6.0060751     174.5529  0.042657112  0.043752612            4 
  342000    1.2078407   -6.0112028    174.93633  0.042625812  0.043752187            4 
  343000    1.2062326   -5.9838402     175.0637  0.042532483  0.043752094            5 
  344000    1.2062029   -5.9798253    176.14799   0.04267151  0.043751384            3 
  345000    1.2029205   -5.9825504    176.36021  0.042599084  0.043749863            4 
  346000    1.1960428   -5.9835054    176.41277  0.042488624  0.043746438            9 
  347000    1.2078389   -5.9914172    177.15486  0.042544394  0.043742499            1 
  348000    1.2047968   -5.9506973     177.0234  0.042390662  0.043738625            3 
  349000    1.2080411    -6.033645    176.90097  0.042239964  0.043733774            1 
  350000    1.2178516   -6.0182119    178.39453  0.042474889  0.043728819            6 
  351000    1.1818465   -5.9973092     178.2256  0.042313769  0.043724137            3 
  352000    1.2211822   -6.0491578    178.76672  0.042321667  0.043719832            3 
  353000    1.1815001   -5.9961514    180.14468  0.042527073   0.04371381            3 
  354000     1.200721   -6.0175844     179.5351  0.042263442   0.04370691            3 
  355000    1.1948459   -5.9790752    180.47971  0.042366128   0.04369926            2 
  356000    1.1839323   -6.0040099    179.70406  0.042065556  0.043691494            3 
  357000    1.2143224   -5.9640192    181.01181   0.04225299  0.043683923            3 
  358000    1.1928604   -6.0038595    181.58366  0.042268078  0.043676147            2 
  359000    1.1913749   -5.9744003    181.92447  0.042229449  0.043668229            2 
  360000    1.1754718   -5.9772474    182.67928  0.042286871  0.043659926            3 
  361000    1.2068346   -5.9749941    183.29964  0.042312935  0.043651906            4 
  362000    1.1939646   -5.9969739    183.30382  0.042197012  0.043644973            5 
  363000    1.1832691   -6.0394677    183.73667  0.042180134  0.043638524            2 
  364000    1.1978358   -6.0177902    183.49277  0.042008418   0.04362965            4 
  365000    1.1766162    -5.964018    184.94302  0.042224433  0.043621978            3 
  366000    1.1968021   -6.0031112    184.87199  0.042092893  0.043613806            2 
  367000    1.2052966   -6.0110549    185.70549  0.042167459  0.043607966            5 
  368000    1.2025044   -6.0064045     186.9823  0.042342007  0.043601885            3 
  369000     1.191266   -6.0086032    187.15602   0.04226649  0.043595021            4 
  370000    1.1682754   -5.9979261    187.78273  0.042293407   0.04358898            5 
  371000    1.1736377    -6.012727    188.09195  0.042248866  0.043582514            5 
  372000    1.2117366   -6.0097026    189.49217  0.042448963  0.043577622            3 
  373000    1.1817443   -6.0209759    189.39568  0.042313601  0.043572303            4 
  374000    1.2025514   -6.0035505    190.33835  0.042410506  0.043566839            6 
  375000    1.1912727   -5.9964641    190.03883   0.04223085  0.043562443            5 
  376000    1.2044106   -6.0053991    190.79954  0.042287131  0.043557841            2 
  377000    1.2021958   -6.0146699     191.5207  0.042334372  0.043553108            4 
  378000    1.2138854   -6.0310112    191.58099  0.042235667  0.043548138            8 
  379000    1.1888878   -6.0289812    192.61224  0.042350977  0.043543025            2 
  380000    1.2092151   -6.0032667    192.33012  0.042177657  0.043537081            3 
  381000    1.1611959   -6.0077841    192.81305  0.042172584  0.043529309            2 
  382000    1.1977601   -5.9887712    193.81123  0.042279936  0.043522125            4 
  383000    1.2011322   -6.0290152    193.98004  0.042206275  0.043515464            3 
  384000    1.1564061   -5.9889825    195.46684   0.04241902  0.043510243            4 
  385000    1.1745264   -6.0213424    195.59578  0.042336748  0.043504786            2 
  386000    1.1944265   -5.9962311    195.68355  0.042246017  0.043499124            3 
  387000    1.1732124   -6.0117463    196.19751  0.042247527   0.04349361            3 
  388000     1.221133   -5.9775512    196.78445  0.042264702  0.043487003            4 
  389000    1.1930562   -5.9807432    196.89117  0.042178913  0.043480775            2 
  390000    1.1663603   -6.0182776    197.57563  0.042217015  0.043474539            2 
  391000    1.2090519   -5.9610335    198.74173  0.042357571  0.043468317            3 
  392000    1.1843209   -5.9736456    198.73229   0.04224751   0.04346239            3 
  393000    1.1758283   -6.0254941    199.35998  0.042273109  0.043456825            4 
  394000    1.1958681   -5.9866544    199.79606  0.042258049  0.043451997            2 
  395000    1.1875001    -5.999292    201.01464  0.042408152   0.04344688            6 
  396000    1.1964266   -6.0100921    200.96728  0.042291094  0.043441651            2 
  397000    1.2015664   -5.9821957    202.46295   0.04249852  0.043436984            2 
  398000    1.1792428   -6.0264073    201.90445    0.0422748   0.04343281            2 
  399000    1.1736097   -6.0395512     202.5416  0.042301922  0.043428251            4 
  400000    1.1703301   -5.9843705    203.06386  0.042304971  0.043424107            4 
  401000    1.1707008   -6.0071438    203.71812  0.042335437  0.043420034            6 
  402000    1.2049632   -5.9732001    204.50426  0.042393089  0.043415564            4 
  403000    1.1783495   -6.0103552    204.94276  0.042378568  0.043412159            3 
  404000    1.2091938   -6.0116565    204.83415  0.042251269  0.043408598            6 
  405000    1.2272363   -6.0332367    204.96733  0.042174349  0.043404308            3 
  406000    1.2165428   -6.0215819     206.1318  0.042309484  0.043399567            3 
  407000     1.204092   -5.9996508    207.04113  0.042391715  0.043395756            3 
  408000    1.1791897   -5.9967161    207.31258  0.042343255  0.043391835            5 
  409000     1.182831   -6.0321404    208.39802  0.042460883  0.043387662            2 
  410000    1.1990041    -6.006812    207.39727  0.042153916  0.043382901            5 
  411000    1.2046456    -5.990449    209.42504  0.042462497  0.043378834            2 
  412000    1.2037049   -6.0112354    209.12642  0.042299033  0.043374483            9 
  413000    1.1744135   -6.0162953    209.28341  0.042228291  0.043370104            4 
  414000     1.171252   -6.0172933    210.40352  0.042351755  0.043365973            3 
  415000    1.1779652   -6.0226912    210.16895  0.042202599  0.043362159            6 
  416000    1.1765797   -6.0113296    211.94398  0.042456727  0.043358278            6 
  417000    1.1759317   -5.9892146    212.89005  0.042543974  0.043356226            4 
  418000    1.1859917   -6.0337491    212.87948  0.042440088  0.043354425            3 
  419000    1.1876929    -5.967528    212.96426   0.04235566  0.043351492            5 
  420000    1.2087266   -6.0516312    213.76238  0.042413171   0.04334882            9 
  421000    1.1981785   -6.0398089    213.67843  0.042295809   0.04334702            9 
  422000    1.1982556   -6.0125675    215.43142   0.04254175  0.043345338            7 
  423000    1.1686441   -6.0451351    214.83805   0.04232428  0.043343223            3 
  424000    1.1956081    -6.010124    214.77209  0.042211496  0.043340326            2 
  425000    1.1725606   -6.0056061    215.73127   0.04230025  0.043337395            6 
  426000    1.1743249   -6.0282455    216.36454  0.042324831  0.043333012            3 
  427000    1.1901148   -6.0341309    216.38483  0.042229671  0.043329678            3 
  428000    1.1946264   -6.0287809    216.22439  0.042099765  0.043325418            7 
  429000    1.1927054   -6.0080343    217.39309  0.042228649  0.043320292            2 
  430000    1.1896073   -5.9995047    217.61244  0.042172953  0.043315485            2 
  431000    1.1816851   -6.0057537      218.831  0.042310712   0.04331135           12 
  432000    1.2075931   -6.0322363    218.88935  0.042224026  0.043306403            3 
  433000    1.1744792   -6.0320946     219.2967  0.042204907  0.043300583            5 
  434000    1.1988623   -6.0572531    219.15537  0.042080523  0.043293923            3 
  435000     1.180107   -6.0388956    220.13555  0.042171562  0.043286834            4 
  436000    1.2013768   -6.0036106    220.55706  0.042155402  0.043280096            4 
  437000    1.1743405   -6.0019591    220.50073  0.042048195  0.043272876            3 
  438000    1.1950145   -6.0161677     221.8156  0.042202359  0.043266668            4 
  439000    1.1940825   -6.0330255    222.09853  0.042159934  0.043260346            3 
  440000    1.1732873    -6.042227    223.16124  0.042265387  0.043254691            2 
  441000    1.1914963   -5.9850698    223.43682  0.042221621  0.043249035            3 
  442000    1.2109796   -5.9845164    224.23424  0.042276441  0.043243657            2 
  443000    1.1766158   -6.0199685    223.86208  0.042111001  0.043237876            2 
  444000    1.1973326   -6.0108396    224.63314  0.042160875  0.043231786            2 
  445000    1.1601886   -6.0286097    224.75581  0.042089103   0.04322496            3 
  446000    1.1848034    -6.037106     225.0637  0.042052261  0.043217136            6 
  447000    1.1608239   -6.0193786    225.55556   0.04204988  0.043209868            3 
  448000    1.1730478   -5.9983495    225.66003  0.041975452  0.043202064            6 
  449000    1.1900775   -6.0515841    225.67615  0.041884958   0.04319429            3 
  450000    1.1989296   -6.0146255    226.54881  0.041953483  0.043185894           11 
  451000    1.1578946   -6.0390886     226.8019  0.041907225  0.043177803            8 
  452000    1.1951249   -6.0131698    227.14389   0.04187756  0.043168913            3 
  453000    1.2257583   -6.0617391    227.95515  0.041934355  0.043159975            5 
  454000     1.177873   -6.0437637    228.64384  0.041968399  0.043151185            3 
  455000    1.1942936   -6.0387493    228.23755  0.041801749  0.043142552            4 
  456000    1.1940328   -6.0037043    229.02155  0.041853353    0.0431333            2 
  457000    1.1837179   -6.0634289    229.41748  0.041833968  0.043123157            3 
  458000    1.1688808   -6.0488998    229.53422  0.041763869    0.0431134            2 
  459000    1.1927161   -6.0058421    229.74503  0.041711152  0.043103899            5 
  460000    1.1842859   -6.0185767     231.5136  0.041940869  0.043095023            2 
  461000    1.1846837   -6.0259528    231.73167  0.041889311  0.043086205            4 
  462000     1.183833   -6.0149944    232.46849  0.041931545  0.043078313            5 
  463000    1.1673552    -6.036783    233.08529  0.041951996  0.043069842            2 
  464000    1.1925881   -6.0042534    233.38563  0.041915523  0.043061563            3 
  465000    1.1733165   -6.0168406    233.23598  0.041798563  0.043052261            3 
  466000    1.1531599   -6.0151485    233.80896  0.041811331  0.043042164            2 
  467000    1.1591066   -6.0296097    233.77422  0.041715599  0.043031601            4 
  468000    1.1867387   -6.0480269    233.24225   0.04153174  0.043021068            4 
  469000    1.1902383   -6.0153305    234.30587  0.041632173   0.04300973            4 
  470000    1.1682664   -6.0388134     233.9568  0.041481703  0.042998227            5 
  471000    1.1677748   -6.0585872    234.26773  0.041448643  0.042986248            4 
  472000     1.139649   -5.9927887    234.93061  0.041477862  0.042974131            6 
  473000    1.1648243   -6.0140861    234.89854  0.041384521  0.042961604            3 
  474000    1.2235169   -6.0255001    235.00918  0.041316664  0.042948269            3 
  475000    1.1545369    -6.037172    235.61781  0.041336458  0.042934733            5 
  476000    1.2015671    -6.014272    235.71668  0.041266925  0.042920644            5 
  477000    1.1685432   -6.0505141    236.65533  0.041344397  0.042906972            8 
  478000    1.1688178   -6.0601448    237.66894  0.041434613  0.042893361            5 
  479000    1.1723915   -6.0253025    237.93606  0.041394582  0.042880119            8 
  480000    1.2057674    -6.053496    238.78055  0.041454956  0.042867121            2 
  481000    1.1681632   -6.0466808     238.0807  0.041247523  0.042854208            3 
  482000     1.200617   -6.0455024    238.85114  0.041295149  0.042841162            5 
  483000    1.1639436   -6.0434393    239.80064  0.041373471  0.042828993            3 
  484000    1.1818982   -6.0749932    240.02476  0.041326578  0.042816634            7 
  485000    1.1753275    -6.023389    241.09001  0.041424399  0.042804391            3 
  486000    1.2066803   -6.0242663    241.32958  0.041380244  0.042792156            3 
  487000    1.1672158    -6.037507    242.00856  0.041411458  0.042779904            2 
  488000    1.1744891   -6.0172347    241.35692  0.041215321  0.042767494            3 
  489000    1.2060589   -6.0665326     242.0005  0.041240712  0.042754233            5 
  490000    1.1966253   -6.0146991    242.84051  0.041299406  0.042740879            4 
  491000    1.1555254   -6.0411121    241.96061  0.041065955  0.042726625           10 
  492000    1.1659797   -6.0362252    242.92588  0.041145982  0.042712511            4 
  493000    1.1761479   -6.0393995    243.33292  0.041131324  0.042697731            4 
  494000    1.1758059   -5.9964167    243.81015  0.041128568   0.04268322            4 
  495000    1.1927767   -6.0693401    243.46361   0.04098714  0.042668631            4 
  496000    1.1691583   -6.0199477    244.97638  0.041158667  0.042654733            5 
  497000    1.1674939   -6.0728992    244.61479  0.041015223  0.042640492            3 
  498000    1.1926648   -6.0519747    245.28181   0.04104448  0.042626416            3 
  499000    1.1596616   -6.0364861    246.40576  0.041149927  0.042613199            6 
  500000    1.1523526   -6.0197524    246.36682  0.041061137  0.042600171            3 
  501000    1.1672629   -6.0350834    246.50776  0.041002622  0.042586105            8 
  502000    1.1694067   -6.0683981    247.25908  0.041045663  0.042572696            2 
  503000    1.2001245   -6.0476022    248.44574  0.041160659  0.042559384            6 
  504000    1.1510812   -6.0483449    248.58936  0.041102739  0.042546095            4 
  505000    1.1699814   -6.0193139    249.61837  0.041191151  0.042534231            4 
  506000    1.1798968   -6.0592799    250.47213  0.041250351  0.042522127            3 
  507000    1.1577036    -6.028056    250.94346  0.041246459  0.042510579            4 
  508000    1.1892426   -6.0613213    250.79585  0.041141052  0.042499055            3 
  509000    1.1560443   -6.0375936    251.37493  0.041155031  0.042487627            6 
  510000    1.1816817   -6.0522577    252.00273  0.041176916  0.042476114            2 
  511000    1.1514855    -6.033842    253.15552  0.041284331  0.042465216            7 
  512000    1.1706585   -6.0221877    253.52333  0.041263563  0.042454317            2 
  513000    1.1971483   -6.0348732    253.61067  0.041197315   0.04244266            9 
  514000    1.1535843   -6.0404431    254.07294  0.041192111  0.042430543            3 
  515000    1.1633705   -6.0589097    253.73534  0.041057498   0.04241894            6 
  516000    1.1579514   -6.0220914    253.96185  0.041014511  0.042407572            3 
  517000    1.1625151   -6.0398935    255.12949  0.041123387  0.042395945            3 
  518000     1.189689   -6.0067461    255.54893  0.041111475   0.04238451            5 
  519000    1.1913355   -6.0377146    255.23193  0.040981363  0.042372922            2 
  520000    1.1611896    -6.035806    256.36994  0.041084926  0.042360583            2 
  521000    1.1561246   -6.0413447    256.70703  0.041059985  0.042349123            5 
  522000     1.172291   -6.0171789    257.71833  0.041142774  0.042337509            8 
  523000    1.1766519   -6.0371561    258.01619  0.041111567  0.042326679            2 
  524000    1.1546131   -6.0455483    258.73961  0.041148156  0.042316355            2 
  525000    1.2057494   -6.1215002    259.25926  0.041152264  0.042304751            5 
  526000    1.1414094   -6.0268113    259.55591  0.041121025  0.042294278            3 
  527000    1.1732987   -6.0155384    260.19262  0.041143678  0.042283905            8 
  528000    1.1710738   -6.0282364    261.03062  0.041198015  0.042273683            3 
  529000    1.1599355   -6.0406054    260.37049  0.041016145  0.042261833            1 
  530000    1.1940114    -6.081026    260.76822  0.041001293  0.042250062            6 
  531000    1.1596683     -6.05646    261.68447  0.041067871  0.042238324            2 
  532000    1.1858901   -6.1021728    260.83327  0.040857341  0.042226606            2 
  533000    1.1363227   -6.0470815       261.53  0.040889619  0.042213855            4 
  534000    1.1533157   -6.0430827    261.96885  0.040881531  0.042201287            7 
  535000    1.1598602   -6.0602344    261.70874  0.040764601    0.0421889            5 
  536000    1.1614862    -6.021162    262.38768  0.040794104  0.042176498            3 
  537000    1.1700536   -6.0583748    262.61128  0.040752837  0.042163455            3 
  538000    1.1537262   -6.0460025     263.5522  0.040822832  0.042149935            9 
  539000    1.1843122   -6.0299923    263.94125  0.040807243  0.042136685            4 
  540000    1.1716703   -6.0336398     264.6286  0.040837746  0.042123352            6 
  541000    1.1294087   -6.0311924    265.25373  0.040858553  0.042110646            4 
  542000    1.1865016    -6.056363    265.54091  0.040827324  0.042098156            5 
  543000     1.176052   -6.0382648    266.69592  0.040929393  0.042085414            3 
  544000    1.1449646   -6.0556802    267.09019  0.040914551   0.04207346            4 
  545000    1.1756092   -6.0555435     267.2425  0.040862768  0.042061882            4 
  546000     1.169757   -6.0380661    268.00681  0.040904581  0.042050547            3 
  547000    1.1572325   -6.0445014    267.33848  0.040727983  0.042038001            4 
  548000    1.1891822   -6.0747305    268.36065  0.040809101  0.042025471           12 
  549000    1.1668051   -6.0189955    268.62345  0.040774658  0.042012495            4 
  550000    1.1622201    -6.081593    268.21053   0.04063796  0.041999578            3 
  551000    1.1800988   -6.0774085    269.66736  0.040784537  0.041986862            3 
  552000    1.1480815   -6.0420952    270.61187  0.040853241  0.041974841            2 
  553000    1.1480731   -6.0819033    270.55244   0.04077041  0.041962534           10 
  554000    1.2055445   -6.0906987    270.79813  0.040733774  0.041949445            3 
  555000    1.1568917   -6.0367023    270.97577  0.040687053  0.041937054            9 
  556000    1.1458188   -6.0393458    271.79193  0.040736201  0.041925236            3 
  557000    1.1548984   -6.0425623    272.30097  0.040739223   0.04191306            2 
  558000    1.1823586   -6.0572552    271.58337  0.040559046  0.041900036            3 
  559000    1.1541889   -6.0053824    272.30443  0.040593982  0.041887019            3 
  560000    1.1575263   -6.0289538    272.59741   0.04056509   0.04187346            4 
  561000    1.1686975    -6.044929     273.3611  0.040606224  0.041859543            3 
  562000       1.1493   -6.0202579     272.9073  0.040466682  0.041845603            3 
  563000    1.1517842   -6.0436403      273.499  0.040482387  0.041831498            2 
  564000    1.1670817   -6.0385438    273.79473  0.040454304  0.041817437            4 
  565000    1.1708266   -6.0561001    274.22809  0.040446621  0.041802798            6 
  566000    1.1919652   -6.0684048    274.35885  0.040394413  0.041788515            6 
  567000    1.1490261   -6.0488878    274.88153   0.04039999  0.041774198            3 
  568000    1.1941867   -6.1080937    274.85547   0.04032504  0.041759412            3 
  569000    1.1389119   -6.0583455    275.16261  0.040299151  0.041744769            3 
  570000    1.1294291   -6.0869761     275.5874  0.040290555  0.041730004            5 
  571000    1.1558429   -6.0489148    275.26821   0.04017341  0.041714836            4 
  572000    1.1725713   -6.0380358    276.72197  0.040314972  0.041699867            4 
  573000    1.1455753    -6.074669    276.70531  0.040242192  0.041685089            2 
  574000    1.1748927   -6.0709338    277.96015  0.040354261   0.04167097            4 
  575000    1.1884461   -6.0548606    278.05711  0.040298132  0.041656275            2 
  576000    1.1734701   -6.0553567    279.06113  0.040373427  0.041641712            3 
  577000    1.1479047   -6.0530284    277.13531  0.040025319  0.041627003            3 
  578000    1.1480426   -6.0524504    279.62509  0.040315036  0.041612434            3 
  579000    1.1250279   -6.0568662    279.25109  0.040191578  0.041598215            6 
  580000    1.1441684   -6.0583975     279.6955  0.040186135   0.04158366            6 
  581000    1.1578418    -6.029692    281.24183  0.040338759   0.04156979            4 
  582000    1.1659429   -6.0510586    282.54202  0.040455616  0.041556511            6 
  583000    1.1866592   -6.0713518    281.92083  0.040297432  0.041543506            3 
  584000    1.1554777   -6.0469978    283.57365  0.040464276  0.041531445            3 
  585000    1.1723533    -6.074734    283.07737  0.040324412  0.041518812            3 
  586000    1.1321967   -6.0635229    283.19975  0.040273002  0.041506214            4 
  587000    1.1786202   -6.0550416    285.17556   0.04048489  0.041493999            3 
  588000    1.1444529    -6.072273    284.59628  0.040333939  0.041481489            4 
  589000     1.144626   -6.0590147    284.44808  0.040244494  0.041468584           10 
  590000    1.1571748   -6.0749403     284.8694  0.040235791  0.041456104            5 
  591000    1.1330156   -6.0709581    284.62475  0.040133214  0.041443435            3 
  592000    1.1888887   -6.0597097    286.09643  0.040272583  0.041430879            3 
  593000    1.1354449   -6.0377593     286.6376  0.040280719  0.041418594            3 
  594000    1.1475811   -6.0675084    287.88657  0.040388126  0.041406573            2 
  595000    1.1447839   -6.0588452    288.18338  0.040361818   0.04139447            6 
  596000    1.1400211   -6.0529065    287.86458  0.040249521  0.041382631            4 
  597000    1.1725931   -6.0636337    288.36549  0.040252022  0.041370749            3 
  598000    1.1619721    -6.048891    290.17834  0.040437338  0.041358873            4 
  599000    1.1439419   -6.0715325    290.61776  0.040430962  0.041347994            2 
  600000    1.1715629    -6.084004    290.07147  0.040287705  0.041337239            4 
  601000    1.1390852   -6.0620789    291.45243   0.04041215  0.041326799            2 
  602000    1.1507626   -6.0851856    292.08029  0.040431934  0.041316934            4 
  603000    1.1540401    -6.046635    292.63124  0.040441022  0.041306898            7 
  604000     1.135341   -6.0650864    293.85188  0.040542478   0.04129703            3 
  605000    1.1434068   -6.0756258    293.47736  0.040423878  0.041287842            3 
  606000    1.1487849   -6.0455452    294.35281  0.040477559  0.041278906            3 
  607000    1.1209512   -6.0730495    295.69351  0.040594935  0.041270242            3 
  608000     1.141957   -6.1126688    295.61595  0.040517536  0.041261603            3 
  609000    1.1392732   -6.1029211    296.38306  0.040555974  0.041253005            6 
  610000    1.1512652   -6.0361227    297.18724   0.04059935  0.041244894            5 
  611000    1.1585801   -6.0531536    297.86006  0.040624667  0.041236779            3 
  612000    1.1488765   -6.0671058    297.53814  0.040514452  0.041228988            3 
  613000    1.1536251   -6.0611915    298.36877   0.04056128  0.041221487            3 
  614000    1.1444642   -6.0437867    299.79531  0.040688831  0.041214239            5 
  615000    1.1657238   -6.0557607    299.46062   0.04057732  0.041207469            2 
  616000    1.1501027   -6.0516107    299.45049  0.040510077  0.041199997            2 
  617000    1.1655641   -6.0320266    300.89475  0.040639485  0.041192835            4 
  618000    1.1438195    -6.064535    301.31415  0.040630279  0.041186042            5 
  619000    1.1788747   -6.0796023    301.83771  0.040635125  0.041179213            4 
  620000    1.1450645    -6.057654    301.78876  0.040563005  0.041172417            4 
  621000    1.1747422   -6.0296067    302.94384   0.04065269  0.041165685            2 
  622000    1.1247418   -6.0704513     303.8013   0.04070221  0.041158795            3 
  623000    1.1423602   -6.0869414     302.7621  0.040497873  0.041151512            7 
  624000    1.1487006   -6.0779507    302.69702  0.040424281  0.041144077            3 
  625000    1.1573847   -6.0591903    303.52947  0.040470595  0.041136609            4 
  626000    1.1665371   -6.0885811    304.49953  0.040535081  0.041128685            6 
  627000    1.1664385   -6.0885235    303.87616   0.04038758  0.041121071            3 
  628000    1.1688046   -6.0917534    304.33221  0.040383786  0.041112964            3 
  629000    1.1355796   -6.0502464    304.27485  0.040311984  0.041104936            3 
  630000     1.136944   -6.1116314    307.14452  0.040627582  0.041097225            3 
  631000    1.1630059   -6.0908659     305.8502  0.040392261  0.041089651            3 
  632000    1.1673712   -6.0617211    306.80826  0.040454676  0.041082786            3 
  633000    1.1621546   -6.1021084    307.11417  0.040431038  0.041075799            7 
  634000    1.1633371   -6.0509982    308.17327  0.040506476  0.041068605            6 
  635000    1.1519792   -6.0726203    308.71705  0.040514048  0.041061217            5 
  636000    1.1500349   -6.0832631    308.84176  0.040466687  0.041054087            4 
  637000    1.1464612   -6.0413181     309.7306   0.04051944  0.041046584            2 
  638000    1.1668024   -6.0778053    309.64529  0.040444787   0.04103906            6 
  639000    1.1297172   -6.0693702     309.5794    0.0403729  0.041031339            3 
  640000    1.1459052   -6.0556861    310.95115  0.040488431  0.041023627            5 
  641000    1.1411605   -6.0843104    309.25716  0.040205039  0.041015513            4 
  642000    1.1655108   -6.0756506     310.9177  0.040357957  0.041007289            3 
  643000     1.142276   -6.1045298    310.09915  0.040189107  0.040999213            4 
  644000    1.1351556   -6.0886551    311.19254  0.040268186  0.040990687            7 
  645000    1.1601654   -6.0804103    311.91551  0.040299161  0.040982311            3 
  646000    1.1460508   -6.0658261    311.59495  0.040195426  0.040973696            3 
  647000    1.1403568   -6.0682187    312.35853   0.04023165  0.040964488            4 
  648000    1.1479621   -6.0532269    312.71686  0.040215646  0.040955226            5 
  649000    1.1434454    -6.094258    312.55808  0.040133293  0.040945479            6 
  650000    1.1595106   -6.0188427    313.34098   0.04017192  0.040935556            3 
  651000     1.113925   -6.0590116    313.36819  0.040113695   0.04092563            4 
  652000    1.1401485   -6.1299283    313.42122   0.04005895  0.040915879            3 
  653000     1.136999   -6.0900719    313.79795   0.04004568  0.040905984            2 
  654000    1.1526743   -6.0666495    314.28501   0.04004651  0.040895934            6 
  655000    1.1634081   -6.0747711    314.34008  0.039992377  0.040885852            5 
  656000    1.1549455   -6.0883396    315.30409  0.040053873  0.040875542            4 
  657000     1.153547   -6.0379762    315.44495  0.040010775  0.040865356            3 
  658000    1.1225527   -6.0952172    315.41055  0.039945612  0.040854449            1 
  659000    1.1316736   -6.0954924     315.3362  0.039875595  0.040843602            4 
  660000    1.1565553   -6.0967769    315.65999  0.039856059  0.040832502            4 
  661000     1.123476   -6.1027759    317.01559  0.039966665  0.040821308            7 
  662000     1.163212    -6.089476    317.58306  0.039977727  0.040810675            3 
  663000    1.1338178   -6.0822401    317.85765  0.039951942  0.040800301            5 
  664000    1.1367321   -6.1315137     317.3949  0.039833697  0.040789143            3 
  665000    1.1458815   -6.1151577    318.48002  0.039909777  0.040778386            4 
  666000    1.1302871   -6.1212184    319.08611   0.03992569  0.040767637            2 
  667000    1.1256154   -6.0493387    319.16647   0.03987587   0.04075668            3 
  668000    1.1447056    -6.068185    320.59138  0.039993935  0.040746304            5 
  669000    1.1654857   -6.0675607    319.94157   0.03985321  0.040736226            6 
  670000    1.1513321    -6.053393    321.81734  0.040027032    0.0407268            2 
  671000    1.1405595   -6.1077217    320.86276  0.039848828  0.040717315            3 
  672000    1.1346491   -6.0988459     322.0517  0.039936966  0.040707594            5 
  673000    1.1506889   -6.0669025    322.76167  0.039965537  0.040698031            5 
  674000    1.1478553   -6.0902732    324.19523  0.040083485  0.040688726            3 
  675000    1.1425327   -6.0656702    324.73486  0.040090723  0.040679977            5 
  676000    1.1371796   -6.0628831    325.50232  0.040126026  0.040671886            4 
  677000    1.1577607   -6.1044703    325.55189  0.040072857  0.040664054            2 
  678000    1.1465816   -6.1644573    324.97428  0.039942758  0.040656089            4 
  679000     1.134778   -6.0811578    326.28384  0.040044654  0.040648091            4 
  680000    1.1401499   -6.0935669    327.01637  0.040075536  0.040639967            2 
  681000    1.1310842   -6.0854287    327.45071  0.040069837  0.040631916            3 
  682000     1.152319   -6.0612963    328.05655  0.040085112  0.040624206            3 
  683000    1.1465089   -6.0714925    328.11441  0.040033481   0.04061618            5 
  684000    1.1290903   -6.0630845    328.41918  0.040012083  0.040607983            4 
  685000    1.1606525   -6.0847997    328.83453    0.0400042  0.040600119            4 
  686000    1.1531415   -6.0894673    328.78103  0.039939386  0.040592047            2 
  687000    1.1090856   -6.0948914    328.95951    0.0399029  0.040583279            3 
  688000    1.1463866    -6.098674    328.77868  0.039822999  0.040574821            2 
  689000     1.114214   -6.0832344     330.5251  0.039976428  0.040566776            2 
  690000    1.1486509   -6.0649322    331.69232  0.040059459  0.040558569            7 
  691000    1.1262264   -6.0728129    331.25891  0.039949218  0.040550451           11 
  692000    1.1452406   -6.0519765    332.04858  0.039986583  0.040542319            3 
  693000    1.1491255   -6.0813452    333.10392  0.040055787  0.040534627            3 
  694000    1.1483696   -6.0755509    331.94895  0.039859384  0.040526159            5 
  695000    1.1228443   -6.0973121    333.07306  0.039936818  0.040517675            3 
  696000    1.1768728   -6.1165426    332.73937  0.039839483  0.040509383            3 
  697000    1.1288425   -6.0814944    334.24446  0.039962274  0.040500955            5 
  698000    1.1236075   -6.0508707    334.18367  0.039897764   0.04049263            4 
  699000    1.1507978   -6.0543421     333.2296  0.039726944  0.040484222            4 
  700000     1.146342   -6.0900902    334.04747  0.039767556  0.040475334            4 
  701000    1.1247326   -6.1174741    334.97925  0.039821594  0.040466628            3 
  702000    1.1391021   -6.0448638    335.91254  0.039875658  0.040458137            6 
  703000    1.1405317   -6.0985993    335.46002  0.039765294  0.040449888            3 
  704000    1.1318472   -6.1214479    336.05379  0.039779094  0.040441053            8 
  705000    1.1098957   -6.0817009    336.45586  0.039770197  0.040432546            4 
  706000      1.13435   -6.0751133    336.06104  0.039667262  0.040423685            4 
  707000    1.1485879   -6.1297838    337.04473  0.039727102  0.040414651            3 
  708000    1.1135925   -6.0895151    338.42074  0.039832949  0.040406271            4 
  709000    1.1336854   -6.0620919    338.32025  0.039764957   0.04039744            3 
  710000    1.1356133   -6.1374579    338.41482  0.039720049  0.040388469            4 
  711000     1.124923   -6.1003637    338.47844  0.039671641  0.040379653            6 
  712000     1.141077   -6.0756673    339.36792  0.039720028  0.040371107            2 
  713000    1.1196366   -6.1071056    339.50766  0.039680652   0.04036252            5 
  714000    1.1569534   -6.1189789      339.432  0.039616246  0.040353638            3 
  715000    1.1218308   -6.0943082    340.36516    0.0396696  0.040344389            5 
  716000     1.129125   -6.1060192    339.80706  0.039549238  0.040334936            4 
  717000    1.1419623   -6.1068845     340.5208  0.039577033  0.040325429            5 
  718000    1.1412249   -6.1145042     339.8383    0.0394427  0.040315184            5 
  719000    1.1282363   -6.1299344     340.1532   0.03942434  0.040304897            3 
  720000    1.1447934   -6.1263255    341.21961   0.03949301  0.040294797            4 
  721000    1.1237277    -6.104616     342.4427  0.039579601   0.04028501            2 
  722000    1.1319421   -6.1041174    342.56832   0.03953928  0.040275617            3 
  723000     1.144865   -6.1090402    343.05724  0.039540946  0.040266222            3 
  724000    1.1225579    -6.134054    344.05798  0.039601517  0.040256741            6 
  725000    1.1462866   -6.1468467    343.66008  0.039501159  0.040247575            4 
  726000    1.1485307   -6.0742597    345.39793  0.039646227  0.040238517            5 
  727000    1.1598241   -6.1257016    344.28596  0.039464232  0.040229213            4 
  728000     1.165133   -6.0796085    346.24763  0.039634573  0.040220404            3 
  729000    1.1454947   -6.0838733    345.31435   0.03947352  0.040211662            9 
  730000    1.1416673   -6.1163333    345.79868  0.039474735  0.040202848            7 
  731000    1.1477462   -6.0654064    347.03239  0.039561376  0.040193959            3 
  732000    1.1123604    -6.090432    347.46581  0.039556672  0.040185244            5 
  733000    1.1352468   -6.0865797    348.63883  0.039636066  0.040176414            4 
  734000    1.1478594   -6.0819431    348.57095  0.039574359  0.040168007            8 
  735000    1.1334108   -6.1007082    349.39627   0.03961409  0.040159638            4 
  736000    1.1035417   -6.0804279     350.7397  0.039712376  0.040151407            5 
  737000    1.1396866   -6.1044475    349.84631  0.039557475  0.040143267            5 
  738000    1.1326032   -6.1036337    350.92036  0.039625154  0.040135022            3 
  739000    1.1457334   -6.1121616    350.02788  0.039470893  0.040126748            7 
  740000    1.1433223   -6.1031355    352.00944  0.039640703  0.040118438            3 
  741000    1.1170726   -6.1235761    352.50052  0.039642434  0.040110385            4 
  742000    1.1351074   -6.0884255    351.61447  0.039489496  0.040102222            4 
  743000    1.1165095   -6.0855695    353.16849  0.039610642  0.040094176            4 
  744000    1.1254499   -6.1029331    353.61518  0.039607435  0.040086399            6 
  745000    1.1270315   -6.0916464    353.89899  0.039586017  0.040079003            6 
  746000    1.1452799   -6.1284486    353.54751   0.03949369  0.040071189            4 
  747000    1.1442233   -6.1246638    354.69848  0.039569219  0.040063254            4 
  748000    1.1374216   -6.0927102    355.67997  0.039625666  0.040055709            2 
  749000    1.0917248   -6.0863583    355.77195  0.039582994  0.040048307            3 
  750000    1.1249704   -6.1197815    357.07733  0.039675259  0.040041024            3 
  751000    1.1311845   -6.0929462     356.1778  0.039522614   0.04003358            2 
  752000    1.1493018   -6.0843941    357.97733  0.039669473  0.040026042            6 
  753000    1.1168577   -6.1025965    358.45823  0.039670012  0.040018479            2 
  754000    1.1152401   -6.1144293     357.5502  0.039517043  0.040011271            3 
  755000    1.1357248   -6.0903695     358.5427   0.03957425  0.040003735            5 
  756000    1.1152242   -6.1252738    359.43037   0.03961975  0.039996554           12 
  757000    1.1176056   -6.1458389    358.54276  0.039469701  0.039989232            2 
  758000    1.1330296   -6.0903126    359.44694  0.039517034  0.039981951            7 
  759000    1.1144741   -6.1264676    360.34299   0.03956335  0.039974984            3 
  760000    1.1511303   -6.1254527    361.15859  0.039600723  0.039967824            5 
  761000    1.1232668    -6.077365    361.32718  0.039567146  0.039961086            9 
  762000    1.1032567    -6.100512    361.89589  0.039577416  0.039954481            3 
  763000    1.1009631   -6.0924002    363.41211  0.039691144   0.03994799            5 
  764000    1.1153492   -6.1480087    362.71945   0.03956364   0.03994131            3 
  765000    1.1427323   -6.1306535    363.15223  0.039559066  0.039934929            2 
  766000    1.0943598   -6.1133448    363.40195   0.03953459  0.039928345            2 
  767000    1.1149974   -6.1061978     364.4041  0.039591927  0.039921654            2 
  768000    1.1287658   -6.0959768    365.38693  0.039647019  0.039915154            3 
  769000    1.1414997   -6.1201478    364.81551   0.03953354  0.039908433            3 
  770000    1.1104901   -6.1286649    365.21175  0.039525081  0.039901302            7 
  771000     1.136115   -6.1117163    366.55149  0.039618622  0.039894488            5 
  772000     1.108724   -6.1458565    366.98426  0.039614018  0.039888247            3 
  773000    1.1152439   -6.1538212    367.06922  0.039571929   0.03988182            7 
  774000    1.1442019    -6.112612    367.38833  0.039555161  0.039875414            5 
  775000    1.1299189   -6.0907795    366.64425  0.039424113  0.039868532            6 
  776000    1.1385456   -6.1239873    367.60405  0.039476379  0.039861695            4 
  777000    1.1436397   -6.0888862    368.26757  0.039496737  0.039854682            3 
  778000     1.131736   -6.1130941    368.01363  0.039418769  0.039847649            4 
  779000    1.1176203   -6.1239756    368.69225  0.039440763  0.039840298            3 
  780000     1.146269   -6.0923771    370.20118  0.039551408  0.039833178            6 
  781000    1.1158188    -6.121775    369.80625  0.039458627  0.039825902            4 
  782000    1.1152643   -6.1298308    370.42414  0.039474013  0.039818724            2 
  783000    1.1254247   -6.1289602    369.68263  0.039344681  0.039810978            8 
  784000    1.1145042   -6.1426597    369.69643  0.039295964  0.039802876            3 
  785000     1.113518    -6.134607    369.54315  0.039229634  0.039794769            4 
  786000    1.1003978   -6.1099149    370.42603  0.039273328  0.039787005            3 
  787000    1.1298647   -6.1511149    370.27258  0.039207177  0.039778392            4 
  788000    1.1282982   -6.1377143    370.75048  0.039207961  0.039770011            4 
  789000    1.1304392      -6.1318    371.45405  0.039232578  0.039761464            9 
  790000    1.1349654   -6.0770427    373.19447  0.039366505  0.039752952            3 
  791000    1.1187161   -6.1465598    371.53914  0.039142345  0.039744406            4 
  792000    1.1431127   -6.1252364    371.77943  0.039118206  0.039735796            5 
  793000    1.1212925      -6.1036     371.9219  0.039083848  0.039727063            3 
  794000    1.1260047    -6.100343    372.83071  0.039130007  0.039718374            3 
  795000    1.1098693   -6.1052193    374.21805  0.039226211  0.039709507            4 
  796000     1.100324   -6.1196775    372.80715  0.039029224  0.039700692            4 
  797000    1.1273261   -6.1508605    373.75125  0.039078968  0.039691671            2 
  798000    1.1344177   -6.1265631    373.66804  0.039021307  0.039682307            4 
  799000    1.1375469   -6.1048442    373.52198  0.038957236  0.039672852            7 
  800000    1.1239414   -6.1333249    373.44701   0.03890073  0.039663342            3 
  801000    1.0913998   -6.1019753    374.49821  0.038961528  0.039653586            4 
  802000    1.1488968    -6.091008    373.27052  0.038785382  0.039643581            6 
  803000    1.1196876   -6.1242777     375.0803  0.038924896  0.039633647            6 
  804000    1.1227003   -6.1116341      375.594  0.038929726   0.03962339            6 
  805000    1.1448676   -6.1240237    375.13004  0.038833338  0.039613195            2 
  806000    1.1070853   -6.1482575      375.952  0.038870141  0.039602775            9 
  807000    1.1119496   -6.1315688    375.87282  0.038813798  0.039592676            7 
  808000     1.123302   -6.1319732    376.59029  0.038839757  0.039582516            3 
  809000    1.1270041     -6.10565     377.8103  0.038917418  0.039572554            2 
  810000    1.1338108   -6.0945446    378.13265  0.038902536  0.039562934            3 
  811000    1.1234319   -6.1282502    379.15337   0.03895945  0.039553789            6 
  812000     1.137007   -6.1309116    380.21968  0.039020903  0.039544719            1 
  813000    1.1301358   -6.1301875    379.76295  0.038926092   0.03953582            2 
  814000    1.1285199   -6.1297415    380.55831  0.038959696  0.039526696            5 
  815000    1.1093248   -6.1275225    380.19097  0.038874333  0.039517492            4 
  816000    1.0965685   -6.1416213    379.99881  0.038807068  0.039507875            7 
  817000    1.1184366     -6.12022    381.53452  0.038916209  0.039498318            3 
  818000    1.1289369   -6.1160143    380.36584  0.038749576  0.039489018            5 
  819000    1.1309605   -6.0978271    381.77567  0.038845714  0.039479441            3 
  820000    1.1208796   -6.1470557    382.47602  0.038869514  0.039470087            5 
  821000    1.1231017   -6.1140758    382.60668  0.038835433  0.039460502            5 
  822000    1.1416009   -6.1492793    383.05943  0.038834087  0.039450907            5 
  823000    1.1144953   -6.0990982    383.80239  0.038862129  0.039441443            6 
  824000    1.1149795    -6.148125     383.0945  0.038743376   0.03943185            2 
  825000    1.0824673   -6.1424518    383.92695    0.0387805   0.03942213            4 
  826000    1.1228889   -6.1254194    384.75979  0.038817573  0.039412554            2 
  827000     1.128747   -6.1077042    383.93936  0.038687964  0.039403009            3 
  828000    1.1291248   -6.1073193    385.55249  0.038803592   0.03939377            6 
  829000    1.1182181   -6.1282615    385.70931  0.038772548   0.03938421            2 
  830000    1.1574911   -6.1466663    384.92931  0.038647521  0.039374581            2 
  831000     1.100725   -6.1324903    385.44329  0.038652556   0.03936493            8 
  832000    1.1344698   -6.1219903    387.50348  0.038812448  0.039355518            4 
  833000    1.1333842   -6.1094307    387.18939  0.038734433  0.039346382            5 
  834000    1.1074692   -6.1337575    387.46414  0.038715441  0.039337349            4 
  835000    1.0915334    -6.156934    388.27291  0.038749792  0.039328089            3 
  836000    1.1285089    -6.163455     388.2492  0.038701077  0.039318797            4 
  837000    1.1548081   -6.1344205     388.9963  0.038729221  0.039309719            4 
  838000     1.120363   -6.1488507    388.78202  0.038661697  0.039300581            6 
  839000    1.1025631   -6.1063887    390.92698  0.038828663  0.039291906            5 
  840000    1.1245573   -6.1046072    391.14267  0.038803836  0.039283552            3 
  841000    1.1400227    -6.146267    390.10563  0.038654937  0.039275134            1 
  842000    1.1250963   -6.0892929    391.12512  0.038709929  0.039266673            3 
  843000    1.1045016   -6.1295587    392.47549  0.038797498   0.03925877            4 
  844000    1.1069336   -6.1385964    392.00733  0.038705305  0.039250443            4 
  845000    1.1049565    -6.142688    393.68137  0.038824592  0.039242241            5 
  846000    1.1430718   -6.1133469    394.29336  0.038838984  0.039234267            4 
  847000    1.1097835   -6.1362773    394.50588  0.038814038  0.039226298            4 
  848000    1.1287639   -6.1651281    394.71578  0.038788894  0.039217966            6 
  849000    1.1157689   -6.1469419    395.84811  0.038854349  0.039209473            3 
  850000    1.1039906   -6.1508823    395.19691  0.038744795  0.039201006            3 
  851000    1.1157197   -6.1024223    396.14738   0.03879234  0.039193022            5 
  852000     1.124272   -6.1680526    395.66951  0.038700069  0.039184437            6 
  853000    1.0920469   -6.1220177    396.27132  0.038713493  0.039176321            4 
  854000     1.107645    -6.123743    397.52552  0.038790546  0.039168132            2 
  855000    1.1017313   -6.1648291     396.1994  0.038615926  0.039160049            4 
  856000    1.1024082   -6.0980761    397.96268  0.038742473  0.039152193            7 
  857000    1.1361789   -6.1397521    398.70192  0.038769148  0.039144204            5 
  858000    1.1045428   -6.1230282    398.80884  0.038734347   0.03913625            5 
  859000     1.136284   -6.1278633    399.88417  0.038793575  0.039127991            5 
  860000    1.1273036    -6.164923     398.8818  0.038651337  0.039119761            3 
  861000    1.1210713    -6.108199    400.29486  0.038743211  0.039111513            3 
  862000    1.1235006   -6.1129016    400.28692  0.038697498  0.039103416            5 
  863000    1.1003092   -6.0983469    399.40621  0.038567614  0.039095065            4 
  864000    1.1255887   -6.1338631    401.17649  0.038693721  0.039086263            6 
  865000    1.1030799    -6.138226    400.26586  0.038561258  0.039077607            5 
  866000    1.0665857   -6.1349838    400.41961  0.038531525   0.03906886            3 
  867000    1.1149938   -6.1399235     399.8845   0.03843565  0.039059925            3 
  868000    1.0919737   -6.1198943    401.37962  0.038534909  0.039051109            6 
  869000    1.1074367   -6.1499116    402.26128  0.038575113  0.039042507            2 
  870000    1.1335938    -6.150506    400.70949  0.038382135  0.039033251            9 
  871000    1.1078244   -6.1020095    401.50434  0.038414116  0.039024133            3 
  872000    1.0954267   -6.1604429    402.09731  0.038426731  0.039014937            3 
  873000    1.0948819   -6.1362208    402.86208  0.038455716   0.03900578            8 
  874000    1.1152026    -6.116361    403.54639  0.038476963  0.038996575            3 
  875000    1.1254735   -6.1412598      404.122  0.038487809  0.038988035           12 
  876000    1.1137797   -6.1397082     403.6954  0.038403291  0.038979219            7 
  877000    1.1113124   -6.1129304     405.4378  0.038525066  0.038970649            6 
  878000    1.1237207   -6.1357719    404.12321  0.038356417  0.038961819            4 
  879000    1.0988591   -6.1240524    405.30164  0.038424501  0.038952945            3 
  880000    1.0965223   -6.1210726    406.04577  0.038451304  0.038944085            3 
  881000    1.1141845    -6.154227    405.38448  0.038345108  0.038934869            4 
  882000    1.0970766   -6.1355985    405.93824  0.038353953  0.038925647            4 
  883000    1.1249533   -6.1537735     406.1033  0.038326095  0.038916496            3 
  884000    1.0878106   -6.1479991    407.66609  0.038430062  0.038907117            5 
  885000     1.101843   -6.1447359    405.98306   0.03822816  0.038898129            5 
  886000    1.0910756   -6.1455513    407.59361  0.038336495  0.038889081            3 
  887000    1.1288171   -6.1698432     407.5623  0.038290332  0.038879893            6 
  888000    1.1124742    -6.167781    410.60249  0.038532515  0.038870923            3 
  889000    1.1097644    -6.146832    408.43458  0.038285956  0.038862299            7 
  890000     1.096065   -6.1449954    409.81153  0.038371866  0.038854119            8 
  891000    1.1273915   -6.1647963    409.86618  0.038333911  0.038845678            6 
  892000    1.1092439   -6.1265354     411.4545  0.038439322  0.038837293            8 
  893000    1.1099238   -6.1381004    411.20284  0.038372792  0.038829183            3 
  894000    1.1042469   -6.1470518    412.97911  0.038495443  0.038821316            8 
  895000     1.103319   -6.1438292    413.15663   0.03846896  0.038813458            4 
  896000    1.1054444   -6.1421254    411.80003  0.038299854  0.038805508            4 
  897000    1.0985632   -6.1411631    413.46302  0.038411651  0.038797539            9 
  898000    1.0929938   -6.1212848    414.54472  0.038469258  0.038789709            3 
  899000    1.1043566   -6.1518537    414.38465  0.038411629  0.038781919            3 
  900000    1.0969625   -6.1613102    414.45477  0.038375442  0.038773925            3 
  901000    1.1153664   -6.1459414    414.86225  0.038370537  0.038765818            5 
  902000    1.1138527   -6.1634456    414.24386  0.038270867  0.038757938            3 
  903000     1.114441    -6.164154    415.25585  0.038321876  0.038749629            4 
  904000    1.1007479   -6.1557621     415.5178  0.038303632  0.038741264            2 
  905000    1.0949833   -6.1440642    416.27477   0.03833101  0.038733157            3 
  906000    1.0951049   -6.1268363    417.48834  0.038400326  0.038724944            7 
  907000    1.1079165   -6.1463575    415.71622  0.038195169  0.038716506            3 
  908000    1.1095175   -6.1419044    416.64147  0.038238021  0.038708057            6 
  909000    1.1164735   -6.1509475    416.20941  0.038156345  0.038699367            5 
  910000    1.0853012   -6.1634779    418.42681  0.038317474  0.038690695            2 
  911000    1.0838352   -6.1314146     416.8814  0.038134046  0.038682369            7 
  912000    1.1024297   -6.1812539    418.20933  0.038213572  0.038673773            5 
  913000     1.094123   -6.1615284    418.75814  0.038221809  0.038665007            3 
  914000    1.1201734   -6.1505842    420.19615  0.038311101  0.038656332            4 
  915000    1.0995021   -6.1222263    419.97292    0.0382489  0.038647891            6 
  916000    1.1244871   -6.1399017    419.20444   0.03813723  0.038639306            3 
  917000    1.0952799    -6.143636    421.27724  0.038284009   0.03863079            6 
  918000    1.1000785   -6.1778505    419.98871  0.038125337  0.038622335            4 
  919000    1.1071413   -6.1768901    420.86453  0.038163269   0.03861354            4 
  920000    1.1458319   -6.1679547    421.59838  0.038188259  0.038604833            5 
  921000    1.1033049    -6.160992    420.67604   0.03806334  0.038595837            4 
  922000    1.0997652   -6.1346013    420.71962  0.038025996  0.038586707            9 
  923000    1.0954463   -6.1884701    420.78885  0.037991048  0.038577806            4 
  924000    1.1208579   -6.1332533    422.81896  0.038133023  0.038568899            4 
  925000     1.120897   -6.1635958    421.46117  0.037969474  0.038559765            3 
  926000    1.0958317   -6.1490695    421.49994   0.03793196  0.038550531            6 
  927000    1.0957928   -6.1728396    422.65873  0.037995211  0.038541252            4 
  928000    1.1168454   -6.1743151    422.82591  0.037969281  0.038531795            4 
  929000    1.0802164   -6.1806723    422.69036   0.03791625  0.038522423            4 
  930000    1.1345291   -6.1559222    422.20165  0.037831689  0.038512802            4 
  931000    1.1105721   -6.1731707    423.72827    0.0379277  0.038503102            4 
  932000    1.1231368   -6.1692735    423.66379   0.03788124  0.038493812            3 
  933000    1.0926978   -6.1471525    425.42309  0.037997775  0.038484399            4 
  934000    1.0792296   -6.1719357     425.1871  0.037936037  0.038475524            6 
  935000    1.0972193   -6.1502885    425.52088  0.037925212  0.038466426            3 
  936000      1.08097    -6.150447    424.91862  0.037831074  0.038457303            3 
  937000     1.071299   -6.1489995    427.44912  0.038015753   0.03844832            3 
  938000    1.0852892    -6.137202    426.70021   0.03790869  0.038439588            3 
  939000    1.1102377   -6.1380452    428.25243  0.038006073  0.038430929            3 
  940000    1.1185284   -6.1613485    426.82519  0.037839113  0.038422032            5 
  941000    1.1250636    -6.161097    427.57288  0.037865116  0.038412999            6 
  942000    1.0950046   -6.1602512    428.83885  0.037936911  0.038403918            3 
  943000    1.1160935   -6.1653695    429.06463  0.037916634  0.038395006            3 
  944000    1.1064593   -6.1593555    428.80463  0.037853516  0.038386498            2 
  945000    1.1122478   -6.1476751    428.04849  0.037746781  0.038377617            3 
  946000    1.0862569   -6.1624809    430.04193  0.037882481  0.038368795            4 
  947000    1.1023967    -6.160702    430.88918  0.037917035  0.038359846            5 
  948000    1.1013068   -6.1618813    430.23738  0.037819742  0.038350812            3 
  949000    1.0784849   -6.1515799    430.95187   0.03784263  0.038341908            5 
  950000    1.1004202   -6.1642208    431.26609  0.037830359  0.038332545            2 
  951000    1.1137127   -6.1605126    430.39286   0.03771406   0.03832324            6 
  952000    1.1015481   -6.1687152    431.51971  0.037773084  0.038313691            3 
  953000    1.1097141   -6.1326892    432.05438  0.037780201  0.038304585            7 
  954000     1.084497   -6.1648583    432.58502  0.037786951  0.038295622            4 
  955000    1.1053284   -6.1571473    433.35167  0.037814282  0.038286598            4 
  956000    1.0961379   -6.1737267    432.55336  0.037705139  0.038277447            2 
  957000     1.103739   -6.1491037    432.86229  0.037692641   0.03826812            6 
  958000    1.0887825   -6.2063309     432.2973  0.037604149  0.038258579            8 
  959000    1.0881523   -6.1722634    434.82981  0.037785003  0.038248832            9 
  960000    1.0931304   -6.1487175    435.08333   0.03776765  0.038239202            7 
  961000    1.1008195   -6.1870988    434.02354   0.03763645  0.038229745            5 
  962000    1.0904978   -6.1134637    436.13781  0.037780475  0.038220027            4 
  963000    1.0951044   -6.1592161    434.94205  0.037637768  0.038210343            3 
  964000    1.0743572   -6.1804267    435.93775  0.037684799  0.038200545            4 
  965000    1.0693324   -6.1521262    434.90855  0.037556869  0.038190496            9 
  966000    1.1180832   -6.1674251    436.14976  0.037625065  0.038180727            5 
  967000    1.1031948    -6.198099     435.9862  0.037572062  0.038171096            5 
  968000    1.0977472   -6.1775128    436.21292  0.037552765   0.03816135            6 
  969000    1.0886064   -6.1967406    436.94856  0.037577275  0.038151829            3 
  970000    1.0926237   -6.1504158    437.13893  0.037554891  0.038142498            7 
  971000    1.1048167   -6.1625932    439.48501   0.03771756  0.038133202            6 
  972000    1.1356559   -6.1952508      439.279  0.037661094  0.038124003            3 
  973000    1.0847755   -6.1800131    437.69783  0.037486967  0.038114663           15 
  974000    1.0906703   -6.2001065    440.00038  0.037645481  0.038105599            3 
  975000    1.0871684    -6.167354    441.53854  0.037738337  0.038096757            6 
  976000    1.1032885   -6.1767594    440.57598  0.037617485  0.038087825            5 
  977000    1.0899397   -6.1920549    439.72012  0.037505981  0.038078886            3 
  978000     1.103039   -6.1944817    440.21092  0.037509451  0.038069995            5 
  979000    1.0858683   -6.1823443    440.99105  0.037537542   0.03806113            2 
  980000    1.1019003   -6.2154759    441.91381  0.037577705  0.038052001            6 
  981000    1.1205564   -6.1560496    444.00152  0.037716745  0.038043014            4 
  982000    1.0901847   -6.1656976    442.49658  0.037550626  0.038034146            5 
  983000    1.0923431   -6.1449023    444.00252  0.037640091  0.038025218            6 
  984000    1.0981629   -6.1847198      442.909  0.037509231  0.038016172            3 
  985000     1.108597   -6.1387844    444.62893  0.037616661  0.038007199            3 
  986000    1.1007181   -6.1639643    444.30007  0.037550716   0.03799869            2 
  987000    1.1224438   -6.1694242    443.53538  0.037448107  0.037990013            2 
  988000    1.0805519   -6.1467508    445.25805  0.037555504  0.037981438            6 
  989000    1.1058267   -6.1642827    445.65567  0.037551034  0.037973037            4 
  990000    1.0891709   -6.1759107    446.36954  0.037573194  0.037964516            6 
  991000    1.0822289   -6.1781774    446.32108  0.037531204  0.037955723            4 
  992000    1.0976135   -6.1737027    446.52315  0.037510345  0.037946999            5 
  993000    1.0881206    -6.187597    445.79545  0.037411501  0.037938135            5 
  994000    1.0847345    -6.155458    447.09164  0.037482532   0.03792908            5 
  995000    1.0928413    -6.156221    447.18828  0.037452955  0.037920316            4 
  996000    1.1285123   -6.1556369    447.91973   0.03747655  0.037911514            6 
  997000    1.0641619   -6.1355991    447.02225  0.037363946  0.037902607            3 
  998000    1.0868925    -6.164572    448.03526  0.037411094  0.037893482            2 
  999000    1.0629113   -6.2111369    447.86111  0.037359118  0.037884556            3 
 1000000    1.0934768   -6.1681738    448.79099  0.037399249  0.037875493            2 
 1001000    1.0859953   -6.1578219    450.07123  0.037468467  0.037866562            5 
 1002000    1.0910817    -6.140707    449.48915  0.037382664  0.037857413            3 
 1003000    1.1009907   -6.1709378    449.53401   0.03734912  0.037848578            4 
 1004000    1.0573539   -6.1826612    451.07418  0.037439756  0.037839681            2 
 1005000    1.0886818   -6.1753241    451.22254  0.037414805  0.037830957            9 
 1006000    1.1153934   -6.1612174    451.18634  0.037374614   0.03782216            4 
 1007000    1.1058946   -6.1947121    450.75383  0.037301708  0.037813207            4 
 1008000    1.0787354   -6.2023895    451.30129  0.037309962  0.037804354            4 
 1009000    1.1184378   -6.1482244    451.43141   0.03728373  0.037795458            2 
 1010000     1.104955   -6.2337479    452.52977   0.03733744  0.037786637            3 
 1011000    1.1096664   -6.1618276    453.30768  0.037364629  0.037777604           10 
 1012000    1.1017213   -6.1472303     455.2626  0.037488686  0.037768867            6 
 1013000    1.1009159   -6.1822772    453.95702  0.037344276  0.037760363            5 
 1014000    1.0943392   -6.1723421     453.9889  0.037310067  0.037751778            5 
 1015000    1.0777428   -6.1771925    454.70403  0.037332022  0.037742632            4 
 1016000    1.0906632   -6.1761443     454.4744  0.037276443  0.037733666            4 
 1017000    1.1104347   -6.1797662    454.07858  0.037207357  0.037724536            7 
 1018000    1.0864891   -6.1950576    455.04132  0.037249617  0.037715284            4 
 1019000    1.0760215   -6.1896971    454.77609  0.037191372  0.037706153            5 
 1020000    1.0599657   -6.1971789    456.75274  0.037316401  0.037697217            4 
 1021000    1.0761472   -6.2185296    456.06936  0.037224075  0.037688378            3 
 1022000    1.0750264   -6.2016716    456.12114  0.037191874  0.037679725            3 
 1023000    1.0946371    -6.224088    456.14373  0.037157358  0.037670921            4 
 1024000    1.0914131   -6.1810734    457.52193   0.03723323  0.037662043            3 
 1025000    1.0691284   -6.2072284     458.1579   0.03724861  0.037653188            8 
 1026000    1.1010003   -6.2051935    457.78876  0.037182323  0.037644343            8 
 1027000    1.0880125    -6.200758    457.75772    0.0371436  0.037635583            9 
 1028000    1.0955536   -6.1902225    459.09314  0.037215721  0.037626481            5 
 1029000     1.082643   -6.1669091    459.18147  0.037186708  0.037617359            2 
 1030000    1.0973439   -6.1885442    458.64843  0.037107478  0.037608533            7 
 1031000    1.0928984   -6.2150056    460.66816  0.037234737  0.037599576            2 
 1032000    1.0656579   -6.2016026    460.00437  0.037145056   0.03759065            4 
 1033000    1.1012934   -6.2320562    459.13833  0.037039233  0.037581767            7 
 1034000    1.1086353   -6.1690326    461.35331  0.037181924  0.037572845            8 
 1035000    1.0992363   -6.1807202    462.75817  0.037259112  0.037563949            6 
 1036000    1.1017944   -6.2027722    462.06485  0.037167379  0.037555463            3 
 1037000    1.1059536   -6.1550697    462.92415  0.037200591  0.037546878            7 
 1038000    1.0905657   -6.2072145    462.06123  0.037095475   0.03753815            4 
 1039000     1.087064   -6.1751326    464.87523  0.037285469  0.037529373            3 
 1040000    1.0626139   -6.2071271    462.55257  0.037063507  0.037520708            4 
 1041000    1.0982536   -6.2231771    463.91837  0.037137237  0.037512213            5 
 1042000    1.0689463     -6.19644    464.74211  0.037167475   0.03750371            3 
 1043000     1.100011   -6.1840875    465.38199  0.037182965  0.037494978            3 
 1044000    1.0872265   -6.1982987    464.43226   0.03707154  0.037486584            2 
 1045000    1.1132501   -6.1707625    466.02479  0.037163061  0.037478232            4 
 1046000    1.0751282   -6.1883493    465.74164  0.037104974  0.037469897            7 
 1047000     1.112006   -6.1848343    465.65741  0.037062831  0.037461398           13 
 1048000    1.1155394   -6.2016498    466.81229  0.037119298  0.037452963            8 
 1049000    1.0900285   -6.1957826     467.1009   0.03710684  0.037444639            4 
 1050000     1.059104   -6.2058942    467.11603  0.037072701  0.037436405            5 
 1051000     1.072045   -6.1571878    468.23656  0.037126274  0.037428369            4 
 1052000    1.0698721    -6.206265    469.44472  0.037186686   0.03742015            4 
 1053000    1.0864465    -6.181194    468.28604  0.037059674  0.037411756            3 
 1054000     1.093815   -6.1988126    467.74354  0.036981621   0.03740325            7 
 1055000    1.0836234   -6.2210323    469.56046  0.037090084  0.037394738            4 
 1056000    1.0641759   -6.2190829    468.66009  0.036983908  0.037386196           12 
 1057000    1.0891627   -6.2127895     468.8104   0.03696077  0.037377571           10 
 1058000    1.0768495   -6.1765127    469.90767  0.037012261   0.03736885            5 
 1059000    1.1040173   -6.1680965    469.68152  0.036959515  0.037360291            4 
 1060000     1.076903   -6.2132408    469.10201  0.036879089  0.037351566            7 
 1061000    1.0863518   -6.1968014    470.14444  0.036926205  0.037342731            4 
 1062000    1.0784651    -6.189378    469.66091  0.036853493  0.037333718            4 
 1063000    1.0825095   -6.2105417     471.6725  0.036976521  0.037324851            4 
 1064000     1.066867   -6.2110371    471.40042  0.036920459  0.037315869            5 
 1065000    1.0676289   -6.2015671    471.64023  0.036904556  0.037307031            7 
 1066000    1.0690668    -6.177687     470.6498  0.036792511  0.037298398           10 
 1067000    1.1010436   -6.1872574    471.42661  0.036818698  0.037289386            6 
 1068000    1.0921658   -6.2029605     472.5339  0.036870623  0.037280164            4 
 1069000    1.1031351   -6.2056274    472.17516  0.036808166  0.037271292            3 
 1070000    1.0766661   -6.2034324    473.79072  0.036899589  0.037262481            4 
 1071000    1.0921616   -6.2278804    473.03143  0.036806056  0.037253481            3 
 1072000    1.0864099   -6.1593104    474.10036  0.036854817   0.03724459            6 
 1073000    1.0717677    -6.215488    473.63729  0.036784505  0.037235932            7 
 1074000    1.0693594   -6.2076828    474.74501  0.036836205  0.037227308            5 
 1075000    1.0615994   -6.2043826    474.82584  0.036808205  0.037218409            5 
 1076000    1.0588468   -6.1843136    474.11523  0.036718961  0.037209495            6 
 1077000    1.0636779   -6.2262625      475.118  0.036762457  0.037200585            8 
 1078000    1.0864579   -6.2579051    474.06394  0.036646872  0.037191563            6 
 1079000    1.0808818   -6.1881239    476.69421  0.036816049  0.037182585            4 
 1080000    1.1058211   -6.1862556    476.96901  0.036803164  0.037173813            4 
 1081000    1.0896975   -6.1830581    477.45507  0.036806589  0.037164961            6 
 1082000    1.0773198   -6.2171822    478.62573  0.036862734  0.037156278            4 
 1083000    1.0611036   -6.1747227    478.13595  0.036791009  0.037147441            4 
 1084000    1.1025166   -6.1994486    478.25539  0.036766251   0.03713854            6 
 1085000    1.0984768   -6.1964785    478.22677  0.036730167  0.037129461            5 
 1086000    1.0773139   -6.2143251    478.37583  0.036707783  0.037120287            4 
 1087000    1.0773474   -6.1631329    478.38889  0.036675014  0.037111011            3 
 1088000    1.0945762    -6.189611    478.58625  0.036656422   0.03710195            5 
 1089000    1.0702796   -6.2157968    478.85213  0.036643108  0.037093007            6 
 1090000    1.0859356   -6.2173717    479.11592  0.036629658  0.037083924            6 
 1091000    1.0778655   -6.2047794    480.57103  0.036707228   0.03707515            2 
 1092000    1.0780041   -6.2070525    481.84153  0.036770569  0.037066352           12 
 1093000    1.0730908    -6.182493    481.39846  0.036703145  0.037057675            4 
 1094000    1.0726221   -6.2112767    481.64389  0.036688292   0.03704867            5 
 1095000    1.0657481    -6.217002    480.55565  0.036571967   0.03703968            6 
 1096000    1.0636554   -6.2380347    481.69558  0.036625272  0.037030813            8 
 1097000    1.0669052   -6.2181049    482.12599  0.036624581  0.037021929            3 
 1098000    1.0736917   -6.1969812    482.31577  0.036605629  0.037012899            4 
 1099000      1.06828   -6.2124697    481.43616  0.036505624  0.037003727            4 
 1100000      1.08748    -6.211123    484.53559  0.036707242  0.036994831            4 
 1101000    1.0906092   -6.2000113    483.39427  0.036587516  0.036985916            3 
 1102000    1.0750819   -6.2160003    483.61134   0.03657073  0.036976975            7 
 1103000    1.0828899   -6.2028704    484.33829  0.036592497   0.03696793            3 
 1104000    1.0839582    -6.213221    485.21299  0.036625377  0.036959242           13 
 1105000    1.0676744   -6.1980227    483.91346  0.036494228  0.036950571            4 
 1106000    1.0778276   -6.2238913    483.29543  0.036414665   0.03694173           16 
 1107000    1.0709929   -6.2513485    484.04986  0.036438562  0.036932832            7 
 1108000    1.0745812   -6.1985188    484.98934  0.036476334  0.036923962            8 
 1109000    1.0909011   -6.2240991    486.12208  0.036528561  0.036915192            3 
 1110000    1.0638223   -6.2169373    485.71654  0.036465206  0.036906391            6 
 1111000    1.0594203   -6.2237144    488.27637   0.03662439  0.036897764            4 
 1112000    1.0663508   -6.2388557    486.53426  0.036460901   0.03688912            3 
 1113000    1.0524571   -6.2111176       487.21  0.036478736  0.036880512            4 
 1114000     1.081264   -6.2049487    487.62409  0.036476966  0.036872091            5 
 1115000    1.0545921   -6.2192428    489.06388  0.036551859  0.036863742            2 
 1116000    1.0625032   -6.2079483    489.42803  0.036546298  0.036855162            3 
 1117000    1.0792549   -6.2362984    489.11648  0.036490337  0.036846503            3 
 1118000    1.0855759   -6.1916054    489.70563  0.036501612  0.036837898            5 
 1119000    1.0638091   -6.2177195    489.79202  0.036475426  0.036829418            4 
 1120000    1.0848471   -6.1852914    488.95281  0.036380417  0.036820961           14 
 1121000    1.0714657   -6.2478606    489.92216  0.036420023  0.036812625            6 
 1122000    1.0666625   -6.2125056    492.64351  0.036589684  0.036804084           21 
 1123000    1.0838041   -6.1963841     492.8278  0.036570777  0.036795799           14 
 1124000    1.0592774   -6.1878938    493.95466  0.036621787  0.036787817            6 
 1125000    1.0609813   -6.2203458    491.74476  0.036425538  0.036779694            4 
 1126000    1.0939007   -6.2353181    492.49978  0.036449066  0.036771426            3 
 1127000    1.0857283   -6.1992995    493.78375  0.036511665  0.036763402            8 
 1128000    1.0798748   -6.2293484    493.54725  0.036461824  0.036755266            4 
 1129000    1.0521628   -6.2265139    493.22503  0.036405745  0.036746997            6 
 1130000    1.0628787   -6.2076151    496.53909  0.036617927  0.036738892            4 
 1131000    1.0571185       -6.203     494.6989  0.036449963  0.036730897            4 
 1132000    1.0650693   -6.2028435    495.58035  0.036482653  0.036722813            2 
 1133000    1.0561645   -6.2002385    496.49384   0.03651764  0.036714821            7 
 1134000    1.0623399   -6.2066828    495.70726  0.036427635  0.036706545            5 
 1135000    1.0738513   -6.2121422    497.04775  0.036493961  0.036698167            5 
 1136000    1.0845786   -6.2482388     495.9011  0.036377722  0.036689821            5 
 1137000    1.0558692   -6.2082125    496.44342  0.036385475  0.036681324            4 
 1138000    1.0681128   -6.1946067    496.49864  0.036357545  0.036673139            8 
 1139000    1.0713261   -6.2171152    498.62732  0.036481367  0.036664977            7 
 1140000    1.0747927   -6.2310587    497.32786  0.036354376  0.036656795           15 
 1141000    1.0733024   -6.2134218    498.42725  0.036402808  0.036648677            5 
 1142000    1.0743817   -6.2268116    499.18184  0.036425995  0.036640632            4 
 1143000       1.0688   -6.2096756    498.17139  0.036320457  0.036632408            4 
 1144000    1.0757479   -6.2247343    499.02878  0.036351164  0.036624028            5 
 1145000    1.0604748   -6.2178155    500.57853  0.036432208  0.036615676            4 
 1146000    1.0570436   -6.2128127    500.19439  0.036372483   0.03660751           13 
 1147000     1.048428   -6.2088783    500.20176  0.036341308  0.036599618            5 
 1148000    1.0835399   -6.2018553    501.38888  0.036395825  0.036591612            4 
 1149000    1.0878504   -6.1917217    502.05562  0.036412505  0.036583685            4 
 1150000    1.0773873   -6.2294012    500.68112  0.036281241  0.036575634            7 
 1151000    1.0764274   -6.2331537    502.56775  0.036386312  0.036567621            4 
 1152000    1.0854916   -6.2165621    502.19593   0.03632783  0.036559588            7 
 1153000    1.0810229   -6.2203519    502.58151  0.036324191  0.036551619            6 
 1154000    1.0683005   -6.2129218    503.47587  0.036357298  0.036543729            4 
 1155000    1.0883961   -6.2411571    503.09095  0.036298048  0.036535411            3 
 1156000    1.0601907   -6.2721445    501.85867  0.036177817  0.036527071            7 
 1157000    1.0747664   -6.2189205    503.04688  0.036232129  0.036518839           13 
 1158000     1.048745   -6.2316221    503.28722  0.036218136  0.036510641           10 
 1159000    1.0925119   -6.2322136     503.3138  0.036188798  0.036502211            5 
 1160000    1.0457606   -6.2168932    504.89974  0.036271533  0.036493868            3 
 1161000    1.0562919   -6.2339858    506.53474  0.036357647  0.036485883            7 
 1162000    1.0682909   -6.2308904    505.09031  0.036222771  0.036478037            4 
 1163000    1.0664014   -6.2018212    506.57088  0.036297712  0.036470189            4 
 1164000    1.0678348    -6.221161    506.54781  0.036264878  0.036462191            4 
 1165000    1.0702781   -6.1919231    505.14255  0.036133229  0.036454112            2 
 1166000    1.0569157   -6.2375433    505.55145  0.036131464   0.03644616            5 
 1167000    1.0689635   -6.2227707    506.07132  0.036137626  0.036438195            3 
 1168000    1.0642298   -6.2261422    505.70875  0.036080819  0.036429984            4 
 1169000    1.0636648   -6.2010337      508.254  0.036231394  0.036422081            5 
 1170000    1.0535691   -6.2374936    508.57647  0.036223395  0.036414143            4 
 1171000    1.0450961   -6.2162699    509.86868  0.036284421  0.036406385            6 
 1172000    1.0871417   -6.2369544    508.82743  0.036179425  0.036398622            7 
 1173000    1.0672002   -6.2304616    509.38457  0.036188162  0.036391031            7 
 1174000    1.0910439   -6.2197351    511.37748  0.036298799  0.036383292            5 
 1175000    1.0800296   -6.2106719     509.8719  0.036161127  0.036375626            9 
 1176000    1.0740783   -6.2367585    510.89038  0.036202549  0.036368169            5 
 1177000    1.0752413   -6.2494734    510.54204  0.036147128  0.036360738            5 
 1178000    1.0411596   -6.2525748    512.66093  0.036266336  0.036353148            4 
 1179000     1.104889   -6.2468886    511.91314  0.036182721  0.036345615            9 
 1180000    1.0511296   -6.2134752    513.16267  0.036240301  0.036338035            7 
 1181000    1.0813092   -6.2160851    513.71695  0.036248726  0.036330513            5 
 1182000    1.0846098    -6.213997    514.49538   0.03627294  0.036322928            6 
 1183000    1.0620732   -6.2356768    511.44753  0.036027581  0.036315271            3 
 1184000    1.0722719   -6.2144444    512.97488  0.036104651   0.03630759            5 
 1185000    1.0576714   -6.2458979    513.76512  0.036129755  0.036299776            4 
 1186000    1.0585956   -6.1895135    515.36428  0.036211655  0.036291954            7 
 1187000    1.0704599   -6.2399196    513.39894  0.036043172  0.036284138            7 
 1188000    1.0731295   -6.2258016    513.59425  0.036026533  0.036276046            4 
 1189000    1.0695952   -6.2559033    514.35046  0.036049233  0.036267969            5 
 1190000     1.066157   -6.2380532     515.2179  0.036079685   0.03626006           11 
 1191000    1.0447233    -6.236058     515.7677  0.036087861  0.036252109            6 
 1192000    1.0741968    -6.223255    516.15756  0.036084841  0.036244224            4 
 1193000    1.0667201   -6.2201174    517.24116  0.036130285  0.036236645            9 
 1194000    1.0901745   -6.2108101    517.95971  0.036150176  0.036228953            3 
 1195000    1.0363784   -6.2304365    516.65611  0.036029017  0.036221288            6 
 1196000    1.0775293   -6.2303314    517.28169  0.036042481  0.036213384            5 
 1197000    1.0594359   -6.2542103    516.13294  0.035932397  0.036205546            6 
 1198000    1.0374653   -6.2040691    518.46748  0.036064794  0.036197796            3 
 1199000    1.0617555   -6.2108054    518.84417  0.036060896  0.036190112            4 
 1200000    1.0626745   -6.2266007    519.02724  0.036043558  0.036182554            9 
 1201000    1.0581605    -6.195264     518.6379  0.035986532  0.036174698            3 
 1202000    1.0499982   -6.2169196    521.02614  0.036122167  0.036167133            4 
 1203000    1.0691673   -6.2504749    520.28131  0.036040545  0.036159778            9 
 1204000    1.0655236   -6.2510643    520.99307  0.036059875   0.03615231            3 
 1205000    1.0550328   -6.1911073    523.11556  0.036176733  0.036145148            4 
 1206000     1.058157   -6.2704875    521.32496  0.036023007  0.036137931            8 
 1207000    1.0480359   -6.2052455    522.58216  0.036079961  0.036130581            5 
 1208000    1.0759233   -6.2563719    521.38484  0.035967498  0.036123072            5 
 1209000    1.0481277   -6.2053425    522.07705   0.03598546  0.036115635            3 
 1210000    1.0574102   -6.1936037    523.67363  0.036065677  0.036108181            7 
 1211000    1.0524947   -6.2145475    522.93418  0.035985011  0.036100865            4 
 1212000    1.0648059   -6.2472451    523.82586   0.03601663  0.036093469            9 
 1213000    1.0533936   -6.2578399    524.06075  0.036003074  0.036086207            6 
 1214000    1.0378538   -6.2225309    525.30907  0.036059107   0.03607893            3 
 1215000    1.0549237   -6.1870424     524.2906  0.035959575  0.036071814            5 
 1216000     1.052331   -6.2269071    525.21597  0.035993419  0.036064479            5 
 1217000    1.0646686    -6.256473    524.05423  0.035884294  0.036057058            4 
 1218000    1.0726115   -6.2628114     525.4481  0.035950198  0.036049557            6 
 1219000    1.0636419   -6.2704241    525.54335  0.035927218  0.036042088           14 
 1220000    1.0561488   -6.2468822    525.43372  0.035890282  0.036034965            4 
 1221000    1.0752343   -6.2722092    526.59391   0.03594007  0.036027631            6 
 1222000    1.0385676   -6.2332705     527.6704   0.03598407  0.036020463            5 
 1223000    1.0422857   -6.2554943    525.76712  0.035824961   0.03601327            9 
 1224000    1.0462299    -6.234043    528.80649  0.036002621  0.036006126            3 
 1225000    1.0535061   -6.2540194    527.87697  0.035909998  0.035998915            4 
 1226000    1.0870555   -6.2138317     528.5812  0.035928575  0.035991695            8 
 1227000     1.075711   -6.2640505    527.92695  0.035854859  0.035984483            4 
 1228000    1.0612962   -6.2367645    528.38218  0.035856554  0.035977124            3 
 1229000    1.0521044   -6.2512601    529.86569  0.035927969  0.035969939            4 
 1230000    1.0452116   -6.2545207    530.03153  0.035909995  0.035962971            8 
 1231000     1.069466   -6.2399376    529.32232  0.035832813  0.035955884            3 
 1232000    1.0476523    -6.241243    529.61555  0.035823562  0.035948758            3 
 1233000    1.0854703   -6.2230577    530.97591   0.03588645  0.035941894            3 
 1234000    1.0747659   -6.2647641     530.6513  0.035835447  0.035934824            8 
 1235000    1.0391025   -6.2424206    530.40006  0.035789478  0.035927743            9 
 1236000      1.04285   -6.2545189    533.30574  0.035956428  0.035920731            8 
 1237000    1.0438268   -6.2605369    533.44646  0.035936841  0.035913438            4 
 1238000    1.0731838   -6.2563331    531.93813  0.035806282  0.035906286            5 
 1239000     1.040892   -6.2591481    534.62264  0.035957939  0.035899104            5 
 1240000    1.0342252   -6.2419723    532.78882    0.0358057  0.035892123            6 
 1241000    1.0402669   -6.2657497    532.91984  0.035785646  0.035885044            4 
 1242000    1.0554248   -6.2560148     535.6742   0.03594164  0.035877941            4 
 1243000    1.0580514    -6.253635     534.6487  0.035843973   0.03587085            9 
 1244000    1.0574369   -6.2605691    534.08376  0.035777315  0.035863667            8 
 1245000    1.0426345   -6.2785125    535.02375  0.035811496  0.035856591           12 
 1246000    1.0568868   -6.2496665    534.73984  0.035763767  0.035849659            7 
 1247000    1.0510582   -6.2217994    535.89114  0.035812025  0.035842812            8 
 1248000    1.0452126   -6.2230935    536.66427  0.035834954  0.035835894            6 
 1249000    1.0509889   -6.2793564    536.49569  0.035795015   0.03582877            5 
 1250000     1.049725   -6.2470572     537.4121  0.035827474  0.035821733            3 
 1251000    1.0519174   -6.2191877    536.32988  0.035726744  0.035814586            5 
 1252000    1.0432716   -6.2345832     536.5191  0.035710803  0.035807319            5 
 1253000    1.0655077   -6.2433803    536.92412  0.035709239  0.035799973            5 
 1254000    1.0176024   -6.2865043    537.36053  0.035709764  0.035792444            4 
 1255000    1.0722367   -6.2671633    537.56362  0.035694796  0.035785065            3 
 1256000     1.032563   -6.2220284      538.273  0.035713442  0.035777778            6 
 1257000    1.0483312   -6.2540556     539.5729  0.035771208  0.035770553           10 
 1258000    1.0627363   -6.2749235    538.75413  0.035688535  0.035763517           12 
 1259000    1.0311392   -6.2397395    539.75506   0.03572644   0.03575637            5 
 1260000    1.0509522   -6.2757628    539.00893  0.035648739  0.035749363            6 
 1261000    1.0563277   -6.2625257     540.3278  0.035707626  0.035742304            4 
 1262000    1.0381857   -6.2475357    541.65262  0.035766813  0.035735204            4 
 1263000    1.0179718   -6.2439545    540.97996  0.035694112  0.035728082            3 
 1264000    1.0259512    -6.251846    541.22472  0.035682009  0.035721131            5 
 1265000    1.0380938   -6.2699199    540.95485  0.035636024  0.035714084            4 
 1266000     1.060262   -6.2407046    542.94864  0.035739115  0.035706944            6 
 1267000    1.0422729   -6.2345842    543.26756  0.035731883  0.035699757            7 
 1268000    1.0425572   -6.2646125    542.08916  0.035626259  0.035692795            4 
 1269000    1.0613398   -6.2364631    542.92309  0.035652948  0.035685599            4 
 1270000    1.0543657   -6.2324421    541.92987  0.035559702  0.035678583            4 
 1271000    1.0522061   -6.2812042    543.78078   0.03565308    0.0356716            4 
 1272000    1.0276921   -6.2722621    544.43017  0.035667595  0.035664378            3 
 1273000    1.0433992   -6.2286146    542.84735  0.035535962  0.035657335            5 
 1274000    1.0495044   -6.2664432    543.82485  0.035572007  0.035650345           10 
 1275000    1.0197369   -6.2486878    545.10871   0.03562802  0.035643374            5 
 1276000     1.029241    -6.249437     546.5267  0.035692705  0.035636268            3 
 1277000    1.0279875   -6.2552538    542.49186  0.035401453  0.035629008            7 
 1278000    1.0556014   -6.2720821    544.59262  0.035510734  0.035621571            4 
 1279000    1.0518742   -6.2392714    544.35623  0.035467567  0.035614248            3 
 1280000    1.0311538   -6.2778575    544.98408  0.035480735  0.035606658            7 
 1281000    1.0421205   -6.2216953    546.26499  0.035536364  0.035599261            4 
 1282000    1.0387124   -6.2930721    546.46861  0.035521881  0.035591843            7 
 1283000    1.0531391   -6.2411727    548.15442  0.035603691   0.03558447            3 
 1284000    1.0406844   -6.2572912     545.5087  0.035404251  0.035577136            3 
 1285000    1.0553094   -6.2424968    547.65299  0.035515758   0.03556969            2 
 1286000    1.0636215   -6.2717348    547.46707  0.035476093  0.035562357            9 
 1287000    1.0255951   -6.2717677    548.19584  0.035495716  0.035554948            4 
 1288000    1.0585699   -6.2236794    547.09327  0.035396821   0.03554764            3 
 1289000     1.036346   -6.2670006    550.31496  0.035577642  0.035540473            5 
 1290000    1.0371272   -6.2679764    549.45166  0.035494293  0.035533429            4 
 1291000    1.0420973   -6.2629484    549.14805  0.035447202  0.035526036            5 
 1292000    1.0537344    -6.254258    550.64762  0.035516488  0.035518932            4 
 1293000    1.0177742   -6.2818724    551.15724  0.035521864  0.035511855            5 
 1294000    1.0346652    -6.309296    548.58988  0.035329075  0.035504554            4 
 1295000    1.0570389   -6.2469621    551.07676  0.035461825  0.035497465            6 
 1296000    1.0562698   -6.2236927    551.83977  0.035483524  0.035490281            5 
 1297000    1.0267051   -6.2251071    552.09482  0.035472553  0.035483084            5 
 1298000    1.0446484   -6.2763772    551.85631  0.035429912  0.035475779            4 
 1299000    1.0610225   -6.2456976    550.37123  0.035307366  0.035468617            6 
 1300000    1.0330863   -6.2617525     552.7899   0.03543525  0.035461387            4 
 1301000    1.0289888   -6.2727465    554.05578  0.035489097   0.03545442            6 
 1302000    1.0564504   -6.2672431     555.6299   0.03556259  0.035447478           13 
 1303000    1.0502794   -6.2571317      553.587  0.035404643  0.035440562            4 
 1304000    1.0233653   -6.2696764    554.84463  0.035457863  0.035433552            5 
 1305000    1.0570553   -6.2826491    555.22686    0.0354551  0.035426563            4 
 1306000    1.0202719   -6.2449369    554.86161  0.035404646   0.03541945            6 
 1307000    1.0441512   -6.2573113    554.13755  0.035331392  0.035412211            3 
 1308000     1.021042   -6.2844535    555.42421  0.035386354  0.035405063            9 
 1309000     1.029893    -6.236672    555.84437  0.035386069  0.035398009            7 
 1310000    1.0604858   -6.2779382    558.19438  0.035508549  0.035391155            5 
 1311000    1.0599933   -6.2711938    557.98361  0.035468065  0.035384416            6 
 1312000    1.0455571   -6.2752553    556.96434  0.035376292  0.035377624            5 
 1313000    1.0497432   -6.2891572     557.0758  0.035356423  0.035370684            3 
 1314000    1.0443766   -6.2251789    559.32448  0.035472126   0.03536388            3 
 1315000    1.0561961   -6.2695133    558.34658   0.03538318   0.03535705           11 
 1316000    1.0312929   -6.2523291    558.81409  0.035385897  0.035350276            7 
 1317000    1.0371817   -6.2474377    561.41654  0.035523699  0.035343576            5 
 1318000     1.056927   -6.3158953    557.77987   0.03526681  0.035336617            6 
 1319000    1.0568557   -6.2682901    560.10132   0.03538674  0.035329869            8 
 1320000    1.0546725   -6.2720007    561.56223  0.035452161  0.035323117           17 
 1321000    1.0490981   -6.2349039    562.83785  0.035505794  0.035316571            4 
 1322000    1.0480389   -6.2835406    561.81439  0.035414422  0.035309915            5 
 1323000    1.0013349   -6.2520563    562.83299  0.035451813  0.035303352            4 
 1324000    1.0310937   -6.2484376    561.76643  0.035357908  0.035296796            5 
 1325000    1.0433807   -6.2384855    561.63032  0.035322661  0.035290111            6 
 1326000    1.0431409   -6.2983605    562.96276  0.035379761  0.035283335            6 
 1327000    1.0387349   -6.2520866    563.78308  0.035404615  0.035276821            6 
 1328000    1.0237744   -6.2725418    564.80457  0.035442054  0.035270355            4 
 1329000    1.0298338    -6.282301    563.82968  0.035354257  0.035263853            6 
 1330000    1.0477322   -6.2463617    565.06072  0.035404807  0.035257396            3 
 1331000    1.0395797   -6.2569557    564.05918  0.035315501  0.035250916            5 
 1332000    1.0284805   -6.2799629    565.68007  0.035390395  0.035244665            3 
 1333000    1.0411443   -6.2809693    565.20534  0.035334167  0.035238344            2 
 1334000    1.0275406   -6.2858637    567.98635  0.035481406  0.035231975            7 
 1335000    1.0445237   -6.2900681    568.25932  0.035471867  0.035225676            5 
 1336000    1.0792706   -6.2644037    567.52757  0.035399674  0.035219659            5 
 1337000    1.0272424   -6.2564727    568.08439  0.035407902   0.03521359            5 
 1338000     1.047768   -6.2537652    568.59975  0.035413537  0.035207496            4 
 1339000    1.0617748   -6.2874469    569.62189  0.035450703  0.035201565            4 
 1340000    1.0446848   -6.2882513    567.79058  0.035310359  0.035195489            7 
 1341000    1.0425795   -6.2541918     569.6216  0.035397812  0.035189417            5 
 1342000    1.0454601   -6.2417186    570.82971  0.035446455  0.035183461            4 
 1343000    1.0302641   -6.2449595    569.71017  0.035350594  0.035177449            6 
 1344000    1.0323223   -6.2744319    569.35857   0.03530249  0.035171335            6 
 1345000    1.0135915   -6.2780299    571.08673  0.035383317  0.035165242            7 
 1346000    1.0360664   -6.2591611    571.64765  0.035391757  0.035159133            3 
 1347000    1.0216332   -6.2533306    571.67116  0.035366936  0.035153157            4 
 1348000    1.0346286   -6.2853108    570.24869  0.035252763  0.035146871            5 
 1349000    1.0213336   -6.3035539      572.028  0.035336545  0.035140702            8 
 1350000    1.0393643   -6.2986157     568.6542  0.035102111  0.035134371            4 
 1351000    1.0363476   -6.2747121    571.37417  0.035243904  0.035127997            5 
 1352000    1.0035798   -6.2955177    570.58843  0.035169405  0.035121585            5 
 1353000    1.0484329   -6.3048203    574.02962   0.03535536  0.035115325            3 
 1354000    1.0409804   -6.2635765    574.02496  0.035328961  0.035109119            5 
 1355000    1.0603918   -6.2828325    574.82488  0.035352084  0.035103119            8 
 1356000    1.0383518   -6.2844633    572.84351  0.035204247  0.035096823            4 
 1357000    1.0472853    -6.275067    573.66457  0.035228726  0.035090479            4 
 1358000    1.0474512   -6.2456412     574.0319  0.035225325  0.035084181            6 
 1359000    1.0270789   -6.2596014    573.07292  0.035140601  0.035077731            4 
 1360000    1.0457415   -6.2956198    573.57856  0.035145745  0.035071108            3 
 1361000    1.0430158   -6.2902989    574.94447  0.035203555  0.035064548            4 
 1362000    1.0094953   -6.2924118    572.98974   0.03505811  0.035057833            7 
 1363000    1.0360686   -6.2794317    574.11461  0.035101162  0.035051228            7 
 1364000    1.0238992   -6.2984434    575.61171  0.035166893  0.035044716            6 
 1365000    1.0555559   -6.3069251    575.24608  0.035118808  0.035038187            6 
 1366000    1.0247661   -6.2931749    574.70504  0.035060093  0.035031763            6 
 1367000     1.050531   -6.2713044    577.08203  0.035179348  0.035025231            4 
 1368000    1.0299244   -6.2541853     577.3015  0.035167002  0.035018747            9 
 1369000    1.0238658   -6.2850631    577.56748  0.035157504  0.035012369            8 
 1370000     1.031193   -6.2333831    577.66514  0.035137782  0.035006086            3 
 1371000    1.0236883   -6.3073077    577.05974  0.035075355  0.034999659            6 
 1372000     1.020623    -6.288779    578.14417  0.035115657  0.034993157            5 
 1373000    1.0071236   -6.2946051    577.46986  0.035049154  0.034986697            3 
 1374000    1.0208687   -6.2986508    579.62878  0.035154584  0.034980177            6 
 1375000    1.0269668   -6.3012973    578.98046  0.035089725  0.034973877           10 
 1376000    1.0429703   -6.2706981    578.85574   0.03505667  0.034967376            6 
 1377000    1.0340253   -6.3080501    579.07341  0.035044384  0.034960895            8 
 1378000    1.0439584   -6.2835829    580.52258   0.03510659  0.034954277            3 
 1379000    1.0415846    -6.300163    578.83973  0.034979437  0.034947603            7 
 1380000      1.04113   -6.2843649    579.32739  0.034983538  0.034940965           14 
 1381000    1.0436067   -6.2792467     580.3355  0.035019038  0.034934173            5 
 1382000    1.0224335   -6.2932644    581.58505  0.035069045  0.034927543            5 
 1383000    1.0080832   -6.2944004    581.25178  0.035023607  0.034920765            2 
 1384000    1.0215854   -6.3041988    580.53653  0.034955234  0.034914187            6 
 1385000    1.0300397   -6.2828671    581.07227   0.03496223  0.034907672            3 
 1386000    1.0357582   -6.2624347    582.80436  0.035041147  0.034901118            6 
 1387000    1.0163401    -6.270022     582.3202  0.034986794  0.034894457            4 
 1388000    1.0292471   -6.2843989    582.37089  0.034964631  0.034887863           11 
 1389000    1.0255779   -6.3186623    583.23764  0.034991459  0.034881214            5 
 1390000    1.0199518   -6.2804877    582.86258    0.0349438  0.034874484            8 
 1391000   0.99758997   -6.3222099    582.94785  0.034923787  0.034867582           11 
 1392000    1.0189077   -6.2641223    583.14193  0.034910317  0.034860829            4 
 1393000    1.0221442   -6.2928318    583.61414  0.034913504  0.034854219            7 
 1394000    1.0302211   -6.3255666    584.52169  0.034942712  0.034847709            4 
 1395000    1.0417974   -6.2883864    583.36172   0.03484837  0.034841104           10 
 1396000    1.0674674   -6.2865664    584.48367  0.034890382  0.034834478            5 
 1397000    1.0347029   -6.2735141     585.0185   0.03489731  0.034827999            5 
 1398000    1.0612701   -6.2546394     584.4572  0.034838889  0.034821317            5 
 1399000    1.0050604    -6.277307    586.02951  0.034907643  0.034814681            3 
 1400000    1.0426908   -6.2709818    584.93453  0.034817531  0.034807918            8 
 1401000    1.0370058   -6.2617973    586.09016  0.034861418  0.034801211           12 
 1402000    1.0190502   -6.3125056    586.67839  0.034871516  0.034794383            6 
 1403000    1.0009134   -6.3130957    586.01304  0.034807142  0.034787526            5 
 1404000     1.065718   -6.2853832    586.63268  0.034819129  0.034780643            8 
 1405000    1.0151135   -6.2863379    586.56049  0.034790065     0.034774            4 
 1406000    1.0149863    -6.292252    589.36873  0.034931764  0.034767426            7 
 1407000    1.0132834   -6.3373933    586.65734  0.034746348  0.034760714            3 
 1408000    1.0413348   -6.3003041    588.04627  0.034803875  0.034753967            4 
 1409000    1.0117673    -6.287794    587.99026  0.034775861  0.034747309            7 
 1410000    1.0205157   -6.3144878    588.51102  0.034781975  0.034740678            3 
 1411000    1.0166669    -6.281347    588.61148  0.034763258   0.03473393            5 
 1412000    1.0344315   -6.3269026    590.39685  0.034844007   0.03472724            7 
 1413000    1.0417948   -6.2737437    589.33466  0.034756703  0.034720518            5 
 1414000    1.0136177   -6.2984223    590.66259  0.034810384  0.034713809            9 
 1415000    1.0169284   -6.2686497    589.75496   0.03473233  0.034707016            4 
 1416000    1.0224918   -6.3357174    589.85782  0.034713854  0.034700082            7 
 1417000    1.0409951    -6.269145    590.57328  0.034731433  0.034693197            4 
 1418000    1.0325247   -6.3054124     589.4878  0.034643147  0.034686352            4 
 1419000    1.0509698    -6.246842    592.04872  0.034769128  0.034679577           11 
 1420000    1.0347118   -6.2690527    590.81139   0.03467203  0.034672846            8 
 1421000    1.0110227   -6.2834789    591.02583  0.034660206  0.034666077            5 
 1422000    1.0057504   -6.2673485    592.28751   0.03470977  0.034659295            3 
 1423000    1.0175311    -6.292117    593.27816  0.034743392  0.034652452            7 
 1424000    1.0249184   -6.3259382    592.89208    0.0346964  0.034645586            7 
 1425000    1.0434941   -6.2738153    593.72776  0.034720922  0.034638849            4 
 1426000    1.0321685   -6.2874396    593.34453  0.034674178  0.034632211            5 
 1427000    1.0332871   -6.2972778    595.11314  0.034753162  0.034625671            3 
 1428000    1.0338735    -6.324449    593.74376  0.034648912   0.03461896            6 
 1429000    1.0254985    -6.270794    596.25758  0.034771261  0.034612324            9 
 1430000    1.0299764   -6.3052801    595.77298  0.034718705  0.034605718            6 
 1431000    1.0479003   -6.2969387    594.79389  0.034637427  0.034598954            6 
 1432000    1.0282269   -6.3140598    595.41412  0.034649332  0.034592189            5 
 1433000    1.0251918   -6.3052574    594.30443  0.034560621   0.03458549            8 
 1434000    1.0420182    -6.272072    596.05172  0.034638059  0.034578724            7 
 1435000    1.0058584   -6.3200671    594.37319  0.034516445   0.03457173            5 
 1436000    1.0109211   -6.3353168    594.38124  0.034492876  0.034564764            9 
 1437000    1.0455253   -6.2812331    595.29098   0.03452163  0.034557736            6 
 1438000    1.0240564    -6.312785    594.05149  0.034425793  0.034550631            6 
 1439000    1.0469023    -6.267277    597.24153  0.034586607  0.034543577            3 
 1440000    1.0110276   -6.2921136    596.50575  0.034520008   0.03453666            4 
 1441000     1.042522   -6.2893572    596.69433  0.034506959  0.034529741            2 
 1442000    1.0254337   -6.2937143    597.06404  0.034504395  0.034522969            6 
 1443000    1.0400245    -6.307129    596.78872  0.034464583  0.034516223            5 
 1444000    1.0244563   -6.3114945    598.22351  0.034523517  0.034509286            3 
 1445000     1.019954   -6.2864993    599.88759  0.034595594  0.034502289            7 
 1446000    1.0141572   -6.3143287    599.56292  0.034552958  0.034495302            9 
 1447000    1.0098298   -6.3285856    597.75087  0.034424722  0.034488424            8 
 1448000     1.026828   -6.3163118    599.85047  0.034521781  0.034481569            8 
 1449000    1.0357961   -6.3188262    600.51853  0.034536377  0.034474838            4 
 1450000    1.0314365   -6.3281668    599.71418  0.034466332  0.034468052           11 
 1451000    1.0219453   -6.2861101    600.42018  0.034483125  0.034461408            5 
 1452000    1.0130007   -6.3045972    601.65663  0.034530339  0.034454825            3 
 1453000    1.0259904   -6.3378663    601.48279  0.034496604   0.03444818            6 
 1454000    1.0224838   -6.2707249    601.50449  0.034474122  0.034441479            5 
 1455000    1.0448856    -6.304234    603.27647  0.034551917  0.034434948            6 
 1456000    1.0099354    -6.305429    603.44589  0.034537883  0.034428351            4 
 1457000    1.0066446    -6.319894    603.31363  0.034506614  0.034421871            9 
 1458000    1.0241588   -6.3422048    605.08906  0.034584422  0.034415306            9 
 1459000    1.0281055   -6.2781577    603.86627  0.034490877  0.034408783            9 
 1460000    1.0233432   -6.2950656    606.45197  0.034614838  0.034402339            7 
 1461000   0.99990349   -6.3515586    603.74559  0.034436778  0.034395804            3 
 1462000    1.0260624   -6.2983916     605.6161  0.034519842  0.034389242            9 
 1463000    1.0008423   -6.3060142    605.86269  0.034510292  0.034382699           12 
 1464000      1.02138   -6.3130153    606.88923  0.034545152  0.034376259            7 
 1465000    1.0305753   -6.3001349    607.46545  0.034554349  0.034369957            4 
 1466000    1.0206225   -6.3196844    605.48223  0.034418044  0.034363708            5 
 1467000    1.0427968   -6.3398931    608.93566  0.034590756  0.034357516            7 
 1468000    1.0132083   -6.3032484    608.40304  0.034536957  0.034351238            5 
 1469000    1.0188064   -6.2806485    607.79363  0.034478876   0.03434498            9 
 1470000     1.028947   -6.3243577    610.11392  0.034586957  0.034338902            4 
 1471000    1.0162724   -6.2796436     608.6366  0.034479753  0.034332707           11 
 1472000     1.026613   -6.3234812    610.38408  0.034555258  0.034326406            3 
 1473000    1.0048245   -6.3265266    610.87931  0.034559816  0.034320122            6 
 1474000   0.99760377   -6.2745485     611.1193  0.034549938  0.034313862            4 
 1475000    1.0281847   -6.2896179     611.6825  0.034558333  0.034307691            7 
 1476000    1.0037411   -6.2811104    612.40854  0.034575911   0.03430152            5 
 1477000    1.0170077   -6.3032121    610.97063  0.034471374  0.034295387            7 
 1478000    1.0457631   -6.3168833    611.97995  0.034504959   0.03428922            3 
 1479000    1.0006858   -6.3199838    613.04201   0.03454147  0.034283173            8 
 1480000   0.99353863   -6.3107322    612.32983  0.034478031   0.03427706            6 
 1481000    1.0037031   -6.2891912    612.48815  0.034463659  0.034271067            5 
 1482000   0.99905155    -6.339391    610.82922  0.034347122  0.034264899           10 
 1483000     1.001196   -6.3261147    611.92846  0.034385731  0.034258691           10 
 1484000    1.0209068   -6.3222342    613.25836   0.03443724  0.034252453            5 
 1485000   0.98953394   -6.3169677    611.71625  0.034327511  0.034246179            8 
 1486000    1.0038799   -6.2953626    613.97317  0.034430976   0.03423985            6 
 1487000   0.99428655   -6.3161856    612.60274  0.034331021   0.03423346            5 
 1488000    1.0240727   -6.3284738    612.13144  0.034281555  0.034227033            6 
 1489000   0.99195679   -6.3068119    613.88085  0.034356439  0.034220613            6 
 1490000    1.0294867   -6.3065733    613.94106  0.034336748  0.034214253            7 
 1491000    1.0075105   -6.3638812    613.78124  0.034304787  0.034207759            6 
 1492000    1.0212707   -6.3085717    613.03116    0.0342399   0.03420119            6 
 1493000    1.0014436    -6.276495    615.89432  0.034376776  0.034194821            6 
 1494000    1.0145089   -6.2922043    615.67819  0.034341711  0.034188553            5 
 1495000    1.0043601   -6.3154823    614.79838  0.034269698  0.034182232           18 
 1496000    1.0142559   -6.3071756    615.78358   0.03430167  0.034175943            5 
 1497000    1.0164729   -6.3102424    615.60831     0.034269  0.034169577            8 
 1498000    1.0326035   -6.3233562    613.61789  0.034135397  0.034163137            9 
 1499000    1.0156527   -6.2860031    616.84662  0.034292118  0.034156741            4 
 1500000   0.99766716   -6.2969422    618.20652  0.034344807  0.034150516            7 
 1501000    1.0073649   -6.3180391     617.0313  0.034256679  0.034144078            4 
 1502000    1.0381004   -6.3373931    617.49513  0.034259605  0.034137684            6 
 1503000    1.0213289   -6.3077532     618.0467  0.034267393  0.034131275            4 
 1504000    1.0157218   -6.3154995     618.5099  0.034270274  0.034124814            6 
 1505000    1.0467107   -6.2964245    619.11219  0.034280852  0.034118401            4 
 1506000    1.0073286   -6.3311506    619.77065  0.034294525  0.034112074            7 
 1507000    1.0199145    -6.311006    617.89157   0.03416786  0.034105546            6 
 1508000    1.0051446    -6.312209    617.22146  0.034108171  0.034098838            5 
 1509000    1.0057153   -6.3332265    618.13006  0.034135744  0.034092075            8 
 1510000    1.0229913   -6.3285491     618.3034  0.034122704  0.034085367            9 
 1511000    1.0000446   -6.3459705    619.60278  0.034171784  0.034078745            7 
 1512000     1.026323   -6.3203176    620.60401  0.034204366  0.034072121           19 
 1513000    1.0165146   -6.2889806    619.42859  0.034117019  0.034065575            4 
 1514000    1.0159824   -6.3237624    619.36978  0.034091247  0.034058984            4 
 1515000   0.99949376   -6.3422013    620.80242  0.034147548  0.034052387            2 
 1516000    1.0160238   -6.3262869    620.97811  0.034134681  0.034045885           11 
 1517000    1.0187825    -6.311481    622.15423  0.034176787  0.034039369            6 
 1518000    1.0186167   -6.2994817    622.09659  0.034151108  0.034032771            4 
 1519000    1.0350226   -6.3200574    622.25935  0.034137555  0.034026164            7 
 1520000   0.99515775   -6.3241825     621.1222  0.034052752  0.034019394            4 
 1521000    0.9936645   -6.3171721    622.63785  0.034113404  0.034012739            3 
 1522000    1.0229638   -6.3364087    622.09172  0.034061088  0.034006161            3 
 1523000    1.0007495   -6.3494091    621.87486  0.034026858  0.033999454            8 
 1524000    1.0074944   -6.3099626    624.09114  0.034125719  0.033992941            6 
 1525000   0.99884784   -6.3361796    623.63358  0.034078337  0.033986584            5 
 1526000    1.0244122   -6.2897862    626.62919  0.034219593  0.033980289            4 
 1527000    1.0232238   -6.3351101    625.51575  0.034136419   0.03397399            5 
 1528000    1.0195446   -6.3228011    624.51295  0.034059389  0.033967629            8 
 1529000    1.0012543   -6.3398092    625.00483  0.034063922  0.033961053            6 
 1530000    1.0238159   -6.3464791      624.655  0.034022604  0.033954414            4 
 1531000    1.0061981   -6.3569161    625.03741  0.034021196  0.033947898            4 
 1532000    1.0043755   -6.2897884    626.58218  0.034083017  0.033941406            3 
 1533000   0.99701473   -6.3262069     627.2461  0.034096875  0.033934991            5 
 1534000   0.99949757   -6.3458113    625.41397  0.033975118  0.033928474            6 
 1535000    1.0275927   -6.3246743    628.25378  0.034107154  0.033921907            3 
 1536000    0.9991768   -6.3495077    625.16235  0.033917228  0.033915332            7 
 1537000    1.0189407   -6.3398467    627.64052  0.034029523   0.03390857            4 
 1538000    1.0207641   -6.3405415    628.17595  0.034036408  0.033901864            8 
 1539000     1.027788   -6.3551578    626.56867  0.033927262  0.033895144            6 
 1540000    1.0251354   -6.3493222    627.50402  0.033955845  0.033888509            3 
 1541000    1.0184651   -6.3303358    627.00494  0.033906821  0.033881788           12 
 1542000   0.99092853   -6.3231801    625.39266  0.033797701  0.033874968            4 
 1543000    0.9959602   -6.3547236     628.4089  0.033938696  0.033868192           11 
 1544000    0.9978872   -6.3328401    628.52904    0.0339232  0.033861425            5 
 1545000    1.0194345   -6.3595719    626.87591  0.033812077   0.03385457            3 
 1546000   0.99314154   -6.3332192    628.36105  0.033870259  0.033847734            3 
 1547000    1.0120916   -6.3125862    629.14743  0.033890725  0.033840905            7 
 1548000    1.0154857   -6.3285435    627.47778   0.03377895  0.033834097            5 
 1549000   0.99276209   -6.3133723    629.78701  0.033881376  0.033827214            5 
 1550000    1.0128612   -6.3381867    628.27628  0.033778294  0.033820385            5 
 1551000    1.0034123   -6.3592942    629.55455  0.033825196  0.033813408            8 
 1552000    0.9804339   -6.3318321    629.46618  0.033798657  0.033806457            5 
 1553000    1.0262652   -6.3291563     630.3528  0.033824469  0.033799535            3 
 1554000   0.98792009   -6.3295635    630.35167  0.033802642  0.033792623            4 
 1555000    1.0267317   -6.3464586    628.26413  0.033669032  0.033785684            5 
 1556000    1.0114418   -6.3288789    630.09291  0.033745336  0.033778656            7 
 1557000    1.0085189   -6.3526796    629.07179   0.03366901  0.033771508            5 
 1558000   0.99066948   -6.3230269    630.32863  0.033714625  0.033764554            4 
 1559000   0.97308981   -6.3357285    631.01699  0.033729794   0.03375755            4 
 1560000   0.97812983   -6.3212963      631.896  0.033755128  0.033750738            4 
 1561000   0.99252429   -6.3330762    633.13696  0.033799752   0.03374387            9 
 1562000    1.0030129   -6.2945573    632.12527  0.033724139  0.033736987            6 
 1563000    1.0222834   -6.3313722    631.47129  0.033667695  0.033730121            6 
 1564000   0.98324187   -6.3342614    632.37509  0.033694325  0.033723055            6 
 1565000    1.0062214    -6.322042    632.73876   0.03369216  0.033715953            5 
 1566000   0.99432527   -6.3378471    631.97867  0.033630197  0.033708729            5 
 1567000    1.0024365   -6.3142591    634.53638  0.033744755  0.033701687            5 
 1568000    1.0130192   -6.3794921    632.37553  0.033608393  0.033694506            7 
 1569000    1.0105149   -6.3515215    632.27672  0.033581725  0.033687274            5 
 1570000    1.0000912   -6.3265706    633.37183  0.033618462  0.033680009            7 
 1571000    1.0085829   -6.3491267    634.93492  0.033679976  0.033672721            4 
 1572000   0.99338879   -6.3472104     634.8243  0.033652688  0.033665277            6 
 1573000   0.98406587     -6.34136    634.28409  0.033602675  0.033657988            4 
 1574000   0.99071474   -6.3124908    632.78007  0.033501698  0.033650728            5 
 1575000   0.99791695   -6.3843301    634.68161  0.033581037  0.033643437            8 
 1576000    1.0006967   -6.3765775    634.18178  0.033533301  0.033636052            3 
 1577000    1.0357566    -6.302895    636.42839  0.033630754  0.033628828           10 
 1578000   0.99314509   -6.3413597    635.17916  0.033543471  0.033621664            5 
 1579000    1.0060803   -6.3715923    634.77352  0.033500819  0.033614327            4 
 1580000    1.0004282    -6.345016    635.73358  0.033530252  0.033606946            9 
 1581000   0.99801222   -6.3611295    633.86832  0.033410727  0.033599505            6 
 1582000    0.9969481   -6.2995781    637.78625  0.033595989  0.033592134            3 
 1583000   0.99937649   -6.3501758     635.1239  0.033434613  0.033584819            5 
 1584000    1.0163345    -6.341622    637.26393  0.033526091  0.033577463            9 
 1585000    1.0036986   -6.3637615    636.26922  0.033452641  0.033570124           10 
 1586000   0.99920714   -6.3449849    636.30902  0.033433639  0.033562873            7 
 1587000    0.9786763   -6.3288447    637.91509  0.033496906  0.033555569            3 
 1588000   0.98609273   -6.3637313    639.27251  0.033547046  0.033548315            5 
 1589000   0.99988035   -6.3442662    636.38648  0.033374579    0.0335409            4 
 1590000   0.98858896   -6.3606868    636.26699  0.033347327  0.033533493            7 
 1591000   0.97819993   -6.3608786    637.94844  0.033414438  0.033526085            4 
 1592000     1.001555   -6.3485869    636.80979  0.033333846  0.033518607            4 
 1593000    1.0138577   -6.3370518    637.96131  0.033373159   0.03351114           13 
 1594000   0.98766193    -6.363633    637.67361  0.033337182  0.033503746            5 
 1595000   0.98605307   -6.3446024     638.2054  0.033344065  0.033496283           11 
 1596000   0.99682808   -6.3769202    639.46175  0.033388771  0.033488929            6 
 1597000    1.0050679   -6.3513345    638.30199  0.033307347  0.033481539            5 
 1598000   0.99138245   -6.3633437    636.87963  0.033212329  0.033474123            7 
 1599000    1.0039817   -6.3509882    639.01743  0.033302972  0.033466646            6 
 1600000    1.0095712   -6.3842368    638.22989   0.03324114  0.033459083            7 
 1601000   0.98184164   -6.3634722    639.70125  0.033296963  0.033451672            4 
 1602000   0.99218144   -6.3446727     640.0838  0.033296078  0.033444309            5 
 1603000   0.97626651   -6.3414186    640.29468   0.03328627  0.033437032            5 
 1604000    1.0107928   -6.3740518    641.01907  0.033303152   0.03342962           10 
 1605000   0.99297866   -6.3262576    641.61415    0.0333133  0.033422194            4 
 1606000   0.98619852   -6.3455236    643.19976  0.033374832  0.033414778            7 
 1607000    1.0144897   -6.3444968     644.9911  0.033446956  0.033407593            5 
 1608000   0.97173337   -6.3545087     642.0473  0.033273595  0.033400449            5 
 1609000   0.98417184    -6.344242    644.00205  0.033354156  0.033393366            2 
 1610000   0.99343607   -6.3334955    643.18593  0.033291197  0.033386376           10 
 1611000    1.0213769   -6.3597227    642.97772  0.033259762  0.033379145            6 
 1612000   0.98780393   -6.3231894     644.2436   0.03330457  0.033372014            2 
 1613000   0.98963411   -6.3252604    646.90186  0.033421258  0.033365064            5 
 1614000   0.99732618   -6.3587357    643.15184  0.033206931  0.033357875            5 
 1615000   0.98998342   -6.3474447    644.66197  0.033264291  0.033350608           12 
 1616000   0.98458568   -6.3736609    644.20927  0.033220363  0.033343275            5 
 1617000   0.98546693    -6.336389    645.08666  0.033245035   0.03333588            4 
 1618000    1.0044823   -6.3481145    644.13959   0.03317571  0.033328536           10 
 1619000     0.992644   -6.3492558    644.67647  0.033182853  0.033321247            6 
 1620000     1.009576    -6.329232    647.14147   0.03328917  0.033313822           10 
 1621000   0.99940245   -6.3340542    643.61151  0.033087164  0.033306401            7 
 1622000   0.99526945   -6.3606446    645.62379  0.033170149  0.033298909            6 
 1623000   0.99326195   -6.3599198    645.17919  0.033126884   0.03329152            3 
 1624000    1.0027148   -6.3720453    647.16713  0.033208494  0.033284107            6 
 1625000   0.97500552   -6.3657546    647.41491  0.033200765  0.033276592            3 
 1626000    1.0101233   -6.3615846    646.03359  0.033109553  0.033269165           13 
 1627000   0.99468244   -6.3936563    645.91353  0.033083053  0.033261665            6 
 1628000     0.988514   -6.3527328    647.84215  0.033161453  0.033254208            4 
 1629000     0.995395   -6.3456982    648.00865  0.033149614  0.033246835            5 
 1630000   0.99443137   -6.3849017    647.89775  0.033123607  0.033239498            6 
 1631000   0.98045865   -6.3345107    650.55839  0.033239239  0.033232236            9 
 1632000   0.99863768   -6.3511882    648.05176  0.033090878  0.033225058            5 
 1633000   0.98442264   -6.3783293     648.1964  0.033077995  0.033217636           16 
 1634000   0.99102847   -6.3531029    649.65932   0.03313236  0.033210224           15 
 1635000    0.9985985   -6.3580101    648.38938  0.033047369  0.033202777            6 
 1636000   0.97516456   -6.3595754    650.99746  0.033160017  0.033195298            7 
 1637000   0.98615729   -6.3113644    648.54601  0.033014967  0.033188013            8 
 1638000   0.99320108   -6.3739077    649.79291  0.033058247  0.033180607            7 
 1639000   0.97932464   -6.3654192    650.06696  0.033052011  0.033173128            7 
 1640000     1.001505   -6.3591389    649.52682  0.033004411  0.033165843            6 
 1641000   0.97215929    -6.338155    652.13293  0.033116643  0.033158521            5 
 1642000   0.96880575     -6.34916    653.56172  0.033168987  0.033151379            7 
 1643000   0.96813425   -6.3668052    653.37818   0.03313949  0.033144055            7 
 1644000   0.98592722   -6.3513475    651.18379  0.033008099  0.033136639            5 
 1645000    0.9858111   -6.3149215    651.93568  0.033026124  0.033129222           11 
 1646000    1.0017846   -6.3577727    649.86901  0.032901428  0.033121708           11 
 1647000   0.98767306    -6.346584    651.79933   0.03297912   0.03311412            9 
 1648000   0.98074562    -6.388491    652.16577  0.032977638  0.033106578            8 
 1649000    1.0057414   -6.3924769     651.0276  0.032900121  0.033099054            8 
 1650000    1.0006604   -6.3518377    652.14487  0.032936609  0.033091444           15 
 1651000   0.96522356   -6.3563686    653.70901  0.032995609  0.033083824            6 
 1652000    0.9940975   -6.3749043    651.15233  0.032846667  0.033076279            5 
 1653000    0.9872421   -6.3449078    652.95204  0.032917526  0.033068754           15 
 1654000   0.99191795   -6.3760585    652.42613  0.032871127  0.033061202            6 
 1655000    1.0045462   -6.3476988    653.84467  0.032922692  0.033053507            8 
 1656000     0.988496   -6.3650179    653.66565  0.032893803  0.033045956            9 
 1657000   0.99619128   -6.3539421    653.91152  0.032886317  0.033038377            3 
 1658000   0.97431291   -6.3702714    653.88494  0.032865146  0.033030806            9 
 1659000    1.0096755   -6.3638153    654.97457  0.032900069  0.033023202            5 
 1660000   0.99593689   -6.3629527    654.57189  0.032860035  0.033015527            5 
 1661000   0.98608435   -6.3714903    656.33347  0.032928631  0.033007897            7 
 1662000   0.96734145   -6.3646125    655.70053  0.032877082  0.033000305            7 
 1663000    1.0000702   -6.3536207     656.1319  0.032878929  0.032992796           10 
 1664000   0.99227923   -6.3867795    655.70907  0.032837994  0.032985301            8 
 1665000   0.97921879    -6.392328    653.98094  0.032731779  0.032977689            5 
 1666000   0.99902891   -6.3587549    657.56931  0.032891622  0.032970123            4 
 1667000   0.97945684   -6.3631904    656.87924  0.032837394  0.032962558            5 
 1668000   0.96502526   -6.3439927    656.57152  0.032802334  0.032955023            8 
 1669000   0.99281207   -6.3994258     654.3909  0.032673802  0.032947417            6 
 1670000   0.99179781   -6.3791726    655.35023  0.032702107   0.03293983            5 
 1671000   0.98114532   -6.3866744    656.26217  0.032728016  0.032932248            5 
 1672000   0.97367982   -6.3782304    656.20575  0.032705629   0.03292459            6 
 1673000    1.0018078   -6.3783747    657.17314  0.032734267  0.032916812            6 
 1674000    1.0106072   -6.4096459    655.89664  0.032651167  0.032909038            3 
 1675000   0.99470355   -6.3482275    655.91858  0.032632765  0.032901293           13 
 1676000    0.9790173   -6.3694481    658.88588  0.032760833  0.032893561            8 
 1677000    0.9610736   -6.4004687    657.57238  0.032676028  0.032885773            4 
 1678000   0.97568697   -6.3489224    658.86442   0.03272072  0.032878008            4 
 1679000   0.96656606   -6.3830521    657.17507  0.032617385  0.032870369            4 
 1680000   0.99181815   -6.4063121    659.44678  0.032710654  0.032862542           13 
 1681000   0.98670159   -6.3423744    659.22117   0.03268001  0.032854735            5 
 1682000   0.96572856   -6.3530052    657.74787  0.032587588  0.032846862            6 
 1683000   0.98211273   -6.3772162      656.756  0.032519112  0.032838996            6 
 1684000     1.008445   -6.3784854    657.96979  0.032559867  0.032831142            5 
 1685000   0.98871142   -6.3565607    660.50123  0.032665739  0.032823302            6 
 1686000   0.99726637   -6.3541636    658.78329  0.032561452  0.032815408            6 
 1687000   0.98292517   -6.3861943    658.22142  0.032514395  0.032807372            5 
 1688000   0.97006109   -6.3636564    658.46896  0.032507354   0.03279933            6 
 1689000   0.99383177   -6.3899362    660.38763  0.032582772  0.032791375            7 
 1690000   0.97999034   -6.3717413    660.96586  0.032592005  0.032783369            7 
 1691000   0.95872834   -6.3594154    658.63151  0.032457693    0.0327754            8 
 1692000   0.98507394   -6.3765854    659.63854  0.032488108  0.032767383            6 
 1693000   0.97033833   -6.3927161    660.30506  0.032501726  0.032759398            7 
 1694000   0.98825786   -6.3743057    660.07651  0.032471296  0.032751357            3 
 1695000   0.98076939   -6.3543242    660.77296   0.03248638  0.032743353            4 
 1696000   0.97318195   -6.3816492    660.54961   0.03245625  0.032735342            7 
 1697000   0.98747301   -6.4116401    660.56516  0.032437888  0.032727242            8 
 1698000   0.99634259   -6.4035935    660.92891  0.032436637  0.032719108            9 
 1699000   0.96723285   -6.3835654    660.09378  0.032376583  0.032710932           11 
 1700000    1.0002858   -6.3982532    661.54849  0.032428848  0.032702769            6 
 1701000    1.0107809   -6.3756035    661.47389  0.032406128   0.03269463            2 
 1702000   0.96412147   -6.4025005     660.1917  0.032324309  0.032686485           12 
 1703000   0.95632567   -6.3445514    661.13397  0.032351437  0.032678355            4 
 1704000   0.93474548   -6.3668573    660.53805  0.032303308   0.03267017            6 
 1705000    0.9971009   -6.3752657    661.91962  0.032351888  0.032662044            7 
 1706000    1.0009483   -6.3765823     661.5862  0.032316638  0.032653825            4 
 1707000    0.9831142    -6.385619    661.82507  0.032309367  0.032645512            7 
 1708000   0.96884093   -6.3839113    663.02859   0.03234917  0.032637298            9 
 1709000    0.9669657    -6.372629    660.36474  0.032200348  0.032629092            7 
 1710000   0.98609593   -6.3830872     662.0382   0.03226307  0.032620918            4 
 1711000   0.97210466   -6.3734998    663.51994  0.032316381  0.032612698            8 
 1712000   0.96677084   -6.3838968     663.6082  0.032301801  0.032604562            9 
 1713000    1.0063325     -6.39975    662.39732  0.032224038  0.032596442           11 
 1714000   0.98821446   -6.3783103     664.0332  0.032284772  0.032588347            7 
 1715000    1.0006033   -6.4009761    663.64919  0.032247288  0.032580201            6 
 1716000   0.99224634   -6.3747575    664.78676  0.032283739  0.032572189            8 
 1717000   0.97706772    -6.389971    665.70862  0.032309679  0.032564167           10 
 1718000   0.99640697   -6.4058817    666.48752  0.032328654  0.032556256            6 
 1719000   0.96383924    -6.411767    663.54746  0.032167319  0.032548113            6 
 1720000   0.97255671   -6.3774463     666.6463  0.032298755  0.032540132            9 
 1721000   0.96335656   -6.3599656    666.61532  0.032278487  0.032532235            3 
 1722000     0.977664   -6.4028237     665.6256  0.032211847  0.032524316            7 
 1723000   0.97737788   -6.4076883    667.32739  0.032275459  0.032516324            9 
 1724000   0.97762755   -6.3685283    669.20223  0.032347362  0.032508494            5 
 1725000    1.0017563   -6.3884088    667.99963  0.032270514  0.032500721            6 
 1726000   0.97890563   -6.3781902    668.72394  0.032286787   0.03249282           14 
 1727000   0.98224045   -6.3418257     669.1605  0.032289157   0.03248507            8 
 1728000   0.96696895   -6.3902118    669.91048  0.032306639  0.032477352            4 
 1729000   0.97885061   -6.3754237    668.57656  0.032223663  0.032469591            6 
 1730000   0.97765018   -6.4138805    669.13394  0.032231885  0.032461837            5 
 1731000   0.94654143   -6.3831368    669.50217  0.032230992  0.032453954            5 
 1732000   0.98655516   -6.4067721    670.51148  0.032260945  0.032445988            8 
 1733000   0.96278183   -6.3955571    669.63857  0.032200355  0.032438058            8 
 1734000   0.97234522   -6.4123404    670.05546   0.03220182  0.032430155            4 
 1735000   0.99878786   -6.4093681    669.64253  0.032163426  0.032422308            7 
 1736000   0.98797568   -6.3643513    669.31242  0.032129052  0.032414447            4 
 1737000   0.97017901   -6.3817403    669.46404   0.03211783  0.032406633            8 
 1738000   0.99529179   -6.3840589    671.61485  0.032202477  0.032398818            3 
 1739000   0.95217147   -6.3888163    670.93798  0.032151523  0.032391018            4 
 1740000   0.97188265   -6.3941683    671.46452  0.032158263  0.032383115            7 
 1741000   0.96899105   -6.3658852    671.60867  0.032146691  0.032375266            5 
 1742000   0.95141663   -6.4018559    671.07605  0.032102758  0.032367307            8 
 1743000    0.9647706   -6.3895744    670.62372  0.032062714  0.032359214            5 
 1744000   0.98264356   -6.4206405    671.21483  0.032072574  0.032351144            5 
 1745000   0.97422534   -6.3968545    673.19677  0.032148843  0.032343051            6 
 1746000   0.98559808   -6.3882769    671.78906  0.032063243  0.032335118            4 
 1747000   0.97551364   -6.3929276    673.07255  0.032106113  0.032327244            4 
 1748000   0.98716894   -6.3788077    671.63751  0.032019332  0.032319395            9 
 1749000   0.97044042   -6.3974029    672.95054  0.032063586  0.032311585           12 
 1750000   0.96010391   -6.4259724    675.18482  0.032151658  0.032303703           14 
 1751000   0.96871947   -6.3903382    674.02044  0.032077881  0.032295833           11 
 1752000   0.99321056   -6.3946339    674.80556  0.032096916   0.03228791            4 
 1753000   0.96752466   -6.3915138    673.84898  0.032033133  0.032279978            3 
 1754000   0.99584524     -6.38198    673.17068  0.031982644  0.032271981            4 
 1755000   0.95188726    -6.395757    675.23932  0.032062646  0.032264021            8 
 1756000   0.97875713   -6.3874556    674.36081  0.032002696  0.032256118            6 
 1757000   0.97217564   -6.3946858    675.61343  0.032043892  0.032248243           12 
 1758000   0.95276014   -6.4162744    674.55331  0.031975413  0.032240307            8 
 1759000   0.96243375   -6.4046587    675.06708  0.031981575  0.032232341           13 
 1760000   0.97304966   -6.4041209    674.98386  0.031959463  0.032224284            3 
 1761000   0.96748444   -6.4034614    675.15466  0.031949397   0.03221621           11 
 1762000   0.96420105   -6.4268869     675.8533  0.031964307  0.032208283            8 
 1763000   0.97661169   -6.4043338    675.64903  0.031936521   0.03220031            8 
 1764000   0.96302152   -6.3875437    676.84903  0.031975105  0.032192403            7 
 1765000   0.95741442   -6.3934565    677.09757  0.031968724  0.032184546            6 
 1766000   0.97671908   -6.3789472    676.64781  0.031929398   0.03217669            8 
 1767000   0.97145885   -6.3997375    676.96903  0.031926477  0.032168774            7 
 1768000    0.9794696   -6.4136408    677.27059  0.031922634  0.032160821            7 
 1769000   0.94539654   -6.4208086    677.56073  0.031918255  0.032152813            5 
 1770000    0.9546871    -6.411214    677.59726  0.031901942  0.032144746            4 
 1771000    0.9725313   -6.4409877    677.10898  0.031860953   0.03213675            8 
 1772000   0.97276333   -6.3983687    677.85119  0.031877878  0.032128741            6 
 1773000   0.97549325   -6.3881921    679.37926  0.031931719  0.032120787           10 
 1774000   0.97888011   -6.4009722    677.77359  0.031838293  0.032112882            5 
 1775000    0.9636666   -6.3992099    680.57284  0.031951777  0.032104859           10 
 1776000    0.9726467   -6.4096741    676.14787  0.031726158  0.032096898            4 
 1777000   0.95510619   -6.4176859    679.87218  0.031882957  0.032088928            7 
 1778000   0.95155566   -6.4108103    676.86806  0.031724225  0.032080861            5 
 1779000   0.95980095   -6.4241991    678.64802  0.031789771   0.03207294           10 
 1780000   0.97366075   -6.3812573    680.44549  0.031856062  0.032064985            9 
 1781000   0.94664205   -6.4198363    679.50109  0.031793987  0.032056921            7 
 1782000    0.9635973   -6.4229842    678.59693  0.031733863  0.032048868            7 
 1783000   0.96270254   -6.4127362    678.92452  0.031731376  0.032040907           10 
 1784000   0.96779082   -6.3941163    679.79761  0.031754373  0.032032892            7 
 1785000    0.9842369   -6.3994223    678.36418  0.031669663  0.032024863            4 
 1786000   0.96884326    -6.400011    680.12734  0.031734198  0.032016841           16 
 1787000   0.96743745   -6.3896905    681.76904  0.031792998  0.032008773            7 
 1788000   0.94489865   -6.3879914    683.53912  0.031857714  0.032000788            7 
 1789000    0.9737205     -6.39359    682.18201  0.031776691  0.031992857            5 
 1790000   0.97906742   -6.4087112    680.77037   0.03169322  0.031984866            8 
 1791000   0.94290112   -6.4086072    681.67471  0.031717602  0.031976797           12 
 1792000    0.9464345   -6.4153522    681.17347  0.031676594  0.031968713            9 
 1793000   0.96917077   -6.3947548    682.27684  0.031710208   0.03196056            3 
 1794000   0.97615195   -6.4288655    681.16739  0.031640997  0.031952414            7 
 1795000   0.97593844    -6.392165    682.56016   0.03168803  0.031944377           11 
 1796000   0.98741139   -6.3927947    682.46624  0.031666028  0.031936271            5 
 1797000   0.98478332   -6.4296063    684.42746  0.031739355  0.031928206            5 
 1798000   0.98004239   -6.4586936    681.28027  0.031575838  0.031920026            4 
 1799000   0.95494724    -6.402265    683.89379  0.031679349  0.031911771            4 
 1800000   0.98731459    -6.418219    681.40105  0.031546345   0.03190372            7 
 1801000   0.95163112   -6.4187812    685.10799  0.031700351  0.031895653            9 
 1802000   0.96737559     -6.41074     683.8108  0.031622771  0.031887585            6 
 1803000   0.97636227   -6.3832548    684.68613  0.031645689  0.031879576           10 
 1804000   0.97454261    -6.403014    686.50961  0.031712381  0.031871631            3 
 1805000   0.94709645   -6.4209764    684.67521   0.03161012    0.0318637            4 
 1806000   0.96913702   -6.4272434    685.02284  0.031608658  0.031855768           13 
 1807000   0.97931585   -6.4165615    687.34221  0.031698128  0.031847962            6 
 1808000   0.95336694   -6.3722551    687.84551  0.031703794  0.031840237            5 
 1809000   0.94899847   -6.4282271     686.2002  0.031610475  0.031832469            6 
 1810000   0.96964353   -6.4368059    686.81322  0.031621235  0.031824583            4 
 1811000   0.95290123   -6.4175194    687.21056  0.031622058  0.031816695            7 
 1812000   0.96039889   -6.4240083    686.53858  0.031573702  0.031808796           12 
 1813000   0.97666681   -6.3840603    687.05802  0.031580163  0.031800871            2 
 1814000   0.95416422   -6.3902368    686.52051  0.031538061  0.031792932            5 
 1815000   0.96917114   -6.4322001    687.99847  0.031588543  0.031785112            3 
 1816000   0.95579949   -6.4311902    688.49421  0.031593897  0.031777282            7 
 1817000   0.96244055   -6.3872707     688.4172  0.031572977  0.031769445            6 
 1818000   0.95760875   -6.3918923    691.09495  0.031678353  0.031761693            6 
 1819000   0.96473234   -6.4300125    687.79653  0.031509828  0.031753935            6 
 1820000    0.9529306   -6.4237018    690.07958   0.03159705  0.031746134            5 
 1821000   0.95458825   -6.4147662    690.03314  0.031577574  0.031738333            5 
 1822000   0.94373363    -6.411988    689.81523  0.031550276  0.031730514            7 
 1823000   0.96291781   -6.4069809    691.35291   0.03160326  0.031722778            5 
 1824000   0.94662582   -6.4237875    690.72909  0.031557433  0.031715156            4 
 1825000   0.96621618   -6.4171103    690.12737  0.031512665  0.031707495            6 
 1826000   0.96504463   -6.3986376    691.79941  0.031571715   0.03169983           12 
 1827000   0.96601739   -6.4480468    691.28651  0.031531039  0.031692154            6 
 1828000    0.9621599   -6.4286471    691.10577  0.031505551  0.031684528            4 
 1829000   0.93573836    -6.429305    695.08385  0.031669576  0.031676979           10 
 1830000   0.95274631   -6.4465949     692.7718  0.031546986  0.031669492            7 
 1831000   0.94853761   -6.4330653    693.50335  0.031563051  0.031661924           20 
 1832000   0.94706203   -6.4304193    692.98123  0.031522072  0.031654358            8 
 1833000   0.95050124   -6.4546433    692.43821  0.031480188  0.031646777            6 
 1834000   0.95935481   -6.4106324    693.10958  0.031493529  0.031639162            5 
 1835000   0.96038843   -6.4029642    693.93443  0.031513825  0.031631731            7 
 1836000   0.95479833   -6.3867866    694.37326  0.031516579  0.031624264           11 
 1837000   0.97327091   -6.4256119    694.89706  0.031523183  0.031616683            3 
 1838000   0.96031211   -6.4257049    693.52337  0.031443751  0.031609123            6 
 1839000   0.95457496    -6.397445    695.98835  0.031538352  0.031601517           11 
 1840000   0.95810819   -6.4329575    694.63932  0.031460114  0.031593962           13 
 1841000   0.96808439   -6.4105316    695.45442  0.031479921  0.031586421            5 
 1842000   0.95072027   -6.4282767    693.81837  0.031388815  0.031578826           12 
 1843000   0.95432459   -6.4053212    695.86816  0.031464467  0.031571232            9 
 1844000   0.94478667   -6.4646176    692.77985  0.031307838  0.031563569            9 
 1845000   0.94046135   -6.4272892     695.8798  0.031430885  0.031556007            4 
 1846000   0.94263474   -6.3912814    698.39262  0.031527294  0.031548462            6 
 1847000   0.97806962   -6.4002602     697.9586  0.031490643  0.031540933            8 
 1848000   0.95339437   -6.4664127    694.80211  0.031331264  0.031533327            7 
 1849000   0.94679362   -6.4383802      695.048  0.031325401   0.03152573            9 
 1850000   0.95888834   -6.4309955    699.12283   0.03149202  0.031518183           15 
 1851000   0.97960043   -6.4301312    697.14031  0.031385752   0.03151071            9 
 1852000    0.9386168   -6.4225814     696.7032  0.031349136  0.031503165            5 
 1853000   0.95790087   -6.4399649    696.87828  0.031340092  0.031495612           11 
 1854000   0.97807887   -6.4296361    697.07271  0.031331927   0.03148805            6 
 1855000   0.94708497   -6.3963658    698.19705  0.031365546  0.031480457            8 
 1856000   0.94827004   -6.4325318    697.08909    0.0312989  0.031472941            9 
 1857000   0.93876396    -6.392827    699.05004  0.031370043  0.031465406            7 
 1858000   0.94942912   -6.4213896    698.90018  0.031346438  0.031458036            4 
 1859000   0.94001703   -6.4189551    698.56124  0.031314382  0.031450539            6 
 1860000   0.95130208   -6.4258279    696.86724   0.03122165  0.031442884            5 
 1861000   0.93966313   -6.4230368    699.59027  0.031326808   0.03143526           13 
 1862000   0.98700453   -6.4200116    699.67274  0.031313674  0.031427727           11 
 1863000   0.96756213   -6.4380503    700.79959  0.031347271  0.031420143           10 
 1864000    0.9660915   -6.4129195    700.03944   0.03129647  0.031412418           10 
 1865000   0.96925385   -6.4257472    700.35468  0.031293775  0.031404827           11 
 1866000   0.91533759   -6.4298651    701.02249  0.031306828  0.031397226            5 
 1867000   0.95368796   -6.4323344    700.22708  0.031254557  0.031389657           10 
 1868000    0.9501911   -6.4466039    700.33799  0.031242772  0.031382007            8 
 1869000   0.96390378   -6.4116616    699.98698  0.031210406  0.031374421            7 
 1870000   0.96335762   -6.4399991    702.08947  0.031287409  0.031366831           11 
 1871000   0.95314087   -6.4385204    700.12878  0.031183359  0.031359273            6 
 1872000   0.95248798   -6.4281811    701.73755  0.031238317  0.031351742           12 
 1873000    0.9531802    -6.453042    703.54043  0.031301852  0.031344247            4 
 1874000   0.93612185   -6.4389006    702.42338  0.031235476  0.031336718            4 
 1875000   0.93616454   -6.4162092    701.91628  0.031196279  0.031329284            4 
 1876000   0.96152099   -6.4453762     704.5001  0.031294425  0.031321916            6 
 1877000   0.93747495   -6.4155457    704.03437  0.031257075  0.031314432            6 
 1878000   0.94046808    -6.397505    704.00066  0.031238936  0.031306923           13 
 1879000     0.949677   -6.4445745    703.61424  0.031205173  0.031299433            7 
 1880000   0.93652168   -6.4183265    700.99211  0.031072345  0.031291887            6 
 1881000   0.92687735   -6.4506501    702.85626  0.031138413   0.03128433            5 
 1882000   0.94108211   -6.4561295    704.75731  0.031206044  0.031276779            6 
 1883000   0.94594657   -6.4334821    703.99716  0.031155831  0.031269329            7 
 1884000   0.95340348    -6.424931    703.19387  0.031103763  0.031261792           18 
 1885000   0.97115537   -6.4189187     704.3896  0.031140124  0.031254248           11 
 1886000   0.95495891   -6.3937326    705.23395   0.03116092  0.031246709            3 
 1887000   0.95238661    -6.390777    706.15739  0.031185188  0.031239259            7 
 1888000   0.95175037   -6.4559548     704.8821  0.031112381  0.031231832            4 
 1889000   0.95881695   -6.4460392    706.73506  0.031177654  0.031224399            9 
 1890000   0.97979451   -6.4526287    707.67868  0.031202764  0.031217038            6 
 1891000   0.94310127   -6.4551175    706.10516   0.03111692  0.031209695            6 
 1892000   0.92680129   -6.4185055    707.21577  0.031149391  0.031202335            4 
 1893000   0.95130303   -6.4454434    707.39681  0.031140906  0.031194859            6 
 1894000   0.94539318    -6.462041    708.46903   0.03117164  0.031187444            6 
 1895000   0.92588093   -6.4591063    707.01029  0.031091042  0.031179975            7 
 1896000   0.94764689    -6.437833    708.79326  0.031153009  0.031172506            7 
 1897000   0.95895968   -6.4216306    705.95246  0.031011793  0.031165025            9 
 1898000   0.92800378   -6.4338774    708.63531  0.031113247  0.031157612            9 
 1899000   0.96324772   -6.4159395     708.3379  0.031083812  0.031150219            7 
 1900000   0.95502978   -6.4276281    708.18397    0.0310607   0.03114281           13 
 1901000   0.93552731   -6.4302519    711.01822  0.031168605  0.031135415           13 
 1902000   0.94488866    -6.401979      710.724  0.031139327  0.031128105            7 
 1903000   0.91032809   -6.4333731    710.55646  0.031115627  0.031120798            3 
 1904000   0.95319546   -6.4271944     706.8578  0.030937404  0.031113407           11 
 1905000   0.94578059   -6.4505165    710.23633  0.031068956  0.031106086           14 
 1906000   0.95766015     -6.41821    709.48996  0.031020023  0.031098726            9 
 1907000   0.94870712   -6.4356542    711.48592  0.031090977  0.031091385            4 
 1908000   0.94877151   -6.4462769    709.66321  0.030995074  0.031084002            9 
 1909000   0.93148468   -6.4545169    709.81318  0.030985384  0.031076697           11 
 1910000   0.94381529   -6.4734848    712.10323  0.031069076  0.031069364            8 
 1911000    0.9483735   -6.4445516    712.21713  0.031057785  0.031062002            6 
 1912000   0.93569785   -6.4455912    709.92333  0.030941568  0.031054718            7 
 1913000   0.93874766    -6.444231    711.79154  0.031006776  0.031047298           15 
 1914000   0.93813957   -6.4580509    710.85598  0.030949842  0.031039802           10 
 1915000   0.96598849   -6.4475752    711.32591   0.03095413  0.031032405            9 
 1916000   0.94992997     -6.44742    711.27911  0.030935939  0.031025053            6 
 1917000    0.9494778   -6.4337517    711.03063     0.030909  0.031017683            5 
 1918000   0.92970269   -6.4285206    712.65994  0.030963675  0.031010338            8 
 1919000   0.95715509   -6.4335674    712.60794  0.030945281   0.03100295            9 
 1920000   0.94070225   -6.4411692    712.16416  0.030909903  0.030995617           11 
 1921000   0.94400662   -6.4422612     711.9704  0.030885407  0.030988176           12 
 1922000   0.94602185   -6.4336046     714.0158  0.030958021  0.030980671            7 
 1923000   0.94751102   -6.4313733    713.26432  0.030909357  0.030973275            5 
 1924000   0.93953238   -6.4666944    711.74748  0.030827593  0.030965881            4 
 1925000   0.94716802   -6.4479312    713.07181  0.030868909  0.030958388            7 
 1926000   0.94146608     -6.46297    712.38562  0.030823192  0.030950863           11 
 1927000    0.9583783   -6.4396832    716.37956  0.030979915  0.030943413           12 
 1928000   0.94242869    -6.448259    715.02263  0.030905197  0.030935907            8 
 1929000   0.94746139   -6.4473632    714.58323  0.030870193  0.030928499            9 
 1930000   0.95526838   -6.4590387    714.56201  0.030853282  0.030921109            6 
 1931000   0.93839389   -6.4642951    714.18436  0.030821006   0.03091371            9 
 1932000   0.93455548   -6.4273798    714.72219  0.030828252  0.030906448            7 
 1933000   0.96287767   -6.4652709     715.5841  0.030849461  0.030899088           10 
 1934000   0.91355445    -6.483289    713.07788  0.030725521  0.030891711           13 
 1935000   0.94672695   -6.4360949    715.68401  0.030821878   0.03088433           23 
 1936000    0.9693337   -6.4202279    717.51985   0.03088498  0.030876975            6 
 1937000   0.94391462   -6.4270317    716.37993  0.030819994  0.030869636            8 
 1938000   0.92487355   -6.4389753     717.4458  0.030849923  0.030862213            9 
 1939000   0.95521227   -6.4439347    718.34152  0.030872508  0.030854738            7 
 1940000   0.93708733    -6.435058    716.00211  0.030756105  0.030847309            6 
 1941000   0.94210746   -6.4838646    717.64118  0.030810629  0.030839817           10 
 1942000   0.95030172    -6.427536    717.31301  0.030780682  0.030832336            8 
 1943000   0.93062278   -6.4753458     717.1124  0.030756236  0.030824854            9 
 1944000   0.93572282   -6.4514821    716.12718  0.030698182  0.030817382            8 
 1945000   0.94840001    -6.459381    718.04896  0.030764737  0.030809909           11 
 1946000   0.94738164   -6.4791524    718.79654  0.030780941  0.030802416           16 
 1947000   0.96004922   -6.4909833    716.11429  0.030650329  0.030794936            6 
 1948000    0.9297532   -6.4796909    718.10791   0.03071988  0.030787485            9 
 1949000   0.93016012   -6.4670361    717.88732  0.030694686  0.030780097            7 
 1950000   0.92273793   -6.4413959    718.81129  0.030718431  0.030772777           11 
 1951000   0.94167253   -6.4545799    718.92167  0.030707401  0.030765492            6 
 1952000   0.94568929   -6.4604915    720.79153  0.030771496  0.030758164            6 
 1953000   0.91655081   -6.4674876    718.26393  0.030647889  0.030750791            7 
 1954000   0.93441193   -6.4687792    721.61969   0.03077532  0.030743434            6 
 1955000   0.94174302   -6.4696292    719.77185  0.030680812   0.03073601            5 
 1956000   0.93534372   -6.4618504    719.56129  0.030656156  0.030728594            6 
 1957000   0.94271693   -6.4471426    719.85597  0.030653039  0.030721303           12 
 1958000    0.9453272   -6.4262676    722.15584  0.030735267   0.03071402            7 
 1959000   0.93048251   -6.4852002    720.37178  0.030643687  0.030706779            8 
 1960000   0.95612818   -6.4368508     721.4037  0.030671926  0.030699523            3 
 1961000   0.93244582   -6.4700539    720.75256  0.030628615  0.030692234            6 
 1962000   0.91427555   -6.4724055    721.10414  0.030627936  0.030684882           10 
 1963000   0.95464072   -6.4614997    721.47094  0.030627905  0.030677585           12 
 1964000   0.93292806   -6.4767915    721.09554  0.030596382  0.030670286            5 
 1965000   0.93864128   -6.4561155    722.76926  0.030651792  0.030662957           13 
 1966000       0.9557   -6.4525985    723.40158  0.030663003  0.030655668           13 
 1967000    0.9452516   -6.4718928    722.72016  0.030618546  0.030648355            3 
 1968000   0.92883723   -6.4732034    721.76387  0.030562494  0.030640994           21 
 1969000   0.94621363   -6.4545535    724.50311  0.030662905  0.030633683            5 
 1970000   0.92326418   -6.4792469    724.06657  0.030628874  0.030626429            6 
 1971000   0.93786525   -6.4516014     723.9732  0.030609386  0.030619008           15 
 1972000   0.93891331   -6.4454868    721.60839  0.030493931    0.0306115            9 
 1973000   0.92214203   -6.5007049    723.89916   0.03057523  0.030604059            8 
 1974000   0.94641573   -6.4586337    721.04322  0.030439177  0.030596646           10 
 1975000   0.94430951   -6.4626808    722.75171  0.030495853  0.030589158            4 
 1976000   0.93293039   -6.4275317    723.96274  0.030531492   0.03058171            6 
 1977000   0.93066522   -6.4596431    722.13604  0.030439051   0.03057427            5 
 1978000   0.92041218   -6.4296229    724.14032  0.030508103  0.030566775            4 
 1979000   0.93157635   -6.4910468    722.04608  0.030404501  0.030559353           15 
 1980000   0.94083879   -6.4674478    725.47435  0.030533432   0.03055184            6 
 1981000   0.92094778   -6.4810389    722.12375  0.030377072  0.030544368            4 
 1982000   0.94304892   -6.4783256    724.55154  0.030463822  0.030536831           15 
 1983000   0.93252351   -6.4896949    724.78621  0.030458321  0.030529283            6 
 1984000   0.92853474   -6.4985128    725.31171  0.030465042  0.030521786            7 
 1985000   0.95343731   -6.4656284    723.62946  0.030379071  0.030514182            8 
 1986000   0.93876245   -6.4605476    724.80606  0.030413144  0.030506589            9 
 1987000   0.93315644   -6.4661219    722.07757  0.030283408  0.030499044            9 
 1988000    0.9344926   -6.4519552    725.32639  0.030404359  0.030491488            6 
 1989000   0.93235759   -6.4440789    725.99578  0.030417118  0.030484047           15 
 1990000   0.94153108   -6.4427495    725.13527  0.030365799  0.030476539            5 
 1991000   0.94490394   -6.4664851    725.71203  0.030374687  0.030469052            9 
 1992000      0.95587   -6.4951017    725.25488  0.030340315  0.030461623            6 
 1993000   0.90701891   -6.4503905    724.55052   0.03029564  0.030454149            4 
 1994000   0.93994062   -6.5051439    726.89807  0.030378555  0.030446596           11 
 1995000   0.96255862   -6.4490391    728.09083  0.030413151  0.030439091           10 
 1996000   0.93841551   -6.5047457    727.45097  0.030371199  0.030431567            5 
 1997000   0.92998297   -6.4770744    727.58607  0.030361629  0.030424004            4 
 1998000   0.94217458   -6.5166987    727.08362  0.030325477  0.030416352           11 
 1999000   0.93626127   -6.4647787    726.38738  0.030281282  0.030408795            5 
 2000000   0.93351106   -6.5168261    725.99418  0.030249757  0.030401211            6 
 2001000   0.94811301   -6.4658802     725.5537  0.030216296   0.03039359            7 
 2002000   0.93672691   -6.4578173    726.84504  0.030254955  0.030385937            6 
 2003000   0.93187619   -6.5175881    727.25818  0.030257039  0.030378239            5 
 2004000   0.94647666   -6.4731792    727.25339  0.030241741  0.030370535           10 
 2005000   0.93419475   -6.5011853    726.77402  0.030206734  0.030362841            9 
 2006000   0.92753306   -6.4604747    726.59272  0.030184144  0.030355144           15 
 2007000   0.92665896   -6.4200042    728.87729  0.030263963  0.030347472            9 
 2008000   0.92274887   -6.4394316    726.24397  0.030139607  0.030339808            5 
 2009000   0.92862578   -6.4712066    726.18193  0.030122031  0.030332011            7 
 2010000   0.93513184   -6.4553421     727.0345  0.030142392  0.030324267           12 
 2011000   0.92045662   -6.4782616    726.23866  0.030094425  0.030316506            7 
 2012000   0.91940997   -6.4379864    728.32031  0.030165686  0.030308765            5 
 2013000   0.92705219   -6.4855655    727.33627  0.030109963  0.030301039           10 
 2014000   0.90603262   -6.4797138    726.06696  0.030042492  0.030293162            7 
 2015000    0.9326658   -6.4490324    728.57534  0.030131321  0.030285295            7 
 2016000   0.92433737   -6.4581888    726.22354  0.030019161  0.030277536            6 
 2017000   0.92790366   -6.4887964    727.56947  0.030059885  0.030269703            6 
 2018000   0.92001373    -6.429604    728.06198  0.030065328   0.03026197            7 
 2019000   0.93681477   -6.4699449    729.54924  0.030111823  0.030254239           16 
 2020000   0.92505612   -6.4743165    728.83747  0.030067552  0.030246503           10 
 2021000   0.91618713   -6.4729334     731.4199  0.030159158   0.03023879           12 
 2022000   0.92848616   -6.4990126    731.32129  0.030140179  0.030230935           11 
 2023000   0.94437236   -6.4722357    729.71548  0.030059132   0.03022316            5 
 2024000   0.94166392   -6.4837862    731.17705  0.030104457  0.030215364            9 
 2025000   0.92469539   -6.4921317    727.29077  0.029929661  0.030207594            5 
 2026000   0.91107041   -6.4587418    729.01081  0.029985637  0.030199849            6 
 2027000   0.92534341    -6.465024    731.08662  0.030056184  0.030192111            6 
 2028000   0.92095652   -6.4483359    729.33796  0.029969509  0.030184438            5 
 2029000   0.92246044   -6.4581825    730.35073  0.029996334  0.030176638            9 
 2030000   0.92299021   -6.4960592    729.32091  0.029939282  0.030168792            7 
 2031000   0.94925351   -6.4857443    729.16499  0.029918143   0.03016092           15 
 2032000   0.93478742   -6.4886057    730.86349  0.029973076  0.030153156           12 
 2033000   0.95797711    -6.507101    731.34099  0.029977906   0.03014525            6 
 2034000   0.92765684   -6.5198463    730.84828  0.029942981  0.030137448            4 
 2035000   0.92736452   -6.4688052    731.67416  0.029962087  0.030129622           10 
 2036000    0.9342851   -6.4501691    732.58016  0.029984453  0.030121855            9 
 2037000   0.93384087   -6.4967342    731.98457  0.029945368  0.030114119            5 
 2038000   0.92822041   -6.4703018    733.98338  0.030012405  0.030106434            6 
 2039000   0.92483946   -6.4833102    731.42436    0.0298931  0.030098598           12 
 2040000   0.93104809   -6.5072588    732.44117  0.029919983  0.030090786           10 
 2041000    0.9317858   -6.4799578    732.92558  0.029925101  0.030082973           12 
 2042000   0.93921049   -6.5024185    733.50857  0.029934238  0.030075286            4 
 2043000   0.93072353   -6.4860532      732.407  0.029874653  0.030067523            4 
 2044000   0.93110544   -6.4695842    734.22795  0.029934277  0.030059806           14 
 2045000   0.95400496   -6.5015068    732.95968  0.029867957  0.030052074            3 
 2046000   0.91517246   -6.4490904    733.56974  0.029878207  0.030044323            5 
 2047000   0.92008938   -6.5066855    733.63631  0.029866321  0.030036549            5 
 2048000   0.92355261   -6.5006617    735.06381  0.029909823  0.030028722           10 
 2049000   0.93820827   -6.4559596    735.41266  0.029909414  0.030020963           11 
 2050000   0.93716399   -6.4894836    733.02989  0.029797963  0.030013226            9 
 2051000   0.90003207   -6.4675547     736.3199   0.02991711  0.030005496            9 
 2052000   0.91287737   -6.4710616    734.84008  0.029842433  0.029997815           12 
 2053000   0.92660676   -6.4960721    735.97402  0.029873925  0.029990162            8 
 2054000   0.91261916   -6.5005631    735.46015  0.029838533  0.029982523            9 
 2055000   0.93093885   -6.4940566      734.557  0.029787389  0.029974898           13 
 2056000   0.92477168   -6.4809435    735.87445  0.029826299   0.02996721           10 
 2057000   0.93592153   -6.4992118    735.84025  0.029810414  0.029959551           13 
 2058000   0.91542652   -6.4648697    737.32487  0.029856044  0.029951884            4 
 2059000   0.92435169   -6.4785898    737.09773  0.029832351  0.029944394            6 
 2060000    0.9075249   -6.4982703    737.14115  0.029819626  0.029936842            4 
 2061000   0.92443519   -6.4802987     738.8148  0.029872829  0.029929299            6 
 2062000   0.94160398   -6.4918736    738.04729  0.029827323  0.029921689            6 
 2063000   0.92407691   -6.4844598    737.80749  0.029803179  0.029914118            5 
 2064000   0.91288065   -6.4973725    738.73801  0.029826308  0.029906514            5 
 2065000   0.92118629   -6.5220893      738.779  0.029813519  0.029898923            8 
 2066000   0.90607962   -6.4897214    737.36728  0.029742146  0.029891313            5 
 2067000   0.91967276   -6.5069846    738.25267  0.029763452  0.029883743           11 
 2068000    0.9131722   -6.5125234    739.07004  0.029781997  0.029876212            6 
 2069000   0.91989703   -6.5151965    740.28658  0.029816601  0.029868654           10 
 2070000   0.91247329     -6.52118     738.3104  0.029722641  0.029861025            7 
 2071000   0.90558144   -6.4872155    740.52166  0.029797266  0.029853474           13 
 2072000   0.90996885   -6.4868748    738.17595  0.029688544  0.029845997           11 
 2073000   0.92696888   -6.4898767    739.52196  0.029728331  0.029838473            7 
 2074000   0.93977304   -6.4732916    740.49942  0.029753271  0.029830989           13 
 2075000    0.9402988   -6.4870869    738.57645  0.029661705  0.029823386            6 
 2076000    0.9071583    -6.505614    738.27226  0.029635206  0.029815764           12 
 2077000   0.93976727    -6.466549     742.5554  0.029792786  0.029808159            8 
 2078000   0.92711823   -6.5255282    740.95931  0.029714441  0.029800624           14 
 2079000   0.91021834   -6.4833618    742.25838   0.02975222  0.029793035            7 
 2080000   0.91967423   -6.4985617    740.41514  0.029664068  0.029785493           10 
 2081000   0.92219151   -6.5114764    741.06938  0.029676012  0.029777964           12 
 2082000   0.92335278   -6.4653308    743.17556   0.02974606  0.029770424            7 
 2083000   0.92220193   -6.4732417    742.91761   0.02972146  0.029762959            5 
 2084000   0.91747963   -6.4689833    742.74306  0.029700218   0.02975552            6 
 2085000   0.92844576   -6.4741905    742.01814     0.029657  0.029748046            6 
 2086000   0.91304269   -6.4881467    742.11744   0.02964675  0.029740651            9 
 2087000   0.90554551   -6.4862021    744.20535  0.029715914  0.029733181            7 
 2088000   0.92136426   -6.4845846    743.78494  0.029684904  0.029725712            9 
 2089000   0.90191156   -6.5034428    744.79505  0.029710988  0.029718362            7 
 2090000   0.92775245   -6.4947884    744.54311  0.029686727  0.029710954            5 
 2091000   0.93457346   -6.4985111    744.63342  0.029676129  0.029703621            5 
 2092000   0.93335393    -6.507214    745.08755  0.029680033  0.029696244            9 
 2093000   0.92710596   -6.5000646    745.15607  0.029668581  0.029688839            7 
 2094000   0.91689979   -6.4954457    743.13353  0.029573923  0.029681434           23 
 2095000   0.91437685   -6.5018906    745.07961  0.029637216  0.029674012           16 
 2096000   0.90324657    -6.496582    742.31985  0.029513353  0.029666582            8 
 2097000   0.90958724   -6.5008295    744.80024  0.029597848  0.029659138            9 
 2098000   0.91725648   -6.4939313    745.09204   0.02959533  0.029651685           11 
 2099000   0.92445106   -6.5138361    743.86674  0.029532584  0.029644234           12 
 2100000    0.9276909   -6.4873199    746.75724  0.029633224  0.029636872           12 
 2101000   0.91908394   -6.4993397    747.65939  0.029654902  0.029629516           26 
 2102000   0.92570154   -6.5031541    747.62053  0.029639253  0.029622074           13 
 2103000   0.90212709   -6.4855751    749.49861   0.02969958  0.029614718            5 
 2104000   0.90728607   -6.5115008    747.49278  0.029606019  0.029607376            5 
 2105000   0.91614623   -6.5298316    748.39745  0.029627769  0.029599994           13 
 2106000   0.90192345   -6.4934019    748.43274  0.029615097  0.029592666            5 
 2107000   0.91735906   -6.4955539    748.72719  0.029612688  0.029585412            7 
 2108000   0.91670154    -6.527717    747.97862  0.029569047  0.029578109           14 
 2109000   0.91687706   -6.5469695    749.03132  0.029596623  0.029570776           16 
 2110000   0.92378428   -6.4933184    748.15474  0.029547975  0.029563455           15 
 2111000    0.9098354   -6.4932949    749.52934  0.029588242  0.029556106           11 
 2112000   0.90726996   -6.4953565     750.2198  0.029601476   0.02954879            4 
 2113000   0.91649354   -6.4830247    749.06155  0.029541787  0.029541588            6 
 2114000   0.90238795   -6.5038279    748.10015  0.029489915  0.029534244            6 
 2115000   0.90823574   -6.5198929    749.20276  0.029519415  0.029526896           12 
 2116000   0.89643973   -6.5312785    748.58324  0.029481067  0.029519538            6 
 2117000   0.91162677   -6.5209718    750.75876  0.029552778  0.029512143           11 
 2118000   0.92149596   -6.4901001    751.23969  0.029557747  0.029504834            7 
 2119000   0.90634377   -6.5070234    749.58181  0.029478599  0.029497553            4 
 2120000   0.91305518   -6.5109707    749.57678  0.029464496  0.029490253           13 
 2121000   0.92018186   -6.5080415     752.5084  0.029565786   0.02948292            6 
 2122000   0.90890961   -6.4867588    750.97124  0.029491488  0.029475651            4 
 2123000   0.90192912   -6.4821301    751.89473  0.029513846  0.029468358            7 
 2124000   0.90710678   -6.5031642    750.78946  0.029456586  0.029461098           12 
 2125000   0.91379107   -6.5040779    751.53944  0.029472135  0.029453755           13 
 2126000   0.91557933   -6.5278929    749.93379  0.029395335  0.029446387            5 
 2127000   0.91331803    -6.514553    750.57081  0.029406473  0.029438981           23 
 2128000   0.91444558   -6.5013634     749.6934  0.029358294  0.029431529           10 
 2129000   0.90977364   -6.5146298     751.9764  0.029433866  0.029424153            5 
 2130000   0.89576713   -6.5031245    752.07761  0.029424007   0.02941685            8 
 2131000   0.90288279   -6.4945565    751.42989   0.02938487   0.02940945           10 
 2132000   0.89910785   -6.5069312    753.31598  0.029444808  0.029402077            9 
 2133000   0.91976885   -6.5186475    752.13448  0.029384845  0.029394741            9 
 2134000   0.90395491   -6.5198466    752.43327  0.029382743  0.029387364           17 
 2135000    0.8988374   -6.4930656    755.49932  0.029488654  0.029380154           17 
 2136000   0.89050202   -6.4853195    752.28733  0.029349537  0.029372896            8 
 2137000    0.9042308   -6.5025879    752.89623  0.029359547  0.029365572           13 
 2138000   0.91426462   -6.5091687     755.9266   0.02946393  0.029358224            9 
 2139000   0.91985442    -6.528844    752.89629  0.029332098  0.029350888            7 
 2140000   0.92064763   -6.5168197    753.26867  0.029332892  0.029343574            7 
 2141000   0.92323169   -6.5447323    754.59535  0.029370829  0.029336296            5 
 2142000   0.88909564   -6.5007893    752.83118  0.029288483  0.029328965           16 
 2143000   0.88736343   -6.5294061    753.53371  0.029302135  0.029321712            5 
 2144000   0.90317951   -6.5290885    753.99949  0.029306572   0.02931447            5 
 2145000   0.90973191    -6.492873    755.35017  0.029345384  0.029307257            9 
 2146000   0.91429461   -6.4798956    754.97092  0.029316982  0.029300078            6 
 2147000   0.89870731   -6.5135703     755.7466  0.029333434  0.029292884            7 
 2148000   0.91600113   -6.5160966    756.07621  0.029332566  0.029285737           11 
 2149000   0.89951782   -6.5348549    757.92197   0.02939049  0.029278557           22 
 2150000   0.91049624   -6.4973221    757.50656  0.029360719  0.029271417            7 
 2151000   0.90824389   -6.5052846    756.36172  0.029302717  0.029264321           17 
 2152000   0.90125004   -6.5047513    759.11418  0.029395685  0.029257233            7 
 2153000   0.90332614   -6.5230221     756.1619  0.029267762  0.029250109           15 
 2154000   0.91547945   -6.4886613    756.18501  0.029255068  0.029242999           10 
 2155000   0.91413707   -6.5028187     756.8497  0.029267196  0.029235824            6 
 2156000   0.91180693   -6.5182208    757.68261  0.029285815  0.029228649            4 
 2157000    0.9160064   -6.5105972    758.02988  0.029285655  0.029221514            5 
 2158000   0.91445136   -6.5467906    757.76496  0.029261854  0.029214396           11 
 2159000   0.89175178    -6.513885    760.07822  0.029337588  0.029207277           10 
 2160000   0.91639815    -6.534473    758.64228  0.029268606  0.029200191            7 
 2161000   0.91276964   -6.5119988    757.73586  0.029220109  0.029193124            6 
 2162000   0.89696098    -6.531927    757.84055  0.029210629  0.029185908            9 
 2163000   0.91141167   -6.5618242    757.63967  0.029189385  0.029178739           10 
 2164000   0.89029364   -6.5483619    758.64069  0.029214444  0.029171604            4 
 2165000   0.88924236   -6.5376727    758.78263  0.029206414  0.029164522           14 
 2166000   0.90236996   -6.4946001    760.34804  0.029253156    0.0291574            7 
 2167000    0.9106284   -6.5165824     760.6515  0.029251327  0.029150297            8 
 2168000   0.91399548   -6.5529913    760.98076  0.029250491  0.029143246            7 
 2169000   0.89993439   -6.4808871    759.78139  0.029190925   0.02913617           20 
 2170000   0.89084051   -6.5119487    759.79473  0.029177985  0.029129098            9 
 2171000   0.92803176   -6.4984825    761.52829  0.029231087  0.029122064            9 
 2172000   0.91082663    -6.479068     761.4592  0.029214979  0.029114979            9 
 2173000   0.91188769   -6.5133502    761.32223  0.029196281  0.029107908            7 
 2174000    0.8883427     -6.52168    760.48685   0.02915083   0.02910081            8 
 2175000     0.914896   -6.5046611     761.3322  0.029169816  0.029093675            8 
 2176000   0.89048772   -6.4917538    762.35736  0.029195671   0.02908664            5 
 2177000   0.90760749   -6.5274348    761.58339  0.029152633  0.029079595            8 
 2178000   0.89617184   -6.5200608    762.39961  0.029170478   0.02907247            7 
 2179000   0.90642602   -6.5190104    763.06318  0.029182468  0.029065376           13 
 2180000   0.89824307   -6.5169384    760.48594  0.029070564  0.029058227           19 
 2181000   0.91624938   -6.5220009    761.34946  0.029090229  0.029051124            7 
 2182000   0.92506016   -6.5136342     763.0165  0.029140563  0.029044002            4 
 2183000   0.87931076   -6.5228357    762.11849  0.029092934  0.029036909           10 
 2184000   0.90227147   -6.5202389    763.14479  0.029118772  0.029029773            7 
 2185000   0.89485559   -6.5463698    761.54933  0.029044597  0.029022644            8 
 2186000   0.89591503     -6.53592     762.0414  0.029050069  0.029015564            7 
 2187000   0.89055523   -6.5875093    762.69728  0.029061777  0.029008393            8 
 2188000   0.90247414   -6.5202866     761.4546  0.029001165  0.029001266            7 
 2189000   0.91307086   -6.5288053    764.16655  0.029091159  0.028994128            7 
 2190000   0.88366109   -6.5167698     764.1368  0.029076743  0.028986994            7 
 2191000   0.91308987   -6.5328661    765.19227  0.029103616  0.028979913            5 
 2192000   0.92370646   -6.5207235    761.89876  0.028965129  0.028972765            8 
 2193000   0.90542329   -6.5382575    765.61554  0.029093158  0.028965651            7 
 2194000   0.89619706   -6.5606173    764.55435  0.029039591  0.028958479            7 
 2195000   0.92729283   -6.5430071    765.47459  0.029061298  0.028951331            4 
 2196000   0.92135185   -6.5124969    766.01173  0.029068448  0.028944249           19 
 2197000   0.88968155   -6.5063664    767.76817  0.029121839  0.028937244            6 
 2198000   0.89987254   -6.5230389    766.54427  0.029062188  0.028930217           14 
 2199000   0.89843222    -6.550558    766.13155  0.029033331  0.028923156           10 
 2200000   0.90400394   -6.5374429    765.42754  0.028993467  0.028916098           16 
 2201000    0.9013637    -6.506447    764.92733  0.028961356  0.028909083            8 
 2202000   0.89022829   -6.5058454     765.6263  0.028974656  0.028902052           12 
 2203000   0.90878011   -6.5112832    768.36553  0.029065121  0.028895009            8 
 2204000   0.88126717   -6.5111317    766.12943  0.028967386  0.028888083            6 
 2205000   0.91655597   -6.5363302    767.91054  0.029021562  0.028881135            6 
 2206000   0.88765309   -6.5267834     767.0405   0.02897554  0.028874153            6 
 2207000   0.89218102   -6.5080002     768.0935  0.029002171  0.028867154            7 
 2208000   0.88771767   -6.5489272    768.69002  0.029011549  0.028860233           15 
 2209000   0.90710361   -6.4999632    770.39396  0.029062697  0.028853276           11 
 2210000   0.91052561   -6.5493363    768.67626  0.028984776  0.028846343            6 
 2211000   0.91149717   -6.5437366    766.64315  0.028895038  0.028839365           11 
 2212000   0.88890217    -6.533282    767.35596  0.028908829  0.028832356            5 
 2213000   0.90368705   -6.5576762    769.00318  0.028957794   0.02882538           10 
 2214000   0.90338024   -6.5507956    771.70459  0.029046394  0.028818401            8 
 2215000   0.89207595   -6.5622472    769.13419  0.028936576  0.028811444            8 
 2216000    0.9046709   -6.5601656    770.34266  0.028968963  0.028804517           10 
 2217000   0.87808151   -6.5469809    769.84035  0.028937015  0.028797576            4 
 2218000   0.90137886   -6.5605265    770.67689  0.028955399  0.028790613            9 
 2219000   0.87681482   -6.5575695    770.03713  0.028918324  0.028783643            8 
 2220000    0.8986727   -6.5240284     770.4999  0.028922669  0.028776743           13 
 2221000   0.88852318   -6.5100765    770.57821  0.028912585  0.028769944           11 
 2222000   0.90991944   -6.5355516    772.69162  0.028978834  0.028763106           10 
 2223000   0.89925189   -6.5307263    771.63136  0.028926052  0.028756318            6 
 2224000   0.91361773   -6.5213243    772.51065  0.028945993  0.028749534            4 
 2225000   0.89335396   -6.5534244    771.10992  0.028880521   0.02874269           12 
 2226000   0.88747136    -6.558624    770.94116  0.028861229   0.02873583            9 
 2227000   0.89929626   -6.5357834    771.49296  0.028868918  0.028728977            3 
 2228000   0.89468456   -6.5344343    771.71492  0.028864263  0.028722054           16 
 2229000   0.86456121   -6.5403904    772.01706  0.028862609   0.02871515            9 
 2230000   0.88914726   -6.5199362     773.1858  0.028893341  0.028708243           27 
 2231000    0.8918556   -6.5510299    771.67496  0.028823956  0.028701364           10 
 2232000   0.88055979   -6.5644995    771.01332  0.028786339  0.028694499            9 
 2233000   0.86955624   -6.5680044    773.73293  0.028874941  0.028687642            7 
 2234000   0.89574345   -6.5315914    773.19546  0.028841967  0.028680762            4 
 2235000   0.90116307   -6.5587667    772.51174   0.02880357  0.028673952            7 
 2236000   0.88763239   -6.5262719    774.49005  0.028864418  0.028667145            6 
 2237000   0.89129082   -6.5281997    775.67244  0.028895561  0.028660398            7 
 2238000   0.90083327   -6.5520837    774.13483  0.028825396  0.028653604           12 
 2239000   0.89955694   -6.5349269    776.34868  0.028894919  0.028646808           27 
 2240000   0.89471967   -6.5390326    775.51013  0.028850823  0.028640034           12 
 2241000   0.86634319   -6.5461145    773.99513  0.028781613  0.028633123           11 
 2242000   0.87084758   -6.5663684    773.36803  0.028745466  0.028626221           10 
 2243000   0.89889774    -6.527013     774.9227  0.028790411  0.028619326            8 
 2244000   0.88824485   -6.5272353     774.6214  0.028766392  0.028612417           20 
 2245000   0.88286169   -6.5464934     776.3041  0.028816039  0.028605547            6 
 2246000   0.89972518   -6.5301067    775.12613  0.028759503   0.02859867           13 
 2247000   0.89056176    -6.550617     774.9158  0.028738904   0.02859176           19 
 2248000   0.88520791   -6.5366845    774.72277  0.028718964  0.028584801            6 
 2249000   0.89083618   -6.5357135    774.06655  0.028681879  0.028577886            6 
 2250000   0.87680754   -6.5319131    777.21143  0.028785609  0.028570897           13 
 2251000   0.87839189   -6.5602665    774.70311  0.028679961  0.028563987            8 
 2252000   0.88775656   -6.5470509    775.55862  0.028698883   0.02855696           23 
 2253000   0.89503298   -6.5474194    775.54199   0.02868553  0.028549954            9 
 2254000   0.88891185   -6.5696804    774.17221  0.028622161  0.028543029           10 
 2255000   0.88377504   -6.5453962     775.0741  0.028642798  0.028536042            7 
 2256000   0.89583565   -6.5558044    775.19911  0.028634719  0.028529069            9 
 2257000   0.88957704   -6.5552753    771.88707  0.028499744   0.02852203            8 
 2258000   0.88575294   -6.5564384    775.24126  0.028610912  0.028515001           12 
 2259000    0.8896052   -6.5492077    777.00878  0.028663449  0.028508044           10 
 2260000   0.87661244   -6.5629404    775.54787  0.028596898  0.028501037            6 
 2261000   0.88586071   -6.6017212    775.79032  0.028593186  0.028494029            9 
 2262000   0.87992997   -6.5192634    775.96625  0.028587027  0.028487072           13 
 2263000   0.88186355   -6.5413808    774.93579  0.028536448   0.02848013           10 
 2264000   0.89516645   -6.5526503      776.638  0.028586499  0.028473101           12 
 2265000   0.89284985   -6.5699809    776.58903  0.028572076  0.028466104            4 
 2266000   0.89199645   -6.5178643    776.55204  0.028558107  0.028459123            6 
 2267000   0.86777035   -6.5616488    776.53217  0.028544779   0.02845216            6 
 2268000   0.90856555   -6.5358299    777.11902  0.028553756  0.028445226            5 
 2269000   0.90349807   -6.5710048      777.625  0.028559755  0.028438263           13 
 2270000   0.85625677   -6.6046605    776.41627    0.0285028  0.028431224           11 
 2271000   0.88965927   -6.5476034    778.25866  0.028557855    0.0284242           27 
 2272000   0.89062395   -6.5376035    776.40504  0.028477298  0.028417153           14 
 2273000   0.89989965   -6.5591023    777.29029  0.028497224  0.028410088           17 
 2274000   0.88707658    -6.563384    778.87988  0.028542945  0.028403016           34 
 2275000   0.88393369   -6.5685516    775.67572   0.02841303  0.028395988           12 
 2276000    0.8800099   -6.5606756    779.15182   0.02852782  0.028388974           12 
 2277000   0.89627241   -6.5419383    779.64945  0.028533503  0.028381954            7 
 2278000   0.89768596   -6.5470368    778.62002  0.028483319  0.028374998            9 
 2279000   0.89303217   -6.5748791    777.01563  0.028412156   0.02836801            5 
 2280000   0.86009919   -6.5554807    779.84511  0.028503111   0.02836103           11 
 2281000   0.89094297   -6.5397682    777.35574  0.028399669  0.028354037           18 
 2282000   0.90371449   -6.5360007    778.47228  0.028427997  0.028346994           14 
 2283000   0.89393645   -6.5423681    777.67266  0.028386358  0.028339936           26 
 2284000   0.88207014   -6.5424355    781.09607  0.028498835  0.028332924           10 
 2285000   0.88766986   -6.5641806    780.27942   0.02845658  0.028325919            5 
 2286000    0.8925242   -6.5255771    779.75704  0.028425089  0.028318885            3 
 2287000   0.87573589     -6.53903    781.83213  0.028488272  0.028311909            9 
 2288000    0.8758056   -6.5556378    780.39458  0.028423462  0.028304921            9 
 2289000   0.88793077   -6.5629303    780.00404  0.028396827  0.028297876           10 
 2290000   0.87023559   -6.5608027    780.96883  0.028419535   0.02829086            9 
 2291000   0.87379183   -6.5429104    779.94184  0.028369775  0.028283823            9 
 2292000     0.899171   -6.5470536    779.46264  0.028339974  0.028276786           16 
 2293000   0.89065453    -6.601972    777.96067  0.028273029  0.028269738           12 
 2294000   0.87771201   -6.5863619     780.1808  0.028341354  0.028262595            6 
 2295000   0.87221947   -6.5669449    779.67257  0.028310551  0.028255467            9 
 2296000   0.87974946   -6.5455543    779.39153   0.02828802  0.028248361            6 
 2297000     0.878597   -6.5402393     778.2869   0.02823563  0.028241227           15 
 2298000   0.88356399    -6.581501    780.15269  0.028291003   0.02823411           12 
 2299000   0.87011983   -6.5265534    782.81204  0.028375092  0.028227078           13 
 2300000   0.90401689   -6.5517366    782.69713  0.028358592  0.028220066            9 
 2301000   0.88551253   -6.5816558    781.89595  0.028317252  0.028213062           12 
 2302000    0.9071403   -6.5772205    781.95505   0.02830709  0.028206042           19 
 2303000   0.87978582   -6.5578398    783.09181  0.028335932  0.028199028            6 
 2304000   0.86559668    -6.541941    781.56093  0.028268263  0.028191915           22 
 2305000   0.88009688    -6.546124    780.80891  0.028228811  0.028184815           17 
 2306000    0.8964867   -6.5546443    782.51504  0.028278225  0.028177699           17 
 2307000   0.88540171   -6.5535575    783.67428  0.028307841  0.028170672            6 
 2308000   0.87708255   -6.5708488    780.51069  0.028181351   0.02816353           10 
 2309000   0.88593637   -6.5833609    781.52422  0.028205725  0.028156348            8 
 2310000   0.88395913   -6.5461834    781.63988  0.028197687  0.028149196            7 
 2311000   0.87284957   -6.5775346    781.20217  0.028169702  0.028142028            8 
 2312000   0.87686194    -6.543255    780.71617      0.02814   0.02813491            6 
 2313000   0.87940946    -6.569521    782.45548  0.028190499  0.028127814           15 
 2314000   0.87393794   -6.5752485     782.3253  0.028173628    0.0281207            6 
 2315000   0.86441294   -6.5985989    781.38581  0.028127639    0.0281135           16 
 2316000   0.88615712   -6.5939514    781.58902  0.028122806  0.028106297           11 
 2317000    0.8880034   -6.5343482    785.35484   0.02824611  0.028099174           16 
 2318000   0.90198903   -6.5627498     783.0419  0.028150773  0.028092083            8 
 2319000   0.86288366   -6.5532143    785.19887  0.028216145  0.028084994            9 
 2320000   0.86857684   -6.5854394    783.06688  0.028127402   0.02807787            9 
 2321000   0.87430064   -6.5443988    785.35283  0.028197359  0.028070799           12 
 2322000    0.8719654   -6.5542848    785.97686   0.02820761  0.028063733           11 
 2323000   0.89680864   -6.5834085    783.03954  0.028090097  0.028056688           14 
 2324000   0.88213274   -6.5744902    784.51624  0.028130961  0.028049603           12 
 2325000   0.86222459   -6.5927332    781.76436  0.028020228  0.028042525           10 
 2326000   0.88382004   -6.5801705    785.45738  0.028140491  0.028035422           10 
 2327000   0.89651272   -6.5768541    784.11218  0.028080224  0.028028347            8 
 2328000   0.88351673   -6.5615705    786.01339  0.028136218  0.028021247            6 
 2329000    0.8928129   -6.5584782    785.10558  0.028091655  0.028014156            6 
 2330000   0.88533875   -6.5725768     784.1617   0.02804584  0.028007092           10 
 2331000   0.88729617   -6.5401668    787.53964   0.02815457  0.028000111           20 
 2332000   0.88296716   -6.5797776     785.5195  0.028070308  0.027993071           12 
 2333000   0.86345792   -6.5673518    784.48831  0.028021443  0.027986028            9 
 2334000   0.85168373   -6.5833679    784.78254  0.028019942  0.027978991           29 
 2335000   0.86619509   -6.6032575    786.08357  0.028054374  0.027971929           13 
 2336000    0.8777658    -6.559858    786.24939   0.02804828  0.027964834           20 
 2337000   0.86729555   -6.5618406    787.28517  0.028073212  0.027957792           11 
 2338000     0.887428   -6.5890036    786.58502   0.02803625    0.0279507            8 
 2339000   0.88258605   -6.5885374    786.20051  0.028010564  0.027943576           14 
 2340000   0.88408087   -6.5795323    785.81486   0.02798486  0.027936457            7 
 2341000   0.86879389   -6.5757187     786.9764  0.028014253  0.027929325           12 
 2342000    0.8837388   -6.6077386     784.9978  0.027931889  0.027922181            7 
 2343000   0.88035047   -6.5926643    785.88069  0.027951369  0.027915032            5 
 2344000   0.86180865   -6.5700539    787.29981  0.027989897  0.027907923           29 
 2345000   0.86522442   -6.5581744    787.55902  0.027987172  0.027900773           14 
 2346000   0.87654995   -6.5577403    786.04633  0.027921509  0.027893622           30 
 2347000   0.86905121    -6.589285    785.40591  0.027886874  0.027886428           25 
 2348000   0.87901598   -6.5751889    785.91016  0.027892893  0.027879256            8 
 2349000   0.88031116   -6.5664881    786.26619   0.02789365  0.027872116            7 
 2350000   0.86962452   -6.5606416    788.48914  0.027960608  0.027864979            7 
 2351000   0.89686069   -6.5635313    788.71709  0.027956794  0.027857876            8 
 2352000   0.87229894   -6.5660732     788.5152  0.027937755  0.027850794           15 
 2353000   0.88914754   -6.5557012    786.49162  0.027854215  0.027843628           17 
 2354000    0.8890675   -6.5835938    788.66497  0.027919321    0.0278365            9 
 2355000   0.91136904   -6.5723589    788.57653  0.027904336  0.027829406           14 
 2356000    0.8538671   -6.5793035    786.96973  0.027835658  0.027822292            8 
 2357000   0.89082905    -6.570657    787.81955  0.027853894  0.027815119            7 
 2358000   0.87165483    -6.589887    788.21853  0.027856182  0.027807974            8 
 2359000   0.86907602   -6.5868493    787.28965   0.02781156  0.027800823           11 
 2360000   0.89157974   -6.5626904    789.02894  0.027861191  0.027793708           24 
 2361000   0.88382443   -6.5757618    788.15173  0.027818429   0.02778664           29 
 2362000   0.89232722    -6.533689    792.21861  0.027950134  0.027779572           31 
 2363000   0.87844325   -6.5911054    790.10622  0.027863811  0.027772514           12 
 2364000   0.86672057   -6.5884216    790.68144  0.027872301  0.027765427            6 
 2365000   0.90158477   -6.5981512    790.67956   0.02786045  0.027758366           10 
 2366000   0.86695449   -6.5670719    792.24128   0.02790368  0.027751348            8 
 2367000   0.88530516   -6.5810909     790.4384  0.027828419  0.027744299            9 
 2368000    0.8662959   -6.5698482    791.56757  0.027856404  0.027737246           16 
 2369000   0.87197728   -6.6064027    791.33188  0.027836354   0.02773019           11 
 2370000   0.89101051   -6.6018567    790.64349  0.027800404  0.027723125            9 
 2371000   0.88010692   -6.5816685    791.10872   0.02780503   0.02771614           23 
 2372000   0.86315723   -6.5715457    791.07944  0.027792279  0.027709138           11 
 2373000   0.87718221   -6.5819962    791.79301  0.027805626  0.027702056           11 
 2374000   0.85848239   -6.5744825    791.19936  0.027773075  0.027695039            5 
 2375000   0.88061002   -6.5664452    792.95096  0.027822841   0.02768802           12 
 2376000   0.86120445   -6.5756516    791.09311  0.027745971  0.027681017            5 
 2377000   0.86266369   -6.5982297    792.05485  0.027768015  0.027674014           14 
 2378000   0.87817853   -6.5913457    793.48628    0.0278065  0.027666974            7 
 2379000   0.89069265   -6.5684076    792.97311  0.027776836  0.027660052            5 
 2380000   0.88654733   -6.5762741    793.25978  0.027775202  0.027653129           20 
 2381000   0.88788023    -6.589465    793.35808  0.027766977  0.027646171           12 
 2382000   0.84555474   -6.5879629    795.27917  0.027822529  0.027639222           15 
 2383000   0.85993374   -6.6023851    794.96374  0.027799823  0.027632273           14 
 2384000   0.87011461   -6.5819245    792.18952  0.027691188  0.027625317           13 
 2385000   0.87451734   -6.5983116     793.8139  0.027736335  0.027618336            6 
 2386000   0.88503543   -6.6119613    792.93627  0.027694058   0.02761134           19 
 2387000   0.86746275   -6.5942186    792.37407  0.027662829  0.027604283           14 
 2388000   0.86803086   -6.5879254    794.02361  0.027708808  0.027597284           31 
 2389000   0.87293558   -6.5914116    795.61747  0.027752807  0.027590292            8 
 2390000   0.87388541   -6.5976304    794.05018  0.027686547  0.027583336           22 
 2391000   0.86222854   -6.6113184    794.12892  0.027677712  0.027576403           11 
 2392000   0.86607669   -6.6258336    794.29441  0.027671907  0.027569433           11 
 2393000   0.86382811   -6.5860081    795.49968  0.027702315  0.027562469           10 
 2394000   0.86011138   -6.5741391    796.95664  0.027741459  0.027555547            7 
 2395000    0.8712561   -6.6075271    793.96423  0.027625756  0.027548596            8 
 2396000   0.87707358   -6.5831002    795.68387  0.027674036   0.02754165            7 
 2397000   0.87281723   -6.5662431    795.28795  0.027648726  0.027534683            8 
 2398000   0.88946498   -6.5832098    794.59798  0.027613219  0.027527711           19 
 2399000   0.89419686   -6.5949143    797.29646  0.027695445   0.02752074           13 
 2400000   0.86306992   -6.5643717    794.67942  0.027593035  0.027513813           16 
 2401000   0.86762508   -6.6197497    795.25317  0.027601457  0.027506879           14 
 2402000   0.86195111    -6.581513    795.58662  0.027601534  0.027499904            8 
 2403000   0.85618697   -6.5905837      796.111  0.027608233  0.027492939            7 
 2404000    0.8734895   -6.5987845    796.00517   0.02759308  0.027485897           13 
 2405000   0.85026817   -6.5837392     796.1532  0.027586736  0.027478882           12 
 2406000   0.86802133   -6.6027667    795.76669  0.027561883  0.027471888           13 
 2407000   0.89612646   -6.5969174    797.41303  0.027607431  0.027464926           14 
 2408000   0.86596771   -6.5768831    799.92401  0.027682863  0.027458011           18 
 2409000    0.8742213   -6.5779514    799.41205  0.027653662  0.027451107            6 
 2410000   0.86547801   -6.5940255    797.96108  0.027592015  0.027444201           10 
 2411000   0.87542815   -6.5652096    796.95384  0.027545757  0.027437264            9 
 2412000   0.86603389   -6.5941891    796.56674  0.027520963  0.027430279           21 
 2413000   0.86134161   -6.5712938    798.02239  0.027559829  0.027423281            4 
 2414000   0.86570814   -6.6087688    796.97375  0.027512212  0.027416245            5 
 2415000   0.86869017   -6.5879164    796.40052  0.027481039  0.027409216           12 
 2416000   0.88393295   -6.6080078    798.80313  0.027552536  0.027402265            5 
 2417000   0.85183716   -6.5745487    798.34813  0.027525449  0.027395312            7 
 2418000   0.85331546   -6.6172734    796.85124  0.027462477  0.027388337            6 
 2419000   0.83898366   -6.5875965    797.63481  0.027478118  0.027381361           41 
 2420000   0.87226806   -6.5881928    798.87104  0.027509333  0.027374386           16 
 2421000   0.85781184   -6.5783431    799.87807  0.027532634  0.027367455            8 
 2422000   0.88944002   -6.6057114    797.92684   0.02745413  0.027360496           10 
 2423000   0.86195946     -6.61213    798.60341  0.027466069  0.027353477           14 
 2424000   0.86064189   -6.6209345    798.88673  0.027464478  0.027346459           16 
 2425000   0.85652093   -6.5929731    797.40799  0.027402337  0.027339466           14 
 2426000   0.85182764   -6.5974379    798.70057  0.027435441  0.027332539            5 
 2427000   0.85561309   -6.5890602    798.24625  0.027408538    0.0273256            7 
 2428000   0.85340317   -6.5921424    798.60966  0.027409722  0.027318628           12 
 2429000   0.89268509   -6.6176762     798.7753   0.02740412  0.027311685           10 
 2430000   0.88513515   -6.6441154     798.8436  0.027395185  0.027304722           10 
 2431000   0.86740023   -6.6021292    800.85691  0.027452931  0.027297813            9 
 2432000   0.86671801   -6.6146617    800.72751  0.027437209   0.02729092            9 
 2433000   0.85505328    -6.583683    799.81963  0.027394836  0.027284069           12 
 2434000   0.85522946   -6.6169133    800.82608  0.027418039  0.027277228           10 
 2435000   0.85598981    -6.612902    801.72777  0.027437638  0.027270349           12 
 2436000   0.88061249   -6.6154767    801.40558  0.027415352  0.027263474           11 
 2437000   0.86366973   -6.5982427    802.22344  0.027432069  0.027256573           12 
 2438000   0.85511505   -6.6261427    802.90855  0.027444235  0.027249685           13 
 2439000   0.87343568   -6.5913895    803.54953  0.027454884  0.027242841           18 
 2440000     0.868421   -6.6245863    801.66969  0.027379429  0.027235918           13 
 2441000   0.85677066   -6.6510634    803.14326  0.027418519   0.02722902           20 
 2442000   0.86141307   -6.5998702    802.35041  0.027380235  0.027222161           19 
 2443000   0.85103874   -6.6109232    802.10739  0.027360738  0.027215367            5 
 2444000   0.87226229   -6.6227987    801.99238  0.027345621  0.027208522            8 
 2445000   0.84162868   -6.6057655    803.85841  0.027398037  0.027201653            4 
 2446000   0.86754416   -6.6212552    803.92552  0.027389123  0.027194817           12 
 2447000   0.83754268   -6.6225148    801.81763  0.027306144  0.027187993           15 
 2448000    0.8698733    -6.588115     804.4083   0.02738318  0.027181171           11 
 2449000    0.8624022   -6.6121305    802.93137  0.027321743  0.027174378           14 
 2450000   0.85482083   -6.6061014    804.71138  0.027371136  0.027167525           10 
 2451000   0.86455643   -6.6410336    804.88488  0.027365867  0.027160676           13 
 2452000   0.85648033   -6.6224132    801.70621  0.027246677  0.027153789            8 
 2453000   0.83719273    -6.634233    802.67091  0.027268342  0.027146888           15 
 2454000   0.85747917   -6.6043328    804.84237  0.027330969   0.02713996           15 
 2455000   0.87218505   -6.5843867    806.02368  0.027359935  0.027133074            7 
 2456000   0.85212739   -6.6206544    804.51282  0.027297531  0.027126198            7 
 2457000   0.87265861   -6.6188059    804.77683  0.027295375  0.027119289            8 
 2458000   0.84561873   -6.6307089    807.21779  0.027367026  0.027112429           10 
 2459000    0.8544157   -6.5928577     805.2442  0.027289013  0.027105554           17 
 2460000   0.85090728   -6.6205098    802.81834  0.027195743  0.027098683            6 
 2461000   0.84354756   -6.6004132     805.5864  0.027278423  0.027091815            8 
 2462000   0.84547183    -6.617609    805.49143  0.027264129   0.02708494            8 
 2463000   0.86195291   -6.6071968    805.48804  0.027252945  0.027078056            7 
 2464000   0.87123507   -6.5795909    806.13728  0.027263842  0.027071164           11 
 2465000   0.86934955   -6.6378788    802.66216    0.0271353  0.027064275           16 
 2466000   0.86496374   -6.5818386    807.72066  0.027295237  0.027057366            8 
 2467000   0.85206021   -6.6055914    807.38544   0.02727285  0.027050478           17 
 2468000   0.86157339   -6.5776541    806.64043  0.027236643  0.027043569           14 
 2469000   0.85323956   -6.6020274     803.0404  0.027104104  0.027036655            9 
 2470000   0.84711445   -6.6186139    804.32409   0.02713644  0.027029738           20 
 2471000   0.85029859   -6.6292533    805.33907  0.027159688  0.027022834           31 
 2472000   0.83332095    -6.653888    805.48659  0.027153674  0.027015916            5 
 2473000   0.87137821    -6.580628    807.11954   0.02719772  0.027009063            9 
 2474000   0.84961696   -6.6167545    807.94091  0.027214393  0.027002255            9 
 2475000   0.84086487   -6.6168019    806.84466  0.027166487  0.026995389           12 
 2476000   0.85997148   -6.6283703    807.75891  0.027186285   0.02698851           11 
 2477000   0.84849775    -6.629167    808.70654  0.027207191  0.026981658            8 
 2478000   0.86202107   -6.5953057    806.67573  0.027127917   0.02697479            7 
 2479000   0.85729708   -6.6181122     806.2442  0.027102467  0.026967893            6 
 2480000   0.85688969   -6.5955991    808.24936  0.027158917  0.026961041            5 
 2481000   0.84814446   -6.5809738    807.43751  0.027120701  0.026954213           10 
 2482000   0.86425594   -6.6123891    809.47395  0.027178148  0.026947381            9 
 2483000   0.87253633   -6.6238774    810.36774  0.027197199  0.026940546            6 
 2484000   0.86113362   -6.6001575    808.76114  0.027132352  0.026933759            5 
 2485000   0.84321836   -6.6341401    808.09305  0.027099029  0.026926892           22 
 2486000   0.86986549   -6.6388953    809.19411  0.027125037  0.026920037           13 
 2487000   0.84390669    -6.616012    807.27614  0.027049864  0.026913175           11 
 2488000   0.84538131   -6.6426574    809.00209  0.027096801  0.026906327           16 
 2489000    0.8586427   -6.5856317    808.80017  0.027079154  0.026899511            5 
 2490000   0.86143141   -6.6489632    806.60114  0.026994683   0.02689269           15 
 2491000   0.84947692   -6.5887853    809.37476  0.027076635  0.026885808           13 
 2492000   0.86419126   -6.5979267    808.71219  0.027043613  0.026878993           19 
 2493000   0.85789673   -6.5989532    807.37278  0.026987992  0.026872119           13 
 2494000   0.86604264   -6.6063511    806.90077    0.0269614  0.026865256           29 
 2495000   0.85072054   -6.6049926    809.55901  0.027039379  0.026858387           11 
 2496000   0.84759679   -6.6375816    810.70655  0.027066859  0.026851517           13 
 2497000   0.83856829   -6.6423194    807.91765  0.026962944  0.026844671           13 
 2498000   0.84712515   -6.6252125    811.14523  0.027059822  0.026837822           14 
 2499000   0.85073939   -6.6466736    810.11729  0.027014716  0.026830962           17 
 2500000   0.85421289   -6.6446922    809.95449  0.026998483  0.026824034           11 
 2501000   0.85734205   -6.6220724     813.1399  0.027093826  0.026817194            6 
 2502000   0.85343347   -6.6184329     808.1421  0.026916537   0.02681033            7 
 2503000   0.86928764   -6.6403563     810.2743  0.026976771  0.026803458           13 
 2504000   0.84828407   -6.6179533    809.39996    0.0269369  0.026796594           28 
 2505000   0.83878084   -6.6098361     809.4345  0.026927295  0.026789725           15 
 2506000   0.84774797   -6.6332526    807.81557  0.026862715  0.026782809            7 
 2507000   0.85479846   -6.6363473    811.79032  0.026984122  0.026775921           36 
 2508000   0.86479418   -6.6339859    809.22801  0.026888225  0.026768968           27 
 2509000   0.84335646   -6.6331174    811.67225   0.02695869  0.026762052           12 
 2510000   0.84953105   -6.6223069    811.01439  0.026926109   0.02675511           14 
 2511000   0.85281979   -6.6483449     807.9122  0.026812432  0.026748214           13 
 2512000    0.8349193   -6.6091281    810.90703  0.026901109  0.026741267           11 
 2513000   0.83606761   -6.6388665    808.82097  0.026821229   0.02673434           16 
 2514000   0.85791424   -6.6144002    811.37099  0.026895087  0.026727441           12 
 2515000   0.85868814   -6.6298715    811.21041  0.026879072  0.026720558            9 
 2516000    0.8383094   -6.6196796    810.41995  0.026842208   0.02671369           27 
 2517000   0.82400611   -6.6181899    812.36042  0.026895789  0.026706844           10 
 2518000   0.83334358   -6.6438782    812.95715  0.026904857  0.026700009           15 
 2519000   0.85479335   -6.6437733    813.00086  0.026895622  0.026693156           17 
 2520000   0.86281472   -6.6306181    812.42162  0.026865794  0.026686255           11 
 2521000   0.85009152   -6.6200683    812.90696  0.026871181  0.026679459            9 
 2522000   0.87169893    -6.614045    812.56879  0.026849352  0.026672658            6 
 2523000   0.83526442   -6.6419202    810.98228  0.026786309  0.026665801           22 
 2524000   0.83728909   -6.6197223    812.04781  0.026810876  0.026658986           13 
 2525000   0.85741874   -6.6239429    812.05398  0.026800461  0.026652113            9 
 2526000    0.8584776   -6.6350296    811.96928  0.026787057   0.02664525           17 
 2527000   0.84652351   -6.6439478    812.69698  0.026800454  0.026638396            9 
 2528000   0.83906869   -6.6073264    813.73305  0.026824006  0.026631542           11 
 2529000   0.83238684   -6.6273964    812.00024  0.026756301  0.026624708           14 
 2530000   0.86973974   -6.6183762     813.2792  0.026787852  0.026617861           14 
 2531000   0.83776525   -6.6246252    810.26429  0.026678002  0.026610998           17 
 2532000   0.83911151   -6.6283799    812.28399  0.026733939  0.026604065            9 
 2533000   0.83631449   -6.6487307    812.04055  0.026715375  0.026597204           15 
 2534000   0.85390201   -6.6362176    814.12908  0.026773516  0.026590353           20 
 2535000   0.84377184   -6.6269283    813.87363  0.026754557  0.026583498           14 
 2536000    0.8427281   -6.6393056    815.08723  0.026783886   0.02657666            5 
 2537000   0.84231866   -6.6639499    813.65983  0.026726443  0.026569815           11 
 2538000   0.85151495   -6.6380186    813.13686  0.026698741  0.026562936            6 
 2539000   0.83107771   -6.6635773    813.70309   0.02670681   0.02655602            6 
 2540000   0.84543662   -6.6409446    813.56097  0.026691633  0.026549123           10 
 2541000   0.82691005    -6.587939    813.95577  0.026694076  0.026542208            7 
 2542000   0.85718652   -6.6411637    814.30247  0.026694941  0.026535355           11 
 2543000   0.83984944   -6.6070047    815.21566  0.026714368  0.026528471           28 
 2544000   0.83515649    -6.635611    813.68879  0.026653852  0.026521621           19 
 2545000   0.83838308   -6.6335664    816.38696  0.026731728  0.026514767           10 
 2546000   0.84240728   -6.6172312    814.94661  0.026674084  0.026507945           13 
 2547000   0.84285961   -6.6260909    815.28675   0.02667474  0.026501098           54 
 2548000   0.84937898   -6.6288508     817.6729  0.026742311   0.02649429           10 
 2549000   0.83175339   -6.6242547    815.80099  0.026670622  0.026487466            6 
 2550000   0.84942701   -6.6545646    813.46173  0.026583717  0.026480584            7 
 2551000    0.8310045   -6.6257771     815.9989  0.026656177  0.026473752           15 
 2552000   0.83865785   -6.6005949    816.21415  0.026652761  0.026466903            9 
 2553000   0.84772071   -6.6267793    816.72919  0.026659133  0.026460099           24 
 2554000   0.86710322   -6.6317197    815.65409  0.026613616  0.026453302            6 
 2555000   0.84492675   -6.6473541    813.29572  0.026526279  0.026446489            9 
 2556000   0.80867143   -6.6381886    815.08353  0.026574189  0.026439678           14 
 2557000   0.84591348   -6.6357243    816.56754  0.026612161  0.026432846           13 
 2558000    0.8450973   -6.6127407     816.9228  0.026613331  0.026426059           11 
 2559000   0.84849154    -6.656965    817.65409  0.026626745  0.026419219           10 
 2560000   0.84591203   -6.6202457    817.66152  0.026616586   0.02641237           24 
 2561000    0.8379887   -6.6336318    815.36792   0.02653156   0.02640555           12 
 2562000    0.8450713    -6.648724    817.20626     0.026581  0.026398711           10 
 2563000   0.83948666   -6.6281266    816.02229  0.026532133  0.026391847            8 
 2564000   0.85283064   -6.6455945    815.48548  0.026504338  0.026384979           12 
 2565000   0.83143972   -6.6237202    816.54043  0.026528279  0.026378117           26 
 2566000   0.85502015    -6.629294    815.44808  0.026482465  0.026371222           20 
 2567000   0.84508702   -6.6442813    816.37958  0.026502389  0.026364309           21 
 2568000   0.83172901   -6.6656053     815.5259  0.026464366  0.026357365           31 
 2569000    0.8561228   -6.6571397    816.83971  0.026496682  0.026350449           17 
 2570000   0.84274686   -6.6736917    815.86859  0.026454883  0.026343487           33 
 2571000   0.81283481   -6.6616054    815.96392  0.026447683   0.02633654            8 
 2572000   0.83637075   -6.6607884     816.0112  0.026438932  0.026329607           12 
 2573000   0.86462822   -6.6404936    816.14428  0.026432967  0.026322644           17 
 2574000   0.84491205    -6.647733    817.61836  0.026470421  0.026315717           15 
 2575000   0.86069479   -6.6651133    817.08904  0.026443011  0.026308776           18 
 2576000   0.83102802   -6.6729408    816.15143  0.026402414   0.02630185            6 
 2577000   0.85921372   -6.6725397    817.64573  0.026440491  0.026294934            8 
 2578000   0.87264815   -6.6558856    817.22784  0.026416726   0.02628803           11 
 2579000   0.81413168   -6.6183354    816.31779  0.026377077  0.026281123            6 
 2580000   0.82752056   -6.6297406      817.115  0.026392603    0.0262742           18 
 2581000   0.81295418   -6.6429084    816.45941   0.02636121  0.026267268           13 
 2582000   0.85521114    -6.654878     817.1113  0.026372041  0.026260329           12 
 2583000   0.83184149   -6.6323371    819.61518  0.026442611  0.026253372           17 
 2584000   0.82013491   -6.6314651    817.63234  0.026368432  0.026246432           16 
 2585000   0.81734509   -6.6443048    818.56932  0.026388437  0.026239516            7 
 2586000   0.86640106   -6.6399534    819.79464  0.026417718  0.026232643            5 
 2587000   0.84109887   -6.6158458    817.23942  0.026325197  0.026225738           23 
 2588000   0.85100892    -6.619681    819.42581  0.026385427  0.026218847           33 
 2589000   0.84385452   -6.6666399    819.08564  0.026364286   0.02621197           24 
 2590000   0.82903823    -6.623576      819.101  0.026354601  0.026205092           11 
 2591000   0.83373526   -6.6538739    819.32058  0.026351492  0.026198195            7 
 2592000    0.8454246   -6.6428134    820.99812  0.026395258  0.026191329           20 
 2593000   0.84514624    -6.662834    819.62832  0.026341057  0.026184463           13 
 2594000   0.84137877   -6.6642741    821.11855  0.026378776  0.026177599           10 
 2595000   0.83859272   -6.6628247    819.90091  0.026329509  0.026170754            5 
 2596000   0.85721918   -6.6667802    819.09529  0.026293506  0.026163826            8 
 2597000    0.8256209   -6.6620674    821.06538  0.026346598  0.026156996           12 
 2598000   0.83152555    -6.658257    820.48321  0.026317783  0.026150143            6 
 2599000   0.83158223   -6.6324579    820.05666   0.02629398  0.026143289           13 
 2600000   0.82303341   -6.6722097     822.0046  0.026346301  0.026136419            9 
 2601000   0.86019483   -6.6348371    820.62151  0.026291859  0.026129531           13 
 2602000   0.81659852   -6.6668172    821.58365  0.026312569  0.026122697            7 
 2603000    0.8357382   -6.6559345     820.0272  0.026252632   0.02611583            6 
 2604000   0.84364448   -6.6276898    820.63151  0.026261889  0.026108984           17 
 2605000   0.82658746   -6.6657427    823.74447  0.026351391  0.026102181           23 
 2606000   0.82795097   -6.6442144    823.51309   0.02633388   0.02609539           10 
 2607000   0.84693154   -6.6605881    822.52385  0.026292157   0.02608862            8 
 2608000   0.84656414   -6.6525738    820.42106  0.026214886   0.02608184           12 
 2609000   0.81146926    -6.672192    821.02347  0.026224079  0.026075055            8 
 2610000   0.83696923   -6.6687478    823.44211  0.026291255  0.026068246            9 
 2611000   0.82825719   -6.6330959    823.83565  0.026293746  0.026061484           13 
 2612000   0.82473625   -6.6622324    823.89545  0.026285588  0.026054713           15 
 2613000   0.83433916    -6.667002    821.75071  0.026207128  0.026047921           10 
 2614000   0.85413472   -6.6568359    822.85289  0.026232239  0.026041154            9 
 2615000   0.83288118   -6.6524443    823.84852  0.026253936  0.026034397            9 
 2616000   0.83260488   -6.6279627    821.85608  0.026180431  0.026027573            7 
 2617000   0.83893372   -6.6680652    823.33791  0.026217613  0.026020778            9 
 2618000   0.83015193   -6.6689774    823.40521  0.026209741  0.026013973           12 
 2619000   0.83446014   -6.6787345    823.93811  0.026216689  0.026007174           11 
 2620000    0.8420628   -6.6608346    821.96832   0.02614403  0.026000382           24 
 2621000   0.84402968   -6.6662104    823.17406  0.026172392  0.025993609           16 
 2622000   0.83249274   -6.6631068    824.18791  0.026194632  0.025986821           15 
 2623000   0.82450107   -6.6597785    824.15561   0.02618362  0.025980045           11 
 2624000   0.83198253   -6.6355739    824.35264  0.026179898  0.025973328           11 
 2625000   0.83888805    -6.672017    825.26085  0.026198757  0.025966608           12 
 2626000   0.82988831   -6.6591651    823.76095  0.026141183  0.025959855           37 
 2627000   0.83669883   -6.6802799    824.34717  0.026149828  0.025953078           14 
 2628000   0.84810279    -6.678169      823.725  0.026120149  0.025946296           15 
 2629000   0.83784239    -6.678352    825.08851  0.026153433  0.025939531           21 
 2630000   0.83669245   -6.6642135     825.2321  0.026148039  0.025932747           22 
 2631000   0.82816935   -6.6755687    823.52071  0.026083894   0.02592597           18 
 2632000   0.82352931   -6.6567273    825.71011  0.026143304  0.025919217           11 
 2633000   0.83930191   -6.6548606    825.75675  0.026134851  0.025912429           10 
 2634000   0.83569992    -6.663406    825.57765  0.026119262  0.025905689           28 
 2635000   0.82614986   -6.6703384    825.51377   0.02610733  0.025898933            9 
 2636000    0.8263207   -6.6418941    826.04038  0.026114074  0.025892151           15 
 2637000   0.82953491   -6.6768792    824.49289  0.026055268  0.025885361           19 
 2638000   0.82264215   -6.6494194    825.07501   0.02606378  0.025878576           14 
 2639000   0.83674654   -6.6641021    824.66546  0.026040971  0.025871823           12 
 2640000    0.8358408   -6.6504853    825.75659  0.026065549  0.025865012            6 
 2641000   0.83878528   -6.6993581    824.28239  0.026009163  0.025858207           14 
 2642000   0.81354849   -6.6645529    828.59503  0.026135347  0.025851425           35 
 2643000    0.8446325   -6.6478942    827.46814  0.026089927  0.025844646           26 
 2644000   0.81775369    -6.668304    825.51628  0.026018541  0.025837933           47 
 2645000   0.83844141   -6.6770182    827.29199   0.02606465  0.025831207           19 
 2646000   0.81933186   -6.6981076    825.72343  0.026005399  0.025824451            7 
 2647000   0.82978071   -6.6695755     826.4951  0.026019868   0.02581766           12 
 2648000   0.83999707   -6.6372506    828.15357  0.026062235  0.025810919           12 
 2649000   0.84398894   -6.6661098    827.44808  0.026030203  0.025804234           11 
 2650000    0.8178515   -6.6701465    826.80844  0.026000265  0.025797505           18 
 2651000    0.8347092   -6.6587913    826.03754  0.025966225  0.025790759           20 
 2652000   0.83918653   -6.6521102    827.96597   0.02601703  0.025784074            6 
 2653000   0.81222788   -6.6666126    829.30568  0.026049305  0.025777366           37 
 2654000   0.83071705   -6.6840989     827.5765  0.025985195  0.025770671           10 
 2655000    0.8209041   -6.6730695    829.10819  0.026023484  0.025763936           54 
 2656000   0.84202516   -6.6710314    828.03502  0.025980014   0.02575721           17 
 2657000   0.83298389   -6.6924962    825.08678  0.025877769  0.025750409            8 
 2658000   0.82302824   -6.6663907     826.5769  0.025914751  0.025743606            8 
 2659000   0.82367265   -6.6604343    827.33978  0.025928914   0.02573678           13 
 2660000   0.82857339   -6.6465614    825.48137  0.025860945  0.025729959           10 
 2661000    0.8274298   -6.6483562     828.2825  0.025938948  0.025723155           21 
 2662000   0.81645798   -6.6521658    828.05884  0.025922203  0.025716371           22 
 2663000   0.82782419   -6.6773414    826.77667  0.025872345  0.025709558           12 
 2664000    0.8203488   -6.6899889    826.57442  0.025856307  0.025702771            7 
 2665000   0.82301644   -6.6856106     825.1748  0.025802839  0.025695941            9 
 2666000   0.83416921    -6.664243    826.28148  0.025827753  0.025689131            8 
 2667000   0.81935756   -6.6774098    825.46155  0.025792449   0.02568226           25 
 2668000   0.82417684   -6.6958539     827.3438  0.025841573  0.025675422            8 
 2669000    0.8321161   -6.6841114    827.27099  0.025829617  0.025668543           13 
 2670000   0.83528779   -6.7049043    827.59877  0.025830174  0.025661693           13 
 2671000   0.81871767   -6.6742649    827.77076  0.025825869  0.025654898           23 
 2672000    0.8285324   -6.6652882     827.3147   0.02580198  0.025648096           22 
 2673000   0.82698624   -6.6737248    830.77557  0.025900224  0.025641297           18 
 2674000   0.82614772   -6.7115547     828.4077  0.025816745  0.025634495           10 
 2675000   0.83150641   -6.7013835     827.3354  0.025773688  0.025627684            8 
 2676000   0.81966857   -6.6553159    829.00938  0.025816186  0.025620879           16 
 2677000   0.81508556     -6.69986    827.48327  0.025759036  0.025614058           16 
 2678000   0.84613481   -6.6880193    830.87706  0.025855024  0.025607271           12 
 2679000   0.84405499   -6.6980861    827.20126  0.025731033  0.025600495           15 
 2680000   0.81147058   -6.6969074    830.05111  0.025810047  0.025593707           13 
 2681000   0.82770337   -6.7071972    831.47607  0.025844712  0.025586941           38 
 2682000   0.80846263   -6.6829931    830.06875  0.025791348  0.025580203           25 
 2683000   0.82919951   -6.6893329    830.15138  0.025784302  0.025573425           20 
 2684000   0.84389871    -6.674409    827.92111  0.025705449  0.025566612           10 
 2685000   0.82722152   -6.6607569    830.23628  0.025767731  0.025559859           24 
 2686000   0.82105474     -6.70245    829.83326  0.025745634  0.025553085           14 
 2687000   0.81169952   -6.6673851    830.41805  0.025754188  0.025546277           15 
 2688000    0.8373581   -6.6697215    830.31827  0.025741514  0.025539515           14 
 2689000   0.81521971   -6.6598152    830.83393  0.025747921  0.025532758           17 
 2690000   0.82714049   -6.6719466    830.23769  0.025719879  0.025526011           14 
 2691000   0.81390433   -6.6535638    832.00656  0.025765099  0.025519284            9 
 2692000   0.82724929   -6.6638244    831.81617  0.025749634  0.025512605           10 
 2693000    0.8280132   -6.7105461    829.08431  0.025655536  0.025505888           29 
 2694000   0.82388906    -6.665422    831.54965  0.025722273   0.02549916           16 
 2695000   0.80222226   -6.6657628    830.89728  0.025692557  0.025492502           15 
 2696000   0.82333339   -6.6865085    834.02257  0.025779629  0.025485843           10 
 2697000   0.82101731   -6.6838925    830.12875  0.025649758  0.025479161            8 
 2698000   0.83228669   -6.6678169    832.66342  0.025718539  0.025472491           10 
 2699000   0.82481023    -6.707879    830.42403  0.025639867  0.025465785           19 
 2700000   0.82753256   -6.6862083    830.75316   0.02564053  0.025459095            9 
 2701000   0.83402012    -6.680742    832.29892  0.025678728  0.025452418            7 
 2702000   0.81939109   -6.6717483    832.90499  0.025687916  0.025445715           33 
 2703000   0.82545985   -6.6984438    834.08599  0.025714823  0.025439007           13 
 2704000   0.80760472   -6.7203343    830.64926  0.025599398  0.025432295           12 
 2705000   0.80963258   -6.6792681    832.68982  0.025652798  0.025425567           10 
 2706000   0.81504245    -6.698783    832.60913  0.025640833  0.025418837           16 
 2707000    0.8141974   -6.6793673     833.4919  0.025658537   0.02541211           40 
 2708000   0.82070687   -6.6927075    832.95973  0.025632685  0.025405403            9 
 2709000   0.83278071    -6.699603    832.64562   0.02561356  0.025398692           15 
 2710000   0.81223204   -6.6735647    833.55175  0.025631973  0.025391972           14 
 2711000    0.8309762   -6.7024612    830.58999  0.025531476  0.025385198           11 
 2712000   0.82653096   -6.6836283    831.79189  0.025558994  0.025378451           18 
 2713000   0.79928271   -6.6643515    833.64272  0.025606423  0.025371727           34 
 2714000   0.81795615   -6.7168262    832.91943   0.02557478  0.025365043           13 
 2715000   0.81457321   -6.6587924      834.567   0.02561593  0.025358352           19 
 2716000   0.82812887   -6.6833096    832.14701  0.025532248  0.025351645            7 
 2717000    0.8074277   -6.6917892    835.62966  0.025629667  0.025344972           19 
 2718000   0.82666846   -6.6918949    832.20556  0.025515255  0.025338294           14 
 2719000   0.81710103   -6.6655177    832.57203  0.025517103  0.025331577           13 
 2720000   0.84112697   -6.6790514    833.81971  0.025545947  0.025324894           11 
 2721000    0.8058527   -6.6854112    834.25611  0.025549924  0.025318151           18 
 2722000   0.81433712   -6.6904003    834.80768  0.025557423  0.025311401           30 
 2723000   0.81199604   -6.7011415    833.27754   0.02550121  0.025304679           10 
 2724000   0.83722296   -6.6897137    833.87383   0.02551009  0.025297912           15 
 2725000   0.82533823   -6.6733367    833.05273  0.025475619  0.025291172            9 
 2726000   0.80276063   -6.6893853    836.34423  0.025566894  0.025284494           16 
 2727000   0.80131395   -6.6871875     833.6152  0.025474123  0.025277783           16 
 2728000   0.81501887   -6.6798613    835.31719  0.025516776  0.025271089           11 
 2729000    0.8341005   -6.7038806    834.93356  0.025495712  0.025264391           11 
 2730000    0.8261518   -6.6950843    835.49145  0.025503402   0.02525768           23 
 2731000   0.83449248   -6.6986045    833.76225  0.025441299  0.025250953           20 
 2732000   0.80211458   -6.6930349    834.49697  0.025454398  0.025244245           20 
 2733000   0.81317771   -6.7001447    832.22382  0.025375772  0.025237496           17 
 2734000   0.82669833   -6.6965838    835.83531   0.02547657  0.025230736            6 
 2735000   0.82163337   -6.6840141    835.14867  0.025446334  0.025223981           17 
 2736000   0.80466276   -6.7021165    832.42325  0.025354022  0.025217188           16 
 2737000   0.83210562   -6.7000897    834.00148  0.025392811   0.02521039           10 
 2738000   0.80551742     -6.69864    832.06054  0.025324463   0.02520358           21 
 2739000   0.80874826   -6.6574566    834.04835  0.025375695  0.025196808           33 
 2740000   0.81179074   -6.6936847    833.91476  0.025362371  0.025190025           20 
 2741000   0.81304475   -6.6811776    833.51834  0.025341066  0.025183233           11 
 2742000   0.82989813   -6.7060158    834.50016  0.025361663  0.025176441           19 
 2743000   0.80252664   -6.6864679    836.46864   0.02541222  0.025169662           18 
 2744000   0.79737662   -6.7100709    833.07331  0.025299846  0.025162877           20 
 2745000    0.8075929   -6.7123368    834.76111  0.025341867  0.025156111           41 
 2746000   0.83574145   -6.6978384    833.41762  0.025291867  0.025149325           13 
 2747000   0.81703563   -6.6976852    835.32618  0.025340559  0.025142533           21 
 2748000   0.79472616   -6.7025839    835.27076  0.025329657  0.025135773           14 
 2749000   0.80818046   -6.7122072    834.17448   0.02528721  0.025129001           14 
 2750000   0.82531817   -6.6858555    836.09218  0.025336127  0.025122268           17 
 2751000   0.82821862    -6.692445    836.58861  0.025341955  0.025115521           28 
 2752000   0.81956549   -6.7088592    834.48693  0.025269105   0.02510876           31 
 2753000   0.82865501   -6.6760992    835.52277  0.025291281   0.02510202           16 
 2754000   0.80342658   -6.6849431    836.21341  0.025302996  0.025095289           22 
 2755000   0.80926506   -6.7040278     837.3243  0.025327414  0.025088569           25 
 2756000   0.79195808   -6.7088414    835.77464  0.025271367  0.025081838            8 
 2757000   0.81911205   -6.6671282    836.07253  0.025271205  0.025075146            8 
 2758000   0.81936288   -6.6742615    836.72662  0.025281805  0.025068458            9 
 2759000   0.81752333   -6.7039678    837.18463  0.025286476  0.025061756           14 
 2760000   0.82504753   -6.6909546     836.8688  0.025267778   0.02505505           13 
 2761000   0.82663938    -6.696728    837.77544   0.02528599  0.025048329            5 
 2762000    0.7881557   -6.7145015    838.72093  0.025305362  0.025041596           10 
 2763000    0.8198917   -6.6757759    836.96645  0.025243288  0.025034927           14 
 2764000   0.80577654   -6.7064731      838.429   0.02527825  0.025028217           10 
 2765000   0.80821662   -6.6919506    837.45322  0.025239699  0.025021508           11 
 2766000   0.80254669    -6.710438    837.66343  0.025236907  0.025014804           12 
 2767000   0.79626476   -6.7190394     837.8859  0.025234487  0.025008041           17 
 2768000   0.81407272   -6.6988529    838.59331  0.025246668  0.025001274           10 
 2769000   0.81178601   -6.7472447    836.80506  0.025183733  0.024994486           37 
 2770000   0.80492289   -6.7279997    837.49677   0.02519545    0.0249877           20 
 2771000   0.79974093   -6.7151131    838.99961  0.025231553  0.024980938            7 
 2772000   0.80293629   -6.7364661    836.10987  0.025135578  0.024974188           34 
 2773000   0.81524705   -6.7168156    838.69122  0.025204088  0.024967448           13 
 2774000   0.77830745   -6.6929647    838.05937   0.02517602  0.024960721            7 
 2775000   0.82186442   -6.6877525    837.15692  0.025139847  0.024954038           10 
 2776000    0.7990239   -6.6833544      840.001  0.025216168  0.024947328           30 
 2777000   0.80328144   -6.7232159    836.26342  0.025094929  0.024940606           18 
 2778000    0.8148766   -6.6907177    839.08441  0.025170519   0.02493387           17 
 2779000   0.80537215   -6.7237004      838.001  0.025128973  0.024927146            8 
 2780000   0.78870514   -6.7170293    838.56428  0.025136819  0.024920406           23 
 2781000   0.80968391   -6.7106074    837.08558  0.025083471  0.024913628           27 
 2782000    0.8050014   -6.7334111    837.36888   0.02508294  0.024906867           41 
 2783000   0.78956598   -6.6858677     836.8086   0.02505715  0.024900111           23 
 2784000   0.81494383   -6.7160334    838.72271  0.025105445  0.024893389           25 
 2785000   0.79024686   -6.6934906    840.81826  0.025159134  0.024886668           26 
 2786000   0.78886755   -6.7248232    838.07591  0.025068076  0.024879947           20 
 2787000   0.81301604   -6.7148197    837.09202  0.025029662   0.02487318           38 
 2788000   0.81743483   -6.7351597    837.61707  0.025036378  0.024866404           20 
 2789000   0.79985318   -6.6858274    837.95994  0.025037646  0.024859658            9 
 2790000    0.8271347   -6.7234137    838.90948  0.025057033  0.024852906           13 
 2791000   0.79558401    -6.723582    840.22875  0.025087446   0.02484616           27 
 2792000   0.80913342   -6.7310517    837.91447  0.025009386  0.024839383           17 
 2793000   0.79646971   -6.7032581      839.795   0.02505654  0.024832624           15 
 2794000     0.822564   -6.7307176     839.8036  0.025047829  0.024825914           26 
 2795000   0.80565435   -6.7062784    840.02083  0.025045344  0.024819181            6 
 2796000   0.80720885   -6.7168871    840.06272  0.025037635  0.024812401           16 
 2797000   0.80047644   -6.6982551    838.81055  0.024991376  0.024805622           18 
 2798000   0.80827154   -6.7162326    839.40182  0.025000054  0.024798842           10 
 2799000   0.79532492   -6.7114091    841.29659  0.025047535  0.024792081            9 
 2800000   0.79364643    -6.713467    840.99876  0.025029725  0.024785349           22 
 2801000    0.8137366   -6.7249109    839.90268  0.024988179  0.024778595           14 
 2802000   0.80649308   -6.7317373    838.16292  0.024927519  0.024771824           17 
 2803000   0.80341825   -6.7412649    837.48594    0.0248985  0.024765046           31 
 2804000   0.83190661    -6.719996     838.0752  0.024907133  0.024758248           48 
 2805000   0.81585078   -6.7294171    839.34171   0.02493588  0.024751471           21 
 2806000   0.82061186   -6.7235587    840.02333  0.024947236  0.024744725           21 
 2807000    0.7957771   -6.7159854    839.32543  0.024917629  0.024737951           19 
 2808000   0.81161794   -6.7401095    839.72374  0.024920576  0.024731164            8 
 2809000   0.80434335   -6.7280209    840.23318  0.024926818  0.024724348           19 
 2810000   0.81478486   -6.7190501    841.22094   0.02494724   0.02471758           17 
 2811000   0.80323063   -6.7401927    839.48296  0.024886842  0.024710815           30 
 2812000   0.80367033   -6.7322682    838.35433  0.024844545  0.024704031           26 
 2813000   0.78154762   -6.7279491    839.63141  0.024873546  0.024697221           27 
 2814000    0.7955487   -6.7425673    840.95289   0.02490384   0.02469043           12 
 2815000   0.79899858   -6.7383727      840.519  0.024882149  0.024683659            9 
 2816000   0.79662143   -6.7358891    839.03152  0.024829294   0.02467691           11 
 2817000   0.80369327   -6.7377264     841.9251  0.024906079  0.024670162           23 
 2818000     0.785648    -6.728222    841.16585  0.024874789  0.024663424           16 
 2819000     0.807852   -6.7284457     842.1364  0.024894655  0.024656697           14 
 2820000   0.80999603   -6.7322544    842.55556  0.024898214  0.024649999           12 
 2821000   0.80079107   -6.7277608    840.63756  0.024832729  0.024643245           20 
 2822000   0.76726293   -6.7294297    841.59128  0.024852093  0.024636524           14 
 2823000   0.79683502   -6.7254551    840.25407  0.024803816  0.024629797           10 
 2824000    0.7953013   -6.7390422    842.28551  0.024854979  0.024623078           21 
 2825000   0.79904671   -6.7259843    842.13222  0.024841658  0.024616335           18 
 2826000   0.79803418   -6.7054343    840.40975  0.024782076  0.024609599           13 
 2827000   0.81099781   -6.7154589     842.3226  0.024829696  0.024602871           15 
 2828000   0.80538252   -6.7252055    842.59518  0.024828948  0.024596145           23 
 2829000   0.79762239   -6.7557759    842.53377  0.024818362  0.024589417           19 
 2830000   0.79936545   -6.7310117    842.06448  0.024795774  0.024582698           15 
 2831000    0.7958323   -6.7244225    841.93897  0.024783321  0.024575964            9 
 2832000    0.8162929   -6.7630961    840.62589  0.024735931  0.024569248           37 
 2833000   0.77699842   -6.7157886    842.35091  0.024777942  0.024562534           26 
 2834000   0.78366691   -6.7205735    844.18981  0.024823271  0.024555844           10 
 2835000   0.79216669   -6.7272021    843.01142  0.024779877  0.024549114            9 
 2836000   0.79956871    -6.719492    843.71784  0.024791897  0.024542401           12 
 2837000   0.79817781   -6.7363512    843.22344  0.024768636  0.024535735           23 
 2838000   0.79920703   -6.7013596    842.04479  0.024725299  0.024529075           38 
 2839000   0.79343471   -6.6964664    843.46911  0.024758398  0.024522365           24 
 2840000   0.78355687    -6.744802    843.69754  0.024756383  0.024515662           15 
 2841000   0.81247134   -6.7484782    842.47747  0.024711882  0.024508952           27 
 2842000   0.78934986   -6.7641694    842.31387  0.024698389  0.024502237           25 
 2843000   0.80132512   -6.7366469    844.73937  0.024760798  0.024495585           12 
 2844000   0.79086531   -6.7135719    844.99902  0.024759699  0.024488958           12 
 2845000   0.79349824   -6.7487235     844.5683   0.02473838  0.024482308           23 
 2846000   0.79292516   -6.7381029    842.83117  0.024678823  0.024475682           21 
 2847000   0.81443044   -6.7400705    845.66781  0.024753185  0.024469059            9 
 2848000   0.79080418   -6.7579665    845.76675  0.024747388  0.024462455           18 
 2849000    0.7869533   -6.7405747    844.31743   0.02469631   0.02445583           15 
 2850000     0.797865   -6.7281701    844.40819  0.024690298  0.024449235           14 
 2851000   0.78518032   -6.7273478    844.99847  0.024698891  0.024442632           19 
 2852000   0.78638633   -6.7299254    846.72634  0.024740718  0.024436047            7 
 2853000   0.80436795   -6.7291029    846.19779  0.024716608   0.02442944           17 
 2854000   0.79795218   -6.7208471    844.88054  0.024669486  0.024422866           20 
 2855000   0.80016502   -6.7109753    845.26839  0.024672166  0.024416284           15 
 2856000   0.79860739    -6.729561    845.37869  0.024666745  0.024409694           13 
 2857000   0.78417111   -6.7285137    845.52293  0.024662319  0.024403142           35 
 2858000    0.7892032   -6.7231816    846.71151  0.024688346  0.024396613            7 
 2859000   0.78998246    -6.760018    845.65875  0.024649025  0.024390068           35 
 2860000   0.81043241   -6.7119206    844.31894  0.024601368  0.024383478           13 
 2861000   0.79914649   -6.7298321    846.84962  0.024666481  0.024376858           28 
 2862000   0.80544058   -6.7539533    846.92531  0.024660066   0.02437024           43 
 2863000    0.7960793   -6.7492222    848.07683   0.02468497   0.02436363           15 
 2864000    0.7984847   -6.7768354    845.88407  0.024612548  0.024357042           15 
 2865000   0.78967138   -6.7411648    845.53198  0.024593717  0.024350442           18 
 2866000   0.79218842   -6.7569991    845.49272  0.024583994  0.024343794           19 
 2867000   0.80897388   -6.7636337    845.97936  0.024589564  0.024337129           35 
 2868000   0.80911335   -6.7411152    846.05128   0.02458308  0.024330469           31 
 2869000   0.78129321   -6.7214009    845.80619  0.024567392  0.024323843           53 
 2870000   0.80038786   -6.7403192       844.99  0.024535134  0.024317212           61 
 2871000   0.78228287   -6.7506801    846.74723  0.024577593  0.024310589           42 
 2872000   0.77915596    -6.758087    845.49008  0.024532558  0.024303935           52 
 2873000   0.78706714   -6.7284021    846.25305  0.024546149  0.024297332           40 
 2874000   0.78037959   -6.7259631    845.26544  0.024508972  0.024290708           21 
 2875000     0.793172    -6.735636    847.39103  0.024562059  0.024284082           14 
 2876000    0.7887872   -6.7526153    846.73316  0.024534456  0.024277443           12 
 2877000   0.79447512   -6.7499882    845.31712  0.024484913  0.024270794           26 
 2878000   0.79636502   -6.7346646    846.49119    0.0245104  0.024264146            9 
 2879000   0.78335811   -6.7363498    847.02084  0.024517218   0.02425753           10 
 2880000   0.76261913    -6.719086    847.87717  0.024533483  0.024250927           16 
 2881000   0.78060417    -6.715351    848.01499  0.024528954  0.024244355           12 
 2882000   0.79002774   -6.7294178    846.24601  0.024469292  0.024237764           12 
 2883000   0.78845736   -6.7303491    847.40767  0.024494383  0.024231191           24 
 2884000   0.79304794   -6.7428373    846.20905  0.024451255  0.024224601            9 
 2885000   0.78153902   -6.7217828    848.51845  0.024509487  0.024217988           12 
 2886000   0.77508685   -6.7447072    850.36202  0.024554228  0.024211381           21 
 2887000   0.79676593   -6.7553639    845.98878  0.024419489  0.024204777           29 
 2888000   0.76954146   -6.7566244    847.19825  0.024445933  0.024198152           30 
 2889000   0.77563418   -6.7686453    847.73993  0.024453096  0.024191507           20 
 2890000   0.79324744   -6.7496663    847.71547  0.024443929  0.024184924           20 
 2891000   0.78320798   -6.7423363    848.27045  0.024451471   0.02417834            9 
 2892000   0.79298667   -6.7807236     846.9258   0.02440427  0.024171736           22 
 2893000   0.77210297   -6.7268067    849.60468     0.024473  0.024165168           13 
 2894000    0.7821019   -6.7290046    849.34959  0.024457199  0.024158593           24 
 2895000   0.78382964   -6.7699606    847.85574   0.02440575  0.024151991           13 
 2896000   0.81516056   -6.7597642    849.84012  0.024454423   0.02414539           40 
 2897000   0.77850466    -6.750877    849.31585  0.024430901  0.024138792           14 
 2898000   0.80839602   -6.7429954    848.44493  0.024397427  0.024132214           30 
 2899000   0.78120508   -6.7401605    848.44374  0.024388977  0.024125672           56 
 2900000    0.7773325   -6.7512287    850.72551  0.024446135  0.024119083           28 
 2901000   0.77919754   -6.7340886    850.48457  0.024430787  0.024112506           20 
 2902000   0.79998564   -6.7233145    848.30877  0.024359889  0.024105936           15 
 2903000    0.8013955   -6.7335695    849.24549  0.024378387  0.024099407           18 
 2904000    0.7668946    -6.740639    851.01153  0.024420671  0.024092867           11 
 2905000   0.77448214   -6.7469224     850.5432   0.02439883  0.024086384           17 
 2906000   0.76962612   -6.7352349    850.85577  0.024399397  0.024079834            8 
 2907000   0.77358968   -6.7462566    849.95457  0.024365169  0.024073252            8 
 2908000   0.77886557   -6.7367441    850.02933  0.024358933  0.024066671           14 
 2909000   0.78692828   -6.7387646    849.80776  0.024344212  0.024060111           16 
 2910000   0.77269853   -6.7643941    849.02157  0.024313333  0.024053504           23 
 2911000   0.77802633   -6.7568548    848.33463  0.024285315  0.024046882           27 
 2912000   0.79351889   -6.7488311    848.72785  0.024288228  0.024040237           85 
 2913000   0.77703521   -6.7778327    848.63382    0.0242772  0.024033587           45 
 2914000   0.81093102   -6.7955875    849.06393  0.024281169  0.024026958           12 
 2915000   0.79403331    -6.799107    847.68352  0.024233377  0.024020321           28 
 2916000   0.78117508   -6.7548156    850.45147  0.024304169  0.024013744           47 
 2917000   0.76928834   -6.7661165    848.76356  0.024247616  0.024007177           55 
 2918000   0.76011223   -6.7898776    851.10796  0.024306259  0.024000585           57 
 2919000   0.78748596   -6.7388012    850.39297   0.02427752  0.023994037           29 
 2920000   0.79900875   -6.7569732    851.86175  0.024311123  0.023987518           51 
 2921000   0.77676259   -6.7439502    850.48938  0.024263648  0.023980962           21 
 2922000   0.78643084   -6.7549396    849.35841  0.024223089  0.023974397           21 
 2923000   0.79933186   -6.7688111    848.96405   0.02420356  0.023967843           33 
 2924000   0.77934444   -6.7835409    848.34743  0.024177708  0.023961271           42 
 2925000   0.79193085   -6.7294833    849.96379  0.024215493  0.023954711           19 
 2926000   0.77791154   -6.7449432     852.1194  0.024268609  0.023948149           39 
 2927000   0.78836712   -6.7507145    851.62792  0.024246325  0.023941617           30 
 2928000    0.7834792    -6.751289    850.66916  0.024210757  0.023935079           12 
 2929000   0.77599174   -6.7450977    851.02742  0.024212684  0.023928517           19 
 2930000   0.79616462   -6.7609287    851.76549  0.024225412  0.023921964           16 
 2931000   0.78738226   -6.7327802    851.41139  0.024207079  0.023915429           29 
 2932000   0.77968082   -6.7439184    851.92048  0.024213292  0.023908911           30 
 2933000   0.78979453   -6.7399174    852.75912  0.024228865  0.023902391           13 
 2934000   0.77219694   -6.7156714    852.32773  0.024208354    0.0238959           18 
 2935000   0.77452488   -6.7917465    851.25442  0.024169632  0.023889407           23 
 2936000   0.78336109   -6.7653196    852.17144  0.024187427  0.023882884            7 
 2937000   0.77867549   -6.7702002    851.82144  0.024169261  0.023876355           12 
 2938000   0.80461841   -6.7578077    850.02217      0.02411  0.023869829           17 
 2939000   0.77647372   -6.7350942    852.10746  0.024160924  0.023863319           33 
 2940000   0.78873018   -6.7730639    852.47663   0.02416317   0.02385681           32 
 2941000   0.79714963   -6.7496563    851.64092  0.024131274  0.023850324           45 
 2942000   0.79668444   -6.7380164     853.7675  0.024183308  0.023843832           22 
 2943000   0.77748206   -6.7384795    854.93721  0.024208212  0.023837374           25 
 2944000    0.7853118    -6.738334    853.00922  0.024145415  0.023830892           33 
 2945000   0.78168044    -6.754715     852.6809  0.024127926  0.023824431           25 
 2946000   0.78388003   -6.7578797    853.18173  0.024133903  0.023817948           11 
 2947000   0.78023298   -6.7833829     855.1032  0.024180048  0.023811445           12 
 2948000   0.79624317   -6.7819254    851.40567  0.024067325  0.023804928           18 
 2949000    0.8029076   -6.7942341    852.24436  0.024082863   0.02379842           40 
 2950000   0.77304671   -6.7839158    852.64518  0.024086022   0.02379192           56 
 2951000   0.76357461   -6.7817876    853.94451  0.024114552  0.023785435           35 
 2952000   0.76564157   -6.7743981    852.24784  0.024058487  0.023778956           34 
 2953000   0.77650069   -6.7872974    852.20715  0.024049191  0.023772465           54 
 2954000   0.78282379   -6.7687685    854.30651  0.024100274  0.023765979           35 
 2955000   0.77289912    -6.771451    853.45963  0.024068235  0.023759467           76 
 2956000    0.7789871   -6.7398963    853.22407  0.024053453  0.023752992           35 
 2957000   0.78030395   -6.7499502     854.4185  0.024078979  0.023746476           18 
 2958000   0.79033092   -6.7518375    852.57198  0.024018818  0.023739972           22 
 2959000    0.7732668    -6.792962    854.07772  0.024053107  0.023733465           63 
 2960000   0.77249512   -6.7724517    855.34374  0.024080623  0.023726974           32 
 2961000   0.79204917   -6.7579866     853.7947  0.024028895   0.02372048           46 
 2962000   0.79021922    -6.772284    856.75438  0.024104051  0.023713979           22 
 2963000   0.76548573   -6.7867813    854.79755   0.02404088    0.0237075           26 
 2964000   0.78064986   -6.7422302    857.28918  0.024102822  0.023701054           10 
 2965000   0.78143962   -6.7854243    853.79275  0.023996424  0.023694572           21 
 2966000   0.77364893    -6.772222    855.12122  0.024025658  0.023688074           18 
 2967000   0.77257979   -6.7729105    855.25634  0.024021355  0.023681597           23 
 2968000   0.76387965   -6.7818298    855.49133   0.02401986  0.023675135           18 
 2969000   0.78751493   -6.7819321    854.95545  0.023996729  0.023668679           15 
 2970000   0.78636743   -6.7353648    855.25224  0.023996976   0.02366226           14 
 2971000   0.78013579   -6.7745454    855.70438  0.024001581  0.023655825           17 
 2972000   0.76480584   -6.7636851    853.40673  0.023929081  0.023649384           21 
 2973000   0.76274065   -6.7809396    854.68394  0.023956832   0.02364292           31 
 2974000    0.7842017   -6.8008248    855.47516  0.023970947  0.023636487           44 
 2975000   0.77734266   -6.7757032     855.5865  0.023966008  0.023630047           17 
 2976000   0.76927642   -6.7538995    853.56148  0.023901251  0.023623644           14 
 2977000   0.78968888   -6.7729212    854.76282  0.023926851  0.023617226           14 
 2978000   0.77369926   -6.7787836    854.94787  0.023923995  0.023610814           10 
 2979000   0.77348874   -6.7641524     857.1874  0.023978611  0.023604432            7 
 2980000   0.78208415   -6.8015327    855.72817  0.023929759  0.023598035           24 
 2981000   0.78180713   -6.7893927    855.37239  0.023911786  0.023591602           13 
 2982000   0.77786726   -6.7630083     855.6845  0.023912489  0.023585182           28 
 2983000   0.78809012   -6.7743055     855.0003  0.023885359  0.023578761           42 
 2984000   0.76086783   -6.7867813    857.05681  0.023934786  0.023572305           42 
 2985000   0.78985821   -6.7751442    857.19425  0.023930604  0.023565873           38 
 2986000   0.77835474   -6.7735574    857.03634  0.023918183  0.023559471           33 
 2987000   0.75969278   -6.7703293     855.8108  0.023875985  0.023553073           13 
 2988000   0.77442105   -6.7834288    857.90994  0.023926538  0.023546686           11 
 2989000   0.76974597   -6.7946402    855.85746   0.02386131  0.023540303           20 
 2990000   0.77334189   -6.7878225    856.77728  0.023878965  0.023533929           40 
 2991000   0.79211373   -6.8245451    856.84609  0.023872899  0.023527492           41 
 2992000   0.76186488   -6.7928825    855.74166  0.023834159  0.023521064           54 
 2993000   0.74323472   -6.7794333    856.73902  0.023853965  0.023514632           23 
 2994000   0.77760408   -6.7926205    856.03072  0.023826284  0.023508229           11 
 2995000   0.77939331   -6.7843621    857.48741  0.023858859  0.023501857           30 
 2996000    0.7891556   -6.7896017    854.66036  0.023772262  0.023495452           10 
 2997000   0.79402915   -6.7588549    855.85987  0.023797683  0.023489061           16 
 2998000   0.76616116   -6.7577077    856.70002  0.023813098  0.023482675           20 
 2999000   0.74596389   -6.7876209    857.31847  0.023822343   0.02347627           32 
 3000000   0.78187541   -6.7590444    857.90308  0.023830641  0.023469887           82 
 3001000   0.75559464    -6.776838     859.4112  0.023864579    0.0234635           23 
 3002000   0.75998367   -6.7743204    856.69734  0.023781294  0.023457077           15 
 3003000   0.78035333    -6.795775    856.73445  0.023774405  0.023450648           23 
 3004000   0.76920718   -6.7934025    856.40052  0.023757227  0.023444229           30 
 3005000   0.78733212    -6.774816    857.97294  0.023792927  0.023437832           27 
 3006000    0.7749311   -6.7782141    858.17805  0.023790698  0.023431449           27 
 3007000   0.77092521   -6.7989749    857.39103  0.023760975  0.023425055           52 
 3008000    0.7734022   -6.7795072    858.37027  0.023780205  0.023418633           19 
 3009000   0.79291338   -6.7693951    856.73889  0.023727121  0.023412247           37 
 3010000   0.77031029   -6.7948084    858.81959  0.023776843  0.023405847           52 
 3011000   0.78299195     -6.79737    856.05202  0.023692351  0.023399444           44 
 3012000   0.77236704   -6.7973149    856.69835  0.023702367  0.023393057           25 
 3013000   0.77178301   -6.7690999    860.39399  0.023796714  0.023386692           23 
 3014000   0.79524699   -6.7659821    857.34741  0.023704584  0.023380307           11 
 3015000   0.77340245   -6.7541737    857.68954  0.023706179  0.023373911           12 
 3016000   0.75915387   -6.7492943    858.01433  0.023707292  0.023367539           11 
 3017000   0.76653228   -6.7886418    861.02928  0.023782711  0.023361182            8 
 3018000   0.76540847   -6.7626585    859.49442   0.02373245  0.023354806           20 
 3019000   0.76488202   -6.7827555     859.5853  0.023727098  0.023348455           14 
 3020000   0.76429279   -6.7795439    858.57565  0.023691381  0.023342108           15 
 3021000    0.7721239   -6.7911011    859.43106  0.023707135  0.023335728           11 
 3022000   0.76541684   -6.7987445    858.51221  0.023673952  0.023329345           13 
 3023000   0.78375336   -6.8036791    859.79193  0.023701398  0.023322956           12 
 3024000    0.7661007   -6.7575504    860.94019  0.023725204  0.023316595           13 
 3025000   0.76316496   -6.7796568    860.22645  0.023697698  0.023310271           33 
 3026000   0.74496714   -6.7732981    860.76806  0.023704782  0.023303938           20 
 3027000   0.77936088     -6.77256    860.47239  0.023688811  0.023297636           12 
 3028000   0.76826917    -6.780311    863.58346  0.023766608  0.023291345           14 
 3029000   0.75731705    -6.780033     858.7794  0.023626593   0.02328506           27 
 3030000   0.76777534   -6.7696635    861.93827  0.023705673  0.023278774           17 
 3031000   0.75833748   -6.7840507    861.78081  0.023693523  0.023272474           12 
 3032000   0.76887638   -6.7803458    858.93006  0.023607356  0.023266181           24 
 3033000   0.77966293   -6.8036531      859.186  0.023606605  0.023259825           29 
 3034000   0.76070366   -6.7926155    860.99812  0.023648597  0.023253501            7 
 3035000   0.74815975   -6.7998866    860.49203  0.023626909   0.02324714           12 
 3036000   0.77437206    -6.826517    860.28192   0.02361336  0.023240783           13 
 3037000   0.77782379   -6.7818489    863.22752   0.02368641  0.023234461           18 
 3038000   0.76794916     -6.78097    860.26382  0.023597318  0.023228138            9 
 3039000   0.76756551   -6.7932294    861.07636  0.023611834  0.023221831           15 
 3040000   0.75470492   -6.7838909    860.89751  0.023599164  0.023215485           29 
 3041000   0.78328661   -6.7980437    861.52116  0.023608494  0.023209158           56 
 3042000   0.76832878   -6.8131888    861.06702  0.023588292  0.023202832           27 
 3043000   0.76932469   -6.7977449    858.37286   0.02350676  0.023196485           25 
 3044000   0.74216099   -6.7747818    861.10171  0.023573744  0.023190132           18 
 3045000   0.74388361   -6.7976541    861.32085  0.023571999  0.023183771           16 
 3046000   0.77771907   -6.8022752     862.2725  0.023590296  0.023177439           24 
 3047000    0.7639054   -6.7936996    861.20028  0.023553229  0.023171069           25 
 3048000   0.76461074   -6.8173793    859.93665  0.023510954  0.023164674           32 
 3049000   0.74798126   -6.7974973    862.36624  0.023569647  0.023158318           22 
 3050000   0.77035846   -6.8083442    861.06343  0.023526323   0.02315199           23 
 3051000   0.76959845   -6.7950523    862.81187  0.023566368  0.023145637           50 
 3052000   0.75292058   -6.8014813    860.85794  0.023505295  0.023139281           25 
 3053000   0.76936552   -6.7974416    860.13629  0.023477899  0.023132941           24 
 3054000   0.76481648   -6.8098053    863.10656   0.02355126  0.023126601           41 
 3055000   0.75898051   -6.7862795    861.01151  0.023486402  0.023120263           48 
 3056000   0.76151747   -6.8090645    860.51061  0.023465058   0.02311392           63 
 3057000   0.76229471   -6.8226756    859.89371  0.023440566  0.023107567           84 
 3058000   0.77349711   -6.8254755    861.24055  0.023469603  0.023101198          108 
 3059000   0.75660481   -6.8325429    861.63408  0.023472651  0.023094839           54 
 3060000   0.77629832   -6.8115344    860.83552  0.023443233  0.023088492           52 
 3061000   0.76071594     -6.78991    860.83973  0.023435689   0.02308215           97 
 3062000   0.74853651   -6.8005474    862.59013  0.023475673  0.023075814           21 
 3063000   0.75674789   -6.8045482    861.40682  0.023435815  0.023069448           23 
 3064000   0.76797578   -6.8124116    861.48211  0.023430214    0.0230631           33 
 3065000   0.76820937   -6.8149208    861.73484  0.023429441  0.023056797           45 
 3066000   0.75988735   -6.7931361    861.35158  0.023411382  0.023050477           48 
 3067000   0.76256518   -6.8120624    861.71884  0.023413728  0.023044114           82 
 3068000   0.75015379   -6.8270343    861.04855   0.02338789  0.023037745           33 
 3069000   0.75746278   -6.8058713    860.94821  0.023377545  0.023031385           55 
 3070000    0.7690931   -6.8114888    861.72934  0.023391133  0.023025048           50 
 3071000   0.74988492     -6.81838    862.05188  0.023392268  0.023018688           85 
 3072000   0.75864127   -6.7931288    860.77037  0.023349891  0.023012318           66 
 3073000   0.75519147   -6.7829898    861.72173  0.023368091  0.023005933           43 
 3074000    0.7659882   -6.8305228    860.44955  0.023326002  0.022999547           37 
 3075000   0.76209853   -6.7980713    862.70604  0.023379568  0.022993142           55 
 3076000   0.75611334   -6.8214544    861.46417  0.023338323  0.022986744           24 
 3077000   0.78000391   -6.8027964    861.82705  0.023340566  0.022980376           27 
 3078000   0.74502418   -6.7855577    862.50357  0.023351299   0.02297404           18 
 3079000   0.74684727   -6.8195514    861.99874  0.023330051  0.022967691           26 
 3080000   0.75027229   -6.7825001    862.89558  0.023346742  0.022961334           41 
 3081000   0.75185954   -6.8108603     862.6576  0.023332727  0.022954987           40 
 3082000   0.76116171   -6.7882284    862.10509  0.023310218  0.022948633           15 
 3083000   0.74738102   -6.8017202    860.06513  0.023247517  0.022942272           27 
 3084000   0.76094431   -6.8022422    863.06404  0.023321013  0.022935942           19 
 3085000   0.75161397    -6.792494    863.35271  0.023321251  0.022929574           12 
 3086000   0.76853684   -6.8155266    862.47378  0.023289959  0.022923223           20 
 3087000   0.76468374   -6.7849707    863.07096  0.023298536  0.022916919           27 
 3088000   0.75801535   -6.7819333    864.75589  0.023336461  0.022910589           25 
 3089000   0.75629548   -6.8292662    864.57431  0.023324007  0.022904263           21 
 3090000   0.75371747   -6.8036832     862.0443  0.023248228  0.022897932           13 
 3091000    0.7451046   -6.8146188    862.21895  0.023245416  0.022891593           70 
 3092000   0.77076457   -6.7842865    864.06322  0.023287603  0.022885282           22 
 3093000   0.77416944   -6.8031162    864.64308  0.023295697  0.022878976           30 
 3094000    0.7320672    -6.822932    862.98706  0.023243564   0.02287263           17 
 3095000   0.75056957    -6.813885     861.7332  0.023202294  0.022866296           18 
 3096000   0.75239069    -6.812497    862.87851  0.023225627  0.022859972           13 
 3097000   0.77041365   -6.7980535    863.41638  0.023232601  0.022853658           29 
 3098000    0.7473987   -6.8147989    864.81497  0.023262722  0.022847369           19 
 3099000   0.74331445   -6.7723925    864.54082  0.023247844   0.02284108           50 
 3100000   0.75677648   -6.8221875    863.49363  0.023212194  0.022834773           19 
 3101000   0.74219458    -6.813331    863.45489  0.023203668  0.022828454           32 
 3102000   0.74665808   -6.7981252    863.00783  0.023184178  0.022822106           26 
 3103000   0.74146951   -6.8047396    863.73719  0.023196294  0.022815761           22 
 3104000   0.75139041   -6.8000276    865.44828  0.023234758  0.022809414           18 
 3105000   0.73802284   -6.8132019    863.36989  0.023171495  0.022803065           26 
 3106000   0.74370462   -6.7785591    864.71429  0.023200104  0.022796712            7 
 3107000   0.74366549   -6.8267279     864.9656  0.023199378  0.022790374           26 
 3108000   0.75858385   -6.7961234    862.99941  0.023139195  0.022784032           19 
 3109000   0.76476052   -6.8029519    862.32852   0.02311377  0.022777704           21 
 3110000   0.76691635   -6.8029894    863.00745   0.02312453  0.022771369           23 
 3111000   0.75192196   -6.8069001    863.08524   0.02311918     0.022765           36 
 3112000   0.75081774   -6.8246915    863.58919  0.023125246  0.022758615           19 
 3113000    0.7614143    -6.857912    861.35483  0.023058005  0.022752225           26 
 3114000    0.7633385   -6.8340619    863.52966  0.023108801   0.02274582           15 
 3115000   0.74399123   -6.8187606    864.84017  0.023136441  0.022739432           28 
 3116000   0.73556338   -6.8347089    863.66582   0.02309761  0.022733088           13 
 3117000   0.74461248   -6.8147008    863.42713  0.023083818  0.022726713           20 
 3118000   0.75405828   -6.7888947    864.27468  0.023099067  0.022720343           15 
 3119000   0.73295718   -6.8017155    864.86459  0.023107422  0.022714004           14 
 3120000   0.75448881   -6.8162401    863.01284  0.023050557  0.022707619           41 
 3121000   0.75687549   -6.8287845    863.39161  0.023053284  0.022701228           50 
 3122000   0.75608821   -6.8189507    861.37871  0.022992171  0.022694829           50 
 3123000   0.73938824   -6.8079799    862.32248  0.023009992  0.022688437           53 
 3124000   0.75361283   -6.8353669    861.99524  0.022993898  0.022682044           41 
 3125000   0.73303879   -6.8508561    861.17405  0.022964641  0.022675643           23 
 3126000   0.72988007   -6.7892396    865.67046  0.023077161   0.02266924           44 
 3127000   0.75356772   -6.8204881    864.51106  0.023038883  0.022662869           40 
 3128000   0.76141462   -6.8243708    862.67589  0.022982627  0.022656502           29 
 3129000   0.74915593   -6.8441815    864.27921  0.023017983  0.022650142           43 
 3130000   0.75541508   -6.8333012    864.01468  0.023003586  0.022643757           44 
 3131000   0.73374673   -6.8253368    864.39053  0.023006242  0.022637378           20 
 3132000   0.75194944   -6.8100795    866.96817   0.02306748  0.022631043            8 
 3133000   0.74587515    -6.788178    865.19238  0.023012884  0.022624687           22 
 3134000   0.74778492   -6.8360442    863.31841  0.022955712  0.022618325           15 
 3135000   0.74653578   -6.8241764    863.46534  0.022952295  0.022611936           10 
 3136000   0.73929777   -6.8251367    863.95334  0.022957944   0.02260555           32 
 3137000   0.73756794    -6.813987    865.08613  0.022980718   0.02259915           31 
 3138000   0.75163482   -6.8266861    864.25133  0.022951225  0.022592765           21 
 3139000    0.7541554   -6.7982279    865.67239  0.022981639  0.022586367           14 
 3140000   0.74603144   -6.8105332    863.20827  0.022908924  0.022579969           54 
 3141000   0.76458834   -6.8306052    863.35782  0.022905599   0.02257354           59 
 3142000   0.73900135   -6.8063081    864.51006  0.022928869  0.022567156           50 
 3143000   0.76442161   -6.8187638    864.31706  0.022916456  0.022560782           31 
 3144000   0.75432748   -6.8164037    864.49149  0.022913791    0.0225544           22 
 3145000   0.73665808   -6.8068335    863.17376  0.022871589  0.022548064           14 
 3146000   0.75809563    -6.805417     865.7678  0.022933031  0.022541701           18 
 3147000   0.74593903   -6.8119587    864.98425  0.022904995  0.022535363           27 
 3148000   0.74141558   -6.8332085    862.97052  0.022844412  0.022529015           18 
 3149000    0.7575549   -6.8271138    864.59043  0.022880026  0.022522636           15 
 3150000   0.74520898   -6.8178681    864.58706  0.022872674  0.022516237           21 
 3151000   0.75411247   -6.7962863     866.1501  0.022906752  0.022509876           31 
 3152000   0.74902351   -6.8133983     864.8396  0.022864837  0.022503504           27 
 3153000   0.74754487   -6.8345639    864.57998  0.022850724   0.02249714           33 
 3154000   0.74936644   -6.8348278    865.89914  0.022878333  0.022490781           14 
 3155000   0.74315952    -6.771039    867.50161  0.022913408  0.022484438           25 
 3156000   0.75441595   -6.8309368    863.25332  0.022793972  0.022478108           12 
 3157000   0.76113949   -6.8313927    864.74583  0.022826149  0.022471718           12 
 3158000   0.75099575   -6.8140804    864.14222  0.022802993   0.02246534           31 
 3159000   0.73925092   -6.8493956    865.85914  0.022841066  0.022458946           28 
 3160000   0.76338832   -6.8286892    866.36384  0.022847148  0.022452547           20 
 3161000   0.72973841   -6.8461222     864.1653   0.02278196  0.022446157           10 
 3162000   0.73037286   -6.8402046    863.99838  0.022770356  0.022439759           27 
 3163000    0.7564844   -6.8359167    863.72562  0.022755971  0.022433347           75 
 3164000   0.74092538   -6.8430609    863.17676  0.022734323  0.022426924           60 
 3165000   0.73477124   -6.8421531    863.38605   0.02273265  0.022420501           60 
 3166000   0.77082216   -6.8269898    863.71907  0.022734235  0.022414071           61 
 3167000   0.75185218   -6.8679464    864.07076  0.022736311  0.022407664          165 
 3168000   0.75180452   -6.8520068     865.2747  0.022760803  0.022401238          140 
 3169000   0.76005975   -6.8516705    866.15835  0.022776858  0.022394837          112 
 3170000   0.75765269    -6.830543    865.66797  0.022756782  0.022388461          101 
 3171000   0.74586373   -6.8355813    865.99603  0.022758226  0.022382126           70 
 3172000   0.74163123   -6.8139596    867.05762  0.022778941  0.022375783           30 
 3173000   0.75510784    -6.819391    866.89999  0.022767622  0.022369464           75 
 3174000   0.74054155    -6.843263    865.04281  0.022711689  0.022363134           20 
 3175000   0.74085112   -6.8229411    867.48306  0.022768584  0.022356831           36 
 3176000    0.7363816   -6.8204585    867.67047  0.022766333  0.022350501           48 
 3177000   0.74528261   -6.8250167    865.01649  0.022689552  0.022344161           41 
 3178000   0.71972583   -6.8301193    865.51588  0.022695508  0.022337828           71 
 3179000   0.74791327   -6.8293129    867.14935  0.022731188  0.022331474           25 
 3180000   0.73611323   -6.8345249    866.07911  0.022695993  0.022325169           32 
 3181000   0.72555803   -6.8339842    866.72509  0.022705782  0.022318868           60 
 3182000   0.74089832   -6.8541563    867.09763  0.022708402   0.02231255           15 
 3183000   0.74216812   -6.8214251    866.22336  0.022678379  0.022306238           19 
 3184000   0.74068658   -6.8415752    867.56767   0.02270644  0.022299936           27 
 3185000   0.73877763   -6.8296736    865.81559  0.022653469  0.022293633           44 
 3186000   0.74648343    -6.819625    867.44182  0.022688895  0.022287343           23 
 3187000   0.72968322   -6.8325018     868.7523  0.022716042  0.022281069           15 
 3188000   0.73881336   -6.8229653    867.21889  0.022668833  0.022274806           21 
 3189000   0.74644628   -6.8050044    867.49193   0.02266886  0.022268545           21 
 3190000   0.73956828    -6.816878    867.92608  0.022673095  0.022262307           20 
 3191000   0.72339555   -6.8022865    867.45588  0.022653711  0.022256092           21 
 3192000   0.74422934   -6.8386443    867.73216  0.022653826  0.022249866           47 
 3193000   0.73423023   -6.8393225    869.59286  0.022695293  0.022243639           45 
 3194000   0.73206695   -6.8497423    868.13711  0.022650206  0.022237414           58 
 3195000   0.73214045   -6.8523635    868.89872  0.022662982   0.02223118           48 
 3196000   0.74331107   -6.8540469    869.20316  0.022663829   0.02222495           49 
 3197000   0.72937537   -6.8651024    868.58698  0.022640678  0.022218706           34 
 3198000   0.72630402   -6.8350246     869.3578  0.022653685   0.02221246           43 
 3199000   0.72562493   -6.8240764    867.92734   0.02260934  0.022206224           18 
 3200000   0.73258552   -6.8424703    867.01579  0.022578536  0.022199969           23 
 3201000   0.73396419   -6.8411989     867.4922  0.022583885  0.022193695           18 
 3202000   0.76059003   -6.8452299    868.76247  0.022609891  0.022187431           22 
 3203000   0.74003218   -6.8612642    868.37753  0.022592818  0.022181193           44 
 3204000   0.73089319    -6.854445    869.31928   0.02261026  0.022174933           65 
 3205000   0.74007888   -6.8611938    868.55498  0.022583333  0.022168667           25 
 3206000   0.73085604   -6.8640555    868.45177  0.022573606   0.02216238           72 
 3207000   0.73352646   -6.8554508    869.46516    0.0225929  0.022156111           34 
 3208000   0.74679532   -6.8517332    869.24605  0.022580165  0.022149822           36 
 3209000   0.73573896   -6.8386614    867.80071  0.022535596  0.022143557           84 
 3210000   0.72342167   -6.8534149    867.90682   0.02253133  0.022137282           50 
 3211000   0.73527866   -6.8771656    867.74824  0.022520197  0.022130994           77 
 3212000     0.751788   -6.8555948     866.5328  0.022481652  0.022124708           20 
 3213000    0.7295206   -6.8726606     866.5604  0.022475371  0.022118387          129 
 3214000   0.71709278   -6.8493184    868.06339  0.022507348  0.022112075           69 
 3215000   0.74739203   -6.8406847    868.05512  0.022500133  0.022105788          102 
 3216000   0.74222324    -6.835575    869.82177  0.022538914  0.022099493           78 
 3217000   0.72759423   -6.8618219    868.10722  0.022487494  0.022093235           89 
 3218000   0.74747321   -6.8249478    867.39223  0.022461991  0.022086963           29 
 3219000   0.72989627    -6.857654    869.08445  0.022498821  0.022080689           43 
 3220000   0.73349971   -6.8304453    869.51646  0.022503014  0.022074405           88 
 3221000   0.74867604   -6.8654727    867.02441  0.022431554  0.022068116           75 
 3222000   0.72423132   -6.8629765    869.07926  0.022477738  0.022061832          134 
 3223000   0.75160938   -6.8659101    868.85683  0.022465013  0.022055524          109 
 3224000   0.73358525   -6.8616129     867.4293  0.022421146  0.022049209          129 
 3225000   0.74807295   -6.8676832    865.81955  0.022372598  0.022042877          150 
 3226000   0.73268574   -6.8443465    867.61958  0.022412161  0.022036547           89 
 3227000   0.74272744   -6.8449141    867.29025  0.022396711  0.022030246           46 
 3228000   0.73127929   -6.8474309    867.28884  0.022389737  0.022023943           81 
 3229000   0.74582571   -6.8688708    867.49088  0.022388017  0.022017619           74 
 3230000   0.74012553   -6.8697954      867.563  0.022382946  0.022011279          129 
 3231000   0.73249672    -6.861609    866.92793  0.022359639   0.02200494          177 
 3232000   0.75205933   -6.8722041    868.02252  0.022380944  0.021998608          159 
 3233000   0.73571339   -6.8701529    868.39269  0.022383562  0.021992289          204 
 3234000   0.72511497   -6.8550439    866.87101  0.022337431  0.021985942          168 
 3235000   0.74822116   -6.8693584    867.90859  0.022357254  0.021979572          211 
 3236000   0.73084028   -6.8811263    866.67883  0.022318676  0.021973212          249 
 3237000    0.7438509   -6.8469694    869.07192  0.022373389   0.02196685          199 
 3238000   0.73428161   -6.8662253    867.43494   0.02232435  0.021960489          245 
 3239000   0.72996637   -6.8734478    867.20532   0.02231155  0.021954119          208 
 3240000   0.73270385   -6.8530286    865.48916  0.022260524  0.021947745          159 
 3241000   0.73450147   -6.8791569    865.10276   0.02224372  0.021941373          153 
 3242000   0.73819071   -6.8624443     867.2642  0.022292417  0.021935005          141 
 3243000   0.73886492   -6.8494286    866.79109  0.022273386  0.021928631          136 
 3244000   0.73283181   -6.8693355    866.72158  0.022264734  0.021922282          207 
 3245000   0.72212741   -6.8728719    868.16954  0.022295057  0.021915929          150 
 3246000   0.73338785   -6.8503598    869.76204  0.022329073  0.021909598           56 
 3247000    0.7313663   -6.8639418    868.25086  0.022283412  0.021903267          157 
 3248000   0.72696704   -6.8613174    867.63848   0.02226084  0.021896943          190 
 3249000   0.74322986   -6.8555162    868.13014  0.022266599  0.021890615          172 
 3250000   0.74701173   -6.8712956    867.67458  0.022248066  0.021884294          143 
 3251000   0.73898427   -6.8416335    867.14543  0.022227659  0.021877969          153 
 3252000   0.71893012   -6.8724465    866.93446  0.022215418  0.021871648          210 
 3253000   0.73002408   -6.8790799    867.06481  0.022211928  0.021865302          224 
 3254000   0.73975983   -6.8586088    867.83763  0.022224893  0.021858954          212 
 3255000   0.74797245   -6.8872552    866.77141  0.022190768  0.021852637          152 
 3256000   0.72236758   -6.9048159    868.33582  0.022223992    0.0218463          159 
 3257000    0.7370899    -6.861868    869.16527  0.022238391  0.021839977          157 
 3258000   0.75396392   -6.8759015    865.66596  0.022142059  0.021833645          221 
 3259000   0.73310686   -6.8642331    868.29932  0.022202601  0.021827329          178 
 3260000    0.7314105   -6.8866035    867.98004  0.022187629  0.021821014          115 
 3261000   0.73946107   -6.8951546    867.36403  0.022165083  0.021814706          120 
 3262000   0.72071844   -6.8948156    869.31031  0.022208009  0.021808392          209 
 3263000   0.72437756   -6.8815945    867.57701  0.022156937  0.021802076          129 
 3264000   0.72371822    -6.874248    869.07729  0.022188452  0.021795785          107 
 3265000    0.7257382   -6.9075358    867.72294  0.022147089  0.021789461          113 
 3266000   0.72819145    -6.910693    867.39871  0.022132035  0.021783152          111 
 3267000    0.7206059   -6.8692373    867.74228  0.022134024  0.021776852           64 
 3268000   0.72453739   -6.8779768    869.98019  0.022184317  0.021770575          125 
 3269000   0.71938021   -6.8753973    870.85549  0.022199844  0.021764333           74 
 3270000   0.72663401   -6.8701682    870.64484  0.022187687  0.021758102          214 
 3271000     0.733317    -6.882456     869.7445  0.022157967  0.021751865          132 
 3272000   0.72556931   -6.8711555    869.21141  0.022137618  0.021745638          155 
 3273000   0.73000346   -6.8960651    869.82821  0.022146558   0.02173941           69 
 3274000   0.71379543   -6.8648469    870.07282   0.02214602  0.021733186          167 
 3275000    0.7227229   -6.8779178    870.36009  0.022146567  0.021726958           90 
 3276000     0.735924   -6.8679883    870.15846  0.022134678   0.02172074           51 
 3277000   0.71963423   -6.8674748    870.13394    0.0221273  0.021714515           20 
 3278000   0.73185543   -6.8738151    868.45512  0.022077871  0.021708267           57 
 3279000   0.71211647   -6.8739195    869.63367   0.02210109  0.021702018           94 
 3280000   0.72141031   -6.8834957    870.03894  0.022104648  0.021695751           82 
 3281000   0.72546668    -6.883567     872.0487  0.022148956   0.02168948           60 
 3282000   0.73043935   -6.8974885    869.06841  0.022066535  0.021683218          130 
 3283000    0.7256715   -6.8907353    868.91954  0.022056035  0.021676967           77 
 3284000   0.72801684    -6.871947    870.62406  0.022092572   0.02167073           33 
 3285000   0.71389981   -6.8735361    870.14786  0.022073766  0.021664469          187 
 3286000   0.73045426    -6.878877    868.56471    0.0220269  0.021658203          155 
 3287000   0.72798466   -6.9111548      868.423  0.022016606  0.021651934          185 
 3288000   0.73134599   -6.8845029    870.79175  0.022069945  0.021645661          224 
 3289000   0.72567463   -6.8507966    869.07776  0.022019808  0.021639403          112 
 3290000   0.73525313   -6.8828116    869.66832  0.022028073  0.021633144          111 
 3291000   0.72424508   -6.8835826    871.28905  0.022062419  0.021626885          149 
 3292000   0.72505779   -6.8930386    869.40687  0.022008072  0.021620609          130 
 3293000    0.7289154   -6.8833837    869.16117  0.021995171  0.021614312          283 
 3294000   0.73548238   -6.8812081    867.77468  0.021953417     0.021608          289 
 3295000   0.73966837   -6.9058796    867.43919   0.02193827  0.021601686          295 
 3296000   0.72230081   -6.8940951    868.07412  0.021947667  0.021595352          152 
 3297000   0.73649031   -6.9001859    867.91532  0.021936996  0.021589021          139 
 3298000   0.73543244   -6.9100815    867.90316  0.021930038    0.0215827          129 
 3299000   0.73421605   -6.9248027    868.29405  0.021933264  0.021576362          366 
 3300000   0.71038562   -6.9194435    867.81946  0.021914633  0.021570013          289 
 3301000   0.73297929   -6.9408271    870.41026  0.021973398  0.021563661          395 
 3302000   0.70970776   -6.9113181    867.90973  0.021903637  0.021557335          327 
 3303000   0.74012303   -6.8909253    869.91831  0.021947682  0.021551021          407 
 3304000   0.71095411    -6.920346    866.72679  0.021860543  0.021544717          470 
 3305000   0.69917387   -6.9141591    867.76647  0.021880143  0.021538385          413 
 3306000   0.73033444   -6.9183408    869.79609  0.021924685  0.021532044          436 
 3307000   0.72578421   -6.9092173     868.1606  0.021876842  0.021525696          398 
 3308000   0.72458416   -6.9113209    868.34994  0.021874998  0.021519349          277 
 3309000   0.71859435   -6.9378089    869.11827  0.021887737  0.021513001          434 
 3310000    0.7180681   -6.9377986    869.58233  0.021892808  0.021506666          445 
 3311000   0.72057189    -6.897486    867.39541  0.021831154  0.021500344          518 
 3312000   0.70856495   -6.9456901    868.85672  0.021861331  0.021494014          564 
 3313000   0.71872082   -6.9552873    869.43302  0.021869228  0.021487663          643 
 3314000   0.71185115   -6.9108111    866.66832  0.021793108  0.021481326          585 
 3315000   0.74037083   -6.9641468    867.08816  0.021797088  0.021474965          564 
 3316000   0.71820326   -6.9432783    869.42619  0.021849271  0.021468621          559 
 3317000   0.70343502    -6.918135    869.52269  0.021845108  0.021462281          620 
 3318000   0.72393908   -6.9394327    868.23246   0.02180612  0.021455952          686 
 3319000    0.7224619   -6.9570133    866.78728  0.021763264  0.021449607          791 
 3320000   0.71890135   -6.9444603     869.0932  0.021814588  0.021443274          714 
 3321000   0.71898977   -6.9426179    869.12222  0.021808748   0.02143692          807 
 3322000   0.71708366   -6.9306326    866.43348  0.021734735  0.021430555          837 
 3323000   0.70413289   -6.9457259    867.02733  0.021743087   0.02142418          937 
 3324000   0.71836044   -6.9285111    867.85428  0.021757277   0.02141779          864 
 3325000   0.71618984   -6.9412135    866.68544   0.02172144  0.021411402          915 
 3326000   0.73456701   -6.9399062    866.57165  0.021712058  0.021405001          914 
 3327000   0.72196142   -6.9739537     865.5387  0.021679659  0.021398578         1122 
 3328000   0.71677613   -6.9565027    866.42036  0.021695221  0.021392122         1089 
 3329000   0.73798282   -6.9750432    864.78004  0.021647643  0.021385659         1161 
 3330000   0.71302676    -6.994966     865.8253    0.0216673  0.021379185         1125 
 3331000   0.71945737   -6.9880578     865.8404  0.021661173   0.02137271         1142 
 3332000    0.7097335    -6.996463    865.45506  0.021645034  0.021366237         1241 
 3333000   0.71831798   -6.9869411    865.71369  0.021645007   0.02135975         1224 
 3334000   0.72060755   -7.0060403    865.54709   0.02163435  0.021353263         1285 
 3335000   0.71841963   -7.0234324    864.85089  0.021610467  0.021346757         1335 
 3336000   0.71672462   -6.9978288    865.89661  0.021630111  0.021340272         1392 
 3337000   0.70129754   -7.0168152    865.30877  0.021608949  0.021333778         1336 
 3338000   0.72831431   -7.0049344    864.34601   0.02157844  0.021327268         1391 
 3339000   0.71233695   -7.0494566    865.91723  0.021611192  0.021320748         1460 
 3340000   0.71385908   -7.0103554    864.47547  0.021568749   0.02131424         1423 
 3341000   0.70790139   -7.0206737    864.73157  0.021568681  0.021307745         1469 
 3342000   0.71941025   -7.0150985    864.65911  0.021560421  0.021301249         1552 
 3343000   0.73302035   -7.0440895    862.54785  0.021501342  0.021294739         1706 
 3344000   0.70723904   -7.0395345    863.34567  0.021514794  0.021288201         1735 
 3345000   0.71371147   -7.0210748    864.45633  0.021536032  0.021281641         1731 
 3346000   0.70651543   -7.0532356    864.21439   0.02152357  0.021275055         1783 
 3347000   0.72134459   -7.0691923    862.10593  0.021464643  0.021268471         1865 
 3348000   0.72629629   -7.0561572    862.35618  0.021464461  0.021261889         1966 
 3349000   0.71368824   -7.0760316    861.48281   0.02143632  0.021255274         1960 
 3350000   0.71044049   -7.0692466    862.35588  0.021451639  0.021248643         1995 
 3351000   0.70337357   -7.0686548    862.98271  0.021460825  0.021242024         1962 
 3352000   0.71716414   -7.0645401    863.21893  0.021460295  0.021235411         1971 
 3353000   0.69985695   -7.1167413    860.37246  0.021383151   0.02122878         2135 
 3354000   0.73225583   -7.0639476     860.9433  0.021390958  0.021222139         2228 
 3355000   0.70995324   -7.0792742    861.02144  0.021386524  0.021215492         2214 
 3356000   0.70708443    -7.088535    861.07944  0.021381591  0.021208816         2275 
 3357000   0.73910977   -7.1213304    859.50098  0.021336039  0.021202149         2266 
 3358000    0.7334498   -7.0929665    860.20473  0.021347149  0.021195474         2429 
 3359000   0.71257096   -7.1087655    859.53292  0.021324127  0.021188773         2405 
 3360000   0.71056348   -7.1305374    861.54653  0.021367721  0.021182079         2430 
 3361000   0.71803386   -7.1155821    859.90707  0.021320715  0.021175366         2491 
 3362000   0.70522196   -7.1313307    859.93259  0.021315006  0.021168658         2480 
 3363000   0.71892755   -7.1166642     859.0764  0.021287452  0.021161916         2391 
 3364000   0.70692663   -7.1089462    859.19568  0.021284078  0.021155188         2481 
 3365000   0.72826202   -7.1259295    859.15087  0.021276644  0.021148457         2539 
 3366000    0.7133227   -7.1455361    857.34495  0.021225613  0.021141729         2569 
 3367000   0.70245628   -7.1333283     857.8329  0.021231386  0.021134985         2577 
 3368000   0.70682482   -7.1330657    859.84449  0.021274854  0.021128252         2653 
 3369000   0.70630498   -7.1680767    858.84986  0.021243936  0.021121521         2696 
 3370000   0.70793405   -7.1617866    858.59446  0.021231317  0.021114774         2807 
 3371000   0.69902014    -7.168091    858.56807  0.021224366  0.021108019         2758 
 3372000   0.72929801   -7.1451147    860.21933   0.02125888  0.021101247         2745 
 3373000   0.72051752    -7.146439    859.75139  0.021241017  0.021094479         2699 
 3374000   0.70108582   -7.1495318    858.67023  0.021208018  0.021087724         2719 
 3375000   0.70980607   -7.1654069    858.56651  0.021199173  0.021080951         2820 
 3376000   0.70707922   -7.1967676    857.20029   0.02115917  0.021074162         2968 
 3377000   0.71294132   -7.1746352    856.06922  0.021124993  0.021067343         3012 
 3378000   0.71056612   -7.1737943    857.71049  0.021159228  0.021060513         3032 
 3379000   0.71198908   -7.1922357    857.45012  0.021146545  0.021053667         3011 
 3380000   0.71881328   -7.1908404    853.80294  0.021050368  0.021046837         3057 
 3381000   0.71776998   -7.1821138    858.03006   0.02114833  0.021039991         3068 
 3382000   0.69689934    -7.188087    857.30894  0.021124309  0.021033155         3101 
 3383000   0.71282458   -7.2019204     856.0329  0.021086632  0.021026305         3131 
 3384000   0.70975568    -7.196308    857.22368  0.021109724  0.021019443         3052 
 3385000   0.70698808   -7.2068279    855.40216  0.021058645  0.021012582         3130 
 3386000   0.70815403   -7.2251889    856.26625  0.021073692  0.021005715         3141 
 3387000   0.70098375   -7.1902326    856.82087  0.021081116  0.020998835         3151 
 3388000     0.717066   -7.1992544    855.05778  0.021031527  0.020991946         3133 
 3389000     0.717444   -7.2256912    856.96598  0.021072243  0.020985059         3221 
 3390000   0.70005217    -7.243179    854.34819  0.021001676  0.020978151         3248 
 3391000   0.72881519   -7.2140324    858.03465  0.021086077  0.020971241         3152 
 3392000     0.716419   -7.2203265     854.6528  0.020996777  0.020964334         3243 
 3393000   0.70319781   -7.2242248    853.57048  0.020964006  0.020957417         3288 
 3394000   0.71139323   -7.2604813     853.3052  0.020951316  0.020950494         3309 
 3395000   0.70930312   -7.2208701    854.67175  0.020978688  0.020943574         3312 
 3396000   0.71982968   -7.2468307    851.78784  0.020901743   0.02093664         3369 
 3397000   0.70351699   -7.2663828    854.91316  0.020972259  0.020929699         3363 
 3398000   0.71044549   -7.2725688    853.88748  0.020940933  0.020922756         3319 
 3399000   0.71185972   -7.2129876    853.87422  0.020934447  0.020915819         3269 
 3400000   0.71409304   -7.2268742    854.85168  0.020952247  0.020908875         3360 
 3401000    0.7173673   -7.2416981    854.82185  0.020945356  0.020901921         3305 
 3402000    0.7025353   -7.2344151     854.5555  0.020932675  0.020894979         3294 
 3403000   0.71762152   -7.2740485     851.5539  0.020853019  0.020888023         3346 
 3404000   0.69625448   -7.2664614    852.69618  0.020874857  0.020881067         3416 
 3405000   0.71985646   -7.2593793    854.34565  0.020909096  0.020874116         3361 
 3406000   0.69813219   -7.2546726    853.51322   0.02088259  0.020867166         3375 
 3407000   0.69752729   -7.2456891    853.75015  0.020882256  0.020860209         3372 
 3408000   0.68697325   -7.2349059    852.97571  0.020857192  0.020853243         3309 
 3409000   0.69774571   -7.2593996    852.46127  0.020838498  0.020846272         3392 
 3410000   0.69629888   -7.2539048    853.22816  0.020851128  0.020839313         3350 
 3411000   0.70393754   -7.2556567    852.97858  0.020838918  0.020832327         3477 
 3412000   0.69285344   -7.2691611    851.51369  0.020797032  0.020825337         3504 
 3413000   0.70305749   -7.2790834    852.55122  0.020816272  0.020818338         3474 
 3414000   0.69933846   -7.2498351    852.66643  0.020812987  0.020811339         3409 
 3415000   0.69810632   -7.2991351    853.45157  0.020826051  0.020804336         3463 
 3416000   0.70896293   -7.2864106    853.06677  0.020810567  0.020797338         3491 
 3417000    0.6935001   -7.2776156    851.23272  0.020759748  0.020790334         3509 
 3418000   0.71850995   -7.3109698    852.65584  0.020788371  0.020783323         3511 
 3419000   0.70798614   -7.2762816    851.12431  0.020744962  0.020776304         3549 
 3420000   0.70625234   -7.2841881    851.24822  0.020741916  0.020769281         3560 
 3421000   0.70677021   -7.2872078    848.89369  0.020678498  0.020762271         3553 
 3422000   0.71862187   -7.2829297    851.34627  0.020732181   0.02075525         3543 
 3423000   0.72272692   -7.2901478     851.8705  0.020738886  0.020748235         3582 
 3424000   0.70860429    -7.323512     850.4847  0.020699102  0.020741201         3565 
 3425000   0.70273916   -7.2906719    851.08699  0.020707713  0.020734152         3544 
 3426000   0.70110344   -7.2877516    850.28428  0.020682143  0.020727105         3552 
 3427000   0.69665065   -7.3238519    850.18511  0.020673697   0.02072005         3612 
 3428000   0.70899909   -7.3262647    849.14896  0.020642478   0.02071299         3620 
 3429000   0.71347277   -7.3344468    850.30381  0.020664523  0.020705918         3623 
 3430000   0.69659328   -7.3034627    850.02514  0.020651728  0.020698846         3597 
 3431000   0.69787644    -7.360622    848.81422  0.020616298  0.020691752         3683 
 3432000   0.69884298   -7.3558825    848.19248  0.020595194   0.02068464         3654 
 3433000   0.70348811   -7.3187949    849.01799  0.020609234  0.020677535         3697 
 3434000    0.7023965   -7.3626528    847.41031  0.020564218  0.020670415         3660 
 3435000     0.679766   -7.3664917    847.40562  0.020558118  0.020663288         3710 
 3436000    0.6991959   -7.3501836    848.67094  0.020582822  0.020656162         3654 
 3437000   0.69737175    -7.365885    846.59486  0.020526498  0.020649023         3702 
 3438000   0.71721292   -7.3884941    847.93451  0.020552999  0.020641878         3683 
 3439000      0.70236   -7.3931868     847.5401  0.020537465   0.02063472         3714 
 3440000   0.69819279   -7.3992072    846.73955  0.020512101   0.02062755         3734 
 3441000   0.68738364   -7.3853814    846.16752  0.020492287  0.020620359         3788 
 3442000   0.69565488   -7.4103409     847.1206  0.020509408  0.020613171         3810 
 3443000    0.6915236   -7.4093719    844.74738  0.020446011   0.02060598         3799 
 3444000   0.70841687    -7.394177    846.96389  0.020493706  0.020598784         3797 
 3445000   0.69214002   -7.4143503    847.59934  0.020503129  0.020591591         3822 
 3446000   0.69735032   -7.4327328     847.4474  0.020493504  0.020584393         3857 
 3447000   0.69215121   -7.4233093    845.84417    0.0204488  0.020577193         3813 
 3448000   0.69304057   -7.4573315    846.05008  0.020447846  0.020569988         3808 
 3449000   0.68774695   -7.4240265     846.4852  0.020452431  0.020562788         3820 
 3450000   0.70105152   -7.4221423    844.59928  0.020400949  0.020555587         3827 
 3451000   0.69171344   -7.4306312    844.96733  0.020403925  0.020548374         3869 
 3452000   0.69294121   -7.4367068    844.77815  0.020393447  0.020541166         3819 
 3453000   0.70372477   -7.4293335    844.07823  0.020370649  0.020533948         3830 
 3454000    0.7041387   -7.4386855    845.95324  0.020409989  0.020526737         3855 
 3455000   0.69033426   -7.4504873    846.05614  0.020406564  0.020519532         3856 
 3456000   0.69415245    -7.447601     842.9945  0.020326835  0.020512327         3893 
 3457000   0.70137472   -7.4617956    844.15298  0.020348881  0.020505111         3868 
 3458000   0.69540278   -7.4459473    844.83561  0.020359447  0.020497897         3862 
 3459000   0.68820767   -7.4198319    844.99067  0.020357297  0.020490694         3857 
 3460000   0.69179519   -7.4304201    844.59897  0.020341979   0.02048349         3848 
 3461000   0.71061071   -7.4525217    844.32139  0.020329418  0.020476274         3872 
 3462000     0.706814    -7.451653     843.9467  0.020314527   0.02046907         3880 
 3463000   0.70511672   -7.4704761    843.86357   0.02030666  0.020461874         3875 
 3464000   0.69613272   -7.4530446    844.33719  0.020312192  0.020454662         3891 
 3465000   0.71852403   -7.4465473    843.44591  0.020284894  0.020447463         3866 
 3466000   0.70534186   -7.4465797    846.10168  0.020342895  0.020440266         3864 
 3467000    0.6820077   -7.4243789    846.58919  0.020348745  0.020433065         3825 
 3468000   0.68769317   -7.4627134    844.11255  0.020283366  0.020425866         3869 
 3469000   0.71507626   -7.4520624    846.26804  0.020329298  0.020418668         3854 
 3470000   0.68611309   -7.4439254    843.50725  0.020257139  0.020411472         3851 
 3471000    0.6904098   -7.4466433    844.15941   0.02026696  0.020404276         3864 
 3472000   0.71142237   -7.4485299    845.03384   0.02028211   0.02039708         3865 
 3473000   0.71080295    -7.468223     844.9477  0.020274203  0.020389884         3873 
 3474000   0.68520576    -7.444205    842.72732  0.020215106  0.020382684         3872 
 3475000   0.71546691   -7.4529712    845.39937  0.020273366  0.020375498         3867 
 3476000   0.71427746   -7.4568245    844.77362  0.020252532  0.020368314         3892 
 3477000    0.7050837    -7.438194    844.74021  0.020245907  0.020361127         3867 
 3478000   0.69449599   -7.4600632    843.76302  0.020216672   0.02035394         3883 
 3479000    0.6850156   -7.4406971    845.01965  0.020240961  0.020346743         3877 
 3480000   0.68893426    -7.452888    844.31871   0.02021836  0.020339562         3850 
 3481000   0.69460805   -7.4517777    843.78863  0.020199862  0.020332373         3870 
 3482000   0.70225435   -7.4522548    844.29049  0.020206072  0.020325191         3876 
 3483000   0.69222586   -7.4784427    843.79361  0.020188382  0.020318018         3874 
 3484000    0.6868702   -7.4613753    843.65466  0.020179264  0.020310839         3870 
 3485000   0.68927655   -7.4478769    846.60864  0.020244109  0.020303667         3871 
 3486000   0.70107462   -7.4600747    844.42743   0.02018616  0.020296493         3860 
 3487000   0.69399341   -7.4495461    844.59034  0.020184264  0.020289317         3881 
 3488000   0.71246267   -7.4389413    844.77207  0.020182819  0.020282146         3867 
 3489000   0.67390181   -7.4654413    845.79605  0.020201492  0.020274974         3874 
 3490000   0.69879969   -7.4436857    845.89122  0.020197976  0.020267808         3859 
 3491000   0.67869769   -7.4538836    844.05506  0.020148359  0.020260645         3882 
 3492000   0.68939575   -7.4741047    843.41312   0.02012727  0.020253485         3895 
 3493000   0.68008226   -7.4385631    843.62724  0.020126616  0.020246329         3887 
 3494000   0.70408362   -7.4749986    844.02838  0.020130423  0.020239167         3872 
 3495000   0.69868141    -7.439691    843.42068  0.020110174  0.020232004         3876 
 3496000   0.69866286   -7.4791717    845.15864  0.020145849  0.020224845         3879 
 3497000   0.68598255   -7.4619874    842.78868  0.020083612  0.020217678         3871 
 3498000    0.7024969   -7.4796252    844.32412  0.020114449  0.020210525         3880 
 3499000    0.6926319   -7.4473992    844.84144  0.020121021  0.020203366         3875 
 3500000   0.69855061   -7.4743491     843.7866  0.020090157  0.020196213         3867 
 3501000   0.69724012   -7.4832831    843.17823  0.020069938  0.020189057         3869 
 3502000   0.67258017   -7.4582132    845.63692  0.020122714  0.020181904         3860 
 3503000   0.69016059    -7.478752    844.86817  0.020098681  0.020174752         3871 
 3504000    0.6888333   -7.4644467    844.09968  0.020074669  0.020167598         3883 
 3505000   0.69469365   -7.4743174    845.04475  0.020091411   0.02016045         3880 
 3506000    0.6777403   -7.4669777    844.98851  0.020084344  0.020153297         3876 
 3507000    0.6933254   -7.4865301    843.96269  0.020054241  0.020146155         3887 
 3508000   0.69375954   -7.4698308      843.941  0.020048009  0.020139013         3883 
 3509000    0.6896992   -7.4838519    844.64611  0.020059041  0.020131876         3883 
 3510000   0.68694959   -7.4495408    842.61924  0.020005205  0.020124743         3860 
 3511000   0.68881399   -7.4834211    842.34211  0.019992929  0.020117599         3862 
 3512000   0.68053334   -7.4724537    844.39744  0.020036006  0.020110459         3880 
 3513000   0.69087475   -7.4831553    843.53749  0.020009904  0.020103333         3881 
 3514000   0.69878791   -7.4697262    843.87764  0.020012276  0.020096214         3875 
 3515000   0.69759824   -7.4769195    844.49189  0.020021145  0.020089089         3868 
 3516000   0.69223362   -7.4774141    844.33855  0.020011816  0.020081963         3871 
 3517000   0.69171099     -7.46256    843.77277   0.01999272  0.020074832         3872 
 3518000   0.69340597   -7.4464658    842.52841  0.019957561  0.020067715         3866 
 3519000   0.69075151    -7.452007    842.95753  0.019962052  0.020060594         3857 
 3520000   0.68421346    -7.473669    843.03828  0.019958293  0.020053474         3860 
 3521000   0.69746201   -7.4693128    842.85613  0.019948313   0.02004636         3889 
 3522000   0.69655551   -7.4819073    841.90063  0.019920042  0.020039249         3895 
 3523000   0.68996181   -7.4785712    845.15657  0.019991403  0.020032136         3878 
 3524000   0.68301951   -7.4743298    843.46905  0.019945825  0.020025026         3892 
 3525000   0.67551394    -7.472425    843.64995  0.019944443  0.020017913         3880 
 3526000   0.69707242   -7.4755065    844.44654  0.019957613  0.020010802         3884 
 3527000   0.69490837   -7.4600762    843.06375  0.019919283  0.020003692         3880 
 3528000   0.67635042   -7.4805695    842.45432  0.019899242  0.019996584         3880 
 3529000    0.7052041   -7.4790688    844.32454  0.019937767  0.019989479         3867 
 3530000   0.69079636   -7.4705396    843.92877  0.019922776  0.019982382         3877 
 3531000   0.69249651   -7.4747557     842.7012  0.019888162  0.019975278         3854 
 3532000   0.68770065   -7.4876621    842.50313  0.019877858  0.019968179         3887 
 3533000   0.69954441   -7.4819517    842.53716  0.019873034  0.019961076         3874 
 3534000    0.6839228   -7.4971177    844.67022  0.019917709  0.019953983         3883 
 3535000   0.68209913   -7.5058865    843.96584   0.01989547  0.019946892         3876 
 3536000   0.67619441   -7.4633965    844.25037  0.019896549  0.019939798         3887 
 3537000   0.69065071   -7.4643685    843.68736  0.019877659   0.01993271         3889 
 3538000   0.67229423   -7.4934899    843.03129  0.019856588  0.019925621         3888 
 3539000   0.68911926   -7.5065626     841.4595  0.019813966  0.019918529         3886 
 3540000   0.68745794   -7.4673577    842.04852  0.019822234  0.019911448         3857 
 3541000   0.68451814   -7.4902469    844.82918  0.019882076  0.019904373         3874 
 3542000   0.69667369   -7.4905584    844.17484  0.019861068  0.019897294         3905 
 3543000   0.68122304   -7.4966516    843.14248  0.019831181  0.019890206         3890 
 3544000   0.67076229   -7.4796623    842.14322  0.019802088  0.019883133         3903 
 3545000    0.6829294   -7.4649175    845.02507  0.019864247  0.019876053         3893 
 3546000   0.68876181   -7.4824012     842.9659  0.019810253   0.01986898         3889 
 3547000   0.70055769   -7.4699772    843.72071  0.019822402   0.01986191         3893 
 3548000   0.67829878   -7.5042551    844.50707  0.019835285  0.019854842         3880 
 3549000   0.68473684    -7.478052    842.71192  0.019787544   0.01984777         3896 
 3550000   0.69269441   -7.4965022    842.43751  0.019775528  0.019840704         3884 
 3551000   0.68269068   -7.4868348    844.04009  0.019807568  0.019833643         3893 
 3552000   0.65891111   -7.4881885    843.45704  0.019788313  0.019826578         3881 
 3553000   0.68487076   -7.4814579    843.14468  0.019775417   0.01981952         3872 
 3554000   0.68233249   -7.4858522    843.96292  0.019789039  0.019812469         3883 
 3555000   0.68327683   -7.4964191    845.09135  0.019809924  0.019805405         3896 
 3556000   0.69487199     -7.50076    841.75761  0.019726228  0.019798349         3891 
 3557000   0.68727543    -7.477436    844.37607  0.019782028  0.019791301         3869 
 3558000   0.68165268   -7.4749337    843.07604  0.019746019  0.019784252         3887 
 3559000   0.68356632   -7.4935904    843.70668  0.019755237  0.019777207         3865 
 3560000   0.67138592   -7.4863389    843.66982  0.019748825  0.019770171         3893 
 3561000   0.69610255   -7.4843904    842.87219  0.019724614  0.019763131         3874 
 3562000   0.68063144   -7.4810998    842.95996  0.019721129  0.019756093         3863 
 3563000     0.698443   -7.4898576    842.00056  0.019693156  0.019749065         3882 
 3564000   0.69373246   -7.4991762    842.10439  0.019690058  0.019742028         3895 
 3565000   0.69408264   -7.4823102    843.10899  0.019708017  0.019734994         3886 
 3566000   0.68620315   -7.4910101    842.59191  0.019690407   0.01972796         3889 
 3567000   0.67933142   -7.4745456     842.9301  0.019692788  0.019720927         3877 
 3568000   0.67537645    -7.476923    843.26751  0.019695149  0.019713896         3897 
 3569000   0.67455505   -7.4766214    841.73166   0.01965377  0.019706878         3887 
 3570000   0.68923131   -7.4760597    842.51252  0.019666492  0.019699849         3891 
 3571000   0.68594379   -7.4754484    844.19927  0.019700347   0.01969283         3875 
 3572000   0.67077081   -7.4707235    843.06337  0.019668332  0.019685805         3882 
 3573000   0.68564346   -7.5071561    842.55487  0.019650967  0.019678786         3895 
 3574000   0.68959514    -7.474699    843.29835  0.019662804  0.019671768         3887 
 3575000   0.67470567   -7.4685015    843.25455  0.019656283  0.019664763         3879 
 3576000   0.67673192   -7.4876323    844.47187  0.019679154  0.019657754         3901 
 3577000   0.67271611   -7.4892322     842.5313  0.019628443  0.019650745         3882 
 3578000   0.66833275   -7.4927233    841.46627  0.019598152  0.019643738         3898 
 3579000   0.69199884   -7.4915413    843.58149  0.019641927   0.01963673         3883 
 3580000   0.67639245   -7.4965414    842.67884  0.019615429  0.019629728         3864 
 3581000   0.67676855   -7.4768358    843.16642  0.019621298  0.019622731         3892 
 3582000   0.67582518   -7.4891869    843.07332  0.019613654  0.019615729         3876 
 3583000   0.67571786   -7.4747513    843.36953   0.01961507  0.019608734         3880 
 3584000   0.69289924   -7.4754671    843.34511  0.019609029   0.01960174         3874 
 3585000   0.65504569    -7.498272    842.33654  0.019580115  0.019594746         3880 
 3586000   0.67826492   -7.4832395    842.27341  0.019573188  0.019587753         3865 
 3587000   0.67611215   -7.4640683    843.06124  0.019586034  0.019580765         3870 
 3588000    0.6686926   -7.4782501    844.88354  0.019622899  0.019573779         3876 
 3589000   0.67861646   -7.5104735    842.81289  0.019569353  0.019566794         3887 
 3590000   0.67187187   -7.5088336    844.40739  0.019600914  0.019559815         3875 
 3591000   0.68082647   -7.4907194    843.54851  0.019575525  0.019552838         3889 
 3592000   0.66272739   -7.5104293    841.34787  0.019519021  0.019545855         3880 
 3593000   0.68033559   -7.4942375    842.84732  0.019548365  0.019538878         3873 
 3594000   0.67210654   -7.4958987     842.0439  0.019524297    0.0195319         3878 
 3595000   0.67914188   -7.4931197    843.05082  0.019542207  0.019524924         3888 
 3596000   0.68431132   -7.4978096    844.98765  0.019581657   0.01951795         3869 
 3597000   0.66005517   -7.4998174    841.17004  0.019487768  0.019510982         3882 
 3598000   0.67586103   -7.4802243    841.79868  0.019496912  0.019504011         3875 
 3599000   0.65526333   -7.4979196    843.09558  0.019521524  0.019497041         3880 
 3600000   0.66942122   -7.5018469    842.29184  0.019497496  0.019490079         3872 
 3601000   0.68717662   -7.4967077    842.27529  0.019491699  0.019483113         3876 
 3602000   0.66740508   -7.5040275    843.14622  0.019506437  0.019476155         3869 
 3603000    0.6919105   -7.4952169     843.5028   0.01950927  0.019469198         3880 
 3604000   0.67033174   -7.4880106    841.65932  0.019461231  0.019462241         3871 
 3605000   0.67146914   -7.5031463    841.54093  0.019453096  0.019455289         3887 
 3606000   0.67064645   -7.4814762    843.00398  0.019481512  0.019448337         3876 
 3607000   0.68474351   -7.4829274    842.86731  0.019472953  0.019441394         3894 
 3608000   0.67264638   -7.4850251    842.02812  0.019448174  0.019434446         3887 
 3609000   0.66705899   -7.5127564    842.52737  0.019454313  0.019427501         3879 
 3610000   0.66521616    -7.480625    842.37218  0.019445341  0.019420556         3882 
 3611000   0.69375535   -7.5021865    842.89907  0.019452116  0.019413611         3886 
 3612000    0.6857208   -7.4947048    842.30165  0.019432947  0.019406669         3889 
 3613000   0.66714196   -7.4878622    843.61374  0.019457831  0.019399737         3874 
 3614000    0.6871277   -7.5064492    843.18893  0.019442652  0.019392806         3885 
 3615000    0.6789724   -7.5000729    840.68604  0.019379577  0.019385874         3895 
 3616000   0.67069881   -7.5198478    842.13353  0.019407576  0.019378938         3880 
 3617000    0.6718777   -7.5134493    843.12675  0.019425093  0.019372007         3888 
 3618000   0.67104127   -7.4974061    841.66703  0.019386103  0.019365081         3875 
 3619000   0.67658017   -7.5015356    844.20602   0.01943921  0.019358166         3872 
 3620000   0.67605594   -7.5121412    842.05596  0.019384345  0.019351248         3878 
 3621000   0.66514688   -7.4999051    841.62202  0.019369005  0.019344326         3886 
 3622000   0.67824733   -7.5096955    843.22379  0.019400511  0.019337412         3876 
 3623000   0.68508744   -7.4883294    842.84476  0.019386438  0.019330497         3877 
 3624000   0.66081828   -7.4979135    842.07049  0.019363284  0.019323579         3883 
 3625000   0.68613539    -7.494204    843.64908  0.019394232  0.019316681         3875 
 3626000   0.68545719   -7.4926102    844.05013    0.0193981  0.019309779         3880 
 3627000   0.68112316    -7.490871    842.38836  0.019354571   0.01930288         3872 
 3628000   0.67884512   -7.5052406    842.12594  0.019343209  0.019295975         3881 
 3629000   0.66429088   -7.5033356    841.59147  0.019325606  0.019289073         3871 
 3630000   0.67029422   -7.4967425    842.25569   0.01933553  0.019282176         3885 
 3631000   0.68746966   -7.5028404    843.20514  0.019351995  0.019275282         3889 
 3632000   0.67570702   -7.5074623    843.41407  0.019351461   0.01926839         3876 
 3633000   0.66180184   -7.5099343    843.40315  0.019345884  0.019261493         3877 
 3634000   0.65678238   -7.4939785    841.46737   0.01929617  0.019254608         3892 
 3635000   0.67250607   -7.5153789    840.95383  0.019279088  0.019247713         3895 
 3636000   0.65235375   -7.5057992     841.7524  0.019292088  0.019240826         3881 
 3637000   0.67019493    -7.481454    842.19709  0.019296973  0.019233941         3896 
 3638000   0.67163735   -7.5091243    841.07048  0.019265862  0.019227063         3874 
 3639000   0.66998835   -7.5177399    842.14648  0.019285208  0.019220187         3879 
 3640000   0.65966875   -7.5128741    842.21131  0.019281394  0.019213316         3897 
 3641000   0.66822532   -7.5008678    841.40986  0.019257756  0.019206444         3870 
 3642000   0.67253631   -7.4925536    842.82201   0.01928478  0.019199578         3881 
 3643000   0.66349994   -7.5257348    842.87059  0.019280597  0.019192707         3898 
 3644000   0.66173452   -7.5210787    843.00795  0.019278447  0.019185829         3894 
 3645000   0.67541084    -7.502175    842.17486  0.019254112  0.019178962         3888 
 3646000   0.66991307   -7.5225276    841.44288  0.019232101  0.019172102         3883 
 3647000   0.66419775   -7.5022209    841.26292  0.019222716  0.019165242         3876 
 3648000   0.67320356   -7.4992397    841.22635  0.019216611  0.019158381         3884 
 3649000   0.66101748    -7.504544    841.15585  0.019209734   0.01915152         3878 
 3650000   0.66983363   -7.5043743    842.58934  0.019237199  0.019144661         3887 
 3651000   0.66265013   -7.5207242    841.20093   0.01920024  0.019137805         3867 
 3652000   0.66967882   -7.5008166    841.80765  0.019208827  0.019130954         3887 
 3653000   0.66122522    -7.516509      840.716  0.019178666  0.019124096         3890 
 3654000   0.65800273   -7.4852166    842.56916   0.01921568  0.019117242         3886 
 3655000   0.66334319   -7.5084237    843.14314   0.01922351  0.019110386         3877 
 3656000   0.66831142    -7.518986     841.7702  0.019186958  0.019103541         3888 
 3657000    0.6681619   -7.5098563    841.32959  0.019171671  0.019096696         3890 
 3658000    0.6619181   -7.5189751    841.75915  0.019176215  0.019089847         3895 
 3659000   0.67253709   -7.5103925    841.55518  0.019166329  0.019083018         3890 
 3660000   0.67980844   -7.5136779    840.77919  0.019143424  0.019076184         3888 
 3661000   0.65269885     -7.52328    843.45002   0.01919899  0.019069345         3879 
 3662000   0.66579692   -7.5147378    842.40844  0.019170045  0.019062509         3891 
 3663000   0.66149977   -7.5203009    842.70523  0.019171563  0.019055687         3885 
 3664000   0.66246116    -7.523435    841.10353  0.019129902   0.01904886         3884 
 3665000   0.66602035   -7.4992709    841.98123  0.019144639  0.019042038         3899 
 3666000   0.66425334   -7.5100967     842.0557   0.01914111  0.019035217         3858 
 3667000   0.67239847   -7.5084385     842.5632  0.019147423  0.019028401         3882 
 3668000   0.68106127   -7.5522029    841.90392  0.019127225  0.019021583         3890 
 3669000   0.66374761   -7.5113217    842.64962  0.019138948  0.019014758         3890 
 3670000   0.66496998   -7.5135696    841.67093  0.019111511  0.019007945         3886 
 3671000    0.6727719   -7.5312309    841.85872  0.019110568  0.019001131         3876 
 3672000   0.66915265   -7.5119852    840.42204  0.019072759  0.018994322         3875 
 3673000    0.6708896   -7.4986496    841.50283  0.019092087  0.018987514         3871 
 3674000   0.65697587   -7.5105207    842.90621  0.019118722  0.018980716         3875 
 3675000   0.65425442   -7.5142503      842.586  0.019106259  0.018973908         3874 
 3676000    0.6545621   -7.5146913    842.31532  0.019094925  0.018967108         3893 
 3677000   0.65946856   -7.4934167    841.91947   0.01908076  0.018960316         3875 
 3678000   0.66133549   -7.5203821    841.30903  0.019061742  0.018953517         3881 
 3679000   0.67615392   -7.5368495    842.73405  0.019088839  0.018946721         3892 
 3680000    0.6652915   -7.5175425    842.32593   0.01907441   0.01893993         3886 
 3681000   0.66308236    -7.514829    841.10382  0.019041561  0.018933142         3883 
 3682000   0.65770956   -7.4930917    840.55574  0.019023985  0.018926356         3883 
 3683000   0.67636921   -7.5058838    842.20131  0.019056053  0.018919577         3903 
 3684000   0.66088206    -7.539911    842.82154   0.01906491  0.018912799         3874 
 3685000   0.67229404    -7.500588    841.40255  0.019027647   0.01890602         3875 
 3686000   0.66620255   -7.5057234    840.53692  0.019002915  0.018899242         3880 
 3687000   0.67002811   -7.5263849     842.1878  0.019035074  0.018892463         3884 
 3688000   0.65794887   -7.5168762    841.71898  0.019019319  0.018885689         3871 
 3689000   0.65260679   -7.5208208    841.20659  0.019002589  0.018878913         3893 
 3690000   0.65936962   -7.5325035    841.24604   0.01899833  0.018872145         3907 
 3691000   0.65145082   -7.5122242    841.84422  0.019006688  0.018865376         3874 
 3692000   0.67218036   -7.5357156    841.50339  0.018993847  0.018858606         3888 
 3693000   0.66199127   -7.5194502    841.49516  0.018988518  0.018851846         3889 
 3694000   0.66336729    -7.503976    840.94132  0.018970883  0.018845085         3882 
 3695000   0.66325327   -7.5365298     841.0399  0.018967973  0.018838324         3885 
 3696000   0.66063101   -7.5345931    841.48047  0.018972774   0.01883157         3878 
 3697000   0.65732662   -7.5085806     842.8744  0.018999062  0.018824819         3878 
 3698000   0.66732778   -7.5354562    840.06826  0.018930689  0.018818065         3904 
 3699000     0.664318   -7.5060963    840.76426  0.018941251  0.018811317         3886 
 3700000   0.67014953   -7.5247729    841.52799  0.018953333  0.018804571         3873 
 3701000   0.65666851   -7.5169511    840.59166  0.018927129  0.018797825         3883 
 3702000   0.67156053    -7.530905    841.73153  0.018947675  0.018791078         3878 
 3703000   0.65753096   -7.5283739     840.2578  0.018909393  0.018784335         3870 
 3704000   0.65328997   -7.5285821    841.69933   0.01893672  0.018777599         3890 
 3705000   0.66610711   -7.5166762    841.93766  0.018936969  0.018770866         3853 
 3706000   0.65389866    -7.516574    840.63106  0.018902479  0.018764133         3906 
 3707000   0.64868708    -7.509257    841.39701  0.018914599  0.018757404         3878 
 3708000   0.66500534   -7.5145993    841.64683  0.018915112  0.018750675         3882 
 3709000   0.66397269   -7.5095923    842.39438  0.018926808  0.018743952         3884 
 3710000   0.66520474   -7.4988381    842.09273  0.018914931  0.018737227         3894 
 3711000   0.65083161   -7.5264673    842.65719  0.018922509    0.0187305         3901 
 3712000   0.65165399   -7.5110412     840.6265  0.018871823  0.018723776         3888 
 3713000   0.66409061    -7.506605    842.53851  0.018909653  0.018717069         3903 
 3714000   0.64895333   -7.5121046    840.46364  0.018858007  0.018710357         3874 
 3715000    0.6658632   -7.5021626    842.56018  0.018899959   0.01870365         3879 
 3716000   0.64994202   -7.5251427    841.59963  0.018873332  0.018696943         3874 
 3717000   0.66276941   -7.5370386     841.3036  0.018861618  0.018690233         3893 
 3718000   0.66040286   -7.5115368    842.34868  0.018879969  0.018683524         3876 
 3719000   0.65371885   -7.5248076    842.02454  0.018867629  0.018676823         3891 
 3720000   0.65157352    -7.518458    841.39725  0.018848505  0.018670121         3885 
 3721000   0.66469176   -7.5223298    841.62725   0.01884859  0.018663418         3895 
 3722000   0.65966386   -7.5419041    841.61578  0.018843269  0.018656715         3882 
 3723000   0.65494337   -7.5271402    842.98831   0.01886893  0.018650022         3863 
 3724000   0.67277528    -7.514163    842.33361  0.018849212   0.01864333         3874 
 3725000   0.64853608   -7.5421708    841.57416  0.018827162  0.018636641         3887 
 3726000   0.65204292   -7.5238229    840.71751   0.01880295  0.018629957         3882 
 3727000   0.64871735   -7.5405218    840.25289  0.018787516  0.018623266         3873 
 3728000   0.65356397   -7.5267359    840.15148   0.01878021  0.018616583         3885 
 3729000   0.66681977    -7.511728    841.99429  0.018816356  0.018609901         3889 
 3730000   0.66793732   -7.5109481    842.02873  0.018812081  0.018603225         3880 
 3731000   0.65693029   -7.5380608    841.86101  0.018803292   0.01859655         3881 
 3732000   0.66511689   -7.5377055    840.92222  0.018777291  0.018589875         3874 
 3733000    0.6557544   -7.5240005    840.50236  0.018762889  0.018583203         3891 
 3734000   0.66461579   -7.5182977    841.33981  0.018776554  0.018576533         3890 
 3735000   0.65985267   -7.5237692    842.39277  0.018795019  0.018569864         3870 
 3736000   0.66481607   -7.5167788    841.58834  0.018772046    0.0185632         3888 
 3737000   0.65937457   -7.5335771    841.46226   0.01876421  0.018556532         3895 
 3738000   0.64081499   -7.5281717    839.64105  0.018718589  0.018549875         3896 
 3739000   0.65980643    -7.536256    840.68367  0.018736821  0.018543219         3890 
 3740000   0.66565293   -7.5422482    839.71055  0.018710128  0.018536565         3899 
 3741000   0.64758069   -7.5305496    840.82569  0.018729967  0.018529909         3883 
 3742000    0.6454617   -7.5216802    841.03356  0.018729591  0.018523253         3874 
 3743000   0.63504525   -7.5157063    842.58204  0.018759062    0.0185166         3880 
 3744000   0.64442251   -7.5342499    840.66786  0.018711446  0.018509954         3876 
 3745000   0.63968723   -7.5469877      840.606  0.018705073  0.018503301         3882 
 3746000   0.64856202   -7.5171805    840.32529  0.018693836  0.018496648         3894 
 3747000   0.65553577   -7.5328462     840.0248  0.018682164  0.018490002         3914 
 3748000   0.65758511   -7.5239944    840.89012  0.018696419  0.018483361         3912 
 3749000   0.66104402    -7.515793     840.9987  0.018693845  0.018476726         3875 
 3750000   0.65517412   -7.5364478    841.05941  0.018690209  0.018470097         3880 
 3751000   0.65204539   -7.5576182    840.92961  0.018682343  0.018463459         3894 
 3752000   0.65631667   -7.5488544    841.84467  0.018697687  0.018456827         3865 
 3753000   0.64784534   -7.5269831    839.31394  0.018636512  0.018450199         3898 
 3754000   0.66641057    -7.523847    840.51352  0.018658176  0.018443573         3905 
 3755000   0.66345673   -7.5274233    840.30424  0.018648563  0.018436945         3892 
 3756000   0.64147963   -7.5342035    841.50581  0.018670257  0.018430323         3884 
 3757000    0.6646256   -7.5348644    840.60807  0.018645375  0.018423706         3888 
 3758000    0.6538685   -7.5478127    840.61421  0.018640549  0.018417094         3882 
 3759000   0.64599581   -7.5320584    840.03174  0.018622678  0.018410487         3880 
 3760000    0.6480826   -7.5274629    840.46458  0.018627318  0.018403882         3897 
 3761000   0.66104321   -7.5282306    841.65041   0.01864864  0.018397279         3882 
 3762000   0.64352996   -7.5398348    841.06052  0.018630616  0.018390665         3891 
 3763000   0.65692181   -7.5420521    842.29454  0.018652993  0.018384059         3870 
 3764000   0.65052576   -7.5213575     840.5571  0.018609571  0.018377454         3900 
 3765000   0.64866387   -7.5693511    841.92193  0.018634837  0.018370857         3905 
 3766000   0.64570437   -7.5300999    841.44477   0.01861933  0.018364257         3904 
 3767000   0.64475926   -7.5560027     841.0934  0.018606614  0.018357661         3891 
 3768000    0.6621638   -7.5430916    840.28416  0.018583779  0.018351066         3911 
 3769000   0.64004909   -7.5340935     841.3751  0.018602969  0.018344477         3907 
 3770000   0.65676864    -7.521045    839.07427  0.018547177   0.01833789         3906 
 3771000   0.65053602   -7.5408434    839.29705  0.018547181  0.018331311         3890 
 3772000   0.64546969   -7.5240338     840.3785  0.018566156  0.018324727         3893 
 3773000   0.65356681    -7.524923    841.23545  0.018580163  0.018318143         3886 
 3774000   0.65997227   -7.5447074    840.89937  0.018567819  0.018311566         3895 
 3775000   0.64987156   -7.5306517    841.30683  0.018571895  0.018304991         3896 
 3776000   0.64871137   -7.5271291    839.95514  0.018537146  0.018298419         3903 
 3777000   0.64824373   -7.5298958    839.93048  0.018531694  0.018291847         3897 
 3778000   0.66202285   -7.5271756    840.94269  0.018549115  0.018285277         3873 
 3779000    0.6511004   -7.5398821    839.30556  0.018508105   0.01827872         3913 
 3780000   0.65589746   -7.5407392    841.16801  0.018544268  0.018272156         3889 
 3781000   0.64449675   -7.5318539    839.93175  0.018512116  0.018265599         3903 
 3782000   0.66016041   -7.5393173    839.56103  0.018499053  0.018259034         3887 
 3783000   0.64195877   -7.5561002    840.93286  0.018524382  0.018252481         3899 
 3784000   0.63753903   -7.5382653    841.25002  0.018526472  0.018245927         3885 
 3785000   0.64833551   -7.5380978    838.98717  0.018471756   0.01823937         3888 
 3786000   0.63203348   -7.5224835    842.25759  0.018538862  0.018232817         3885 
 3787000   0.64570355   -7.5246005    840.75905  0.018500991  0.018226273         3879 
 3788000   0.64341269   -7.5443156    839.47432  0.018467844  0.018219733         3904 
 3789000   0.64288796   -7.5517732    840.74927  0.018491011  0.018213194         3890 
 3790000   0.64513933   -7.5597897    840.66389  0.018484254   0.01820666         3888 
 3791000   0.65301928     -7.52534    839.52135  0.018454263  0.018200113         3902 
 3792000   0.65847462   -7.5104081    841.56416   0.01849429  0.018193581         3893 
 3793000   0.64275209   -7.5445031    840.74344  0.018471382  0.018187053         3878 
 3794000   0.63332708   -7.5334342    842.37119  0.018502267   0.01818053         3884 
 3795000   0.63766839    -7.559088    838.37285  0.018409593     0.018174         3891 
 3796000    0.6284704   -7.5268661     840.9937  0.018462278  0.018167473         3887 
 3797000   0.64682008   -7.5205056    839.74253  0.018429956  0.018160946         3874 
 3798000   0.64105104   -7.5453476    840.07706  0.018432444  0.018154426         3894 
 3799000   0.62810688   -7.5539045    840.49272   0.01843671  0.018147907         3896 
 3800000   0.64453628   -7.5379046    839.86678  0.018418131  0.018141393         3895 
 3801000   0.64030184   -7.5435655    839.05963   0.01839559  0.018134875         3901 
 3802000   0.63859991   -7.5413431    839.26142  0.018395174  0.018128362         3925 
 3803000   0.63676229   -7.5371355     840.1793   0.01841045  0.018121858         3886 
 3804000   0.64536552   -7.5349832    840.45758  0.018411707  0.018115356         3888 
 3805000   0.64052318   -7.5408758    840.52897  0.018408431  0.018108855         3892 
 3806000   0.64680562   -7.5572246    841.13495  0.018416863  0.018102359         3891 
 3807000    0.6447086   -7.5473565    839.54614  0.018377247  0.018095864         3888 
 3808000   0.64404362   -7.5361204     840.6409  0.018396378  0.018089366         3881 
 3809000   0.65196781   -7.5631963    840.41291  0.018386561  0.018082872         3882 
 3810000   0.63300891   -7.5486618    841.59578  0.018407607  0.018076378         3905 
 3811000   0.62475104   -7.5416415    840.76047  0.018384511  0.018069893         3881 
 3812000   0.65852441   -7.5437047    840.09359   0.01836511  0.018063394         3891 
 3813000   0.64741637   -7.5399125    841.15366  0.018383461  0.018056911         3881 
 3814000   0.64161278   -7.5468936    841.74447   0.01839155  0.018050434         3889 
 3815000   0.63861497   -7.5608724    840.33756  0.018355997  0.018043951         3904 
 3816000   0.63879376   -7.5546538    842.82307  0.018405465  0.018037469         3885 
 3817000   0.64430382   -7.5470556    840.36398  0.018346956  0.018030994         3878 
 3818000   0.62958257   -7.5540747    840.39117  0.018342744  0.018024527         3895 
 3819000   0.64067854   -7.5673913    839.83811  0.018325873  0.018018055         3895 
 3820000   0.63566481   -7.5297686    841.15533  0.018349811  0.018011587         3891 
 3821000   0.65056574   -7.5554431    841.09744  0.018343746  0.018005121         3880 
 3822000   0.63711508    -7.544381    839.68848  0.018308226  0.017998655         3879 
 3823000    0.6353773   -7.5438499    839.59662  0.018301435  0.017992198         3911 
 3824000   0.64288576   -7.5420794    838.72595  0.018277675  0.017985741         3899 
 3825000   0.64568346   -7.5557102    839.32294  0.018285903  0.017979284         3892 
 3826000   0.63757582   -7.5424187    839.42061  0.018283251  0.017972833         3895 
 3827000    0.6514174   -7.5433375    840.67469  0.018305781  0.017966384         3889 
 3828000   0.64000868   -7.5471103    840.17952  0.018290219  0.017959941         3892 
 3829000   0.63573638   -7.5565799    838.27805   0.01824406   0.01795349         3892 
 3830000   0.64356647   -7.5762386    839.04196  0.018255917  0.017947043         3902 
 3831000    0.6476817   -7.5567938    841.24366  0.018299044  0.017940606         3887 
 3832000    0.6292557   -7.5266257    840.68774  0.018282179  0.017934171         3890 
 3833000   0.63825581   -7.5405831    841.22841  0.018289165  0.017927734         3889 
 3834000   0.64195824   -7.5538681    839.40348  0.018244729    0.0179213         3901 
 3835000   0.63512537   -7.5499007    839.45042  0.018240991  0.017914869         3871 
 3836000   0.63918284   -7.5266936    840.69454  0.018263263  0.017908443         3908 
 3837000   0.65173536   -7.5554913    839.46013  0.018231694  0.017902018         3880 
 3838000   0.63803535    -7.555737    839.56712  0.018229267  0.017895594         3880 
 3839000   0.64028667   -7.5415375    839.99858  0.018233884  0.017889176         3879 
 3840000   0.64198873   -7.5702068     840.1992   0.01823349  0.017882753         3891 
 3841000   0.63493654   -7.5643875    840.56749  0.018236733  0.017876342         3899 
 3842000   0.64340426   -7.5532446    840.21587   0.01822436  0.017869929         3870 
 3843000   0.63037793   -7.5656928    839.20985  0.018197802  0.017863514         3879 
 3844000   0.65137066   -7.5417329    840.29707  0.018216638  0.017857108         3880 
 3845000   0.64468982   -7.5477746    839.68852  0.018198711  0.017850707         3891 
 3846000   0.63457747   -7.5686904    838.59779  0.018170346  0.017844299         3894 
 3847000   0.63842373    -7.566935    838.77123  0.018169379  0.017837896         3884 
 3848000   0.62764857   -7.5639535    840.40121  0.018199957  0.017831496         3895 
 3849000   0.61587621   -7.5162408    841.20196  0.018212565  0.017825106         3868 
 3850000   0.64039597   -7.5669859    839.91938  0.018180073  0.017818708         3913 
 3851000   0.63191342   -7.5469317    839.94457  0.018175897  0.017812314         3891 
 3852000   0.63096885   -7.5472154    841.86046  0.018212627  0.017805921         3895 
 3853000    0.6340056   -7.5548959    840.34166  0.018175051  0.017799536         3879 
 3854000   0.63536599   -7.5807743    838.59254  0.018132515  0.017793152         3890 
 3855000   0.62436732   -7.5630519    840.71781  0.018173753  0.017786769         3885 
 3856000   0.63361449   -7.5648005    841.05469   0.01817632  0.017780381         3894 
 3857000   0.62676101   -7.5734647    840.68587  0.018163639  0.017774001         3895 
 3858000    0.6347881   -7.5523759    840.62116  0.018157533  0.017767631         3900 
 3859000   0.62825688   -7.5366192    839.80376  0.018135177  0.017761257         3885 
 3860000   0.62857799   -7.5371852    839.12043  0.018115726  0.017754884         3887 
 3861000   0.62703531   -7.5551817    838.81739  0.018104493  0.017748516         3880 
 3862000   0.63818629   -7.5433849     840.8198  0.018143013  0.017742154         3898 
 3863000   0.64078797   -7.5660961    841.50719  0.018153145  0.017735797         3878 
 3864000   0.64736374    -7.566557    838.90619  0.018092352  0.017729436         3888 
 3865000    0.6263219   -7.5756102     840.1778  0.018115088  0.017723078         3882 
 3866000   0.62240709   -7.5737176    840.76253  0.018123007  0.017716721         3891 
 3867000   0.64488963   -7.5594806    839.49507  0.018091006  0.017710373         3881 
 3868000   0.62838463   -7.5572485    839.12935   0.01807845  0.017704018         3889 
 3869000   0.63153505   -7.5655078    839.34927  0.018078515  0.017697676         3896 
 3870000   0.62565375   -7.5784215    838.30081  0.018051266  0.017691333         3886 
 3871000   0.63197454    -7.563241    839.54904  0.018073474  0.017684988         3901 
 3872000   0.63099684   -7.5665876     838.6762  0.018050022  0.017678642         3904 
 3873000   0.64393181   -7.5522406    839.29182  0.018058607  0.017672302         3896 
 3874000   0.64480126   -7.5478981    839.17342  0.018051399  0.017665968         3891 
 3875000   0.64304245   -7.5515277    839.69377  0.018057931  0.017659632         3892 
 3876000   0.63338359   -7.5540548    839.36889  0.018046287  0.017653304         3883 
 3877000   0.63016487   -7.5590719    839.67989  0.018048317  0.017646973         3880 
 3878000   0.63830316    -7.547626     838.8316  0.018025434  0.017640641         3889 
 3879000   0.62756371   -7.5604029    839.01873  0.018024807  0.017634315         3891 
 3880000   0.63467768   -7.5430838    839.94901  0.018040142  0.017627989         3887 
 3881000   0.64038509   -7.5533045    840.32918  0.018043657  0.017621671         3886 
 3882000   0.64118155   -7.5471004    840.73912  0.018047809  0.017615355         3894 
 3883000   0.63439303   -7.5684911    840.12905  0.018030068  0.017609048         3875 
 3884000   0.62859663   -7.5521651     840.0687  0.018024131  0.017602731         3897 
 3885000    0.6200946   -7.5690576    839.75042  0.018012664  0.017596425         3897 
 3886000   0.62944112   -7.5747946    839.79659  0.018009019  0.017590109         3878 
 3887000   0.63773267   -7.5634616     837.6574  0.017958524  0.017583801         3914 
 3888000   0.63072515   -7.5483871    840.37683  0.018012192  0.017577499         3900 
 3889000   0.63630913   -7.5501364    839.60742  0.017991073  0.017571199         3900 
 3890000    0.6413374   -7.5556991    838.36724  0.017959881    0.0175649         3909 
 3891000   0.62992942   -7.5685006    839.59718  0.017981607  0.017558605         3890 
 3892000   0.62697098    -7.548058    839.55269  0.017976034   0.01755231         3896 
 3893000   0.64866895   -7.5776382    838.95182  0.017958554  0.017546019         3889 
 3894000   0.64361268   -7.5559468    839.03197  0.017955658  0.017539728         3889 
 3895000   0.62075973   -7.5702262    839.17333  0.017954072  0.017533447         3903 
 3896000   0.64098446   -7.5576869    839.49591  0.017956364  0.017527163         3890 
 3897000   0.63712943   -7.5703102    838.55694  0.017931677  0.017520882         3905 
 3898000   0.63285148   -7.5761166    841.29605  0.017985635  0.017514602         3907 
 3899000   0.63027722   -7.5499104    839.09332  0.017933943  0.017508323         3892 
 3900000   0.64172268    -7.570963    840.33615  0.017955901  0.017502052         3893 
 3901000   0.64152003   -7.5709178    839.42307  0.017931793  0.017495785         3900 
 3902000   0.62092597   -7.5489064     837.2585  0.017880969  0.017489511         3901 
 3903000   0.62510297   -7.5670622       839.43  0.017922752  0.017483242         3876 
 3904000   0.62677767    -7.565778    840.28016  0.017936308   0.01747698         3899 
 3905000   0.62854679   -7.5312606     838.4568  0.017892804  0.017470718         3886 
 3906000   0.64860573   -7.5488742    839.13512  0.017902695   0.01746446         3899 
 3907000   0.62984318   -7.5707421    839.26211  0.017900821  0.017458204         3897 
 3908000   0.61290488   -7.5691011     839.8065  0.017907849  0.017451946         3882 
 3909000   0.63315702   -7.5580934     839.1346  0.017888944   0.01744569         3886 
 3910000   0.63326538   -7.5634696    838.68996  0.017874892  0.017439433         3891 
 3911000     0.623097   -7.5700887    840.26822  0.017903951  0.017433178         3886 
 3912000   0.61842731   -7.5748039    841.45408  0.017924635  0.017426933         3887 
 3913000   0.62786165   -7.5635774    839.00701   0.01786794  0.017420691         3906 
 3914000   0.62822345   -7.5712426    839.00646  0.017863364  0.017414448         3899 
 3915000   0.62868486   -7.5523902    839.93862  0.017878642  0.017408205         3884 
 3916000   0.62975514   -7.5763662    838.88853  0.017851731  0.017401975         3890 
 3917000   0.63774896   -7.5629671    839.04611  0.017850526   0.01739574         3905 
 3918000   0.62575333   -7.5576021    838.50059  0.017834367  0.017389501         3896 
 3919000   0.62604495   -7.5601996    839.49301  0.017850919   0.01738327         3881 
 3920000   0.61107081   -7.5753817     839.6462  0.017849622  0.017377038         3906 
 3921000   0.63525178     -7.57381    838.79627  0.017827006  0.017370809         3883 
 3922000   0.62170054   -7.5525687    839.28748  0.017832897  0.017364581         3895 
 3923000   0.61278021   -7.5768108    839.05012   0.01782331  0.017358363         3902 
 3924000   0.62031546   -7.5622688    840.64063  0.017852545  0.017352145         3903 
 3925000   0.61525112   -7.5472952    838.67343   0.01780623  0.017345928         3872 
 3926000   0.62841329   -7.5559023     838.9944  0.017808507  0.017339716         3893 
 3927000   0.61917872   -7.5825256    839.32597  0.017811009  0.017333502         3907 
 3928000   0.62046211   -7.5846126    839.99808  0.017820733  0.017327295         3896 
 3929000   0.61981214   -7.5904913    839.02028  0.017795459  0.017321087         3922 
 3930000    0.6263198     -7.58826    839.37132  0.017798374  0.017314878         3912 
 3931000   0.61524342   -7.5819699    838.78841  0.017781489  0.017308673         3894 
 3932000   0.60988333   -7.5793011    839.39311  0.017789783  0.017302473         3906 
 3933000   0.62504882    -7.551596    839.01414   0.01777723  0.017296282         3903 
 3934000   0.62800742   -7.5758869    841.50233  0.017825418  0.017290085         3887 
 3935000   0.61074211   -7.5875071    839.35111  0.017775331  0.017283889         3886 
 3936000    0.6170155   -7.5736252    840.57534  0.017796734  0.017277695         3881 
 3937000   0.62735836   -7.6003136    839.49856  0.017769422  0.017271504         3895 
 3938000   0.61672499    -7.562721    839.65857  0.017768295  0.017265316         3888 
 3939000   0.62341758   -7.5674878    839.07859  0.017751515  0.017259138         3889 
 3940000   0.62244565   -7.5661995    839.32452  0.017752211  0.017252955         3911 
 3941000   0.62463308    -7.576266    840.21115  0.017766454  0.017246775         3885 
 3942000   0.62986511   -7.5690727    837.88953  0.017712869  0.017240596         3893 
 3943000   0.62907051   -7.5563486    839.09518  0.017733857  0.017234425         3892 
 3944000   0.62891971    -7.569189    838.74163   0.01772189  0.017228255         3907 
 3945000   0.61988864   -7.5663803    839.38913  0.017731076  0.017222081         3894 
 3946000   0.61900044    -7.574274    837.58174  0.017688413   0.01721591         3925 
 3947000   0.61982437   -7.5797443    837.87451  0.017690113  0.017209743         3908 
 3948000   0.63782676   -7.5850811    840.73854  0.017746085   0.01720358         3904 
 3949000   0.63530879   -7.5814367    839.44401  0.017714274  0.017197421         3914 
 3950000   0.63782249   -7.5727105    838.73948  0.017694926   0.01719126         3885 
 3951000   0.61678255   -7.5584373    838.96541  0.017695212  0.017185103         3908 
 3952000   0.62946542   -7.5842963    837.49769  0.017659786  0.017178951         3903 
 3953000   0.61753571   -7.5821237    839.83893  0.017704674  0.017172802         3907 
 3954000   0.61247435   -7.5860864    839.96974  0.017702954  0.017166652         3896 
 3955000   0.61605184   -7.5595712    838.38465  0.017665079  0.017160503         3890 
 3956000   0.59914645   -7.5652369     839.7549  0.017689478  0.017154361         3893 
 3957000   0.63027245   -7.5750537    837.07823  0.017628638  0.017148218         3904 
 3958000     0.609681   -7.5882803    837.72273  0.017637753  0.017142079         3906 
 3959000   0.62824644   -7.5729202    836.92089   0.01761642  0.017135936         3897 
 3960000   0.61377842   -7.5609669    839.85073  0.017673627   0.01712981         3905 
 3961000   0.61536147   -7.5782832    838.44645  0.017639621  0.017123676         3909 
 3962000   0.61193059   -7.5888009    839.25005  0.017652071  0.017117552         3899 
 3963000   0.62024475   -7.5480161    839.82656  0.017659739  0.017111427         3896 
 3964000   0.63652607    -7.591178    838.85229  0.017634802  0.017105305         3905 
 3965000   0.61461391   -7.5963797    836.94886   0.01759035  0.017099179         3910 
 3966000   0.61766026   -7.5841375    838.68509  0.017622396  0.017093055         3908 
 3967000   0.61941768   -7.5749211    838.06298  0.017604886  0.017086935         3888 
 3968000   0.61736147   -7.5832416    837.49464  0.017588513  0.017080823         3907 
 3969000   0.59798075   -7.5888781    839.81647  0.017632831   0.01707471         3896 
 3970000   0.62153083    -7.571431    838.80028  0.017607059    0.0170686         3887 
 3971000   0.61172583     -7.59022    838.38077  0.017593821   0.01706249         3898 
 3972000    0.6167729   -7.5983318    839.28093  0.017608277  0.017056388         3875 
 3973000   0.60719666   -7.5786704    840.03715  0.017619707  0.017050285         3894 
 3974000   0.63060099   -7.5901319    838.28304   0.01757849  0.017044184         3897 
 3975000   0.60868696   -7.5809882    839.19824  0.017593255  0.017038084         3892 
 3976000   0.61694265   -7.5931801    838.41384  0.017572389  0.017031988         3885 
 3977000    0.6134749   -7.5919004    838.79878  0.017576037  0.017025897         3906 
 3978000   0.60538891   -7.5840897    838.26522  0.017560441  0.017019802         3905 
 3979000   0.62040735   -7.5764965    837.41921   0.01753831   0.01701371         3908 
 3980000   0.59337324   -7.5778237    838.32829  0.017552937  0.017007628         3900 
 3981000   0.61254586   -7.5778717    838.38041  0.017549619   0.01700155         3891 
 3982000    0.6182084   -7.5792819    838.61932  0.017550212  0.016995465         3889 
 3983000    0.6092268   -7.6078207    837.85204  0.017529752  0.016989383         3910 
 3984000   0.60488559   -7.5759401    838.69963  0.017543081  0.016983303         3903 
 3985000   0.61978886   -7.5781559    838.65818  0.017537812  0.016977227         3899 
 3986000   0.60665314   -7.5776359    839.55951  0.017552256   0.01697115         3897 
 3987000   0.62856799   -7.5801389    838.36578  0.017522903  0.016965081         3908 
 3988000   0.59995063   -7.5932361    836.91815   0.01748826   0.01695901         3905 
 3989000   0.61983431   -7.5741179     839.0865  0.017529174  0.016952946         3899 
 3990000   0.60911637   -7.5874006    838.87655  0.017520396  0.016946885         3894 
 3991000   0.62406286   -7.5877542    837.11455  0.017479215  0.016940827         3894 
 3992000   0.61582352   -7.5849376    839.06656  0.017515585  0.016934764         3909 
 3993000    0.6233324   -7.5992402    838.43057  0.017497925  0.016928705         3894 
 3994000   0.60969467   -7.5802467    837.79653  0.017480315   0.01692265         3892 
 3995000   0.61600101   -7.5754511    837.54215  0.017470633  0.016916596         3907 
 3996000   0.62180505   -7.6073064    838.26614  0.017481359  0.016910547         3904 
 3997000   0.60932212   -7.5922552    839.08736  0.017494107  0.016904494         3901 
 3998000   0.60625587   -7.5813748    838.61591  0.017479905  0.016898452         3890 
 3999000   0.62400418   -7.6001686    838.10921  0.017464975  0.016892403         3912 
 4000000   0.60764803   -7.5931489    836.84104  0.017434188  0.016886359         3897 
 4001000   0.60245554   -7.5909201    837.73063  0.017448359  0.016880323         3899 
 4002000   0.61670221   -7.5955486    838.17497  0.017453252  0.016874282         3898 
 4003000   0.60553861   -7.5888735    838.54234   0.01745654  0.016868246         3905 
 4004000   0.61035056   -7.5873325    837.15156  0.017423234  0.016862213         3902 
 4005000   0.60672868   -7.5739381    837.82108  0.017432815  0.016856183         3888 
 4006000   0.61065342   -7.5903931    837.86569  0.017429391  0.016850155         3906 
 4007000   0.62100855   -7.5986883     838.0405  0.017428677  0.016844132         3903 
 4008000   0.60729466   -7.5889081    838.41852  0.017432188   0.01683811         3900 
 4009000   0.61629345   -7.6004214    837.98316   0.01741879  0.016832087         3894 
 4010000   0.61346141    -7.594987    837.82095  0.017411076  0.016826073         3883 
 4011000   0.62747216   -7.5786062    837.46795  0.017399401  0.016820059         3894 
 4012000   0.61067628    -7.587564    839.33381   0.01743382  0.016814051         3885 
 4013000   0.62228018   -7.6108341    839.39876  0.017430824  0.016808037         3886 
 4014000   0.60620306   -7.5785627     837.8325  0.017393965  0.016802032         3913 
 4015000   0.61054005    -7.570888    838.00594  0.017393232  0.016796021         3893 
 4016000    0.6214003   -7.5728792    839.23064  0.017414314  0.016790022         3892 
 4017000   0.60779304   -7.5855363    837.13232  0.017366449  0.016784018         3894 
 4018000   0.61624776   -7.5858938    839.06457  0.017402202  0.016778022         3881 
 4019000   0.61356319    -7.595081    838.38871  0.017383858  0.016772024         3899 
 4020000   0.59981421    -7.580119    837.66515  0.017364535  0.016766028         3896 
 4021000   0.60369462   -7.5897175    838.18413  0.017370972  0.016760041         3903 
 4022000   0.61519975   -7.6160535    839.98551  0.017403976   0.01675405         3908 
 4023000   0.61481417   -7.5947388    838.96003  0.017378408  0.016748064         3898 
 4024000     0.603255    -7.598628    837.62191  0.017346378  0.016742076         3892 
 4025000    0.6042184   -7.5942933    838.26015  0.017355283   0.01673609         3893 
 4026000   0.60606844   -7.5933869    836.17884  0.017307891  0.016730113         3896 
 4027000   0.60169178   -7.6082819    837.26329  0.017326034  0.016724131         3902 
 4028000   0.60977346   -7.5974085    838.01693  0.017337325  0.016718158         3899 
 4029000   0.61272277   -7.5818246    838.71268  0.017347412  0.016712187         3904 
 4030000   0.62368532   -7.5978191    838.04415  0.017329283   0.01670622         3901 
 4031000   0.61313509   -7.5992744    838.97185  0.017344163  0.016700254         3908 
 4032000   0.59843142   -7.5815835    838.62588  0.017332711  0.016694288         3902 
 4033000    0.6130124   -7.6062328    838.44259  0.017324626  0.016688322         3896 
 4034000   0.60377388   -7.5900218     839.7865  0.017348093  0.016682368         3901 
 4035000    0.6158549   -7.6017254     837.4005  0.017294517  0.016676409         3895 
 4036000   0.61681942    -7.617398     838.0355  0.017303343  0.016670455         3909 
 4037000   0.60505976   -7.6037374    839.21339  0.017323371  0.016664501         3888 
 4038000   0.61938364   -7.5906712    837.64716  0.017286758  0.016658548         3897 
 4039000   0.60075183   -7.5881408    837.95454   0.01728882    0.0166526         3898 
 4040000    0.6095791   -7.6071405    836.86299  0.017262025  0.016646659         3877 
 4041000    0.6146067   -7.5741473    836.76074  0.017255645  0.016640716         3898 
 4042000   0.62228619   -7.6004898    838.32757  0.017283679  0.016634773         3910 
 4043000   0.58317679   -7.6005877    837.97432  0.017272123  0.016628839         3913 
 4044000   0.61684718    -7.580667    837.15035  0.017250873  0.016622903         3902 
 4045000   0.59736596   -7.5912055    837.59702   0.01725581   0.01661697         3912 
 4046000   0.60005776    -7.603664    837.17838  0.017242923  0.016611041         3888 
 4047000   0.60099256   -7.5916201    837.30464  0.017241262  0.016605114         3885 
 4048000   0.59869652   -7.5906702    837.66027  0.017244324  0.016599191         3904 
 4049000    0.6093898   -7.6042514    836.42859  0.017214715  0.016593266         3901 
 4050000   0.60706673    -7.596082    838.77948  0.017258837  0.016587348         3912 
 4051000   0.59836789   -7.6101224    838.57878  0.017250448  0.016581433         3894 
 4052000   0.59546192     -7.61221    836.79811   0.01720957  0.016575516         3916 
 4053000   0.58411267   -7.5949791    838.71828  0.017244804  0.016569597         3898 
 4054000   0.59609656   -7.6165094    837.66312   0.01721886  0.016563687         3908 
 4055000   0.59793458   -7.6037633    837.83086  0.017218061  0.016557779         3893 
 4056000   0.59899762   -7.6060427    836.27803  0.017181912  0.016551872         3889 
 4057000   0.60220007   -7.5877337    837.88086    0.0172106  0.016545973         3895 
 4058000   0.59410314   -7.6118408    837.98136  0.017208423  0.016540063         3919 
 4059000   0.60833849   -7.6195459    837.97799  0.017204114  0.016534162         3908 
 4060000   0.59446729    -7.616485    837.89107  0.017198092  0.016528266         3909 
 4061000   0.59325766   -7.6103851    836.38441   0.01716294  0.016522371         3899 
 4062000    0.6108118    -7.627626    837.93095  0.017190443  0.016516479         3900 
 4063000   0.60995206   -7.5780964     837.6282  0.017180002  0.016510593         3896 
 4064000   0.60745526    -7.617133    836.42717  0.017151148  0.016504703         3893 
 4065000   0.60733479   -7.6116972    836.45586  0.017147517  0.016498817         3900 
 4066000   0.60011443   -7.6052904    837.16539  0.017157841  0.016492937         3908 
 4067000   0.61346454   -7.5940557    836.85084  0.017147177  0.016487061         3906 
 4068000    0.5964683    -7.601336     838.2257  0.017171126  0.016481184         3905 
 4069000   0.60136563   -7.6143491     838.4412   0.01717132  0.016475309         3903 
 4070000   0.58066663   -7.5989066    837.41695  0.017146129  0.016469436         3888 
 4071000    0.6010868   -7.6061246    837.20816  0.017137643  0.016463565         3894 
 4072000   0.60410322   -7.5983298    836.72561  0.017123559  0.016457693         3918 
 4073000   0.59850502   -7.6084417    836.68925  0.017118611  0.016451827         3893 
 4074000   0.60410804   -7.6297827    836.69967  0.017114623  0.016445962         3909 
 4075000   0.58136417   -7.6047202    836.42913   0.01710489  0.016440097         3899 
 4076000   0.60894062   -7.5998946    838.19651  0.017136827  0.016434237         3893 
 4077000   0.60026509   -7.6089266    839.65933  0.017162524  0.016428385         3898 
 4078000   0.59522094   -7.6137577    837.25315  0.017109146  0.016422536         3884 
 4079000   0.60845895   -7.6036607    838.01205  0.017120455  0.016416689         3901 
 4080000   0.58855522   -7.6003432    836.42794  0.017083904  0.016410846         3902 
 4081000   0.59472809   -7.6123746     837.1425  0.017094309     0.016405         3894 
 4082000   0.59585219   -7.6146811    838.78691  0.017123692  0.016399158         3892 
 4083000   0.60955616   -7.6243271    837.83592  0.017100088  0.016393322         3899 
 4084000   0.60682526   -7.6203494    837.45936  0.017088217  0.016387486         3905 
 4085000   0.60555362   -7.5984522    836.67708  0.017068076   0.01638165         3897 
 4086000   0.59049495   -7.6017022    835.86494  0.017047335  0.016375814         3907 
 4087000   0.59644161   -7.6144071    837.77498   0.01708211  0.016369985         3890 
 4088000   0.60690583   -7.6175492    837.82157  0.017078881  0.016364159         3897 
 4089000   0.59369417   -7.5861639    836.76112  0.017053092  0.016358333         3896 
 4090000   0.60666021   -7.6188151    836.98951  0.017053576  0.016352516         3882 
 4091000   0.59825307   -7.6085223    838.92372  0.017088807  0.016346696         3893 
 4092000   0.59873818   -7.6010811    839.14775  0.017089193  0.016340879         3885 
 4093000    0.6024693   -7.5961922    839.47523  0.017091686  0.016335065         3894 
 4094000   0.60921609   -7.6163071    838.56831   0.01706905  0.016329255         3901 
 4095000   0.59840198   -7.6134362    838.24001  0.017058201  0.016323444         3902 
 4096000   0.60267079   -7.6026841    837.56535  0.017040311  0.016317637         3903 
 4097000   0.60273834   -7.6179959     838.0437  0.017045881  0.016311833         3895 
 4098000   0.60500916   -7.6026118     837.8404  0.017037588  0.016306025         3913 
 4099000   0.59467417   -7.6252979    837.75511  0.017031697  0.016300224         3911 
 4100000    0.6051241   -7.6000858    836.93452  0.017010864  0.016294429         3897 
 4101000   0.60473148   -7.5929083    837.01124  0.017008275  0.016288629         3897 
 4102000   0.59493093   -7.6125198    835.67613  0.016977006  0.016282834         3898 
 4103000   0.60780762   -7.6097152    838.56615  0.017031565  0.016277042         3884 
 4104000   0.59345765   -7.6250144    837.66462  0.017009109   0.01627125         3909 
 4105000   0.59668825   -7.6091729    838.97632  0.017031594  0.016265465         3887 
 4106000   0.60501667   -7.6055546    837.73758  0.017002305  0.016259677         3888 
 4107000   0.59674947   -7.6244149     837.2694  0.016988666  0.016253893         3875 
 4108000   0.59223002    -7.601833    836.72287  0.016973443  0.016248109         3882 
 4109000   0.59388759   -7.6289745    836.84464  0.016971782  0.016242335         3897 
 4110000   0.59449429   -7.5922077    836.47083  0.016960074  0.016236562         3887 
 4111000   0.59813797   -7.6150464     836.4703  0.016955937  0.016230788         3884 
 4112000    0.5867574    -7.626219    836.45745  0.016951553  0.016225016         3880 
 4113000   0.58503053   -7.6031739    837.26044  0.016963701  0.016219245         3903 
 4114000   0.59763847   -7.6257611    837.64548  0.016967377  0.016213479         3895 
 4115000   0.60298817   -7.6136211    837.04882  0.016951171  0.016207713         3899 
 4116000   0.59422818   -7.6158871     836.8323  0.016942669  0.016201945         3885 
 4117000    0.5976628   -7.6121836    836.16929  0.016925133  0.016196181         3898 
 4118000   0.60424711   -7.6278119     838.5287  0.016968769  0.016190423         3878 
 4119000   0.58234716   -7.6123707    835.99756  0.016913441  0.016184664         3891 
 4120000   0.58932321   -7.6166759    836.92246  0.016928043  0.016178907         3907 
 4121000   0.57888826   -7.6143993    838.11573  0.016948065  0.016173157         3894 
 4122000   0.59365217   -7.6131239    837.77474   0.01693706  0.016167406         3896 
 4123000   0.58586224   -7.6062622    836.90842  0.016915442  0.016161657         3900 
 4124000   0.58227553   -7.6110473    835.35039  0.016879858  0.016155907         3902 
 4125000   0.58947821   -7.6252746    837.89446  0.016927161  0.016150165         3912 
 4126000   0.58918297   -7.6176805    837.23949   0.01690983  0.016144422         3892 
 4127000   0.59319211   -7.6334882    838.02058  0.016921504  0.016138686         3897 
 4128000   0.59944177   -7.6152596    838.18443  0.016920713  0.016132954         3913 
 4129000   0.59156351   -7.6188341    837.77468  0.016908345  0.016127218         3912 
 4130000   0.59912089   -7.6263084    836.84874  0.016885568  0.016121487         3893 
 4131000   0.59663327   -7.6239765     836.4939  0.016874322  0.016115761         3890 
 4132000   0.59701071   -7.6074486    836.59129  0.016872202  0.016110037         3901 
 4133000   0.59306409   -7.6177718    837.10513  0.016878481  0.016104311         3906 
 4134000     0.586138   -7.6278259     836.6957  0.016866145  0.016098588         3912 
 4135000   0.59174126   -7.6233578    836.82097   0.01686459  0.016092871         3891 
 4136000   0.59728508   -7.6202011    837.14632  0.016867068  0.016087159         3908 
 4137000   0.59177334   -7.6018563    835.27717   0.01682534   0.01608144         3903 
 4138000   0.59948057   -7.6299638    835.79338   0.01683167  0.016075734         3905 
 4139000   0.57484937   -7.6265444    836.26749  0.016837149  0.016070024         3898 
 4140000   0.60272814   -7.6449648    837.25576  0.016852974   0.01606431         3900 
 4141000   0.57774156   -7.6282708    835.56177  0.016814815  0.016058602         3901 
 4142000   0.58514793   -7.6230315    836.79665    0.0168356  0.016052904         3897 
 4143000    0.5818188   -7.6261029    835.75228  0.016810529  0.016047201         3897 
 4144000   0.59534559   -7.6316505    835.93939  0.016810235  0.016041501         3890 
 4145000   0.58891811   -7.6167156    836.18114   0.01681104  0.016035808         3915 
 4146000   0.60442286   -7.6225533    835.68297  0.016796972  0.016030108         3909 
 4147000   0.58298106   -7.6182483    835.69495  0.016793163  0.016024415         3914 
 4148000   0.58232628   -7.6060267    835.68361  0.016788886  0.016018727         3906 
 4149000   0.59284876   -7.6223204    837.23009  0.016815901  0.016013036         3897 
 4150000   0.58991754   -7.6378044    837.78427  0.016822977   0.01600735         3905 
 4151000   0.59688365   -7.6253948    836.10411  0.016785195   0.01600167         3906 
 4152000    0.5833148   -7.6149047    835.89673   0.01677699  0.015995988         3909 
 4153000   0.59155027   -7.6179372    836.18657  0.016778766  0.015990313         3915 
 4154000    0.5765104   -7.6231513    836.19125   0.01677482  0.015984637         3917 
 4155000   0.59125741   -7.6519161    835.46928  0.016756303  0.015978966         3911 
 4156000   0.60015463   -7.6341007    837.45073  0.016792002   0.01597329         3905 
 4157000    0.5875058   -7.6339873    835.36317  0.016746114  0.015967624         3891 
 4158000   0.60049652   -7.6183598     835.5302  0.016745435  0.015961955         3895 
 4159000   0.56817602   -7.6337665    836.57639  0.016762371  0.015956289         3899 
 4160000   0.58420838   -7.6289577    835.78133  0.016742415  0.015950623         3898 
 4161000   0.57962885   -7.6119911    836.08173  0.016744407  0.015944959         3914 
 4162000   0.59190115   -7.6063817    837.34798  0.016765737  0.015939298         3888 
 4163000   0.58552589    -7.629142    837.07683  0.016756282  0.015933645         3903 
 4164000   0.59187885   -7.6237927    835.67339  0.016724171  0.015927992         3901 
 4165000   0.57832618   -7.6352007    836.75259  0.016741748  0.015922338         3905 
 4166000   0.57748777   -7.6530065     836.7304  0.016737286  0.015916689         3906 
 4167000   0.58944538   -7.6396494    835.71978  0.016713059  0.015911043         3905 
 4168000    0.5863238   -7.6174954    836.14716  0.016717594  0.015905398         3903 
 4169000   0.58225927   -7.6204192    837.36119  0.016737851   0.01589976         3917 
 4170000   0.58676358   -7.6324894    837.32241  0.016733062  0.015894121         3906 
 4171000    0.5826331   -7.6322309    837.70618  0.016736717  0.015888484         3911 
 4172000   0.58775399   -7.6222776    836.45851  0.016707784   0.01588285         3905 
 4173000   0.57445827   -7.6342093    836.30614  0.016700738  0.015877216         3901 
 4174000   0.58593304   -7.6184482    836.34991  0.016697611  0.015871591         3904 
 4175000   0.57166591   -7.6299132    836.42559  0.016695122  0.015865964         3912 
 4176000   0.58004321   -7.6229825    837.52425  0.016713048  0.015860345         3907 
 4177000   0.59715457   -7.6314986    835.79453  0.016674538  0.015854727         3915 
 4178000   0.58839728   -7.6243797    836.04369  0.016675516  0.015849108         3910 
 4179000   0.56869151   -7.6332359    836.76916  0.016685993   0.01584349         3908 
 4180000   0.57293275   -7.6282109    837.42701  0.016695116  0.015837875         3904 
 4181000   0.58077686   -7.6206422    836.14392  0.016665549  0.015832263         3889 
 4182000   0.59695877   -7.6238489    836.92048  0.016677038  0.015826654         3896 
 4183000   0.57355415   -7.6365727    837.47549  0.016684108  0.015821055         3888 
 4184000   0.57533402   -7.6143834    837.72025  0.016684995  0.015815454         3900 
 4185000   0.56897487   -7.6476175    836.28863  0.016652502  0.015809849         3906 
 4186000   0.57833918   -7.6465719    836.71987  0.016657109  0.015804247         3898 
 4187000   0.58852141   -7.6260348    836.10947  0.016640981  0.015798651         3897 
 4188000   0.58159156   -7.6259587    836.01269  0.016635082  0.015793055         3904 
 4189000   0.57000389    -7.640425    837.68445  0.016664368  0.015787461         3903 
 4190000   0.58403893   -7.6280251    835.83977  0.016623703  0.015781871         3901 
 4191000   0.58714122   -7.6305319    836.66024   0.01663605  0.015776283         3910 
 4192000   0.57906427    -7.634558    836.51297  0.016629154  0.015770694         3900 
 4193000   0.58221801   -7.6289674    836.75608   0.01663002  0.015765108         3889 
 4194000   0.58017522   -7.6482107    837.45982  0.016640038  0.015759524         3903 
 4195000   0.59126282    -7.625901    836.25928  0.016612223  0.015753949         3900 
 4196000   0.57308005   -7.6248542     837.1038  0.016625036  0.015748371         3889 
 4197000   0.57214284   -7.6171185    835.68982  0.016592999  0.015742798         3884 
 4198000   0.56211194   -7.6247523    836.24236  0.016600015  0.015737233         3894 
 4199000    0.5704731   -7.6300012    837.34285  0.016617902  0.015731662         3887 
 4200000   0.57038296   -7.6390728    836.56778  0.016598567  0.015726099         3901 
 4201000    0.5694428   -7.6488473    835.40195   0.01657149  0.015720535         3907 
 4202000   0.58498996   -7.6275372    835.37027  0.016566918  0.015714969         3892 
 4203000    0.5792606   -7.6448412    836.81797   0.01659168  0.015709407         3908 
 4204000   0.57770989   -7.6301932    836.13958  0.016574286  0.015703849         3908 
 4205000   0.57776047   -7.6367732    836.79339  0.016583302  0.015698293         3912 
 4206000   0.58378896   -7.6503421    836.95358  0.016582532  0.015692738         3896 
 4207000   0.56963651    -7.630202    836.85055   0.01657655  0.015687187         3894 
 4208000   0.56659987   -7.6298368    836.17535  0.016559239  0.015681636         3888 
 4209000   0.57666309   -7.6196818    836.68799  0.016565455   0.01567609         3890 
 4210000   0.57330735   -7.6434781     835.9975  0.016547852  0.015670544         3893 
 4211000   0.58466601   -7.6367851    836.56981  0.016555248  0.015664998         3912 
 4212000   0.57720126   -7.6394997    837.23508   0.01656448  0.015659457         3893 
 4213000   0.57466164   -7.6237434    835.64123  0.016529022  0.015653919         3897 
 4214000   0.57604808   -7.6371057    836.36717  0.016539455  0.015648385         3894 
 4215000   0.57365471   -7.6270231    836.49425  0.016538044  0.015642854         3892 
 4216000   0.57349939   -7.6274061    835.51046  0.016514675  0.015637323         3887 
 4217000   0.57972744   -7.6435489    837.20807  0.016544306  0.015631798         3901 
 4218000    0.5678838   -7.6287617    835.84872  0.016513528  0.015626271         3898 
 4219000   0.57392468   -7.6305629    835.37526  0.016500262  0.015620746         3896 
 4220000   0.58773319   -7.6357523     836.3666  0.016515928  0.015615225         3922 
 4221000   0.56846976   -7.6329176    835.96036  0.016503995  0.015609704         3896 
 4222000   0.57217034   -7.6237127    836.34767  0.016507731  0.015604184         3896 
 4223000   0.58895223   -7.6328517    836.48373  0.016506507  0.015598665         3901 
 4224000    0.5743808   -7.6488374    836.95264   0.01651185  0.015593149         3906 
 4225000   0.57412127   -7.6248617    835.21754  0.016473719  0.015587637         3899 
 4226000   0.58564192    -7.641823    835.57269  0.016476824  0.015582127         3911 
 4227000   0.57454802    -7.620816    835.13488  0.016464295  0.015576615         3891 
 4228000   0.57642423   -7.6298342    833.85522  0.016435178  0.015571106         3899 
 4229000   0.58685745   -7.6421159    836.31848  0.016479831  0.015565602         3901 
 4230000   0.56754715   -7.6244236    834.70298  0.016444109  0.015560102         3909 
 4231000   0.58231808   -7.6246684    836.79819   0.01648149  0.015554608         3915 
 4232000   0.57608714   -7.6489188    837.48325  0.016491085  0.015549111         3888 
 4233000   0.56610199    -7.648637    835.58401  0.016449799  0.015543612         3898 
 4234000   0.57325392   -7.6312874     836.0242  0.016454578  0.015538118         3898 
 4235000   0.57442101   -7.6357973     835.0802  0.016432117  0.015532631         3887 
 4236000   0.58315122   -7.6297459    836.35923    0.0164534  0.015527139         3892 
 4237000   0.56979345   -7.6523241    834.84599  0.016419754  0.015521652         3905 
 4238000   0.57183241   -7.6540692    835.39647  0.016426704  0.015516165         3902 
 4239000   0.58168607    -7.625215    836.36557   0.01644188  0.015510692         3910 
 4240000   0.57585865   -7.6403221    835.96087  0.016430049  0.015505213         3905 
 4241000   0.57562994   -7.6418148     836.4349  0.016435489  0.015499733         3887 
 4242000   0.58206093   -7.6377746    835.81956  0.016419526  0.015494259         3915 
 4243000   0.57762814   -7.6386498    835.89755  0.016417188  0.015488783         3896 
 4244000   0.58602064   -7.6459639    835.68574  0.016409161  0.015483311         3898 
 4245000   0.59141734   -7.6502973    835.40531   0.01639979  0.015477844         3907 
 4246000   0.57633122   -7.6452101    834.37047  0.016375618   0.01547238         3893 
 4247000    0.5846196   -7.6526832    836.12775  0.016406243  0.015466915         3896 
 4248000   0.57533173   -7.6232623    835.20711   0.01638432  0.015461455         3904 
 4249000   0.57886557   -7.6395733    834.74881  0.016371476  0.015456001         3899 
 4250000   0.56994294   -7.6316637    835.07132  0.016373947  0.015450546         3897 
 4251000   0.56918996   -7.6418002    836.60204  0.016400103  0.015445091         3905 
 4252000   0.56525479   -7.6494984    836.05732   0.01638557  0.015439639         3903 
 4253000   0.58389099   -7.6479214    835.36762  0.016368203  0.015434192         3892 
 4254000   0.56652076    -7.650818    835.57935  0.016368503  0.015428746         3909 
 4255000   0.56648046   -7.6478186    837.25916  0.016397555  0.015423297         3906 
 4256000   0.57668622   -7.6521272    836.27085  0.016374351  0.015417852         3916 
 4257000   0.57381287   -7.6362681    835.63926  0.016358141   0.01541241         3908 
 4258000   0.57081198   -7.6534277    834.50293   0.01633206   0.01540697         3904 
 4259000   0.55493448   -7.6405385    836.19593  0.016361351  0.015401534         3906 
 4260000   0.57115359   -7.6408447    833.84708  0.016311563  0.015396101         3911 
 4261000   0.59489994   -7.6597676    836.18627  0.016353483  0.015390675         3909 
 4262000   0.56906678   -7.6388158    834.82116  0.016322954  0.015385246         3893 
 4263000   0.57592397   -7.6653076    837.08219  0.016363324  0.015379823         3897 
 4264000   0.57471079   -7.6354376    834.53895  0.016309782  0.015374396         3892 
 4265000   0.56487294   -7.6514565    836.17084  0.016337844   0.01536898         3913 
 4266000    0.5727134   -7.6422526    832.34158  0.016259212  0.015363558         3898 
 4267000   0.57284764   -7.6478076    834.04751  0.016288718  0.015358141         3910 
 4268000   0.57590878   -7.6653527    836.22374  0.016327393  0.015352725         3891 
 4269000    0.5697935   -7.6586407    835.38932   0.01630728  0.015347314         3888 
 4270000   0.55291502   -7.6260389    834.27047  0.016281625  0.015341906         3896 
 4271000   0.57591518   -7.6331139    835.01484  0.016292337    0.0153365         3905 
 4272000   0.55862721   -7.6477051     834.9128  0.016286533  0.015331094         3910 
 4273000   0.56724248    -7.643481    833.08893  0.016247151  0.015325691         3907 
 4274000   0.57261991   -7.6441373     835.2506  0.016285498  0.015320291         3906 
 4275000   0.56973054   -7.6398794    835.09538  0.016278662  0.015314893         3899 
 4276000   0.57133926   -7.6462431    836.81265  0.016308323  0.015309497         3907 
 4277000    0.5555783   -7.6336863    835.02156  0.016269612  0.015304103         3896 
 4278000   0.56797356   -7.6428678    836.18139  0.016288402   0.01529871         3905 
 4279000   0.57089616   -7.6735538    836.00782  0.016281215   0.01529332         3906 
 4280000   0.58111816   -7.6327612    834.82153  0.016254313  0.015287931         3901 
 4281000   0.56171651   -7.6590416    833.89857   0.01623255  0.015282546         3910 
 4282000     0.556247   -7.6547334    836.38215  0.016277093  0.015277158         3906 
 4283000    0.5724637   -7.6769969    836.32577  0.016272196  0.015271779         3898 
 4284000    0.5713697   -7.6507181    833.95842  0.016222347    0.0152664         3898 
 4285000   0.56650594   -7.6667556     835.7773  0.016253934  0.015261026         3909 
 4286000   0.57011633   -7.6492592    835.04869  0.016235976  0.015255656         3907 
 4287000   0.57389025   -7.6587574    835.63033  0.016243495  0.015250287         3903 
 4288000   0.56901682   -7.6426484    835.72467   0.01624154  0.015244912         3891 
 4289000    0.5654681   -7.6716223    836.69232  0.016256554  0.015239545         3898 
 4290000   0.55260119   -7.6493601    835.14503  0.016222709   0.01523418         3899 
 4291000   0.56275934    -7.672496    835.16782   0.01621937  0.015228819         3908 
 4292000   0.56141475   -7.6776711     834.2476  0.016197725  0.015223456         3896 
 4293000   0.55852685   -7.6429097    835.74442  0.016223007  0.015218093         3892 
 4294000   0.56025548   -7.6515798    834.91435   0.01620312  0.015212738         3907 
 4295000   0.56513858   -7.6327511    835.33771  0.016207561  0.015207382         3900 
 4296000   0.55950495   -7.6610932    834.28991  0.016183463  0.015202028         3910 
 4297000   0.56774693   -7.6621099    835.73117  0.016207648  0.015196677         3904 
 4298000     0.565585   -7.6469524    836.02845  0.016209641  0.015191332         3906 
 4299000   0.55807294   -7.6572242    836.51604  0.016215322  0.015185985         3900 
 4300000   0.56208309   -7.6672657    833.80671  0.016159045   0.01518064         3910 
 4301000   0.56987668   -7.6606335     834.7066  0.016172723    0.0151753         3898 
 4302000    0.5638329   -7.6710107    835.29633  0.016180388  0.015169967         3896 
 4303000   0.57278658   -7.6576264     835.4383  0.016179377  0.015164633         3910 
 4304000   0.56455077   -7.6600526    835.27216  0.016172401    0.0151593         3901 
 4305000   0.55903319   -7.6514599    835.15611  0.016166398   0.01515397         3908 
 4306000   0.54774577   -7.6455453    835.19656  0.016163426  0.015148639         3908 
 4307000    0.5641596   -7.6656331    835.31747  0.016162013  0.015143315         3900 
 4308000    0.5634587   -7.6561477    835.37414  0.016159357   0.01513799         3893 
 4309000   0.55902141   -7.6446092     835.8486  0.016164783  0.015132672         3908 
 4310000   0.57480985   -7.6666245    833.71682  0.016119815  0.015127355         3903 
 4311000   0.57470068   -7.6546657    835.21755  0.016145085  0.015122039         3897 
 4312000   0.56518783   -7.6328867    834.37168  0.016124994  0.015116724         3908 
 4313000   0.56912809   -7.6637793    836.10503  0.016154746  0.015111414         3908 
 4314000   0.56053709   -7.6558725    834.90653   0.01612785    0.0151061         3899 
 4315000   0.56655177   -7.6578424     835.3394  0.016132472  0.015100795         3915 
 4316000   0.55323013   -7.6466074    834.41622  0.016110909  0.015095488         3924 
 4317000    0.5528533   -7.6473335    834.75679  0.016113752  0.015090186         3903 
 4318000   0.55905239   -7.6518903    835.21039  0.016118774  0.015084884         3908 
 4319000   0.55892441   -7.6458714    835.93889  0.016129098  0.015079586         3900 
 4320000    0.5742075   -7.6494319    835.26898  0.016112442  0.015074291         3914 
 4321000   0.55991744    -7.635471    834.46127  0.016093136  0.015068997         3911 
 4322000   0.56390709    -7.646959    833.82285  0.016077103  0.015063707         3906 
 4323000   0.55422615   -7.6591067    834.67816  0.016089871  0.015058417         3910 
 4324000   0.55381194   -7.6524381    835.19339   0.01609608  0.015053131         3900 
 4325000   0.56052559   -7.6651894    834.72164  0.016083269  0.015047844         3912 
 4326000   0.56166254   -7.6715435    835.14683  0.016087741   0.01504256         3906 
 4327000   0.57245695   -7.6601419    834.91515  0.016079561  0.015037279         3923 
 4328000    0.5734681   -7.6455065    834.30401  0.016064079  0.015032002         3918 
 4329000   0.55253687    -7.658506     835.0951  0.016075597  0.015026727         3911 
 4330000   0.54932355   -7.6614742    835.35039  0.016076797  0.015021449         3920 
 4331000   0.56609783   -7.6712935     834.1352  0.016049704  0.015016175         3898 
 4332000   0.55693838   -7.6654711    835.37792  0.016069905  0.015010904         3925 
 4333000   0.55886672   -7.6568061     835.2836  0.016064382  0.015005635         3898 
 4334000   0.54848915   -7.6599242    834.36142  0.016042944   0.01500037         3918 
 4335000   0.56087854   -7.6625803    834.81721  0.016048005  0.014995108         3909 
 4336000   0.55190762   -7.6546714    835.79376  0.016063072   0.01498984         3916 
 4337000   0.55839027   -7.6359192     835.0467  0.016045014  0.014984581         3909 
 4338000   0.56073517   -7.6703025    835.04468  0.016041276  0.014979325         3917 
 4339000   0.57898701   -7.6638582    835.33462  0.016043148  0.014974073         3913 
 4340000   0.54166868   -7.6530195    834.31562  0.016019885  0.014968817         3916 
 4341000   0.54702249   -7.6761373    835.57113  0.016040297  0.014963568         3898 
 4342000   0.55858377   -7.6597324    833.85862  0.016003735  0.014958316         3910 
 4343000    0.5605645   -7.6548694    834.71308  0.016016446  0.014953067         3910 
 4344000   0.54832086   -7.6574414    833.57015  0.015990833   0.01494782         3907 
 4345000   0.56336941   -7.6640086    834.63054   0.01600749  0.014942577         3916 
 4346000   0.56392575   -7.6716627     834.1329  0.015994265  0.014937335         3902 
 4347000   0.55745063   -7.6671441    834.42882  0.015996258  0.014932095         3899 
 4348000    0.5692311   -7.6456053    834.92107  0.016002014   0.01492686         3904 
 4349000     0.550012   -7.6690564    834.23974  0.015985279  0.014921626         3907 
 4350000    0.5624595   -7.6604149    834.59439  0.015988398  0.014916392         3911 
 4351000   0.56811795   -7.6735481    834.51918  0.015983283  0.014911159         3919 
 4352000   0.55498094   -7.6747287    834.94968  0.015987854  0.014905935         3910 
 4353000   0.55339653   -7.6583758    834.47043  0.015975006  0.014900714         3927 
 4354000   0.57017042   -7.6534781    834.41483  0.015970273  0.014895493         3916 
 4355000   0.56027298   -7.6659698    834.75312  0.015973079  0.014890274         3904 
 4356000   0.55799054   -7.6875411    834.53331  0.015965207  0.014885056         3916 
 4357000   0.54943238   -7.6804328    835.50884  0.015980201  0.014879839         3922 
 4358000   0.54971537   -7.6794969    833.75943  0.015943082  0.014874625         3908 
 4359000   0.56297811    -7.666772    834.52956  0.015954148  0.014869411         3914 
 4360000   0.54666837   -7.6597244    833.84835  0.015937468  0.014864199         3909 
 4361000    0.5453302   -7.6521844    833.82862  0.015933437  0.014858993         3917 
 4362000   0.55499912   -7.6788203    834.01692  0.015933382  0.014853787         3920 
 4363000   0.57327286   -7.6698747    833.83613  0.015926276  0.014848584         3940 
 4364000   0.55897909   -7.6887454    835.18099  0.015948308  0.014843384         3922 
 4365000   0.55731201   -7.6870508    835.30931  0.015947104  0.014838186         3922 
 4366000   0.53993476   -7.6654878    834.25743  0.015923374  0.014832987         3918 
 4367000   0.56315535   -7.6830616    833.30606  0.015901574  0.014827792         3921 
 4368000   0.56109642   -7.6675853    833.36237  0.015899007  0.014822599         3917 
 4369000   0.55426584    -7.680231    834.00038  0.015907538  0.014817409         3922 
 4370000   0.53880451   -7.6716354    834.33358  0.015910251   0.01481222         3911 
 4371000   0.56074876   -7.6699258    834.35473  0.015907015  0.014807029         3911 
 4372000   0.55365692   -7.6916888    833.28186  0.015882927  0.014801844         3922 
 4373000   0.54440217   -7.6668107    833.95045  0.015892035  0.014796664         3919 
 4374000   0.54625274   -7.6955469    833.74573  0.015884502  0.014791483         3905 
 4375000   0.54679717   -7.6828095    834.32505  0.015891906  0.014786307         3908 
 4376000   0.54959019   -7.6708989    835.42748  0.015909268  0.014781137         3918 
 4377000   0.55285893   -7.6613749    835.41175  0.015905334  0.014775963         3903 
 4378000   0.55034026   -7.6775261    834.65591  0.015887314  0.014770791         3907 
 4379000   0.55977225    -7.689109    834.64111  0.015883404  0.014765623         3922 
 4380000   0.55549654   -7.6771503    835.14554  0.015889375   0.01476046         3924 
 4381000   0.54818627    -7.669276    833.37584  0.015852085  0.014755294         3929 
 4382000   0.55135156   -7.6797779     833.8903  0.015858252   0.01475013         3937 
 4383000   0.54796198    -7.664511    835.41816  0.015883682  0.014744967         3923 
 4384000   0.55413251   -7.6724626    835.60958  0.015883698  0.014739813         3913 
 4385000   0.54893685   -7.6850106    833.74202  0.015844584  0.014734658         3927 
 4386000   0.54718665   -7.6770671    835.07594  0.015866316  0.014729502         3928 
 4387000   0.54882723    -7.673385    834.44296  0.015850675  0.014724348         3926 
 4388000   0.54768405   -7.6783271     833.9016  0.015836782  0.014719195         3931 
 4389000   0.55008285   -7.6833382    833.28087  0.015821388  0.014714048         3926 
 4390000   0.53826554   -7.6647057    834.47985  0.015840544  0.014708903         3928 
 4391000   0.53629187   -7.6780627    834.92013  0.015845292   0.01470376         3925 
 4392000   0.54188236   -7.6815387    834.05797  0.015825326  0.014698618         3923 
 4393000    0.5466131   -7.6782819    832.58685  0.015793817  0.014693482         3930 
 4394000   0.55545373   -7.6937531    833.67354  0.015810832  0.014688343         3925 
 4395000   0.55425522   -7.7005454    833.84487  0.015810483  0.014683212         3909 
 4396000   0.54571248   -7.6762909    834.89728  0.015826836  0.014678078         3925 
 4397000   0.55750917   -7.6853942    834.05829  0.015807336  0.014672948         3931 
 4398000   0.55321652   -7.6679608    833.62969  0.015795621  0.014667817         3930 
 4399000   0.54218783   -7.6844497     834.4881  0.015808292  0.014662693         3937 
 4400000   0.55367157   -7.6868242    834.10684  0.015797478  0.014657568         3926 
 4401000   0.54405423    -7.678592     833.4665  0.015781764  0.014652445         3914 
 4402000   0.55230919   -7.6766792    833.90218  0.015786426  0.014647327         3923 
 4403000   0.53501313   -7.6878505    833.82955  0.015781466  0.014642209         3930 
 4404000   0.53904985    -7.694123     833.6346  0.015774194  0.014637092         3937 
 4405000   0.53396945   -7.6758712    833.86398  0.015774952  0.014631977         3919 
 4406000   0.55562669   -7.6944681    833.87062  0.015771498  0.014626866         3928 
 4407000   0.54366564   -7.6780178    833.74855  0.015765611  0.014621755         3919 
 4408000   0.55474556   -7.6872691    832.93772  0.015746705  0.014616648         3931 
 4409000   0.55518647   -7.6790293    833.25919   0.01574921  0.014611539         3932 
 4410000   0.55627938   -7.7081218    834.27386  0.015764812  0.014606435         3932 
 4411000   0.54655656   -7.6870374    834.97812  0.015774543  0.014601333         3913 
 4412000   0.55429801   -7.6684947    834.09499  0.015754287  0.014596234         3912 
 4413000   0.53867901   -7.6817703     833.6782  0.015742847  0.014591145         3913 
 4414000   0.54312036    -7.683923    833.15107  0.015729329  0.014586052         3920 
 4415000   0.55055395   -7.6714176    833.63339   0.01573487  0.014580961         3911 
 4416000   0.56209399   -7.6744456    833.96174  0.015737503  0.014575876         3916 
 4417000   0.54808431   -7.6941794    834.66977  0.015747298  0.014570788         3928 
 4418000   0.54557915   -7.6864134    834.02953  0.015731657  0.014565704         3925 
 4419000   0.53500372   -7.6768165    833.96421  0.015726865  0.014560624         3935 
 4420000   0.53522458   -7.6762751    835.08405   0.01574442  0.014555545         3927 
 4421000   0.55829831   -7.6897792    832.91501  0.015699974  0.014550466         3915 
 4422000   0.54891003    -7.685788    832.85537  0.015695299  0.014545394         3932 
 4423000   0.55721199   -7.6986429    834.83232  0.015728998  0.014540322         3925 
 4424000   0.54667981   -7.6791991    832.15081  0.015674932  0.014535254         3923 
 4425000   0.54968531     -7.67724    834.76829  0.015720683  0.014530187         3918 
 4426000    0.5595369   -7.6988589    833.60984   0.01569532  0.014525121         3912 
 4427000   0.53430861    -7.676386     833.1106  0.015682377  0.014520058         3932 
 4428000   0.55285827   -7.6823906    833.20381   0.01568059  0.014514996         3916 
 4429000   0.53973914   -7.6875644    834.23589  0.015696468   0.01450994         3922 
 4430000   0.54390319   -7.6851226    833.86374  0.015685924   0.01450488         3916 
 4431000   0.53006003   -7.6726056    834.19606  0.015688634  0.014499822         3929 
 4432000   0.55377017   -7.6868005    834.27819  0.015686639  0.014494769         3918 
 4433000   0.54757335   -7.6743972    833.86506  0.015675334  0.014489718         3916 
 4434000   0.52989069   -7.6920943    834.61337  0.015685863  0.014484671         3938 
 4435000   0.53986721   -7.6899534    833.13158  0.015654483  0.014479624         3921 
 4436000   0.53506785   -7.6802693    833.92076  0.015665779  0.014474575         3924 
 4437000   0.54190851   -7.7026303    833.91991  0.015662232  0.014469528         3929 
 4438000   0.53263921   -7.6627191     833.4118  0.015649163  0.014464488         3924 
 4439000   0.54018263   -7.7004443    833.12738  0.015640298  0.014459448         3934 
 4440000   0.52352222   -7.6760677    833.11777  0.015636595   0.01445441         3922 
 4441000   0.54686019   -7.6850802    833.31903   0.01563685  0.014449372         3911 
 4442000   0.53929601   -7.6962659    833.51453  0.015636998   0.01444434         3918 
 4443000   0.52381348   -7.6840078    833.03308  0.015624448  0.014439307         3923 
 4444000   0.54585546   -7.7086051    834.35047  0.015645636  0.014434279         3923 
 4445000    0.5377282   -7.6878203    834.04272  0.015636346   0.01442925         3918 
 4446000   0.54520023   -7.6737304    832.60235  0.015605832  0.014424226         3915 
 4447000   0.53806427   -7.6889683      835.287  0.015652631  0.014419205         3922 
 4448000   0.52559807   -7.7152757    834.21972  0.015629117  0.014414187         3911 
 4449000   0.54300457   -7.6955816       834.89  0.015638158  0.014409167         3938 
 4450000   0.54424895   -7.6860611    834.09461  0.015619749  0.014404152         3916 
 4451000   0.52696522   -7.6844519    832.80712  0.015592135  0.014399138         3917 
 4452000   0.53657776   -7.6848436    833.51024  0.015601794  0.014394126         3930 
 4453000   0.53385994   -7.6988177    833.96638  0.015606826  0.014389113         3925 
 4454000   0.53638041   -7.6906276    833.19437  0.015588878  0.014384107         3930 
 4455000   0.52350207   -7.7037634    833.31377  0.015587613  0.014379098         3914 
 4456000   0.53692933   -7.6972846    831.91529  0.015557961  0.014374092         3920 
 4457000   0.54953609   -7.6941287    832.76588  0.015570374  0.014369088         3932 
 4458000   0.53136786   -7.6858426    835.45062  0.015617067  0.014364088         3921 
 4459000   0.54188656   -7.6896233    833.75138  0.015581808  0.014359088         3922 
 4460000   0.54044886   -7.6963539    832.96021  0.015563532  0.014354093         3927 
 4461000   0.54477226   -7.6950679    834.12378  0.015581779  0.014349104         3925 
 4462000   0.53781039   -7.7026761    834.81127  0.015591126  0.014344112         3919 
 4463000   0.53247731   -7.6982255    834.20977  0.015576402  0.014339123         3920 
 4464000   0.53015293   -7.6753848    833.17953   0.01555368  0.014334138         3926 
 4465000   0.52690665    -7.686281    833.37312   0.01555381  0.014329151         3916 
 4466000   0.54342635   -7.7106593    833.70615  0.015556541  0.014324174         3913 
 4467000   0.53359221   -7.6710377    833.00858  0.015540045  0.014319195         3914 
 4468000      0.54021    -7.695728    833.26946  0.015541433  0.014314214         3907 
 4469000   0.53278819    -7.695918    832.88843   0.01553085  0.014309239         3905 
 4470000   0.54315489   -7.7151849    832.89087  0.015527421  0.014304264         3912 
 4471000   0.53279576    -7.706113     834.1679   0.01554775  0.014299292         3907 
 4472000   0.52626114    -7.690664    832.52303  0.015513622  0.014294324         3920 
 4473000   0.53874226   -7.7027498    835.04929  0.015557219  0.014289358         3909 
 4474000   0.52489478   -7.7056349    832.86332  0.015513026  0.014284391         3919 
 4475000   0.52539114   -7.6982922    832.15392  0.015496349  0.014279428         3920 
 4476000   0.53120465    -7.718436    833.03864  0.015509358  0.014274463         3913 
 4477000   0.53467325   -7.7115904    833.77905  0.015519676  0.014269504         3910 
 4478000   0.52588162   -7.7070253     833.6104  0.015513071  0.014264547         3901 
 4479000    0.5281162   -7.7192565    833.41225  0.015505921   0.01425959         3921 
 4480000   0.53355763   -7.7164487    832.69201  0.015489063  0.014254634         3921 
 4481000   0.53581649    -7.700438     833.1469  0.015494066  0.014249684         3910 
 4482000   0.52767375   -7.7091262    832.53023  0.015479143  0.014244734         3915 
 4483000   0.53728242   -7.6992244    832.74093  0.015479607  0.014239786         3904 
 4484000   0.52552834   -7.7088294    832.64161  0.015474309  0.014234841         3909 
 4485000   0.53991452   -7.6918411    832.87426  0.015475181    0.0142299         3912 
 4486000   0.54656038   -7.6905129      831.496  0.015446129  0.014224961         3908 
 4487000   0.52076886   -7.6996884    833.27725  0.015475768  0.014220024         3913 
 4488000   0.53058988   -7.7073114    833.21485  0.015471161   0.01421509         3913 
 4489000   0.52635169   -7.6942362    832.21789  0.015449207  0.014210159         3900 
 4490000    0.5348779   -7.7145564    833.57479   0.01547095  0.014205232         3914 
 4491000   0.52947103   -7.6985571    833.16202  0.015459846  0.014200306         3912 
 4492000   0.53196416   -7.7044572     834.1627  0.015474969  0.014195379         3890 
 4493000    0.5369829   -7.6979149    833.35504  0.015456544  0.014190453         3922 
 4494000   0.54551749   -7.7153248    832.65093  0.015440048   0.01418553         3906 
 4495000   0.53022192   -7.7156384    833.05978  0.015444193   0.01418061         3919 
 4496000   0.53823986   -7.6952964    834.53841  0.015468164  0.014175693         3905 
 4497000   0.52275109   -7.6969959    833.93349  0.015453515  0.014170778         3912 
 4498000   0.53740914   -7.7056546    833.68545  0.015445484  0.014165864         3913 
 4499000    0.5257288    -7.698141    832.96059  0.015428625  0.014160952         3907 
 4500000   0.52334395   -7.7175464    833.40368  0.015433402  0.014156042         3914 
 4501000   0.52287253   -7.6954017    834.62351  0.015452557  0.014151132         3923 
 4502000   0.52789453   -7.7056744    832.59233  0.015411527  0.014146224         3909 
 4503000   0.53238838   -7.7097531    831.37238  0.015385528  0.014141322         3912 
 4504000   0.53149677   -7.6868838    833.01383  0.015412482  0.014136418         3902 
 4505000   0.53794947   -7.6899866    831.37718  0.015378786  0.014131521         3907 
 4506000   0.52883918    -7.705283    832.16802  0.015389999  0.014126618         3914 
 4507000   0.51654495   -7.7143268    833.72403  0.015415355  0.014121724         3901 
 4508000   0.52191169   -7.7003482    832.18764  0.015383534  0.014116826         3918 
 4509000   0.54132381   -7.7046054    832.78619  0.015391184  0.014111934         3918 
 4510000   0.52950155   -7.7018255    833.49957  0.015400953  0.014107048         3910 
 4511000    0.5345489   -7.7129813    832.38384  0.015376928  0.014102158         3910 
 4512000    0.5295355   -7.7133544    833.37377  0.015391803  0.014097274         3903 
 4513000   0.52768412    -7.690508    833.47168    0.0153902  0.014092391         3901 
 4514000   0.52202341    -7.706678    833.66697  0.015390396  0.014087511         3915 
 4515000    0.5273137   -7.7192459    832.71561  0.015369428  0.014082635         3913 
 4516000   0.53542771    -7.708538    832.17749  0.015356095   0.01407776         3914 
 4517000    0.5255707   -7.7164966      833.352  0.015374363  0.014072885         3917 
 4518000     0.533078   -7.7073709    832.12342    0.0153483  0.014068014         3907 
 4519000   0.54009615   -7.7099172    833.14496  0.015363741  0.014063144         3909 
 4520000   0.52202436   -7.7158688    831.94288   0.01533818  0.014058274         3911 
 4521000   0.52219959   -7.7103185    833.41806  0.015361979  0.014053409         3906 
 4522000   0.52549249   -7.7258117    833.71301  0.015364017  0.014048547         3915 
 4523000   0.52333623   -7.7102232    831.94804  0.015328102  0.014043684         3907 
 4524000   0.52628524   -7.7118335    832.36681  0.015332427  0.014038827         3921 
 4525000   0.53221783   -7.7101928    833.40145  0.015348093  0.014033971         3910 
 4526000   0.53413076   -7.7205395    833.39367  0.015344559  0.014029118         3911 
 4527000   0.52987967   -7.7012433    831.64354  0.015308953  0.014024263         3910 
 4528000   0.51246511   -7.7153204    833.54784  0.015340618  0.014019409         3914 
 4529000   0.53174114   -7.7054405    833.17676  0.015330403  0.014014558         3928 
 4530000   0.52715645   -7.7075912    830.54968  0.015278692  0.014009709         3914 
 4531000   0.52897207   -7.6913034     833.4274  0.015328246  0.014004862         3902 
 4532000   0.53295507   -7.7182073     832.7507  0.015312421   0.01400002         3906 
 4533000   0.53624637   -7.6947701    832.94621  0.015312637  0.013995176         3919 
 4534000   0.52838643   -7.7238404    833.54473   0.01532026  0.013990339         3910 
 4535000   0.52081271   -7.7061144    832.11284   0.01529057  0.013985501         3918 
 4536000   0.52709442   -7.7159093    833.20644  0.015307291  0.013980669         3912 
 4537000   0.51855435   -7.7281221    833.07491  0.015301501  0.013975832         3922 
 4538000   0.53489777   -7.7168777    832.50792  0.015287717  0.013971004         3916 
 4539000   0.53700515   -7.6988536    831.19821  0.015260303  0.013966175         3926 
 4540000   0.52710911    -7.715209    833.39759  0.015297313  0.013961346         3909 
 4541000   0.52183608   -7.7150818    831.88047  0.015266103  0.013956519         3909 
 4542000   0.52810279   -7.7060239    832.98229  0.015282957  0.013951694         3918 
 4543000     0.520866   -7.7191184    833.90944    0.0152966  0.013946872         3921 
 4544000   0.52764629   -7.7076468    832.52572  0.015267857  0.013942054         3918 
 4545000   0.52429147   -7.7293153     832.4023  0.015262235  0.013937236         3915 
 4546000   0.53609757    -7.717727     833.7116  0.015282879  0.013932422         3920 
 4547000   0.51844592   -7.7178396     832.4973  0.015257263  0.013927609         3918 
 4548000   0.52662283   -7.7089346    831.67103  0.015238769  0.013922801         3917 
 4549000   0.53058161   -7.7298466    833.60464  0.015270841   0.01391799         3913 
 4550000   0.51005834   -7.7171016    830.66573  0.015213658  0.013913184         3904 
 4551000   0.53116404   -7.7296196    833.57593  0.015263604  0.013908383         3922 
 4552000   0.51799069   -7.7235021    831.97373  0.015230919  0.013903584         3918 
 4553000   0.52206836   -7.7178617    832.26453  0.015232896  0.013898783         3901 
 4554000   0.52966698   -7.7177305    832.55478  0.015234863  0.013893988         3910 
 4555000   0.52758727   -7.7232098    832.39942  0.015228676  0.013889191         3914 
 4556000   0.51655018   -7.7169379    833.02433  0.015236763  0.013884398         3910 
 4557000   0.52978641   -7.7042402    831.39878  0.015203693  0.013879607         3908 
 4558000   0.51805218   -7.6965838    831.66073  0.015205147  0.013874817         3918 
 4559000   0.52896359   -7.7251688    832.31857  0.015213837   0.01387003         3916 
 4560000    0.5279393   -7.7243687    832.70839  0.015217624  0.013865243         3917 
 4561000   0.52192684   -7.7226049    833.75171   0.01523335  0.013860461         3913 
 4562000   0.51411186   -7.7189479    832.89396  0.015214342  0.013855683         3919 
 4563000   0.53065954   -7.7264259    833.18416  0.015216308  0.013850903         3928 
 4564000   0.52947468   -7.7216446    833.25648  0.015214295  0.013846127         3906 
 4565000   0.51757276   -7.7128868    832.48431  0.015196866  0.013841353         3918 
 4566000   0.51759548    -7.715714    832.65574  0.015196666   0.01383658         3907 
 4567000   0.53127305   -7.7193438    831.87761   0.01517914  0.013831813         3914 
 4568000   0.51867314    -7.728145    833.52732  0.015205913  0.013827044         3912 
 4569000    0.5215403    -7.733944    833.69076  0.015205566  0.013822279         3910 
 4570000   0.51838873   -7.7172356    833.07831   0.01519107  0.013817515         3909 
 4571000   0.52095957   -7.7296819    831.83945  0.015165162  0.013812749         3917 
 4572000   0.51825049   -7.7172844    832.68124  0.015177188  0.013807988         3905 
 4573000   0.51549908   -7.7322157    833.29441  0.015185043  0.013803229         3916 
 4574000   0.51449542   -7.7297024    832.28593  0.015163349  0.013798472         3904 
 4575000   0.51426551   -7.7282621    832.58221  0.015165432   0.01379372         3915 
 4576000   0.51356348   -7.7201604    831.82526  0.015148333  0.013788965         3914 
 4577000   0.52459153   -7.7190168    833.46728   0.01517492  0.013784215         3914 
 4578000   0.51389849   -7.7004869    832.23968  0.015149259  0.013779465         3915 
 4579000   0.52217648   -7.7225294    832.72173  0.015154723   0.01377472         3908 
 4580000   0.51284409   -7.7057707    831.81889  0.015134987  0.013769978         3900 
 4581000   0.52064851   -7.7103363    831.89756  0.015133114  0.013765234         3915 
 4582000   0.51678685   -7.7127245    831.93399  0.015130474  0.013760491         3917 
 4583000   0.52740918   -7.7146738    831.87379  0.015126078  0.013755754         3903 
 4584000   0.51759462   -7.7303944    831.77023  0.015120896  0.013751018         3920 
 4585000   0.51852427    -7.720697    833.31087  0.015145599  0.013746285         3909 
 4586000   0.52309086   -7.7364055    833.61892  0.015147894  0.013741553         3901 
 4587000   0.51330348   -7.7177052    832.74203  0.015128661  0.013736823         3908 
 4588000   0.52047521   -7.7330093    831.51621  0.015103099  0.013732095         3910 
 4589000   0.51006384   -7.7262393    832.31466  0.015114307  0.013727367         3907 
 4590000   0.52558063   -7.7342151    831.95007  0.015104395  0.013722645         3900 
 4591000   0.52174257   -7.7120558    833.29328  0.015125486  0.013717919         3899 
 4592000   0.51706312   -7.7207394    832.06189  0.015099846    0.0137132         3898 
 4593000   0.52133175   -7.7313443    830.76759  0.015073075  0.013708484         3900 
 4594000   0.53608726    -7.703993    831.31651  0.015079751  0.013703768         3899 
 4595000   0.52081344    -7.731647    831.92758  0.015087551  0.013699051         3913 
 4596000   0.52006062   -7.7201847    831.15571  0.015070273  0.013694339         3898 
 4597000   0.52381213   -7.7315282     831.7564  0.015077884   0.01368963         3914 
 4598000   0.50356399   -7.7317655    832.36962  0.015085719  0.013684921         3916 
 4599000   0.51117626   -7.7251971    833.21562  0.015097768  0.013680214         3896 
 4600000   0.51230642   -7.7330919    831.53314  0.015064006   0.01367551         3901 
 4601000   0.50882287   -7.7231922    831.65897  0.015063011  0.013670809         3897 
 4602000   0.51746253   -7.7317491    832.05752  0.015066955  0.013666106         3906 
 4603000   0.50849799   -7.7269879     832.2418  0.015067018  0.013661411         3907 
 4604000   0.50995211   -7.7223938    832.16803   0.01506241  0.013656714         3908 
 4605000   0.50417056   -7.7298398    833.21048  0.015078004   0.01365202         3903 
 4606000   0.51371978   -7.7275158    832.98502  0.015070651  0.013647328         3891 
 4607000   0.51138664   -7.7260209    831.86219   0.01504707  0.013642636         3907 
 4608000   0.52548455   -7.7102995    831.06448  0.015029378  0.013637947         3914 
 4609000   0.51597703   -7.7269985    833.11717  0.015063231  0.013633262         3911 
 4610000   0.50863422   -7.7234001     833.4287  0.015065595   0.01362858         3916 
 4611000    0.5249734    -7.729775    832.04806  0.015037376  0.013623896         3908 
 4612000    0.5166729   -7.7193461    831.71679  0.015028129  0.013619217         3913 
 4613000   0.52446402   -7.7195708    832.30221  0.015035447  0.013614542         3901 
 4614000   0.51867637   -7.7445741     831.9561  0.015025937  0.013609865         3911 
 4615000   0.51432753   -7.7064365    831.13943  0.015007935  0.013605191         3916 
 4616000   0.51039462   -7.7111046    830.99236  0.015002028  0.013600521         3906 
 4617000   0.51141122   -7.7289671    832.46064   0.01502528  0.013595851         3913 
 4618000   0.51070711   -7.7439179    831.74617  0.015009134  0.013591187         3903 
 4619000   0.51813215   -7.7292091     831.3827  0.014999327   0.01358652         3917 
 4620000   0.50983933   -7.7233856    832.20086  0.015010838  0.013581855         3907 
 4621000    0.5065279   -7.7381134     830.4424  0.014975878  0.013577193         3918 
 4622000   0.51134497   -7.7309743    832.01596  0.015001009  0.013572532         3898 
 4623000   0.51293909   -7.7195273    832.84047  0.015012627  0.013567875         3914 
 4624000   0.50733451   -7.7399497    831.23862  0.014980511  0.013563217         3921 
 4625000   0.50674168   -7.7308175    832.27313  0.014995912  0.013558565         3905 
 4626000   0.50836479    -7.752821    832.73647  0.015001017  0.013553913         3899 
 4627000   0.52235742   -7.7416276    832.35316  0.014990872  0.013549262         3919 
 4628000   0.51687269   -7.7315325    830.37873   0.01495208  0.013544615         3916 
 4629000   0.52093966   -7.7335537    832.04052  0.014978767  0.013539969         3920 
 4630000   0.50287649   -7.7201389    829.97947  0.014938435  0.013535326         3899 
 4631000   0.50575164   -7.7278554    832.31333  0.014977207  0.013530683         3908 
 4632000   0.52886529   -7.7392393    830.88285  0.014948238  0.013526045         3917 
 4633000   0.50691239   -7.7314549    830.66736  0.014941135  0.013521409         3918 
 4634000   0.51989056   -7.7407462    832.00458  0.014961958  0.013516774         3900 
 4635000   0.49961913   -7.7240575    830.71674  0.014935576  0.013512142         3907 
 4636000   0.50052998   -7.7441946    832.53129  0.014964971  0.013507511         3898 
 4637000    0.5142509   -7.7289475    831.69225  0.014946665  0.013502882         3921 
 4638000    0.5176004   -7.7201233    832.68324  0.014961248  0.013498258         3910 
 4639000   0.51434125   -7.7427467    832.09629  0.014947479  0.013493635         3911 
 4640000   0.49472106   -7.7328848    831.24501  0.014928969  0.013489011         3924 
 4641000   0.50722282   -7.7144343    830.32687  0.014909267  0.013484388         3909 
 4642000   0.49849616   -7.7301829    831.66318  0.014930044   0.01347977         3917 
 4643000   0.50572813   -7.7216305    833.12335  0.014953036  0.013475153         3910 
 4644000   0.51179568   -7.7368946    830.66253  0.014905658  0.013470538         3905 
 4645000   0.50403211   -7.7449034    830.54069  0.014900263  0.013465923         3907 
 4646000   0.50162637   -7.7411041    831.81575  0.014919927   0.01346131         3918 
 4647000   0.50836833   -7.7289444    831.95267  0.014919171    0.0134567         3916 
 4648000   0.51105777   -7.7310359    831.54874   0.01490872  0.013452095         3905 
 4649000   0.50493839   -7.7231925    831.23581  0.014899903   0.01344749         3912 
 4650000    0.5064027    -7.736413    832.25914  0.014915038  0.013442884         3921 
 4651000   0.51328856   -7.7440264    831.49815  0.014898197  0.013438283         3913 
 4652000   0.51079611   -7.7432934    831.83197  0.014900974  0.013433685         3910 
 4653000   0.49644446   -7.7450195    832.79617   0.01491504  0.013429086         3918 
 4654000   0.50294748    -7.728479    831.45056  0.014887741  0.013424492         3917 
 4655000   0.50374423   -7.7473888    831.19596  0.014879985  0.013419898         3909 
 4656000   0.51410564   -7.7418216    830.96819  0.014872713  0.013415306         3895 
 4657000   0.51465282   -7.7369112    832.57939   0.01489835  0.013410716         3909 
 4658000   0.50730411   -7.7389528    831.48922  0.014875648  0.013406128         3907 
 4659000   0.51008067   -7.7376646    831.68491  0.014875955  0.013401539         3900 
 4660000   0.51205614   -7.7483682    831.51861  0.014869789  0.013396957         3925 
 4661000   0.51294756   -7.7170385    830.68382  0.014851674  0.013392374         3916 
 4662000   0.49886622   -7.7331864    830.59048   0.01484682  0.013387793         3931 
 4663000   0.50413304   -7.7319513    831.47991  0.014859531  0.013383215         3914 
 4664000    0.5029413   -7.7249854    831.32415  0.014853562  0.013378638         3919 
 4665000   0.50158063   -7.7338167    830.85182   0.01484194  0.013374067         3927 
 4666000   0.50563189   -7.7432532      830.757  0.014837066  0.013369497         3918 
 4667000   0.49287905   -7.7354275    831.83138  0.014853071  0.013364927         3910 
 4668000   0.50311221   -7.7395545    832.34504  0.014859059  0.013360359         3927 
 4669000   0.49495198   -7.7567497    831.25722  0.014836461  0.013355794         3910 
 4670000     0.505513   -7.7403941    832.65884  0.014858295  0.013351226         3923 
 4671000   0.51113208   -7.7401083    830.61509  0.014818652  0.013346663         3927 
 4672000   0.51438163   -7.7250552    830.27975  0.014809499  0.013342105         3909 
 4673000   0.49959203   -7.7534567    831.61297  0.014830105  0.013337546         3924 
 4674000   0.50349323   -7.7344236     830.8341  0.014813045  0.013332992         3917 
 4675000   0.50680869    -7.740814    831.22585   0.01481686  0.013328435         3916 
 4676000   0.49615111   -7.7421719    830.64303  0.014803305  0.013323882         3920 
 4677000   0.49686851   -7.7278043    830.29756  0.014793984   0.01331933         3920 
 4678000   0.50900807   -7.7445147    831.67846  0.014815421  0.013314778         3912 
 4679000   0.50801944   -7.7353101    830.21838   0.01478625   0.01331023         3929 
 4680000   0.49818492   -7.7547326    831.69662  0.014809413  0.013305687         3901 
 4681000   0.50201293   -7.7427057    831.39027  0.014800795  0.013301142         3927 
 4682000   0.50800509   -7.7472459    830.74534  0.014786155  0.013296602         3924 
 4683000   0.49874793   -7.7463172    832.17003   0.01480835   0.01329206         3910 
 4684000   0.49536281   -7.7334106    830.11208  0.014768575  0.013287522         3916 
 4685000   0.49965206   -7.7350596    831.30701  0.014786677   0.01328299         3920 
 4686000   0.50674635   -7.7466318    832.10999  0.014797802  0.013278459         3921 
 4687000   0.49155354   -7.7410378    831.47629  0.014783378   0.01327393         3924 
 4688000   0.51536446   -7.7449818    831.69941   0.01478419  0.013269397         3920 
 4689000   0.49162962   -7.7587103    831.88063  0.014784258  0.013264872         3918 
 4690000   0.50547334   -7.7329796    831.90519  0.014781542  0.013260348         3923 
 4691000   0.49675324   -7.7497828    831.91003  0.014778477  0.013255825         3925 
 4692000      0.49908   -7.7521101    831.71368   0.01477184  0.013251307         3922 
 4693000   0.49624116   -7.7428196    830.51526  0.014747412  0.013246788         3908 
 4694000   0.50063968   -7.7593937    831.04644  0.014753701  0.013242273         3913 
 4695000   0.49969031   -7.7493812    829.92136  0.014730589  0.013237759         3919 
 4696000   0.50347485    -7.750331     831.2526  0.014751075  0.013233241         3905 
 4697000    0.5028163    -7.722958    830.59914  0.014736341  0.013228732         3919 
 4698000   0.51240466   -7.7472757    830.82071  0.014737135  0.013224221         3924 
 4699000   0.50549456   -7.7573353    831.35598  0.014743491  0.013219713         3921 
 4700000   0.50373429   -7.7456296    832.01183  0.014751983  0.013215206         3910 
 4701000   0.48850273   -7.7671457    831.50467  0.014739854    0.0132107         3923 
 4702000   0.49490828   -7.7435038    831.01532  0.014728047  0.013206196         3922 
 4703000   0.50705546   -7.7564179    829.97078  0.014706407  0.013201695         3923 
 4704000   0.49389016   -7.7407826    830.92924   0.01472026  0.013197197         3911 
 4705000   0.50630771   -7.7434569    830.70171  0.014713101  0.013192699         3914 
 4706000   0.50703095   -7.7330966    830.61748  0.014708484  0.013188204         3912 
 4707000   0.50284528   -7.7405325    830.00079  0.014694441  0.013183715         3915 
 4708000   0.49469601   -7.7538015    831.33443  0.014714925  0.013179225         3915 
 4709000   0.50676231   -7.7548013    831.20957  0.014709591  0.013174734         3909 
 4710000   0.50695405   -7.7669801    832.16471  0.014723367  0.013170247         3922 
 4711000   0.49603182   -7.7549221    830.46361  0.014690151  0.013165763         3917 
 4712000   0.51022698   -7.7507879    830.97301  0.014696042  0.013161283         3918 
 4713000   0.49420362   -7.7499934    831.11577  0.014695448  0.013156803         3923 
 4714000   0.49120229   -7.7492462    830.63377   0.01468381  0.013152323         3924 
 4715000   0.50887556   -7.7524189     830.1623  0.014672363  0.013147845         3910 
 4716000   0.49219675    -7.760009    830.53825  0.014675895  0.013143372         3919 
 4717000   0.49566485   -7.7479605    830.92754  0.014679661  0.013138897         3917 
 4718000   0.49211787   -7.7489871    830.72301  0.014672937  0.013134425         3918 
 4719000   0.50258958    -7.740475    830.50914  0.014666051  0.013129955         3921 
 4720000   0.49922386   -7.7517951    831.34099   0.01467763  0.013125485         3921 
 4721000   0.49349248   -7.7468148    830.98105  0.014668168   0.01312102         3932 
 4722000   0.50600854    -7.752621     830.3907  0.014654643  0.013116555         3919 
 4723000   0.50098189   -7.7629546    831.15123  0.014664959  0.013112095         3911 
 4724000   0.49765317    -7.733792    830.24859  0.014645932  0.013107635         3922 
 4725000   0.49271059   -7.7555897    831.65828  0.014667695  0.013103177         3925 
 4726000   0.50406204   -7.7488581      831.776  0.014666667  0.013098721         3919 
 4727000   0.48974765   -7.7530256    830.68999  0.014644418  0.013094265         3927 
 4728000   0.48117741   -7.7523943    831.20053   0.01465032  0.013089813         3926 
 4729000   0.49156186   -7.7421484    830.23742   0.01463025  0.013085361         3927 
 4730000    0.4837907   -7.7485027    830.97829   0.01464021  0.013080914         3918 
 4731000   0.48742917   -7.7512823    830.68592  0.014631965  0.013076466         3925 
 4732000   0.48812597   -7.7494063    830.98174  0.014634082   0.01307202         3924 
 4733000   0.48586433   -7.7528477    829.12774  0.014598347  0.013067575         3938 
 4734000   0.49866374   -7.7621969    829.41008  0.014600234  0.013063132         3924 
 4735000   0.49387234   -7.7595109    831.09747  0.014626847  0.013058694         3930 
 4736000   0.51065792   -7.7419136     831.0003  0.014622049  0.013054257         3928 
 4737000   0.49769378   -7.7489944    830.53523  0.014610781  0.013049825         3930 
 4738000   0.49470406   -7.7551746    829.91373  0.014596766  0.013045391         3928 
 4739000   0.50300088    -7.752686    829.81718  0.014591988  0.013040958         3926 
 4740000   0.48951457   -7.7539541    829.91923  0.014590704  0.013036527         3931 
 4741000   0.49649422   -7.7580227    830.85712  0.014604112  0.013032098         3928 
 4742000   0.49053619   -7.7505861    831.01376  0.014603785  0.013027671         3932 
 4743000   0.49321303   -7.7698182    830.61177  0.014593643  0.013023245         3928 
 4744000   0.48787421   -7.7566192    830.81399  0.014594119  0.013018824         3934 
 4745000   0.48587615   -7.7608719    830.00333  0.014576806  0.013014404         3936 
 4746000   0.50015767   -7.7394371    830.32237  0.014579336  0.013009983         3920 
 4747000   0.46944699   -7.7489214    831.27563     0.014593  0.013005567         3932 
 4748000    0.4865554   -7.7688842    831.47891  0.014593494  0.013001153         3920 
 4749000   0.49713424   -7.7470541    829.91765  0.014563025  0.012996741         3924 
 4750000   0.48776792   -7.7384767    830.36873  0.014567872  0.012992329         3927 
 4751000   0.48949206     -7.75489    830.37358  0.014564891  0.012987915         3928 
 4752000   0.49401122   -7.7598756    831.53248  0.014582149  0.012983508         3917 
 4753000   0.48466788   -7.7614273    830.37099  0.014558717  0.012979101         3925 
 4754000   0.50712925   -7.7512669    830.35336  0.014555346    0.0129747         3918 
 4755000   0.49829668   -7.7666709    830.77508  0.014559675  0.012970297         3922 
 4756000   0.48625549   -7.7440212    832.31565  0.014583608  0.012965897         3916 
 4757000   0.49672809   -7.7599304    830.49872  0.014548713  0.012961499         3921 
 4758000   0.49216376   -7.7686328    830.65562  0.014548403  0.012957102         3922 
 4759000   0.50429775   -7.7729675    830.90445  0.014549703  0.012952711         3922 
 4760000   0.49892947    -7.755581    829.98404  0.014530533  0.012948317         3923 
 4761000   0.48302939   -7.7689094    831.43031  0.014552795  0.012943925         3920 
 4762000   0.48440755   -7.7455118     830.3386  0.014530635  0.012939539         3924 
 4763000   0.48514695   -7.7659469    830.25118  0.014526055  0.012935153         3922 
 4764000   0.49386309   -7.7568875    830.33007  0.014524385  0.012930767         3921 
 4765000   0.48902096   -7.7488385    829.07114   0.01449932  0.012926378         3924 
 4766000   0.48778707   -7.7586419    831.07376  0.014531294  0.012921997         3915 
 4767000    0.4950294   -7.7516484    830.49542  0.014518136  0.012917619         3920 
 4768000   0.48144744   -7.7572613    830.75392  0.014519609  0.012913242         3923 
 4769000   0.49114094   -7.7636626    830.30947  0.014508798  0.012908866         3914 
 4770000   0.49574718   -7.7585771    831.37958  0.014524451  0.012904493         3921 
 4771000   0.48294636   -7.7561399    830.84764  0.014512116  0.012900121         3926 
 4772000    0.4878868   -7.7859724    830.55135    0.0145039  0.012895753         3924 
 4773000    0.4967766   -7.7539554    828.95749  0.014473034  0.012891386         3925 
 4774000   0.49499603   -7.7659321    830.60854  0.014498822  0.012887022         3917 
 4775000   0.49241528   -7.7726439    830.82733  0.014499604  0.012882657         3931 
 4776000   0.48784094   -7.7567781    829.94753  0.014481217  0.012878292         3910 
 4777000   0.49258467    -7.777177    830.31853  0.014484658  0.012873932         3930 
 4778000   0.49599176   -7.7691271    830.72543  0.014488723  0.012869574         3931 
 4779000   0.48756766   -7.7593986    830.36878  0.014479472  0.012865215         3915 
 4780000   0.48426101   -7.7513944    830.38709  0.014476762  0.012860861         3921 
 4781000   0.49096573    -7.766001    830.44723  0.014474783  0.012856512         3917 
 4782000   0.49394242   -7.7608568    829.70447  0.014458812  0.012852159         3914 
 4783000   0.48966029   -7.7597932    830.45197  0.014468813   0.01284781         3925 
 4784000    0.4762879   -7.7759472    830.93896  0.014474271   0.01284346         3928 
 4785000   0.48766329   -7.7616309     829.4219  0.014444826  0.012839116         3933 
 4786000   0.48669911   -7.7773498    829.80587  0.014448493  0.012834774         3935 
 4787000   0.47985974   -7.7693879    830.64285  0.014460046   0.01283043         3928 
 4788000   0.49174478   -7.7775945    830.74397  0.014458785  0.012826092         3933 
 4789000     0.495079   -7.7724021    829.06133  0.014426487  0.012821756         3929 
 4790000   0.48440128   -7.7575278    829.52141  0.014431479  0.012817419         3930 
 4791000   0.49054421   -7.7655132     829.1383  0.014421803  0.012813086         3918 
 4792000   0.48508897   -7.7597568    830.17939  0.014436898  0.012808754         3918 
 4793000   0.48556602   -7.7630269    831.00242  0.014448196  0.012804424         3922 
 4794000   0.47087462   -7.7553166    830.54117  0.014437164  0.012800094         3917 
 4795000   0.49047346   -7.7816371    831.23985  0.014446296  0.012795769         3935 
 4796000   0.47779886   -7.7762515    830.50929   0.01443059  0.012791446         3933 
 4797000   0.49212018    -7.766141    829.39551  0.014408233  0.012787123         3929 
 4798000   0.46708142   -7.7710501    829.93446   0.01441459  0.012782802         3926 
 4799000   0.48229164   -7.7877576    830.45033  0.014420545  0.012778483         3918 
 4800000   0.47608619   -7.7699491    829.52216  0.014401426  0.012774165         3929 
 4801000   0.49513032   -7.7760445    831.48158  0.014432437  0.012769849         3929 
 4802000   0.49024931   -7.7749356    830.61708  0.014414429  0.012765538         3926 
 4803000   0.48161462   -7.7615695    829.18848  0.014386642  0.012761227         3931 
 4804000   0.48319527   -7.7683312    829.71864  0.014392843  0.012756917         3930 
 4805000   0.47576084   -7.7890338    831.27932  0.014416915  0.012752611         3929 
 4806000    0.4809034   -7.7814674    830.16301  0.014394559  0.012748305         3922 
 4807000   0.49025275   -7.7658302    830.95733  0.014405335  0.012744003         3926 
 4808000   0.48357457    -7.763917    830.25805  0.014390218  0.012739702         3939 
 4809000    0.4778214   -7.7620253     830.2563  0.014387196    0.0127354         3920 
 4810000   0.48317751   -7.7710017    829.68639  0.014374331  0.012731103         3923 
 4811000   0.47919839   -7.7794231    829.67677  0.014371177  0.012726807         3923 
 4812000   0.48586413   -7.7726017    830.65521  0.014385135  0.012722515         3917 
 4813000   0.48093855    -7.761558    829.47984  0.014361795  0.012718221         3924 
 4814000    0.4797334   -7.7661406    830.59485  0.014378113   0.01271393         3924 
 4815000   0.48205071   -7.7739287    829.99739  0.014364787  0.012709641         3922 
 4816000   0.47482167   -7.7610794    830.63199  0.014372785  0.012705355         3921 
 4817000   0.47925323   -7.7636119    829.00661  0.014341682  0.012701072         3930 
 4818000   0.48285411    -7.769333    831.06685   0.01437434  0.012696792         3918 
 4819000   0.48690924   -7.7935583     830.1586  0.014355651  0.012692511         3930 
 4820000    0.4917817    -7.778533    830.11397  0.014351901  0.012688233         3923 
 4821000   0.47122915   -7.7821749    829.91393  0.014345467  0.012683955         3920 
 4822000   0.48931453   -7.7886981    828.99533  0.014326616   0.01267968         3933 
 4823000   0.48092149   -7.7704352    830.19355  0.014344349  0.012675407         3916 
 4824000    0.4769975   -7.7738687    829.48934   0.01432921  0.012671135         3915 
 4825000   0.47203366   -7.7792361    830.67603  0.014346736  0.012666865         3920 
 4826000   0.48553082    -7.768376    831.95922  0.014365921    0.0126626         3918 
 4827000   0.48710233   -7.7733104    830.15382  0.014331776  0.012658334         3929 
 4828000   0.48144645   -7.7750905     830.8125  0.014340177  0.012654073         3918 
 4829000   0.48555531   -7.7803281    829.86009  0.014320772  0.012649811         3926 
 4830000   0.47897248   -7.7659238    830.51939  0.014329182  0.012645551         3925 
 4831000   0.47978706   -7.7661236    829.43429  0.014307498  0.012641294         3913 
 4832000    0.4799242    -7.764762    828.72853  0.014292366  0.012637034         3920 
 4833000   0.47147989    -7.781598    830.47209  0.014319472  0.012632782         3906 
 4834000   0.46805256   -7.7655758    830.30315  0.014313597   0.01262853         3918 
 4835000   0.47777488   -7.7794309    830.23673  0.014309492   0.01262428         3931 
 4836000   0.48399484    -7.779258    830.33031  0.014308146  0.012620029         3908 
 4837000   0.48640786   -7.7663351    828.07513  0.014266335  0.012615782         3925 
 4838000   0.46418769   -7.7810122    830.13161  0.014298808  0.012611538         3912 
 4839000   0.48417479   -7.7768825     830.8823  0.014308781  0.012607294         3914 
 4840000   0.48354517   -7.7736065    829.70786  0.014285604  0.012603053         3912 
 4841000   0.47730734   -7.7845084    830.70462  0.014299811  0.012598814         3912 
 4842000   0.48104288    -7.785696    830.76678  0.014297927  0.012594577         3926 
 4843000   0.48030474    -7.766945    829.02768  0.014265051  0.012590343         3924 
 4844000   0.48259334    -7.780176    829.92593  0.014277559  0.012586109         3911 
 4845000   0.47771029   -7.7614351    830.06035  0.014276924  0.012581876         3913 
 4846000   0.46613613   -7.7715856    831.26225  0.014294646  0.012577645         3927 
 4847000    0.4780966   -7.7912486    829.53391  0.014261982  0.012573416         3927 
 4848000   0.47520166   -7.7906259    830.99912  0.014284226  0.012569189         3931 
 4849000    0.4745723   -7.7788902     829.5453  0.014256295  0.012564964         3918 
 4850000   0.46760479   -7.7717094    829.39729  0.014250813  0.012560741         3930 
 4851000   0.46788718   -7.7946637     830.2827  0.014263085  0.012556519         3917 
 4852000   0.49191194   -7.7647436    829.65547  0.014249373  0.012552299         3924 
 4853000   0.47127583   -7.7902844    828.82155  0.014232117   0.01254808         3924 
 4854000   0.46988037   -7.7755566    829.44334   0.01423986  0.012543863         3930 
 4855000   0.47368196   -7.7706067    829.31903  0.014234793  0.012539652         3921 
 4856000   0.48541446   -7.7751259    828.64642  0.014220319  0.012535436         3934 
 4857000   0.46981314   -7.7804256    829.61424  0.014233996  0.012531227         3928 
 4858000   0.47358067   -7.7840456    829.02244  0.014220915  0.012527018         3928 
 4859000   0.46997635   -7.7767897    829.90134  0.014233061   0.01252281         3931 
 4860000   0.47410946   -7.7822156    829.75093  0.014227554  0.012518605         3925 
 4861000   0.47774248   -7.7763329     829.4744  0.014219886  0.012514399         3924 
 4862000    0.4767233   -7.7756158    829.70856  0.014220975  0.012510196         3923 
 4863000   0.48586561     -7.77675    830.34429  0.014228945  0.012505994         3924 
 4864000   0.47643288   -7.7881388    829.04557  0.014203769  0.012501793         3923 
 4865000   0.47466724   -7.7741941     829.2878  0.014204998  0.012497594         3920 
 4866000   0.47657615   -7.7750686    829.03689  0.014197782  0.012493396         3932 
 4867000   0.47264839   -7.7733158    829.54035  0.014203485  0.012489204         3925 
 4868000   0.47383112   -7.7925959    828.77491  0.014187464  0.012485012         3928 
 4869000   0.46270407   -7.7860216     829.0384   0.01418906  0.012480821         3925 
 4870000   0.45368711   -7.8063015    830.24634  0.014206816  0.012476632         3919 
 4871000   0.47592561   -7.7882419    829.04784  0.014183396  0.012472443         3930 
 4872000   0.48146068   -7.7832965    829.72099  0.014191998  0.012468258         3937 
 4873000   0.47457032   -7.7949035    829.66725  0.014188167  0.012464078         3929 
 4874000   0.47016518    -7.786339    829.69916  0.014185802  0.012459897         3923 
 4875000   0.48122864   -7.7702884    829.46007  0.014178805  0.012455717         3922 
 4876000   0.46847041   -7.7730436    829.79362  0.014181597   0.01245154         3921 
 4877000   0.47165203   -7.7964588    829.77741  0.014178412  0.012447368         3926 
 4878000    0.4662732   -7.7826687    829.38675  0.014168832  0.012443194         3930 
 4879000   0.47250187   -7.7895836    829.83991  0.014173668  0.012439023         3935 
 4880000   0.46756386   -7.7844061    828.42168  0.014146545  0.012434852         3924 
 4881000   0.46289593   -7.7886098     829.2586  0.014157935  0.012430684         3926 
 4882000    0.4597659   -7.7900985    828.22965  0.014137472  0.012426513         3923 
 4883000    0.4838645   -7.7956409    828.34185  0.014136491  0.012422349         3927 
 4884000   0.46897381    -7.789244     829.8305  0.014158997  0.012418186         3919 
 4885000   0.46749204   -7.7852404    829.50726  0.014150584  0.012414026         3908 
 4886000   0.47604032   -7.7959095    829.50589  0.014147665  0.012409867         3928 
 4887000   0.47232015   -7.7885405    830.47032  0.014161215  0.012405711         3913 
 4888000   0.46795878   -7.7843751    828.79078  0.014129685  0.012401556         3929 
 4889000   0.47503288   -7.7871552    829.02443  0.014130777  0.012397401         3924 
 4890000   0.46915407   -7.7947963    829.45318  0.014135194   0.01239325         3934 
 4891000   0.46971915   -7.7600674    830.14718  0.014144128  0.012389102         3915 
 4892000   0.46730027   -7.7865379    829.93515  0.014137625  0.012384953         3922 
 4893000   0.47138835   -7.7791732    828.52828  0.014110775  0.012380804         3923 
 4894000   0.47121716   -7.7765388    829.61867  0.014126459  0.012376662         3923 
 4895000   0.46934922   -7.7748257    828.96747  0.014112487  0.012372519         3929 
 4896000   0.46368913   -7.7885814    829.77699  0.014123383  0.012368378         3923 
 4897000   0.45679369   -7.7917023    830.03442   0.01412488  0.012364235         3920 
 4898000   0.46376129   -7.7898538    829.68188  0.014115998  0.012360098         3923 
 4899000   0.46733157     -7.78113    829.24759  0.014105729  0.012355961         3923 
 4900000    0.4794821   -7.7833176     828.5454  0.014090908  0.012351826         3923 
 4901000    0.4763355    -7.794542    830.00477  0.014112847  0.012347695         3929 
 4902000   0.47715901   -7.7942881    828.20118  0.014079307  0.012343563         3927 
 4903000   0.46341235     -7.80318    828.62074  0.014083567  0.012339432         3924 
 4904000   0.46150327   -7.8000008    828.58223  0.014080041  0.012335303         3925 
 4905000   0.46473693   -7.8004041    828.12399  0.014069385  0.012331178         3920 
 4906000   0.46152618   -7.7803882    829.10838  0.014083238  0.012327055         3931 
 4907000   0.46404318   -7.7837896     829.8074  0.014092239  0.012322933         3929 
 4908000   0.46646172   -7.7835659    829.44036  0.014083136  0.012318811         3920 
 4909000   0.46679901   -7.7927123    829.39994  0.014079581  0.012314691         3925 
 4910000   0.47510925   -7.7909793    829.41026  0.014076888  0.012310574         3924 
 4911000   0.46611671   -7.7887317    829.58269  0.014076948   0.01230646         3918 
 4912000   0.45787341   -7.7847702    829.24576  0.014068366  0.012302347         3921 
 4913000   0.44920313    -7.777779    827.86685  0.014042114  0.012298232         3920 
 4914000   0.47547973   -7.7972922    829.68331   0.01407006  0.012294119         3925 
 4915000   0.46506506   -7.7965441    828.68211  0.014050222  0.012290011         3923 
 4916000   0.46608591    -7.785441    829.00492  0.014052836  0.012285905         3926 
 4917000   0.45732907   -7.7814348    828.12766  0.014035111  0.012281801         3918 
 4918000   0.45897012   -7.7792559    828.96816  0.014046499  0.012277699         3924 
 4919000   0.46958613   -7.7939038    828.50786  0.014035845  0.012273596         3931 
 4920000   0.46436288   -7.7879312    829.23847  0.014045367  0.012269496         3931 
 4921000   0.46725259   -7.8126486    829.05532  0.014039411  0.012265397         3937 
 4922000    0.4696092   -7.7853475    829.45315  0.014043295    0.0122613         3919 
 4923000   0.46726809   -7.8033479    828.62204  0.014026373  0.012257208         3931 
 4924000   0.47231075    -7.796892     829.5062  0.014038488  0.012253114         3921 
 4925000   0.46327123     -7.80121    829.73007  0.014039426  0.012249023         3931 
 4926000   0.47052302   -7.7957944    827.97786  0.014006934  0.012244931         3930 
 4927000   0.47083989   -7.7933231    829.72888  0.014033707  0.012240845         3938 
 4928000   0.46145699   -7.8012149    830.59402  0.014045489  0.012236761         3910 
 4929000   0.46227463   -7.8062164    828.63352  0.014009494  0.012232676         3924 
 4930000   0.46681424   -7.7852662    828.57394  0.014005645  0.012228592         3936 
 4931000   0.46453679   -7.7965774    828.49084    0.0140014  0.012224511         3923 
 4932000    0.4566234   -7.7930142      829.851  0.014021543  0.012220432         3927 
 4933000   0.46891867   -7.8032596    829.27216  0.014008922  0.012216354         3918 
 4934000   0.46249993   -7.7856284    828.09564  0.013986212  0.012212278         3931 
 4935000   0.46173414   -7.7840913    828.36873  0.013987989  0.012208203         3939 
 4936000   0.45997882   -7.7848372    828.31044  0.013984171   0.01220413         3926 
 4937000   0.46186517   -7.8034103    828.41768  0.013983149  0.012200058         3926 
 4938000   0.46415399   -7.8081166    829.66605  0.014001385  0.012195991         3921 
 4939000   0.46155178   -7.7975037     828.9895  0.013987135  0.012191925         3931 
 4940000   0.46450434   -7.7878624    828.38431  0.013974094  0.012187859         3931 
 4941000   0.45494015   -7.8060056    827.95484  0.013964023  0.012183795         3931 
 4942000   0.45596396   -7.7937566    828.97065  0.013978326  0.012179734         3924 
 4943000    0.4552221   -7.7930758    827.22514  0.013946071  0.012175673         3914 
 4944000   0.45460771    -7.809975    828.44164  0.013963755  0.012171612         3925 
 4945000   0.46054431   -7.7993499    829.18575  0.013973471  0.012167555         3924 
 4946000   0.46410549   -7.7875039    828.34184  0.013956427  0.012163498         3917 
 4947000   0.44963155   -7.7958056      828.952  0.013963884  0.012159447         3923 
 4948000   0.45899857   -7.7943287    828.89677  0.013960132  0.012155398         3920 
 4949000   0.45752312   -7.7922722    828.15442  0.013944811  0.012151347         3922 
 4950000   0.46933634    -7.805897    828.92767  0.013955011  0.012147299         3926 
 4951000     0.454285   -7.8073858    828.90483  0.013951808  0.012143255         3924 
 4952000   0.46608097   -7.7989704    827.98368  0.013933489  0.012139214         3922 
 4953000   0.45677359    -7.795891    828.43605  0.013938287  0.012135173         3931 
 4954000   0.46684649   -7.7906471    828.75498  0.013940839  0.012131135         3928 
 4955000   0.45241662   -7.7925327    828.10638  0.013927117  0.012127098         3930 
 4956000   0.46112129   -7.8168107    828.71864  0.013934602  0.012123064         3934 
 4957000   0.45926758   -7.8049001    828.71026   0.01393165   0.01211903         3933 
 4958000   0.44753992   -7.7948651    829.56329  0.013943178  0.012114995         3920 
 4959000   0.45487026   -7.8015304     827.8426  0.013911451  0.012110963         3935 
 4960000   0.45503675   -7.7870751    829.08276  0.013929482  0.012106936         3930 
 4961000   0.46752396   -7.7964707    829.24698  0.013929433  0.012102907         3929 
 4962000   0.47025123   -7.8059921     828.7252  0.013917862  0.012098884         3926 
 4963000   0.45247107   -7.7885779    828.46958  0.013910766  0.012094859         3927 
 4964000   0.45227818   -7.7948896    828.73904  0.013912487  0.012090834         3920 
 4965000   0.45549723   -7.7949374    829.11689  0.013916027  0.012086813         3916 
 4966000    0.4585488   -7.8066538     828.1343  0.013896736  0.012082793         3939 
 4967000   0.46750715   -7.7930205    827.20404  0.013878331  0.012078777         3921 
 4968000   0.45996537   -7.8031104    828.23534  0.013892836   0.01207476         3928 
 4969000   0.44965564   -7.8069348    829.14253  0.013905255  0.012070749         3926 
 4970000   0.45345376   -7.8107431    828.49685  0.013891631  0.012066734         3934 
 4971000   0.46192694     -7.80029     829.0378  0.013897905  0.012062723         3915 
 4972000   0.45836934   -7.8015216    827.90984  0.013876204  0.012058716         3918 
 4973000   0.45381579   -7.7956969    827.69835   0.01386987  0.012054709         3919 
 4974000   0.45343792   -7.7924344    828.36244  0.013878207  0.012050705         3927 
 4975000   0.45061492   -7.8096841    828.87946  0.013884078    0.0120467         3929 
 4976000   0.45484705   -7.8006195    828.19543  0.013869832  0.012042698         3926 
 4977000   0.45583926   -7.8073762    827.78777   0.01386022  0.012038698         3932 
 4978000   0.45355446   -7.8037295    829.69863  0.013889424  0.012034701         3925 
 4979000   0.45596026   -7.8098693    828.33428  0.013863799  0.012030703         3924 
 4980000   0.46201407   -7.8102498    828.70121  0.013867155  0.012026706         3918 
 4981000   0.45235602   -7.8169889    829.12475  0.013871457  0.012022712         3935 
 4982000   0.44933895   -7.8020189    829.84105  0.013880654  0.012018719         3925 
 4983000    0.4585662   -7.8025636    828.84528  0.013861216  0.012014731         3926 
 4984000   0.44959905   -7.8083735     826.9744  0.013827153  0.012010743         3928 
 4985000   0.44436975   -7.8202327    829.33651  0.013863867  0.012006758         3922 
 4986000   0.44902003   -7.7961605    827.73343  0.013834293  0.012002772         3920 
 4987000   0.45156558    -7.796543    829.18372  0.013855754  0.011998789         3918 
 4988000   0.45269079    -7.802623     829.4693  0.013857747  0.011994808         3931 
 4989000   0.45697396   -7.8067787    828.40646  0.013837216  0.011990829         3931 
 4990000   0.45686974   -7.8089948    827.85483  0.013825231  0.011986851         3926 
 4991000   0.45505796   -7.8064901    828.17133  0.013827745  0.011982874         3928 
 4992000   0.45325338    -7.808636    827.27244   0.01380997  0.011978898         3931 
 4993000   0.44960729   -7.8135916    828.75956  0.013832024  0.011974924         3923 
 4994000    0.4518081   -7.8000902    827.51084  0.013808417  0.011970953         3929 
 4995000   0.44173525   -7.8042518    828.39418   0.01382039  0.011966985         3933 
 4996000   0.45149381   -7.8027221    828.15794  0.013813683  0.011963016         3927 
 4997000   0.44863629   -7.8182203    827.28836  0.013796417  0.011959049         3929 
 4998000   0.46140476   -7.8115592    827.80554   0.01380228  0.011955083         3920 
 4999000    0.4564451   -7.8020989    827.78165  0.013799121   0.01195112         3925 
 5000000   0.44820749   -7.8050881    827.89145  0.013798191   0.01194716         3930 
 5001000   0.45949648   -7.7869141    826.01913  0.013764233    0.0119432         3924 
 5002000   0.44611573   -7.8084835    827.97836  0.013794122  0.011939241         3936 
 5003000    0.4486487   -7.8284909    828.94175  0.013807411  0.011935286         3932 
 5004000   0.45802613   -7.8094952    827.97288  0.013788517   0.01193133         3930 
 5005000   0.45109695   -7.8078262    828.16416  0.013788947  0.011927374         3928 
 5006000   0.45045104   -7.8031553    828.27541  0.013788044  0.011923425         3926 
 5007000   0.46097677    -7.828593    828.32073  0.013786045  0.011919476         3917 
 5008000   0.44324589    -7.808522    827.27106  0.013765826  0.011915528         3935 
 5009000   0.43825314   -7.8084143    828.72792  0.013787315   0.01191158         3926 
 5010000   0.44223119   -7.8103485    828.74265  0.013784808  0.011907635         3929 
 5011000   0.45616654   -7.8132208    826.92253  0.013751788  0.011903694         3929 
 5012000   0.45016418   -7.8046276    828.56429  0.013776342  0.011899754         3930 
Loop time of 10656.4 on 48 procs for 5000000 steps with 4000 atoms

Performance: 81077.889 tau/day, 469.201 timesteps/s
99.4% CPU use with 48 MPI tasks x no OpenMP threads

MPI task timing breakdown:
Section |  min time  |  avg time  |  max time  |%varavg| %total
---------------------------------------------------------------
Pair    | 729.3      | 753.72     | 775.4      |  39.6 |  7.07
Neigh   | 67.157     | 67.863     | 68.831     |   4.8 |  0.64
Comm    | 580.33     | 610.51     | 646.87     |  64.7 |  5.73
Output  | 14.731     | 14.736     | 14.823     |   0.3 |  0.14
Modify  | 9050       | 9094.9     | 9130.2     |  23.7 | 85.35
Other   |            | 114.7      |            |       |  1.08

Nlocal:        83.3333 ave          89 max          79 min
Histogram: 1 4 7 6 6 12 4 4 1 3
Nghost:        1763.27 ave        1775 max        1750 min
Histogram: 4 0 6 3 5 9 9 4 5 3
Neighs:        10542.9 ave       11570 max        9759 min
Histogram: 1 4 8 8 10 9 4 3 0 1
FullNghs:      21085.9 ave       22896 max       19570 min
Histogram: 1 1 9 10 11 6 5 2 1 2

Total # of neighbors = 1012123
Ave neighs/atom = 253.03075
Neighbor list builds = 269949
Dangerous builds = 0

#clear
#
#next RN
#
#jump SELF
Total wall time: 2:57:39
