
units lj                  # Use reduced LJ style units
atom_style atomic         # Uncharged point particles
atom_modify map hash      # Needed for indexing of clusters etc
                          # Used to be able to find where atoms are in relation to each other.

lattice fcc 1.0 spacing 1 1 1
Lattice spacing in x,y,z = 1.5874011 1.5874011 1.5874011
region box block 0 10 0 10 0 10 units lattice
create_box 2 box
Created orthogonal box = (0.0000000 0.0000000 0.0000000) to (15.874011 15.874011 15.874011)
  3 by 4 by 4 MPI processor grid
create_atoms 1 box
Created 4000 atoms
  using lattice units in orthogonal box = (0.0000000 0.0000000 0.0000000) to (15.874011 15.874011 15.874011)
  create_atoms CPU = 0.002 seconds
set type 1 type/fraction 2 0.37 78393
Setting atom values ...
  1496 settings made for type/fraction
mass 1 1.0
mass 2 1.0
pair_style lj/cut  3.5
pair_modify tail  yes
pair_coeff 1  1  1.0  1.0   # Intearaction between 1 and 1 set with epsilon = 1 and sigma = 1
pair_coeff 1  2  1.5  0.8
pair_coeff 2  2  0.5  0.88

write_data data.0
System init for write_data ...
Neighbor list info ...
  update every 1 steps, delay 10 steps, check yes
  max neighbors/atom: 2000, page size: 100000
  master list distance cutoff = 3.8
  ghost atom cutoff = 3.8
  binsize = 1.9, bins = 9 9 9
  1 neighbor lists, perpetual/occasional/extra = 1 0 0
  (1) pair lj/cut, perpetual
      attributes: half, newton on
      pair build: half/bin/atomonly/newton
      stencil: half/bin/3d
      bin: standard
WARNING: Not all mixed pair coeffs generated from mixing. Use write_data with 'pair ij' option to store all pair coeffs. (../write_data.cpp:312)


#############################
#   M E L T   S Y S T E M   #
#############################

velocity all create 2.4 9622624 mom yes dist gaussian # Assign velocities
                                                    # Temperature 2.4, random number seed, zero linear momentum
                                                                                # Gaussian distribution

timestep 0.002   # simulation timestep
thermo 1000       # output thermodynamic data every 1000 steps bf 100

# Define a fix  in this case with index 1 applied to all
# particles in the simulation. This fix is for simulations
# in the anisotropic NPT ensemble. Note that we use the MTK
# correction.
fix 1 all npt temp 2.4 2.4 0.1 iso 5.68 5.68 0.5 mtk yes tchain 5 pchain 5 # Use NPT ensemble
                                                                         # Set temperature and pressure and damping
                                                                         # Numbers of thermostats in chain and in barostat
run 10000          # run for 10000 steps
Per MPI rank memory allocation (min/avg/max) = 3.642 | 3.644 | 3.648 Mbytes
Step Temp E_pair E_mol TotEng Press Volume 
       0          2.4   -6.0326183            0   -2.4335183   -4.1254262         4000 
    1000    2.3244566   -4.9767899            0   -1.4909767    5.7949234      3975.22 
    2000    2.3747114   -5.0341085            0    -1.472932    5.6321838    3968.1053 
    3000     2.393118   -5.0557778            0   -1.4669981    5.2739245    3979.0856 
    4000    2.3531615   -4.9779328            0    -1.449073    5.9541339    3966.1257 
    5000    2.3942547   -5.0910351            0   -1.5005509    5.2983329    3967.2843 
    6000    2.3752903   -5.1112416            0   -1.5491968    5.5732369    3934.8876 
    7000    2.3933171   -5.0231491            0   -1.4340709    5.7016547    3965.0847 
    8000    2.3578674    -5.073939            0   -1.5380221    5.5868949    3954.5001 
    9000    2.4121173   -5.0780908            0   -1.4608195    5.4030261    3979.3996 
   10000    2.3993998    -5.103616            0   -1.5054161    5.5939282     3940.781 
Loop time of 2.47104 on 48 procs for 10000 steps with 4000 atoms

Performance: 699299.345 tau/day, 4046.871 timesteps/s
99.6% CPU use with 48 MPI tasks x no OpenMP threads

MPI task timing breakdown:
Section |  min time  |  avg time  |  max time  |%varavg| %total
---------------------------------------------------------------
Pair    | 1.0726     | 1.1572     | 1.2753     |   3.3 | 46.83
Neigh   | 0.20615    | 0.21379    | 0.23427    |   1.0 |  8.65
Comm    | 0.74824    | 0.8396     | 0.95236    |   5.0 | 33.98
Output  | 0.00023899 | 0.00024317 | 0.00030539 |   0.0 |  0.01
Modify  | 0.19765    | 0.24505    | 0.28663    |   5.3 |  9.92
Other   |            | 0.0152     |            |       |  0.62

Nlocal:        83.3333 ave          95 max          74 min
Histogram: 2 7 5 8 6 9 5 3 1 2
Nghost:        1665.83 ave        1687 max        1636 min
Histogram: 2 1 2 5 6 8 8 8 3 5
Neighs:        9684.98 ave       11464 max        8599 min
Histogram: 6 6 8 7 5 8 5 0 2 1

Total # of neighbors = 464879
Ave neighs/atom = 116.21975
Neighbor list builds = 904
Dangerous builds = 187

# Equilibrate just above the melting temperature to avoid step fn in T

fix 1 all npt temp 1.25 1.25 0.1 iso 5.68 5.68 0.5 mtk yes tchain 5 pchain 5
run 2000
Per MPI rank memory allocation (min/avg/max) = 3.643 | 3.645 | 3.649 Mbytes
Step Temp E_pair E_mol TotEng Press Volume 
   10000    2.3993998    -5.103616            0   -1.5054161    5.5939282     3940.781 
   11000    1.2548011   -7.0266342            0   -5.1449032    5.4348259    3156.3089 
   12000     1.217935   -7.0197838            0    -5.193338    5.3823651    3160.9085 
Loop time of 0.579943 on 48 procs for 2000 steps with 4000 atoms

Performance: 595920.753 tau/day, 3448.615 timesteps/s
99.6% CPU use with 48 MPI tasks x no OpenMP threads

MPI task timing breakdown:
Section |  min time  |  avg time  |  max time  |%varavg| %total
---------------------------------------------------------------
Pair    | 0.26756    | 0.28418    | 0.30758    |   1.9 | 49.00
Neigh   | 0.038958   | 0.040698   | 0.042835   |   0.5 |  7.02
Comm    | 0.18266    | 0.20788    | 0.22824    |   2.4 | 35.85
Output  | 4.9974e-05 | 5.0882e-05 | 6.5723e-05 |   0.0 |  0.01
Modify  | 0.039943   | 0.042533   | 0.045867   |   0.9 |  7.33
Other   |            | 0.004599   |            |       |  0.79

Nlocal:        83.3333 ave          90 max          78 min
Histogram: 5 4 2 7 10 9 3 3 3 2
Nghost:        1927.67 ave        1951 max        1905 min
Histogram: 2 0 6 10 8 5 8 6 2 1
Neighs:        12087.9 ave       13172 max       10839 min
Histogram: 2 2 3 5 10 7 6 6 3 4

Total # of neighbors = 580219
Ave neighs/atom = 145.05475
Neighbor list builds = 143
Dangerous builds = 12

#############################
# L I N E A R  Q U E N C H  #
#############################

# Define solid atoms. This closely follows ten Wolde  Ruiz-Montero and Frenkel  Faraday Discuss  1996  104  93-110
# Compute components of the per-atom q6 vector
compute q6 all orientorder/atom degrees 1 6 components 6 nnn NULL cutoff 1.3 # compute the Q6 parameter.
                                                                             # Use all neighbours within 1.3 unit cell.

# get number of connections
compute coord_number all coord/atom orientorder q6 0.5

# An atom is solid if it has 8 or more connections (of a possible 14)
variable is_solid atom c_coord_number>=8
group solid dynamic all var is_solid    # Must be dynamic to update
dynamic group solid defined

# do clustering
compute cluster solid cluster/atom 1.3 # Create a cluster where all atoms within are solid and max 1.3 units from another member

# define chunks one chunk per cluster
compute clus_chunks solid chunk/atom c_cluster nchunk every compress yes  # Says which atoms are in which chunk

# count the size of each chunk
compute size_chunks solid property/chunk clus_chunks count


# Find the maximum entry in the vector of chunk sizes
variable max_n equal max(c_size_chunks)


# Thermo style which includes this variable
# thermo_style custom step temp pe vol v_max_n

thermo ${N}  # Print the thermo information every 100 steps
thermo 1000  

# Reset the npt fix at a lower temperature (below freezing)
fix 1  all npt temp  ${temp} ${temp}  0.1  iso  5.68  5.68  0.5  mtk yes tchain  5  pchain  5
fix 1  all npt temp  0.45 ${temp}  0.1  iso  5.68  5.68  0.5  mtk yes tchain  5  pchain  5
fix 1  all npt temp  0.45 0.45  0.1  iso  5.68  5.68  0.5  mtk yes tchain  5  pchain  5

dump dmp2 all dcd ${N} traj.dcd
dump dmp2 all dcd 1000 traj.dcd


compute msd all msd com yes
variable twopoint equal c_msd[4]/6/(step*dt+1.0e-6)
fix 9 all vector 10 c_msd[4]
variable fit equal slope(f_9)/6/(10*dt)
thermo_style custom step temp pe c_msd[4] v_twopoint v_fit v_max_n

fix 1 all npt temp 1.25 ${temp} 0.1 iso 5.68 5.68 0.5 mtk yes tchain 5 pchain 5
fix 1 all npt temp 1.25 0.45 0.1 iso 5.68 5.68 0.5 mtk yes tchain 5 pchain 5
run 2000000 # 5000000  # Run for this many steps
Neighbor list info ...
  update every 1 steps, delay 10 steps, check yes
  max neighbors/atom: 2000, page size: 100000
  master list distance cutoff = 3.8
  ghost atom cutoff = 3.8
  binsize = 1.9, bins = 8 8 8
  4 neighbor lists, perpetual/occasional/extra = 1 3 0
  (1) pair lj/cut, perpetual
      attributes: half, newton on
      pair build: half/bin/atomonly/newton
      stencil: half/bin/3d
      bin: standard
  (2) compute orientorder/atom, occasional
      attributes: full, newton on
      pair build: full/bin/atomonly
      stencil: full/bin/3d
      bin: standard
  (3) compute coord/atom, occasional
      attributes: full, newton on
      pair build: full/bin/atomonly
      stencil: full/bin/3d
      bin: standard
  (4) compute cluster/atom, occasional
      attributes: full, newton on
      pair build: full/bin/atomonly
      stencil: full/bin/3d
      bin: standard
Per MPI rank memory allocation (min/avg/max) = 9.818 | 9.825 | 9.831 Mbytes
Step Temp PotEng c_msd[4] v_twopoint v_fit v_max_n 
   12000     1.217935   -7.0197838 1.9721523e-34 1.3695501e-36 8.3333333e+20            2 
   13000    1.2702988   -7.0414592    0.5006401 0.0032092313  0.040621377            2 
   14000    1.2719536   -7.0609761   0.97947782 0.0058302249  0.040410847            2 
   15000    1.2484593   -7.0590891    1.4577526 0.0080986251  0.039724522            2 
   16000    1.2500206   -7.0477294    1.8744976  0.009763008  0.039286533            2 
   17000    1.2584108   -7.0387677    2.3010407  0.011279611  0.038232018            2 
   18000    1.2620576   -7.0269987    2.7747401  0.012846019  0.037678594            1 
   19000    1.2599018   -7.0918945    3.1381182  0.013763676  0.037350911            1 
   20000    1.2779999   -7.0551354    3.5533263  0.014805526  0.036729735            2 
   21000    1.2535682   -7.0835582    4.0560333   0.01609537  0.036544968            2 
   22000    1.2758451   -7.0738474      4.52211  0.017129204  0.036699723            3 
   23000    1.2439147   -7.0136086    4.9471607  0.017924495   0.03683162            1 
   24000    1.2328814   -7.0299643    5.4781137  0.019021228   0.03700712            1 
   25000    1.2644577   -7.1283081    5.9095267  0.019698422  0.037260451            1 
   26000    1.2289281   -7.0155755    6.4253578  0.020594095  0.037473963            1 
   27000    1.2622162   -7.0289467    6.8618419  0.021178524  0.037592017            1 
   28000    1.2535845   -7.0554597    7.3199331  0.021785515  0.037658665            1 
   29000     1.243787   -7.0028256    7.8512635  0.022561102  0.037776186            2 
   30000    1.2402036   -7.1242672    8.2675187  0.022965329   0.03789699            1 
   31000    1.2520021   -7.0577548    8.7126778  0.023421177  0.038009524            1 
   32000    1.2367886   -7.0484499     9.082093  0.023651284  0.037999761            3 
   33000    1.2229517   -7.0585027    9.5757309  0.024181138  0.037999233            4 
   34000    1.2197866   -7.0618359    10.006448  0.024525607  0.037999589            1 
   35000    1.2364507   -7.0331593    10.479121  0.024950288  0.037969902            1 
   36000    1.2224882   -7.0583672    10.832048  0.025074184  0.037897404            2 
   37000    1.2440384   -7.0337849    11.319826  0.025495103  0.037818954            1 
   38000    1.2390857   -7.0647087    11.878939  0.026050303  0.037806275            1 
   39000    1.2350005   -7.0714671    12.248609   0.02617224  0.037817104            1 
   40000    1.2546912   -7.0433744    12.759347  0.026581973  0.037787125            2 
   41000    1.2258567    -7.053928    13.197156  0.026823488  0.037789426            2 
   42000    1.2245432   -7.1089707    13.609304  0.027002586  0.037805647            1 
   43000     1.241576   -7.0815334    14.004988   0.02714145  0.037780867            2 
   44000    1.2276758   -7.0803373    14.359813  0.027196615  0.037712818            1 
   45000    1.2428989   -7.1016405    14.725579   0.02726959  0.037633666            1 
   46000    1.2362417   -7.0767153    15.171175  0.027484012  0.037535474            1 
   47000    1.2471349   -7.0970603    15.325765  0.027173342  0.037415504            1 
   48000     1.226858   -7.0583532    15.767103  0.027373442  0.037241533            1 
   49000    1.2401611    -7.073058    16.221083  0.027586876  0.037078884            2 
   50000    1.2403044   -7.0780779    16.744914  0.027908189  0.036971894            2 
   51000     1.235099    -7.139922     17.14444  0.028013791  0.036872633            3 
   52000    1.2420788   -7.0917374    17.533171  0.028098031  0.036770661            2 
   53000    1.2301232   -7.0931853    18.034634  0.028356343  0.036702126            2 
   54000    1.2606237   -7.1295807    18.304639    0.0282479  0.036625716            3 
   55000    1.2320714   -7.0979898    18.889237  0.028620056  0.036549792            1 
   56000    1.2484994   -7.1175975    19.314891  0.028742397  0.036491353            3 
   57000    1.2524621   -7.0680704    19.665896  0.028751309  0.036444447            3 
   58000    1.1991386   -7.0839116    20.101953  0.028882116  0.036388449            1 
   59000    1.2036967   -7.1138186     20.51423  0.028974901  0.036344089            2 
   60000    1.2618692   -7.1125032    21.063183  0.029254421  0.036311752            1 
   61000    1.2576457   -7.0884802    21.599909  0.029508072   0.03630382            1 
   62000    1.2346447   -7.0957322    22.001847  0.029572375  0.036294172            1 
   63000    1.2080129   -7.1154536    22.468968  0.029720857  0.036295868            3 
   64000     1.233804   -7.0895479    22.881416  0.029793511  0.036291934            1 
   65000    1.2359425   -7.0812911    23.362122  0.029951438  0.036286342            3 
   66000     1.227134    -7.074086    23.678735  0.029897393  0.036283124            2 
   67000    1.2523427   -7.1274216    24.054178  0.029918132  0.036262633            2 
   68000    1.1897223   -7.0798528    24.443407  0.029955156  0.036230714            1 
   69000    1.2345248   -7.0935923    24.902176  0.030075092  0.036203856            1 
   70000    1.2169423    -7.101012    25.218183  0.030021646  0.036176834            2 
   71000    1.2371943   -7.1428568    25.695186  0.030158669   0.03614489            1 
   72000    1.2458513   -7.0676903    26.327112  0.030471194   0.03612276            1 
   73000    1.2338706   -7.0751124    26.640131  0.030411108  0.036112549            4 
   74000    1.2319245   -7.0966627    27.009233  0.030415802  0.036095769            3 
   75000    1.2127135    -7.119013    27.240085  0.030266761  0.036059408            1 
   76000     1.231069   -7.0770483    27.661841  0.030330965  0.036024901            5 
   77000     1.204417   -7.1181033     28.10815  0.030420076  0.035987435            1 
   78000    1.2405186   -7.1100907    28.561881   0.03051483  0.035958159            1 
   79000    1.2459736   -7.1334323    28.934466  0.030521588  0.035933608            1 
   80000     1.215879   -7.1370043    29.385278  0.030609664   0.03589999            1 
   81000    1.2150125   -7.0552387    29.866826  0.030727187  0.035875367            1 
   82000    1.2320449     -7.09104    30.149201  0.030639431  0.035836791            2 
   83000    1.2220608    -7.116355    30.387065  0.030509102  0.035791697            2 
   84000    1.2078736   -7.0992113    30.744451  0.030500447  0.035743104       -1e+20 
   85000    1.1973247     -7.08353    31.198904   0.03058716  0.035690524            2 
   86000    1.2310154   -7.0632528    31.425994  0.030451544  0.035627665            1 
   87000    1.2193409   -7.0827909    31.962943  0.030615846   0.03557211            2 
   88000    1.2075757   -7.0898474    32.126993  0.030423289  0.035507027            1 
   89000     1.206241   -7.1421741    32.526124  0.030455172  0.035437731            2 
   90000    1.2251047   -7.1303575     32.97084  0.030528555  0.035377939            1 
   91000    1.2025284   -7.1578066    33.492617  0.030670895  0.035328658            1 
   92000    1.1992918   -7.1362665    33.807512  0.030622747  0.035286204            2 
   93000    1.2259331   -7.1339865    34.412649  0.030835707  0.035243123            2 
   94000    1.2163765   -7.0951679     34.83648  0.030883404  0.035210473            4 
   95000    1.2126665   -7.1263784    35.198366  0.030875759  0.035185751            1 
   96000    1.2106665   -7.1435144    35.626559  0.030925832  0.035161338            2 
   97000    1.1961181   -7.1260677    36.025577  0.030949809   0.03513825            1 
   98000    1.2076921   -7.1591077    36.428026  0.030976212  0.035108458            2 
   99000    1.2291591   -7.1371628    36.656925  0.030855998  0.035079035            1 
  100000     1.224233    -7.113266    37.124276  0.030936896  0.035044863            2 
  101000    1.2081809   -7.1283553    37.494599  0.030936138    0.0350173            1 
  102000    1.2307406   -7.1172991    37.931575  0.030989848   0.03498638            2 
  103000    1.2087023   -7.1387719    38.327384   0.03100921  0.034955643            2 
  104000     1.208815    -7.121495    38.852187   0.03113156  0.034927041            2 
  105000    1.2058906   -7.1371852    39.087734  0.031022011  0.034896598            2 
  106000    1.2122831    -7.181214     39.57298  0.031110833  0.034871921            3 
  107000    1.1906748    -7.188297    39.815403  0.031008881  0.034844427            2 
  108000    1.2019257    -7.158759    40.142377  0.030974056  0.034812553            3 
  109000    1.2310431   -7.1310808    40.924071  0.031287516  0.034789714            2 
  110000    1.2047361   -7.1172604    41.027787  0.031081657  0.034771636            3 
  111000    1.2205808    -7.131481    41.615026  0.031242512   0.03474938            1 
  112000    1.2241222   -7.1735588    41.854851  0.031142002  0.034727862            2 
  113000    1.2225058   -7.1052087     42.41732  0.031281209  0.034706292            1 
  114000    1.2054973    -7.154612    42.722551  0.031229935   0.03468419            1 
  115000    1.2274197   -7.1408531    43.076053  0.031214531  0.034658146            1 
  116000    1.2106736   -7.1849683    43.355141  0.031145934  0.034632383            1 
  117000    1.2172387   -7.1773303    43.769585  0.031174918  0.034605192            2 
  118000    1.2146568    -7.120622    44.311485  0.031293421  0.034581642            2 
  119000    1.2100493   -7.1549113    44.720378  0.031316791  0.034563676            1 
  120000    1.1996116   -7.1205177    45.286454  0.031448926  0.034548077            2 
  121000    1.1777624   -7.1329772    45.803041  0.031544794   0.03453422            2 
  122000    1.2262661   -7.1406254    46.069972   0.03146856  0.034523392            1 
  123000    1.2077193   -7.1387117     46.31653  0.031379763  0.034507102            1 
  124000     1.195841   -7.1583554     46.66034  0.031357755  0.034490943            1 
  125000    1.2021755   -7.1497857    46.950752  0.031300501  0.034470995            1 
  126000     1.198926   -7.1072175    47.342307   0.03131105  0.034446469            1 
  127000    1.1877966   -7.1233146    47.601002  0.031234253  0.034418164            5 
  128000    1.2208533   -7.1333229    47.890709  0.031178847  0.034389158            2 
  129000    1.1889501   -7.1479335    48.189526  0.031130184  0.034355199            2 
  130000    1.2161602   -7.1785129    48.735851   0.03124093  0.034318251            2 
  131000    1.1821987   -7.1672123    48.987512   0.03116254   0.03428226            1 
  132000    1.1933704   -7.1849246     49.30605  0.031127557  0.034247172            2 
  133000    1.1779731   -7.1376277    49.805667  0.031206558   0.03421803            1 
  134000     1.168443   -7.1339958    49.867323  0.031012017  0.034182847            2 
  135000    1.1996696   -7.1845594    50.281144  0.031037743  0.034145349            1 
  136000    1.1964965   -7.1684229    50.690254  0.031060204  0.034109621            2 
  137000    1.2294435   -7.2047675    51.110944  0.031089382  0.034075705            2 
  138000    1.2204327   -7.1491381    51.540857  0.031123706  0.034039793            2 
  139000    1.1932774   -7.1818153    51.658941  0.030970588  0.034005087            1 
  140000    1.2059593   -7.1726851    51.874071  0.030877423   0.03396724            1 
  141000    1.2381652    -7.194603    52.035851  0.030754049  0.033924083            1 
  142000     1.195474   -7.1796775    52.687562  0.030919931  0.033882515            1 
  143000    1.2128169    -7.187873    52.958354  0.030861511  0.033842472            2 
  144000    1.1952724   -7.1757652    53.458989  0.030936915  0.033804047            1 
  145000    1.1847516   -7.1469937    53.762449  0.030897959   0.03376825            1 
  146000    1.1727092   -7.2018551     54.15129  0.030908271  0.033732263            3 
  147000    1.2158461   -7.1302534    54.742435  0.031033126  0.033698674            1 
  148000    1.2188611   -7.2364319    55.036644  0.030989101  0.033667735            1 
  149000    1.2054901   -7.1703547    55.611955  0.031102883  0.033638334            2 
  150000    1.1902863    -7.181349    55.949245  0.031082914  0.033613677            2 
  151000    1.1713164   -7.1569447    56.286245  0.031063049  0.033586508            1 
  152000    1.2085738   -7.1581481     56.31041  0.030871935  0.033556933            2 
  153000       1.2038   -7.2041669    56.406108  0.030722281  0.033523679            1 
  154000    1.2316777   -7.1836925    57.027357  0.030858959  0.033489351            1 
  155000    1.2032022   -7.2242847    57.423966    0.0308731  0.033455544            1 
  156000    1.1977368   -7.1778895    57.971432  0.030967645  0.033423118            2 
  157000    1.1966833   -7.1718752    58.298486  0.030943995  0.033394349            1 
  158000    1.1928229    -7.088884    59.059954  0.031149765  0.033367343            3 
  159000    1.1762223   -7.1900988     59.11955  0.030985089  0.033343321            1 
  160000    1.2056595   -7.2268094    59.411313  0.030943392  0.033321236            1 
  161000    1.1913908   -7.2108034     59.72533  0.030913732  0.033295283            3 
  162000    1.1755089   -7.1830217    60.281789  0.031009151  0.033269227            3 
  163000      1.19905   -7.1833239    60.813434  0.031090713  0.033246968            1 
  164000     1.171447   -7.1820331    61.178649  0.031086712  0.033228427            2 
  165000     1.187865    -7.218769    61.437119  0.031028848   0.03320944            2 
  166000     1.210068   -7.1947751    61.847936  0.031048161  0.033190703            1 
  167000    1.2052537   -7.1716782    62.198892  0.031037371  0.033170894            3 
  168000    1.2008514   -7.1772268    62.557633  0.031030572   0.03314874            5 
  169000    1.1690453   -7.1946662    62.893153  0.031012403   0.03312639            3 
  170000    1.1484895   -7.1550644    63.472837  0.031114136  0.033106479            2 
  171000    1.1650928   -7.1678966    63.707037  0.031046314    0.0330874            2 
  172000    1.1886273   -7.1851035    64.135751  0.031073523  0.033066113            1 
  173000    1.1982967   -7.2235177    64.428831  0.031035082  0.033047444            1 
  174000    1.1757396   -7.1771585    65.091294  0.031173991  0.033028972            2 
  175000    1.2124919   -7.2110818    65.296677  0.031093656  0.033011552            2 
  176000    1.1953851   -7.2082743     65.88916  0.031197519  0.032997109            1 
  177000    1.2188007   -7.1913591    65.965066  0.031056999  0.032980225            3 
  178000    1.1847361   -7.2008112    66.264814  0.031022853  0.032960755            1 
  179000    1.1914083   -7.1519408    66.496152   0.03095724  0.032938306            1 
  180000    1.1943982   -7.2116759    66.556255  0.030813081  0.032916725            4 
  181000    1.1701387   -7.1798545    67.114735   0.03089997  0.032896695       -1e+20 
  182000    1.1938111   -7.1993294    67.819562  0.031052913  0.032876789            3 
  183000    1.1805451   -7.1674552    68.286817     0.031096  0.032860656            1 
  184000    1.1899522   -7.2149866    68.494476  0.031021049  0.032844858            1 
  185000    1.2025768   -7.1800866    69.317675  0.031224178  0.032834756            2 
  186000     1.190139   -7.2555237    69.296381  0.031046766   0.03282481            2 
  187000    1.1944722   -7.2052338    69.830489  0.031118756  0.032810824            2 
  188000    1.1840241   -7.1860914    70.309022  0.031165347  0.032798132            1 
  189000    1.1620964   -7.2405491     70.39109  0.031036636  0.032784214            3 
  190000    1.1909232   -7.1458515    71.174944  0.031217081  0.032769953            1 
  191000    1.1885641   -7.2137957     71.51704  0.031202897  0.032758334            1 
  192000    1.1628307   -7.2077893    71.765048  0.031148024  0.032747504            1 
  193000      1.19481   -7.1817852    72.348524  0.031238568  0.032735408            1 
  194000    1.1784564   -7.1844158    72.487267  0.031137142  0.032723573            1 
  195000    1.1731133   -7.2428563    72.775664  0.031100711  0.032711354            2 
  196000    1.1642096   -7.1593844     73.61092   0.03129716  0.032702984            1 
  197000    1.1770651   -7.2156026    73.872204  0.031248817   0.03269506            2 
  198000    1.1954701   -7.1925459    74.274399  0.031260269  0.032686466            2 
  199000    1.1810113   -7.1999518    74.852645  0.031345329   0.03267964            1 
  200000    1.1493456   -7.1906704    75.330401  0.031387667  0.032673059            1 
  201000    1.1711732    -7.182173     75.37827  0.031251356  0.032665152            3 
  202000    1.1726585   -7.1918037    75.815867  0.031277173  0.032657453            1 
  203000    1.1889256   -7.2101708    76.336316  0.031336747   0.03264982            3 
  204000      1.15787    -7.181703    76.473626  0.031239226  0.032640946            2 
  205000    1.1748428   -7.2388297    76.541205  0.031114311   0.03262881            1 
  206000    1.1811201   -7.2433014     76.65941  0.031011088  0.032615577            2 
  207000    1.1807723   -7.2497439    77.269165  0.031106749  0.032601561            3 
  208000    1.1699212   -7.1996666    77.732003  0.031142629  0.032589164            2 
  209000    1.1534518    -7.293926    77.856078  0.031043093  0.032576809            1 
  210000    1.1751131   -7.1959882    78.567533  0.031177592  0.032564862            1 
  211000    1.1622606   -7.2550576    78.640608  0.031058692  0.032553599            1 
  212000     1.184818   -7.2585233    79.115777  0.031098969   0.03254261            4 
  213000    1.1796066   -7.2205876    79.724545  0.031191137  0.032530681            1 
  214000    1.1714184    -7.246186    79.953516  0.031134546   0.03251996            1 
  215000    1.1863525   -7.2335792    80.547108  0.031219809   0.03251029            2 
  216000    1.1770817   -7.2289882    80.890262  0.031207663  0.032501363            1 
  217000    1.1935354   -7.1984109    81.658931  0.031359036  0.032495677            1 
  218000    1.1641711   -7.2427612     82.00647  0.031348039  0.032488412            1 
  219000    1.1761604    -7.204379    82.102403  0.031241401  0.032481815            4 
  220000    1.1900116   -7.2625299      82.3003  0.031174356  0.032474372            1 
  221000    1.1917413    -7.256975    82.665222  0.031170898  0.032466043            2 
  222000    1.1550687   -7.2195018    82.639283  0.031020752  0.032455149            2 
  223000     1.152086   -7.2402061    83.106949  0.031056408   0.03244364            1 
  224000    1.1749205   -7.2660457    83.469432  0.031052616   0.03243359            1 
  225000    1.1601917   -7.2436388    84.185057  0.031179651  0.032423004            1 
  226000    1.1884822   -7.2324767    84.070061  0.030999285  0.032411592            1 
  227000    1.1631406   -7.2402649    84.627257  0.031067275  0.032400662            2 
  228000    1.1684906   -7.2108048    85.164058  0.031127214    0.0323913            1 
  229000    1.1670179   -7.2559414    85.466064  0.031101188  0.032382283            1 
  230000    1.1779245   -7.2445165    86.059499  0.031180978  0.032374206            1 
  231000    1.1766472   -7.2383195    86.636673  0.031254211  0.032366982            3 
  232000    1.1625693   -7.2256058    86.622289  0.031114328  0.032358252            1 
  233000    1.1696859   -7.2569798    86.848668  0.031061755  0.032347874            2 
  234000    1.1618392   -7.1962573     87.68043  0.031225224  0.032339131            1 
  235000    1.1588657   -7.2426841    87.698724  0.031098838  0.032330784            2 
  236000    1.1607012   -7.2435582    88.171301  0.031133934  0.032321282            2 
  237000    1.1821149   -7.1927222     88.42608  0.031092152   0.03231112            2 
  238000    1.1849462   -7.2821279    88.292458  0.030914726  0.032300357            2 
  239000    1.1331715   -7.2201446    88.760116  0.030948437  0.032286718            1 
  240000    1.1887474   -7.2395342    89.333076  0.031018429   0.03227518            1 
  241000    1.1491726   -7.2091891    89.777854  0.031043518  0.032264389            1 
  242000    1.1640428   -7.3060373    90.131511  0.031037021  0.032254389            1 
  243000    1.1358558   -7.2190857    90.797975  0.031137851   0.03224366            1 
  244000    1.1589463   -7.2329106    90.812637  0.031015245  0.032234129            2 
  245000    1.1343924   -7.2596538    91.224452  0.031028725  0.032222849            1 
  246000    1.1485812   -7.2372292    91.457668  0.030981595  0.032211842            1 
  247000    1.1771726   -7.2519297    91.844777  0.030986767  0.032200667            2 
  248000    1.1512018   -7.2273203     92.53984  0.031095376  0.032190829            1 
  249000    1.1734381   -7.2626575    92.695755  0.031022676   0.03218068            1 
  250000    1.1740575   -7.2340779    92.815068  0.030938356  0.032169901            1 
  251000    1.1572695   -7.2579509    92.971352  0.030866983  0.032159631            1 
  252000    1.1741716   -7.2752139    93.488416  0.030915481  0.032147316            1 
  253000    1.1340037   -7.2413518    93.805815  0.030897831  0.032134515            1 
  254000    1.1679354   -7.2477198    94.513842  0.031008478  0.032122065            1 
  255000    1.1360904   -7.2527345    94.633731  0.030926056  0.032111211            1 
  256000    1.1465997   -7.2010772    95.459319  0.031073997  0.032101985            1 
  257000    1.1445472   -7.2770739    95.442998  0.030947794  0.032092905            3 
  258000    1.1556801   -7.2524052    96.238868  0.031084906   0.03208249            2 
  259000    1.1361524   -7.2996872    96.397164  0.031015818  0.032072793            1 
  260000    1.1748347   -7.2728159    97.279725  0.031179399  0.032064772            1 
  261000    1.1444832   -7.3083448    97.122077  0.031009603  0.032056612            2 
  262000     1.144901   -7.2822154     97.19809  0.030915423  0.032048618            1 
  263000    1.1307311   -7.2692488     97.85712  0.031006692  0.032039843            1 
  264000    1.1484819   -7.2500308    97.846281  0.030885821  0.032031005            1 
  265000    1.1452189   -7.2730871    98.153544  0.030865894  0.032019192            2 
  266000     1.137689   -7.2767736    98.695331   0.03091959  0.032007876            1 
  267000    1.1335745   -7.2942265    98.536144  0.030754102  0.031996362            1 
  268000    1.1585324   -7.2825061    99.094996  0.030813121  0.031983875            2 
  269000    1.1559812   -7.2825013    99.491418  0.030821381  0.031971611            1 
  270000    1.1400856   -7.2268926    100.09613  0.030893868  0.031959964            2 
  271000    1.1327561   -7.3020685    100.12772  0.030789583  0.031946849            2 
  272000    1.1351616   -7.2796471    100.41429  0.030764181  0.031933598            3 
  273000    1.1391155   -7.2543568    100.92543  0.030807518  0.031921262            1 
  274000     1.142491   -7.2644195    101.24608  0.030792604  0.031911177            2 
  275000    1.1419531    -7.284212    102.04606  0.030923049  0.031900851            1 
  276000    1.1422598   -7.2446552     102.0513  0.030812589  0.031889327            1 
  277000    1.1321301    -7.305415    101.99644  0.030684849  0.031877877            2 
  278000    1.1488384   -7.2767655    102.99463   0.03087369  0.031867532            1 
  279000    1.1421324   -7.3126565     103.2511  0.030839634  0.031857225            1 
  280000    1.1374105    -7.267191    103.21243  0.030717985  0.031845033            1 
  281000     1.126558   -7.2541555    103.96788  0.030832706  0.031833208            3 
  282000    1.1499569   -7.3130201     104.1612  0.030780495  0.031823752            3 
  283000    1.1474052   -7.2823088     104.8096  0.030862663   0.03181329            3 
  284000    1.1567124   -7.2706233    104.97675  0.030803037  0.031803813            1 
  285000    1.1409645   -7.2959533    105.24201  0.030772518  0.031793852            1 
  286000    1.1375611   -7.2523053    105.83504  0.030837714  0.031784566            1 
  287000     1.136509   -7.2920326    105.89919  0.030748894  0.031773918            1 
  288000    1.1358733   -7.2608436    106.09089  0.030697595  0.031762747            5 
  289000    1.1196319   -7.3472208     105.9571  0.030552797  0.031750691            1 
  290000     1.158492    -7.283593    106.69791   0.03066032  0.031736503            3 
  291000    1.1384201   -7.3446311    106.62542  0.030534197  0.031722387            3 
  292000    1.1429906   -7.3234418    106.62237  0.030428758  0.031706904            1 
  293000    1.1440335   -7.3460886    106.91858  0.030409153  0.031690798            2 
  294000    1.1252463   -7.2711211    107.60191  0.030499406  0.031675309            1 
  295000    1.1341175   -7.2779529    107.81446  0.030456061  0.031658998            2 
  296000    1.1089227   -7.3287639    107.77255   0.03034137  0.031641548            5 
  297000    1.1319821    -7.285613    108.28894  0.030384102  0.031623654            1 
  298000    1.1612863   -7.3034894    108.63293  0.030378336  0.031606904            1 
  299000    1.1475391   -7.3182393    109.06708  0.030397738  0.031590831            2 
  300000    1.1283684   -7.3104316     109.5211  0.030422527   0.03157411            1 
  301000    1.1393394   -7.3136772    109.72624   0.03037825  0.031557359            1 
  302000    1.1321023   -7.3273544     109.3228  0.030166336  0.031540327            2 
  303000     1.131966    -7.338117    110.15695  0.030296192  0.031522584            2 
  304000    1.1603663   -7.3041369    110.63014  0.030326246  0.031505975            1 
  305000    1.1130145   -7.3402471    110.94529   0.03031292  0.031488718            3 
  306000    1.1313164   -7.2877389    111.21545  0.030287433  0.031471681            1 
  307000    1.1601525   -7.3382136    111.54735  0.030278869  0.031454113            2 
  308000    1.1489295   -7.3023106    111.59342  0.030193025  0.031436449            3 
  309000    1.1424885   -7.3325005    111.87561  0.030171416  0.031418274            5 
  310000    1.1108216   -7.3490548    111.86144  0.030070281  0.031400464            1 
  311000    1.1159414   -7.2579582    112.86001  0.030241159  0.031383019            3 
  312000     1.140303   -7.3011905    112.64917   0.03008792  0.031366123            2 
  313000    1.1479788    -7.338533    112.68098   0.03000026  0.031347747            1 
  314000    1.1412618   -7.3164635    113.20913  0.030044885  0.031329237            1 
  315000    1.1306306   -7.3108776    113.88678  0.030128778  0.031310142            1 
  316000    1.1067648   -7.3588587    113.74726  0.029996639  0.031290859            1 
  317000    1.1282211   -7.3318991    114.05078  0.029981803  0.031271135            2 
  318000     1.126331   -7.3446731    114.16252  0.029916804  0.031252161            2 
  319000     1.110587   -7.3253947    114.96326    0.0300322   0.03123388            6 
  320000      1.14091   -7.3488429    114.96651  0.029939194  0.031215416            3 
  321000    1.1309339   -7.3295795      115.154  0.029894601  0.031196694            1 
  322000    1.1655026   -7.3201519    115.43086  0.029873411  0.031177774            2 
  323000    1.1043717   -7.3105845    115.73571  0.029859574  0.031158587            1 
  324000    1.1048456   -7.3251444    116.39149  0.029936082  0.031139758            2 
  325000    1.1121602   -7.3077392    116.82862  0.029956057  0.031121524            5 
  326000    1.0950765   -7.3447697    116.82439  0.029863085  0.031103051            2 
  327000    1.1543947   -7.3377814     117.4657  0.029935192   0.03108474            3 
  328000    1.1012246   -7.3727336    117.28479  0.029797964  0.031066501            3 
  329000    1.1393923   -7.2949332    118.47177  0.030008047  0.031048286            1 
  330000    1.1099236   -7.3090441    118.43489    0.0299078  0.031030715            3 
  331000    1.1349105   -7.3792132    118.45902  0.029823519  0.031012272            2 
  332000    1.1282289   -7.3271668    118.84975  0.029831763  0.030993655            2 
  333000    1.1148864   -7.3578764    119.32343  0.029860717  0.030975284            2 
  334000    1.1307741   -7.3710166    119.17278  0.029733728  0.030955859            1 
  335000    1.1474064   -7.3530463    119.59505  0.029750013  0.030937197            1 
  336000    1.1061875   -7.3320113    120.08711   0.02978351  0.030918448            2 
  337000    1.1375741    -7.365749    120.06066   0.02968859  0.030899125            3 
  338000    1.1194626   -7.3668777    120.46384  0.029700158  0.030879178            1 
  339000    1.1357849   -7.3600474    120.46972  0.029613992  0.030859346            2 
  340000    1.1189337   -7.3564337     121.0764  0.029675589  0.030838983            1 
  341000    1.1395858   -7.3749841    120.97799  0.029564513   0.03081917            1 
  342000    1.1131643    -7.344795    121.98836  0.029724258   0.03079976            1 
  343000     1.092421   -7.3249313    122.23105  0.029696562  0.030780251            1 
  344000    1.1051116   -7.3398671    122.16983  0.029595404  0.030761572            1 
  345000    1.1323915   -7.3549913    122.43112  0.029572734  0.030742592            2 
  346000    1.0946273   -7.3400064    122.74906  0.029563839   0.03072323            2 
  347000    1.1207915   -7.3512893    123.15407  0.029575905  0.030703677            1 
  348000    1.1164488   -7.3900301    122.99584  0.029453026  0.030684319            1 
  349000    1.1062302   -7.3572909    123.73812  0.029545874  0.030664938            1 
  350000    1.1013864   -7.3636006    123.70608   0.02945383  0.030644959       -1e+20 
  351000    1.1117572    -7.356573    124.37379  0.029528441  0.030624432            1 
  352000    1.1460064   -7.3497396    124.55966  0.029488557  0.030605177            2 
  353000    1.1338728   -7.3522906    124.70261  0.029438765  0.030585143            2 
  354000    1.1164263   -7.3663641     125.1383  0.029458169  0.030566943            1 
  355000    1.1066297   -7.3286298    125.57116  0.029476799  0.030548047            1 
  356000    1.1162222   -7.3340443    125.87177  0.029464366  0.030529164            2 
  357000    1.0928855   -7.3808009    125.44975  0.029283322   0.03050884            2 
  358000    1.0952561   -7.4058338    125.73219  0.029267269    0.0304884            2 
  359000    1.1297982   -7.4121222     126.7089  0.029412465  0.030467997            2 
  360000    1.0968842   -7.3251901    127.57082  0.029530283  0.030449909            2 
  361000    1.1054981   -7.3598915    127.26303   0.02937743  0.030431722            2 
  362000    1.1090431   -7.3547533    127.55619  0.029363763  0.030412751            1 
  363000    1.0863567   -7.3744429     127.5613  0.029284045  0.030394127            2 
  364000     1.099322   -7.3940639    127.99688  0.029303316  0.030374387            2 
  365000     1.107802    -7.374927    128.21908  0.029273763  0.030354702            2 
  366000    1.1083485   -7.3508527    128.41292  0.029237914  0.030335104            2 
  367000    1.1404583   -7.3709269    128.74345  0.029233299   0.03031535            1 
  368000    1.1031232   -7.3668994    128.89796  0.029188849  0.030295389            3 
  369000     1.090422    -7.359955    129.24521  0.029188169  0.030275694            1 
  370000     1.099143   -7.3745686    129.26766  0.029114339  0.030255619            1 
  371000    1.0936304   -7.3694961    129.86995  0.029171148  0.030235751            6 
  372000     1.131637   -7.3937503    130.21626  0.029170308  0.030215264            1 
  373000    1.0942609   -7.3331972    130.21191  0.029091133   0.03019507            1 
  374000    1.1054483    -7.360859    130.96521  0.029181195  0.030175963            2 
  375000    1.1222687   -7.4079182    130.90628  0.029090285  0.030156203            2 
  376000    1.0870788   -7.4234744     131.1079  0.029057603  0.030136143            1 
  377000    1.0931234   -7.3667145    132.00601  0.029179048   0.03011741            1 
  378000    1.0884427   -7.3719117     132.1214  0.029127292  0.030099066            1 
  379000     1.116112   -7.3906364    132.32088  0.029094302  0.030080615            2 
  380000     1.122425   -7.3893872    132.93687  0.029152822  0.030062561            1 
  381000     1.105292   -7.3599974    132.87322  0.029062383  0.030045153            3 
  382000     1.082514   -7.4060897    132.63268   0.02893383  0.030026048            2 
  383000    1.0934628   -7.4096551    132.79472  0.028893543  0.030006434            2 
  384000    1.1038052   -7.3930923    133.22556  0.028911796  0.029986722            2 
  385000     1.107103   -7.3821922    133.67511  0.028934006  0.029966693            1 
  386000    1.1036389   -7.4207336    133.82185  0.028890727  0.029947042            2 
  387000    1.1054123   -7.3739462    133.95252  0.028844211  0.029927656            3 
  388000    1.1141584   -7.3693292     134.6426  0.028918083  0.029908133            2 
  389000    1.0812423   -7.4037638    134.66051  0.028847581  0.029888779            1 
  390000    1.1321443   -7.3970955    135.43476  0.028939052  0.029870027            2 
  391000    1.1119544   -7.3666518    135.60794  0.028901948  0.029850691            1 
  392000    1.1256865   -7.3718855    135.40577  0.028785241  0.029831148            3 
  393000    1.0984027   -7.4094052    135.67026  0.028768078   0.02981131            1 
  394000    1.1111627   -7.3687268    136.51978  0.028874741   0.02979167            1 
  395000     1.092715   -7.3940537     136.2641    0.0287477  0.029772195            1 
  396000    1.0882399   -7.3712643    136.97019  0.028823692   0.02975326            1 
  397000    1.0910835   -7.4018455    137.25164  0.028810168  0.029733959            2 
  398000    1.0778987   -7.3988837    137.67208  0.028825813  0.029714903            3 
  399000    1.0993213   -7.3777296    137.69551   0.02875846  0.029695867            1 
  400000    1.0939452   -7.3897253    138.03334  0.028756946  0.029677099            2 
  401000    1.1071697   -7.4528905    137.82741  0.028642438  0.029657733            6 
  402000    1.0749066   -7.4218391    138.43227  0.028696574  0.029638305            1 
  403000    1.0882556   -7.4143412    139.00046  0.028742859  0.029619777            2 
  404000    1.0936544    -7.404227    139.12085  0.028696545  0.029601996            5 
  405000    1.1084641   -7.3613055    139.30082   0.02866272  0.029583932            3 
  406000    1.0716474   -7.4462188    139.44755  0.028622239  0.029565252            2 
  407000    1.0964596   -7.4114057    140.44597  0.028756342  0.029547172            1 
  408000    1.0711579   -7.4408569    140.17619  0.028630757  0.029529199            5 
  409000    1.0918934   -7.4422909    140.36363  0.028598947  0.029511516            2 
  410000    1.0642723   -7.3843313    140.89066  0.028636312  0.029493157            1 
  411000    1.1006443   -7.3975922    141.14485  0.028618177  0.029475051            2 
  412000    1.0918175   -7.4111936     141.3909  0.028598483  0.029457282            3 
  413000    1.0780969   -7.3729586    141.65442   0.02858241   0.02943954            2 
  414000    1.0951267   -7.3949707    142.33663   0.02865069  0.029422275            2 
  415000    1.0706433   -7.4246516    142.25537  0.028565336  0.029405297            1 
  416000    1.0790881   -7.4799479    142.61501  0.028568711  0.029387941            6 
  417000    1.0779321   -7.4644211    142.94456  0.028566059  0.029370504            2 
  418000    1.0921687   -7.4201425     143.4858  0.028605622  0.029352745            3 
  419000    1.0937748   -7.4193592    143.61209  0.028562468  0.029335422            2 
  420000    1.0887955   -7.3980464    143.88914  0.028549433  0.029317206            2 
  421000    1.0847891   -7.3944182    143.76688  0.028457419  0.029300089            1 
  422000     1.053425   -7.4425997    144.27195  0.028489722  0.029282401            2 
  423000    1.0873258   -7.4090212    144.09486  0.028387483  0.029264791            2 
  424000    1.0806786   -7.4567124    144.98318  0.028495121   0.02924751            2 
  425000    1.0913996   -7.4234901    145.39482  0.028508788  0.029230627            3 
  426000    1.0743663   -7.4297645    145.39753  0.028442397  0.029213598            1 
  427000    1.0927534   -7.4477208    145.81286  0.028456842  0.029196432            1 
  428000    1.0897878   -7.4242768     145.9283  0.028412831   0.02917894            6 
  429000    1.0850869   -7.4166551    146.41837  0.028441797  0.029161178            1 
  430000     1.081376   -7.4122285    146.45747   0.02838323  0.029143624            3 
  431000    1.0884276    -7.430648    146.69719  0.028363725  0.029126096            1 
  432000      1.07046   -7.4207006    147.02838  0.028361957  0.029108364            2 
  433000    1.0805593   -7.4344522    147.10253  0.028310725  0.029090702            1 
  434000    1.0713141   -7.4212162    147.67032  0.028354517  0.029073144            2 
  435000    1.0998011   -7.4046438    148.06478    0.0283649  0.029056033            1 
  436000    1.0556408   -7.4616895    148.23587  0.028332544   0.02903877            3 
  437000    1.0763227   -7.4480192    148.42407  0.028303599  0.029021662            1 
  438000    1.0888832   -7.4203359    149.00249  0.028349028  0.029004335            1 
  439000    1.0824672   -7.4555439    148.76526   0.02823942  0.028987318            2 
  440000    1.1040186   -7.4564569    149.06729  0.028232441  0.028970052            2 
  441000    1.0560802   -7.4489866    149.11731  0.028177874  0.028952928            3 
  442000    1.0878911    -7.468448    148.94455  0.028081551  0.028935004            6 
  443000    1.0850735   -7.4164486    150.08724  0.028233115  0.028917813            3 
  444000    1.0571196   -7.4364842    150.38379  0.028225187  0.028900611            1 
  445000    1.0861331   -7.4295122    150.36523  0.028158283  0.028883443            3 
  446000    1.0825085    -7.412839    151.00727   0.02821511   0.02886645            3 
  447000    1.0662835   -7.4649735    150.65515  0.028086344  0.028849864            1 
  448000    1.0831991   -7.4473642       150.99  0.028085937  0.028832772            2 
  449000    1.0790541   -7.4787323    151.40487  0.028100384  0.028815075            1 
  450000    1.0797341   -7.4423242     151.5293  0.028060982  0.028797035            1 
  451000    1.0556775   -7.4496038    151.80721  0.028050112  0.028779516            1 
  452000    1.0426043   -7.4790252    151.70227  0.027968707  0.028761076            2 
  453000     1.065518   -7.4509753    151.66781  0.027900628  0.028742208            4 
  454000    1.0714371   -7.4636565    152.05602  0.027910429  0.028723779            1 
  455000    1.0811796   -7.4863541     152.2944  0.027892748  0.028704897            3 
  456000    1.0618009   -7.4607863    152.47236  0.027864101  0.028685591            1 
  457000    1.0817328   -7.5023186    152.37575  0.027785513  0.028666133            3 
  458000    1.0632429   -7.4710873    152.86535  0.027813928  0.028646855            1 
  459000    1.0675476   -7.5068122    152.95243  0.027769142   0.02862756            1 
  460000    1.0699343   -7.4700447    153.07608  0.027731174  0.028607801            1 
  461000    1.0912009   -7.4626372    153.45319  0.027739189  0.028588357            1 
  462000    1.0739812   -7.4186412    153.61469  0.027708278  0.028568304            1 
  463000    1.0509409   -7.4513003    153.96083  0.027710732  0.028548543            1 
  464000    1.0747999   -7.4580352    154.16024  0.027686824  0.028528472            2 
  465000    1.0807037   -7.4643124    154.06916  0.027610961  0.028508055            2 
  466000    1.0753018   -7.4746637    154.56866  0.027641034  0.028488472            1 
  467000    1.0532448   -7.4398821    155.45294  0.027739639  0.028468417            1 
  468000    1.0734776   -7.4229801     155.0693  0.027612055  0.028448565            2 
  469000    1.0763025   -7.4654899    154.91863  0.027526409  0.028428062            1 
  470000    1.0847401   -7.4420893    155.26655   0.02752953  0.028407317            2 
  471000    1.0638049   -7.4846233    155.28532  0.027474403  0.028386295            1 
  472000    1.0471705   -7.4805018    155.36883  0.027430938   0.02836555            1 
  473000    1.0707573   -7.4415986    155.86927  0.027461112  0.028344412            2 
  474000    1.0561561   -7.5025349    155.60826  0.027357288   0.02832271            5 
  475000    1.0826177   -7.4578227    156.04874  0.027376971  0.028301124            3 
  476000    1.0720673   -7.4434992    155.89023  0.027291707  0.028279419            1 
  477000    1.0501225   -7.4746549    155.40401  0.027149548  0.028257436            2 
  478000    1.0663986   -7.4617021    156.44435   0.02727412  0.028235536            1 
  479000     1.082653   -7.5152534    156.81719  0.027282044  0.028213709            1 
  480000    1.0510815   -7.4494083    157.28622  0.027306635  0.028192133            1 
  481000    1.0680561   -7.4729167    157.56967  0.027298972  0.028171105            1 
  482000    1.0455849   -7.4793262    157.21133  0.027180382  0.028149738            2 
  483000    1.0701691   -7.4697743    157.65369   0.02720043  0.028128375            2 
  484000    1.0585951   -7.4940252    158.34933  0.027264002  0.028106377            1 
  485000    1.0704753   -7.4840885    158.00943  0.027149387   0.02808474            2 
  486000    1.0550288   -7.5044395    157.95745  0.027084611  0.028063239            2 
  487000    1.0581201    -7.488803    157.84831  0.027010319  0.028041152            1 
  488000    1.0393545   -7.4969517    157.87904  0.026960218  0.028018555            1 
  489000    1.0570462   -7.4909238    158.33803  0.026983304  0.027995986            1 
  490000    1.0715799   -7.4762716    159.04069  0.027047737  0.027973489            1 
  491000    1.0582511   -7.5085214    158.69344  0.026933713  0.027951085            1 
  492000    1.0609146   -7.4775688    159.52185  0.027019283  0.027928678            1 
  493000    1.0496476   -7.4952055    158.76542  0.026836616  0.027906264            2 
  494000    1.0844204    -7.524287    159.08331  0.026835916  0.027883234            1 
  495000    1.0662226   -7.4700341    159.35858  0.026828044  0.027860074            1 
  496000    1.0562003   -7.4964505    159.72842  0.026836092  0.027837144            1 
  497000    1.0481355   -7.5003612    159.95648  0.026820335  0.027813978            5 
  498000    1.0395336   -7.4976366    160.06214  0.026784161  0.027790898            2 
  499000    1.0570218   -7.5024058    159.98951  0.026718355  0.027768115            1 
  500000    1.0404716   -7.5154817     160.2395  0.026706583  0.027744817            1 
  501000    1.0508227    -7.434108    161.07931  0.026792965   0.02772219            1 
  502000    1.0576163   -7.5095625    160.74607  0.026684274  0.027700074            3 
  503000    1.0664102   -7.4812545    161.63977  0.026779286  0.027677795            1 
  504000    1.0248113   -7.4795531    161.62112  0.026723069  0.027655573            2 
  505000    1.0690544   -7.4986962    161.37133  0.026628932  0.027632893            2 
  506000    1.0541097   -7.5096691    161.85363  0.026655736  0.027610191            1 
  507000    1.0737281   -7.4928149     162.2474  0.026667884  0.027587706            1 
  508000     1.059635   -7.4839895     162.3878  0.026638419  0.027565222            1 
  509000    1.0405946   -7.4910135    163.12865  0.026707375   0.02754306            1 
  510000     1.068159   -7.5536502    162.69723  0.026584515  0.027521053            3 
  511000    1.0573903   -7.5321243    162.96358  0.026575926  0.027499019            2 
  512000    1.0665751   -7.5130541    163.21071  0.026564243  0.027477291            2 
  513000    1.0594517   -7.4956678      163.936  0.026630279  0.027455142            1 
  514000    1.0516117   -7.5028405    163.98004  0.026585609  0.027433438            5 
  515000    1.0579426   -7.5181458    164.27251  0.026581313  0.027411403            1 
  516000     1.057742   -7.5458864    163.61893  0.026424246  0.027389215            2 
  517000    1.0506895   -7.4912509    164.44442  0.026506193  0.027367216            2 
  518000    1.0458655   -7.5054722    164.71767  0.026498982  0.027345316            1 
  519000    1.0465605   -7.5092241     164.7818  0.026458221  0.027323565            2 
  520000    1.0329027   -7.5105732    165.22256  0.026477975  0.027302179            2 
  521000    1.0483354   -7.5133799     165.0743  0.026403439  0.027280593            1 
  522000    1.0422744   -7.5530705    164.78647  0.026306908   0.02725843            2 
  523000    1.0383322     -7.53756    165.40135   0.02635458   0.02723604            2 
  524000    1.0286161   -7.5432436     165.5394  0.026326241  0.027213851            2 
  525000    1.0659887   -7.5297748    165.74915  0.026309389  0.027191428            4 
  526000     1.052606   -7.5062527    166.11097  0.026316694  0.027169781            1 
  527000    1.0344178    -7.519565    166.50788   0.02632952  0.027147663            1 
  528000    1.0460597   -7.5231349    167.24351  0.026395756   0.02712608            6 
  529000    1.0368444   -7.5044864    167.23273  0.026344161   0.02710501            1 
  530000    1.0667334    -7.515745    167.48393  0.026333951  0.027083895            1 
  531000    1.0630143   -7.5129161    167.61411  0.026304788  0.027062864            2 
  532000     1.067776   -7.4890577    167.42874  0.026226306  0.027041726            2 
  533000     1.053746   -7.5581147    167.95947   0.02626008   0.02702034            3 
  534000    1.0207291   -7.5060939    167.55445  0.026147698  0.026998392            1 
  535000    1.0327432   -7.5296904    167.94343  0.026159413  0.026976712            1 
  536000    1.0557051   -7.4922067    168.27742  0.026162534  0.026955177            2 
  537000     1.038954   -7.5128043    168.40145  0.026133062  0.026933737            1 
  538000    1.0278804   -7.5382387    168.55561  0.026108366  0.026912243            2 
  539000    1.0466852    -7.514704    168.55101  0.026059216  0.026890644            3 
  540000    1.0288435   -7.5551393    168.49422  0.026002195   0.02686916            1 
  541000    1.0363776   -7.5076201    169.11583  0.026049881  0.026847348            2 
  542000     1.041055   -7.5042406    169.44029  0.026051705  0.026826033            1 
  543000    1.0231214   -7.5385686    169.28809   0.02598037  0.026804473            2 
  544000    1.0388663   -7.5416065    169.49579  0.025964428   0.02678245            2 
  545000    1.0646929   -7.5097587     169.9818  0.025991102  0.026760188            1 
  546000    1.0336082    -7.548972    169.70894  0.025901853   0.02673811            1 
  547000    1.0093794   -7.5472739    170.12901  0.025918496  0.026716305            2 
  548000    1.0339614   -7.4855205    170.89411  0.025987547  0.026694503            2 
  549000     1.035429   -7.5371888    170.64956   0.02590309  0.026673064            1 
  550000     1.033228   -7.5626284    170.91847  0.025896738  0.026651578            1 
  551000    1.0323988   -7.5386257    171.36872  0.025917834  0.026629743            2 
  552000    1.0486767   -7.5595689    170.81707  0.025787602  0.026608164            2 
  553000    1.0152711    -7.553314    171.44368  0.025835395  0.026586875            2 
  554000    1.0318669   -7.5377298    172.46454  0.025942319  0.026566009            1 
  555000    1.0564224   -7.5865915     171.8214   0.02579901  0.026544828            3 
  556000    1.0352503    -7.522453    171.92938  0.025768792  0.026523626            2 
  557000    1.0433619   -7.5829819    172.26837  0.025773245  0.026502578            3 
  558000    1.0405652   -7.5255059     172.7212  0.025794684  0.026481849            2 
  559000    1.0053593   -7.5549888    173.02423  0.025793714  0.026461232            1 
  560000    1.0547663   -7.5504555    172.82722  0.025718337  0.026440003            1 
  561000    1.0314456   -7.5671515    173.22948  0.025732246  0.026419162            6 
  562000    1.0093645   -7.5494507    173.73433  0.025761318  0.026398509            2 
  563000    1.0375418   -7.5558675    173.81783  0.025727921   0.02637792            2 
  564000    1.0282107   -7.5792629    173.80307  0.025680122   0.02635747            2 
  565000    1.0034633   -7.5509561    174.37249  0.025718656  0.026337207            2 
  566000    1.0316974   -7.5377073     174.4911   0.02569068  0.026317156            1 
  567000    1.0346687    -7.593904    174.74458  0.025682625  0.026297232            3 
  568000    1.0216317   -7.5386923    174.69915  0.025630744  0.026276982            2 
  569000    1.0229365   -7.6080131    174.36438   0.02553667  0.026256638            2 
  570000    1.0381203   -7.5903128    175.07011  0.025595045  0.026236143            1 
  571000    1.0464518     -7.56754    175.19535  0.025568499  0.026215647            1 
  572000    1.0088118   -7.5847384    175.02539  0.025499037  0.026194505            2 
  573000    1.0142244   -7.5155503    175.85124  0.025574643  0.026173887            2 
  574000     1.010068   -7.5936771    175.35516  0.025458066  0.026153019            1 
  575000    1.0139857   -7.5884054    174.90325  0.025348297  0.026131691            1 
  576000     1.017668    -7.547262    176.15378  0.025485211  0.026110608            3 
  577000    1.0230561   -7.5909749    175.59672  0.025360589  0.026089448            1 
  578000    1.0477233   -7.5711902    175.65806  0.025325556  0.026067925            1 
  579000    1.0263168   -7.5712086    175.70082  0.025287971   0.02604651            8 
  580000      1.02036   -7.5771933    176.07103  0.025297562  0.026025521            1 
  581000   0.98880517   -7.5739004    176.74545  0.025350753  0.026004415            2 
  582000   0.99567375   -7.5790377    176.38396  0.025255435  0.025983273            2 
  583000    1.0285269   -7.5613704    176.77155  0.025267517  0.025962285            1 
  584000   0.99525434   -7.5746321    176.98544  0.025254772  0.025941281            2 
  585000    1.0221881   -7.5998111    177.38039  0.025267862  0.025920264            2 
  586000    1.0339525   -7.6206607    176.97376  0.025166917  0.025899433            1 
  587000    1.0190028   -7.6288937    177.00433  0.025128383  0.025878013            1 
  588000    1.0076843   -7.6332269    177.41206  0.025143432  0.025856698            2 
  589000    1.0243754   -7.5568619    177.95858  0.025178068  0.025835405            2 
  590000    1.0118055   -7.5810619    178.47439  0.025208247  0.025814686            4 
  591000    1.0102428   -7.5738806    178.97748  0.025236532  0.025794122            2 
  592000    1.0149744    -7.600846     179.0801  0.025208347  0.025773849            2 
  593000    1.0179905   -7.5617632    179.43759  0.025216075  0.025754123            1 
  594000    1.0196694   -7.5922764    179.51258  0.025184145  0.025734663            2 
  595000   0.99522736   -7.5845146    179.49198  0.025138932  0.025715023            2 
  596000    1.0129381    -7.601298    180.70701   0.02526664  0.025695409            3 
  597000    1.0195493   -7.6176229    180.11331  0.025141444  0.025676066            2 
  598000    1.0269491   -7.5826219     180.6869  0.025179333  0.025657109            2 
  599000    1.0067866    -7.564035    181.41735   0.02523892  0.025638732            1 
  600000   0.99737508   -7.5971779    180.99098  0.025137636  0.025620439            1 
  601000    1.0127681   -7.5908436     181.6423  0.025186121  0.025602059            2 
  602000    1.0287817   -7.5680696    182.17421  0.025217914  0.025583799            2 
  603000    1.0123592   -7.5986883    182.08051  0.025163143  0.025565305            2 
  604000    1.0113195   -7.6113342    181.92452  0.025099961  0.025546915            2 
  605000    1.0236374   -7.6105467    182.21295  0.025098202   0.02552878            2 
  606000    1.0115022   -7.5946111    182.82562  0.025141037  0.025510867            1 
  607000    1.0271402   -7.6144873    182.63408  0.025073322  0.025492662            2 
  608000    1.0103369   -7.6219718    183.08351  0.025093682  0.025474344            2 
  609000    1.0086948   -7.6245136    183.07445  0.025051238  0.025455803            3 
  610000     1.006108    -7.611113    183.32438  0.025044314  0.025437648            1 
  611000     1.004004   -7.5703439    182.97214  0.024955284  0.025419367            1 
  612000    1.0346936    -7.601684    183.85669  0.025034952  0.025400887            2 
  613000     1.001184   -7.6127505    183.49485  0.024944923  0.025382183            1 
  614000    1.0355711   -7.6142032    184.14505  0.024992542  0.025363596            2 
  615000    1.0094734   -7.6168721    184.44199   0.02499214  0.025344832            4 
  616000    1.0308833   -7.5867463    184.21369  0.024920684  0.025326183            1 
  617000    1.0174817   -7.6159621    184.67569  0.024942692  0.025308067            1 
  618000    1.0194287   -7.6081129    185.12235  0.024962561  0.025289818            2 
  619000   0.99700391   -7.6048099    184.98935  0.024904328  0.025271716            1 
  620000    1.0198155   -7.6168534     185.0639   0.02487418  0.025253531            1 
  621000    1.0376135   -7.6191611    185.40262  0.024879579  0.025235427            1 
  622000    1.0016573   -7.6033354    185.92577  0.024909669   0.02521717            2 
  623000      1.02395   -7.6204035    185.45221  0.024806342  0.025199219            5 
  624000   0.99762491   -7.6311232    185.43028  0.024763659  0.025180853            4 
  625000   0.99817884   -7.6103762    185.98506  0.024798008   0.02516231            2 
  626000   0.99280222   -7.6395422    185.99933  0.024760294   0.02514364            2 
  627000    1.0363192   -7.6219154    186.66243  0.024808936  0.025125048            1 
  628000    1.0105685   -7.6435832    185.74774  0.024648055  0.025106646            4 
  629000    1.0279122   -7.6282729    186.94484  0.024767467  0.025088012            3 
  630000   0.98120225   -7.6384934    186.24736  0.024635894  0.025069369            2 
  631000    1.0037139   -7.6332279    186.17743  0.024587617  0.025050901            1 
  632000    1.0089418   -7.6219121    187.45049  0.024716573  0.025032482            1 
  633000   0.98800515   -7.6236019     187.3164  0.024659874  0.025013879            2 
  634000    1.0086729   -7.6060952     187.0627  0.024587632  0.024995549            7 
  635000   0.98510478   -7.5922352    187.90734  0.024659755  0.024977217            2 
  636000    1.0052038   -7.6348272    187.29818  0.024541166  0.024958789            1 
  637000   0.98520741   -7.6248844    187.87767   0.02457845   0.02494043            1 
  638000    1.0006555   -7.6397683    188.45395  0.024615198  0.024922044            1 
  639000    0.9812998   -7.6178443    188.76733  0.024617545  0.024903901            2 
  640000    1.0041029   -7.6343616    188.30014  0.024518247  0.024885215            1 
  641000   0.98650119   -7.6125595    188.89193  0.024556933  0.024866744            1 
  642000   0.98119213   -7.6209188     188.1735  0.024425428  0.024848242            1 
  643000   0.99643532   -7.6567352    188.02981   0.02436882  0.024829327            1 
  644000    1.0094379   -7.6482422    188.17358  0.024349584  0.024810109            1 
  645000    1.0018839   -7.5950709    189.18141  0.024442042  0.024791219            2 
  646000    1.0132879   -7.6325578    189.13412  0.024398106  0.024772344            3 
  647000    1.0006908    -7.650138    188.51081  0.024280115  0.024753175            2 
  648000   0.98690104   -7.6372854    189.38487   0.02435505  0.024734133            6 
  649000    1.0090995   -7.6588205    189.49979  0.024332279  0.024715295            2 
  650000    1.0024398   -7.6350599    189.95285  0.024352929  0.024696436            2 
  651000   0.97669702   -7.6354377    189.70485  0.024283774  0.024677757            3 
  652000   0.97675335   -7.6426253    189.90816  0.024272515  0.024659173            2 
  653000   0.99027657   -7.6261557    190.61247  0.024325226   0.02464077            2 
  654000   0.98206822    -7.629341    190.72021  0.024301759  0.024622697            2 
  655000   0.97066308   -7.6420471    191.20567  0.024326422  0.024604553            2 
  656000   0.99079955   -7.6219125    190.59129  0.024211292  0.024585958            1 
  657000    1.0046927   -7.6685293    190.52667  0.024166245  0.024566987            5 
  658000   0.98026249   -7.6661074    190.60586  0.024139547   0.02454824            2 
  659000    1.0039478   -7.6830816    190.20953  0.024052799  0.024529397            2 
  660000   0.99534842   -7.6570298    191.57085  0.024188239  0.024510755            6 
  661000   0.98988537   -7.6265939    191.53043   0.02414655  0.024492438            2 
  662000   0.99026922   -7.6788891    191.00952  0.024044502  0.024473868            3 
  663000   0.98295973   -7.6482853    191.98017  0.024130237   0.02445542            1 
  664000   0.98059565   -7.6526126    191.96939  0.024092544  0.024437076            1 
  665000   0.98145069   -7.6151612    192.16031  0.024080239   0.02441867            1 
  666000   0.98603682   -7.6203761    192.50579  0.024087312  0.024400108            2 
  667000   0.99623139   -7.6444176      192.069  0.023996626  0.024381475            1 
  668000    1.0218424   -7.6305466    192.54814  0.024020477  0.024362913            1 
  669000   0.97680529   -7.6644217    192.78908  0.024014584  0.024344302            2 
  670000   0.97038453   -7.6976922    192.57429  0.023952026  0.024325767            2 
  671000   0.98853315   -7.6659013    192.82453  0.023947408  0.024306998            2 
  672000    0.9733495   -7.7121137    192.68929  0.023895001  0.024288111            1 
  673000   0.98546489   -7.6643988    192.83821  0.023877936  0.024269095            2 
  674000   0.97936518   -7.6683284    193.29338  0.023898786  0.024249965            3 
  675000   0.97039047   -7.7027325    193.60109  0.023901369  0.024231178            6 
  676000    0.9664424   -7.6039401    194.21223   0.02394135  0.024212664            3 
  677000   0.98203382   -7.7043248    193.56813  0.023826703  0.024194359            2 
  678000   0.97507493   -7.6757496    193.73698  0.023812313  0.024175671            3 
  679000   0.99956991   -7.6708655    194.02633  0.023812755  0.024157277            3 
  680000   0.98527134   -7.6779592    194.44655  0.023829234  0.024138755            5 
  681000   0.98486557   -7.6571327    194.39976  0.023788517  0.024120107            2 
  682000   0.97530823   -7.6900602    194.18757  0.023727709  0.024101476            1 
  683000   0.98358701   -7.7128555    193.94888  0.023663846  0.024082861            1 
  684000   0.97206237    -7.684869    194.52124  0.023698981  0.024064342            3 
  685000   0.98954898   -7.6474853    195.26732  0.023755149  0.024045961            2 
  686000   0.99566358   -7.7182188    193.98128  0.023564295   0.02402759            1 
  687000   0.96414614   -7.7076329    195.00201   0.02365381  0.024009154            2 
  688000   0.96650153   -7.6804565    195.58256  0.023689748  0.023990675            1 
  689000   0.98095453   -7.6959028    194.85711  0.023567624  0.023972487            1 
  690000   0.97381153   -7.6601072       195.49  0.023609903  0.023954063            1 
  691000   0.98292775   -7.6485562    196.26461  0.023669153  0.023935988            1 
  692000   0.98462567    -7.653658    196.63592  0.023679662  0.023918102            2 
  693000   0.97166176    -7.651463    196.50817  0.023630132  0.023900286            2 
  694000   0.97444838   -7.6918345    197.11702  0.023669191  0.023882618            3 
  695000     0.967502   -7.6699227    197.22253  0.023647786  0.023865078            2 
  696000   0.96053458     -7.68775    197.17694   0.02360835  0.023847501            1 
  697000   0.98602031   -7.6728555    196.82443  0.023532332  0.023829728            2 
  698000   0.96861785   -7.6959038     197.0846   0.02352968  0.023812119            2 
  699000   0.97615107   -7.7040879    197.85401  0.023587746  0.023794494            1 
  700000   0.97263973   -7.6758957    197.97832  0.023568847   0.02377679            3 
  701000   0.97345404   -7.7032967    198.04452  0.023543096  0.023759297            1 
  702000   0.96421271   -7.6806758    198.49062  0.023562514  0.023741872            1 
  703000   0.98956256   -7.7244969    198.73125  0.023557521  0.023724756            3 
  704000   0.95403308   -7.6942468    198.93236  0.023547864  0.023707688            2 
  705000   0.99492148   -7.7145243    199.38002  0.023567378   0.02369082            1 
  706000   0.95827583   -7.6883801    199.51915  0.023550419  0.023674155            1 
  707000   0.96214961   -7.7058209     199.8655  0.023557933  0.023657608            2 
  708000   0.96593193   -7.6618031    199.71867  0.023507377  0.023640979            2 
  709000   0.95851722    -7.699978    199.47859  0.023446003  0.023624126            1 
  710000   0.96874207   -7.7180848    199.59298  0.023426407  0.023607169            4 
  711000   0.98267975   -7.7259037    200.10749  0.023453762  0.023590246            1 
  712000   0.97142587   -7.7159095    200.17829  0.023429107  0.023573378            3 
  713000    0.9448809   -7.7327441    200.57505   0.02344262  0.023556645            2 
  714000   0.95454469   -7.6979091    200.66585  0.023420383  0.023540011            2 
  715000   0.96416688   -7.7423957    200.61839  0.023382097  0.023523338            2 
  716000   0.97349071   -7.6939629    201.49122  0.023451027  0.023506655            1 
  717000   0.94991885   -7.7371152    201.33228  0.023399846  0.023490264            1 
  718000   0.97183638   -7.7164268    201.79524  0.023420989  0.023473999            2 
  719000   0.98110931   -7.7530088    201.13052  0.023311372  0.023457662            2 
  720000   0.96933638    -7.747492    201.81109  0.023357765  0.023441451            2 
  721000   0.96630337   -7.7298437    202.49174  0.023404038  0.023425145            3 
  722000   0.98266807   -7.7163487    202.32651  0.023352552  0.023408892            2 
  723000   0.95782814   -7.7242536    202.27745  0.023314598   0.02339249            1 
  724000   0.95250197   -7.7196373    203.05715   0.02337214  0.023376425            1 
  725000    0.9823133   -7.6927841    203.70166  0.023413984  0.023360418            2 
  726000   0.96803854   -7.7046801    203.53324  0.023362402  0.023344716            3 
  727000   0.96465989   -7.7272329     203.4132  0.023316506  0.023328932            1 
  728000   0.94872858   -7.7517442    203.27262  0.023268386  0.023313189            2 
  729000   0.96219266   -7.6969022    203.74351  0.023290296   0.02329725            5 
  730000   0.96460107   -7.7278298    203.78599  0.023263241  0.023281238            3 
  731000   0.96929656   -7.7660625    203.53922  0.023203286  0.023265384            2 
  732000   0.97557874   -7.7219251    204.70353  0.023304135  0.023249566            1 
  733000   0.96127044   -7.7224194    204.54709  0.023254558   0.02323373            1 
  734000   0.95315659   -7.7195594    204.92965  0.023266309  0.023217965            2 
  735000   0.96863824   -7.7073496    204.91729  0.023233252  0.023202437            2 
  736000    0.9614812   -7.7133312    205.49202   0.02326676  0.023187189            1 
  737000   0.96781386   -7.7667434    205.10681  0.023191634  0.023171937            2 
  738000   0.94945347   -7.7485677    205.55533  0.023210855  0.023156515            1 
  739000   0.97417809   -7.7317671    205.67968  0.023193468  0.023141082            1 
  740000   0.97192091   -7.7465053    205.37572  0.023127897  0.023125663            2 
  741000   0.97677809   -7.7312559     205.7708  0.023141116   0.02311027            2 
  742000    1.0026146   -7.7427927    206.40861   0.02318156  0.023095153            1 
  743000   0.96122798   -7.7674952    206.12867  0.023118963  0.023079915            2 
  744000   0.98995762   -7.7309328    206.04521   0.02307854   0.02306484            3 
  745000   0.95858627   -7.7155693    207.63182  0.023225035  0.023049918            2 
  746000   0.93898049   -7.7198081     207.0922  0.023133624  0.023035094            2 
  747000   0.95148134    -7.735572    207.16116  0.023110348  0.023020227            1 
  748000   0.94669835   -7.7286483    207.95338  0.023167712  0.023005556            2 
  749000   0.95910575   -7.7531569    208.29237  0.023174496  0.022990736            5 
  750000   0.95412801   -7.7478675    207.74457   0.02308273  0.022976006            1 
  751000   0.93735675   -7.7828176     207.9012  0.023069375  0.022961278            1 
  752000   0.94541193   -7.7661099    208.39913  0.023093876  0.022946448            3 
  753000   0.96515305   -7.7394771    208.24359  0.023045993   0.02293179            1 
  754000   0.95121507   -7.7659864    208.39264  0.023031901  0.022917076            2 
  755000   0.97396807   -7.7443079    208.67812  0.023032905  0.022902457            4 
  756000   0.95358295    -7.792013    208.55189  0.022988524  0.022887831            1 
  757000   0.96184495   -7.7345267      208.893  0.022995706  0.022873451            1 
  758000   0.96920566   -7.7615454     208.5926  0.022932343  0.022858944            3 
  759000   0.95564903   -7.7733946    208.81804  0.022926882  0.022844319            4 
  760000    0.9396562   -7.7303638     209.1091  0.022928629  0.022829633            2 
  761000    0.9449843   -7.7512741    209.47098  0.022938128  0.022815034            1 
  762000   0.95773463   -7.7467405    209.35112  0.022894917  0.022800189            7 
  763000   0.96419991   -7.7847598    209.18848  0.022847147  0.022785329            2 
  764000   0.97680854   -7.7446714    210.11735  0.022918559  0.022770849            3 
  765000   0.93778383   -7.7582743    209.28139  0.022797537  0.022756036            2 
  766000     0.929009   -7.7534852    209.89183  0.022834185  0.022741155            2 
  767000   0.93600744   -7.7561039    210.24272  0.022842538  0.022726333            2 
  768000   0.93650046   -7.7269231     211.1954  0.022916168  0.022711819            1 
  769000   0.94843461   -7.7414107    210.57356  0.022818981  0.022697346            2 
  770000   0.95447229   -7.7778546    210.96341  0.022831538  0.022682853            2 
  771000   0.93883553   -7.7748624    211.19874   0.02282736   0.02266844            1 
  772000   0.96995021   -7.7538163    211.13394  0.022790796  0.022654053            2 
  773000   0.96029917   -7.7947391     211.1172  0.022759509  0.022639473            3 
  774000   0.93645743   -7.7563462     211.0229   0.02271995  0.022624518            1 
  775000   0.92590078   -7.7809293    210.78329  0.022664869   0.02260967            1 
  776000   0.95226395   -7.7563667    211.51586  0.022714332  0.022594896            1 
  777000   0.94971192   -7.7408002    211.55063  0.022688827  0.022580319            1 
  778000   0.95685291   -7.7934081    211.91323  0.022698503  0.022565861            3 
  779000   0.95936108   -7.7493206    212.37456  0.022718716  0.022551319            2 
  780000   0.94967663   -7.7852246    212.07579   0.02265767  0.022536724            3 
  781000   0.95248984   -7.7677033    211.79252  0.022598434  0.022522211            2 
  782000   0.93394631    -7.758609    212.38685  0.022632869  0.022507515            2 
  783000   0.94217082   -7.7870648    212.98449   0.02266757  0.022492953            1 
  784000   0.94731273   -7.7963771    212.69856  0.022608265  0.022478032            2 
  785000   0.96039756   -7.7664447    212.82128  0.022592492  0.022463213            2 
  786000   0.93649252    -7.800896    212.67417  0.022548152  0.022448285            4 
  787000   0.93014879   -7.7485322    213.20572  0.022575786  0.022433337            2 
  788000   0.96088608   -7.7730485    213.10273  0.022536244  0.022418573            4 
  789000   0.94981704   -7.7819531    213.36281  0.022535151   0.02240375            2 
  790000   0.93792744   -7.8042268     212.8721  0.022454862  0.022388962            1 
  791000   0.94368487   -7.7771657      213.757  0.022519701  0.022374041            3 
  792000   0.94627568   -7.8190546    213.10953   0.02242314  0.022358818            1 
  793000   0.94931849   -7.7697156    214.22071  0.022511634   0.02234375            1 
  794000   0.93435217   -7.7845357    213.39588  0.022396713  0.022328577            1 
  795000   0.93926816   -7.8180342    213.31001   0.02235954  0.022313299            1 
  796000   0.93992229   -7.7921736    213.68201  0.022370394  0.022297966            3 
  797000   0.95801519   -7.7859372    213.74461  0.022348872  0.022282675            2 
  798000   0.94405053   -7.7828501    213.44175  0.022289239  0.022267425            2 
  799000   0.93809542   -7.8253818    214.30516  0.022351393  0.022252078            2 
  800000   0.95054843   -7.8293555    213.48419  0.022237937   0.02223693            2 
  801000   0.95855555    -7.787083    214.67887  0.022334464  0.022221711            2 
  802000   0.92938162    -7.757034    214.46923  0.022284832  0.022206636            1 
  803000   0.95208317   -7.8341921    214.30444  0.022239979  0.022191326            2 
  804000   0.93434512   -7.8203456    214.33308  0.022215286  0.022175974            2 
  805000   0.92671377   -7.7991379    214.37571  0.022192103  0.022160597            2 
  806000   0.94526326    -7.802239    214.69472  0.022197552  0.022145287            2 
  807000   0.92024853   -7.8289581     215.0254  0.022204192  0.022129998            1 
  808000   0.91949444   -7.8255946    215.01654  0.022175798   0.02211483            1 
  809000   0.93995833   -7.8059696    215.31542  0.022179174  0.022099503            2 
  810000   0.93014739    -7.808589    214.88934  0.022107957   0.02208412            2 
  811000   0.95434607   -7.7942567    215.91547  0.022186136     0.022069            2 
  812000   0.93024977   -7.7739493     216.1812  0.022186083  0.022054065            1 
  813000   0.93115348   -7.8009574    215.28047  0.022066469  0.022039032            4 
  814000   0.90433657   -7.8254579    215.78614  0.022091128  0.022023935            3 
  815000   0.93852828   -7.8265182    215.96755  0.022082572   0.02200862            1 
  816000   0.92097606   -7.7834966    216.03358  0.022062253  0.021993261            2 
  817000   0.94180168   -7.8120793    216.63817  0.022096916  0.021977669            1 
  818000   0.91903469   -7.8534319    215.05944  0.021909071  0.021962146            1 
  819000    0.9305553   -7.8468536    215.34322  0.021911195  0.021946566            2 
  820000    0.9447927   -7.8158574     215.4087  0.021891129  0.021930843            3 
  821000   0.90740727    -7.846635    215.58085  0.021881938  0.021914919           10 
  822000   0.93373485   -7.8518276    215.42479  0.021839496  0.021899104            1 
  823000   0.91272045   -7.8379299    215.93213  0.021864331  0.021883191            1 
  824000    0.9176568   -7.8010064    215.97705  0.021842339  0.021867451            3 
  825000   0.93089896   -7.8257348    215.89591  0.021807668    0.0218517            3 
  826000   0.94687559   -7.8333967    216.40556  0.021832684  0.021835904            2 
  827000   0.91698406   -7.8216649    216.57742  0.021823602  0.021820199            2 
  828000   0.91792363    -7.803003    216.83407  0.021823075  0.021804647            2 
  829000   0.93277507   -7.7973254    216.30793  0.021743861  0.021788761            2 
  830000     0.933073    -7.797447    216.89725  0.021776833  0.021772812            6 
  831000    0.9242352   -7.8060222    216.68748  0.021729591  0.021756966            5 
  832000   0.91579653   -7.8162917     217.2071  0.021755518  0.021741116            1 
  833000    0.9515437   -7.8312728    216.98517    0.0217072  0.021725174            3 
  834000   0.91750674   -7.8100365    217.62832  0.021745436  0.021709383            2 
  835000    0.9236778   -7.8237221    218.14326  0.021770784  0.021693694            2 
  836000   0.92283075   -7.8135496     218.1673  0.021747139  0.021678182            3 
  837000   0.92341522   -7.7972966     217.7064  0.021675269  0.021662678            2 
  838000   0.93623895   -7.8245154    217.97594  0.021676208   0.02164688            4 
  839000    0.9167218   -7.8690192    217.58122  0.021611166  0.021631087            2 
  840000   0.92123427   -7.8424286    218.10436  0.021637338  0.021615368            2 
  841000   0.89568573   -7.8707318    217.97567  0.021598858  0.021599602            1 
  842000   0.90044269   -7.8223811    218.64075  0.021639029  0.021583905            5 
  843000   0.92421605   -7.8179415    218.60242  0.021609571  0.021568355            2 
  844000   0.91872306   -7.8313749    219.00769  0.021623982  0.021552764            1 
  845000   0.90731794   -7.8416454    218.40263  0.021538721  0.021537262            5 
  846000   0.91194877    -7.832569    218.69988  0.021542541   0.02152156            2 
  847000   0.93063226   -7.8447558     219.1383  0.021560242  0.021505986            1 
  848000   0.90516384   -7.8372904    218.93891  0.021515224  0.021490338            2 
  849000   0.91808037   -7.8170907     218.9335   0.02148935  0.021474753            2 
  850000   0.91767164   -7.8455844    218.95123  0.021465807  0.021459189            4 
  851000   0.89713524   -7.8696256    218.88418  0.021434017  0.021443211            2 
  852000   0.93524009   -7.8890462    218.84673  0.021405197   0.02142722            1 
  853000   0.89627023   -7.8289262    218.83029  0.021378497  0.021411488            3 
  854000   0.93111238   -7.7924075    219.50055  0.021418867  0.021395882            3 
  855000   0.90439391   -7.7972988    219.47695  0.021391515  0.021380294            1 
  856000   0.92844326   -7.8777628    219.79071   0.02139707  0.021364726            1 
  857000   0.89889323   -7.8345792    219.97026  0.021389562  0.021349245            2 
  858000   0.89238331   -7.8702341     220.2731  0.021394046  0.021333642            3 
  859000   0.89445387   -7.8776682    220.27478  0.021369304  0.021318159            2 
  860000   0.91769154   -7.8750227    220.09591  0.021327123  0.021302571            4 
  861000   0.91477407   -7.8603695    220.49327  0.021340812  0.021287088            2 
  862000   0.90838051   -7.8496719    220.87091  0.021352563  0.021271751            1 
  863000   0.91226685     -7.90059    219.91152   0.02123518  0.021256361            1 
  864000   0.90858129    -7.859208    221.45313  0.021359291  0.021240892            3 
  865000   0.90508931   -7.8396789    221.59845  0.021348598  0.021225569            1 
  866000    0.9181676   -7.8484976    221.25426  0.021290825   0.02121031            2 
  867000   0.89648142   -7.8336696    221.49488  0.021289396  0.021194896            3 
  868000   0.91949323   -7.8625583    221.70829  0.021285358  0.021179706            1 
  869000   0.89713121    -7.843803    221.36663    0.0212281  0.021164543            2 
  870000   0.89054091    -7.868313    221.85776  0.021250743    0.0211492            5 
  871000   0.91847612   -7.8879611    221.68781  0.021210086  0.021134054            3 
  872000   0.92786313   -7.8885276    222.39885  0.021253713  0.021119032            1 
  873000   0.90806939   -7.8756361    222.69188  0.021257339   0.02110395            7 
  874000    0.9049158   -7.8820935    221.90761  0.021158239  0.021088747            2 
  875000    0.9025442   -7.8823898    222.27189  0.021168752  0.021073434            2 
  876000   0.90512542   -7.8730628    222.74889  0.021189963  0.021058325            2 
  877000   0.93786119   -7.8964731    222.28672  0.021121886  0.021043144            3 
  878000   0.89542969   -7.8870726    222.27426  0.021096646  0.021027906            2 
  879000   0.90328275   -7.8961186    222.39274  0.021083878   0.02101257            1 
  880000   0.89286712   -7.8695557    222.69494  0.021088536  0.020997267            1 
  881000   0.89657441   -7.8879588    221.99984   0.02099885  0.020981888            2 
  882000   0.92196084   -7.8949781    223.05631  0.021074859  0.020966527            2 
  883000   0.90962416    -7.885657    222.63534  0.021011263  0.020951343            1 
  884000   0.90647551   -7.9043846    222.67008  0.020990769  0.020936173            2 
  885000   0.88462112   -7.9231778    223.44217  0.021039753  0.020920974            3 
  886000   0.88785334   -7.8906055    223.49643  0.021021109  0.020905878            5 
  887000    0.8953748   -7.8900746    223.59634  0.021006796  0.020890931            1 
  888000   0.91139879   -7.8732787    224.12096  0.021032373  0.020876032            3 
  889000   0.89882332   -7.8790098    223.75802  0.020974692  0.020861142            2 
  890000   0.90953299   -7.8445012    224.50922  0.021021462  0.020846303            1 
  891000   0.87370271   -7.8819994    224.63898  0.021010005  0.020831595            6 
  892000   0.91490187   -7.8679304    225.06526  0.021026277  0.020816819            2 
  893000   0.89846387   -7.8676034    224.68964  0.020967678  0.020802062            2 
  894000   0.89598993   -7.8733944    223.98713  0.020878741   0.02078731            1 
  895000   0.88929475   -7.8808621    224.91065  0.020941402  0.020772532            3 
  896000   0.87700967   -7.9000086    224.55982    0.0208854   0.02075768            2 
  897000   0.91637377   -7.8727021    224.84027  0.020888171  0.020742655            3 
  898000   0.89547211    -7.894748    224.28238  0.020813138  0.020727698            1 
  899000   0.89486437   -7.9044345    225.05523  0.020861627  0.020712603            2 
  900000    0.9162893   -7.8703959    224.60927  0.020797155  0.020697507            3 
  901000   0.87836044   -7.8624634      225.283  0.020836385  0.020682637            1 
  902000   0.88066078   -7.8897957    225.17286   0.02080311  0.020667578            1 
  903000   0.89297852   -7.8987161    224.70511  0.020736906  0.020652532            2 
  904000   0.90881582   -7.8847867    225.04198  0.020745021  0.020637593            3 
  905000   0.88155033   -7.9030884     225.0951  0.020726989  0.020622686            6 
  906000   0.88662172   -7.8907829    225.17497  0.020711458  0.020607728            3 
  907000   0.89017987    -7.901026    225.43809  0.020712797  0.020592864            1 
  908000   0.87702348   -7.9066217     225.5771  0.020702744   0.02057794            3 
  909000   0.89888685     -7.92704    225.61741  0.020683664   0.02056286            2 
  910000   0.87503891   -7.9192592    225.55503  0.020655223  0.020547802            1 
  911000   0.88997177   -7.9427232     225.5063  0.020628091   0.02053269            3 
  912000   0.89640829   -7.9022319    225.95453   0.02064643   0.02051773            3 
  913000   0.89388924   -7.9372019     225.8596  0.020615152  0.020502714            7 
  914000   0.89322386   -7.9495913    225.76908  0.020584344  0.020487719            2 
  915000   0.89379706   -7.9537843    225.93482  0.020576942  0.020472652            3 
  916000   0.85388172   -7.8976253    225.99933  0.020560346  0.020457724            1 
  917000   0.88511933   -7.8842618    226.86678  0.020616755  0.020442811            2 
  918000   0.90420992   -7.9298787     226.4267  0.020554349  0.020427882            3 
  919000   0.90477941   -7.9103595     226.3331  0.020523495  0.020413032            1 
  920000   0.88107495   -7.9404483    226.63087  0.020528158  0.020398134            5 
  921000    0.8969779   -7.9524811    227.17423  0.020555034  0.020383207            1 
  922000   0.88423466   -7.9183114    226.78991  0.020498004  0.020368296            3 
  923000   0.88885474   -7.9107748    227.11692   0.02050532  0.020353301            5 
  924000   0.89529913   -7.9183613    227.00893  0.020473389  0.020338413            2 
  925000   0.86346872   -7.9128442    226.81595   0.02043387  0.020323602            2 
  926000   0.88857761   -7.9472172     227.0296  0.020431029  0.020308755            2 
  927000   0.87302988   -7.9337052    227.55243  0.020455989  0.020293929            4 
  928000    0.8992135    -7.937894    227.55697  0.020434354  0.020279111            1 
  929000   0.90223619   -7.9334375    227.08229  0.020369779  0.020264282            3 
  930000    0.8840037   -7.9573828    227.21646  0.020359898  0.020249285            1 
  931000   0.86008865   -7.9443769    227.44998  0.020358931  0.020234204            2 
  932000   0.88023551   -7.9443755    227.01765  0.020298431  0.020219208            1 
  933000   0.88190457   -7.9275729     228.3518  0.020395837  0.020204225            4 
  934000   0.88526071    -7.930963    228.09567  0.020351148  0.020189365            2 
  935000   0.88447008   -7.9676147    227.28445  0.020257081  0.020174449            2 
  936000   0.87549475   -7.9637766    227.59565  0.020263145  0.020159441            2 
  937000   0.87517393   -7.9497647    228.25758  0.020300389  0.020144352            2 
  938000   0.88235541   -7.9272468    227.73271  0.020232117  0.020129299            3 
  939000    0.8802348   -7.9458019     227.4729  0.020187514  0.020114346            2 
  940000   0.86805111   -7.9798488      227.526  0.020170744  0.020099189            2 
  941000   0.87819794   -7.9730361    227.94516   0.02018643  0.020084053            1 
  942000   0.87847883   -7.9242197    228.71508  0.020233111  0.020069074            1 
  943000   0.89113951   -7.9602259    228.02136   0.02015035  0.020054109            2 
  944000   0.86845358   -7.9836042    228.05854  0.020132287  0.020039099            2 
  945000   0.88889584    -7.941518    228.41228  0.020142176  0.020024136            4 
  946000   0.88198284     -7.98475    228.40271  0.020120041    0.0200093            5 
  947000   0.87677097   -7.9793679    228.90545  0.020143035  0.019994524            2 
  948000   0.88393783    -7.953139    228.70857  0.020104481  0.019979803            2 
  949000   0.88534865   -7.9577677    228.93698  0.020103353  0.019965006            2 
  950000   0.89189214   -7.9749894    228.84065  0.020073741  0.019950248            1 
  951000    0.8728807   -7.9771134    228.84435  0.020052958   0.01993533            2 
  952000   0.87966474   -7.9725833     228.9566   0.02004172  0.019920564            2 
  953000   0.87178427   -7.9480054     229.6754  0.020083543  0.019905729            2 
  954000   0.87886724   -7.9505782    229.40191  0.020038602  0.019890856            3 
  955000   0.86769203   -7.9368199    229.47482  0.020023981  0.019875992            3 
  956000   0.87163156   -7.9457691    229.22428  0.019981196   0.01986101            1 
  957000   0.87563826   -7.9502705    229.13677  0.019952697  0.019846055            1 
  958000   0.85363668    -7.955054     229.0867  0.019927514  0.019830971            2 
  959000   0.87136165   -7.9670965    229.17796  0.019914664  0.019815939            3 
  960000   0.87374453   -7.9686529    228.92869  0.019872282  0.019800775            3 
  961000   0.88433381   -7.9640122     229.0473  0.019861888  0.019785598            1 
  962000   0.89542119   -7.9840501    228.89794  0.019828304  0.019770451            1 
  963000   0.87556503   -7.9774471    229.13932  0.019828601  0.019755287            3 
  964000    0.8612566   -7.9571173    228.46373  0.019749631  0.019739971            2 
  965000   0.87523869   -7.9613427    229.92901    0.0198557  0.019724757            1 
  966000    0.8750468   -7.9556334    229.59512  0.019806342  0.019709568            2 
  967000   0.86365627   -7.9645226    229.43965  0.019772462  0.019694328            1 
  968000   0.87190192    -7.965482    229.41796  0.019750169  0.019679014            2 
  969000    0.8864975   -8.0006941    229.22279  0.019713003  0.019663696            1 
  970000   0.85993263   -8.0132743    229.04565  0.019677462  0.019648379            2 
  971000   0.86952933   -7.9725591    229.96051  0.019735711  0.019633056            3 
  972000   0.84644295   -7.9718342    229.85452   0.01970632  0.019617882            2 
  973000   0.85831901   -7.9623101    230.08413  0.019705733  0.019602727            2 
  974000   0.87155152   -7.9557495    230.43603  0.019715609  0.019587494            2 
  975000   0.86251254   -7.9939734    229.92668  0.019651853  0.019572285            2 
  976000   0.85821367   -7.9945515     229.7026  0.019612585  0.019556932            3 
  977000    0.8631379   -8.0040035    229.86652  0.019606493  0.019541569            2 
  978000   0.86418234   -7.9799305    229.75798  0.019577197  0.019526126            1 
  979000   0.85035891   -8.0078694    229.83678  0.019563907   0.01951063            2 
  980000   0.85325842   -8.0215102    229.98697  0.019556716  0.019495226            4 
  981000   0.86022304    -7.998015    230.17239   0.01955253  0.019479916            1 
  982000    0.8400632   -8.0353439    230.09284  0.019525869  0.019464636            2 
  983000     0.852625   -8.0141559    230.26406   0.01952052  0.019449418            4 
  984000   0.85523537   -8.0087421    230.31847  0.019505291  0.019434214            3 
  985000   0.85045594   -7.9898441    230.32415  0.019485969   0.01941914            1 
  986000   0.86791324   -7.9989535    230.82667  0.019508677  0.019404057            5 
  987000   0.85224884   -8.0151423    230.47329  0.019459075  0.019388961            2 
  988000   0.86283463   -8.0158624    230.57529  0.019447984  0.019373819            3 
  989000   0.86483109   -7.9914453    231.23131  0.019483596  0.019358772            2 
  990000   0.87207641   -7.9971681    230.41052  0.019394825  0.019343692            2 
  991000   0.83364458   -7.9951206    230.46332  0.019379694   0.01932854            2 
  992000   0.86863617   -8.0122448    231.17986  0.019420351  0.019313454            1 
  993000   0.87599504   -7.9515603    231.87303  0.019458965  0.019298467            1 
  994000   0.87506317   -7.9857365    231.53359  0.019410931  0.019283468            2 
  995000   0.86457061   -7.9902313    231.32009  0.019373542  0.019268252            2 
  996000   0.84100876   -7.9796949    231.72184  0.019387704  0.019252981            1 
  997000   0.84442694   -8.0101283    230.55126  0.019270417  0.019237727            3 
  998000    0.8557643   -8.0018352    231.37606  0.019319979  0.019222505            2 
  999000   0.85647367   -8.0244592    231.47042   0.01930851  0.019207304            5 
 1000000   0.84522791   -7.9944536    231.68055  0.019306712  0.019192191            5 
 1001000    0.8492729    -8.022212    231.03579  0.019233749  0.019177014            2 
 1002000   0.85563934   -8.0298312    230.96969  0.019209056  0.019161818            2 
 1003000   0.84620203   -8.0069216      231.045  0.019196162  0.019146495            2 
 1004000   0.86333138   -7.9901398    231.32462  0.019200251  0.019131239            4 
 1005000   0.85454415   -7.9925277    231.22175  0.019172616  0.019115987            2 
 1006000   0.84518885   -7.9585493    231.96145  0.019214831  0.019100792            1 
 1007000   0.85671181   -8.0198257    231.61902  0.019167413  0.019085673            5 
 1008000   0.85565078   -7.9672105    232.79029  0.019245229  0.019070577            2 
 1009000   0.84588208   -7.9945028    231.80144  0.019144486  0.019055429            4 
 1010000   0.86065567   -7.9921424    231.53499  0.019103547  0.019040206            1 
 1011000    0.8386735   -8.0169058    231.73268  0.019100946  0.019024867            2 
 1012000   0.84671031   -7.9993369    232.33969  0.019132056  0.019009687            1 
 1013000   0.83200622   -8.0186502    232.01242  0.019086247  0.018994441            3 
 1014000   0.85625396    -8.021998    232.19081  0.019082085  0.018979219            2 
 1015000   0.85312402   -7.9864635    232.16848  0.019061452  0.018964075            1 
 1016000   0.83950215   -8.0077775    232.31048  0.019054338  0.018948862            1 
 1017000   0.85279344   -8.0158002     231.8562  0.018998377  0.018933603            1 
 1018000   0.84758167   -8.0271717    232.11381  0.019000803   0.01891843            1 
 1019000   0.85469247   -8.0164292     232.3393  0.019000597  0.018903246            2 
 1020000   0.85148652   -8.0144838    232.69474  0.019011008  0.018888026            8 
 1021000   0.84317515   -8.0277202    232.20777  0.018952642   0.01887268            2 
 1022000   0.85373335   -8.0352231     231.8116  0.018901794  0.018857395            2 
 1023000   0.85203211   -7.9865859    232.52235  0.018941215  0.018842022            3 
 1024000   0.83818467   -8.0549611    231.78335  0.018862577  0.018826695            1 
 1025000   0.84800866    -8.056749    232.30728  0.018886771  0.018811259            2 
 1026000   0.84443231   -8.0734754    232.25302  0.018863955  0.018795836            2 
 1027000   0.83657663   -8.0554175    231.86584  0.018814171  0.018780467            2 
 1028000   0.83845673   -8.0866094     232.3499  0.018835108  0.018765069            8 
 1029000   0.85092448   -8.0113517    232.17377  0.018802541  0.018749685            2 
 1030000    0.8509815   -8.0573128    232.37188  0.018800314  0.018734385            3 
 1031000   0.81927989   -8.0309093    232.90507  0.018825175  0.018719085            3 
 1032000   0.84369928   -8.0408835    232.47224  0.018771983  0.018703806            2 
 1033000   0.84816153   -8.0192706    233.02475  0.018798382  0.018688643            2 
 1034000   0.84603962   -8.0457703    233.32199  0.018804157  0.018673439            1 
 1035000    0.8218108   -8.0426019    232.97767  0.018758266   0.01865817            1 
 1036000   0.85026591    -8.026412    232.94064  0.018737181  0.018642893            2 
 1037000   0.84778803   -8.0232391    233.27186   0.01874573  0.018627644            2 
 1038000   0.82807581   -8.0699673    232.67662  0.018679883  0.018612432            1 
 1039000   0.83907283   -8.0495637    232.97549  0.018685875  0.018597118            3 
 1040000   0.85666181   -8.0907792    233.42115  0.018703618  0.018581923            2 
 1041000   0.84319786    -8.039123    233.01692  0.018653292   0.01856681            3 
 1042000   0.83656406   -8.0241914     233.9643  0.018711156  0.018551826            2 
 1043000     0.829163   -8.0371713    233.33735  0.018643125  0.018536826            2 
 1044000   0.84304954   -8.0294103    233.68754   0.01865322  0.018521782            1 
 1045000   0.86308037   -8.0449652    234.20125  0.018676336   0.01850667            2 
 1046000   0.85873905   -8.0426471    234.06895   0.01864794  0.018491698            1 
 1047000   0.84873033   -8.0619546    233.58215  0.018591384  0.018476738            2 
 1048000   0.82733904   -8.0731487    233.40462  0.018559527  0.018461781            6 
 1049000   0.83633085   -8.0534932    233.32936  0.018535857  0.018446679            1 
 1050000   0.82676109    -8.033854    234.01866   0.01857291  0.018431692            2 
 1051000   0.83195428   -8.0198774    234.19887  0.018569527  0.018416695            4 
 1052000   0.82698792   -8.0492733    234.08685  0.018543001   0.01840178            5 
 1053000   0.83544233   -8.0272808    234.41423    0.0185513  0.018386865            5 
 1054000   0.84078105   -8.0261041    234.54465  0.018544011  0.018371997            6 
 1055000   0.82132608   -8.0543549    234.11286  0.018492327  0.018357095            3 
 1056000   0.84175573   -8.0662989    233.91741  0.018459392  0.018342169            1 
 1057000   0.83940335   -8.0394412    234.58852  0.018494838  0.018327219            1 
 1058000   0.84025961   -8.0847142    234.29319  0.018454095  0.018312317            1 
 1059000   0.82732764   -8.1016752    234.18457  0.018428122  0.018297316            2 
 1060000   0.80722503   -8.1102443    233.87535  0.018386427  0.018282328            4 
 1061000   0.83186867   -8.0524735    234.67361  0.018431795    0.0182674            1 
 1062000   0.83557899     -8.09525    234.15621   0.01837384  0.018252518            2 
 1063000   0.82999375   -8.0635192    234.07617   0.01835028  0.018237557            1 
 1064000   0.82471973    -8.083645     234.3223   0.01835231  0.018222559            2 
 1065000   0.82528245   -8.0595496    234.41403  0.018342256   0.01820759            2 
 1066000   0.81316581   -8.0696193    234.56959   0.01833721  0.018192619            4 
 1067000   0.82177466   -8.0517627    234.77151  0.018335794  0.018177677            6 
 1068000   0.82662223   -8.0716461    234.54834  0.018301213  0.018162826            3 
 1069000   0.81750288   -8.0731175    234.78773  0.018302754  0.018147897            3 
 1070000   0.83387854    -8.073521    234.76076  0.018283548  0.018132987            1 
 1071000   0.83792191   -8.0807066    234.32485  0.018232559  0.018118104            3 
 1072000   0.82936203   -8.0649992    234.87231  0.018258109  0.018103331            2 
 1073000   0.81824971   -8.1047625    234.83189  0.018237953  0.018088541            1 
 1074000   0.82888534   -8.0761873    235.59995  0.018280567  0.018073814            2 
 1075000   0.81478424   -8.0707526    235.58724  0.018262577  0.018059249            3 
 1076000   0.84448395   -8.0594789    236.41823  0.018309962  0.018044684            2 
 1077000   0.82296497   -8.0637519    235.32469  0.018208348  0.018030167            3 
 1078000   0.81600162   -8.0626646    235.86076  0.018232897  0.018015603            2 
 1079000   0.81338116   -8.0760283    235.43324  0.018182981  0.018000946            2 
 1080000   0.82254904     -8.10762    235.41452  0.018164701  0.017986248            2 
 1081000   0.82352087    -8.094751    235.08485  0.018122483  0.017971597            2 
 1082000   0.82889794   -8.0890452    235.30598  0.018122765  0.017956904            2 
 1083000   0.82348012   -8.0898947    235.63647  0.018131461  0.017942163            2 
 1084000    0.8192927   -8.1169043    235.09932  0.018073441  0.017927378            1 
 1085000   0.81408089   -8.1172703    235.08626   0.01805578  0.017912596            3 
 1086000   0.80114414   -8.1051995    235.44608  0.018066765  0.017897771            2 
 1087000    0.8025798   -8.1395852    234.79831  0.018000483  0.017882951            1 
 1088000   0.80903997   -8.1290466    234.92501  0.017993643  0.017868091            4 
 1089000   0.82395782   -8.0879977    235.52462  0.018023004  0.017853359            2 
 1090000   0.81924746   -8.0933432    236.00684  0.018043337  0.017838692            1 
 1091000   0.83450117   -8.1127224    235.82758  0.018013105  0.017824035            1 
 1092000   0.80466925   -8.0870139    236.01146  0.018010642  0.017809414            2 
 1093000   0.84485103   -8.1105762     235.4268  0.017949588  0.017794914            3 
 1094000   0.78951465    -8.116071    235.65389  0.017950479   0.01778034            3 
 1095000   0.82630357   -8.1219148    235.96062  0.017957429  0.017765753            2 
 1096000   0.82737148    -8.096563    236.09061  0.017950928  0.017751216            3 
 1097000   0.80859461   -8.1061902    235.41329  0.017883112  0.017736639            2 
 1098000    0.8123561   -8.1196062    236.40939  0.017942425  0.017722053            2 
 1099000   0.81946608   -8.1137352    236.70142  0.017948242  0.017707419            1 
 1100000   0.81424032   -8.1178327    235.61479  0.017849605   0.01769277            1 
 1101000   0.81922862   -8.1466895    235.35752  0.017813921  0.017678014            2 
 1102000   0.82530956   -8.1333553    235.90859  0.017839428  0.017663232            1 
 1103000   0.82457696   -8.1123271    236.11802  0.017839077   0.01764851            2 
 1104000   0.81235784   -8.1091324    235.89287  0.017805923  0.017633815            2 
 1105000   0.82252439   -8.1128493    236.63909  0.017846085  0.017619109            1 
 1106000   0.81657909   -8.1290389    235.92126  0.017775864  0.017604515            2 
 1107000   0.79864607   -8.1058337    236.27855  0.017786702  0.017589881            1 
 1108000   0.80565775   -8.1156821    236.63172  0.017797211  0.017575222            1 
 1109000   0.80804996   -8.1015291    236.12084  0.017742774  0.017560472            4 
 1110000    0.8225666   -8.1725343    235.59647  0.017687422  0.017545707            2 
 1111000   0.79557964   -8.1371408    235.98331  0.017700519  0.017530928            2 
 1112000   0.81468891   -8.1672378    235.92072   0.01767991  0.017516121            2 
 1113000   0.79804853   -8.1438287    236.00145  0.017670069  0.017501337            1 
 1114000   0.79844476    -8.134921    236.02805  0.017656198  0.017486511            3 
 1115000   0.83292882   -8.1481541    235.88573  0.017629726  0.017471718            1 
 1116000   0.81166299    -8.123485    235.99145  0.017621823  0.017456954            2 
 1117000   0.81516277   -8.1205129    235.60142  0.017576949  0.017442209            3 
 1118000   0.81994075   -8.1306739    236.12235  0.017600056  0.017427478            2 
 1119000   0.82010909   -8.1395214    235.76647  0.017557825  0.017412797            1 
 1120000   0.82115654   -8.1497945    236.28794  0.017580948  0.017398108            2 
 1121000   0.81365474   -8.1490203    236.12463  0.017553125  0.017383417            3 
 1122000   0.78791902   -8.1158328    236.67717  0.017578518   0.01736876            4 
 1123000   0.79190981   -8.1369634    236.32208  0.017536515  0.017354219            8 
 1124000   0.79801979   -8.1471223    236.67095  0.017546779  0.017339622            3 
 1125000   0.79400306   -8.1373157    236.48467  0.017517383  0.017325025            4 
 1126000   0.80232622   -8.1511435    236.88894  0.017531745  0.017310525            2 
 1127000   0.79436451   -8.1419317    236.89599   0.01751671  0.017295941            2 
 1128000   0.81736438   -8.1668813    236.47829  0.017470323  0.017281404            2 
 1129000   0.81440543   -8.1671309    236.51596  0.017457629   0.01726681            2 
 1130000   0.77747511    -8.133448    237.40673  0.017507871  0.017252247            1 
 1131000   0.81096826   -8.1484767    236.68525  0.017439231  0.017237734            2 
 1132000   0.80331426   -8.1920187    236.09066  0.017380055  0.017223178            3 
 1133000   0.81197073   -8.1568345    236.97088  0.017429456  0.017208636            3 
 1134000   0.78390682   -8.1798602     236.5456  0.017382833  0.017194106            2 
 1135000   0.81349009   -8.1855949    237.12488   0.01741005  0.017179555            1 
 1136000   0.79244909   -8.1587102    237.49965  0.017422216   0.01716503            2 
 1137000   0.81582441   -8.1724283    236.94319  0.017366109  0.017150497            2 
 1138000   0.78329502   -8.1456755    237.13195  0.017364672  0.017135996            2 
 1139000   0.80437862   -8.1779941    236.32751   0.01729057  0.017121491            1 
 1140000   0.79982106    -8.158982    237.02669  0.017326513  0.017106998            2 
 1141000   0.81820276   -8.1815802    236.70799   0.01728805  0.017092498            3 
 1142000    0.7900362   -8.1708199    237.12336  0.017303222  0.017077985            3 
 1143000   0.78994525   -8.1289434     237.8096  0.017338116  0.017063532            1 
 1144000   0.78986747   -8.1698506    237.65606  0.017311776  0.017049166            1 
 1145000   0.80890869   -8.1763657    237.18111  0.017262089  0.017034744            1 
 1146000   0.81144246   -8.1583518    237.02773  0.017235873  0.017020291            3 
 1147000   0.78650611    -8.157126    237.11547  0.017227221   0.01700598            3 
 1148000   0.79252001   -8.1646284    237.38235  0.017231587  0.016991664            2 
 1149000   0.78932204   -8.1726766    238.34517  0.017286421  0.016977342            2 
 1150000   0.82814435    -8.159047    237.94386  0.017242309  0.016963072            2 
 1151000   0.79030866   -8.1799068    237.53806  0.017197948  0.016948774            3 
 1152000   0.80414864   -8.1648815    237.86094  0.017206376    0.0169346            7 
 1153000   0.80407296   -8.1871782    237.43236  0.017160477  0.016920361            3 
 1154000   0.80008148   -8.1622753    238.07266  0.017191844  0.016906148            2 
 1155000    0.7915436   -8.1310989    238.49047  0.017207105  0.016891986            2 
 1156000   0.80361878   -8.1558453    237.48902  0.017120027  0.016877816            2 
 1157000   0.80316251   -8.1812336    237.73726   0.01712311  0.016863624            1 
 1158000   0.80157124   -8.1944605     237.5972  0.017098244  0.016849424            5 
 1159000   0.78046347   -8.1824451    237.65169  0.017087409  0.016835218            2 
 1160000   0.77324321   -8.1709919    237.87108   0.01708844  0.016821061            5 
 1161000   0.79586538   -8.1508683    237.58441  0.017053144  0.016806915            3 
 1162000   0.78605922   -8.1930629    237.62953  0.017041705  0.016792744            3 
 1163000   0.78854547    -8.201211    238.27885  0.017073578  0.016778603            2 
 1164000   0.77252225   -8.2001437    237.96007  0.017036087  0.016764407            3 
 1165000    0.7969588   -8.1907098    238.62101  0.017068742  0.016750304            3 
 1166000   0.79322555   -8.1787504    238.28633  0.017030184  0.016736265            5 
 1167000   0.79632793   -8.1808937    238.34279  0.017019622  0.016722274            3 
 1168000   0.81242299   -8.1608313    238.72658  0.017032433  0.016708365            3 
 1169000   0.79346109   -8.1734814    238.49765  0.017001543  0.016694423            2 
 1170000   0.78259348   -8.1943777    237.97582  0.016949845  0.016680421            3 
 1171000   0.78607807   -8.1871513     238.2491  0.016954818  0.016666419            6 
 1172000    0.7955611   -8.1900063     238.7972  0.016979323  0.016652382            2 
 1173000   0.79541231   -8.2028181    238.64606  0.016954111   0.01663833            2 
 1174000   0.80482658   -8.1865017    238.41508  0.016923273  0.016624321            3 
 1175000   0.78182774   -8.1918875    238.14844  0.016889961  0.016610333            1 
 1176000   0.79635213   -8.2129875    238.45591  0.016897386  0.016596313            2 
 1177000    0.7862483   -8.1863929     238.5319   0.01688841  0.016582245            2 
 1178000   0.78716747   -8.1954258    238.67717   0.01688435  0.016568215            2 
 1179000   0.78043986   -8.1929106     238.6449  0.016867748  0.016554143            1 
 1180000   0.80998165   -8.1843987    237.95789  0.016804936  0.016540061            2 
 1181000   0.79330027   -8.2087309    238.32946  0.016816925   0.01652597            2 
 1182000   0.76982915   -8.2324791    238.21388  0.016794549   0.01651184            2 
 1183000    0.7745494   -8.2337128    237.96726   0.01676298  0.016497684            2 
 1184000   0.77779829   -8.2365886    237.93163  0.016746314  0.016483525            2 
 1185000   0.78244583   -8.2383068    237.53127  0.016704028  0.016469329            2 
 1186000   0.77982882   -8.1801203    238.36039  0.016748201  0.016455127            2 
 1187000   0.76454645   -8.2293059     237.7981  0.016694616  0.016440965            1 
 1188000   0.77872807     -8.24212    238.18002  0.016707353  0.016426756            1 
 1189000   0.78282459   -8.2127647    238.73257  0.016732028  0.016412624            2 
 1190000   0.78427246   -8.1956524    238.57482  0.016706921   0.01639856            2 
 1191000   0.78411029   -8.2256496    237.87835  0.016644161  0.016384477            1 
 1192000   0.79543011   -8.2212614    238.14486   0.01664883    0.0163704            2 
 1193000   0.78186986   -8.2192768    238.50695  0.016660167  0.016356381            1 
 1194000   0.79193883   -8.2146994    238.62816  0.016654674  0.016342325            3 
 1195000    0.7713497   -8.2177138    239.04984  0.016670142   0.01632828            2 
 1196000   0.75654778   -8.2196643    238.38259  0.016609712   0.01631421            3 
 1197000   0.77982988   -8.2362418     238.5421  0.016606941  0.016300172            2 
 1198000    0.7917519    -8.234618     238.9443  0.016621056   0.01628619            2 
 1199000   0.77798612    -8.226386    238.72582  0.016592009  0.016272203            1 
 1200000   0.78214025   -8.2118235    238.97806  0.016595699  0.016258185            3 
 1201000   0.76049945   -8.2387608    238.70767  0.016563119    0.0162442            2 
 1202000   0.75898976   -8.2383907    238.51938  0.016536285  0.016230153            1 
 1203000    0.7735738   -8.2151166    239.09129  0.016562156  0.016216182            4 
 1204000   0.77758887   -8.2158146    238.78917  0.016527489  0.016202257            3 
 1205000   0.76670054   -8.2235544    239.16712  0.016539912  0.016188374            3 
 1206000   0.77955003    -8.227993    239.38676  0.016541373  0.016174518            3 
 1207000   0.76641699    -8.239488    238.85559  0.016490996  0.016160608            1 
 1208000     0.766582   -8.2328457    238.87836  0.016478916  0.016146803            2 
 1209000   0.77127216   -8.2398594    238.74902   0.01645637  0.016132874            3 
 1210000   0.75787095   -8.2671567    238.26651  0.016409539  0.016118982            5 
 1211000   0.77548421   -8.2269816    238.51485  0.016413078  0.016105054            1 
 1212000    0.7761734    -8.222388    238.65605  0.016409244  0.016091154            3 
 1213000   0.77837808   -8.2442566    238.86579  0.016410126  0.016077288            4 
 1214000    0.7565465   -8.2040372    238.77567  0.016390422  0.016063455            2 
 1215000   0.78550787   -8.2333721    238.63963  0.016367602  0.016049655            2 
 1216000   0.76454896   -8.2123912    239.13877  0.016388348  0.016035834            4 
 1217000   0.77500184    -8.212164    238.91711  0.016359704  0.016021981            3 
 1218000   0.77627639   -8.2350104     238.7539  0.016335106  0.016008174            2 
 1219000   0.77022334   -8.2552425    239.01477  0.016339539  0.015994318            2 
 1220000   0.75656975   -8.2361816    238.89225  0.016317777  0.015980475            1 
 1221000   0.75809991   -8.2423364      238.619  0.016285763  0.015966627            1 
 1222000   0.77648247   -8.2558469    238.81879   0.01628606  0.015952778            2 
 1223000   0.75871937   -8.2469176    239.34895  0.016308868  0.015938929            1 
 1224000   0.77946927    -8.232645     238.6035  0.016244792  0.015925084            1 
 1225000   0.76337412   -8.2308503    239.22875  0.016274065  0.015911277            2 
 1226000   0.77882569   -8.2530468    239.24355  0.016261797  0.015897508            3 
 1227000   0.76243882   -8.2532477    238.94374  0.016228181  0.015883719            2 
 1228000   0.74199085   -8.2505304    239.30161  0.016239251  0.015869991            2 
 1229000   0.76999504   -8.2534738    238.62944  0.016180461  0.015856223            1 
 1230000   0.78549809   -8.2359499    239.43195  0.016221677  0.015842541            4 
 1231000   0.77031788    -8.246836    239.12411   0.01618766  0.015828887            1 
 1232000   0.76343841    -8.230173    239.08529  0.016171894  0.015815206            2 
 1233000   0.76018726   -8.2192642    239.50206  0.016186946  0.015801525            2 
 1234000   0.77937106   -8.2218138    239.67476  0.016185491  0.015787899            1 
 1235000     0.755429   -8.2491004    239.64521  0.016170392  0.015774293            3 
 1236000   0.76802268   -8.2351354     239.2835  0.016132922  0.015760677            5 
 1237000    0.7473472   -8.2378311    239.91188  0.016162212  0.015747132            3 
 1238000    0.7745211    -8.249776    238.82353  0.016075897  0.015733536            4 
 1239000   0.75526661   -8.2395891    239.71626  0.016122966  0.015719925            3 
 1240000   0.76015711    -8.270995     239.2915  0.016081418   0.01570637            1 
 1241000   0.75997242    -8.250883    239.95172  0.016112794  0.015692793            3 
 1242000   0.75716726   -8.2778745     239.5545  0.016073168  0.015679184            2 
 1243000    0.7474168   -8.2606528    239.18677  0.016035584  0.015665588            2 
 1244000    0.7467912   -8.2529438    238.89016  0.016002824  0.015651994            2 
 1245000   0.75796229   -8.2477498    239.78257  0.016049703  0.015638449            1 
 1246000    0.7586763   -8.2540198     239.9064  0.016045105  0.015624925            3 
 1247000   0.74286457   -8.2340925    240.21613  0.016052936  0.015611452            2 
 1248000   0.73873177   -8.2751587    239.80033  0.016012308  0.015597957            4 
 1249000   0.75240383    -8.289565    239.57624  0.015984537  0.015584539            3 
 1250000   0.73640005   -8.2446981    240.23148  0.016015432   0.01557113            2 
 1251000   0.74790752   -8.2735868     239.7313  0.015969311  0.015557743            2 
 1252000   0.75457289   -8.2686828    239.16274  0.015918713  0.015544378            2 
 1253000   0.74272674   -8.2492775    239.99267  0.015961204  0.015530989            3 
 1254000   0.73998871   -8.2773838    239.74877  0.015932268   0.01551761            3 
 1255000   0.76097203   -8.2615276     240.2244  0.015951155  0.015504199            3 
 1256000   0.74035981   -8.2714232    239.75606  0.015907382   0.01549085            3 
 1257000   0.74468481   -8.2820444    239.70941  0.015891634  0.015477506            2 
 1258000   0.77070197   -8.2528074     239.8735  0.015889872  0.015464146            1 
 1259000   0.75800352   -8.2839738    239.94707   0.01588212  0.015450837            2 
 1260000   0.73793565   -8.2736703    239.33525  0.015829051  0.015437428            2 
 1261000   0.74393641   -8.3076318    239.45921   0.01582469   0.01542406            1 
 1262000   0.75518372    -8.296379     239.5651  0.015819143  0.015410713            4 
 1263000    0.7462884   -8.2996117    239.61167   0.01580969  0.015397383            1 
 1264000   0.75926535   -8.2889955    239.70652  0.015803436  0.015384054            1 
 1265000   0.75037168   -8.2707685     240.3143  0.015830982  0.015370779            2 
 1266000   0.74589578   -8.2731229    240.37846    0.0158227   0.01535752            2 
 1267000   0.74176448   -8.2691403     240.1471  0.015794995  0.015344267            6 
 1268000   0.74632811   -8.2903431    240.10008  0.015779448  0.015331049            1 
 1269000    0.7579518   -8.3220849    239.84978  0.015750577  0.015317843            2 
 1270000   0.73370116   -8.2992026    239.75697  0.015732084  0.015304592            2 
 1271000   0.74966448   -8.3014209    240.15472  0.015745786  0.015291366            1 
 1272000   0.73359881   -8.2963086    239.78911  0.015709454   0.01527815            3 
 1273000   0.75861817   -8.2833093    240.38789  0.015736311  0.015264972            2 
 1274000   0.75011404    -8.279556    240.48835   0.01573053  0.015251843            1 
 1275000   0.74116176   -8.2984411    240.67867  0.015730632  0.015238673            2 
 1276000   0.75017147   -8.2827434    240.80959  0.015726854  0.015225554            2 
 1277000   0.73129625   -8.3314308    240.05372  0.015665213  0.015212405            2 
 1278000   0.73819156   -8.3117689    240.56172   0.01568608  0.015199287            2 
 1279000   0.74578799   -8.3298161    240.45526  0.015666879  0.015186223            3 
 1280000   0.74455385   -8.2925499    240.58767   0.01566326  0.015173189            2 
 1281000   0.75016455   -8.3169007    240.61365  0.015652723  0.015160161            1 
 1282000   0.74903749    -8.311857    240.92685  0.015660872  0.015147153            1 
 1283000   0.73742193   -8.3192575     240.4956  0.015620655  0.015134137            1 
 1284000   0.74200172   -8.2956787    241.07349  0.015645995  0.015121156            1 
 1285000   0.75067415   -8.3001283    240.80242   0.01561624  0.015108179            2 
 1286000   0.73824281   -8.3170147     240.6643  0.015595146  0.015095288            6 
 1287000   0.72495409   -8.3126914    240.26146  0.015556945  0.015082337            3 
 1288000   0.75038305    -8.292952    240.71974  0.015574518  0.015069434            1 
 1289000   0.73740175   -8.3033029    241.49784  0.015612738  0.015056543            1 
 1290000   0.74171611   -8.3050217    240.83208  0.015557628  0.015043664            2 
 1291000   0.72898251   -8.3069963    241.07382  0.015561181  0.015030761            2 
 1292000   0.73075294   -8.3236821    240.78005  0.015530189    0.0150179            3 
 1293000   0.74670178   -8.3293716    240.73304  0.015515148  0.015004993            2 
 1294000   0.72797111   -8.3312935    240.44602  0.015484674  0.014992147            1 
 1295000   0.71337902   -8.3352123    240.78819  0.015494735   0.01497927            4 
 1296000   0.73187355   -8.2940017    241.77066  0.015545953  0.014966471            1 
 1297000   0.72734927     -8.31368    241.29901  0.015503663  0.014953687            1 
 1298000      0.75206   -8.2995267    240.93973  0.015468653  0.014940913            2 
 1299000   0.72536708   -8.3173437    241.30714  0.015480314  0.014928123            4 
 1300000   0.76259954   -8.3190348    240.99841  0.015448616  0.014915301            3 
 1301000   0.71681132   -8.3292319    241.06147  0.015440781  0.014902479            3 
 1302000    0.7402555   -8.3210491    240.91672  0.015419657  0.014889622            3 
 1303000   0.73741064   -8.3187348    241.44578  0.015441659  0.014876821            3 
 1304000   0.75460821   -8.3499165    240.71317  0.015382999  0.014863992            3 
 1305000   0.73905428   -8.3514887    240.91743  0.015384255  0.014851181            2 
 1306000   0.72565751   -8.3020443    240.45401  0.015342905  0.014838332            3 
 1307000   0.75349221   -8.3395642    240.74651  0.015349816  0.014825518            2 
 1308000   0.73625706   -8.3312072    240.99515  0.015353921  0.014812716            1 
 1309000   0.74663454   -8.3375224    240.35515  0.015301448  0.014799879            3 
 1310000   0.73645283   -8.3385299    241.26655  0.015347745  0.014787121            4 
 1311000     0.743135   -8.3327784    240.80907  0.015306958  0.014774368            4 
 1312000   0.74115282   -8.3222603    240.83872  0.015297175  0.014761588            1 
 1313000   0.74432871   -8.3622607    240.94649  0.015292364  0.014748762            1 
 1314000   0.71747009   -8.3496065    241.04409  0.015286916  0.014735944            4 
 1315000   0.73403792    -8.334171    241.09187  0.015278318  0.014723148            1 
 1316000    0.7211493   -8.3335223    240.65806  0.015239239  0.014710377            4 
 1317000   0.72929204   -8.3735602    240.21232  0.015199463  0.014697564            4 
 1318000   0.71961835   -8.3445548    240.76286   0.01522274  0.014684807            1 
 1319000    0.7227314   -8.3481487    240.74525  0.015210087  0.014672023            1 
 1320000   0.74755899   -8.3533211    240.94326  0.015211064  0.014659259            2 
 1321000   0.72765281   -8.3812203    240.75141  0.015187447  0.014646452            2 
 1322000   0.71909406   -8.3910494     240.0189  0.015129784  0.014633647            1 
 1323000   0.70949634   -8.3685856    240.26309   0.01513373  0.014620818            2 
 1324000   0.71470724   -8.3949515     240.5027  0.015137381  0.014607973            2 
 1325000   0.71933905   -8.3690501    240.08791  0.015099869  0.014595161            5 
 1326000   0.72286836   -8.3774513    240.86854   0.01513754  0.014582395            2 
 1327000   0.71625045   -8.3763671    240.14085  0.015080435  0.014569588            3 
 1328000   0.72964994   -8.3771474    240.20568  0.015073147  0.014556798            2 
 1329000   0.72846348   -8.3720276    240.24743  0.015064424   0.01454405            2 
 1330000   0.71849916    -8.381647    240.41298   0.01506347  0.014531298            2 
 1331000   0.73523519     -8.40589    239.80541  0.015014113  0.014518561            3 
 1332000   0.70689635   -8.3813113    240.49982  0.015046285  0.014505772            2 
 1333000   0.70796307   -8.3788224    240.03233  0.015005772     0.014493            2 
 1334000   0.71748461   -8.3783302    240.13252  0.015000782  0.014480246            2 
 1335000   0.71998537   -8.3661691    240.57235     0.015017  0.014467479            2 
 1336000   0.72061585   -8.3679194    240.35764  0.014992368  0.014454788            4 
 1337000   0.73810197   -8.3537315    240.45526  0.014987239  0.014442086            1 
 1338000   0.73021476   -8.3986279    240.15682   0.01495745  0.014429416            2 
 1339000   0.70829347   -8.3954184     240.7103  0.014980726  0.014416723            5 
 1340000   0.70062716   -8.3880505    240.60594  0.014963056  0.014404027            2 
 1341000   0.72317483   -8.3897873    240.45771  0.014942686  0.014391341            4 
 1342000   0.72447774   -8.3758643    240.33644  0.014924021  0.014378673            1 
 1343000   0.70571973   -8.3755827    240.75285  0.014938747  0.014366102            1 
 1344000   0.71637765   -8.3733631    241.00785  0.014943443  0.014353559            2 
 1345000   0.71070051    -8.364596    241.16804  0.014942258  0.014340969            1 
 1346000    0.7083195   -8.3846583    240.49651  0.014889581  0.014328427            2 
 1347000   0.73471965   -8.3731638    240.94747  0.014906426  0.014315894            1 
 1348000   0.70389026   -8.3647794    240.90981  0.014893039  0.014303317            2 
 1349000   0.72676493   -8.3943996     240.6669  0.014866994  0.014290766            3 
 1350000   0.71800711   -8.3602995    240.92658  0.014872011  0.014278204            4 
 1351000   0.71593559   -8.3975573    240.20508  0.014816499  0.014265629            2 
 1352000   0.70636983   -8.4085809    240.95141  0.014851542  0.014253058            2 
 1353000   0.71215853   -8.3927702    240.34288  0.014803084  0.014240476            4 
 1354000   0.69780417   -8.4072897    240.36757  0.014793671  0.014227915            3 
 1355000   0.71373153   -8.4101971    240.62317  0.014798473  0.014215351            2 
 1356000   0.70782387   -8.4096447    240.36924  0.014771954  0.014202813            3 
 1357000   0.71358253   -8.4005497    240.09338  0.014744128  0.014190304            2 
 1358000   0.71533637   -8.3792561    240.50651  0.014758622  0.014177797            1 
 1359000   0.71204013   -8.3929389    240.60315  0.014753689  0.014165271            1 
 1360000   0.69592265   -8.3914324    240.57931  0.014741379  0.014152823            2 
 1361000   0.71713331   -8.4063264    240.75208  0.014741126  0.014140361            2 
 1362000   0.71910179    -8.387538    240.53399   0.01471696    0.0141279            1 
 1363000   0.70154771    -8.403343    240.64171  0.014712748  0.014115437            3 
 1364000   0.71149724   -8.4353277     240.2849  0.014680163  0.014102998            2 
 1365000   0.70706692    -8.429346    240.65057  0.014691732  0.014090556            2 
 1366000    0.7012281   -8.4168775    240.75331  0.014687244  0.014078112            3 
 1367000   0.70088325   -8.4191533    240.68037  0.014672054  0.014065666            3 
 1368000   0.70608741   -8.4192137    240.22306  0.014633471  0.014053242            2 
 1369000   0.70015311   -8.4341364     240.0548   0.01461254  0.014040818            2 
 1370000   0.70704545   -8.4296363    240.77663   0.01464578  0.014028386            7 
 1371000   0.70250689   -8.4502869    240.27271  0.014604468   0.01401597            2 
 1372000    0.7082929   -8.4264772    240.21539  0.014590342  0.014003555            4 
 1373000   0.71279932    -8.448596    240.43258  0.014592897   0.01399113            2 
 1374000   0.70069252   -8.4311546    239.89959  0.014549951  0.013978709            3 
 1375000   0.70384342   -8.4246929    240.25258  0.014560762  0.013966311            2 
 1376000   0.70781189   -8.4215446    240.50284  0.014565336   0.01395397            2 
 1377000   0.70425273   -8.4209541    240.50406  0.014554833  0.013941562            5 
 1378000   0.70430116   -8.4304199    240.09975   0.01451982  0.013929182            3 
 1379000   0.70687453   -8.4374271     239.9394  0.014499601  0.013916804            1 
 1380000   0.71421468   -8.4251951    240.21615  0.014505806  0.013904405            3 
 1381000    0.6933541   -8.4365101    239.76745  0.014468227  0.013892014            1 
 1382000   0.68297355    -8.443353    240.34843   0.01449279  0.013879634            2 
 1383000    0.6971575   -8.4518382    239.90289  0.014455464  0.013867259            4 
 1384000   0.70059625    -8.438083    239.64221  0.014429324  0.013854908            1 
 1385000   0.69900195   -8.4331875    239.68382  0.014421409  0.013842541            2 
 1386000   0.70295364   -8.4154442    240.04277  0.014432586    0.0138302            2 
 1387000   0.70321144   -8.4419784    240.01526  0.014420527  0.013817896            3 
 1388000    0.7048614   -8.4429413    240.65185  0.014448358   0.01380562            7 
 1389000   0.70214161   -8.4479372    240.61638  0.014435828  0.013793346            1 
 1390000   0.68882141   -8.4117008    240.63094  0.014426315  0.013781122            2 
 1391000   0.69144638   -8.4200929    240.09444  0.014383803  0.013768898            3 
 1392000   0.70523498   -8.4082056    240.51245  0.014398495  0.013756666            2 
 1393000   0.68651182   -8.4468299    240.27198  0.014373772  0.013744438            3 
 1394000   0.69004275   -8.4628677    240.19911  0.014359105  0.013732226            1 
 1395000   0.70128197   -8.4484643    240.02806  0.014338594  0.013720018            2 
 1396000   0.69331854   -8.4699427    240.34797   0.01434742  0.013707807            2 
 1397000   0.68674655   -8.4562892    240.66767   0.01435622   0.01369557            2 
 1398000   0.69561884   -8.4577422    240.29027  0.014323454  0.013683358            4 
 1399000   0.69603321   -8.4526794    240.29642  0.014313583  0.013671177            1 
 1400000   0.70065341   -8.4398276    240.23662  0.014299799  0.013658984            2 
 1401000   0.70264611   -8.4453266    240.75804  0.014320607  0.013646858            1 
 1402000   0.68396023   -8.4494347    240.50497   0.01429535  0.013634704            1 
 1403000   0.68655384   -8.4324417    240.34251  0.014275511  0.013622567            2 
 1404000   0.69412087   -8.4507489    240.21081  0.014257527  0.013610419            2 
 1405000   0.70478111   -8.4415038    240.36213  0.014256354  0.013598272            1 
 1406000   0.69017758   -8.4485339    239.95033  0.014221807  0.013586142            1 
 1407000   0.70912575   -8.4566098    240.01116  0.014215302  0.013574017            4 
 1408000   0.69966052   -8.4595614    239.70822  0.014187276  0.013561922            5 
 1409000      0.69274   -8.5043951     240.2325  0.014208215  0.013549832            4 
 1410000   0.68445145   -8.4424112    240.74393  0.014228365  0.013537768            1 
 1411000   0.69593766   -8.4724919    239.85889  0.014166011  0.013525731            4 
 1412000    0.6945011    -8.457418    240.24788  0.014178935  0.013513683            2 
 1413000   0.68337722   -8.4788861    239.88846  0.014147703  0.013501658            7 
 1414000   0.67948919   -8.4536165    240.02047  0.014145478  0.013489635            4 
 1415000   0.68904066   -8.4582277    240.48179  0.014162649  0.013477639            2 
 1416000   0.70017527   -8.4550634    240.26166  0.014139693  0.013465629            2 
 1417000   0.70211291   -8.4452649    240.38086  0.014136725  0.013453665            2 
 1418000   0.67904439   -8.4501469    240.83771  0.014153603  0.013441743            1 
 1419000   0.66676716   -8.4651379    240.44813   0.01412075  0.013429815            1 
 1420000   0.68289987   -8.4284586    240.18593  0.014095419  0.013417895            1 
 1421000   0.67717622   -8.4477722    240.83221    0.0141234  0.013405984            6 
 1422000    0.6836288   -8.4456523     240.3181  0.014083339  0.013394054            6 
 1423000   0.68890108   -8.4560547    240.16946  0.014064738  0.013382118            2 
 1424000   0.70262085   -8.4504174    240.30925  0.014063041  0.013370224            1 
 1425000   0.69144511   -8.4686762    240.14194  0.014043388  0.013358322            1 
 1426000   0.69059372   -8.4616468    240.69635  0.014065939  0.013346435            2 
 1427000   0.67763571   -8.4368662    240.76634  0.014060169  0.013334573            2 
 1428000   0.68808138   -8.4427887    240.32173  0.014024377  0.013322733            1 
 1429000   0.66781898   -8.4421985    240.35996  0.014016793  0.013310933            2 
 1430000   0.69050194   -8.4663898     240.5667  0.014019038  0.013299109            6 
 1431000   0.67313338    -8.455596    240.41544  0.014000433  0.013287255            1 
 1432000   0.67934562   -8.4731798    240.80016  0.014013045  0.013275425            5 
 1433000    0.6948797    -8.500283    240.05271  0.013959799  0.013263609            2 
 1434000   0.69424835   -8.4666763    240.38201  0.013969201  0.013251807            3 
 1435000   0.68742103   -8.4999913    240.17671  0.013947544  0.013240001            5 
 1436000   0.69429675   -8.4920024    240.34236  0.013947444  0.013228192            4 
 1437000   0.66245835   -8.4504818    240.44714  0.013943815  0.013216401            1 
 1438000   0.66898175    -8.488516    240.02217  0.013909491  0.013204616            1 
 1439000   0.68802968   -8.4896922    240.10769  0.013904777  0.013192805            5 
 1440000   0.67107273   -8.4827511    240.18247  0.013899448   0.01318103            2 
 1441000   0.68437743   -8.5145297    239.87927  0.013872269  0.013169254            5 
 1442000   0.67640342    -8.494945    239.96254  0.013867461  0.013157452            2 
 1443000   0.67979504   -8.5015109     240.0077  0.013860458  0.013145695            4 
 1444000   0.67668628   -8.5068309    239.59129  0.013826829  0.013133944            2 
 1445000   0.68751931   -8.4810485    240.45575  0.013867114  0.013122209            2 
 1446000   0.68441695   -8.5156542    240.23652  0.013844889  0.013110471            1 
 1447000   0.67987319   -8.4939901    240.04587  0.013824342   0.01309874            4 
 1448000   0.67558124   -8.5060181    240.29788  0.013829298  0.013087024            2 
 1449000   0.67256961   -8.5045906    239.89208  0.013796416  0.013075297            1 
 1450000   0.68081825   -8.4893574    239.83074  0.013783376  0.013063591            4 
 1451000   0.67102757   -8.4950968    240.23372   0.01379702  0.013051894            2 
 1452000    0.6606829   -8.5238584    239.27824  0.013732682   0.01304021            2 
 1453000   0.64924734   -8.5094977    240.35785  0.013785148  0.013028533            2 
 1454000   0.66543335    -8.498098    240.08938  0.013760281  0.013016853            1 
 1455000   0.68375213   -8.4983206    239.81183  0.013734927  0.013005177            2 
 1456000   0.66503415   -8.5115898    239.62871  0.013715013  0.012993516            2 
 1457000   0.66964511   -8.5108117     239.9137    0.0137219   0.01298189            6 
 1458000   0.68232038   -8.5344422    239.79483  0.013705695  0.012970249            2 
 1459000   0.67140507   -8.5086287    240.41165  0.013731531  0.012958616            1 
 1460000   0.67667752   -8.5024968    240.23422  0.013711999  0.012947016            1 
 1461000   0.67200229   -8.5165916    240.11055  0.013695559  0.012935403            1 
 1462000   0.68291141   -8.5097939     240.1722  0.013689706  0.012923809            2 
 1463000   0.66648902   -8.5294004    239.85795  0.013662449  0.012912253            2 
 1464000   0.66404557   -8.5122193    239.76486  0.013647818  0.012900709            2 
 1465000    0.6813363   -8.5495376    239.93703  0.013648295   0.01288913            1 
 1466000   0.67758236   -8.4972736    239.93263  0.013638735  0.012877558            3 
 1467000   0.65808884   -8.5318353    240.17019  0.013642933  0.012865993            1 
 1468000   0.64896167   -8.5216973    239.68852  0.013606296  0.012854428            3 
 1469000   0.66466963   -8.5195044    239.84426  0.013605869  0.012842866            1 
 1470000   0.67037241   -8.5239874    239.74045  0.013590728  0.012831324            2 
 1471000   0.66614678   -8.5429418    240.21253  0.013608233  0.012819785            2 
 1472000   0.66903563   -8.5436008    239.71205  0.013570655   0.01280826            4 
 1473000   0.66982838   -8.5480543    239.38279  0.013542815  0.012796746            2 
 1474000   0.67098399   -8.5407192     239.8333  0.013559097  0.012785228            1 
 1475000    0.6784446   -8.5272142    239.64016  0.013538992   0.01277374            1 
 1476000   0.65677296   -8.5468702     239.2255  0.013506408  0.012762238            2 
 1477000   0.65861667   -8.5307881    239.45683  0.013510316  0.012750751            2 
 1478000   0.66221742   -8.5214944    239.56203  0.013507106  0.012739261            2 
 1479000   0.68579453    -8.541387    239.12969  0.013473614  0.012727761            1 
 1480000    0.6649118   -8.5361741    239.47463  0.013483932  0.012716292            3 
 1481000   0.65216019   -8.5336936     239.7397  0.013489742  0.012704836            1 
 1482000   0.65881697   -8.5377604    239.58274  0.013471814  0.012693398            2 
 1483000   0.66405031   -8.5439096     240.0247  0.013487565  0.012681978            2 
 1484000   0.63863269   -8.5462452    239.89028  0.013470927  0.012670552            2 
 1485000   0.66446966   -8.5440961    239.82548   0.01345822  0.012659127            2 
 1486000   0.67188378   -8.5513139    239.86565  0.013451416  0.012647699            2 
 1487000   0.65476721   -8.5315509    239.68604  0.013432305  0.012636287            4 
 1488000   0.65139746   -8.5452745    239.71173  0.013424716  0.012624883            1 
 1489000   0.65430157   -8.5556704    239.70294  0.013415208  0.012613484            1 
 1490000    0.6780553   -8.5469342    240.01758  0.013423802  0.012602113            1 
 1491000   0.65454347    -8.566749    239.74337  0.013399473   0.01259077            1 
 1492000   0.67550828   -8.5635079    239.41445   0.01337212  0.012579414            2 
 1493000   0.64592494   -8.5509393    239.88102  0.013389206  0.012568083            2 
 1494000   0.65028903   -8.5422887    239.76833  0.013373959  0.012556772            1 
 1495000   0.65771673   -8.5526267    239.83147  0.013368532  0.012545486            1 
 1496000   0.66107491   -8.5965751    239.04364  0.013315711  0.012534188            2 
 1497000   0.65927529   -8.5455173     239.7058  0.013343676  0.012522913            2 
 1498000    0.6515349   -8.5421796    239.94071  0.013347837   0.01251167            3 
 1499000   0.63184859   -8.5528098     239.5786  0.013318802  0.012500418            3 
 1500000    0.6642237   -8.5692214    239.20255   0.01328903  0.012489158            4 
 1501000   0.65840937   -8.5472767    239.87404  0.013317457  0.012477919            3 
 1502000   0.65145035   -8.5488873    239.42228  0.013283527  0.012466696            1 
 1503000   0.64487015    -8.569847    239.37199    0.0132719  0.012455466            2 
 1504000   0.65271768   -8.5514294    239.63601  0.013277705  0.012444252            3 
 1505000   0.63546387   -8.5623768    239.70769  0.013272851  0.012433034            2 
 1506000   0.64182046   -8.5539699    239.27564  0.013240131  0.012421846            1 
 1507000   0.66029822   -8.5617343    239.16459  0.013225204  0.012410637            3 
 1508000   0.64792044   -8.5594052    239.78453  0.013250692  0.012399423            3 
 1509000   0.65199339   -8.5728395    239.64982  0.013234472  0.012388239            2 
 1510000   0.65163264   -8.5829678    239.38215  0.013210935  0.012377068            1 
 1511000    0.6402457   -8.5653211     239.6034  0.013214394  0.012365884            1 
 1512000   0.65289386   -8.5800256    239.09566  0.013177671  0.012354715            1 
 1513000   0.65327772   -8.5834743    239.59607  0.013196523  0.012343579            3 
 1514000   0.63834469      -8.5734    239.50237  0.013182649  0.012332439            4 
 1515000   0.65317636   -8.5702902    239.32196  0.013164024  0.012321332            3 
 1516000   0.64519722   -8.5892339    239.38659  0.013158893  0.012310221            3 
 1517000    0.6441075   -8.5741433    239.31354  0.013146207  0.012299131            2 
 1518000   0.63779249   -8.5521132    239.25745  0.013134467  0.012288049            3 
 1519000    0.6582591   -8.5854144    239.44496  0.013136107  0.012276951            3 
 1520000   0.65120515   -8.5825661    239.17302  0.013112556  0.012265858            1 
 1521000   0.66110365   -8.5669974    239.25891  0.013108641  0.012254778            1 
 1522000    0.6428255   -8.5730495    239.10295  0.013091489  0.012243707            3 
 1523000   0.63737483   -8.5886971    239.27205  0.013092146  0.012232653            3 
 1524000   0.65844735   -8.5726585    239.74967  0.013109671  0.012221625            5 
 1525000   0.64869076   -8.5814535    239.17722  0.013069793  0.012210575            2 
 1526000    0.6520411   -8.5674526     239.1708  0.013060878  0.012199586            3 
 1527000   0.64718799   -8.5727086    239.90574  0.013092433  0.012188604            2 
 1528000   0.65011412   -8.5695009    239.25961  0.013048626  0.012177636            2 
 1529000   0.63816406   -8.5827589    239.24255  0.013039162  0.012166679            2 
 1530000   0.64399376   -8.5795069    239.24893  0.013030988   0.01215573            3 
 1531000   0.64173488    -8.565558    239.53649  0.013038128  0.012144797            3 
 1532000   0.64469803   -8.5840915    239.22442  0.013012643  0.012133857            4 
 1533000    0.6494722    -8.596527    239.31444  0.013009047  0.012122923            6 
 1534000   0.65687731   -8.5948501    239.26154  0.012997694  0.012111995            4 
 1535000   0.63511859   -8.5915075    239.30732  0.012991711  0.012101067            4 
 1536000    0.6350022    -8.579828    239.44313  0.012990621  0.012090166            4 
 1537000   0.63614101   -8.5718089    239.17626    0.0129677  0.012079274            4 
 1538000   0.64922067   -8.6058649    239.40757  0.012971801  0.012068395            2 
 1539000   0.63505687   -8.5869902    239.29369  0.012957207  0.012057518            5 
 1540000   0.64263501   -8.6073349    239.11288  0.012939008  0.012046652            3 
 1541000   0.62748115   -8.6249464    239.02856  0.012926052  0.012035777            3 
 1542000   0.63535141   -8.6009398    239.19731  0.012926789  0.012024911            2 
 1543000   0.63946052   -8.6064692    239.18898  0.012917962  0.012014064            4 
 1544000    0.6338231   -8.5927231    238.97086  0.012897823  0.012003238            3 
 1545000    0.6337495   -8.6242337    239.35196   0.01291003   0.01199241            8 
 1546000    0.6257782   -8.6307823    238.73287  0.012868309  0.011981579            4 
 1547000   0.62894681   -8.6220101     239.2723  0.012889049  0.011970765            4 
 1548000   0.64617559   -8.6093929     238.9867  0.012865348  0.011959967            4 
 1549000   0.61711959   -8.5805116    239.52806  0.012886166  0.011949183            5 
 1550000   0.62971247   -8.6280253    238.65723  0.012831034  0.011938399            3 
 1551000   0.63298136   -8.6417064    238.92252  0.012837015  0.011927628            2 
 1552000   0.62460554   -8.5994985    239.07401  0.012836877  0.011916866            5 
 1553000   0.62831255   -8.6122778    239.20163   0.01283546  0.011906129            3 
 1554000   0.62498342    -8.618819    239.12838  0.012823272  0.011895413            5 
 1555000   0.64699113   -8.6142455    239.55008  0.012837625  0.011884686            4 
 1556000   0.61931968   -8.6322732    238.86676  0.012792778  0.011873976            5 
 1557000   0.62928011    -8.629282    238.97561  0.012790388  0.011863269            4 
 1558000   0.63036274   -8.5872702    239.36391  0.012802948  0.011852578            4 
 1559000   0.62155461    -8.598189    239.47138   0.01280048  0.011841898            5 
 1560000   0.62744112   -8.6174633    239.14468  0.012774823  0.011831224            5 
 1561000   0.62506254   -8.5976143    239.19606  0.012769382  0.011820554            7 
 1562000   0.63249444   -8.6241799    238.92373  0.012746678  0.011809894            3 
 1563000   0.64796418   -8.6391239    238.71106  0.012727184  0.011799254            6 
 1564000   0.64396625   -8.6269242    238.78984  0.012723244  0.011788647            1 
 1565000   0.63395292   -8.6112287    239.20041  0.012736976  0.011778029            1 
 1566000    0.6139197   -8.6091447    238.72611  0.012703603  0.011767412            3 
 1567000   0.61448122   -8.6174527    239.13104   0.01271703   0.01175681            2 
 1568000    0.6334346   -8.6176881    238.91144  0.012697249  0.011746232            2 
 1569000   0.64320041   -8.6060068    239.41446  0.012715873  0.011735672            2 
 1570000    0.6262186   -8.6076374    239.36136  0.012704955  0.011725117            2 
 1571000   0.62768424   -8.6181745    239.34191  0.012695836  0.011714576            2 
 1572000   0.62114666   -8.6271727    238.64133  0.012650622  0.011704012            2 
 1573000   0.62885115   -8.6061823    238.42043  0.012630877  0.011693469            2 
 1574000   0.62996933   -8.6349202      239.247  0.012666613  0.011682946            2 
 1575000   0.62689788   -8.6061302    238.99318  0.012645142  0.011672414            3 
 1576000   0.62288655   -8.6520551    238.54928  0.012613646  0.011661898            2 
 1577000   0.62088588   -8.6116112    239.22695  0.012641458  0.011651395            2 
 1578000   0.63538415   -8.5976557    239.26117  0.012635254  0.011640905            1 
 1579000    0.6165169   -8.6195512    238.63253  0.012594075  0.011630436            5 
 1580000    0.6169506   -8.6087434    239.06709  0.012609024  0.011619977            3 
 1581000   0.63447497   -8.6510521    238.78545  0.012586203  0.011609528            2 
 1582000   0.60267799   -8.6326092    238.97182  0.012588065  0.011599084            3 
 1583000   0.61728269   -8.6312952    239.36361  0.012600738  0.011588649            2 
 1584000   0.61698668    -8.642386    239.03216  0.012575345   0.01157824            1 
 1585000    0.6179974     -8.64217    238.91465  0.012561233  0.011567829            3 
 1586000   0.62342195   -8.6186374    239.10313  0.012563216  0.011557427            2 
 1587000    0.6184851   -8.6173878    239.24671  0.012562839  0.011547058            3 
 1588000   0.61313263   -8.6493164    239.03951  0.012544055  0.011536684            2 
 1589000    0.6151296   -8.6368558    238.80188  0.012523698  0.011526326            4 
 1590000   0.61482642   -8.6418011    238.77615  0.012514473  0.011515995            2 
 1591000   0.61090089   -8.6372939    238.85746  0.012510866  0.011505647            4 
 1592000   0.59583226   -8.6534124    238.69868  0.012494696  0.011495307            3 
 1593000   0.61767679   -8.6490866    239.12981  0.012509406  0.011484976            2 
 1594000    0.6110527   -8.6591801    238.57109  0.012472349  0.011474652            2 
 1595000    0.6208531   -8.6441401    239.21372  0.012498105  0.011464347            3 
 1596000   0.61676476   -8.6392566    238.76484  0.012466836  0.011454072            1 
 1597000   0.61973131   -8.6305719    238.38112  0.012439006  0.011443798            2 
 1598000   0.62118712   -8.6446102    238.78594  0.012452333  0.011433522            4 
 1599000   0.62354941   -8.6361081    238.67641  0.012438837  0.011423247            4 
 1600000   0.61732432   -8.6725324     238.3232  0.012412667  0.011412983            2 
 1601000   0.60947595   -8.6700032    238.52364  0.012415347  0.011402715            3 
 1602000   0.61734265   -8.6482521    238.96545  0.012430579  0.011392467            2 
 1603000   0.60114926    -8.644611    238.45376  0.012396224  0.011382219            2 
 1604000   0.62005431   -8.6279421     239.1283   0.01242354  0.011372007            3 
 1605000   0.60701831    -8.639096    238.56615  0.012386612  0.011361786            2 
 1606000   0.61180035   -8.6535059    238.45029  0.012372887  0.011351582            2 
 1607000   0.61020824   -8.6386916    238.92142  0.012389619  0.011341406            3 
 1608000   0.60853074   -8.6637916    238.96833  0.012384345  0.011331242            2 
 1609000   0.60164023   -8.6647464    239.05766  0.012381275  0.011321085            3 
 1610000   0.60845873   -8.6475286    238.60246  0.012350024  0.011310935            3 
 1611000   0.60069164   -8.6372259    238.42614  0.012333237   0.01130079            1 
 1612000   0.58881055   -8.6415848    238.32377  0.012320294  0.011290666            2 
 1613000   0.59221234   -8.6350988    238.71023  0.012332622  0.011280544            2 
 1614000   0.59796148   -8.6622707    238.75461  0.012327272  0.011270438            2 
 1615000   0.60193722   -8.6771542    238.48914  0.012305941  0.011260319            2 
 1616000   0.62051677   -8.6497574      238.652  0.012306725  0.011250222            1 
 1617000   0.61173825   -8.6546712    238.80765  0.012307135  0.011240137            5 
 1618000   0.60889204   -8.6530044     238.8241  0.012300376  0.011230076            2 
 1619000   0.59782942   -8.6513147    239.00069  0.012301868   0.01122002            1 
 1620000   0.59514451   -8.6374772    238.56739  0.012271985  0.011209993            2 
 1621000   0.60295681    -8.645782    238.31757  0.012251572  0.011199958            2 
 1622000   0.61146776   -8.6382245    239.26862   0.01229288  0.011189944            2 
 1623000   0.61388138   -8.6654211    238.60033  0.012250992  0.011179946            4 
 1624000   0.61633747   -8.6622514    238.57254  0.012242023  0.011169944            4 
 1625000   0.61313065   -8.6530272    238.57371  0.012234549  0.011159958            1 
 1626000   0.60351456   -8.6508402    238.72807  0.012234936  0.011149996            4 
 1627000   0.60288919   -8.6489908    238.84642  0.012233478  0.011140053            2 
 1628000   0.60182034   -8.6650647    238.61056   0.01221389  0.011130089            1 
 1629000   0.59523652   -8.6637024    238.76785  0.012214439  0.011120155            2 
 1630000   0.61745092    -8.669067    238.69067     0.012203  0.011110235            1 
 1631000   0.60519039   -8.6475959    238.59448  0.012190603  0.011100344            2 
 1632000   0.61066116   -8.6420624    238.90198  0.012198835  0.011090462            4 
 1633000   0.61539218   -8.6367734    238.99164   0.01219594  0.011080593            4 
 1634000   0.60250908   -8.6618399    238.51772  0.012164306  0.011070734            1 
 1635000   0.59970694   -8.6650334    238.89371   0.01217603  0.011060878            2 
 1636000   0.59534572   -8.6232504    238.85364  0.012166546  0.011051017            1 
 1637000   0.59691111   -8.6506112    238.69031  0.012150799  0.011041173            2 
 1638000   0.60600964   -8.6601894    238.27344  0.012122174  0.011031345            2 
 1639000   0.60468205   -8.6526128    238.96207   0.01214979  0.011021533            2 
 1640000   0.60305123   -8.6684342    238.97772  0.012143177  0.011011721            5 
 1641000     0.613229   -8.6420797    238.67187  0.012120246  0.011001926            1 
 1642000   0.59438123   -8.6595667    239.13202  0.012136217  0.010992135            1 
 1643000   0.59578339   -8.6591494    238.19287  0.012081197   0.01098234            2 
 1644000   0.60437373   -8.6680856    238.56418  0.012092669  0.010972549            2 
 1645000   0.58639655   -8.6478042    238.29764  0.012071815  0.010962784            2 
 1646000   0.57619948   -8.6797084    238.43033  0.012071199  0.010953019            4 
 1647000   0.59052587   -8.6624445    238.63131  0.012074039  0.010943249            2 
 1648000   0.58986247   -8.6651224    238.50999  0.012060578  0.010933507            4 
 1649000   0.59046204   -8.6710179    238.09288  0.012032185  0.010923762            4 
 1650000   0.58773434   -8.6804732    238.52089   0.01204651  0.010914034            5 
 1651000   0.59291647   -8.6368974    238.45517  0.012035896  0.010904342            3 
 1652000   0.58866377   -8.6730325    238.49187  0.012030462  0.010894649            2 
 1653000   0.61189727   -8.6555126     238.9032   0.01204392  0.010884962            2 
 1654000   0.59477999   -8.6689516    238.95956  0.012039478  0.010875278            4 
 1655000    0.5910131   -8.6877274     238.4379  0.012005936  0.010865601            2 
 1656000   0.58227711   -8.6834243    238.61148  0.012007421  0.010855934            2 
 1657000   0.58138517   -8.6715106    238.55632  0.011997401  0.010846276            4 
 1658000   0.60061634   -8.6717092    238.82968  0.012003904  0.010836621            2 
 1659000   0.59234977   -8.6726671    238.03282  0.011956641  0.010826978            3 
 1660000    0.5819491   -8.6883576    238.20499  0.011958082   0.01081734            7 
 1661000   0.59456637   -8.6901425      238.056  0.011943407   0.01080771            7 
 1662000   0.57718247   -8.6908518    238.03848  0.011935343  0.010798105            8 
 1663000   0.59009455   -8.6794511    238.51734  0.011952162  0.010788495            5 
 1664000   0.58995791   -8.6777517    238.83537  0.011960906  0.010778899            8 
 1665000   0.59213874    -8.693065    238.12658  0.011918247  0.010769308           11 
 1666000   0.59528897   -8.6912195    238.08738  0.011909133  0.010759727            8 
 1667000    0.5828608    -8.699244    238.15422   0.01190533  0.010750138            8 
 1668000   0.57819998   -8.6844084    238.72944  0.011926931   0.01074057            6 
 1669000   0.57757311   -8.6861681    238.28625  0.011897656  0.010731021            6 
 1670000   0.56558188   -8.6964844     238.4787  0.011900135  0.010721473            7 
 1671000   0.58630801   -8.6927711    238.39522   0.01188885  0.010711953            4 
 1672000   0.59092943   -8.6747283    238.51699  0.011887808  0.010702432            4 
 1673000    0.5811216     -8.67729     238.3888  0.011874318  0.010692913            4 
 1674000   0.57570684   -8.6953247    238.03708  0.011849715    0.0106834            2 
 1675000   0.59008976   -8.7075217    238.54948  0.011868133   0.01067389            6 
 1676000   0.56967931   -8.6944805    238.72103  0.011869582  0.010664377            6 
 1677000   0.57511801    -8.708907    238.49575  0.011851309  0.010654879            6 
 1678000   0.58489486   -8.6850571    238.33731  0.011836378  0.010645384            2 
 1679000   0.58543482   -8.6992102    237.97939  0.011811564  0.010635894            6 
 1680000   0.59647766    -8.696385    238.28796  0.011819839  0.010626427            2 
 1681000   0.58691488   -8.6998206    238.42105  0.011819406  0.010616988            1 
 1682000   0.58342038   -8.7103582    238.01296   0.01179216  0.010607542            5 
 1683000   0.57989361     -8.69455    238.02571  0.011785785  0.010598103            2 
 1684000   0.57410048   -8.7178563    238.01472  0.011778242  0.010588671            3 
 1685000   0.57373034   -8.6871157    238.27567  0.011784158  0.010579257            2 
 1686000   0.59999891   -8.7004887    238.04874  0.011765952  0.010569847            3 
 1687000   0.57745129    -8.695032    238.20426   0.01176666   0.01056044            2 
 1688000   0.58193323    -8.681652    238.17733  0.011758359  0.010551053            1 
 1689000   0.57104179   -8.6903435    238.06742  0.011745975   0.01054169            2 
 1690000   0.58047629   -8.7184409    237.85241  0.011728423  0.010532317            3 
 1691000   0.57951495   -8.6836712    237.60178  0.011709136  0.010522937            2 
 1692000   0.58281973   -8.7094861    237.92589  0.011718178  0.010513588            3 
 1693000   0.58497561    -8.717899    238.19587  0.011724546  0.010504239            2 
 1694000    0.5649564   -8.7177234    237.81324  0.011698801  0.010494906            2 
 1695000   0.56653152   -8.7194481    237.98377  0.011700283  0.010485578            3 
 1696000   0.56427343   -8.7013284     237.7671  0.011682739  0.010476266            4 
 1697000   0.57740517   -8.7138234    238.18383  0.011696318   0.01046697            2 
 1698000   0.58037026   -8.7160978    238.04203  0.011682471  0.010457685            2 
 1699000   0.58281829   -8.7329485    238.17671  0.011682201  0.010448403            2 
 1700000   0.56775861   -8.7029006    238.11599  0.011672353  0.010439137            4 
 1701000   0.57264056   -8.7077176     237.8756  0.011653713  0.010429884            3 
 1702000   0.57946603   -8.7141139    237.64243   0.01163545  0.010420632            2 
 1703000   0.57397785   -8.7359893    238.02249  0.011647215  0.010411382            2 
 1704000   0.58338872   -8.7214432    237.93106  0.011635909  0.010402147            2 
 1705000   0.55901297   -8.7311366    237.80532  0.011622938  0.010392921            5 
 1706000   0.56604126   -8.7048151    238.01445  0.011626341  0.010383702            2 
 1707000   0.58167208   -8.7221323    237.86181  0.011612078  0.010374488            2 
 1708000    0.5706312   -8.7231643    238.02091  0.011613042  0.010365302            1 
 1709000   0.57023718   -8.7218769    238.11251  0.011610713  0.010356121            2 
 1710000   0.58084938   -8.6907174    238.00537  0.011598702  0.010346931            1 
 1711000   0.57611638   -8.7202729    237.94715  0.011589088  0.010337764            1 
 1712000   0.58199017    -8.715289    237.83774  0.011576993  0.010328601            5 
 1713000   0.56030076   -8.6974553    237.94648  0.011575525  0.010319448            4 
 1714000    0.5627348   -8.7173952    238.12923  0.011577656  0.010310315            2 
 1715000   0.56873172   -8.7250903    238.29497  0.011578959  0.010301194            6 
 1716000   0.56721703   -8.7141719    238.00864  0.011558306  0.010292084            2 
 1717000   0.57790682   -8.7243213    237.74436  0.011538748  0.010282983            1 
 1718000   0.55625069   -8.7268272    237.88957  0.011539075  0.010273875            2 
 1719000   0.55755723   -8.7250168    237.71303  0.011523804  0.010264769            2 
 1720000    0.5621233   -8.7132717     237.9499   0.01152858  0.010255679            1 
 1721000   0.56367155   -8.7231894    238.04527    0.0115265  0.010246595            2 
 1722000   0.57408105   -8.7164738    237.88421  0.011512012  0.010237536            2 
 1723000   0.56605668   -8.7284568     237.8619  0.011504252  0.010228471            2 
 1724000   0.56421384   -8.7384512     237.9956  0.011504041  0.010219429            2 
 1725000   0.55366323    -8.723896    237.89627  0.011492573  0.010210391            2 
 1726000   0.56050933   -8.7256428    237.91858  0.011486992  0.010201357            3 
 1727000   0.56402119   -8.7029186    237.69933  0.011469761   0.01019234            3 
 1728000   0.56409258   -8.7262261    237.71293  0.011463779  0.010183326            5 
 1729000   0.56083075   -8.7110627    237.95592  0.011468861   0.01017434            2 
 1730000   0.55842505   -8.7297974    237.85633  0.011457434  0.010165351            1 
 1731000   0.57116142    -8.731091    238.08848  0.011461991  0.010156372            3 
 1732000   0.56504131   -8.7203038    237.68802  0.011436106  0.010147404            4 
 1733000   0.56817339   -8.7278597    237.56062  0.011423381  0.010138439            3 
 1734000   0.57095701   -8.7248111    237.55332  0.011416442  0.010129494            2 
 1735000   0.55989059   -8.7347971    237.83306  0.011423298  0.010120562            3 
 1736000   0.56437066   -8.7386292    238.10347  0.011429698  0.010111643            2 
 1737000   0.54958952   -8.7346721    237.98228  0.011417304  0.010102719            2 
 1738000   0.55411209   -8.6980414    237.87608  0.011405642  0.010093818            1 
 1739000   0.55694899   -8.7377513    238.06648  0.011408208   0.01008492            2 
 1740000   0.56396654   -8.7533635    237.64765  0.011381593   0.01007602            2 
 1741000   0.57339315    -8.729009    238.03448  0.011393571  0.010067142            1 
 1742000   0.53794101   -8.7315527    237.72584  0.011372266  0.010058268            1 
 1743000   0.54849436   -8.7399694    237.65422  0.011362317  0.010049404            2 
 1744000   0.56237326   -8.7517911    237.66916  0.011356516  0.010040549            1 
 1745000   0.54622652   -8.7518789    237.51339  0.011342569  0.010031702            2 
 1746000   0.56381302   -8.7442838    237.81911  0.011350664  0.010022856            3 
 1747000   0.55954449   -8.7437274    237.73326  0.011340071  0.010014037            3 
 1748000    0.5587743   -8.7499346    237.40792  0.011318074  0.010005245            2 
 1749000   0.55078293   -8.7596199    237.44245  0.011313248 0.0099964416            1 
 1750000   0.55765592   -8.7540004    237.45257  0.011307265 0.0099876419            2 
 1751000    0.5408151   -8.7277424    237.95007  0.011324485 0.0099788569            3 
 1752000   0.55194945    -8.749785     237.7096  0.011306583 0.0099700756            2 
 1753000   0.56214231   -8.7688707    237.84085  0.011306372 0.0099613149            1 
 1754000   0.55085258   -8.7342581    237.79333  0.011297669 0.0099525694            3 
 1755000   0.56162845   -8.7411652    237.57274  0.011280757 0.0099438313            2 
 1756000   0.55120623   -8.7386248    237.46639  0.011269286 0.0099350935            2 
 1757000   0.55897439   -8.7597031    237.40336  0.011259882  0.009926374            3 
 1758000    0.5410555   -8.7534499    237.25265  0.011246333 0.0099176485            3 
 1759000   0.54385862   -8.7748242    237.71095  0.011261652 0.0099089316            3 
 1760000   0.55695216   -8.7493778    237.56884  0.011248525 0.0099002195            6 
 1761000   0.54831633   -8.7701644    237.63353  0.011245198 0.0098915169            1 
 1762000   0.53652647   -8.7647912    237.29673  0.011222887 0.0098828209            2 
 1763000   0.53939808   -8.7796504    237.74029  0.011237488 0.0098741228            3 
 1764000   0.55792456   -8.7536893    237.67094  0.011227841 0.0098654492            2 
 1765000    0.5447605   -8.7669111    237.52423  0.011214553 0.0098567756            2 
 1766000   0.54751513   -8.7691113    237.60695  0.011212106 0.0098481185            1 
 1767000   0.53935816   -8.7742536     237.2266  0.011187823 0.0098394693            1 
 1768000   0.54918525   -8.7643636    237.63075  0.011200544 0.0098308254            3 
 1769000   0.54771953   -8.7648796    237.25248  0.011176393 0.0098221954            2 
 1770000   0.56241849   -8.7759808    238.03022  0.011206696 0.0098135701            2 
 1771000   0.55076676   -8.7629766    237.27868  0.011165005 0.0098049434            3 
 1772000   0.53298368   -8.7817437    236.87913  0.011139914 0.0097963277            1 
 1773000    0.5390853   -8.7539631    237.92741  0.011182901 0.0097877324            2 
 1774000   0.55102098   -8.7722834    237.26439  0.011145452 0.0097791329            2 
 1775000   0.54299231   -8.7786385    237.19586  0.011135956 0.0097705459            1 
 1776000    0.5384023   -8.7722213    237.61295  0.011149256 0.0097619742            4 
 1777000   0.54664067   -8.7666881    237.23888   0.01112544 0.0097534085            3 
 1778000   0.54107729   -8.7587891     237.5658  0.011134505 0.0097448488            6 
 1779000    0.5529817   -8.7717376    237.12588  0.011107639 0.0097363063            1 
 1780000    0.5405981   -8.7911862    237.22889  0.011106221 0.0097277696            4 
 1781000   0.54062368   -8.7655779    237.19563  0.011098429 0.0097192468            2 
 1782000   0.53500281   -8.7881005    237.52733  0.011107713 0.0097107308            3 
 1783000   0.54403648   -8.7635521    237.33131  0.011092321 0.0097022231            2 
 1784000   0.54549313   -8.7811248    237.27859  0.011083641 0.0096937279            2 
 1785000   0.54300246   -8.7826538    237.53172  0.011089249 0.0096852544            1 
 1786000   0.52420529   -8.7871996    237.28009  0.011071299 0.0096767856            5 
 1787000   0.54684012   -8.7695274    237.59484  0.011079782 0.0096683291            1 
 1788000   0.55082883   -8.7712814    237.39047   0.01106406 0.0096598831            2 
 1789000   0.52486364   -8.7805391    237.37359  0.011057089 0.0096514321            2 
 1790000   0.54679494   -8.7877111    236.89027  0.011028411 0.0096429898            2 
 1791000   0.53864054   -8.7861996    237.09459   0.01103176 0.0096345601            1 
 1792000   0.53977911   -8.7753436    237.66007    0.0110519 0.0096261258            2 
 1793000   0.53796371   -8.7707749     237.1776  0.011023313 0.0096177157            4 
 1794000    0.5381033   -8.7906583    237.36939  0.011026077 0.0096093134            2 
 1795000   0.52310898   -8.8100555    236.89727  0.010998016  0.009600908            2 
 1796000   0.54002145   -8.7887858    237.56547  0.011022897 0.0095925151            2 
 1797000   0.53910961   -8.7983549    237.27007  0.011003064 0.0095841382            2 
 1798000   0.53685311   -8.7925702    236.97603  0.010983316 0.0095757666            2 
 1799000   0.53290744   -8.7864318      236.942  0.010975635 0.0095673884            4 
 1800000   0.53681174   -8.7852282     237.0645  0.010975208 0.0095590086            4 
 1801000   0.52970438   -8.7552334    237.25548  0.010977951 0.0095506597            2 
 1802000   0.53960435   -8.8014378     236.9013   0.01095548 0.0095423152            2 
 1803000   0.52801574   -8.7895888      236.987  0.010953365 0.0095339753            4 
 1804000   0.53008459   -8.7838932    236.93055  0.010944685 0.0095256419            1 
 1805000   0.53205798   -8.7847564    237.36691  0.010958768 0.0095173285            2 
 1806000   0.52557439   -8.7870868    237.33375   0.01095117 0.0095090139            3 
 1807000   0.54267417   -8.7989129    236.68682  0.010915275 0.0095007183            4 
 1808000   0.52097592   -8.7992236    237.12943  0.010929638 0.0094924249            2 
 1809000   0.53906337   -8.7950002     237.3557  0.010934019  0.009484137            1 
 1810000   0.52702376   -8.7858971    236.98598  0.010910957 0.0094758579            5 
 1811000   0.51614725   -8.8020176    237.19917  0.010914742 0.0094675959            1 
 1812000   0.53047544    -8.798576    236.96233  0.010897826 0.0094593277            2 
 1813000   0.53543177   -8.8066918    236.99804  0.010893457 0.0094510711            4 
 1814000   0.52752498   -8.8110108    237.03855  0.010889312 0.0094428267            2 
 1815000   0.53460242   -8.7771306    237.01819  0.010882378 0.0094346004            2 
 1816000   0.53158762   -8.7979703    236.69437  0.010861526 0.0094263988            5 
 1817000   0.54498432    -8.808484     236.9106  0.010865465 0.0094182023            4 
 1818000   0.52372934   -8.8200584     236.9743  0.010862408 0.0094100087            2 
 1819000   0.52453417   -8.7798906    237.10021  0.010862205 0.0094018153            4 
 1820000   0.53148383   -8.8022877    237.08736  0.010855648 0.0093936387            1 
 1821000   0.53343309   -8.8037079     237.0783  0.010849272 0.0093854657            3 
 1822000   0.51912782   -8.8079198    237.00286  0.010839867 0.0093773054            2 
 1823000   0.53676097   -8.8116036    237.20947  0.010843366 0.0093691575            1 
 1824000    0.5317281   -8.7994828    236.87144  0.010821977 0.0093610122            2 
 1825000   0.52770203   -8.8054397    237.06754  0.010825002 0.0093528744            2 
 1826000   0.53225991   -8.7958001    236.74302  0.010804263   0.00934474            4 
 1827000   0.52193078   -8.8233731    237.24247  0.010821131 0.0093366213            3 
 1828000   0.52326956   -8.8005029    236.72096  0.010791437 0.0093285062            3 
 1829000   0.51320278    -8.821567    236.82341  0.010790205  0.009320385            3 
 1830000   0.51537505   -8.8165077    236.91066  0.010788281 0.0093122857            5 
 1831000   0.51776581   -8.8145352    236.40207  0.010759242 0.0093041962            3 
 1832000   0.51403113   -8.7933833    236.66477  0.010765319  0.009296115            3 
 1833000   0.51610364   -8.8182896    236.97229  0.010773426 0.0092880297            2 
 1834000   0.52497332   -8.8246253    237.06642  0.010771829 0.0092799555            5 
 1835000   0.52279627   -8.8034836    237.04076  0.010764794 0.0092718927            3 
 1836000   0.51340956   -8.8186563    236.52118  0.010735348 0.0092638407            1 
 1837000   0.52346877   -8.8228122    236.93792  0.010748408 0.0092557921            1 
 1838000   0.51424379    -8.831888    236.37679  0.010717119 0.0092477522            3 
 1839000   0.52579665   -8.8268069    236.77447  0.010729313 0.0092397223            3 
 1840000   0.52363022   -8.8349586    236.60736  0.010715913 0.0092316972            5 
 1841000   0.52020311   -8.8222258      237.006  0.010728137 0.0092236786            2 
 1842000   0.51642516   -8.8037908    236.97386  0.010720859 0.0092156776            3 
 1843000   0.52821441   -8.8388897    236.70214  0.010702755 0.0092076874            2 
 1844000   0.52873427   -8.8291729    236.82755  0.010702619 0.0091997016            4 
 1845000    0.5245901   -8.8127618    237.04547  0.010706661 0.0091917319            1 
 1846000   0.50699264    -8.834804    236.77788  0.010688781 0.0091837714            4 
 1847000   0.51685222   -8.8272576    237.06517  0.010695956 0.0091758138            3 
 1848000   0.51024687   -8.8319984    236.51909  0.010665543 0.0091678601            1 
 1849000   0.50581661   -8.8459213    236.37682  0.010653363 0.0091599149            4 
 1850000   0.52081277   -8.8380302    236.80385   0.01066684 0.0091519716            4 
 1851000   0.53076455   -8.8181215    236.72142  0.010657366 0.0091440419            7 
 1852000   0.51478447    -8.845935    236.65108  0.010648447 0.0091361201            1 
 1853000   0.52769158   -8.8348054    236.95534  0.010656383 0.0091282145            6 
 1854000   0.50996557   -8.8398254    236.31961  0.010622061 0.0091203132            2 
 1855000   0.52017966   -8.8335417    236.82889  0.010639214 0.0091124169            5 
 1856000   0.51790903   -8.8225001    236.48852  0.010618198 0.0091045358            3 
 1857000   0.51171755   -8.8525432    236.48536  0.010612339 0.0090966642            3 
 1858000   0.51857706   -8.8375625    236.49171  0.010606912 0.0090888038            1 
 1859000   0.51530012   -8.8378509    236.80831  0.010615399 0.0090809422            2 
 1860000   0.51569945   -8.8185673    236.67701  0.010603809 0.0090730957            3 
 1861000   0.51344037   -8.8199937    236.71405  0.010599769 0.0090652623            3 
 1862000   0.50253261   -8.8538397    236.60747  0.010589307  0.009057428            3 
 1863000   0.51069817   -8.8168039    236.69109  0.010587363 0.0090495957            3 
 1864000   0.50728608   -8.8445923    236.46976  0.010571788 0.0090417792            3 
 1865000   0.51702258    -8.856124    236.61578  0.010572645 0.0090339735            4 
 1866000   0.50326385   -8.8397929     236.9805  0.010583266 0.0090261809            5 
 1867000   0.51256916   -8.8288963    236.30991  0.010547666 0.0090184001            4 
 1868000   0.51643257   -8.8445213    236.60854  0.010555342 0.0090106198            3 
 1869000   0.52257413   -8.8392289    236.46652  0.010543362  0.009002851            3 
 1870000   0.50737321   -8.8305809    236.67969  0.010547223 0.0089950892            2 
 1871000   0.51224819   -8.8487941    236.32614  0.010525839 0.0089873379            1 
 1872000   0.52323907   -8.8383573    236.58504  0.010531742 0.0089795946            3 
 1873000   0.50540573   -8.8447558    236.24379  0.010510936 0.0089718552            2 
 1874000   0.50219187   -8.8610391    236.70563  0.010525864 0.0089641309            3 
 1875000   0.51535185   -8.8329748    236.77776  0.010523456 0.0089564049            2 
 1876000   0.48974455   -8.8244233    236.85472  0.010521265 0.0089486927            2 
 1877000   0.49893852   -8.8179251    236.18439  0.010485899 0.0089409849            4 
 1878000   0.49829294   -8.8325188    236.33042  0.010486796 0.0089332826            3 
 1879000   0.51129292   -8.8591069    236.36174  0.010482603 0.0089255931            4 
 1880000   0.50631746   -8.8456345    236.24686  0.010471935 0.0089179204            5 
 1881000   0.51104024    -8.833302    236.41577  0.010473851 0.0089102524            6 
 1882000   0.50263285   -8.8538688    236.78215  0.010484509 0.0089025906            3 
 1883000   0.50289339   -8.8397859     236.5573   0.01046899 0.0088949422            2 
 1884000   0.51007765   -8.8485843    236.49945  0.010460874 0.0088872969            3 
 1885000   0.49604206   -8.8501436    236.45884  0.010453529 0.0088796629            2 
 1886000   0.50108388   -8.8432405    236.56666  0.010452751 0.0088720418            5 
 1887000   0.50211338   -8.8378881    236.66307  0.010451469 0.0088644197            1 
 1888000   0.50951451   -8.8591393    236.16673  0.010424026 0.0088568042            3 
 1889000   0.51183917   -8.8417337    236.36203  0.010427123 0.0088492023            4 
 1890000   0.49165833    -8.836401    236.45672  0.010425781 0.0088416129            4 
 1891000   0.49973731   -8.8529786    236.46267   0.01042053 0.0088340264            5 
 1892000   0.48452942   -8.8451004    236.47193   0.01041543 0.0088264484            5 
 1893000   0.48803421   -8.8592802    236.68823   0.01041945 0.0088188766            3 
 1894000   0.49365321   -8.8747361    236.70594  0.010414728 0.0088113187            4 
 1895000    0.4975811   -8.8443119    236.55629  0.010402651 0.0088037712            2 
 1896000   0.49381627   -8.8693845     236.4043  0.010390484 0.0087962278            2 
 1897000   0.49941928   -8.8498034    236.62147  0.010394547 0.0087886848            1 
 1898000   0.49645043   -8.8647722    236.42763   0.01038056 0.0087811584            4 
 1899000   0.48096743   -8.8643745    236.38714  0.010373317 0.0087736406            3 
 1900000   0.49185278   -8.8613477    236.18256  0.010358884 0.0087661198            3 
 1901000   0.49320715   -8.8595781    236.20031  0.010354213 0.0087586202            3 
 1902000   0.49419116    -8.865811    236.23574  0.010350321  0.008751122            2 
 1903000    0.4824771   -8.8522088    236.33926  0.010349416 0.0087436281            1 
 1904000   0.49339114   -8.8425418    236.26319  0.010340651 0.0087361397            2 
 1905000    0.4917396   -8.8612844    236.67371  0.010353181 0.0087286639            3 
 1906000   0.48838086   -8.8708802    236.39859   0.01033572 0.0087212006            2 
 1907000   0.48955036   -8.8680373    236.01369   0.01031348 0.0087137366            2 
 1908000   0.49223164    -8.866593    236.21775  0.010316988  0.008706286            3 
 1909000   0.47814574   -8.8676369    236.23879  0.010312502 0.0086988465            3 
 1910000   0.49223231   -8.8561071    236.30899  0.010310165 0.0086914134            3 
 1911000   0.49274742     -8.85321    236.18628  0.010299419 0.0086839842            2 
 1912000   0.50000097   -8.8679326    236.33579  0.010300549 0.0086765701            2 
 1913000   0.49116227   -8.8771702    236.05411  0.010282894 0.0086691535            3 
 1914000   0.48172297    -8.872589    236.60065  0.010301317 0.0086617464            2 
 1915000   0.48286205    -8.864364    236.36843  0.010285833 0.0086543571            2 
 1916000   0.48280183   -8.8731744    236.08579  0.010268171 0.0086469727            1 
 1917000   0.48957463   -8.8611346    236.53156  0.010282193 0.0086395947            2 
 1918000   0.49692687   -8.8729497    236.12397  0.010259123  0.008632224            3 
 1919000   0.48348895   -8.8753134     236.1295  0.010254017 0.0086248541            2 
 1920000   0.47830626   -8.8699931    236.44481  0.010262362 0.0086175015            3 
 1921000   0.48629159   -8.8811895    236.46034  0.010257693 0.0086101558            1 
 1922000   0.48352996   -8.8607116    236.40663  0.010250027 0.0086028128            2 
 1923000   0.48353479   -8.8779986    235.89005  0.010222311 0.0085954692            2 
 1924000    0.4950726   -8.8472942    236.11697  0.010226826 0.0085881413            2 
 1925000   0.48466362   -8.8681882    236.36621  0.010232303 0.0085808152            3 
 1926000   0.49035748   -8.8793633    236.27194  0.010222912 0.0085735071            7 
 1927000   0.49497691   -8.8753191    236.13666  0.010211756 0.0085662086            1 
 1928000   0.48070821   -8.8684268    236.28693  0.010212955 0.0085589121            2 
 1929000    0.4815821   -8.8708854    236.12142  0.010200511 0.0085516282            1 
 1930000   0.48130092   -8.8861291    236.44864  0.010209354 0.0085443522            1 
 1931000   0.47950205   -8.8897007    236.09707  0.010188895   0.00853708            2 
 1932000   0.48207088   -8.8724635    236.51224  0.010201529   0.00852982            2 
 1933000   0.48150668   -8.8861185    236.06949  0.010177164 0.0085225687            3 
 1934000   0.47786134   -8.8852061     236.1806  0.010176689 0.0085153295            2 
 1935000   0.47930573    -8.874699    235.99559  0.010163462 0.0085080935            2 
 1936000   0.47912096   -8.8818366    235.81208  0.010150313  0.008500863            2 
 1937000   0.48088151   -8.8817602    236.13062  0.010158777 0.0084936447            1 
 1938000   0.46563406   -8.8688637    236.07041  0.010150946  0.008486428            3 
 1939000   0.46904963   -8.8965531    236.29879  0.010155527 0.0084792226            4 
 1940000   0.48035813   -8.8641537    236.11589  0.010142435 0.0084720248            4 
 1941000   0.49020743    -8.881949    235.96677  0.010130807 0.0084648324            5 
 1942000   0.48244206   -8.8891036    236.04897  0.010129118 0.0084576475            3 
 1943000     0.478076   -8.8685402    236.31019  0.010135108 0.0084504738            3 
 1944000   0.47949416   -8.8873655    236.28902  0.010128987 0.0084433099            5 
 1945000   0.48055982   -8.8849532    236.36152  0.010126886 0.0084361462            2 
 1946000   0.47066264   -8.9072617    235.76709  0.010096227 0.0084289905            2 
 1947000   0.48351508   -8.8772435    235.99331  0.010100724 0.0084218425            2 
 1948000   0.47387577   -8.8904934    236.08644  0.010099523  0.008414708            2 
 1949000   0.48065734   -8.9097703    235.93215  0.010087744 0.0084075741            2 
 1950000   0.47855323   -8.8925524      235.918  0.010081966 0.0084004517            5 
 1951000   0.46527359   -8.8844447    235.73777    0.0100691 0.0083933376            5 
 1952000   0.47073283   -8.8954743    236.04854  0.010077209 0.0083862303            2 
 1953000   0.46924407   -8.8865034    236.14526  0.010076176 0.0083791281            2 
 1954000   0.47166351   -8.8942171     235.9191  0.010061374 0.0083720281            2 
 1955000   0.47508537   -8.8930357    235.99666  0.010059534 0.0083649385            4 
 1956000   0.47924937   -8.8929986    235.62874  0.010038716 0.0083578556            2 
 1957000     0.481433   -8.8737875    235.91381  0.010045725 0.0083507854            5 
 1958000   0.47605213   -8.8993744    235.70227  0.010031592 0.0083437203            2 
 1959000   0.48275406   -8.9029364     235.5877  0.010021597 0.0083366654            2 
 1960000   0.47113898   -8.8817633    235.81784  0.010026269 0.0083296224            1 
 1961000   0.48048005   -8.9044416    235.83147  0.010021735 0.0083225835            3 
 1962000   0.47940743   -8.8926338    235.83572  0.010016808  0.008315551            3 
 1963000   0.47063613    -8.893884    236.18513  0.010026538 0.0083085342            4 
 1964000   0.46976264   -8.8978718    235.63455 0.0099980715 0.0083015166            5 
 1965000   0.46874862   -8.9201608    235.93646  0.010005787 0.0082945033            4 
 1966000   0.45704867   -8.8918848    235.95947  0.010001673 0.0082875087            2 
 1967000   0.46853042   -8.9009989     235.5179 0.0099778808 0.0082805182            2 
 1968000   0.46364132   -8.9206127    235.47579 0.0099710279 0.0082735251            2 
 1969000   0.46469302   -8.9185879    235.63812 0.0099728341 0.0082665411            2 
 1970000   0.46422627   -8.9053181    235.87295 0.0099777049 0.0082595681            4 
 1971000   0.46505248   -8.8965669    235.74108 0.0099670677 0.0082526043            3 
 1972000   0.47379469   -8.8931909    236.01537 0.0099736044 0.0082456478            3 
 1973000   0.46308641   -8.8962157    235.94768 0.0099656901 0.0082386954            3 
 1974000   0.46915672   -8.9067508    235.85231 0.0099566158 0.0082317484            2 
 1975000   0.45852836    -8.908944     235.5551 0.0099390336 0.0082248088            2 
 1976000   0.45436357   -8.9004927    235.92321 0.0099495282 0.0082178759       -1e+20 
 1977000   0.46415484   -8.9064934    236.01353 0.0099483027 0.0082109546            6 
 1978000   0.46506722   -8.9086057    235.46031 0.0099199658 0.0082040378            2 
 1979000   0.46960094   -8.9151071    235.45738 0.0099148301 0.0081971288            3 
 1980000    0.4697657   -8.9054181    235.69662 0.0099198912 0.0081902273            5 
 1981000   0.45749835   -8.9083859    235.54931 0.0099086872 0.0081833324            1 
 1982000   0.46149305   -8.9158464    235.59407 0.0099055698 0.0081764438            4 
 1983000   0.45339384   -8.9222364    235.78411 0.0099085605 0.0081695589            4 
 1984000   0.45340798   -8.9249973    235.66433 0.0098985352 0.0081626837            3 
 1985000   0.45802431   -8.9071401    235.27286 0.0098771143 0.0081558171            5 
 1986000   0.46101841   -8.9081461    235.72112 0.0098909501 0.0081489632            3 
 1987000   0.46337091   -8.9048197    235.76193 0.0098876837 0.0081421105            2 
 1988000    0.4642162    -8.918169    235.96438 0.0098911965 0.0081352745            3 
 1989000   0.45888021   -8.9001914    235.99875 0.0098876635 0.0081284374            4 
 1990000   0.46216804   -8.9328448    235.64557  0.009867905 0.0081216135            3 
 1991000   0.46193055   -8.9048916    235.60942 0.0098614355  0.008114793            5 
 1992000   0.46001013   -8.9147699    235.95998 0.0098711505 0.0081079858            2 
 1993000   0.45403877   -8.9135612    235.98647 0.0098673052 0.0081011798            3 
 1994000   0.44892035   -8.9044503    235.83272 0.0098559312 0.0080943835            3 
 1995000   0.45681225   -8.9249126    235.71157 0.0098459304 0.0080875957            4 
 1996000   0.45729053   -8.9174659    235.62266 0.0098372854 0.0080808132            3 
 1997000   0.46823252   -8.9237323     235.6819 0.0098348314 0.0080740322            5 
 1998000      0.45348   -8.9225925    235.32036 0.0098148298 0.0080672591            2 
 1999000   0.45151836   -8.9147103    235.40712 0.0098135369 0.0080604952            3 
 2000000   0.45781768   -8.9330067    235.81054 0.0098254391 0.0080537378            3 
 2001000   0.45029229   -8.9214923    235.52434   0.00980861 0.0080469882            2 
 2002000   0.45352433   -8.9208945    235.61386 0.0098074366 0.0080402477            3 
 2003000   0.45403418   -8.9240707    235.70219 0.0098062151 0.0080335132            2 
 2004000   0.45173498   -8.9171908    235.66197 0.0097996495 0.0080267888            4 
 2005000   0.44781975   -8.9189264    235.05182 0.0097694022 0.0080200661            8 
 2006000    0.4410144   -8.9165194    235.70682 0.0097917423  0.008013352            2 
 2007000    0.4445683   -8.9376592    235.61432 0.0097830226 0.0080066461            4 
 2008000   0.45431658   -8.9436285    235.22979 0.0097621924 0.0079999487            4 
 2009000   0.44547447    -8.917349     235.7435 0.0097786419 0.0079932583            2 
 2010000   0.45607346   -8.9110488    235.58931 0.0097673845 0.0079865735            5 
 2011000   0.46125166   -8.9283366    235.69252 0.0097668044  0.007979897            1 
 2012000   0.44338261   -8.9433048    235.33891 0.0097473039 0.0079732303            6 
Loop time of 4882.64 on 48 procs for 2000000 steps with 4000 atoms

Performance: 70781.347 tau/day, 409.614 timesteps/s
99.4% CPU use with 48 MPI tasks x no OpenMP threads

MPI task timing breakdown:
Section |  min time  |  avg time  |  max time  |%varavg| %total
---------------------------------------------------------------
Pair    | 316.55     | 336.8      | 364.7      |  59.7 |  6.90
Neigh   | 32.245     | 33.591     | 34.793     |  12.0 |  0.69
Comm    | 305.07     | 330.87     | 354.33     |  58.2 |  6.78
Output  | 4.0798     | 4.0818     | 4.1159     |   0.2 |  0.08
Modify  | 4123.6     | 4133.6     | 4143.2     |   6.7 | 84.66
Other   |            | 43.72      |            |       |  0.90

Nlocal:        83.3333 ave          90 max          78 min
Histogram: 5 2 4 7 8 13 3 2 2 2
Nghost:        2157.19 ave        2177 max        2132 min
Histogram: 1 1 5 3 8 9 8 4 7 2
Neighs:        14244.9 ave       16157 max       12742 min
Histogram: 3 2 8 9 11 5 5 2 1 2
FullNghs:      28489.0 ave       30842 max       26552 min
Histogram: 4 2 5 11 7 8 3 4 2 2

Total # of neighbors = 1367474
Ave neighs/atom = 341.86850
Neighbor list builds = 106864
Dangerous builds = 1

#clear
#
#next RN
#
#jump SELF
Total wall time: 1:21:25
