
units lj                  # Use reduced LJ style units
atom_style atomic         # Uncharged point particles
atom_modify map hash      # Needed for indexing of clusters etc
                          # Used to be able to find where atoms are in relation to each other.

lattice fcc 1.0 spacing 1 1 1
Lattice spacing in x,y,z = 1.5874011 1.5874011 1.5874011
region box block 0 10 0 10 0 10 units lattice
create_box 2 box
Created orthogonal box = (0.0000000 0.0000000 0.0000000) to (15.874011 15.874011 15.874011)
  3 by 4 by 4 MPI processor grid
create_atoms 1 box
Created 4000 atoms
  using lattice units in orthogonal box = (0.0000000 0.0000000 0.0000000) to (15.874011 15.874011 15.874011)
  create_atoms CPU = 0.003 seconds
set type 1 type/fraction 2 0.1 78393
Setting atom values ...
  435 settings made for type/fraction
mass 1 1.0
mass 2 1.0
pair_style lj/cut  3.5
pair_modify tail  yes
pair_coeff 1  1  1.0  1.0   # Intearaction between 1 and 1 set with epsilon = 1 and sigma = 1
pair_coeff 1  2  1.5  0.8
pair_coeff 2  2  0.5  0.88

write_data data.0
System init for write_data ...
Neighbor list info ...
  update every 1 steps, delay 10 steps, check yes
  max neighbors/atom: 2000, page size: 100000
  master list distance cutoff = 3.8
  ghost atom cutoff = 3.8
  binsize = 1.9, bins = 9 9 9
  1 neighbor lists, perpetual/occasional/extra = 1 0 0
  (1) pair lj/cut, perpetual
      attributes: half, newton on
      pair build: half/bin/atomonly/newton
      stencil: half/bin/3d
      bin: standard
WARNING: Not all mixed pair coeffs generated from mixing. Use write_data with 'pair ij' option to store all pair coeffs. (../write_data.cpp:312)


#############################
#   M E L T   S Y S T E M   #
#############################

velocity all create 2.4 6229865 mom yes dist gaussian # Assign velocities
                                                    # Temperature 2.4, random number seed, zero linear momentum
                                                                                # Gaussian distribution

timestep 0.002   # simulation timestep
thermo 1000       # output thermodynamic data every 1000 steps bf 100

# Define a fix  in this case with index 1 applied to all
# particles in the simulation. This fix is for simulations
# in the anisotropic NPT ensemble. Note that we use the MTK
# correction.
fix 1 all npt temp 2.4 2.4 0.1 iso 5.68 5.68 0.5 mtk yes tchain 5 pchain 5 # Use NPT ensemble
                                                                         # Set temperature and pressure and damping
                                                                         # Numbers of thermostats in chain and in barostat
run 10000          # run for 10000 steps
Per MPI rank memory allocation (min/avg/max) = 3.642 | 3.644 | 3.648 Mbytes
Step Temp E_pair E_mol TotEng Press Volume 
       0          2.4   -7.6732445            0   -4.0741445   -3.0506691         4000 
    1000    2.3992059   -4.5960343            0  -0.99812508    5.7064316    4842.7289 
    2000    2.3941299     -4.70911            0    -1.118813    5.4444694     4805.334 
    3000    2.3970463   -4.6420233            0   -1.0473527    5.6164922    4820.1816 
    4000    2.3776092   -4.5535813            0  -0.98805918    5.6564952    4863.4055 
    5000    2.4159791   -4.6174554            0  -0.99439273    5.5605397    4848.3571 
    6000    2.3823493   -4.6491653            0   -1.0765348    5.8018098    4795.5436 
    7000    2.4256729   -4.6704443            0   -1.0328446    5.4297148    4830.1574 
    8000    2.4044569   -4.6445606            0   -1.0387768    5.6030412    4818.0356 
    9000    2.4541752   -4.5984402            0  -0.91809769    5.9229596    4814.0468 
   10000    2.3816504   -4.6705808            0   -1.0989983    5.5386672    4816.2407 
Loop time of 2.2423 on 48 procs for 10000 steps with 4000 atoms

Performance: 770635.784 tau/day, 4459.698 timesteps/s
99.6% CPU use with 48 MPI tasks x no OpenMP threads

MPI task timing breakdown:
Section |  min time  |  avg time  |  max time  |%varavg| %total
---------------------------------------------------------------
Pair    | 0.90298    | 0.96874    | 1.1176     |   4.2 | 43.20
Neigh   | 0.19033    | 0.19916    | 0.22748    |   1.6 |  8.88
Comm    | 0.65438    | 0.81001    | 0.91384    |   6.0 | 36.12
Output  | 0.00024342 | 0.00024747 | 0.00030982 |   0.0 |  0.01
Modify  | 0.20955    | 0.24955    | 0.32066    |   5.6 | 11.13
Other   |            | 0.01459    |            |       |  0.65

Nlocal:        83.3333 ave          93 max          73 min
Histogram: 1 0 5 9 9 3 6 7 7 1
Nghost:        1455.48 ave        1476 max        1438 min
Histogram: 1 4 10 7 8 5 3 6 1 3
Neighs:        7903.92 ave        9137 max        6616 min
Histogram: 1 2 6 7 7 6 8 6 4 1

Total # of neighbors = 379388
Ave neighs/atom = 94.847000
Neighbor list builds = 905
Dangerous builds = 209

# Equilibrate just above the melting temperature to avoid step fn in T

fix 1 all npt temp 1.25 1.25 0.1 iso 5.68 5.68 0.5 mtk yes tchain 5 pchain 5
run 2000
Per MPI rank memory allocation (min/avg/max) = 3.642 | 3.644 | 3.648 Mbytes
Step Temp E_pair E_mol TotEng Press Volume 
   10000    2.3816504   -4.6705808            0   -1.0989983    5.5386672    4816.2407 
   11000    1.2544371   -6.1892203            0    -4.308035    5.6519293    3990.9367 
   12000    1.2402469   -6.2396075            0   -4.3797023    5.7378697    3957.2614 
Loop time of 0.484466 on 48 procs for 2000 steps with 4000 atoms

Performance: 713362.107 tau/day, 4128.253 timesteps/s
99.6% CPU use with 48 MPI tasks x no OpenMP threads

MPI task timing breakdown:
Section |  min time  |  avg time  |  max time  |%varavg| %total
---------------------------------------------------------------
Pair    | 0.20795    | 0.22562    | 0.25381    |   1.9 | 46.57
Neigh   | 0.031589   | 0.033415   | 0.037051   |   0.7 |  6.90
Comm    | 0.1476     | 0.17148    | 0.19093    |   2.4 | 35.40
Output  | 4.9906e-05 | 5.0787e-05 | 6.4947e-05 |   0.0 |  0.01
Modify  | 0.040378   | 0.049348   | 0.059378   |   2.3 | 10.19
Other   |            | 0.00455    |            |       |  0.94

Nlocal:        83.3333 ave          92 max          75 min
Histogram: 4 3 5 5 2 15 2 8 3 1
Nghost:        1660.04 ave        1681 max        1636 min
Histogram: 2 1 3 6 9 5 12 7 0 3
Neighs:        9642.69 ave       10650 max        8349 min
Histogram: 3 0 2 10 1 7 13 4 5 3

Total # of neighbors = 462849
Ave neighs/atom = 115.71225
Neighbor list builds = 143
Dangerous builds = 7

#############################
# L I N E A R  Q U E N C H  #
#############################

# Define solid atoms. This closely follows ten Wolde  Ruiz-Montero and Frenkel  Faraday Discuss  1996  104  93-110
# Compute components of the per-atom q6 vector
compute q6 all orientorder/atom degrees 1 6 components 6 nnn NULL cutoff 1.3 # compute the Q6 parameter.
                                                                             # Use all neighbours within 1.3 unit cell.

# get number of connections
compute coord_number all coord/atom orientorder q6 0.5

# An atom is solid if it has 8 or more connections (of a possible 14)
variable is_solid atom c_coord_number>=8
group solid dynamic all var is_solid    # Must be dynamic to update
dynamic group solid defined

# do clustering
compute cluster solid cluster/atom 1.3 # Create a cluster where all atoms within are solid and max 1.3 units from another member

# define chunks one chunk per cluster
compute clus_chunks solid chunk/atom c_cluster nchunk every compress yes  # Says which atoms are in which chunk

# count the size of each chunk
compute size_chunks solid property/chunk clus_chunks count


# Find the maximum entry in the vector of chunk sizes
variable max_n equal max(c_size_chunks)


# Thermo style which includes this variable
# thermo_style custom step temp pe vol v_max_n

thermo ${N}  # Print the thermo information every 100 steps
thermo 1000  

# Reset the npt fix at a lower temperature (below freezing)
fix 1  all npt temp  ${temp} ${temp}  0.1  iso  5.68  5.68  0.5  mtk yes tchain  5  pchain  5
fix 1  all npt temp  0.45 ${temp}  0.1  iso  5.68  5.68  0.5  mtk yes tchain  5  pchain  5
fix 1  all npt temp  0.45 0.45  0.1  iso  5.68  5.68  0.5  mtk yes tchain  5  pchain  5

dump dmp2 all dcd ${N} traj.dcd
dump dmp2 all dcd 1000 traj.dcd


compute msd all msd com yes
variable twopoint equal c_msd[4]/6/(step*dt+1.0e-6)
fix 9 all vector 10 c_msd[4]
variable fit equal slope(f_9)/6/(10*dt)
thermo_style custom step temp pe c_msd[4] v_twopoint v_fit v_max_n

fix 1 all npt temp 1.25 ${temp} 0.1 iso 5.68 5.68 0.5 mtk yes tchain 5 pchain 5
fix 1 all npt temp 1.25 0.45 0.1 iso 5.68 5.68 0.5 mtk yes tchain 5 pchain 5
run 500000 # 5000000  # Run for this many steps
Neighbor list info ...
  update every 1 steps, delay 10 steps, check yes
  max neighbors/atom: 2000, page size: 100000
  master list distance cutoff = 3.8
  ghost atom cutoff = 3.8
  binsize = 1.9, bins = 9 9 9
  4 neighbor lists, perpetual/occasional/extra = 1 3 0
  (1) pair lj/cut, perpetual
      attributes: half, newton on
      pair build: half/bin/atomonly/newton
      stencil: half/bin/3d
      bin: standard
  (2) compute orientorder/atom, occasional
      attributes: full, newton on
      pair build: full/bin/atomonly
      stencil: full/bin/3d
      bin: standard
  (3) compute coord/atom, occasional
      attributes: full, newton on
      pair build: full/bin/atomonly
      stencil: full/bin/3d
      bin: standard
  (4) compute cluster/atom, occasional
      attributes: full, newton on
      pair build: full/bin/atomonly
      stencil: full/bin/3d
      bin: standard
Per MPI rank memory allocation (min/avg/max) = 9.752 | 9.757 | 9.761 Mbytes
Step Temp PotEng c_msd[4] v_twopoint v_fit v_max_n 
   12000    1.2402469   -6.2396075 1.4730005e-30 1.022917e-32 8.3333333e+20            5 
   13000    1.2566403   -6.2583801    0.5556823 0.0035620659  0.045905496            4 
   14000    1.2678429   -6.2109891    1.0922134 0.0065012697  0.045126156            3 
   15000    1.2445186   -6.2143173    1.6880532 0.0093780732  0.046825045            2 
   16000      1.22925    -6.277207    2.2165279  0.011544416  0.046784791            2 
   17000    1.2544714   -6.2496485    2.7712788  0.013584699  0.046197781            2 
   18000    1.2502319   -6.2155095    3.3529978  0.015523137  0.046301341            2 
   19000    1.2475105   -6.2054729    3.8886013  0.017055268  0.046399613            3 
   20000    1.2239279   -6.2325952    4.4542006  0.018559169  0.046505019            2 
   21000    1.2627731   -6.2838751     4.978524  0.019756047  0.046389044            2 
   22000    1.2446529    -6.221241    5.4853662  0.020777902   0.04608686            2 
   23000    1.2186518   -6.2500445    6.0639743  0.021970921  0.045918269            2 
   24000    1.2482209   -6.2543348    6.6484305  0.023084828   0.04591472            5 
   25000    1.2299884    -6.297738    7.2091974  0.024030657  0.045996606            3 
   26000    1.2259133   -6.2760788    7.6675928  0.024575617   0.04596475            2 
   27000    1.2099158   -6.2381542    8.1661728  0.025204236  0.045767904            2 
   28000    1.2164042   -6.2658524    8.6026318   0.02560307  0.045498626            2 
   29000    1.2301946   -6.2630253    9.1138557   0.02618924   0.04516902            3 
   30000    1.2150147   -6.2628842    9.6151661  0.026708794  0.044896616            3 
   31000    1.2010918   -6.2681122    10.138253  0.027253367  0.044648431            2 
   32000    1.2192848   -6.2371633    10.668977  0.027783793  0.044485797            2 
   33000    1.2215533     -6.28977    11.201786  0.028287339  0.044367602            4 
   34000    1.2153234   -6.3087284    11.771643  0.028852065  0.044292906            2 
   35000    1.2073154   -6.2959088    12.268054  0.029209651  0.044230723            2 
   36000    1.1987014   -6.3104444    12.812897  0.029659484  0.044179525            2 
   37000    1.2123139   -6.2985711    13.345008  0.030056325  0.044137799            2 
   38000    1.2095008   -6.3355269    13.819594  0.030306128  0.044080777            2 
   39000    1.1798333   -6.2688848    14.291131  0.030536604  0.044009681            2 
   40000    1.1937979   -6.3089923    14.663887  0.030549765   0.04387375            2 
   41000    1.2169192   -6.3050298    15.173923  0.030841306  0.043724947            5 
   42000    1.1881876   -6.3191139    15.642801  0.031037303   0.04359521            2 
   43000    1.1967478   -6.3184326    16.140737  0.031280498  0.043470216            3 
   44000    1.1954976    -6.329572     16.56882   0.03138034  0.043349827            2 
   45000    1.1942964    -6.306331    17.150856  0.031760844  0.043238772            2 
   46000      1.20126   -6.3097745     17.54824   0.03179029  0.043120118            3 
   47000    1.1687539   -6.3436778    18.122232  0.032131617  0.043008745            1 
   48000    1.1900527   -6.3579469    18.594908  0.032282826   0.04291988            7 
   49000    1.2048332   -6.3006064    19.121766   0.03252001  0.042831258            3 
   50000    1.1949893   -6.3431144    19.426835  0.032378058  0.042710083            2 
   51000    1.1690776   -6.3460136    19.837383  0.032414024  0.042580735            2 
   52000    1.1788935   -6.3353833    20.351729   0.03261495  0.042458046            3 
   53000    1.1999192   -6.3655376    20.952772  0.032944609  0.042369921            3 
   54000    1.1863585   -6.3319772    21.466941  0.033127995  0.042306483            4 
   55000    1.1886374   -6.3150589    22.030932    0.0333802   0.04224911            1 
   56000    1.2106537   -6.3237752    22.438202  0.033390182   0.04217178            3 
   57000    1.1759434   -6.3296776       22.864    0.0334269  0.042109349            2 
   58000    1.1869435   -6.3570547    23.376456  0.033586861  0.042032344            3 
   59000    1.1714054   -6.3494199    23.692783  0.033464383  0.041947007            1 
   60000     1.186376   -6.3317425    24.229173  0.033651628   0.04185795            2 
   61000    1.1348408   -6.3022965    24.674281  0.033708035  0.041769645            3 
   62000    1.1629618   -6.3475152    24.983621  0.033580136  0.041680376            3 
   63000    1.1516528   -6.3670662    25.301434  0.033467506  0.041572097            2 
   64000    1.1816401   -6.3752524    25.773482  0.033559221  0.041451469            6 
   65000    1.1565817   -6.3820713    26.301649  0.033720063  0.041346576            6 
   66000    1.1522371   -6.3768972    26.876021   0.03393437  0.041264282            3 
   67000     1.166798   -6.3806875    27.187018  0.033814698  0.041175553            5 
   68000    1.1832577   -6.3761518    27.740698  0.033995953  0.041084904            4 
   69000    1.1592418   -6.3784917    28.163139  0.034013452  0.041002708            4 
   70000    1.1648979   -6.3847253    28.494037  0.033921473  0.040909845            3 
   71000    1.1512547   -6.3741794    28.778181  0.033777207  0.040807264            4 
   72000    1.1366267   -6.3709376    29.080649  0.033658158  0.040679287            6 
   73000    1.1466013   -6.4128038    29.543006  0.033724893  0.040553023            2 
   74000    1.1661582   -6.3888547    29.993132  0.033776049  0.040434003            3 
   75000    1.1597288   -6.4223726    30.302612  0.033669569  0.040314812            3 
   76000    1.1503307   -6.4358508    30.606853  0.033560146  0.040189431            3 
   77000    1.1790787   -6.4197209      31.2041   0.03377067  0.040065083            2 
   78000    1.1363652   -6.3834468    31.635302    0.0337984  0.039953782            3 
   79000    1.1561007   -6.4249426    32.173112  0.033937882  0.039860348           10 
   80000    1.1443659   -6.4113734    32.686851  0.034048803  0.039773631            5 
   81000    1.1361655   -6.4443757    33.181762  0.034137615   0.03969599            3 
   82000    1.1316502    -6.412006    33.308845  0.033850452  0.039620192            2 
   83000     1.143754   -6.4174652    33.869606  0.034005628  0.039535796            2 
   84000    1.1149524   -6.4277283    34.158082  0.033886986   0.03944995            3 
   85000    1.1171738   -6.4379396    34.248588  0.033577047  0.039341116            4 
   86000      1.11082   -6.4224615    34.611891  0.033538654  0.039223363            2 
   87000    1.1430417   -6.4419907    34.977392  0.033503249  0.039099187            2 
   88000     1.128947   -6.4537675    35.149571  0.033285578  0.038967818            7 
   89000    1.1281461   -6.4253202    35.786317  0.033507787  0.038845945            2 
   90000    1.1262939   -6.4352292    36.037656    0.0333682  0.038722513            3 
   91000    1.1229464   -6.4016725    36.414344  0.033346469  0.038603284            7 
   92000    1.1313891   -6.4084492    36.691887  0.033235405  0.038482416            4 
   93000     1.110394   -6.4682566    36.945673  0.033105442  0.038359845            3 
   94000    1.1147449   -6.4720065    37.443548  0.033194635   0.03823346            4 
   95000    1.1146468   -6.4924503    37.592916  0.032976242   0.03810592            6 
   96000    1.1226136   -6.4874784    38.158343  0.033123561  0.037984605            3 
   97000    1.1104568   -6.4356559     38.57037  0.033136057  0.037872047            2 
   98000    1.1137785   -6.4328003     39.01109  0.033172696  0.037758681            3 
   99000    1.1145092   -6.4836238     39.37713  0.033145732  0.037650089            6 
  100000     1.099958   -6.4945516    39.717456   0.03309788  0.037541197            1 
  101000    1.1220104   -6.4740719    40.018415  0.033018494  0.037435884            2 
  102000    1.1203139   -6.4948011    40.391754  0.032999799  0.037328963            4 
  103000    1.1229979   -6.4396336    40.905122  0.033094759  0.037230098            3 
  104000     1.105192   -6.4948652    41.273079  0.033071377  0.037139489            2 
  105000    1.1167454   -6.4919937    41.848312  0.033212946  0.037054498            3 
  106000    1.0848322   -6.4956255    42.197966  0.033174501  0.036971443            2 
  107000    1.1020981   -6.4744677    42.474904  0.033080143  0.036892042            5 
  108000    1.1127272   -6.5009891    42.795713  0.033021383  0.036809752            3 
  109000    1.1127419   -6.5382241    43.159178  0.032996313  0.036724278            2 
  110000    1.0901159   -6.4906352    43.486133   0.03294404  0.036638878            2 
  111000    1.0787536   -6.4631196    43.738749  0.032836898  0.036554267            3 
  112000    1.0857035   -6.4969019    43.981385  0.032724245  0.036465503            4 
  113000    1.0840525    -6.481797    44.368092  0.032719832  0.036374161            3 
  114000    1.0655432     -6.50221    44.875171  0.032803488  0.036287147            3 
  115000    1.0678264   -6.5277589    45.075617   0.03266349  0.036202598            4 
  116000    1.0852557   -6.5151191     45.50138  0.032687773  0.036118565            3 
  117000    1.0682057   -6.5250704    45.623301  0.032495229   0.03603033            6 
  118000    1.0727637   -6.5216319    45.813263  0.032353999  0.035937577            3 
  119000    1.0454624   -6.5557903    46.196331  0.032350372  0.035844604            3 
  120000    1.0434186   -6.5418616    46.472677  0.032272693  0.035751834            5 
  121000    1.0577244   -6.5237031    46.881591  0.032287597  0.035656921            3 
  122000    1.0757375   -6.5129707    47.294737  0.032305148  0.035566667            3 
  123000    1.0675186   -6.5530312    47.372197  0.032094984  0.035476666            3 
  124000    1.0736634    -6.525492     47.86711  0.032168757  0.035383988            2 
  125000    1.0868712   -6.5351873    48.146504  0.032097669  0.035294239            5 
  126000    1.0390792   -6.5766287    48.364472  0.031987084  0.035207008            2 
  127000     1.065642   -6.5303683     48.86103  0.032061043   0.03511768            5 
  128000     1.058103   -6.5547582    49.170516  0.032012054  0.035032582            6 
  129000    1.0564662   -6.5541262    49.530014  0.031996133  0.034949187            3 
  130000    1.0664376   -6.5892624    49.875262  0.031971322  0.034864807            5 
  131000    1.0572235   -6.5398153    50.159154  0.031907859  0.034778006            5 
  132000    1.0607628   -6.6157073    50.166594   0.03167083  0.034691098            4 
  133000    1.0473649   -6.5628992    50.525028  0.031657285  0.034605409            4 
  134000    1.0511861   -6.5627733    50.903176  0.031656204  0.034521739            4 
  135000    1.0413338    -6.564796    51.462405  0.031766916  0.034436365            2 
  136000    1.0537127   -6.5974933    51.561677  0.031594165  0.034358951            2 
  137000    1.0781447   -6.5880241    52.034165  0.031650952  0.034283005            3 
  138000    1.0354479   -6.5681775    52.400155  0.031642606  0.034207633            2 
  139000    1.0445607   -6.5901688    52.765315  0.031633882   0.03412985            5 
  140000    1.0519789   -6.6117482    52.957502  0.031522323  0.034055201            3 
  141000    1.0447222   -6.6015074    53.130996  0.031401298  0.033980925            7 
  142000    1.0531367   -6.6170456    53.373365  0.031322397  0.033902803            4 
  143000    1.0451252   -6.6133623    53.657534  0.031268959  0.033823093            5 
  144000    1.0370636   -6.6155064    54.030853  0.031267854  0.033741419            3 
  145000    1.0285889    -6.594239    54.285835  0.031198756  0.033660653            3 
  146000    1.0232976   -6.5532209    54.643635  0.031189289  0.033582279            5 
  147000    1.0262883   -6.5926083    54.783512  0.031056413  0.033504287            5 
  148000    1.0180697   -6.6181577    55.120524  0.031036331  0.033425768            5 
  149000    1.0360637   -6.6534041    55.687557  0.031145166  0.033350239            3 
  150000     1.054047   -6.6502189    55.814797   0.03100822  0.033273726           16 
  151000    1.0084375   -6.6023447    56.275281  0.031056998  0.033200519            8 
  152000    1.0104091   -6.6206901    56.549688  0.031003118  0.033129228            4 
  153000    1.0123758   -6.6372666    56.671313  0.030866728  0.033056127            2 
  154000     1.018976    -6.603109    56.983102  0.030835012  0.032979061            5 
  155000    1.0131303   -6.6563542    57.211117  0.030758665  0.032904287            8 
  156000    1.0177573   -6.6382832    57.170719  0.030539914  0.032826557            4 
  157000    1.0195968    -6.641466    57.486093  0.030512788  0.032748084            4 
  158000    1.0190411    -6.630852    57.868273  0.030521241  0.032670303            4 
  159000    1.0042732   -6.6766171    58.134816  0.030468981  0.032593908            5 
  160000    1.0119734   -6.6546483    58.494835   0.03046606   0.03251821            5 
  161000    1.0151443   -6.6336268    58.655229  0.030359849  0.032444259            3 
  162000    1.0166447   -6.6750169    59.088394  0.030395264  0.032371611            9 
  163000    1.0002707    -6.643961    59.327523  0.030331044  0.032299374            5 
  164000    1.0094699   -6.6651473    59.306742   0.03013554  0.032224984            2 
  165000      1.00645   -6.6601159    59.735777  0.030169584  0.032148339            4 
  166000   0.99432683   -6.6985752    59.880782  0.030060634  0.032073259            5 
  167000   0.99008415   -6.6681668     60.07289  0.029976492  0.031996628            3 
  168000    1.0059848    -6.691259    60.270021  0.029895844  0.031918713           15 
  169000   0.99731097   -6.6764493    60.487558  0.029826212  0.031839737            4 
  170000   0.97587898   -6.6544756    60.684733  0.029747418  0.031757852           13 
  171000   0.99636429   -6.6770232    60.995276  0.029724793  0.031677303            2 
  172000    1.0011508   -6.7374838    61.124893  0.029614774  0.031597729            3 
  173000   0.99342446   -6.7271996    61.395314  0.029573851  0.031518981            5 
  174000   0.99685958    -6.702053    61.632398  0.029517432  0.031440091            2 
  175000   0.99315707   -6.7126796    62.048499  0.029546904  0.031364326            4 
  176000   0.99828147   -6.6952617    62.438873   0.02956386  0.031289919            4 
  177000   0.99031119   -6.6780597    62.900106  0.029613986  0.031217557            3 
  178000    1.0066968   -6.7101576    63.055908  0.029520556  0.031145472            2 
  179000   0.98644442   -6.7419455    63.228121   0.02943581  0.031072947            4 
  180000   0.95932318   -6.6975014    63.403659  0.029353546  0.031000198            8 
  181000   0.99498763   -6.7315036    63.661968  0.029310298  0.030928591            4 
  182000   0.97174657   -6.6955551     63.98772  0.029298407  0.030856957            5 
  183000   0.98422408   -6.7241175    64.190018  0.029230427  0.030786791            3 
  184000   0.97520143   -6.7663763    64.313206  0.029127358  0.030714977            4 
  185000   0.95865233   -6.7334503    64.749491  0.029166437  0.030643316            7 
  186000   0.98923638   -6.7242996    64.759823  0.029014257  0.030571176            6 
  187000   0.96959807   -6.7519432    65.243146  0.029074485  0.030501862            4 
  188000   0.96538213   -6.7614898    65.397448  0.028988231  0.030435436            3 
  189000   0.95923278   -6.7267653    65.551496  0.028902776   0.03036846            6 
  190000   0.97759652   -6.7572986    65.942991  0.028922364  0.030301188            5 
  191000   0.97986701   -6.7654728    66.191911  0.028879542  0.030233999            9 
  192000   0.96587633   -6.7420109    66.437492  0.028835717  0.030168628           11 
  193000    0.9492935   -6.7840468    66.446864  0.028690355  0.030100992           10 
  194000   0.97868891   -6.7691968    66.627962  0.028620259  0.030032123            7 
  195000   0.94892414   -6.7473736    66.956271  0.028613791  0.029963244            4 
  196000   0.96739062   -6.7671267    66.865333  0.028429138  0.029894606            9 
  197000   0.93910753   -6.7467676    67.345921  0.028488122  0.029825015            7 
  198000   0.94136287   -6.7989624    67.492703   0.02840602  0.029757241            5 
  199000   0.94879885   -6.7739875     67.80409  0.028393672  0.029689625            5 
  200000   0.95122481   -6.7731157    68.017064  0.028340443  0.029623135            4 
  201000   0.96767871   -6.7725539    68.160943  0.028259097  0.029555779            6 
  202000   0.95079345   -6.7847971    68.626162  0.028311123   0.02948825            3 
  203000   0.93096016   -6.7879155    68.594699  0.028158743  0.029420304            5 
  204000   0.92689756   -6.7648622    68.615113  0.028029049  0.029351865            4 
  205000   0.94664529   -6.7876834    68.942655   0.02802547  0.029283763            6 
  206000   0.94397365   -6.8054728    69.364934  0.028060248  0.029216645            4 
  207000   0.93821736   -6.8275082    69.700892   0.02805994  0.029151104            6 
  208000   0.92495237   -6.8077094     69.78539   0.02795889  0.029086779            9 
  209000    0.9511618   -6.7916173    69.997393  0.027909646  0.029023367            2 
  210000   0.93539372    -6.838888    70.338891  0.027912258  0.028959485            5 
  211000   0.93763295   -6.7923352    70.482077  0.027836523  0.028895947            4 
  212000   0.92725251   -6.8042155    70.713478  0.027796178  0.028832821            3 
  213000   0.94574403   -6.8586758     70.70176  0.027661095  0.028768825            4 
  214000   0.93399415   -6.8261128     71.09117  0.027683478  0.028702723            3 
  215000   0.94582694   -6.8494954    71.073508  0.027547871  0.028637387            4 
  216000   0.92587537   -6.7782655    71.129133  0.027441795  0.028572192            7 
  217000   0.90461151   -6.8212222    71.266467  0.027368075  0.028506098            7 
  218000   0.92218273   -6.8361214     71.32304  0.027264159  0.028439967            8 
  219000   0.90885438   -6.8326239    71.753063  0.027303296  0.028373118            3 
  220000   0.93800142   -6.8339848    71.856283  0.027218289  0.028307826            5 
  221000   0.91493738   -6.8395996    72.118865  0.027194142  0.028242828            7 
  222000   0.92985323   -6.8379407    72.500853  0.027215035  0.028178646            7 
  223000    0.9070389    -6.877022    72.777793  0.027196484  0.028114134            5 
  224000   0.91324688    -6.900258    72.903967  0.027122011  0.028050081            4 
  225000   0.90859096   -6.8655301    73.011191  0.027041182  0.027985814            7 
  226000   0.90931014   -6.8322465    73.235641  0.027004292  0.027921225            6 
  227000   0.89023438   -6.8604768    73.510562  0.026986256  0.027857359            6 
  228000   0.89927683   -6.8616187    73.597068  0.026899513  0.027795795            7 
  229000   0.87517353   -6.8864572    73.974426  0.026919369   0.02773368            5 
  230000   0.92651474   -6.8417623    74.087784    0.0268434  0.027671046            4 
  231000   0.89101821   -6.8552661      74.1565  0.026751984  0.027608781           12 
  232000   0.91340712   -6.9085616    74.350131  0.026706225  0.027547137            6 
  233000   0.90419602   -6.8478555    74.671826  0.026706662  0.027485491            5 
  234000   0.89833749   -6.8934565    74.938723  0.026687579  0.027425795           11 
  235000   0.88108981   -6.9177564    74.988295  0.026591594  0.027364297            7 
  236000   0.90606689   -6.8884846     74.93394  0.026459725  0.027302008            3 
  237000   0.90883317   -6.9080361     74.92414  0.026344634   0.02723845            4 
  238000   0.87834241   -6.8846057    75.349891  0.026383015  0.027175244            9 
  239000   0.86538493   -6.8947537    75.755716  0.026414127  0.027112907            9 
  240000     0.879201   -6.9299799    75.431683  0.026191556  0.027048996            5 
  241000   0.87745323   -6.9043454    75.599763  0.026140997  0.026985823            6 
  242000   0.88677065    -6.907621    75.828405   0.02611171  0.026921967           13 
  243000   0.90053439   -6.9209329    75.883664  0.026023204  0.026856592            4 
  244000   0.87910317   -6.9171994    75.751304  0.025871347  0.026791251            6 
  245000    0.8774295   -6.9155793    75.874418  0.025807625  0.026725741            7 
  246000   0.90295134   -6.9259472    76.228172  0.025822552  0.026661029            4 
  247000    0.8649599   -6.9278039    76.518031    0.0258158  0.026597049            4 
  248000   0.88147716   -6.9331478    76.368977  0.025661619   0.02653265            5 
  249000   0.86976596   -6.9497612    76.497946  0.025601722  0.026467436           10 
  250000   0.86571711   -6.9658992    76.854988  0.025618329  0.026401675            4 
  251000   0.86910646   -6.9610292    76.767821  0.025487324  0.026335769            3 
  252000   0.85962688   -6.9311962    77.057571  0.025482001  0.026269831            6 
  253000   0.87518081   -6.9243377    76.933525  0.025340423  0.026204709            5 
  254000   0.87511983   -6.9524404    77.185275  0.025323253  0.026138938            8 
  255000   0.86646655   -6.9424271    77.257874  0.025247671   0.02607328            6 
  256000   0.85185975   -6.9681055    77.402662  0.025196179  0.026007018            9 
  257000   0.83808754   -6.9269907    77.562538   0.02514998  0.025941281            4 
  258000   0.83929499   -6.9463724    77.698799  0.025096511  0.025874896            8 
  259000   0.85450379   -6.9769057    77.760786  0.025019558  0.025809135            7 
  260000   0.86019417   -6.9715403    77.759206  0.024922822  0.025742389            7 
  261000   0.85960214   -6.9880505    77.818547  0.024846279  0.025675647            6 
  262000   0.82837943   -6.9636684    77.891658    0.0247747   0.02560931            4 
  263000   0.84315156     -7.00025    78.158316  0.024764992   0.02554186           11 
  264000   0.84873477   -6.9978697    78.061266  0.024640551  0.025474889            7 
  265000   0.85137067   -6.9812059    78.396121  0.024652868  0.025407582            8 
  266000   0.85151371   -6.9983018    78.409498  0.024564379  0.025339987            3 
  267000   0.84525663   -6.9984658    78.338583  0.024450244  0.025272879            3 
  268000   0.85135406    -6.992848    78.619126  0.024446246  0.025206527            9 
  269000   0.81887611   -7.0307925    78.675178  0.024372732  0.025139101            5 
  270000    0.8545752   -6.9948133    78.646651  0.024273658  0.025071715            5 
  271000   0.82676552   -7.0226712    78.608702  0.024172418  0.025004145            8 
  272000   0.83542171   -7.0003702    79.014499  0.024207873  0.024936548            5 
  273000   0.83789942   -7.0325353    78.718215  0.024028759  0.024868563           10 
  274000   0.83793495   -7.0420564    78.956883   0.02401365   0.02480056            8 
  275000    0.8119277   -7.0030625      78.9803  0.023933424   0.02473238            2 
  276000    0.8338293   -7.0224683    78.948273  0.023837039  0.024663053           13 
  277000   0.82994159   -7.0511832    78.828861   0.02371506  0.024592767           12 
  278000   0.81114649   -7.0368198    78.834429  0.023631424  0.024522138            8 
  279000   0.83610595   -7.0409217    78.996119  0.023595018  0.024452441            9 
  280000    0.8209911   -7.0507136    79.201471  0.023571866   0.02438306            5 
  281000   0.83525521    -7.049106    79.264762   0.02350675  0.024313339           13 
  282000   0.80032469   -7.0242406    79.366672  0.023453508  0.024243885           11 
  283000   0.81911226     -7.06245    79.427002  0.023388399  0.024174326           10 
  284000   0.82736666   -7.0502193    79.308485  0.023271269  0.024105255           17 
  285000   0.81024849   -7.0296762    79.655361  0.023291041  0.024036328            6 
  286000   0.80335475   -7.0490572    79.647805  0.023207402  0.023968046            7 
  287000   0.81369786   -7.0578188    79.706877  0.023143693  0.023899624           11 
  288000   0.79709585   -7.0674473    79.949687   0.02313359  0.023830925            5 
  289000   0.80788363   -7.0853777    79.762903  0.022999684  0.023762081            7 
  290000   0.79600867   -7.0616637    79.881998  0.022954597  0.023693152            8 
  291000    0.8206607   -7.0490307    79.986397  0.022905612  0.023623779           11 
  292000   0.78540256   -7.0615033     80.09631  0.022858536  0.023555192            6 
  293000   0.80519639   -7.0830166     80.25137  0.022824622  0.023486889           15 
  294000   0.79063697   -7.1047904    80.111295  0.022707283  0.023417907            9 
  295000   0.81826639   -7.1027906    80.146559  0.022640271  0.023349231            5 
  296000   0.78521977   -7.1171893    80.206782  0.022580738  0.023280721            8 
  297000   0.79050782   -7.1063419    80.342745  0.022542858   0.02321207            7 
  298000   0.78585623   -7.1185329     80.33016  0.022463691   0.02314352           20 
  299000   0.78002215   -7.1233825    80.428748  0.022416039  0.023075032            4 
  300000   0.78956018   -7.1006755    80.501289  0.022361469  0.023007106            5 
  301000   0.79905806   -7.1329698    80.589532  0.022311609  0.022939714            6 
  302000    0.7878718    -7.102465    80.751492   0.02228242  0.022872372           12 
  303000   0.78865272   -7.1160139    80.575527  0.022160486  0.022804907            7 
  304000   0.76467052   -7.1093068    80.875152  0.022169724  0.022737829            8 
  305000   0.77003785   -7.1314622    80.851053  0.022090452  0.022671008            8 
  306000   0.77883139   -7.1493123    81.188313  0.022110107  0.022604567           15 
  307000   0.77736289   -7.1382479    81.051871  0.022001051  0.022538978           15 
  308000   0.78150324   -7.1433867    81.115316  0.021946785   0.02247386            9 
  309000   0.76899168   -7.1456627    81.401348  0.021952899  0.022408271           10 
  310000   0.77949353   -7.1566288    80.926145   0.02175434  0.022342674            3 
  311000    0.7687675   -7.1439562    81.243239  0.021769357  0.022276491            8 
  312000   0.77558767   -7.1178637    81.472562  0.021760834  0.022210995            7 
  313000   0.77214751   -7.1477963     81.35663  0.021660444  0.022145743           10 
  314000   0.73102644    -7.173455    81.462977  0.021619686  0.022080187           14 
  315000   0.76867616   -7.1626814     81.47147  0.021553299  0.022014881            7 
  316000   0.76982503   -7.1671569    81.576225  0.021512718  0.021950001            7 
  317000   0.72841833   -7.1683524    81.446835   0.02141084  0.021885222           22 
  318000   0.76690401   -7.1883201    81.716513  0.021414181  0.021820477            9 
  319000   0.75572278   -7.1588124     81.84602  0.021380883  0.021756229           10 
  320000   0.75880247   -7.2004778    81.882944  0.021323683  0.021692176            9 
  321000   0.75240361   -7.1856855    81.915447  0.021265692  0.021628384            9 
  322000    0.7612634   -7.1871081    81.876336  0.021189528  0.021564269            4 
  323000   0.76194831   -7.1839647    81.997551  0.021155199  0.021500523           11 
  324000   0.75131999   -7.1808937    82.348279  0.021180113  0.021437484            3 
  325000   0.73996078   -7.1769691    82.072021  0.021044108  0.021374578           13 
  326000   0.75517331   -7.1815602    82.024046  0.020967292  0.021311176           15 
  327000   0.74894536     -7.18063    82.404359  0.021000092    0.0212485           18 
  328000   0.75185862   -7.1893061      82.3788  0.020929573  0.021186197           16 
  329000   0.73937676   -7.1949572    82.391566  0.020869191  0.021123624           18 
  330000   0.73642155   -7.2101867    82.480433  0.020828392  0.021061585           11 
  331000   0.73341069   -7.1788455    82.564242  0.020786567  0.020999587           14 
  332000   0.74039526   -7.2457274    82.464341  0.020698881  0.020937883            7 
  333000    0.7404123   -7.2131317    82.553489  0.020659031  0.020875759            8 
  334000   0.74067564   -7.2431016    82.298819  0.020533637  0.020813571           10 
  335000   0.73472325   -7.2126486     82.30647  0.020474246  0.020751252           10 
  336000   0.72483167   -7.2355973    82.513324  0.020464614  0.020689046           14 
  337000    0.7271223    -7.244618    82.697629  0.020449463  0.020627349           16 
  338000   0.74495544   -7.2331984     82.85772  0.020428432  0.020566112            7 
  339000   0.71580306   -7.2592171    82.784842  0.020350256  0.020505127           11 
  340000   0.73024474    -7.231888    82.766957  0.020286019  0.020444404           17 
  341000   0.73075852   -7.2374632    82.788302  0.020231745  0.020383745           11 
  342000   0.71883073   -7.2352353    82.987721   0.02022118  0.020323169           12 
  343000   0.74579634   -7.2412403    83.147109   0.02020095  0.020262803            8 
  344000   0.72646974   -7.2421601    83.116121  0.020134719  0.020202982           13 
  345000   0.71962594   -7.2531408    83.095754  0.020071438  0.020143677            7 
  346000   0.71494684   -7.2747292    83.125592  0.020020615  0.020084255            8 
  347000   0.70635021    -7.254111    83.109176  0.019958976  0.020024946            5 
  348000   0.71317232   -7.2435257    83.107862  0.019901308  0.019965674            6 
  349000   0.72413011   -7.2774194    83.118942   0.01984693  0.019906547           10 
  350000    0.7125251   -7.2520112    83.187611  0.019806574   0.01984775           11 
  351000   0.70912699   -7.2681084    83.329302  0.019783785  0.019789136           10 
  352000   0.70839804   -7.2718666    83.345719  0.019731468  0.019730673           17 
  353000   0.71030232   -7.2781488     83.31894  0.019669249  0.019672417           20 
  354000   0.72875714   -7.2634735    83.256195  0.019598916  0.019613869           15 
  355000   0.68555721   -7.2645515    83.713236  0.019650994   0.01955591           19 
  356000   0.68546202   -7.2953521    83.473743  0.019539734  0.019498035           15 
  357000   0.68320029   -7.2855974    83.555877  0.019504173  0.019440022            8 
  358000   0.68949488   -7.3043906     83.34663  0.019400985  0.019381983           23 
  359000   0.70074401    -7.309425    83.539296  0.019391666  0.019324108           16 
  360000   0.69346287   -7.2996743    83.450184  0.019317172   0.01926611           11 
  361000   0.70006018   -7.3046066    83.228675  0.019212529  0.019208196           21 
  362000   0.67948592   -7.3034143     83.71391  0.019271158  0.019150701            9 
  363000   0.68766368   -7.3193173    83.791707  0.019235929   0.01909329           20 
  364000   0.68180162   -7.3145961    83.581492  0.019134957  0.019036392           19 
  365000   0.68576177   -7.3235999    83.537602  0.019072512  0.018979237           10 
  366000   0.66352419   -7.3355863    83.668223  0.019050142  0.018922016           17 
  367000    0.6705669   -7.3537243    83.609275  0.018984849  0.018864986           28 
  368000   0.68197501   -7.3604277    83.643406  0.018940989  0.018808299           17 
  369000   0.68094965   -7.3405551    83.730668  0.018909365  0.018751682           12 
  370000   0.67105419   -7.3345214    83.707531  0.018853047  0.018695091           30 
  371000   0.67929883   -7.3325672    83.729375  0.018807137  0.018638563           23 
  372000   0.67573863   -7.3646612    83.702702  0.018750605  0.018582508           19 
  373000   0.68480941   -7.3715688     83.55103   0.01866645  0.018526414           12 
  374000   0.67356864   -7.3496057    83.642829  0.018636994  0.018470585           26 
  375000   0.66774512   -7.3499027    83.759376  0.018613195  0.018414766           12 
  376000   0.66519504   -7.3694832    83.665096  0.018542796  0.018358983           14 
  377000   0.65708909   -7.3608161    83.811179  0.018525902  0.018303281           32 
  378000    0.6813158   -7.4031616    83.764246  0.018466545  0.018247929           12 
  379000   0.66117325   -7.3753832    83.680944  0.018399504   0.01819263           13 
  380000   0.66726162   -7.3909822    83.710922  0.018357658  0.018137212           19 
  381000   0.66619047   -7.3882272    83.721611  0.018311813  0.018082206           20 
  382000   0.63759846   -7.4120853    83.755272   0.01827122  0.018027169            9 
  383000   0.67360898   -7.3834868    83.786414   0.01823029  0.017972246           19 
  384000   0.64658904   -7.3971114    83.749455  0.018174795  0.017917411           17 
  385000   0.64971816   -7.3911877    83.700021  0.018116888  0.017862509           27 
  386000   0.66344149   -7.3949152    83.780875  0.018087408  0.017807653           11 
  387000   0.65267455   -7.3992686    83.714515  0.018026381  0.017752879           27 
  388000    0.6600381   -7.3894369    83.833905  0.018005564  0.017698419           29 
  389000   0.65098049   -7.4086956    83.762742  0.017944032  0.017644307           19 
  390000   0.65358269   -7.4229382     83.83863  0.017914237  0.017590226           22 
  391000   0.65311633   -7.4183209    83.852279   0.01787133  0.017536319           20 
  392000    0.6472142   -7.4193503    83.759492  0.017806014  0.017482628           28 
  393000   0.64788699   -7.3953705     83.86848  0.017783817  0.017429236           26 
  394000   0.62632293   -7.4026125    84.024046  0.017771583  0.017376205           10 
  395000   0.63217963   -7.4329187    83.909505  0.017702427  0.017323086           27 
  396000   0.65057844   -7.4611251    83.909961   0.01765782  0.017269937           15 
  397000   0.63042414   -7.4360842    83.810219  0.017592405  0.017217033           26 
  398000    0.6476495   -7.4319987    83.722017  0.017529736  0.017164024           12 
  399000   0.62217073   -7.4508259    83.827876  0.017507911  0.017111306           20 
  400000   0.63796192   -7.4445554    83.750778  0.017448079  0.017058785           24 
  401000   0.63706391   -7.4695681    83.970271  0.017450181  0.017006286           23 
  402000   0.63676225   -7.4548971    83.788577  0.017369108  0.016954078           40 
  403000   0.63042579   -7.4661473    83.886125   0.01734618  0.016902115           22 
  404000   0.63305034   -7.4396077    83.951002  0.017316626  0.016850249           25 
  405000   0.61528563   -7.4543737    84.119234  0.017308484  0.016798833           36 
  406000   0.61822754   -7.4467687    84.093632  0.017260598  0.016747648           48 
  407000    0.6133476   -7.4614663    83.911659  0.017180929  0.016696416           42 
  408000   0.61609539   -7.4728548    83.990272  0.017154876   0.01664518           65 
  409000   0.62194285   -7.4740388    84.075367   0.01713027  0.016593995           25 
  410000   0.60569381   -7.5211205    83.912511  0.017055388  0.016542873           44 
  411000   0.61017096   -7.4809595    83.941113   0.01701969  0.016491938           23 
  412000    0.6109728   -7.4723277    83.934445  0.016977032  0.016441153           19 
  413000   0.61878972   -7.4945398    83.811978  0.016911214  0.016390523           26 
  414000   0.59429968   -7.4842208    83.866153  0.016881271  0.016340074           32 
  415000   0.60163147   -7.5052434    83.775866  0.016822463  0.016289607           38 
  416000   0.59958979   -7.5006722    83.971519  0.016821218  0.016239152           38 
  417000   0.60459535   -7.5149198    83.871156  0.016760823  0.016189009           48 
  418000   0.59236465   -7.5096042    83.888781  0.016724239  0.016138983           43 
  419000   0.60164413   -7.5054431    83.953556  0.016697207  0.016089071           38 
  420000   0.58595356   -7.5088837    83.728396  0.016612777  0.016039264           52 
  421000    0.5959562   -7.5287537    83.888067  0.016604922  0.015989563           59 
  422000   0.58571568   -7.5099977    83.939867  0.016575803  0.015940035           30 
  423000   0.59345539   -7.5149803    83.672142  0.016483873  0.015890612           45 
  424000   0.58469857   -7.5325105    83.839741  0.016477936  0.015841084           40 
  425000   0.59596879   -7.5273037    83.740764  0.016419758  0.015791775           41 
  426000   0.58620477   -7.5080999    83.613522  0.016356323  0.015742361           89 
  427000   0.58817993   -7.5157243    83.725495   0.01633987  0.015693421           76 
  428000   0.58326976   -7.5306238    83.583777    0.0162741    0.0156445           48 
  429000   0.57852168   -7.5251299    83.629779  0.016245101  0.015595748           50 
  430000   0.57592917   -7.5360292    83.659173  0.016213018  0.015547076           58 
  431000   0.56562864   -7.5355813    83.466856  0.016138216  0.015498444           61 
  432000    0.5674448   -7.5558606    83.647588  0.016135723  0.015450082           52 
  433000   0.58406206    -7.555761    83.664615  0.016101735  0.015401844           43 
  434000   0.57106801   -7.5389199    83.715628  0.016074429  0.015353644           32 
  435000   0.58250041   -7.5583798    83.771363  0.016048154  0.015305785           43 
  436000    0.5712321   -7.5539898    83.700786  0.015997857  0.015258037           95 
  437000   0.57021127   -7.5605976    83.712734  0.015963527  0.015210432          116 
  438000   0.56299745   -7.5501893     83.60829  0.015907209  0.015162963           86 
  439000   0.57442031   -7.5823051    83.763784   0.01590049  0.015115612           84 
  440000   0.56181791   -7.5566797    83.557488  0.015825282  0.015068451          123 
  441000   0.56156632    -7.590779     83.48169  0.015775074  0.015021383          105 
  442000   0.56738114   -7.5588882    83.629471  0.015767246  0.014974501           70 
  443000   0.55132279    -7.588101    83.684925  0.015742085  0.014927751           72 
  444000   0.55380899    -7.586815    83.737725   0.01571654  0.014881119           47 
  445000   0.55072111   -7.5892304     83.69274  0.015672798  0.014834676           77 
  446000   0.56640191   -7.5991071    83.678091   0.01563492  0.014788322           59 
  447000   0.53758722   -7.6121359    83.599804  0.015585347  0.014742193           49 
  448000   0.55756161   -7.6091678    83.573528  0.015545671  0.014696109           61 
  449000   0.55701859   -7.6070056    83.468734  0.015491599  0.014650277          121 
  450000   0.55177735   -7.5940503    83.494135  0.015461877  0.014604524           67 
  451000   0.55508105   -7.6105174    83.519807  0.015432337   0.01455896           42 
  452000   0.54734377   -7.6088497    83.573472  0.015408088  0.014513563           61 
  453000   0.53747985   -7.6016415    83.543824  0.015368621  0.014468237           58 
  454000   0.54152931    -7.616278    83.587331  0.015342755   0.01442307           21 
  455000   0.54609651     -7.60079    83.559343  0.015303909  0.014378137           36 
  456000   0.54412756   -7.6113683    83.568026  0.015271934  0.014333301           37 
  457000   0.53802227    -7.616672    83.507789  0.015227533  0.014288643           39 
  458000   0.53285534   -7.6001307    83.443489  0.015182585  0.014244094           30 
  459000   0.51643297   -7.6172088    83.522469  0.015163847  0.014199602           46 
  460000    0.5228852   -7.6315522     83.30826  0.015092076   0.01415526           40 
  461000   0.52536443   -7.6368722    83.516714   0.01509702  0.014110967           95 
  462000   0.53585162   -7.6146117    83.410943  0.015045264  0.014066887           42 
  463000   0.53731982   -7.6331553    83.413916  0.015013304  0.014023007           45 
  464000   0.53172494    -7.638458    83.352755  0.014969963  0.013979157           43 
  465000   0.53508123   -7.6466486    83.418893  0.014949622  0.013935551           43 
  466000   0.53442739   -7.6183822    83.385269  0.014911529   0.01389215           63 
  467000   0.51484501   -7.6402901    83.532333  0.014905841  0.013848901           71 
  468000   0.51552549   -7.6332922     83.50101  0.014868413  0.013805783           76 
  469000   0.52029289    -7.637114    83.309785  0.014802734   0.01376282           47 
  470000   0.52812277   -7.6535523    83.322063  0.014773415  0.013720114          142 
  471000    0.5120079   -7.6460079    83.354293  0.014747752   0.01367748           74 
  472000   0.51782944   -7.6659759    83.466058  0.014736239  0.013635069           44 
  473000   0.51044181   -7.6539822    83.388101   0.01469135  0.013592808          100 
  474000   0.51398846   -7.6734631    83.278519   0.01464109  0.013550598           58 
  475000   0.50769717   -7.6716613    83.451851  0.014640676  0.013508584           93 
  476000   0.50576093   -7.6654117    83.324159  0.014587563  0.013466809           96 
  477000   0.49946837   -7.6668264    83.340785  0.014559886  0.013425193           46 
  478000   0.50328173   -7.6719579    83.408466  0.014541225  0.013383742           53 
  479000   0.50067927   -7.6688898    83.421616  0.014513155  0.013342432           85 
  480000   0.48692993   -7.6824769     83.31886   0.01446508  0.013301128           54 
  481000   0.49056899   -7.6593943    83.172886  0.014409717  0.013259986           49 
  482000   0.50168433   -7.6849429    83.286055  0.014399387  0.013219062          112 
  483000   0.49584151   -7.6934484     83.39039  0.014387576  0.013178203          123 
  484000    0.4846099   -7.6870619    83.172977  0.014320416  0.013137536          127 
  485000   0.48385838   -7.7001747    83.355062  0.014322176     0.013097          109 
  486000   0.48992148   -7.6991687    83.209501  0.014267747  0.013056647           85 
  487000   0.48989924   -7.7031519    83.311119  0.014255838  0.013016382           55 
  488000   0.49092668   -7.6947243    83.258169  0.014217583  0.012976258          108 
  489000   0.49359359   -7.6961925    83.215841  0.014181295  0.012936334           44 
  490000   0.47472801   -7.7058721    83.166765  0.014144008  0.012896539           51 
  491000    0.4768042   -7.7108264    83.314054  0.014140199  0.012856902           98 
  492000   0.47613563   -7.7137627    83.183899  0.014089414  0.012817376           90 
  493000   0.48773205   -7.7213264    83.241357  0.014070547  0.012777925          114 
  494000   0.46571072   -7.7136377    83.165783  0.014029316  0.012738701          122 
  495000    0.4736997   -7.7251885    83.220112   0.01401012  0.012699567           83 
  496000   0.47446447   -7.7271344    83.236192  0.013984575  0.012660605           97 
  497000   0.47418713   -7.7301343    83.167164  0.013944863  0.012621767          135 
  498000   0.47212769   -7.7087517    83.135089  0.013911494   0.01258312           44 
  499000   0.46146523   -7.7173486    83.143465  0.013885014   0.01254454          139 
  500000   0.48142497   -7.7057514    83.163701  0.013860617  0.012505981           94 
  501000    0.4642115   -7.7353471    83.123937  0.013826337  0.012467616          117 
  502000   0.47056847   -7.7364718    83.172137  0.013806796  0.012429437          135 
  503000   0.45743243   -7.7413187    83.070297  0.013762475  0.012391386          107 
  504000   0.46393045   -7.7487714    83.236948  0.013762723  0.012353363          168 
  505000   0.47220351   -7.7534031    83.019118  0.013699524  0.012315603           99 
  506000   0.45848152   -7.7355404    83.039351  0.013675782     0.012278          116 
  507000   0.46037185   -7.7476083    83.068938  0.013653672   0.01224049          142 
  508000    0.4665829    -7.757655    82.991378  0.013614071  0.012203107          104 
  509000   0.46313394   -7.7371123    83.023054   0.01359251  0.012165922          117 
  510000   0.45439665   -7.7454705     82.98729  0.013560015  0.012128827          101 
  511000   0.45380964   -7.7703392    82.997915  0.013535211  0.012091841          129 
  512000   0.45654193   -7.7753255    83.007367  0.013510314  0.012055038          128 
Loop time of 1106.55 on 48 procs for 500000 steps with 4000 atoms

Performance: 78080.815 tau/day, 451.857 timesteps/s
99.4% CPU use with 48 MPI tasks x no OpenMP threads

MPI task timing breakdown:
Section |  min time  |  avg time  |  max time  |%varavg| %total
---------------------------------------------------------------
Pair    | 65.396     | 71.6       | 76.901     |  32.0 |  6.47
Neigh   | 6.6179     | 6.8776     | 7.19       |   5.5 |  0.62
Comm    | 57.023     | 66.13      | 73.152     |  38.5 |  5.98
Output  | 0.80625    | 0.80679    | 0.81522    |   0.1 |  0.07
Modify  | 942.52     | 948        | 955.81     |   8.1 | 85.67
Other   |            | 13.13      |            |       |  1.19

Nlocal:        83.3333 ave          88 max          77 min
Histogram: 2 3 6 2 5 6 5 8 3 8
Nghost:        1813.52 ave        1828 max        1801 min
Histogram: 1 10 5 5 6 7 4 1 6 3
Neighs:        11153.8 ave       12389 max       10047 min
Histogram: 3 5 5 3 11 9 3 2 6 1
FullNghs:      22307.8 ave       23746 max       20195 min
Histogram: 2 1 3 4 6 7 7 10 1 7

Total # of neighbors = 1070772
Ave neighs/atom = 267.69300
Neighbor list builds = 26933
Dangerous builds = 0

#clear
#
#next RN
#
#jump SELF
Total wall time: 0:18:29
