
units lj                  # Use reduced LJ style units
atom_style atomic         # Uncharged point particles
atom_modify map hash      # Needed for indexing of clusters etc
                          # Used to be able to find where atoms are in relation to each other.

lattice fcc 1.0 spacing 1 1 1
Lattice spacing in x,y,z = 1.5874011 1.5874011 1.5874011
region box block 0 10 0 10 0 10 units lattice
create_box 2 box
Created orthogonal box = (0.0000000 0.0000000 0.0000000) to (15.874011 15.874011 15.874011)
  3 by 4 by 4 MPI processor grid
create_atoms 1 box
Created 4000 atoms
  using lattice units in orthogonal box = (0.0000000 0.0000000 0.0000000) to (15.874011 15.874011 15.874011)
  create_atoms CPU = 0.002 seconds
set type 1 type/fraction 2 0.11 78393
Setting atom values ...
  470 settings made for type/fraction
mass 1 1.0
mass 2 1.0
pair_style lj/cut  3.5
pair_modify tail  yes
pair_coeff 1  1  1.0  1.0   # Intearaction between 1 and 1 set with epsilon = 1 and sigma = 1
pair_coeff 1  2  1.5  0.8
pair_coeff 2  2  0.5  0.88

write_data data.0
System init for write_data ...
Neighbor list info ...
  update every 1 steps, delay 10 steps, check yes
  max neighbors/atom: 2000, page size: 100000
  master list distance cutoff = 3.8
  ghost atom cutoff = 3.8
  binsize = 1.9, bins = 9 9 9
  1 neighbor lists, perpetual/occasional/extra = 1 0 0
  (1) pair lj/cut, perpetual
      attributes: half, newton on
      pair build: half/bin/atomonly/newton
      stencil: half/bin/3d
      bin: standard
WARNING: Not all mixed pair coeffs generated from mixing. Use write_data with 'pair ij' option to store all pair coeffs. (../write_data.cpp:312)


#############################
#   M E L T   S Y S T E M   #
#############################

velocity all create 2.4 9622624 mom yes dist gaussian # Assign velocities
                                                    # Temperature 2.4, random number seed, zero linear momentum
                                                                                # Gaussian distribution

timestep 0.002   # simulation timestep
thermo 1000       # output thermodynamic data every 1000 steps bf 100

# Define a fix  in this case with index 1 applied to all
# particles in the simulation. This fix is for simulations
# in the anisotropic NPT ensemble. Note that we use the MTK
# correction.
fix 1 all npt temp 2.4 2.4 0.1 iso 5.68 5.68 0.5 mtk yes tchain 5 pchain 5 # Use NPT ensemble
                                                                         # Set temperature and pressure and damping
                                                                         # Numbers of thermostats in chain and in barostat
run 10000          # run for 10000 steps
Per MPI rank memory allocation (min/avg/max) = 3.642 | 3.644 | 3.648 Mbytes
Step Temp E_pair E_mol TotEng Press Volume 
       0          2.4   -7.6169122            0   -4.0178122   -3.1065461         4000 
    1000    2.4202894   -4.6438376            0   -1.0143112    5.6204455    4802.3414 
    2000    2.4269341   -4.6846045            0   -1.0451135    5.5934624    4784.4048 
    3000     2.420593   -4.6869006            0   -1.0569189    5.4634361    4790.6621 
    4000    2.4349529   -4.6287091            0  -0.97719285    5.6059647    4817.5544 
    5000    2.3873063   -4.6402272            0   -1.0601631    5.7199646     4791.316 
    6000    2.4579954   -4.6463659            0  -0.96029455    5.6458809    4796.0469 
    7000    2.3795916   -4.6564304            0   -1.0879354    5.6391044    4788.3384 
    8000    2.4369695    -4.660491            0   -1.0059506    5.8625785    4761.6509 
    9000    2.3205908   -4.6217847            0   -1.1417687    5.6332446     4800.152 
   10000    2.4018107   -4.6437417            0   -1.0419262    5.7614503     4776.708 
Loop time of 2.21716 on 48 procs for 10000 steps with 4000 atoms

Performance: 779376.366 tau/day, 4510.280 timesteps/s
99.7% CPU use with 48 MPI tasks x no OpenMP threads

MPI task timing breakdown:
Section |  min time  |  avg time  |  max time  |%varavg| %total
---------------------------------------------------------------
Pair    | 0.9055     | 0.96693    | 1.1145     |   3.4 | 43.61
Neigh   | 0.19149    | 0.19813    | 0.21894    |   1.1 |  8.94
Comm    | 0.67365    | 0.7836     | 0.89531    |   5.6 | 35.34
Output  | 0.00023638 | 0.00024658 | 0.00052613 |   0.0 |  0.01
Modify  | 0.19058    | 0.25395    | 0.31022    |   8.0 | 11.45
Other   |            | 0.0143     |            |       |  0.64

Nlocal:        83.3333 ave          95 max          74 min
Histogram: 3 3 6 10 9 5 5 5 1 1
Nghost:        1459.08 ave        1480 max        1439 min
Histogram: 3 1 7 5 11 5 7 3 3 3
Neighs:        7970.17 ave        9379 max        6951 min
Histogram: 2 3 7 13 8 5 8 0 1 1

Total # of neighbors = 382568
Ave neighs/atom = 95.642000
Neighbor list builds = 906
Dangerous builds = 209

# Equilibrate just above the melting temperature to avoid step fn in T

fix 1 all npt temp 1.25 1.25 0.1 iso 5.68 5.68 0.5 mtk yes tchain 5 pchain 5
run 2000
Per MPI rank memory allocation (min/avg/max) = 3.642 | 3.644 | 3.648 Mbytes
Step Temp E_pair E_mol TotEng Press Volume 
   10000    2.4018107   -4.6437417            0   -1.0419262    5.7614503     4776.708 
   11000    1.2758057      -6.2209            0   -4.3076699    5.6411494    3958.4363 
   12000    1.2301006    -6.234309            0   -4.3896193     5.674845    3946.6092 
Loop time of 0.470313 on 48 procs for 2000 steps with 4000 atoms

Performance: 734830.232 tau/day, 4252.490 timesteps/s
99.7% CPU use with 48 MPI tasks x no OpenMP threads

MPI task timing breakdown:
Section |  min time  |  avg time  |  max time  |%varavg| %total
---------------------------------------------------------------
Pair    | 0.20281    | 0.22393    | 0.24825    |   1.7 | 47.61
Neigh   | 0.030766   | 0.032661   | 0.036003   |   0.5 |  6.94
Comm    | 0.14074    | 0.16087    | 0.18952    |   2.6 | 34.20
Output  | 4.6821e-05 | 4.8417e-05 | 6.0266e-05 |   0.0 |  0.01
Modify  | 0.037141   | 0.04852    | 0.059148   |   3.2 | 10.32
Other   |            | 0.00428    |            |       |  0.91

Nlocal:        83.3333 ave          93 max          77 min
Histogram: 5 6 6 12 4 5 4 1 3 2
Nghost:        1661.19 ave        1679 max        1642 min
Histogram: 1 1 6 4 12 8 5 6 3 2
Neighs:        9665.19 ave       11042 max        8745 min
Histogram: 6 4 10 7 7 3 5 2 2 2

Total # of neighbors = 463929
Ave neighs/atom = 115.98225
Neighbor list builds = 141
Dangerous builds = 7

#############################
# L I N E A R  Q U E N C H  #
#############################

# Define solid atoms. This closely follows ten Wolde  Ruiz-Montero and Frenkel  Faraday Discuss  1996  104  93-110
# Compute components of the per-atom q6 vector
compute q6 all orientorder/atom degrees 1 6 components 6 nnn NULL cutoff 1.3 # compute the Q6 parameter.
                                                                             # Use all neighbours within 1.3 unit cell.

# get number of connections
compute coord_number all coord/atom orientorder q6 0.5

# An atom is solid if it has 8 or more connections (of a possible 14)
variable is_solid atom c_coord_number>=8
group solid dynamic all var is_solid    # Must be dynamic to update
dynamic group solid defined

# do clustering
compute cluster solid cluster/atom 1.3 # Create a cluster where all atoms within are solid and max 1.3 units from another member

# define chunks one chunk per cluster
compute clus_chunks solid chunk/atom c_cluster nchunk every compress yes  # Says which atoms are in which chunk

# count the size of each chunk
compute size_chunks solid property/chunk clus_chunks count


# Find the maximum entry in the vector of chunk sizes
variable max_n equal max(c_size_chunks)


# Thermo style which includes this variable
# thermo_style custom step temp pe vol v_max_n

thermo ${N}  # Print the thermo information every 100 steps
thermo 1000  

# Reset the npt fix at a lower temperature (below freezing)
fix 1  all npt temp  ${temp} ${temp}  0.1  iso  5.68  5.68  0.5  mtk yes tchain  5  pchain  5
fix 1  all npt temp  0.45 ${temp}  0.1  iso  5.68  5.68  0.5  mtk yes tchain  5  pchain  5
fix 1  all npt temp  0.45 0.45  0.1  iso  5.68  5.68  0.5  mtk yes tchain  5  pchain  5

dump dmp2 all dcd ${N} traj.dcd
dump dmp2 all dcd 1000 traj.dcd


compute msd all msd com yes
variable twopoint equal c_msd[4]/6/(step*dt+1.0e-6)
fix 9 all vector 10 c_msd[4]
variable fit equal slope(f_9)/6/(10*dt)
thermo_style custom step temp pe c_msd[4] v_twopoint v_fit v_max_n

fix 1 all npt temp 1.25 ${temp} 0.1 iso 5.68 5.68 0.5 mtk yes tchain 5 pchain 5
fix 1 all npt temp 1.25 0.45 0.1 iso 5.68 5.68 0.5 mtk yes tchain 5 pchain 5
run 2000000 # 5000000  # Run for this many steps
Neighbor list info ...
  update every 1 steps, delay 10 steps, check yes
  max neighbors/atom: 2000, page size: 100000
  master list distance cutoff = 3.8
  ghost atom cutoff = 3.8
  binsize = 1.9, bins = 9 9 9
  4 neighbor lists, perpetual/occasional/extra = 1 3 0
  (1) pair lj/cut, perpetual
      attributes: half, newton on
      pair build: half/bin/atomonly/newton
      stencil: half/bin/3d
      bin: standard
  (2) compute orientorder/atom, occasional
      attributes: full, newton on
      pair build: full/bin/atomonly
      stencil: full/bin/3d
      bin: standard
  (3) compute coord/atom, occasional
      attributes: full, newton on
      pair build: full/bin/atomonly
      stencil: full/bin/3d
      bin: standard
  (4) compute cluster/atom, occasional
      attributes: full, newton on
      pair build: full/bin/atomonly
      stencil: full/bin/3d
      bin: standard
Per MPI rank memory allocation (min/avg/max) = 9.754 | 9.759 | 9.762 Mbytes
Step Temp PotEng c_msd[4] v_twopoint v_fit v_max_n 
   12000    1.2301006    -6.234309            0            0 8.3333333e+20            2 
   13000    1.2435106   -6.2121834   0.55409086 0.0035518643  0.045021776            3 
   14000    1.2376459   -6.2458071     1.116881 0.0066481009  0.045753938            2 
   15000    1.2663349   -6.2576285    1.6561493 0.0092008293  0.045339074            3 
   16000     1.220426   -6.2405906    2.2189271  0.011556911  0.046111884            2 
   17000    1.2522444   -6.2228237    2.7514891  0.013487691   0.04615088            1 
   18000    1.2426079   -6.2338437    3.2960682  0.015259575  0.045668863            3 
   19000    1.2359264    -6.181694    3.9438959  0.017297789  0.045912621            1 
   20000    1.2442893   -6.2586291    4.4391944  0.018496643  0.046130269            2 
   21000    1.2344189   -6.2271868    4.9718045  0.019729382  0.046139386            2 
   22000     1.261032   -6.2892693    5.4482781  0.020637417  0.045961406            2 
   23000     1.239245   -6.2190336    6.0199103  0.021811269  0.045757242            2 
   24000    1.2511804   -6.2512194     6.614299  0.022966315  0.045738254            2 
   25000     1.240643   -6.2630306    7.1042904  0.023680967  0.045795918            4 
   26000    1.2552178   -6.2586763    7.5246424  0.024117443  0.045519189            2 
   27000    1.2411238   -6.3083733    8.0380163  0.024808692  0.045136286            2 
   28000    1.2313604   -6.2822443    8.6650173  0.025788741  0.044982248            5 
   29000    1.2083109   -6.2811778    9.1839006  0.026390518  0.044915264            1 
   30000    1.2435855   -6.2537814     9.718782  0.026996616  0.044836903            2 
   31000    1.2646077   -6.2862084    10.225751  0.027488579  0.044774158            2 
   32000    1.2518838   -6.3064848    10.658777   0.02775723   0.04464194            1 
   33000    1.2613155   -6.2506609    11.273343  0.028468037  0.044515317            2 
   34000    1.2645553   -6.2453585    11.870641  0.029094708  0.044494997            1 
   35000    1.2527972   -6.2625901    12.380876  0.029478277   0.04450142            2 
   36000    1.2234286   -6.2709046    12.740328    0.0294915  0.044420671            2 
   37000    1.2273182   -6.2727529    13.391388  0.030160783  0.044355252            3 
   38000    1.2132316   -6.2925094    13.875298  0.030428284  0.044329101            1 
   39000      1.24491    -6.305251    14.421544  0.030815264  0.044295324            3 
   40000    1.2326263    -6.288849    14.788811  0.030810022  0.044188407            2 
   41000    1.2383277   -6.2720081    15.287641   0.03107244  0.044080486            3 
   42000    1.2536278   -6.2817786    15.977051  0.031700498  0.044003109            1 
   43000    1.2278888   -6.2514196    16.497168  0.031971256   0.04398525            2 
   44000    1.2411984   -6.2946957    17.008745  0.032213532  0.043985489            3 
   45000    1.2420214   -6.2848429    17.506258  0.032418996  0.043960616            4 
   46000    1.2286291   -6.2826086    17.986812  0.032584805  0.043933403            2 
   47000    1.2246089   -6.2556371    18.431822  0.032680535  0.043865267            2 
   48000     1.260204   -6.2389872     18.82826  0.032687952  0.043772617            2 
   49000    1.2335881    -6.281897    19.484245  0.033136472  0.043729001            3 
   50000    1.1981634   -6.2583599    20.033696  0.033389493  0.043706015            3 
   51000     1.253122   -6.2744114    20.504198  0.033503592  0.043686014            2 
   52000    1.2357949   -6.3302961    20.898995  0.033491978  0.043639003            3 
   53000    1.2111848   -6.2837578    21.419208     0.033678  0.043573776            1 
   54000    1.2306348   -6.2899272    21.878401  0.033762964  0.043505101            4 
   55000    1.2287897   -6.3143246    22.294631  0.033779744  0.043421751            5 
   56000     1.261448   -6.3259297    22.834526  0.033979949  0.043336551            3 
   57000     1.244311   -6.2792764    23.451208  0.034285391  0.043285829            4 
   58000    1.2445296    -6.272208    23.895549  0.034332685  0.043252174            3 
   59000    1.2415813   -6.2924088    24.409752  0.034477051   0.04319524            2 
   60000    1.2146681   -6.2579091    25.032355  0.034767159  0.043151449            2 
   61000    1.2137079   -6.2368425    25.530091  0.034877173  0.043119467            2 
   62000    1.2280947   -6.2853605     25.89825  0.034809476  0.043084106            2 
   63000    1.2254966   -6.2487535    26.577477  0.035155393  0.043031904            4 
   64000    1.2146995   -6.3031611    27.066109   0.03524233  0.043013063            2 
   65000     1.219134   -6.2915841    27.536122  0.035302721  0.042995046            4 
   66000    1.2436939   -6.2974375    28.159939  0.035555478  0.042990591            2 
   67000    1.2298571   -6.2912833    28.681839  0.035673929  0.043006419            1 
   68000     1.203953   -6.2751692    29.207715  0.035793769  0.043002702            3 
   69000    1.2001468   -6.2859146    29.779029  0.035965011  0.043010046            1 
   70000    1.2035894   -6.2970157    30.293435  0.036063612  0.043015744            6 
   71000    1.2006959   -6.2862741    30.843088  0.036200808  0.043012148            3 
   72000    1.2486102   -6.2670338    31.145151  0.036047628  0.043003722            2 
   73000     1.242926   -6.3066586     31.72229   0.03621266  0.042975182            1 
   74000    1.2073503   -6.2866712    32.223347  0.036287552  0.042960655            2 
   75000    1.2502465   -6.2626004    32.936625   0.03659625   0.04296013            3 
   76000    1.2481778   -6.3230512     33.29702   0.03650989  0.042971199            4 
   77000    1.2184829   -6.2705701    33.804914  0.036585405  0.042971635            3 
   78000    1.2189708   -6.3560519    34.251272  0.036593239  0.042963022            2 
   79000    1.2167296   -6.2827643     34.82249  0.036732584  0.042957666            2 
   80000    1.2207362   -6.3557333    35.096355  0.036558703  0.042949134            5 
   81000    1.2206246   -6.2931886    35.942976   0.03697837  0.042946641            1 
   82000     1.239538    -6.292723      36.2864  0.036876422  0.042941423            2 
   83000    1.2210008   -6.2956914    36.595625  0.036742595  0.042922953            3 
   84000    1.2191808   -6.3139435    37.158288  0.036863381  0.042904459            5 
   85000    1.2165643   -6.2839443    37.730188   0.03699038  0.042873641            3 
   86000    1.2318044    -6.340268    38.069454  0.036889005  0.042839334            2 
   87000    1.2253899   -6.3161686    38.487415   0.03686534  0.042807528            2 
   88000    1.2268519   -6.3106237    39.036167  0.036966067  0.042778712            1 
   89000      1.20053   -6.3204659     39.40345  0.036894616  0.042743377            2 
   90000    1.2248065    -6.305574    39.822082  0.036872298  0.042703255            2 
   91000    1.2389125   -6.3265865    40.285708  0.036891674  0.042659851            2 
   92000    1.1976551   -6.3171585    40.710754  0.036875683  0.042614736            2 
   93000    1.2236594   -6.2809371     41.47507  0.037164041  0.042574201            2 
   94000    1.1995826    -6.313804    41.748397   0.03701099   0.04254346            1 
   95000    1.2052549   -6.3217594     42.18854  0.037007491  0.042504289            2 
   96000    1.2201258    -6.275624    42.701285  0.037067088  0.042462649            2 
   97000    1.2164868    -6.324242    43.123314  0.037047521  0.042419446            3 
   98000    1.2100741   -6.2802739    43.871965  0.037306093  0.042389858            3 
   99000    1.2328518   -6.3042789     44.49251  0.037451608  0.042372517            2 
  100000    1.2120103   -6.3546207     44.84524  0.037371033  0.042353642            2 
  101000     1.217011   -6.3519744     45.50826  0.037548069  0.042332918            3 
  102000    1.1791682   -6.2471583    46.216232  0.037758359  0.042323056            2 
  103000    1.2187868   -6.3492315    46.365561   0.03751259  0.042306471            4 
  104000     1.182101   -6.3218785    46.778429  0.037482715  0.042280811            2 
  105000    1.2296204   -6.3099399    47.416726  0.037632322  0.042255537            2 
  106000     1.229663     -6.28252    47.925773  0.037677494  0.042238322            5 
  107000    1.2278727   -6.3002834    48.300932  0.037617548  0.042221587            4 
  108000    1.2122965   -6.2916616    48.946889  0.037767661   0.04219986            1 
  109000    1.2063702   -6.2978785    49.594094  0.037915974  0.042187929            2 
  110000    1.2017149   -6.3359086    49.739992  0.037681812  0.042169856            1 
  111000     1.204475   -6.3309863    50.262638  0.037734713  0.042149179            3 
  112000    1.1953418   -6.3426697    50.557909  0.037617492  0.042127828            3 
  113000    1.1874294   -6.3350152    51.051793  0.037648815  0.042101983            3 
  114000    1.2157867   -6.3289836    51.479118  0.037630934  0.042068398            2 
  115000     1.202022   -6.3191997    51.851198  0.037573332  0.042039263            3 
  116000    1.2055873   -6.3268842    52.209696  0.037506965  0.042008192            2 
  117000    1.2145479    -6.333614     52.93133  0.037700377  0.041976178            2 
  118000    1.1928962   -6.3369932    53.132814  0.037523174  0.041945431            3 
  119000    1.2190056   -6.2989206    53.685681  0.037595015  0.041907057            5 
  120000    1.1939244    -6.336993    54.081149  0.037556354  0.041871868            2 
  121000    1.2233981   -6.3140038     54.74347  0.037702114  0.041837778            4 
  122000    1.2067953   -6.3494656    55.049053  0.037601812  0.041802415            2 
  123000    1.1978494   -6.3004491    55.773045  0.037786616  0.041771097            4 
  124000    1.2014628   -6.3154543    56.489403  0.037963309  0.041745604            5 
  125000    1.1870104   -6.3538627    56.807691  0.037871794  0.041726537            2 
  126000    1.1935916   -6.3235006    57.200458   0.03783099  0.041704838            2 
  127000    1.2100316   -6.3319513    57.440103  0.037690356  0.041679354            3 
  128000    1.2111694   -6.3042591    57.852942  0.037664676  0.041651017            2 
  129000    1.1990719   -6.3564322    58.442845  0.037753776  0.041624022            3 
  130000    1.2196898   -6.3662387    59.476861  0.038126193  0.041604874            2 
  131000    1.2183283   -6.3000397    60.148462   0.03826238  0.041598221            2 
  132000    1.2035051   -6.3550329     60.66744  0.038300151  0.041597626            2 
  133000    1.2186586   -6.3492011    61.212174  0.038353492   0.04160002            3 
  134000    1.2195674   -6.3096891    61.690912  0.038364995  0.041599653            2 
  135000     1.200091   -6.3401202    62.088338  0.038326135  0.041600333            5 
  136000    1.2231873    -6.382324    62.830886  0.038499317  0.041604383            3 
  137000    1.1912349   -6.3298144    63.355857  0.038537626  0.041607369            3 
  138000    1.2074437   -6.3020848    63.849089  0.038556213  0.041608303            2 
  139000    1.2006147   -6.3373143    64.417926   0.03861986   0.04160868            3 
  140000    1.1874254   -6.3677626    64.687602  0.038504525  0.041607769            4 
  141000    1.2004451    -6.325646    65.315762  0.038602696  0.041606304            2 
  142000    1.1816197   -6.2986596    65.822007  0.038627938  0.041603451            2 
  143000    1.2362679   -6.3597503     66.15336  0.038550909  0.041602397            4 
  144000     1.210188   -6.3476277    66.762069  0.038635457  0.041602096            3 
  145000    1.2208461    -6.358354    67.594234  0.038847261  0.041605036            3 
  146000    1.2137511   -6.3015365    68.443353  0.039065841  0.041614612            5 
  147000    1.1806012   -6.3201139    68.647643  0.038915897  0.041626479            3 
  148000    1.1863278   -6.3125056    69.145473  0.038933262  0.041631378            2 
  149000    1.1950166   -6.3816517    69.593156  0.038922346  0.041641524            2 
  150000     1.201123   -6.3362787    70.090869  0.038939372  0.041652838            2 
  151000      1.18244   -6.3475776    70.681378  0.039007383  0.041662015            4 
  152000    1.1908654   -6.3509027    70.824199  0.038829056  0.041667184            1 
  153000    1.1855072   -6.3719085    71.378001  0.038876907  0.041668087            5 
  154000    1.1531814   -6.3800877    71.316932  0.038591413  0.041664813            1 
  155000    1.1899052   -6.3562002    72.098536  0.038762653  0.041659392            2 
  156000     1.193853   -6.3564812    72.671574  0.038820285  0.041654839            3 
  157000    1.1968606   -6.3662135    73.126637  0.038814563   0.04165057            2 
  158000    1.2232243   -6.3649938    73.386758  0.038706096  0.041645495            3 
  159000    1.1816361   -6.3470403    73.857901  0.038709592  0.041637126            2 
  160000    1.1956369   -6.3498426    74.429047  0.038765128  0.041628857            2 
  161000    1.1735454   -6.3703848    74.994453  0.038817004  0.041621383            2 
  162000    1.2155254   -6.3229831    75.008131  0.038584429  0.041613778            2 
  163000    1.1657108   -6.3469834    75.745342  0.038724612  0.041602391            8 
  164000     1.165486   -6.2932422     76.57524  0.038910183  0.041593175            2 
  165000    1.1942626   -6.3636878    77.022169  0.038900085  0.041586376            4 
  166000    1.1449569   -6.3662152    77.605254  0.038958461  0.041581409            3 
  167000     1.179537   -6.3219906    78.127776  0.038985916  0.041579905            7 
  168000    1.1575381   -6.4126405      78.6337  0.039004811  0.041582369            2 
  169000    1.1604624   -6.3464383    79.181821   0.03904429  0.041581726            2 
  170000    1.1692132   -6.3337849    79.772488  0.039104161  0.041580847            2 
  171000    1.1971928   -6.3488744    79.959494  0.038966615  0.041578663            1 
  172000    1.1607523   -6.3971622    80.734271  0.039115441  0.041573685            3 
  173000    1.1930934   -6.3576661    81.001321  0.039017977  0.041569999            2 
  174000    1.1834317    -6.359634    81.583518  0.039072566  0.041567298            2 
  175000    1.1850338   -6.3498112    81.913804  0.039006573  0.041563218            1 
  176000    1.1579913   -6.3954351    82.837594  0.039222345  0.041561733            2 
  177000    1.2047759   -6.3930207    82.926385  0.039042554  0.041562442            3 
  178000    1.1747573   -6.3721975    83.350124  0.039021594  0.041560267            3 
  179000    1.1837558   -6.4175656    83.793652   0.03901008  0.041554488            2 
  180000    1.1712456   -6.3588808    84.124744  0.038946641  0.041546047            6 
  181000    1.2033505   -6.3642453    84.381052  0.038849471  0.041536423            4 
  182000    1.1806764   -6.3799796    84.487259  0.038684642  0.041522018            3 
  183000    1.1857806   -6.3265564    84.865429  0.038645459  0.041501864            5 
  184000    1.1587992   -6.3649763    85.123198  0.038552173   0.04147891            1 
  185000    1.1462047   -6.3818033    85.630754  0.038572411  0.041455118            5 
  186000    1.1707109   -6.4153015    85.465703  0.038291086  0.041428997            2 
  187000    1.1981442    -6.412956    86.253284  0.038437292  0.041401146            3 
  188000    1.1711929   -6.3991743    86.659883  0.038413069  0.041373491            2 
  189000    1.1824262   -6.3921513    87.360406  0.038518698  0.041348172            3 
  190000    1.1598452    -6.392761    88.160512  0.038666891   0.04132623            2 
  191000    1.1961502   -6.3933545    88.646967  0.038676687  0.041307226            2 
  192000    1.1953125   -6.3897148    88.938217  0.038601657  0.041288427            2 
  193000    1.1825746   -6.3855382    89.701042   0.03873102  0.041268471            3 
  194000     1.197719   -6.3461129    89.699889   0.03853088  0.041245536            1 
  195000    1.2004781    -6.388123    89.848985  0.038397002  0.041218268            3 
  196000    1.1690471   -6.4142704    89.876679  0.038212874  0.041192232            4 
  197000    1.1650779   -6.4015969    90.864267  0.038436661  0.041167287            3 
  198000    1.1862502   -6.4074167    91.295385  0.038423984  0.041143133            2 
  199000     1.170839   -6.3951743    91.561041  0.038342145  0.041118346            1 
  200000    1.1904422   -6.3608177    92.407949  0.038503312  0.041092273            2 
  201000    1.1768047   -6.3698977    92.589715  0.038387112  0.041067355            3 
  202000    1.2157582   -6.4140323    93.252883  0.038470661  0.041044545            2 
  203000    1.1902104   -6.3744495    94.161917  0.038654317  0.041024332            2 
  204000     1.188743    -6.389271    94.331081  0.038533938  0.041005469            3 
  205000    1.1725557   -6.3972115    94.725783  0.038506416  0.040987951            2 
  206000    1.1748049   -6.3920124     95.69843  0.038712957  0.040972352            1 
  207000    1.1673044   -6.3881334    95.840926  0.038583303  0.040956774            1 
  208000    1.1715141   -6.4309813    96.060136  0.038485631  0.040940268            1 
  209000    1.1824244   -6.3809637    96.874574  0.038626226  0.040924009            2 
  210000    1.1799235   -6.3688259    97.482106  0.038683375  0.040910292            2 
  211000    1.1800232   -6.3920783    97.798288  0.038624916  0.040897526            2 
  212000    1.1803509   -6.4155024     98.36627  0.038665987  0.040884675            2 
  213000    1.1769602   -6.4073656    98.923922   0.03870263  0.040872754            4 
  214000    1.1580002   -6.3868615    99.367303  0.038694433  0.040862108            2 
  215000    1.1803394   -6.3433803    99.954166  0.038741925  0.040850513            2 
  216000    1.1613559   -6.4059298    100.15484  0.038639984  0.040835905            2 
  217000    1.1834197   -6.4122051    100.24934  0.038498208  0.040820597            2 
  218000    1.1546557   -6.3798571    101.29941  0.038723017  0.040806032            4 
  219000    1.1572255   -6.4398436    101.82787  0.038747285  0.040794052            2 
  220000    1.1930934   -6.4230772    102.10628  0.038676622  0.040781188            2 
  221000    1.1639144   -6.3831753    102.60822  0.038690884  0.040768838            3 
  222000    1.1613153    -6.414017    102.94113  0.038641564  0.040757668            2 
  223000    1.1687479   -6.4188578     104.0563  0.038885015  0.040749367            3 
  224000    1.1801527   -6.4416751    104.99438  0.039060411  0.040744075            2 
  225000    1.1796624   -6.3845042    105.03617  0.038902284  0.040739972            2 
  226000    1.1761568   -6.3816784      106.248  0.039176991  0.040736272            2 
  227000    1.1506798   -6.4187919    106.17292  0.038976845  0.040734334            2 
  228000    1.1415406   -6.4487007    106.23832  0.038829797  0.040727411            6 
  229000    1.1568696   -6.4467688    106.62024  0.038799214  0.040718503            3 
  230000    1.1671422   -6.3872206    106.90311  0.038733011  0.040709092            4 
  231000    1.1534201   -6.3887155    107.71054  0.038856617  0.040698787            6 
  232000     1.152449   -6.4330327     107.6301  0.038660238  0.040687467            3 
  233000    1.1587247   -6.4010017    108.13254  0.038674014  0.040673128            2 
  234000    1.1711246   -6.4047816    108.11682  0.038503142  0.040659006            4 
  235000    1.1536552   -6.3743095    109.26772  0.038747417   0.04064413            3 
  236000    1.1802718   -6.4057342    109.36506  0.038617606  0.040631854            4 
  237000    1.1790125   -6.4053266    109.89172  0.038639846  0.040618125            2 
  238000     1.166783   -6.4026673    110.28552  0.038615379  0.040604507            4 
  239000    1.1491148   -6.4507339    110.37992  0.038486722  0.040589631            3 
  240000    1.1710992    -6.407625    111.34631  0.038661911  0.040573574            2 
  241000    1.1860511   -6.4153043     111.3485  0.038502248  0.040558817            2 
  242000     1.147066   -6.4068988    112.02088  0.038574684  0.040543725            3 
  243000    1.1646366   -6.4234329    112.40107  0.038546319  0.040529579            4 
  244000     1.147451   -6.4222969    113.23343  0.038672618  0.040517591            4 
  245000    1.1530983   -6.3977164    113.77612  0.038699362   0.04050543            3 
  246000    1.1673497    -6.407899    113.70703   0.03851864  0.040492406            2 
  247000    1.1522959   -6.3983198    114.33128  0.038573305  0.040478744            3 
  248000    1.1469621   -6.4770622    114.91622  0.038614321  0.040465284            2 
  249000    1.1583533   -6.4289807    115.22372  0.038562156  0.040453055            3 
  250000    1.1536742   -6.4225042    115.85439   0.03861813  0.040442397            4 
  251000    1.1645364   -6.4310869    116.15637   0.03856453  0.040431111            3 
  252000    1.1573977   -6.4413387    116.86884  0.038647102  0.040418352            4 
  253000    1.1718723    -6.417624    117.07167  0.038561156   0.04040659            2 
  254000    1.1524327   -6.4244193    117.83422  0.038659522  0.040394298            2 
  255000    1.1470374   -6.4090559    118.44045   0.03870603  0.040383252            3 
  256000    1.1724231    -6.406055    118.86435  0.038692823  0.040371924            2 
  257000    1.1424324   -6.4138503    119.39208  0.038713385   0.04036134            3 
  258000    1.1382609    -6.430468    119.11413  0.038473556  0.040348916            4 
  259000    1.1461965   -6.3865606    119.52529  0.038457301  0.040335791            8 
  260000    1.1421103   -6.3981309    120.66334  0.038674148  0.040323059            8 
  261000    1.1430529   -6.3891451    120.98981  0.038630209  0.040309975            1 
  262000    1.1560976   -6.3944577    121.14222   0.03853124  0.040296812            3 
  263000    1.1850863   -6.4445318    121.85772  0.038611446   0.04028419            7 
  264000    1.1360304   -6.4646995    121.75052  0.038431351  0.040269032            3 
  265000    1.1505884   -6.4340726    122.29077  0.038456217  0.040253532            4 
  266000    1.1649011   -6.4350666    122.36091  0.038333618  0.040237196            3 
  267000    1.1232492   -6.4296976    122.53487  0.038244341  0.040219132            2 
  268000    1.1509322   -6.4106931    123.27496  0.038331767  0.040201382            2 
  269000    1.1507708   -6.4266801     123.2027  0.038166883  0.040185349            4 
  270000    1.1280188   -6.4483328    124.00527  0.038273231  0.040169398            1 
  271000    1.1557995   -6.4419047    124.78744  0.038372521  0.040151879            2 
  272000    1.1394573   -6.4633325    125.15571  0.038344272    0.0401336            3 
  273000    1.1620123   -6.4539029    125.42067  0.038284699  0.040114651            3 
  274000    1.1373679    -6.469013    125.52052   0.03817534  0.040096039            2 
  275000    1.1803497   -6.4419979     126.1272  0.038220362  0.040078073            5 
  276000    1.1723299    -6.444956    126.53453   0.03820487  0.040060193            2 
  277000    1.1476739   -6.4211734    127.00468  0.038208387  0.040041698            5 
  278000    1.1327155   -6.4523347    127.07635  0.038092431  0.040022589            3 
  279000    1.1423918   -6.4469456    127.17038  0.037983985  0.040001753            3 
  280000    1.1185583    -6.449115    127.78752  0.038031999  0.039981627            9 
  281000    1.1376148   -6.4436475    128.18138  0.038013459  0.039961041            4 
  282000     1.159146   -6.4188296    129.43295  0.038248508  0.039942732            5 
  283000    1.1416035   -6.4315781    130.00256  0.038281085  0.039925709            2 
  284000    1.1470714   -6.4539589    130.27652  0.038226678  0.039910227            2 
  285000    1.1448824   -6.4381907    130.58756  0.038183496  0.039895239            3 
  286000    1.1321667   -6.4229974    130.84296  0.038124406  0.039879589            2 
  287000    1.1103204   -6.4691001    131.74914  0.038254686  0.039865585            2 
  288000    1.1417061   -6.4512637    131.85411  0.038152232   0.03985136            3 
  289000    1.1302184   -6.4373226    132.36524  0.038167601  0.039836329            2 
  290000    1.1160126   -6.4527357    133.00943  0.038221102  0.039822592            2 
  291000    1.1251115    -6.464019    133.75179  0.038302344  0.039809353            3 
  292000    1.1322953   -6.4493127    133.99252  0.038239875  0.039795964            2 
  293000    1.1138443   -6.4510116    134.23082  0.038177138  0.039782385            1 
  294000    1.1311823   -6.4404472    134.68765  0.038176772  0.039767771            3 
  295000    1.1390701   -6.4510063    135.45366  0.038263747  0.039753888            3 
  296000    1.1508856   -6.4539483    135.42391  0.038126099  0.039739053            2 
  297000    1.1197873   -6.4738764     135.8493  0.038117088  0.039723203            3 
  298000    1.1133751   -6.4639756    136.09426  0.038057679  0.039706562            2 
  299000    1.1548238   -6.4548681    136.73132  0.038107949  0.039690282            6 
  300000    1.1213896   -6.4350016    137.03689  0.038065802  0.039674231            2 
  301000    1.1325253   -6.4697088    137.13175    0.0379656  0.039658468            9 
  302000    1.1262888     -6.46469    137.76636     0.038015   0.03964283            3 
  303000    1.1189802   -6.4745729    138.75483  0.038161394  0.039627962            3 
  304000    1.1393732   -6.4960472    138.72566  0.038027866  0.039613257            7 
  305000    1.1493722   -6.4617317    139.33784  0.038070447  0.039598835            2 
  306000    1.1489569   -6.4782714    139.72173  0.038050581  0.039585198            2 
  307000     1.114001   -6.4286791      139.643  0.037905267  0.039569207            2 
  308000    1.1174932   -6.4635776    140.49798  0.038013522   0.03955265            2 
  309000    1.1183927   -6.4479321    140.56438  0.037908409  0.039536211            4 
  310000    1.1360877   -6.4505998    141.66072  0.038080839  0.039520095            2 
  311000    1.1163515   -6.5097403    140.87205  0.037747065  0.039501402            3 
  312000    1.1395201   -6.4655375    141.12352  0.037693248  0.039481849            3 
  313000    1.1268264   -6.4713325    141.42347  0.037652681  0.039461125            3 
  314000    1.1431492   -6.4457787    141.75717   0.03762133  0.039440302            2 
  315000    1.1342137   -6.4867425    142.22129  0.037624681  0.039419311            4 
  316000     1.124417   -6.4733595    141.77515  0.037387961  0.039397392            3 
  317000    1.1145955   -6.4428001    142.83917   0.03754973  0.039374919            3 
  318000    1.1281725   -6.4740489     143.8185  0.037688287  0.039352301            2 
  319000    1.1172461   -6.4648594    143.68803  0.037536058  0.039330696            2 
  320000    1.1106015     -6.45995    144.05353  0.037513941    0.0393088            2 
  321000    1.1195174   -6.4756597    144.66723  0.037556394  0.039287495            2 
  322000    1.1255368     -6.48741    144.76494  0.037465047  0.039265002            7 
  323000    1.1459608   -6.4573642    144.95804  0.037398875  0.039242423            3 
  324000    1.1247719   -6.5137497    145.16605  0.037336948  0.039219514            5 
  325000    1.1211483   -6.4918113    145.63951  0.037343463  0.039196085            2 
  326000    1.1084606   -6.5385158    145.86186  0.037285753  0.039173288            4 
  327000    1.1389261   -6.4965933    146.73396  0.037393974  0.039150433            4 
  328000    1.1281503   -6.4529705    146.78238  0.037292272  0.039126935            4 
  329000     1.099305   -6.4588795    147.08762  0.037256235  0.039103181            3 
  330000     1.124449   -6.4165274    147.44032  0.037232405  0.039077857            3 
  331000     1.164526   -6.5054917    146.81421   0.03696229  0.039051847            2 
  332000    1.1113872   -6.4666389    147.56694  0.037039894  0.039025404            3 
  333000    1.1181503   -6.4531884    148.04718  0.037048844  0.038998766            3 
  334000    1.1224243   -6.4904712    148.97006  0.037168179  0.038972768            2 
  335000     1.125617   -6.4852836    149.13885  0.037099217  0.038947083            6 
  336000     1.158781   -6.4919707    149.73761  0.037137305  0.038923045            5 
  337000    1.1214309   -6.4852097     149.8117  0.037045425  0.038899237            4 
  338000    1.1081047   -6.4801186    150.79202  0.037177519  0.038874297            3 
  339000    1.1135516   -6.4963958    150.47841   0.03699076  0.038850018            2 
  340000    1.1276424   -6.4895491    151.40906  0.037110064  0.038825635            4 
  341000     1.123569   -6.4679629    151.35282  0.036987493  0.038801466            4 
  342000    1.0959006   -6.4703042    151.97924  0.037031978  0.038777798            5 
  343000    1.1175206   -6.4960445    152.31602  0.037005836  0.038753267            4 
  344000    1.1273344   -6.5220491    152.12067  0.036850937   0.03872813           11 
  345000    1.1176755   -6.4898618    152.48845  0.036832958  0.038702839            2 
  346000    1.1197733   -6.4786118    153.12543  0.036879921  0.038677355            2 
  347000    1.1291811   -6.5043705     153.5795  0.036882686  0.038652896            8 
  348000    1.1300028   -6.5133432    153.77378  0.036823222  0.038627655            4 
  349000    1.1090219   -6.4962137    154.38401   0.03686342  0.038602876            5 
  350000    1.1050452   -6.4883954    154.66209  0.036824307  0.038577484            5 
  351000    1.1287108   -6.5045366    154.89651   0.03677505    0.0385526            6 
  352000    1.0945395   -6.4735582    155.53931  0.036822753  0.038527203            4 
  353000    1.1232222   -6.5010114    155.61937   0.03673734  0.038501614            2 
  354000    1.1266125   -6.5135944    155.94611  0.036710479  0.038475861            2 
  355000    1.1246717   -6.5127392    156.82254  0.036812804  0.038450957            4 
  356000    1.1332717   -6.5395206    156.69187  0.036678809  0.038426429            2 
  357000    1.1298565    -6.468448    157.63138  0.036795374  0.038402784            1 
  358000    1.1170564   -6.4889413    157.82993   0.03673881  0.038378995            3 
  359000    1.1048284   -6.5254721      158.083  0.036695217  0.038355606            5 
  360000    1.1096488   -6.4925051    159.20819  0.036853747  0.038332349            5 
  361000    1.1131425    -6.474823    159.32791  0.036779296  0.038310107            3 
  362000    1.1188791   -6.4953617    159.98921  0.036829929  0.038288272            3 
  363000     1.097568   -6.4989298    160.62347  0.036874075  0.038267064            2 
  364000    1.1163375   -6.4694559    161.06599  0.036874083  0.038245623            4 
  365000    1.1158254   -6.5067784    161.08987   0.03677851  0.038223161            4 
  366000    1.1402543   -6.5109778    161.07437  0.036674492  0.038200991            2 
  367000    1.1061302   -6.4821679    160.87602  0.036529524  0.038177677            2 
  368000    1.0870187   -6.5061162    161.77639  0.036634145   0.03815451            3 
  369000     1.105583   -6.5195491    161.98856  0.036582783  0.038131915            4 
  370000    1.0944564   -6.4529414    162.87038  0.036682518  0.038109276            4 
  371000    1.0863633   -6.5071399    162.43882  0.036486707   0.03808601            2 
  372000    1.0983933   -6.5351601    162.70619  0.036448519  0.038062248            5 
  373000    1.1394548   -6.4998633    163.28632  0.036480411  0.038038158            3 
  374000    1.1117544   -6.5401231    163.49332  0.036428992  0.038014118            3 
  375000    1.0942013   -6.4549762    163.68599  0.036374664  0.037989594            4 
  376000    1.0910749   -6.4830883    164.88327  0.036543278  0.037965622            3 
  377000    1.1060331   -6.5163519    164.37182  0.036333293  0.037940797            2 
  378000    1.1232835   -6.4871929     165.0847  0.036394334   0.03791531            1 
  379000    1.0910036   -6.5096354    164.74687  0.036224027   0.03788979            3 
  380000    1.1255257   -6.5428786    165.18958  0.036225786  0.037863088            6 
  381000    1.0868704   -6.5256111    165.13563  0.036118904  0.037836325            5 
  382000    1.0879001   -6.5023281    165.63667  0.036133654  0.037809917            2 
  383000    1.0870496   -6.5125699    165.96416  0.036110566  0.037783718            4 
  384000    1.0930529   -6.5246168    166.11798  0.036049908  0.037756921            4 
  385000    1.0920817   -6.5000356    167.35026     0.036223  0.037729772            3 
  386000    1.1116966   -6.5059414    166.39606  0.035923157  0.037702483            4 
  387000    1.1196927    -6.533642    166.61734  0.035877981  0.037674721            3 
  388000    1.0779912   -6.5283311    166.68955   0.03580102  0.037646662            6 
  389000     1.092168   -6.5295654    167.96136   0.03598144  0.037618532            2 
  390000     1.120852    -6.544265    168.12638   0.03592444  0.037591208            8 
  391000    1.0874409   -6.5476696    168.32163  0.035874175  0.037564021            5 
  392000    1.0782784   -6.5058761    169.74976  0.036086259  0.037537349            3 
  393000     1.095587   -6.5590845    169.40147  0.035920582  0.037511438            3 
  394000    1.0971607   -6.5175303    169.68587  0.035889567  0.037485375            4 
  395000    1.1211037   -6.5422529    169.53339  0.035766537  0.037458406            2 
  396000    1.1048643   -6.5472645    169.96955  0.035768002  0.037430215            4 
  397000    1.0969712   -6.5152267     170.4859  0.035786294  0.037403145            3 
  398000    1.0748176   -6.5443919    170.35336  0.035668627  0.037376149            3 
  399000     1.081614   -6.5068336    171.18841  0.035753636  0.037348984            3 
  400000    1.1012437   -6.4977088    171.27791  0.035682898  0.037322392            2 
  401000    1.1063314   -6.5210941    172.15415  0.035776008  0.037295736            3 
  402000    1.0707172    -6.540468    172.32263  0.035721939  0.037268787            7 
  403000    1.0914266   -6.4953798    172.91198  0.035755164  0.037242325            2 
  404000    1.0952957   -6.5273866    172.96153  0.035676882  0.037216386            2 
  405000    1.0836526   -6.5416895    173.29803  0.035658032  0.037189789            3 
  406000    1.0838773   -6.5586687    173.31539  0.035573766  0.037163136            3 
  407000    1.0749369   -6.5328492    173.41146  0.035506031  0.037135934            3 
  408000    1.0828428   -6.5394648    173.92165  0.035523214  0.037108756            4 
  409000    1.0519859   -6.5150873    174.43815  0.035541596  0.037082291            4 
  410000    1.0821147    -6.546594    174.65266  0.035498509   0.03705565            3 
  411000    1.0998777   -6.5274438    175.11958  0.035506809  0.037030136            3 
  412000    1.1012819   -6.5312254    175.94425  0.035587428  0.037005485            1 
  413000    1.0684803   -6.5411904    176.78555  0.035671015  0.036981002            4 
  414000    1.0960374    -6.543767    176.82608  0.035593012  0.036956096            4 
  415000    1.0975844   -6.5316398    176.76542  0.035495064  0.036930512            4 
  416000     1.089971   -6.5142932    177.01142  0.035459018  0.036904819            6 
  417000    1.0955531   -6.5340578    177.01915   0.03537553   0.03687865            2 
  418000    1.1044069   -6.5303611    177.69942   0.03542652  0.036852166            3 
  419000    1.0860373   -6.5675405     177.4558  0.035293516  0.036826274            3 
  420000    1.0798495   -6.5182341    177.95339  0.035308211  0.036800466            3 
  421000     1.107048   -6.5268616    178.65936  0.035364086  0.036775028            6 
  422000    1.0857886    -6.520313    178.83297  0.035314568  0.036749176            2 
  423000    1.0853604   -6.5340218    179.46203  0.035355009   0.03672355            3 
  424000    1.0691429    -6.508782    179.62914  0.035304469   0.03669825            2 
  425000    1.0850359   -6.5563887    179.66592  0.035228611  0.036673137            3 
  426000    1.0568896   -6.5539576    180.21116  0.035252575  0.036648108            2 
  427000    1.0830593   -6.5394743    180.52367  0.035231004  0.036622938            5 
  428000    1.0617909   -6.5570457    180.92501  0.035226832  0.036597827            5 
  429000    1.0689811    -6.554486    181.00671  0.035160588  0.036572878            4 
  430000    1.0653191   -6.5583071    181.62129  0.035197925  0.036547735            5 
  431000    1.1075397   -6.5509872    182.06456  0.035201965   0.03652307            3 
  432000    1.0812357   -6.5402305    182.61581  0.035226815  0.036498072            3 
  433000    1.0813855   -6.5763419    182.31758  0.035088065  0.036472757            3 
  434000       1.0767   -6.5488249    182.56834  0.035055365  0.036447625            4 
  435000    1.0757543   -6.5734935    182.72419  0.035004634  0.036421847            7 
  436000    1.0629754   -6.5910892    183.17067  0.035009685  0.036395825            2 
  437000    1.0877389   -6.5656503    183.50963  0.034994208  0.036370172            2 
  438000    1.0897036   -6.5430519     183.9326  0.034994787  0.036344467            2 
  439000    1.0979909   -6.5397515    184.09426  0.034945758  0.036318409            3 
  440000     1.068218   -6.5698968     184.8672  0.035012727  0.036293025            3 
  441000    1.1021689   -6.5471476    184.84947  0.034929983  0.036267916            2 
  442000    1.0692281   -6.5665699    185.05284  0.034889298  0.036242341            4 
  443000    1.0804884   -6.5574628    184.81745  0.034766263  0.036216367            8 
  444000    1.0844062    -6.542345    185.86122  0.034883863  0.036189738            3 
  445000    1.0597668   -6.5845508    185.44548  0.034727618  0.036162886            6 
  446000    1.0801071    -6.551924    186.00686  0.034754644  0.036136175            3 
  447000    1.0969906   -6.5682157     186.1308  0.034700001  0.036109778            4 
  448000    1.0534847    -6.580715     186.6421  0.034717653  0.036083661            3 
  449000    1.0713409   -6.5101156    187.60605  0.034819236   0.03605813            1 
  450000    1.0628516    -6.556469    187.37264  0.034698637  0.036033131            4 
  451000    1.0772692   -6.5639031    188.02619  0.034742459  0.036008111            5 
  452000    1.0826229   -6.5728293    188.62198  0.034775439  0.035983297            4 
  453000    1.0929306    -6.554115    188.70811  0.034714516  0.035958521            2 
  454000    1.0721748   -6.5923599     188.8262  0.034659728  0.035933522            1 
  455000    1.0782778   -6.5447319    189.45712  0.034699107  0.035908612            7 
  456000    1.0622926   -6.5640036    189.56526  0.034642774  0.035883965            2 
  457000    1.0667391   -6.5887063    189.76032  0.034602538  0.035859242            2 
  458000    1.0841662   -6.5804944    190.49376  0.034660437  0.035834551            5 
  459000     1.062771   -6.5776812    189.92746  0.034482109  0.035809872            4 
  460000    1.0793452   -6.5988328    190.64062  0.034536343   0.03578478            3 
  461000     1.065393   -6.5376312    191.88009  0.034685482   0.03575997            3 
  462000    1.0723181   -6.5355764    191.32183   0.03450971  0.035735767            2 
  463000    1.0848178   -6.6063481    192.31791  0.034614454  0.035711661            4 
  464000    1.0581999    -6.587664     192.0496  0.034491666  0.035686772            6 
  465000    1.0708716   -6.5970389    192.19505  0.034443558  0.035662649            2 
  466000    1.0678421   -6.5682362    192.39869   0.03440606  0.035637746            3 
  467000    1.0846269    -6.602916    192.59556  0.034367517  0.035612055            3 
  468000    1.0545904   -6.5935779    193.15795  0.034394221   0.03558712            4 
  469000    1.0609575   -6.5680979    193.03088  0.034298309  0.035562218            3 
  470000    1.0459375   -6.5879587    194.14256   0.03442244  0.035537168            3 
  471000    1.0633099   -6.5781265    194.33391  0.034383212  0.035512311            1 
  472000    1.0557059   -6.5754995    194.23917  0.034293639  0.035487658            3 
  473000    1.0874924   -6.6014132    194.70778  0.034303697  0.035463237            4 
  474000    1.0671488     -6.58824    194.57526  0.034208028  0.035438711            2 
  475000    1.0439964   -6.5729203    195.90049  0.034368507  0.035414126            1 
  476000    1.0656375   -6.5814667    195.58526  0.034241117  0.035389936            2 
  477000    1.0514606   -6.5940857     196.1887  0.034274755  0.035365699            3 
  478000    1.0562485   -6.5917198    195.69814  0.034117528  0.035341646            4 
  479000    1.0514286   -6.6242653      196.038  0.034105428  0.035317151            3 
  480000    1.0575964   -6.6170694    196.50084   0.03411473  0.035292754            4 
  481000     1.053071   -6.5794451    196.98367  0.034127456  0.035268341            3 
  482000    1.0747184    -6.611646    196.94059  0.034049203  0.035244575            5 
  483000    1.0807387   -6.6096277    197.96958  0.034156242  0.035220572            3 
  484000    1.0469041   -6.5938801    198.42572  0.034164208  0.035197068            2 
  485000    1.0680921   -6.6347446     197.7824   0.03398323  0.035173551            4 
  486000    1.0448929   -6.5808459    199.04256  0.034129383  0.035149565            5 
  487000    1.0480248   -6.6396451    198.58166  0.033980435  0.035125816            2 
  488000      1.06691   -6.6017373    199.38416  0.034047842  0.035101532            5 
  489000    1.0437855    -6.608115    199.74142  0.034039097  0.035077504            2 
  490000     1.065951   -6.5625251     200.4395   0.03408835  0.035054349            4 
  491000    1.0982855   -6.6200063    200.66477  0.034057158  0.035031865           11 
  492000    1.0400573   -6.5981975    201.30982  0.034097192  0.035009858            2 
  493000    1.0534148   -6.6262532    201.39255  0.034042013   0.03498738            3 
  494000    1.0531522   -6.6019279    201.40468  0.033975148    0.0349644            2 
  495000    1.0433458   -6.5920618    201.78218  0.033970064  0.034941993            5 
  496000    1.0552881   -6.5898925    202.14959  0.033963305  0.034919426            2 
  497000    1.0356506   -6.6003029     202.1974  0.033902985  0.034896857            6 
  498000    1.0867365   -6.5984872    203.52594  0.034057219  0.034875174            3 
  499000    1.0621609   -6.6035596    203.63763   0.03400762  0.034853742            5 
  500000    1.0337652   -6.6016429    203.77211  0.033962019  0.034831945            6 
  501000    1.0557407   -6.5811207     204.0245   0.03393621  0.034809757            5 
  502000    1.0709282   -6.5718191    204.68551  0.033978339  0.034787737            4 
  503000    1.0529255   -6.5832756    204.66751  0.033907805  0.034765771            5 
  504000    1.0394955   -6.5975352    204.52605  0.033817138  0.034743237            4 
  505000    1.0493995   -6.6091905    203.89355  0.033645801  0.034720823            4 
  506000    1.0557093   -6.6345266    204.22352   0.03363365  0.034698176            4 
  507000    1.0515189   -6.5855469    205.64744  0.033801355  0.034675416            4 
  508000    1.0527803   -6.6093568    205.83145  0.033765001  0.034652951            4 
  509000    1.0459136   -6.6389232    205.10976  0.033580511  0.034629974            4 
  510000    1.0481956   -6.6283901    205.68782  0.033609121   0.03460712            6 
  511000    1.0616596    -6.648481    205.75218  0.033553845  0.034583964            3 
  512000    1.0507827   -6.6236039    206.67008  0.033637708  0.034561327           11 
  513000    1.0541167   -6.6808303    206.78618  0.033590998  0.034539018            3 
  514000    1.0355789    -6.630845    207.38683  0.033623027  0.034516306            7 
  515000    1.0632069   -6.6468397    207.54411  0.033583189  0.034492992            4 
  516000    1.0278378   -6.5908859    207.50736   0.03351217  0.034470064            3 
  517000    1.0447247   -6.6339969    207.82423  0.033498425  0.034446548            4 
  518000    1.0617549    -6.589356     208.5323  0.033547667  0.034423562            1 
  519000    1.0495742   -6.5904714    208.47483    0.0334738  0.034400309            5 
  520000    1.0349912   -6.6156506    208.72111  0.033448895  0.034376987            3 
  521000    1.0682893   -6.6542141    208.82765  0.033401735  0.034353453            2 
  522000    1.0501024   -6.6487401    209.56972  0.033456213  0.034329928            3 
  523000     1.041708   -6.6119324    209.40202  0.033365522  0.034307214            3 
  524000    1.0548871   -6.6225066    209.81972  0.033368276  0.034284157            5 
  525000    1.0713208   -6.6442992    210.67522  0.033440512  0.034261942            3 
  526000     1.076685   -6.6249286    210.52512  0.033353156  0.034240013            3 
  527000    1.0465046   -6.6377223    210.77889  0.033329996   0.03421746            3 
  528000     1.066591   -6.6394612    211.05344  0.033310202  0.034195149            3 
  529000    1.0374725   -6.6144499    211.93245  0.033385703  0.034173673            1 
  530000    1.0414737   -6.6416667    212.33835  0.033386533  0.034152375            7 
  531000    1.0549076   -6.6069707    212.16548  0.033296528  0.034130812            5 
  532000    1.0580682   -6.6304278    212.97842  0.033361281  0.034109104            5 
  533000    1.0471894    -6.606135    213.56696  0.033390706  0.034087989            3 
  534000    1.0368026   -6.6266093    212.72796  0.033197247  0.034066403            7 
  535000    1.0503647   -6.6349668    213.52558  0.033259436  0.034045037           12 
  536000    1.0358308   -6.6290396    214.39806  0.033333031  0.034024207            5 
  537000    1.0418172   -6.6272454    214.55716  0.033295648  0.034003034            9 
  538000    1.0557693   -6.6153106    215.00005  0.033302362  0.033982298            3 
  539000    1.0480846   -6.6411774    214.99764  0.033240205  0.033961637            5 
  540000    1.0288544   -6.6265553    215.29368  0.033224334     0.033941            4 
  541000    1.0395414   -6.6264021    215.77833  0.033237573  0.033920176            5 
  542000    1.0478452   -6.6065894    215.59923  0.033148713  0.033899721            3 
  543000    1.0512918   -6.6323076    216.00512  0.033149957  0.033879052            3 
  544000     1.034578   -6.6559178    216.54009  0.033170969  0.033858567            2 
  545000    1.0431895   -6.6310086    217.23684  0.033216643  0.033837876            2 
  546000    1.0515956   -6.6311126    217.07318  0.033130828  0.033817007            7 
  547000      1.03263   -6.6435896    216.65187  0.033006074  0.033796119            3 
  548000    1.0564532   -6.6417748    217.99328  0.033149829   0.03377511            3 
  549000    1.0353556    -6.643426    218.08657  0.033103608  0.033754648            2 
  550000    1.0248916   -6.6339726    218.70159  0.033136604  0.033734137            3 
  551000    1.0293263   -6.6494851    218.96121  0.033115731  0.033714036            4 
  552000    1.0365996   -6.6600964    218.85876  0.033040272  0.033693869           12 
  553000    1.0489698   -6.6618121    219.23268  0.033036871  0.033673513            4 
  554000    1.0355837   -6.6221863    219.60457  0.033033178   0.03365354           15 
  555000    1.0099925   -6.6822805    219.54153  0.032964194  0.033633247            3 
  556000    1.0340718   -6.6619909    220.34449  0.033025254  0.033613255            3 
  557000    1.0421277   -6.6568457     221.2432  0.033100418  0.033593718            3 
  558000    1.0365022   -6.6197134    221.11775  0.033022364  0.033574484            2 
  559000    1.0171465   -6.6749779    221.43658  0.033010819  0.033555361            2 
  560000    1.0435036   -6.6262234    222.04378   0.03304223  0.033536393            2 
  561000    1.0179114   -6.6900503    222.68623  0.033078763  0.033517868            3 
  562000   0.99542882   -6.6684086    222.98327  0.033063949  0.033499517            4 
  563000    1.0319279   -6.6454778    223.30703  0.033053142  0.033481415            3 
  564000    1.0317276   -6.6424816     223.6334   0.03304276  0.033463822            3 
  565000    1.0217993   -6.6488644    224.23618  0.033073183  0.033446382            3 
  566000     1.044542   -6.6463051    224.62229  0.033071598  0.033428936            4 
  567000     1.022077   -6.6909851    224.49714  0.032994877  0.033411514            5 
  568000    1.0215057   -6.6538503    225.28335  0.033052134  0.033394232            4 
  569000    1.0095931   -6.6793062    225.04118  0.032958579  0.033376543            3 
  570000    1.0411599   -6.6308156    226.09416  0.033054701  0.033359084            4 
  571000    1.0446922   -6.6444292    225.92939  0.032972765  0.033341954            4 
  572000    1.0318062   -6.6375499    226.37208  0.032979615  0.033324742            5 
  573000    1.0422863   -6.6447596    226.33526  0.032916705  0.033307146            4 
  574000    1.0006965   -6.6626636    226.34477  0.032860739  0.033289813            5 
  575000     1.022185   -6.6675028     227.2172  0.032930029  0.033272444            5 
  576000    1.0427993    -6.659098    227.49788  0.032913467  0.033255097            3 
  577000     1.003679   -6.6229246     228.6446  0.033022039  0.033238261            3 
  578000     1.037037   -6.6382583    229.14364  0.033036858  0.033221614            4 
  579000    1.0060645   -6.6447608    228.11383  0.032831582  0.033204923            3 
  580000     1.039145   -6.6908939    229.16344  0.032925781   0.03318753            4 
  581000    1.0047984   -6.6667372    228.39266  0.032758556  0.033169816            4 
  582000     1.025644   -6.6569072    228.49992  0.032717628  0.033151509            2 
  583000    1.0235545   -6.6590539    229.33237  0.032780498  0.033133499            3 
  584000    1.0063463   -6.6844939    229.36234  0.032728644  0.033115609            2 
  585000    1.0170488   -6.6689631    229.41797  0.032680622  0.033097329            1 
  586000    1.0226319   -6.6928771    229.24839  0.032600738  0.033078907            5 
  587000    1.0124435   -6.6653499    230.59612   0.03273653  0.033060979            5 
  588000    1.0285061   -6.6915252    229.92585  0.032585862  0.033043221            3 
  589000    1.0004243   -6.6733526     230.4552  0.032605433  0.033025753            4 
  590000    1.0350405   -6.6961051    231.77162  0.032736104  0.033008307            4 
  591000     1.024355   -6.6670523    230.99294  0.032570916  0.032990726            5 
  592000    1.0589334    -6.627331    231.90559  0.032644368   0.03297348            1 
  593000    1.0232363    -6.625169    232.72059  0.032703849  0.032956306            4 
  594000    1.0050341   -6.6814929    232.13119  0.032566105  0.032939049            6 
  595000   0.99630468   -6.6524063    233.05655  0.032640974  0.032922142            5 
  596000    1.0200597   -6.7055364    232.61909  0.032525041  0.032904945            5 
  597000    1.0176057   -6.6735969    233.77948  0.032632535  0.032887923            5 
  598000    1.0193565   -6.6789991    234.15255  0.032629953  0.032870992            5 
  599000    1.0026316   -6.6853254    234.20432  0.032582682  0.032853953            7 
  600000    1.0147719    -6.687431    233.54753  0.032437157  0.032836865            3 
  601000    1.0334594   -6.6715724    234.54609  0.032521643  0.032819683            5 
  602000   0.99229519   -6.6606134    235.02338  0.032533691  0.032802589            4 
  603000    1.0180941    -6.691388    235.36671  0.032527185  0.032785745            3 
  604000   0.98248964   -6.6469954    236.21683  0.032590622  0.032769371            2 
  605000    1.0043698   -6.6458833    236.54204  0.032581549  0.032753413            4 
  606000    1.0070648   -6.7098921    236.85953  0.032571443  0.032737405            3 
  607000    1.0057755   -6.6889579     237.3989  0.032591831  0.032721263            4 
  608000   0.99847489    -6.673867    236.92097   0.03247272  0.032705507            7 
  609000    1.0071361   -6.6795318    237.15633  0.032451606  0.032689841            4 
  610000    1.0112077   -6.6794661    238.33012  0.032558759  0.032674075            5 
  611000    1.0030545    -6.687875    237.40099   0.03237875   0.03265828            4 
  612000    1.0101533   -6.6484173    238.30413  0.032448819  0.032642266            5 
  613000    1.0224844   -6.6993255    239.26608  0.032526655  0.032626353            3 
  614000    1.0007059   -6.6748907    238.05968  0.032309946  0.032610329            6 
  615000    1.0125031   -6.7335735    238.88515  0.032369261  0.032593625            8 
  616000   0.99284639   -6.7169253     238.7472  0.032298052  0.032576858            3 
  617000   0.99222557   -6.6945267    238.62044  0.032228585  0.032560051            4 
  618000    1.0179121   -6.6779308    239.28798  0.032266448  0.032543482            4 
  619000    1.0063544   -6.6947289    239.26495   0.03221122   0.03252644            5 
  620000    1.0079238   -6.7042244    239.65293  0.032211416  0.032509851            5 
  621000   0.97706864   -6.6888051    239.94119  0.032198227  0.032493235            3 
  622000    1.0141116   -6.7045058     240.8448  0.032267524  0.032476635            4 
  623000    1.0127152   -6.7165482    241.01506  0.032238505  0.032459837            3 
  624000    1.0188767   -6.6795553    240.62331  0.032134524  0.032443282            6 
  625000   0.99917872   -6.7076385    241.01685   0.03213558  0.032426867            5 
  626000     1.002836   -6.6740134    241.65698   0.03216946  0.032410177            5 
  627000    1.0335382   -6.6692418    242.06247  0.032172046  0.032393404            9 
  628000    1.0003466    -6.750712    241.33663    0.0320245  0.032376528            8 
  629000   0.99811256   -6.7209821    241.46095  0.031990057  0.032359188            4 
  630000    1.0075062   -6.7269376    241.85145  0.031990932  0.032341644            9 
  631000   0.98597055    -6.706259     241.9933  0.031958968  0.032323938            5 
  632000    1.0166322   -6.7162814    241.41932  0.031832717  0.032305933            4 
  633000    1.0021053   -6.6664509    242.85024  0.031970805  0.032288193            5 
  634000   0.98967647   -6.7047148    243.35019  0.031986092  0.032270956            3 
  635000    1.0123349   -6.7084418    243.35751  0.031936682  0.032253741            4 
  636000   0.99720418   -6.7266082    244.17679  0.031993814  0.032236464            5 
  637000   0.98234609    -6.728839    243.46421  0.031850368  0.032219382            4 
  638000    1.0139385   -6.7062745    244.28452  0.031907592   0.03220213            2 
  639000    1.0126815   -6.7201999    244.28816  0.031858132  0.032184548           13 
  640000    1.0101936   -6.6963815    244.86339  0.031883254  0.032166973            5 
  641000   0.98071254   -6.7330695    244.52006   0.03178888  0.032149279            7 
  642000   0.98722808   -6.7194768    245.20814  0.031828679  0.032131312            2 
  643000    0.9995343   -6.6902456    244.49063  0.031686188  0.032113266            9 
  644000    0.9982883   -6.7370051    244.86241  0.031685094  0.032095137            3 
  645000   0.99263402   -6.7250002    245.15558  0.031673848   0.03207678            4 
  646000   0.98792333    -6.739695    245.48108  0.031666806  0.032058253            3 
  647000   0.97747916   -6.7470324    244.99801  0.031555642   0.03203944            6 
  648000    1.0070553   -6.6747887    246.60208   0.03171323  0.032020813            4 
  649000    1.0049203   -6.6792067    246.86663  0.031698335  0.032002935            4 
  650000   0.98829278   -6.7184974    246.40582   0.03159049  0.031984756            3 
  651000    1.0090082   -6.7516597    246.26141  0.031523478  0.031966475            4 
  652000   0.99372446   -6.6875356     247.6884  0.031657515  0.031948011            3 
  653000   0.99235502   -6.7416198    247.66806   0.03160644  0.031929675            5 
  654000   0.98130667   -6.7251598    247.56463  0.031544933  0.031911332            3 
  655000   0.97632315   -6.6695171    247.92286  0.031542348  0.031893323            3 
  656000   0.98135547   -6.6770978    248.36133  0.031549966  0.031875184            5 
  657000   0.99737624   -6.7595836    247.80526  0.031431414  0.031857148            3 
  658000   0.99510353   -6.7191048    248.61457  0.031486141  0.031838544            2 
  659000    1.0077451   -6.7468951    248.57123  0.031432882  0.031820099            5 
  660000   0.97591495   -6.7234867    247.90369   0.03130097  0.031801238            2 
  661000    1.0006638   -6.7569213    247.87387  0.031249857  0.031782261            3 
  662000   0.98802004   -6.7642124    248.83829  0.031324055  0.031762909            7 
  663000   0.97075263   -6.7421217    249.21027  0.031323563  0.031743622            4 
  664000    1.0035083   -6.7628165    248.27318  0.031158782  0.031724629            2 
  665000    1.0049978    -6.719596     249.0005   0.03120307  0.031705096            3 
  666000     0.944054   -6.7573045    249.00087  0.031156265   0.03168558            4 
  667000    1.0023258   -6.7246331    249.28172  0.031144643  0.031666539            4 
  668000   0.96897522   -6.7397435    250.61227  0.031264006  0.031647414            3 
  669000    0.9713705   -6.7346157    249.86342  0.031123993  0.031628411            3 
  670000   0.97805197    -6.683251    251.57896  0.031290916  0.031609416            5 
  671000   0.98713505   -6.7426669    250.44947  0.031104008  0.031590503            5 
  672000   0.97449961   -6.7521241    251.16364  0.031146285  0.031571504            3 
  673000   0.98848041   -6.7563771    251.01115  0.031081123  0.031552343            4 
  674000   0.97204672   -6.7414964     252.2889  0.031192989  0.031533195            4 
  675000   0.98757022   -6.7181769    252.31738  0.031150293  0.031514328            4 
  676000   0.99687426   -6.7161414    252.02041  0.031067605  0.031495487            3 
  677000   0.97964422   -6.7503926     252.2477  0.031049692  0.031476496            3 
  678000   0.96742413    -6.721538    252.13765   0.03099037  0.031457441            3 
  679000   0.97159602    -6.765244    252.23725  0.030956952  0.031438561            6 
  680000   0.99748114   -6.7497382    253.12582  0.031020321  0.031419801            3 
  681000   0.99318652   -6.7575362    253.74334  0.031050335  0.031400812            3 
  682000   0.99873486   -6.7696702    253.09468  0.030925547  0.031382004            6 
  683000   0.99958029   -6.7537163    253.61921  0.030944267  0.031363225            5 
  684000    1.0054338   -6.7736313     254.1258  0.030960746  0.031344627            4 
  685000   0.96883663   -6.7632092    254.02111  0.030902811  0.031325953            5 
  686000   0.96737907   -6.7768672    253.90279   0.03084339  0.031307065            6 
  687000   0.96709436   -6.7270204    254.44936  0.030864793   0.03128792            6 
  688000   0.97201858   -6.7257471     254.4576   0.03082093  0.031268785            2 
  689000   0.98305383   -6.7697281    254.31164  0.030758543  0.031249538            8 
  690000   0.96204905   -6.7152607    255.20669  0.030822064  0.031230203            3 
  691000   0.98630691   -6.7353186    255.26367  0.030784331  0.031211315            3 
  692000   0.96322988   -6.7659198    255.43369   0.03076032  0.031192275            3 
  693000   0.97812134   -6.7300288    256.39827  0.030831923  0.031173091            5 
  694000    0.9788879   -6.7580856    255.76024  0.030710883  0.031153871            8 
  695000   0.97244062   -6.7397537    256.49791  0.030755145  0.031134934            7 
  696000   0.98562196   -6.7632456    256.04806  0.030657095  0.031115499            6 
  697000   0.96870007   -6.7511677    256.56771   0.03067524  0.031096407            2 
  698000   0.98370137   -6.7318883    257.23347  0.030710777  0.031077558            3 
  699000   0.97068803   -6.7693221    257.04393  0.030644245  0.031058762            4 
  700000   0.96552989   -6.8004079    257.05715  0.030602041  0.031039919            5 
  701000   0.98385499   -6.7546371     258.7273  0.030756931  0.031021072            3 
  702000   0.99938028   -6.7580194    257.31661  0.030545657   0.03100219            3 
  703000   0.96478549   -6.7468908     257.9597  0.030578438  0.030983097            7 
  704000   0.95834973   -6.7757904    257.68887  0.030502944  0.030963872           11 
  705000    0.9914985    -6.778843     259.2689  0.030646442  0.030944855           11 
  706000   0.97824472   -6.7852037    258.55077  0.030518269  0.030925827            6 
  707000   0.97519296   -6.7673879    258.70085  0.030492792  0.030906783            5 
  708000   0.97386493   -6.7693274    259.58646  0.030553962  0.030887696            4 
  709000   0.96076726   -6.7773471    259.12618  0.030456768  0.030868461            5 
  710000   0.97399827   -6.7785946    259.43498  0.030450115  0.030849249            6 
  711000   0.97158772   -6.8048041    260.03065  0.030477104  0.030830036            3 
  712000   0.95430331   -6.7583321    259.26676  0.030344892  0.030810973            5 
  713000   0.96235849   -6.8049039    259.50702  0.030330414   0.03079194            5 
  714000   0.95554609   -6.7745427    260.53011  0.030407343  0.030773036            4 
  715000   0.96246502   -6.7992255    260.36616  0.030345706   0.03075421            6 
  716000   0.96804617   -6.8132589    260.86362  0.030361222  0.030735317            7 
  717000   0.98564397   -6.7912705     261.3038  0.030370037  0.030716661            3 
  718000   0.95288532   -6.7580168    261.28678  0.030325763  0.030697827            6 
  719000   0.96673639   -6.8017522    260.16578   0.03015366  0.030679033            3 
  720000   0.96978553   -6.7859703    261.74036  0.030294023  0.030660044            6 
  721000   0.97075122   -6.7727734     261.9233  0.030273151  0.030641409            2 
  722000   0.95470718   -6.7503875    262.81753  0.030334433  0.030622899            3 
  723000   0.98031849   -6.8016682    262.72398  0.030281695  0.030604402            5 
  724000   0.97094746   -6.7923917    263.43372  0.030321561   0.03058587            7 
  725000    0.9645037   -6.7743812    262.70974  0.030196522  0.030567406            4 
  726000   0.95510469   -6.7853238    263.14695  0.030205114  0.030548869            7 
  727000   0.94982015   -6.7913999     263.5671  0.030211727   0.03053057            2 
  728000   0.95791669   -6.7746739    263.59055  0.030172911   0.03051227            3 
  729000   0.96360836   -6.7918861    264.34953  0.030218282  0.030493987            4 
  730000   0.97026962   -6.7938209    264.63399   0.03020936  0.030476031            4 
  731000   0.96124448   -6.7624317    264.40868  0.030142349  0.030458122            3 
  732000   0.94437274   -6.7762112    265.57012  0.030233393  0.030440121            4 
  733000   0.96411241   -6.8179129    264.99849  0.030127159  0.030421743            3 
  734000   0.93755144   -6.7699756    265.06046  0.030093149  0.030403568            3 
  735000   0.96318083   -6.7667874    265.82069  0.030138401  0.030385622            6 
  736000   0.95168409   -6.8047075    265.43783  0.030054103  0.030367346            6 
  737000   0.93645863   -6.7549999    265.98668  0.030075382  0.030348985            4 
  738000   0.96604451   -6.8096843    265.80101  0.030013664  0.030330491            8 
  739000    0.9536044   -6.8078979    266.06867  0.030003233  0.030311992            2 
  740000   0.94760881   -6.8103513    266.54495  0.030016323  0.030293596            5 
  741000   0.93932868   -6.7755848    267.03481  0.030030906  0.030275308            7 
  742000   0.94949667    -6.791202    266.54231   0.02993512   0.03025697            3 
  743000   0.96488133   -6.7716597     266.9256   0.02993782  0.030238464            2 
  744000   0.95431672   -6.7982698    266.64895  0.029866594  0.030219876            6 
  745000   0.94845669   -6.8148238    267.20535  0.029888742  0.030201274            3 
  746000   0.95540885   -6.7733381    267.08792  0.029835559  0.030182702            4 
  747000   0.95429506   -6.7951385    268.37073  0.029938725  0.030164508            4 
  748000   0.95826977   -6.8225783     268.3413  0.029895421  0.030146269            4 
  749000   0.94401007    -6.819281    267.96442  0.029813576  0.030128035            5 
  750000   0.93983373   -6.8109241    268.36944  0.029818826  0.030109915            7 
  751000   0.96527428   -6.8104099    269.26879  0.029878915  0.030091962            4 
  752000   0.95401255    -6.814843    270.16528  0.029938529  0.030074159            3 
  753000   0.95775939    -6.779065    269.44677  0.029819253   0.03005642            8 
  754000    0.9545474   -6.8114167    268.90313  0.029719621  0.030038581            3 
  755000   0.96228757   -6.8240271    269.73307  0.029771862   0.03002055            3 
  756000   0.94437303   -6.7807833    270.74321  0.029843828  0.030002741            3 
  757000    0.9500435   -6.8084934    269.59238  0.029677717  0.029984997            3 
  758000   0.95076115   -6.7771185    271.30199  0.029826516  0.029967354            2 
  759000   0.94099342   -6.8367935    270.70909  0.029722122  0.029949593           10 
  760000   0.97802497   -6.8238073    271.21452  0.029738434  0.029931856            3 
  761000   0.94054167    -6.828424    271.49261  0.029729808  0.029914117           12 
  762000    0.9380566   -6.7942872    271.92061    0.0297376  0.029896511            4 
  763000   0.93732937   -6.7744853    272.25291  0.029734918  0.029878767            3 
  764000   0.94119979   -6.8003323    271.88499  0.029655867  0.029861364            4 
  765000   0.96266915   -6.8318386    271.95155  0.029624352  0.029843832            4 
  766000   0.94272394   -6.8050507    272.44626  0.029639498  0.029826275            3 
  767000    0.9263036   -6.7950976    272.38317  0.029593999  0.029808917            6 
  768000   0.93910233   -6.8124402    272.96042  0.029618101  0.029791524            6 
  769000   0.94074323    -6.827943    273.46602  0.029634376  0.029774105            5 
  770000   0.96201785   -6.7955529     273.8057  0.029632652  0.029756854            7 
  771000   0.94270027   -6.8209423    273.08831  0.029516679  0.029739499            5 
  772000   0.94062736   -6.8035292    273.54936  0.029528212  0.029722059            8 
  773000   0.95178924   -6.8310644    274.10886   0.02955033  0.029704709            3 
  774000   0.97815704   -6.8404458    273.47446  0.029443848  0.029687331            6 
  775000   0.94430463   -6.8350114    275.19476  0.029590834   0.02967008            4 
  776000   0.94521913   -6.8138793    275.34186  0.029568499  0.029652942            2 
  777000   0.93426238   -6.8119132    275.17505  0.029512554  0.029635738           12 
  778000   0.94270957    -6.791406    275.12646  0.029469415  0.029618734            2 
  779000    0.9522562   -6.8689162    274.22605  0.029335264  0.029601404            3 
  780000   0.94407623   -6.8377925    274.89467  0.029369089  0.029583683            2 
  781000   0.93302364   -6.8233664    275.30338  0.029375094  0.029566123           10 
  782000    0.9428323   -6.8352507    274.35377  0.029236336  0.029548371            4 
  783000   0.92918755   -6.8454169     275.2742  0.029296956  0.029530709            5 
  784000   0.93817287   -6.8084467    275.72927  0.029307958  0.029513011            4 
  785000    0.9308121   -6.8518652    275.36437  0.029231886  0.029495161            6 
  786000   0.95059598   -6.8764637    275.75032  0.029235615  0.029477288            7 
  787000   0.93512039   -6.8266456    275.61193  0.029183813  0.029459426            3 
  788000   0.93780792   -6.8155578    276.24966  0.029214219  0.029441422            6 
  789000   0.95239689   -6.8363173    276.44332  0.029197646  0.029423537            4 
  790000   0.95147099   -6.8364915    276.85803  0.029204434  0.029405803            3 
  791000   0.93382212   -6.8356452    277.69143  0.029255312  0.029388043            7 
  792000   0.93503015   -6.8119035    277.11407  0.029157625   0.02937014            9 
  793000   0.94924647   -6.8441128    276.72254  0.029079712  0.029352235            3 
  794000   0.91415264   -6.7899967    277.31569  0.029105341  0.029334105            8 
  795000   0.94073089   -6.8274282    277.32457  0.029069661  0.029316188            3 
  796000    0.9390906   -6.7949499    278.71581   0.02917879  0.029298067            4 
  797000   0.94186984   -6.8191588    277.29073  0.028993175  0.029280144            4 
  798000   0.93251572   -6.7920294    277.73405  0.029003138  0.029262121            3 
  799000   0.91460942   -6.8423717    278.67312  0.029064781  0.029244088            7 
  800000   0.95381673   -6.8391848    278.90379  0.029052479  0.029226065            5 
  801000   0.93284826   -6.8615986    278.40143  0.028963944  0.029208086            3 
  802000   0.92934284   -6.8105022    277.97885   0.02888392  0.029190125            3 
  803000   0.93771541    -6.841822    278.94758  0.028948482  0.029172401            6 
  804000   0.96016169   -6.8111607    279.26331  0.028945202   0.02915463            6 
  805000   0.92508776   -6.8259992    278.75292   0.02885641  0.029136645            6 
  806000   0.93239249   -6.8327327    279.35944  0.028883317  0.029118629            5 
  807000   0.94143074   -6.8560189    279.45879  0.028857785  0.029100463           12 
  808000   0.93266713   -6.8798952    279.34842  0.028810686  0.029082035            3 
  809000   0.93060899   -6.8533875    279.42935   0.02878341  0.029063505            4 
  810000   0.93651496   -6.8450541    279.37531  0.028742316  0.029045254            6 
  811000   0.94125807   -6.8261649    279.94325  0.028765234  0.029026921            6 
  812000   0.92703403   -6.8487798    280.00995  0.028736653  0.029008418            7 
  813000   0.92419336   -6.8552205    280.50699  0.028752254  0.028990127            2 
  814000   0.93289042    -6.850409    281.28278  0.028796354  0.028971861            6 
  815000   0.93039991    -6.832581    280.61375  0.028692612  0.028953793            5 
  816000   0.92738778   -6.8321798    281.37764  0.028735461  0.028935891            9 
  817000   0.91315311   -6.8555835    280.63679  0.028624723  0.028917805            5 
  818000   0.92671635    -6.874078    281.16211  0.028643247  0.028899728            4 
  819000   0.90566395   -6.8634647     280.7009  0.028561346  0.028881442            9 
  820000    0.9282681   -6.8494439    282.15089  0.028673871  0.028863251            4 
  821000   0.92318001   -6.8680359    281.85874  0.028609291  0.028845197           11 
  822000   0.91556878    -6.852969    282.71111    0.0286609  0.028827257            3 
  823000   0.92444051   -6.8668825    282.23516  0.028577882  0.028809254            5 
  824000   0.94414113   -6.8516198    282.04221  0.028523686  0.028791254           11 
  825000    0.9146811   -6.8652851    282.64218  0.028549715  0.028773262            7 
  826000   0.91941772   -6.8485191    283.09869  0.028561208   0.02875537            4 
  827000   0.92605983   -6.8617816    283.86524  0.028603913  0.028737645            4 
  828000   0.94642086   -6.8714207     284.0068  0.028583615  0.028720217            5 
  829000    0.9015578   -6.8710604      283.788  0.028527142  0.028702506            6 
  830000    0.9209151   -6.8913452    283.97961  0.028512009  0.028684643            8 
  831000   0.93208618   -6.8632967    284.28323  0.028508146  0.028666894            5 
  832000   0.90282057   -6.8510104    284.79089  0.028524729  0.028649193            4 
  833000   0.92507689   -6.8763132    284.12274  0.028423644  0.028631319            7 
  834000   0.91097978   -6.9158673    284.19517    0.0283968  0.028613193            4 
  835000   0.92459856   -6.8528415     284.2925  0.028372505  0.028595234            4 
  836000   0.91802178   -6.8458303    285.05393  0.028414467  0.028577522            6 
  837000   0.93365887   -6.8862845    285.81585  0.028456377  0.028559784            6 
  838000   0.91224285    -6.861507    285.48172  0.028389192  0.028542317            6 
  839000   0.93519729   -6.8807553        285.3  0.028337306  0.028524854            4 
  840000   0.91893846   -6.8747765    286.08261  0.028381212  0.028507275            4 
  841000   0.90305652   -6.8629637    285.68326  0.028307894  0.028489739            7 
  842000   0.93304848    -6.867572    285.67164  0.028273123   0.02847191            3 
  843000   0.90813684   -6.8594312    286.68632  0.028339889  0.028454037            5 
  844000   0.91710814   -6.8769566    286.51008   0.02828891  0.028436348           11 
  845000    0.9050453   -6.8763824    285.92104  0.028197341  0.028418198            5 
  846000   0.90395112   -6.8898065     286.4354  0.028214677  0.028400084            6 
  847000   0.91019629   -6.8945891      285.823  0.028121114  0.028382015            3 
  848000   0.91212573   -6.8776213    287.09198  0.028212655   0.02836394            4 
  849000   0.90092991   -6.8939218    286.51379  0.028122673  0.028345783            3 
  850000    0.9199937   -6.8672251    286.42168  0.028080557  0.028327723            8 
  851000   0.90667554   -6.9152287    286.42999  0.028048374   0.02830949            4 
  852000   0.90103358   -6.9072739    287.21021  0.028091765   0.02829123           10 
  853000   0.92383787   -6.8875965    286.99129  0.028037445  0.028273024            6 
  854000   0.92103008   -6.8569951     287.5853  0.028062578  0.028255086            5 
  855000   0.89756133   -6.8873852    287.28234  0.028000228  0.028237005            4 
  856000   0.90628511   -6.8906198    287.59885  0.027998331  0.028219023            7 
  857000    0.9146869   -6.9006373    287.07852  0.027915064  0.028201044            5 
  858000   0.91080022   -6.9070575    288.44983  0.028015717  0.028183078           12 
  859000    0.9208734   -6.8801737    287.90718   0.02793046  0.028165189            3 
  860000   0.91018203   -6.8585347    288.75289  0.027979932  0.028147315            2 
  861000   0.91461246   -6.8876546    288.75544  0.027947681  0.028129501            7 
  862000   0.89821168   -6.8888619    289.23217  0.027961346    0.0281117            6 
  863000   0.93083555   -6.8789473     289.0954  0.027915739   0.02809375            5 
  864000   0.89568869   -6.8843593    288.71366   0.02784661  0.028076079           14 
  865000   0.90921417   -6.8930139    289.34048  0.027874805  0.028058344            2 
  866000   0.90581186   -6.8874161    289.50367   0.02785832  0.028040668            5 
  867000   0.92653837   -6.8836505    290.08072  0.027881654  0.028023031            3 
  868000   0.89405007   -6.9297562    291.01459  0.027939189   0.02800528            5 
  869000   0.91042816   -6.8874982    290.67029  0.027874021  0.027987646            4 
  870000   0.90286974   -6.9066881    290.65739  0.027840746  0.027970237            6 
  871000   0.89153314   -6.8772987    291.30173  0.027870429    0.0279528            5 
  872000    0.9036985   -6.8970679    290.51045  0.027762849  0.027935453            5 
  873000   0.91690499   -6.9367485    290.98608  0.027776449  0.027917983            8 
  874000   0.92253078   -6.8751907    291.58088  0.027801381  0.027900522            4 
  875000   0.89234683   -6.8942284    291.33586  0.027746273  0.027883026            7 
  876000    0.9051313    -6.932653    290.84873  0.027668258  0.027865411            4 
  877000   0.89862776   -6.9127026    291.95834  0.027742146  0.027847665            5 
  878000   0.89470936   -6.9047645    291.67819  0.027683959  0.027830061            5 
  879000   0.89514412   -6.8994768    292.37002  0.027718052  0.027812606            7 
  880000   0.89520517   -6.9390799    291.61986  0.027615517  0.027794891            7 
  881000   0.91198574    -6.923882    291.99189  0.027619362  0.027777346            7 
  882000   0.91319307   -6.8736118    291.72317  0.027562658  0.027759922            8 
  883000   0.92092264   -6.9072045    292.74722  0.027628088  0.027742477            7 
  884000   0.91021054   -6.9215479     292.7632  0.027598341  0.027725105            3 
  885000   0.89294741   -6.9040421     292.8611  0.027576375  0.027707651            6 
  886000   0.90927916   -6.9179206     293.4475  0.027600405  0.027690249            2 
  887000   0.89099451    -6.910597    293.90652  0.027612413  0.027672909            5 
  888000   0.86516528   -6.9313521    294.23268  0.027611925  0.027655547            2 
  889000   0.91762208    -6.894633    293.80549  0.027540822   0.02763815            6 
  890000   0.90296447   -6.8881108     293.7782  0.027507322  0.027621074            4 
  891000   0.87724607   -6.9336906    295.27389  0.027616338   0.02760389            5 
  892000    0.8866878   -6.9153557    294.64285  0.027526425   0.02758677            7 
  893000   0.89233752   -6.9011373    295.42957  0.027569015  0.027569523           11 
  894000   0.90606553   -6.9449924    294.34678  0.027437247  0.027552329            5 
  895000   0.89784755   -6.9327568    295.30199   0.02749553  0.027535311            4 
  896000   0.90213512   -6.9069566    295.33453  0.027467869  0.027518229            5 
  897000   0.88954271   -6.9116681    295.75324  0.027476146  0.027501342           15 
  898000   0.88009836   -6.9061572    295.46149  0.027418475   0.02748439            5 
  899000    0.8918945   -6.9406532    295.85664  0.027424605  0.027467443           13 
  900000   0.88766894   -6.9367346    295.68897  0.027378608  0.027450409            5 
  901000   0.89322244   -6.9123727    296.19926  0.027395418  0.027433604            4 
  902000   0.87418453   -6.9320328    297.58032  0.027492639  0.027416927            3 
  903000   0.89591823   -6.9315913    297.50743  0.027455466  0.027400288            3 
  904000    0.9010469   -6.9267727     296.8933  0.027368483  0.027383704            5 
  905000   0.88805781   -6.9041492    297.89528  0.027430505  0.027367046            5 
  906000   0.87435738   -6.9058423    297.80551  0.027391971  0.027350425            3 
  907000    0.8813905   -6.9452076     297.3536   0.02732025  0.027333754            4 
  908000   0.89325649   -6.9241803    297.14622  0.027271129  0.027317069            2 
  909000   0.88738004   -6.9301761    297.70812   0.02729264  0.027300531            7 
  910000   0.88727507   -6.9432212     297.6687  0.027259038   0.02728369            3 
  911000   0.89231042   -6.9245069    298.18321  0.027276181  0.027267105            8 
  912000   0.88768518   -6.9328698    298.00344  0.027229847  0.027250404            7 
  913000      0.90028    -6.942542    298.27146  0.027224485  0.027233704            3 
  914000   0.89396347   -6.9287141     298.8444  0.027246937  0.027217157            5 
  915000   0.88755749   -6.9048526    298.99959  0.027231292  0.027200891            4 
  916000   0.89055027   -6.9324445     298.6625  0.027170897  0.027184492            6 
  917000   0.86889103   -6.9148073    298.96549  0.027168801  0.027167957            4 
  918000   0.88533533   -6.9499923    298.25659  0.027074854  0.027151373            5 
  919000   0.88936786   -6.9379579    299.13743  0.027125266  0.027134853            4 
  920000   0.88656109    -6.942563    299.57451  0.027135372  0.027118286            6 
  921000   0.87690452   -6.9538443    299.90229  0.027135567  0.027101867           11 
  922000   0.89467642   -6.9306983    299.80995   0.02709779  0.027085431            7 
  923000   0.87101798   -6.9490893    300.61207  0.027140851  0.027068812            4 
  924000   0.87948305   -6.9321233    300.51354  0.027102592  0.027052363            3 
  925000   0.87530693   -6.9501419    300.33643  0.027057336  0.027035732            4 
  926000   0.88301386   -6.9681352    299.98421  0.026996419  0.027019182            5 
  927000   0.87230981    -6.923354    301.20267  0.027076832  0.027002836            3 
  928000   0.88825205   -6.9723632    301.11352  0.027039648   0.02698659            6 
  929000   0.86931126   -6.9683133     301.5782  0.027052224  0.026970396            5 
  930000    0.8736271   -6.9382738    301.16011  0.026985673  0.026954019           10 
  931000   0.88275927   -6.9460099    302.57714  0.027083525  0.026937884            8 
  932000   0.89120287   -6.9628002    301.81772  0.026986563  0.026921802            4 
  933000   0.87764245   -6.9653235    301.92891   0.02696757  0.026905554            9 
  934000   0.90544272   -6.9362013    302.00362  0.026945362  0.026889218            9 
  935000   0.88088371   -6.9663831    302.10023  0.026925154  0.026872865            5 
  936000   0.87739551   -6.9463765    302.92043  0.026969412  0.026856501           10 
  937000   0.88014296   -6.9691939    301.47275  0.026811878    0.0268401            3 
  938000   0.88164267   -6.9749347    302.69565  0.026891937  0.026823761            6 
  939000    0.8559728   -6.9447991    303.17757  0.026906068  0.026807471            2 
  940000   0.89048484   -6.9652979     302.8499  0.026848395  0.026791143            7 
  941000   0.87809283   -6.9728905    303.88893  0.026911878  0.026774708            5 
  942000   0.88469783   -6.9479295    303.05206  0.026809276  0.026758264            3 
  943000   0.88410494    -6.959777    304.28799  0.026890066  0.026741972            5 
  944000   0.88335087   -6.9609668    303.99396  0.026835625   0.02672555            6 
  945000   0.88875379   -6.9570756    303.74826  0.026785561   0.02670909            5 
  946000   0.90514821   -6.9507189    303.75275  0.026757642  0.026692614            5 
  947000   0.87087477   -6.9627367    304.47379  0.026792836   0.02667639            9 
  948000    0.8827527   -6.9512794    304.25715   0.02674553  0.026660208            7 
  949000   0.89016914   -6.9789209    304.29404  0.026720586  0.026644015            9 
  950000   0.88678915   -6.9848037    305.29712  0.026780449  0.026627937            9 
  951000   0.86991462    -6.975834     305.9305   0.02680779  0.026611912           12 
  952000   0.86854075   -6.9716464    305.74781  0.026763639  0.026595926            6 
  953000   0.87297339    -6.990799    304.66609  0.026640966  0.026579896            5 
  954000   0.86796398   -6.9355225    305.38537  0.026675871  0.026563609            4 
  955000   0.86971555   -6.9672329    305.23176  0.026634534  0.026547301            7 
  956000   0.88192375   -6.9344015    305.37905  0.026619513  0.026531106            9 
  957000   0.88458786   -6.9811447    305.36879  0.026590804  0.026514944            7 
  958000   0.87275775   -6.9487389    306.02948  0.026620518  0.026498719            5 
  959000   0.86831133   -6.9494458    305.88021  0.026579789  0.026482492            6 
  960000   0.86826006   -6.9647271    305.76423  0.026542034    0.0264662            5 
  961000   0.86091505   -6.9596582    305.70658  0.026509416  0.026449936            5 
  962000    0.8640339   -6.9569722    306.71297  0.026569037   0.02643374            3 
  963000   0.87564329   -6.9746797    305.91057  0.026472012  0.026417544            8 
  964000   0.87407418   -6.9630303    307.04966   0.02654302  0.026401287            7 
  965000    0.8603182   -6.9689036     305.4719  0.026379266  0.026385068            3 
  966000   0.85167516   -6.9564057    306.23812  0.026418057  0.026369004            5 
  967000    0.8760622   -6.9878971    306.53047  0.026415931   0.02635281            6 
  968000   0.88231455   -6.9846117    306.90612  0.026420982  0.026336437            2 
  969000   0.86955939   -7.0026358    306.89881  0.026393086  0.026320064            4 
  970000   0.86380787   -6.9482217    306.56398  0.026337111  0.026303538            7 
  971000   0.86585675   -6.9969713     306.8481  0.026334372  0.026286872            5 
  972000   0.86869726   -6.9733955    307.27726  0.026344072   0.02627032            8 
  973000   0.87284146   -7.0211823    307.29655  0.026318649  0.026253929            3 
  974000   0.87080976   -6.9734128    307.86478  0.026340245  0.026237457            3 
  975000   0.87064149   -7.0045786     307.6231  0.026292573  0.026220918            3 
  976000   0.84678372   -6.9753128    307.90061  0.026289328  0.026204371            6 
  977000   0.87781306   -7.0091969    307.16819  0.026199948  0.026187731           12 
  978000   0.84339906   -6.9686822    307.87824  0.026233661  0.026171208            5 
  979000    0.8715512   -7.0143625    308.46819  0.026257081  0.026154767            5 
  980000   0.86457317   -6.9681117    308.63302  0.026244305  0.026138363            6 
  981000   0.85150292   -6.9662713    308.69741  0.026223021  0.026122207            5 
  982000   0.86379052   -6.9860939    308.96791  0.026219273  0.026105934            4 
  983000   0.87383378   -6.9863064    308.33638  0.026139063  0.026089787            4 
  984000   0.85320084   -6.9907348    309.66222  0.026224782  0.026073581            4 
  985000   0.84531696   -6.9950911     309.2867  0.026166388  0.026057494            8 
  986000   0.84749979   -6.9926886    309.43437   0.02615233  0.026041373           10 
  987000   0.86218643   -7.0342886    309.20528  0.026106491  0.026025242            6 
  988000   0.85744782   -6.9912419    310.16033  0.026160622  0.026009012            5 
  989000   0.85577659   -6.9611634    310.21959  0.026139163  0.025992829            5 
  990000   0.86365645   -6.9879206    310.38948   0.02612706  0.025976941            5 
  991000   0.85013831   -7.0015054    310.49952  0.026109949  0.025960839           27 
  992000   0.87249403    -7.011589    310.50059  0.026083719  0.025944722           10 
  993000    0.8552653   -7.0078583    309.69778  0.025990079  0.025928558            4 
  994000   0.84086898   -6.9927906    310.06295  0.025994546  0.025912337           11 
  995000   0.86578236   -6.9828522     310.6065  0.026013945  0.025896115           12 
  996000   0.85031879   -6.9860479    310.40625  0.025971072  0.025879869            5 
  997000   0.84895941   -7.0232981    310.00111  0.025911159   0.02586346            3 
  998000   0.86486042    -6.994281    310.48324  0.025925454  0.025847053            4 
  999000   0.84830207   -6.9969124    310.90492  0.025934678  0.025830758            4 
 1000000   0.86022978   -6.9956565    310.55826  0.025879855  0.025814374            5 
 1001000   0.84153685   -6.9941601     310.1342  0.025818698  0.025798128            9 
 1002000   0.83871788   -7.0106867    310.73608  0.025842987   0.02578173            8 
 1003000   0.83921222   -7.0313739    309.57038  0.025720371  0.025765289           10 
 1004000    0.8367101   -7.0115314    310.83064  0.025799356  0.025748998            4 
 1005000   0.85347662    -7.012432    310.89506  0.025779026  0.025732744            6 
 1006000   0.85999611   -7.0104658    311.11085  0.025771276  0.025716332            6 
 1007000   0.85009143   -6.9916541    311.60841  0.025786859  0.025699983            8 
 1008000   0.84501814   -7.0122483    311.53639  0.025755324  0.025683684            7 
 1009000   0.84663007   -6.9945891    311.71105  0.025744223  0.025667505            4 
 1010000   0.82231398   -6.9771542     311.4751  0.025699266  0.025651372            6 
 1011000   0.85622485   -7.0075826    312.03344  0.025719868   0.02563507           14 
 1012000   0.86416939   -7.0288163    311.71617  0.025668328  0.025618805            9 
 1013000   0.84181462   -7.0144121    311.75234  0.025645964  0.025602414            6 
 1014000   0.85286578   -7.0128736    312.15988  0.025654165   0.02558612            4 
 1015000   0.85456197   -7.0208498      312.209  0.025632923   0.02556992            9 
 1016000   0.82223152   -7.0342164    313.09124  0.025680056  0.025553638            3 
 1017000    0.8350541   -7.0026262    312.45462   0.02560264  0.025537374            5 
 1018000    0.8541839   -7.0091019    312.23285  0.025559336  0.025521099            4 
 1019000   0.84821429   -7.0136624    311.64259  0.025485982  0.025504605            9 
 1020000   0.85771214   -6.9974574    312.80868  0.025556264  0.025488032            6 
 1021000   0.83453624   -7.0539193    312.40241  0.025498075   0.02547153            4 
 1022000   0.86408271   -7.0337441    312.82052  0.025507218  0.025454998            5 
 1023000   0.86366241    -7.011325    314.01117  0.025579274  0.025438562            7 
 1024000    0.8637064   -7.0452617    312.50194  0.025431473  0.025422032            5 
 1025000   0.82662394   -7.0278919    313.61221  0.025496927  0.025405502            6 
 1026000    0.8353133   -7.0440639    313.76978  0.025484875  0.025389048            5 
 1027000   0.84667787   -7.0079703    312.95881  0.025394256  0.025372619            7 
 1028000   0.84249323   -7.0365084    313.00081  0.025372958  0.025356146            4 
 1029000   0.83761445   -7.0273035    313.63931  0.025400009  0.025339544            3 
 1030000   0.82607668   -7.0232777    313.19195  0.025339155  0.025323173            7 
 1031000   0.84279881   -6.9988971    313.79116   0.02536301  0.025306811            6 
 1032000    0.8405659   -7.0365112    313.77587  0.025337199  0.025290528            7 
 1033000   0.83212014   -7.0413804    313.76712  0.025311965  0.025274262            8 
 1034000   0.84629692   -7.0115995    314.45163  0.025342653  0.025257975            6 
 1035000   0.82679353   -7.0199549    314.51511  0.025323278  0.025241669            5 
 1036000   0.84088682   -7.0052145    313.96493   0.02525458  0.025225414            5 
 1037000   0.83766597   -7.0460444    314.38637  0.025264093  0.025208991            6 
 1038000   0.84211341   -7.0620023    314.46221  0.025245842  0.025192706           10 
 1039000   0.84211771   -7.0603881    315.04598  0.025268366  0.025176327           13 
 1040000   0.82227401   -7.0370808    315.44217  0.025275815  0.025160022            3 
 1041000   0.81551333   -7.0551746    314.76233  0.025197113   0.02514368            4 
 1042000   0.84980326   -7.0351786    315.48326  0.025230587  0.025127396            6 
 1043000   0.85150843   -7.0430716    315.56464  0.025212899   0.02511112            6 
 1044000   0.83052216   -7.0625182    315.92996  0.025217909  0.025094824           32 
 1045000   0.83486323   -7.0367222    315.95312  0.025195623  0.025078699           21 
 1046000   0.82222309   -7.0706053    315.83639  0.025162237  0.025062599            7 
 1047000   0.81346348   -7.0154631    315.85066   0.02513934  0.025046465            4 
 1048000   0.83721566   -7.0138189    316.45775  0.025163625  0.025030436            7 
 1049000    0.8291443   -7.0472878    315.69019  0.025078661  0.025014315            6 
 1050000   0.83922904   -7.0438664    316.76286  0.025139909  0.024998202            4 
 1051000    0.8440821   -7.0440394    316.34266  0.025082672  0.024982205            4 
 1052000   0.83617388   -7.0524201     316.5584  0.025075919  0.024966164           10 
 1053000   0.85227411    -7.044842    316.84994  0.025075177  0.024950073           12 
 1054000   0.82977106   -7.0249444    316.72953  0.025041867  0.024934183            9 
 1055000   0.84547794   -7.0332268    317.67092   0.02509249  0.024918402            4 
 1056000    0.8276787   -7.0685017    317.53282   0.02505783  0.024902639            8 
 1057000   0.85181102   -7.0262779    317.77314   0.02505307  0.024886902            3 
 1058000   0.83631131   -7.0554394    317.68416  0.025022382  0.024871138            9 
 1059000   0.83370409   -7.0547528    317.84535  0.025011438  0.024855366           18 
 1060000   0.82509448   -7.0572159    317.48434   0.02495946  0.024839566            5 
 1061000   0.84206385   -7.0555602    317.98339  0.024975133  0.024823729            8 
 1062000   0.83020825   -7.0349839     318.8446  0.025019193  0.024808091            9 
 1063000   0.84019752   -7.0546416    318.31219  0.024953919  0.024792307           15 
 1064000    0.8308757   -7.0792958    318.47733    0.0249434  0.024776387            7 
 1065000   0.83954141   -7.0835592    317.99886   0.02488254  0.024760448            5 
 1066000   0.82933624   -7.0643085    318.34351  0.024886141  0.024744539            8 
 1067000   0.82270589   -7.0490182    319.16835  0.024927238  0.024728691            5 
 1068000   0.84225423   -7.0287947    319.00573  0.024891208  0.024713058            5 
 1069000   0.83454198   -7.0358964    319.12183  0.024876974  0.024697371            5 
 1070000   0.81805663   -7.1015705    318.90875   0.02483713  0.024681555            7 
 1071000   0.84438453   -7.0587007    318.52605  0.024784162  0.024665808           10 
 1072000   0.82096213   -7.0522444    319.56216  0.024841585  0.024649989           14 
 1073000      0.81552   -7.0939643    319.79129  0.024836229  0.024634094            3 
 1074000   0.81712138     -7.05767    318.78129  0.024734737  0.024618138            8 
 1075000   0.81839995   -7.0623419    319.01861  0.024730125   0.02460219            8 
 1076000   0.81271796   -7.0429652    318.76073  0.024687169  0.024586256            5 
 1077000   0.81460416   -7.0754571    319.23039  0.024700587  0.024570292            4 
 1078000   0.83370606   -7.0515609    318.23952  0.024601076  0.024554248            5 
 1079000    0.8247731   -7.0516032    319.30847  0.024660834  0.024538094            2 
 1080000   0.82727039    -7.065633    318.81752  0.024600117  0.024521841            4 
 1081000   0.83214375   -7.0794117    318.98243  0.024590073  0.024505605            8 
 1082000   0.80765115   -7.0674226    319.38954  0.024598701  0.024489419           11 
 1083000   0.83568144   -7.0713349    319.97274  0.024620863  0.024473177           11 
 1084000   0.81386584   -7.0406856    319.47499  0.024559886  0.024456976           10 
 1085000   0.83746466   -7.0872399    319.31634  0.024525064  0.024440797            5 
 1086000   0.80082928    -7.094701    318.90459  0.024470886  0.024424554           14 
 1087000   0.82250696   -7.0747151    320.02099  0.024533961  0.024408391           16 
 1088000   0.82204522   -7.0880394    319.91833  0.024503549  0.024392145            3 
 1089000   0.80972849    -7.071907    319.98556  0.024486192   0.02437602            6 
 1090000   0.82308089   -7.0928299     320.3691   0.02449305  0.024359901           11 
 1091000   0.83288143   -7.0820747    320.71871  0.024497304  0.024343896            4 
 1092000   0.83901127    -7.072171    320.35984  0.024447485  0.024327942            7 
 1093000   0.81965138   -7.1059062    320.94472   0.02446971  0.024311971            6 
 1094000   0.82595858   -7.0618043    320.81602  0.024437539  0.024296003            5 
 1095000   0.81188968   -7.0735416    320.76905  0.024411648  0.024280173            7 
 1096000   0.81510125   -7.0994999    321.05763  0.024411316  0.024264287            6 
 1097000   0.81755653   -7.0870514    321.26698  0.024404966  0.024248259            7 
 1098000    0.8186026   -7.1172304    321.72312  0.024417359  0.024232186           15 
 1099000   0.81985145   -7.0775676    321.67276  0.024391322  0.024216311           15 
 1100000    0.8079548    -7.092602    321.83385  0.024381353  0.024200477            9 
 1101000   0.81720276   -7.0623651    322.44184  0.024405226  0.024184735            6 
 1102000   0.81130768   -7.0461934    322.36959  0.024377615  0.024168961            6 
 1103000    0.8170536   -7.0704136    321.54076  0.024292895  0.024153247            8 
 1104000   0.81312874   -7.0633836    322.95553  0.024377682  0.024137494            8 
 1105000   0.80931386   -7.0878872    322.10395  0.024291399  0.024121796            8 
 1106000   0.82064137   -7.1021791     323.1929  0.024351484  0.024106118           16 
 1107000   0.81925107   -7.1104534    322.38037  0.024268321  0.024090483            7 
 1108000   0.80353082   -7.0928134    323.21893  0.024309486    0.0240748           23 
 1109000   0.82023164   -7.0969285    322.31845  0.024219901  0.024059133            6 
 1110000   0.79388068   -7.1144568    322.30839  0.024197327  0.024043432            3 
 1111000   0.81373987   -7.0792889     323.6693  0.024277626   0.02402784            5 
 1112000   0.79696691   -7.0999495    323.21243  0.024221555   0.02401215           11 
 1113000   0.81241004   -7.1128697     323.3067  0.024206851  0.023996548            4 
 1114000   0.81149128   -7.0983173    323.50104  0.024199659   0.02398096            6 
 1115000   0.81295232   -7.0773112    323.24737  0.024158997  0.023965373            7 
 1116000   0.80833513   -7.0954308    323.25898  0.024138216  0.023949791            8 
 1117000   0.80051835   -7.0949919    323.43648  0.024129848   0.02393408            7 
 1118000   0.78997414   -7.1109406    324.37754  0.024178409  0.023918408           12 
 1119000   0.80489597   -7.1176607    323.44789   0.02408757  0.023902739           14 
 1120000   0.80831955   -7.1091729    323.72221  0.024086474  0.023887133            8 
 1121000   0.79480104   -7.1069629    324.48796  0.024121912  0.023871497           17 
 1122000   0.80017657   -7.1091975    323.07319  0.023995335  0.023855861            8 
 1123000   0.81527152   -7.0715868    324.20535  0.024057981  0.023840351            4 
 1124000   0.80891898   -7.0893126    324.28934  0.024042804  0.023824836            5 
 1125000   0.79265513   -7.1068432    324.74516  0.024055197  0.023809181            5 
 1126000   0.81307418   -7.1032806    324.26735  0.023998472  0.023793627            6 
 1127000   0.81052993    -7.114607    324.31112  0.023980414  0.023778167            2 
 1128000   0.81778968   -7.1182733    324.06766  0.023941168  0.023762603            5 
 1129000   0.80153268    -7.109956    324.14727  0.023925839   0.02374695            7 
 1130000   0.79667009   -7.0981011    323.79852  0.023878947   0.02373129            6 
 1131000   0.79295719   -7.1540381    324.06877  0.023877746  0.023715537            8 
 1132000   0.80693801   -7.1279253    324.80341  0.023910734  0.023699814           10 
 1133000   0.81520406   -7.0891457    324.52251   0.02386897  0.023684105           17 
 1134000    0.7917089   -7.0913412    324.05394  0.023813487  0.023668323            5 
 1135000   0.79625573   -7.1149328    324.51353   0.02382625  0.023652602            5 
 1136000   0.81478093    -7.149578    324.72984  0.023821145   0.02363685            9 
 1137000   0.80081611   -7.1330566    324.49736  0.023783154  0.023621118           21 
 1138000   0.79881866   -7.1110366    325.13256  0.023808769  0.023605566            4 
 1139000   0.80413199   -7.1220604    325.32632  0.023802042  0.023589988            4 
 1140000   0.80121264   -7.0868591    325.53266  0.023796247  0.023574435            6 
 1141000   0.79748708   -7.1341106    325.50421  0.023773314  0.023558901            8 
 1142000   0.80552412   -7.0953598    325.70478  0.023767132  0.023543376           13 
 1143000   0.77822373   -7.1116418    325.48493   0.02373031  0.023527885           10 
 1144000   0.80504353   -7.1076241    325.50233  0.023710834  0.023512416            8 
 1145000   0.79201162   -7.1397974    326.10375  0.023733898  0.023496785           11 
 1146000   0.77924157   -7.1261846    325.98472  0.023704532  0.023481142            7 
 1147000   0.79723465   -7.1098733    326.17291  0.023697538  0.023465614           18 
 1148000   0.78570884   -7.1150581    325.99051  0.023663655  0.023450042            4 
 1149000   0.78557668   -7.1108025     325.8213  0.023630787  0.023434323            5 
 1150000   0.80242456   -7.1212773    326.71759  0.023675188   0.02341874            8 
 1151000   0.78237872   -7.1066178    325.65788  0.023577895  0.023403193            6 
 1152000   0.80229158   -7.1273055      326.029  0.023584274   0.02338758            6 
 1153000   0.78310177   -7.1248485    326.68144  0.023610974  0.023371856           10 
 1154000   0.77541011   -7.1225327    325.97926  0.023539808   0.02335604            7 
 1155000   0.79013563   -7.1697147    325.85393  0.023510384  0.023340304            8 
 1156000    0.7809328   -7.1402983     325.9491  0.023496907    0.0233245            4 
 1157000   0.78493626   -7.1310793    326.63919  0.023526303  0.023308777           14 
 1158000   0.78453306   -7.1399556    325.73767  0.023441111  0.023293143            5 
 1159000   0.78618076   -7.1267748    325.63271  0.023413338  0.023277465            9 
 1160000   0.76993046   -7.1468491    326.55278  0.023459251  0.023261787           11 
 1161000   0.78333706   -7.1310967    326.90921  0.023464629  0.023246059            5 
 1162000   0.79855792   -7.1527184    326.66559  0.023426964  0.023230308            7 
 1163000   0.79258575   -7.1317035    326.68541  0.023408241  0.023214604           12 
 1164000   0.79921742   -7.1130248    326.88219  0.023402219  0.023198951           17 
 1165000   0.80188544   -7.1184252    326.31957  0.023341886  0.023183341            5 
 1166000   0.79845675    -7.157162    327.11189  0.023378494  0.023167675            8 
 1167000   0.80942356   -7.1448308    327.00514  0.023350838  0.023152148            9 
 1168000     0.787428   -7.1393822    326.62984  0.023304069  0.023136526            5 
 1169000   0.79426685   -7.1257052    326.79485  0.023295897  0.023120926            7 
 1170000   0.79306353   -7.1360703    327.28254  0.023310722  0.023105377            6 
 1171000   0.79520501   -7.1470041    327.66639  0.023318132  0.023089806            9 
 1172000   0.80184728   -7.1405179    327.06847  0.023255722  0.023074216           11 
 1173000   0.79015698   -7.1577228    327.05792  0.023235146  0.023058527            6 
 1174000   0.79259737   -7.1739383    327.09554  0.023218025  0.023042799           11 
 1175000    0.7998409   -7.1480969    327.38918  0.023219091  0.023027119           14 
 1176000   0.79095889   -7.1497843    327.21757  0.023187186  0.023011413            6 
 1177000   0.78479529   -7.1459504    326.73087  0.023133027  0.022995758            8 
 1178000   0.77894715   -7.1317038    327.47551  0.023166066  0.022980044            8 
 1179000   0.77254536   -7.1596857    327.80787  0.023169909  0.022964425            8 
 1180000   0.77451064   -7.1377941    327.95775  0.023160858  0.022948885            4 
 1181000   0.78297396   -7.1293849    328.39823  0.023172328  0.022933318            4 
 1182000   0.77117995   -7.1274045    328.65413  0.023170765  0.022917762            5 
 1183000   0.79092525   -7.1537653    327.53157  0.023072103  0.022902133            5 
 1184000   0.78574013   -7.1218884    328.14052  0.023095476  0.022886467           17 
 1185000   0.78461509    -7.149333    327.46513   0.02302849  0.022870803            9 
 1186000   0.78691026   -7.1488778    327.72331  0.023027214  0.022855074           12 
 1187000    0.7809954   -7.1548852    328.41542  0.023056404  0.022839461           10 
 1188000   0.77840813   -7.1325546    329.05837  0.023082097  0.022823838           10 
 1189000   0.79702454   -7.1653023    328.00138  0.022988603  0.022808293            7 
 1190000   0.79201977   -7.1852336    327.67174    0.0229462  0.022792647            9 
 1191000    0.7735005   -7.1643909    328.80813  0.023006446  0.022776988           13 
 1192000   0.76993759   -7.1750172    327.99261  0.022930132  0.022761317            8 
 1193000     0.788864   -7.1447298    328.70023   0.02296034  0.022745701           10 
 1194000    0.7712175   -7.1681796    328.95238  0.022958709  0.022730162           12 
 1195000   0.78485685   -7.1652157     328.5205   0.02290938  0.022714553            7 
 1196000   0.76844497   -7.1721535    327.64797  0.022829429  0.022698966           11 
 1197000   0.77533032    -7.139294     327.7355  0.022816451  0.022683388            4 
 1198000   0.78867881   -7.1659425    328.65195  0.022861154  0.022667857            9 
 1199000   0.78359837   -7.1876398    328.85573  0.022856251  0.022652388            4 
 1200000   0.76810325   -7.1716124    328.32342  0.022800237  0.022636897            6 
 1201000   0.78715836   -7.1704452    329.17297  0.022840201  0.022621422            4 
 1202000    0.7845111   -7.1846928    328.97944  0.022807781  0.022605969            7 
 1203000   0.77306028   -7.1752712    329.81909  0.022846986  0.022590582            9 
 1204000   0.75819809   -7.2037386    329.81288  0.022827581  0.022575134           13 
 1205000      0.76837   -7.2007456    329.98314  0.022820411  0.022559689            9 
 1206000    0.7864195   -7.1932045    328.73166  0.022715012  0.022544271            7 
 1207000   0.77873025   -7.1498758     329.0797  0.022720223  0.022528802           15 
 1208000   0.76949183   -7.1853992      330.217  0.022779871  0.022513341           18 
 1209000   0.76410939   -7.1713658    329.76815   0.02273009   0.02249787           13 
 1210000   0.76360941     -7.21662      329.537  0.022695386  0.022482317            9 
 1211000   0.77841014   -7.2252756     329.1515  0.022650117  0.022466652           19 
 1212000   0.78674559   -7.2301775    328.83604  0.022609739  0.022451008           14 
 1213000   0.77447558   -7.1956239     329.8391   0.02266001  0.022435412            9 
 1214000   0.76569437   -7.2369987    329.07898  0.022589167  0.022419819           11 
 1215000   0.76801889   -7.1846404    330.55066  0.022671513  0.022404218            8 
 1216000   0.76175816    -7.195747    329.57684  0.022586132  0.022388641            8 
 1217000   0.77652657   -7.2087965    330.22618  0.022612036  0.022373102            7 
 1218000   0.77258673   -7.2190407    329.76101  0.022561646  0.022357555            5 
 1219000   0.77675093   -7.1520356    330.16942  0.022571057  0.022342017            5 
 1220000   0.77474963   -7.1567881    330.48408  0.022574049   0.02232654            5 
 1221000   0.77735854     -7.18591    330.22003   0.02253754  0.022311012            7 
 1222000   0.78000114   -7.1931562    330.19792  0.022517589  0.022295504           11 
 1223000   0.76726234   -7.1999104    330.69974   0.02253337  0.022280061            8 
 1224000   0.76234995   -7.2087855    330.80904  0.022522402  0.022264568           10 
 1225000    0.7449526   -7.1803541    331.35725  0.022541309  0.022249204            7 
 1226000   0.76271719   -7.1894226    331.22853  0.022514174  0.022233978           14 
 1227000   0.79397861    -7.199254    331.77428   0.02253289  0.022218762            7 
 1228000   0.76838793    -7.200276    331.26319  0.022479858  0.022203537            5 
 1229000   0.75264753   -7.2283341    330.45035  0.022406452  0.022188254            7 
 1230000   0.77211735   -7.2114087    330.95103  0.022422157  0.022172847            6 
 1231000   0.75521205   -7.2301565    330.86587  0.022398177  0.022157534            6 
 1232000   0.75924324     -7.20134    331.02615  0.022390838  0.022142223           19 
 1233000   0.76276683   -7.1951833    331.31707   0.02239234  0.022126931           11 
 1234000   0.76664459   -7.2048747     331.1717  0.022364378  0.022111782           10 
 1235000   0.75795512   -7.1825351    332.25672  0.022419482  0.022096689           14 
 1236000   0.75734994   -7.2289728    331.82003  0.022371901  0.022081553           10 
 1237000   0.76603604   -7.2126718    331.42168  0.022326979  0.022066303           11 
 1238000   0.75086699   -7.2167179    331.88708  0.022340272   0.02205106           12 
 1239000   0.75670721    -7.212097    332.44765  0.022359944  0.022035774           16 
 1240000   0.77771512   -7.2295324    332.06245  0.022316025  0.022020564           18 
 1241000   0.75904228   -7.2136188    331.73873  0.022276305  0.022005325           17 
 1242000   0.76119292   -7.2081492    331.84397   0.02226543  0.021990056            9 
 1243000   0.75802327   -7.2428727    330.90694  0.022184697  0.021974718           13 
 1244000     0.770939   -7.1931173    331.86637  0.022231134  0.021959415           10 
 1245000   0.75138724   -7.2046094    332.12438  0.022230547  0.021944197           10 
 1246000   0.74927572   -7.2370621    331.41407    0.0221652  0.021928959            7 
 1247000   0.76166883   -7.2357132    332.03091  0.022188647  0.021913726            8 
 1248000   0.74510051   -7.2094016    332.77424  0.022220502   0.02189841            8 
 1249000   0.77514776   -7.2289094     332.3268  0.022172858  0.021883183           22 
 1250000   0.75201126   -7.2203093    332.34765   0.02215651   0.02186794            6 
 1251000   0.74593752   -7.2251836    331.59244  0.022088492  0.021852699            8 
 1252000   0.76452155   -7.2080397    332.38266  0.022123446  0.021837463            8 
 1253000   0.75063187   -7.2705428    331.60704  0.022054206  0.021822107           11 
 1254000   0.73577439   -7.2369402    332.09642   0.02206914  0.021806804           15 
 1255000   0.74399109   -7.2318776    332.25019  0.022061765  0.021791522            7 
 1256000   0.76450722   -7.2228059     331.2471  0.021977647  0.021776233            9 
 1257000   0.76548528   -7.2393955    332.08794  0.022015907  0.021760959           13 
 1258000   0.73384754   -7.2153121    332.81134  0.022046326  0.021745745           14 
 1259000   0.75986472   -7.2065043    332.84724  0.022031192  0.021730601            4 
 1260000   0.76352307   -7.2387264     331.9431  0.021953909  0.021715392            6 
 1261000   0.75386369    -7.201209    332.81832  0.021994338  0.021700274           13 
 1262000   0.74859579   -7.2329132    333.02142  0.021990321  0.021685201            4 
 1263000   0.74198863   -7.2342434    332.97533  0.021969869  0.021670008            8 
 1264000   0.76018689   -7.2380823     332.2311  0.021903422  0.021654767            6 
 1265000   0.75150286   -7.2117042    332.58633  0.021909508  0.021639517            6 
 1266000   0.73803512   -7.2152988    332.80053  0.021906301  0.021624331           11 
 1267000    0.7721271   -7.2316504    333.21923   0.02191655  0.021609156            6 
 1268000   0.73403558   -7.2208112    332.88778  0.021877483  0.021594068            6 
 1269000   0.74857172   -7.2492677    333.49372  0.021900034  0.021578911            6 
 1270000   0.75033929   -7.2206278    333.08173  0.021855757  0.021563836           10 
 1271000   0.74331107   -7.2401468    332.89911  0.021826587  0.021548754            6 
 1272000   0.75350649   -7.2428366    333.64038  0.021857991  0.021533674            8 
 1273000   0.74975769   -7.2649941    332.72683  0.021781018  0.021518569           17 
 1274000   0.73054356   -7.2409847    333.73736  0.021830021   0.02150351            9 
 1275000   0.74861628   -7.2596289     332.7082  0.021745634  0.021488339           25 
 1276000   0.75113197   -7.2638433    333.08423   0.02175315   0.02147313           13 
 1277000   0.76563647   -7.2499686    333.08475  0.021736149  0.021457951           11 
 1278000   0.74281523   -7.2550263     333.7154  0.021760263  0.021442831           12 
 1279000   0.73481431   -7.2628643    333.17024   0.02170773  0.021427679            7 
 1280000   0.74187975   -7.2432182    333.37771  0.021704278  0.021412538            8 
 1281000   0.72656737   -7.2429787    334.43978  0.021756426  0.021397439            5 
 1282000   0.73855711   -7.2402543    333.54152  0.021681066  0.021382435            6 
 1283000   0.74215067   -7.2225662    333.87947  0.021686118  0.021367447           20 
 1284000   0.72377805   -7.2267594    333.90277  0.021670741  0.021352432            5 
 1285000   0.73972863   -7.2537509    334.03667   0.02166256  0.021337361           18 
 1286000    0.7461161   -7.2349627    334.20463  0.021656599  0.021322264            8 
 1287000   0.73036225   -7.2417484    333.71067  0.021607787  0.021307199           14 
 1288000   0.73744496   -7.2569817    333.48314   0.02157629  0.021292144            9 
 1289000   0.74037493   -7.2727698    333.61388  0.021568004  0.021277017            5 
 1290000    0.7539924   -7.2368865    333.12102  0.021519446  0.021261938            5 
 1291000   0.73767917   -7.2761119    333.98943  0.021558832   0.02124676            5 
 1292000    0.7372924   -7.2269971    334.41412  0.021569538  0.021231671           10 
 1293000   0.74326483   -7.2453913    334.28729  0.021544683  0.021216632            8 
 1294000   0.73414042   -7.2306071     334.2863  0.021527969  0.021201707           12 
 1295000   0.74024803   -7.2533965      334.438  0.021521107  0.021186772            8 
 1296000   0.72868736    -7.238347    334.33833  0.021498092  0.021171863            7 
 1297000   0.72529381    -7.244301    333.70701  0.021440954  0.021156982            5 
 1298000   0.74672941   -7.2550518    333.92701   0.02143856  0.021142101           15 
 1299000   0.72611891   -7.2622289    334.21101  0.021440275  0.021127232            7 
 1300000   0.72785749   -7.2200156    334.61352  0.021449585   0.02111238            9 
 1301000   0.75959485   -7.2387315    335.00396  0.021458107  0.021097603            4 
 1302000   0.72480268    -7.241554    334.99092  0.021440791  0.021082836           19 
 1303000   0.73208955     -7.25543    335.45591  0.021454074  0.021068116            8 
 1304000   0.74813502   -7.2395488    334.88556  0.021401173  0.021053386            6 
 1305000   0.73805056   -7.2542848    334.85127  0.021382585  0.021038665            6 
 1306000   0.74525858   -7.2715489    336.06812  0.021443857  0.021023971            8 
 1307000   0.71781748   -7.2649177    335.83567  0.021412629  0.021009288           17 
 1308000    0.7250646   -7.2611482    335.95793  0.021404047  0.020994623           15 
 1309000   0.73078501   -7.2517649    336.26605  0.021407312  0.020979978           13 
 1310000   0.74377531   -7.2355196    336.01346  0.021374902  0.020965447            8 
 1311000   0.72122822   -7.2686092    335.22934  0.021308755  0.020950837            6 
 1312000   0.73341006   -7.2934853    335.76084  0.021326273  0.020936205            5 
 1313000   0.72730761   -7.2822279     336.1363   0.02133386  0.020921621            5 
 1314000   0.72196978   -7.2491284      336.474  0.021339041   0.02090714            9 
 1315000    0.7245633   -7.2458831    336.58241  0.021329684  0.020892591           23 
 1316000   0.74698843   -7.2805489    336.04132  0.021279212  0.020878032            8 
 1317000   0.73557187   -7.2698822    335.72453   0.02124301  0.020863457           16 
 1318000   0.73633139    -7.277652    336.21802  0.021258094  0.020848845           18 
 1319000   0.72638721   -7.2708828    335.32057  0.021185278  0.020834181           13 
 1320000   0.73510173   -7.2777513    335.53477  0.021182751   0.02081951           13 
 1321000   0.70696347   -7.2815213    336.25083  0.021211887  0.020804819            9 
 1322000   0.71590316   -7.2676285    335.95019  0.021176891  0.020790138            8 
 1323000    0.7115526     -7.28462    335.93066  0.021159653  0.020775512            7 
 1324000   0.72278755   -7.2905026    335.96505  0.021145836   0.02076088            6 
 1325000   0.72018031   -7.2524104    335.01464  0.021070103  0.020746255            8 
 1326000   0.72753088   -7.2900517    335.91222  0.021110622  0.020731646            6 
 1327000   0.74353479   -7.2543945    335.77099  0.021085845  0.020717067            7 
 1328000   0.73030915   -7.2802341    336.08686  0.021089788  0.020702419           13 
 1329000   0.71662863   -7.3012855    336.20072  0.021081058  0.020687746            6 
 1330000    0.7147381   -7.2900606    336.23138  0.021067129   0.02067307           16 
 1331000   0.71969628   -7.2880614    336.13787  0.021045447  0.020658396            6 
 1332000   0.73460923    -7.280207     335.9212  0.021016091  0.020643721            7 
 1333000   0.72276436   -7.2819324    336.12819  0.021013265  0.020629011           14 
 1334000   0.70282273   -7.2899962    336.07515    0.0209942  0.020614352           14 
 1335000   0.71392963   -7.2890143    336.41353  0.020999596  0.020599689           11 
 1336000   0.70496788   -7.2653643    336.62271  0.020996926  0.020585042            5 
 1337000   0.73010808   -7.2740869    336.72992  0.020987904  0.020570465            6 
 1338000   0.70521031   -7.2906529    336.27527  0.020943901  0.020555873           17 
 1339000   0.71577683   -7.3018367     335.8244  0.020900199  0.020541232            4 
 1340000   0.71121873   -7.2817558    335.79357  0.020882685  0.020526601            9 
 1341000   0.71104578   -7.2981356    336.16022  0.020889897  0.020511933            8 
 1342000   0.71599661   -7.3040315    335.87954  0.020856902  0.020497257            7 
 1343000   0.70485384   -7.3010667    336.30292  0.020867642  0.020482608           12 
 1344000    0.7188947   -7.3101211    336.02613  0.020834953  0.020467935           11 
 1345000   0.71849946   -7.2988598    337.53892  0.020913192  0.020453352           13 
 1346000   0.72232413   -7.2933331    336.46145  0.020830947  0.020438774            6 
 1347000   0.70540375    -7.262464    336.26797  0.020803512  0.020424185           34 
 1348000   0.72343804    -7.296331    336.25267  0.020787133  0.020409585            6 
 1349000   0.70896409   -7.2815233    336.06452  0.020760101  0.020395009            8 
 1350000    0.7074874   -7.3051265    335.31965  0.020698744  0.020380369           11 
 1351000   0.70887182   -7.2832259    336.93643   0.02078315  0.020365758           13 
 1352000   0.71305884   -7.3222901    337.33466  0.020792324  0.020351186           18 
 1353000   0.72658441   -7.3268274    336.90355  0.020750404  0.020336637           20 
 1354000   0.72376198   -7.2950594    337.19717  0.020753149  0.020322079           14 
 1355000   0.70804247   -7.3138251    337.04564  0.020728514  0.020307517           30 
 1356000   0.70251858   -7.2969902    336.90524    0.0207046  0.020292905           60 
 1357000   0.70496498    -7.291603    337.75016  0.020741228  0.020278321           29 
 1358000   0.72644323   -7.2866938    336.45163  0.020646271  0.020263765           22 
 1359000   0.72564827   -7.3323773    336.19404  0.020615283  0.020249128           16 
 1360000   0.71305055   -7.3071879    336.59536  0.020624716  0.020234479           15 
 1361000   0.71101924   -7.3173201    336.23776  0.020587666  0.020219817           14 
 1362000   0.71227052     -7.32165    336.74262   0.02060344   0.02020514           22 
 1363000   0.69969615    -7.321347    336.89082  0.020597384  0.020190482           10 
 1364000   0.72072425   -7.3177197    336.07357  0.020532354  0.020175787           16 
 1365000   0.70507742   -7.3091013    336.76753  0.020559678  0.020161123           11 
 1366000   0.69949422   -7.3087001    336.13105  0.020505798  0.020146532            8 
 1367000   0.71407305   -7.3155434    336.43346  0.020509233  0.020131956            8 
 1368000    0.7050108   -7.3251897    336.77763  0.020515206  0.020117382           11 
 1369000   0.71021428   -7.2801842    337.19344  0.020525532  0.020102812           18 
 1370000   0.69410436   -7.3035995    336.92149  0.020494008  0.020088225           15 
 1371000   0.69784923   -7.3129734    336.44872  0.020450323  0.020073584            9 
 1372000   0.70588467   -7.3063975    336.34954  0.020429394  0.020058952           10 
 1373000   0.69790647   -7.3251831    336.90178  0.020448032  0.020044349           12 
 1374000   0.69852197   -7.3248134    337.18286  0.020450197  0.020029751            7 
 1375000   0.68333162   -7.3053818    336.84014  0.020414554  0.020015127            6 
 1376000   0.70646895   -7.3439659    335.79275  0.020336286  0.020000469           13 
 1377000   0.70926663   -7.3226555    336.83359  0.020384507  0.019985778           10 
 1378000   0.70387593    -7.319134    336.75495  0.020364959  0.019971146           12 
 1379000   0.69795533    -7.345757    336.63638  0.020343025  0.019956519           19 
 1380000   0.71233127   -7.3279709    337.58202  0.020385388  0.019941895            8 
 1381000   0.69776298   -7.3317266    337.13009  0.020343356   0.01992726           12 
 1382000   0.71805527   -7.3403028    336.91002  0.020315365  0.019912644           13 
 1383000   0.69672618   -7.3166392    337.34248  0.020326734  0.019898067           19 
 1384000   0.71551871   -7.3426257    336.75398  0.020276613  0.019883536           13 
 1385000   0.69900077   -7.3158045    337.46303  0.020304635   0.01986904           10 
 1386000   0.68977513   -7.2938016    337.03075  0.020263994  0.019854552            8 
 1387000   0.70991979   -7.3327695    337.32147  0.020266851  0.019840067           13 
 1388000   0.72391329    -7.329732    337.31351  0.020251772  0.019825593           12 
 1389000   0.69507203   -7.3548357    336.64383  0.020197014    0.0198111            7 
 1390000   0.70266346   -7.3318754    337.64739  0.020242649  0.019796632            8 
 1391000   0.69204966   -7.3441509    336.93806  0.020185602  0.019782184           15 
 1392000   0.71322739   -7.3295818    338.00451  0.020234944  0.019767724           10 
 1393000   0.70111905   -7.3398189    338.20572  0.020232455   0.01975337           10 
 1394000   0.69568077   -7.3537873    338.34033  0.020225988  0.019739046            6 
 1395000   0.69022657   -7.3291339     338.2103  0.020203722  0.019724736            9 
 1396000   0.70772088   -7.3564943    337.34393  0.020137531   0.01971037           15 
 1397000   0.68844838   -7.3739822    337.16462  0.020112421  0.019695973           17 
 1398000   0.70583178   -7.3620173    337.73703  0.020132155  0.019681583           18 
 1399000   0.71042772    -7.335543     337.5934  0.020109209  0.019667242           23 
 1400000   0.68589857    -7.361554     337.0885  0.020064792  0.019652885           22 
 1401000   0.70367409   -7.3465816    338.13878  0.020112942  0.019638564            9 
 1402000    0.6786971   -7.3464582    338.29859  0.020108095  0.019624215           12 
 1403000   0.68843898   -7.3698939     338.3175  0.020094886  0.019609837           17 
 1404000   0.68672475   -7.3708478    337.87128  0.020054088  0.019595477            4 
 1405000   0.70632308   -7.3713385    337.85158  0.020038647  0.019581119           11 
 1406000   0.67917311   -7.3429468    338.19941   0.02004501  0.019566758           18 
 1407000   0.69602979   -7.3720228    337.27556  0.019976046  0.019552354           12 
 1408000   0.67591771    -7.334948    337.90563   0.01999915  0.019538008           18 
 1409000   0.70035574   -7.3830706    337.20789  0.019943689  0.019523644           37 
 1410000   0.67119269   -7.3755859    337.50015  0.019946818  0.019509259           40 
 1411000   0.68710701    -7.365059    338.28753  0.019979183   0.01949491           34 
 1412000   0.69043732   -7.3479099    338.51062    0.0199782  0.019480601            9 
 1413000   0.69536926   -7.3621878    338.08072  0.019938707  0.019466374           15 
 1414000   0.68883479   -7.3368417    337.47335  0.019888811  0.019452211           16 
 1415000   0.68104285   -7.3576323    338.80623  0.019953253  0.019437951           11 
 1416000   0.69019098   -7.3291047    337.76812  0.019878067  0.019423784           13 
 1417000   0.68436347   -7.3275207    337.60979  0.019854727  0.019409616           22 
 1418000    0.6848484   -7.3401883    337.90737  0.019858214  0.019395418           10 
 1419000   0.69269182   -7.3712371    337.49455  0.019819976  0.019381202           26 
 1420000   0.68966675   -7.3633526     338.0157  0.019836602  0.019366959           18 
 1421000   0.66885075   -7.3822421    337.52141  0.019793655  0.019352742           15 
 1422000   0.68775745   -7.3570348    338.55303  0.019840192  0.019338507           16 
 1423000   0.69629749   -7.3758912     337.8587  0.019785588  0.019324228           17 
 1424000      0.68508   -7.3650572    337.79563  0.019768003  0.019309945           28 
 1425000   0.68644539   -7.3595444    337.43633  0.019733119   0.01929564           29 
 1426000   0.68673907   -7.3938505    338.04129  0.019754634  0.019281312           14 
 1427000   0.67746744   -7.3825653    337.64162   0.01971745  0.019267051            6 
 1428000   0.67090254   -7.3637987    338.57157  0.019757912  0.019252757            5 
 1429000   0.69778194   -7.3604701    337.61611  0.019688366  0.019238472            9 
 1430000   0.67840554   -7.3700248    338.09869  0.019702721  0.019224203           10 
 1431000    0.6622372   -7.3723813    338.26596  0.019698693  0.019209933            9 
 1432000   0.68878093   -7.3743293     337.4686  0.019638536  0.019195671           15 
 1433000   0.67340473   -7.3836778     337.2941  0.019614684  0.019181395            6 
 1434000   0.69100907   -7.3896709    338.17127   0.01965198  0.019167119            9 
 1435000   0.66653661   -7.3983434    337.88139  0.019621451  0.019152826           17 
 1436000   0.67496212   -7.3843241    338.02403  0.019616065  0.019138578           10 
 1437000   0.67729448   -7.3816922    337.01772  0.019544057  0.019124279           16 
 1438000   0.67567498   -7.3784834    338.29916  0.019604727  0.019110033           13 
 1439000   0.68234838   -7.3739461    337.89236  0.019567544  0.019095811           14 
 1440000   0.67807789     -7.39983    338.31069  0.019578165  0.019081596           16 
 1441000    0.6816489   -7.4057888    337.29174  0.019505652  0.019067374           13 
 1442000   0.68237812   -7.3745225    337.96333  0.019530937  0.019053181            8 
 1443000   0.67627925     -7.38495    337.92684  0.019515294  0.019038948            9 
 1444000   0.67151878   -7.3811773    337.98674  0.019505237  0.019024736            8 
 1445000   0.68304752   -7.3609904     337.8603  0.019484446  0.019010548            7 
 1446000   0.66400439   -7.3773349    338.09039  0.019484232  0.018996382           10 
 1447000   0.66978895   -7.3845662    338.89941  0.019517358  0.018982219           15 
 1448000   0.66612042   -7.3717242    337.81501  0.019441472   0.01896803           11 
 1449000   0.68070299   -7.3822896    338.11185  0.019445126  0.018953927           19 
 1450000   0.69021091   -7.3979523     338.4551  0.019451442  0.018939791            8 
 1451000   0.66812042   -7.3701311    338.26545  0.019427145  0.018925702           14 
 1452000   0.68545921   -7.3933674    338.30677  0.019416137  0.018911569           15 
 1453000   0.67545072   -7.3977627    338.33108  0.019404169  0.018897486           29 
 1454000   0.67489664   -7.3891586    337.91344  0.019366887  0.018883427           17 
 1455000   0.67423132   -7.3790007      338.225   0.01937142  0.018869361           21 
 1456000   0.66571653   -7.3764771    338.58603  0.019378779  0.018855335           24 
 1457000   0.66782732   -7.3816541    339.02915  0.019390823  0.018841306           15 
 1458000   0.66583759   -7.4137511    338.19687  0.019329954  0.018827278           12 
 1459000   0.67420129   -7.3886294    338.47486  0.019332583  0.018813247           14 
 1460000   0.67794361   -7.4264184    338.34792  0.019312096  0.018799212           19 
 1461000   0.65353214   -7.4074587     338.3763  0.019300496  0.018785213           18 
 1462000   0.65846122   -7.4116529     339.1629  0.019332131  0.018771202           22 
 1463000   0.67693326   -7.3944586    338.15204  0.019261338  0.018757238           26 
 1464000   0.66824952   -7.3997829    338.83664  0.019287149  0.018743272           16 
 1465000   0.67833468   -7.4057152    338.62581  0.019261991  0.018729316           10 
 1466000   0.66107724   -7.3846934    338.75752  0.019256339  0.018715368           22 
 1467000   0.68091547   -7.3825198    338.02126  0.019201389  0.018701424           15 
 1468000   0.67476453   -7.3929369    338.09334  0.019192401  0.018687493           13 
 1469000   0.66326045   -7.4112418    339.02449  0.019232158  0.018673541           10 
 1470000    0.6746263   -7.4325527    338.76148  0.019204166  0.018659626           11 
 1471000   0.67052782    -7.393423    338.57062  0.019180298  0.018645739           11 
 1472000    0.6694093   -7.4166924    338.42547   0.01915905  0.018631808           17 
 1473000   0.65837631   -7.4037024    338.94522  0.019175448  0.018617874           13 
 1474000   0.66403433   -7.4021164    338.66198  0.019146426  0.018603961           14 
 1475000     0.667266   -7.4303545    339.09183  0.019157731  0.018590045           17 
 1476000   0.64839052   -7.3861264    339.57084  0.019171795  0.018576108           19 
 1477000    0.6574057   -7.4217597     337.9357   0.01906656  0.018562193            8 
 1478000   0.66755663   -7.3910886     338.4962  0.019085262  0.018548319           14 
 1479000    0.6697155   -7.4233325    338.26249  0.019059189  0.018534417           15 
 1480000   0.66251789   -7.4068015     338.0725  0.019035614   0.01852054           19 
 1481000   0.66188046   -7.4408056     338.9554   0.01907244  0.018506662           29 
 1482000   0.65015343   -7.4423425      338.533  0.019035819  0.018492823           17 
 1483000   0.66401287    -7.444579    338.44315  0.019017934  0.018478959           40 
 1484000   0.66093662   -7.4379073    338.21436  0.018992271  0.018465062           11 
 1485000     0.665364   -7.4508346    338.67973  0.019005597  0.018451183           20 
 1486000   0.65389638   -7.4276456    339.11901  0.019017441  0.018437306           11 
 1487000   0.64548975   -7.4316842    339.15923  0.019006906   0.01842344           24 
 1488000   0.65947623   -7.4357049    338.65342  0.018965805  0.018409567           18 
 1489000   0.66170339   -7.4464578    338.21079  0.018928296  0.018395727           20 
 1490000    0.6545123   -7.4565056    338.58912  0.018936752  0.018381881           29 
 1491000   0.64903431   -7.4309951    338.46874  0.018917323  0.018368078           14 
 1492000    0.6481432   -7.4256364    338.97835  0.018933107  0.018354267           17 
 1493000   0.64816901   -7.4352065    338.39057  0.018887619  0.018340472           30 
 1494000    0.6638035   -7.4112114    338.30522  0.018870215  0.018326701           17 
 1495000   0.66528204   -7.4427662    338.47298  0.018866944  0.018312925           17 
 1496000   0.65426902   -7.4084184    339.16582  0.018892926  0.018299137           21 
 1497000   0.67745505   -7.4479727    337.94637  0.018812423   0.01828536           15 
 1498000   0.66832575   -7.4393228       338.48   0.01882955  0.018271575           18 
 1499000   0.64453463   -7.4230329     337.9115  0.018785385  0.018257844           22 
 1500000   0.64965307   -7.4336891    338.40761  0.018800423   0.01824411           22 
 1501000   0.64017409   -7.4352141    338.92722  0.018816745  0.018230416           20 
 1502000   0.65137411   -7.4546278    339.21482  0.018820174  0.018216729           26 
 1503000   0.64962462   -7.4375632    339.07246   0.01879976  0.018203061           12 
 1504000   0.64818423   -7.4219289    339.21741  0.018795291   0.01818943           11 
 1505000   0.63545915   -7.4258795    339.04994  0.018773529  0.018175827           10 
 1506000   0.66359218   -7.4481036    339.31157   0.01877554  0.018162224            8 
 1507000   0.64454758   -7.4233537    339.25453  0.018759928  0.018148599           16 
 1508000   0.65568166   -7.4311158    339.28787   0.01874933  0.018134997           17 
 1509000    0.6441153   -7.4312133    339.73694  0.018761704  0.018121411           20 
 1510000   0.66940483   -7.4368786    339.65921  0.018744989  0.018107855           12 
 1511000   0.65079076   -7.4373878     339.7098  0.018735374  0.018094309            8 
 1512000   0.67318481   -7.4230251    338.67428  0.018665911  0.018080783            9 
 1513000   0.65610226    -7.458988    339.93372  0.018722941  0.018067225           15 
 1514000   0.65024109   -7.4497908    338.95546   0.01865673  0.018053661           16 
 1515000   0.65203391   -7.4178082    338.62715  0.018626356  0.018040123           13 
 1516000    0.6656073   -7.4179736    339.45643  0.018659654  0.018026609           21 
 1517000   0.64498201   -7.4144934    338.92412  0.018618113  0.018013051           21 
 1518000   0.66604464   -7.4567923    339.04455  0.018612459  0.017999486           18 
 1519000   0.66044047   -7.4416757    338.36882  0.018563135  0.017985923           26 
 1520000   0.63643004   -7.4440721     338.6266  0.018565055  0.017972344           12 
 1521000   0.64672442   -7.4406034    338.98397  0.018572429  0.017958744           16 
 1522000   0.66461993   -7.4339932    339.19091  0.018571556  0.017945155           14 
 1523000    0.6580899   -7.4559371    338.77788  0.018536763  0.017931564           16 
 1524000   0.65344028   -7.4181954     338.5072  0.018509799  0.017918015           15 
 1525000   0.63222624   -7.4452019    338.96306  0.018522572  0.017904461           27 
 1526000   0.64889153   -7.4593241    338.91994  0.018508079  0.017890917           17 
 1527000   0.63823668   -7.4629452     338.1284  0.018452761  0.017877413           16 
 1528000   0.65532974   -7.4270966    338.66774  0.018470099   0.01786392           15 
 1529000   0.64967857   -7.4418311    338.92899  0.018472258  0.017850442           14 
 1530000   0.63839035   -7.4320881    339.07413   0.01846809  0.017836947           20 
 1531000   0.62229494   -7.4449269    339.29948  0.018468293  0.017823486           14 
 1532000   0.63144306   -7.4715055     339.0159  0.018440812  0.017810002           13 
 1533000   0.62378061   -7.4845954    339.38496  0.018448845  0.017796517           13 
 1534000   0.63271017   -7.4559885    338.74435  0.018402018  0.017783071            8 
 1535000   0.63282895   -7.4794449    338.89518  0.018398218  0.017769624           14 
 1536000   0.63528782   -7.4496486    339.55727  0.018422161  0.017756182           14 
 1537000   0.63413848   -7.4617109    339.32998  0.018397852  0.017742753           14 
 1538000   0.63798485   -7.4563862    339.04169  0.018370269  0.017729373           18 
 1539000   0.62638746   -7.4517209    339.54384  0.018385523  0.017715986           17 
 1540000   0.63596864   -7.4588589    339.44743  0.018368367  0.017702605           15 
 1541000   0.62788908   -7.4785329    338.42259  0.018301027  0.017689214           30 
 1542000   0.64616274   -7.4590308    339.33151  0.018338279  0.017675821           13 
 1543000   0.64038944   -7.4756984    338.96156  0.018306414  0.017662442           18 
 1544000   0.65064468   -7.4729373    338.67839  0.018279274  0.017649048           17 
 1545000   0.64437331   -7.4596494    339.47526  0.018310424   0.01763569           16 
 1546000   0.62956075   -7.4613829     339.3498  0.018291818  0.017622357           21 
 1547000   0.65075259   -7.4738203      339.194  0.018271601  0.017608996           15 
 1548000   0.63236929   -7.4811248     339.3124  0.018266172  0.017595658           16 
 1549000   0.63788985   -7.4717791    338.96173  0.018235514  0.017582308           16 
 1550000   0.63937737   -7.4757562    339.68183  0.018262464  0.017568976            7 
 1551000   0.64053191   -7.4573391    338.79605  0.018203098  0.017555654           14 
 1552000   0.63762462   -7.4738988    338.92667  0.018198382  0.017542322           11 
 1553000   0.63464023   -7.4795649    339.15839  0.018199098     0.017529            9 
 1554000   0.63696434   -7.4808775    338.97077  0.018177326  0.017515699           14 
 1555000   0.64631054   -7.4622149    339.19537  0.018177672  0.017502431            6 
 1556000   0.63491845   -7.4603026    339.84203  0.018200623  0.017489173           11 
 1557000   0.64078605   -7.4792196    339.04751  0.018146409  0.017475923            7 
 1558000   0.63054787   -7.4723496    338.70215   0.01811629  0.017462662           11 
 1559000   0.62931368   -7.4862012    339.10497  0.018126201  0.017449443           12 
 1560000   0.63928349   -7.4606864    339.07502  0.018112982  0.017436232           12 
 1561000   0.63851126   -7.5065582    339.26273  0.018111399  0.017422996           13 
 1562000   0.62452644   -7.4812805     338.8601  0.018078324   0.01740974            9 
 1563000   0.62067179   -7.5036268    338.58377  0.018052024   0.01739654           15 
 1564000    0.6262297   -7.4769595    339.26978  0.018077034  0.017383294           12 
 1565000   0.63220265    -7.481114    338.82018  0.018041543  0.017370095           14 
 1566000   0.62186132   -7.4898013    338.95619   0.01803726  0.017356881            9 
 1567000   0.62369341    -7.486113    338.86786  0.018021052  0.017343675           15 
 1568000   0.62585977   -7.4771149    338.98055  0.018015548  0.017330482            8 
 1569000   0.62326324   -7.4868125    339.15833  0.018013508  0.017317303           14 
 1570000   0.62123431   -7.4939669    339.32593   0.01801093  0.017304119           16 
 1571000   0.62116542   -7.4747734    338.59311  0.017960594  0.017290924           17 
 1572000   0.61999778   -7.4985242    338.46957  0.017942619  0.017277761           14 
 1573000   0.62872951    -7.478795     338.9976  0.017959186  0.017264593           17 
 1574000   0.61849491   -7.4799181    338.54698  0.017923919  0.017251449           28 
 1575000   0.62657208   -7.4846068    338.35762  0.017902519  0.017238277           33 
 1576000   0.62075335   -7.4678621    338.38899  0.017892819  0.017225123           24 
 1577000    0.6227428   -7.4880201    339.13464  0.017920875  0.017211965           12 
 1578000    0.6183188   -7.4975071    338.88733  0.017896458  0.017198802           17 
 1579000   0.63127344   -7.4944881    338.59894  0.017869904  0.017185644           21 
 1580000   0.62391034   -7.5091111     338.1104  0.017832827  0.017172508           27 
 1581000   0.62312206   -7.5011325    338.66073  0.017850555  0.017159371           41 
 1582000   0.62333575   -7.5058873    339.07929   0.01786132  0.017146256           19 
 1583000   0.62076376   -7.4978508    338.85259  0.017838102  0.017133134           30 
 1584000   0.60858444   -7.5220887    338.91074    0.0178299  0.017120007           38 
 1585000   0.62738083   -7.5048188    338.64609  0.017804737  0.017106858           30 
 1586000   0.62532287   -7.5075109    338.52251  0.017787017  0.017093734           29 
 1587000   0.61653133   -7.4836898    339.34764  0.017819137  0.017080608           25 
 1588000   0.61443762   -7.5137884    338.69591  0.017773715   0.01706749           38 
 1589000   0.61669502   -7.5093233    337.92255  0.017721971  0.017054365           38 
 1590000    0.6149013   -7.5346003    338.07989  0.017719072  0.017041276           33 
 1591000   0.61280195   -7.5081409    338.73256   0.01774212    0.0170282           30 
 1592000   0.62151039    -7.497825    338.86694   0.01773801  0.017015158           33 
 1593000   0.59829169   -7.5196163    339.49313  0.017759632   0.01700213           25 
 1594000   0.61239617   -7.5079852    339.29938  0.017738361   0.01698911           28 
 1595000   0.61555458   -7.4960621    339.10383  0.017717024  0.016976096           59 
 1596000   0.61296599   -7.4981366    338.90301  0.017695437  0.016963069           25 
 1597000   0.60823021   -7.4967393    338.61901  0.017669537  0.016950052           39 
 1598000   0.60573068   -7.5203873    338.41598  0.017647892  0.016937062           37 
 1599000   0.60525596    -7.517534    338.46666  0.017639497  0.016924097           41 
 1600000   0.60303081    -7.507163    339.44019  0.017679176  0.016911112           27 
 1601000   0.61791154   -7.5149536    339.14589  0.017652815  0.016898197           66 
 1602000    0.6099923   -7.5104807    339.68878  0.017670036  0.016885252           43 
 1603000   0.61816761   -7.5242924    338.24346  0.017583877  0.016872306           36 
 1604000   0.60815961   -7.5313093    338.67617  0.017595395  0.016859371           92 
 1605000   0.61708396   -7.5144045    338.63467  0.017582278  0.016846465           62 
 1606000   0.62093251   -7.5369118    339.15993  0.017598585  0.016833596           75 
 1607000   0.61864826    -7.510433    339.01687  0.017580215   0.01682072           72 
 1608000   0.61167711   -7.5278369    339.38439  0.017588329  0.016807851           60 
 1609000   0.61169901    -7.550659    338.62942  0.017538296  0.016794974           74 
 1610000    0.6174831   -7.5099584    339.20068  0.017556971  0.016782116           29 
 1611000   0.60787168   -7.5204163    338.84472   0.01752766  0.016769244           89 
 1612000   0.60550402   -7.5404748    338.78746  0.017513827  0.016756401          157 
 1613000   0.61262229   -7.5226938    339.53392  0.017541533  0.016743605           43 
 1614000   0.60442272    -7.554778    338.62207  0.017483585  0.016730783           38 
 1615000   0.60473958   -7.5295452    339.00265  0.017492397  0.016717995           33 
 1616000   0.61430558   -7.5409024    338.25324  0.017442927  0.016705225           42 
 1617000   0.60474239   -7.5348965    339.13533  0.017477599  0.016692465           30 
 1618000   0.61027485   -7.5316122    339.15379  0.017467748  0.016679701           29 
 1619000   0.60492032   -7.5200533    338.34828  0.017415497  0.016666948           23 
 1620000   0.60996328   -7.5431267    339.41011  0.017459368  0.016654216           46 
 1621000   0.61370256   -7.5529431    339.26857  0.017441321  0.016641474           30 
 1622000   0.58718518   -7.5327498    338.92028  0.017412674  0.016628737           52 
 1623000   0.60353249   -7.5325433    338.89052  0.017400417  0.016616034           30 
 1624000   0.61126375   -7.5333452    338.94314  0.017392402  0.016603351           85 
 1625000   0.58427123   -7.5556358    338.83373  0.017376089  0.016590681           74 
 1626000   0.59921442   -7.5324377    339.56999  0.017403136     0.016578           77 
 1627000   0.60325772   -7.5548471    338.59962  0.017342738   0.01656533           80 
 1628000   0.60686108   -7.5381747    338.83206  0.017343983  0.016552665           82 
 1629000     0.601179    -7.553685    339.29548  0.017357043  0.016540057           63 
 1630000   0.60827221   -7.5531783    339.07505  0.017335125  0.016527422           77 
 1631000    0.6064933   -7.5248245    338.74311  0.017307537  0.016514809           55 
 1632000    0.6056631   -7.5491993    339.64931  0.017343204  0.016502205           78 
 1633000   0.61493659   -7.5677904    339.59528  0.017329827  0.016489625           87 
 1634000   0.58693152   -7.5454849    339.50408  0.017314569   0.01647709           80 
 1635000    0.6014857   -7.5602968    339.54884  0.017306261  0.016464554           68 
 1636000   0.60085388   -7.5480107    339.21174  0.017278511   0.01645199           94 
 1637000    0.5899438   -7.5707612    339.55177  0.017285266  0.016439469          143 
 1638000   0.60561936   -7.5543037    339.24773  0.017259246  0.016426935           88 
 1639000   0.59039615   -7.5315631     339.0752  0.017239943  0.016414383          107 
 1640000   0.61055511   -7.5526871    339.01024   0.01722613  0.016401851          103 
 1641000   0.59406812   -7.5588725    339.28392  0.017229531  0.016389317          109 
 1642000   0.59426304   -7.5661075    339.28379  0.017219031  0.016376804           84 
 1643000   0.59596331   -7.5468007    339.47655  0.017218328  0.016364291          110 
 1644000   0.60371921   -7.5640157    339.57096   0.01721264  0.016351807           92 
 1645000   0.58836336   -7.5429484     339.2874  0.017187812  0.016339303           94 
 1646000    0.5895684   -7.5644215    338.83254  0.017154341  0.016326826           64 
 1647000   0.59083851   -7.5561438    339.26118  0.017165613   0.01631436           74 
 1648000   0.60198972   -7.5593866    338.82559  0.017133171    0.0163019           49 
 1649000   0.59725005    -7.567429     339.1602  0.017139691  0.016289454           70 
 1650000   0.59257943   -7.5455443     338.8139  0.017111813  0.016277016           43 
 1651000   0.58634367   -7.5742332    339.89086  0.017155807  0.016264571           62 
 1652000   0.60362795   -7.5635624    339.47496  0.017124443  0.016252163           69 
 1653000   0.60165074   -7.5703153    338.97777  0.017089019  0.016239757           71 
 1654000   0.60213437   -7.5964918    339.58893  0.017109479  0.016227365           75 
 1655000   0.58755443    -7.589919    339.45633  0.017092464  0.016214982           48 
 1656000   0.59055572   -7.5648298    339.16773  0.017067619  0.016202633           48 
 1657000   0.58092834   -7.5698509    339.37067  0.017067525  0.016190257           62 
 1658000   0.59849056   -7.5576033    338.63291   0.01702015  0.016177901           43 
 1659000   0.59334279   -7.5731687    339.16934  0.017036836  0.016165559           25 
 1660000   0.58802719   -7.5671757    339.16945  0.017026579  0.016153239           43 
 1661000   0.59182525     -7.57265    339.98525  0.017057257  0.016140896           59 
 1662000   0.59456673    -7.584499    339.14074   0.01700465  0.016128554           80 
 1663000   0.58623937   -7.5967201    339.61359   0.01701812  0.016116215           45 
 1664000   0.58285677   -7.5982826    338.37288  0.016945757  0.016103875           43 
 1665000   0.59701863   -7.5799977    339.07066  0.016970503  0.016091554           32 
 1666000   0.57788607   -7.5665075    339.06262  0.016959915  0.016079271           22 
 1667000     0.577242   -7.5835787    339.51695  0.016972453  0.016066972           35 
 1668000   0.59464951   -7.5884827    339.32046  0.016952461  0.016054663           34 
 1669000   0.58109426   -7.5912136     338.7984  0.016916237  0.016042361           64 
 1670000   0.57828143   -7.5995389     338.6872  0.016900559  0.016030059           60 
 1671000   0.58622119   -7.5760909    338.83521  0.016897826  0.016017763           42 
 1672000   0.58856496   -7.5809393    338.61479  0.016876734  0.016005505           68 
 1673000   0.59383011   -7.5970354    338.54883  0.016863361  0.015993225           38 
 1674000   0.58084417   -7.5965398     338.4313  0.016847436  0.015980959           73 
 1675000   0.58967045   -7.5956247    338.83966  0.016857695  0.015968713           33 
 1676000   0.57250825   -7.5936981     338.8616  0.016848727  0.015956471           40 
 1677000   0.58329505   -7.5987262    339.15641   0.01685333  0.015944225           36 
 1678000   0.58507607   -7.5808889    339.23499  0.016847189  0.015931994           38 
 1679000   0.58138813   -7.5986967    338.79208  0.016815172  0.015919779           25 
 1680000   0.59418119   -7.5889225    338.60878   0.01679607  0.015907562           45 
 1681000    0.5730012   -7.5819882    338.93187  0.016802095  0.015895364           33 
 1682000   0.57585264   -7.5885129     339.6058  0.016825495  0.015883175           57 
 1683000   0.57317599   -7.5966389    339.13313  0.016792094  0.015870983           85 
 1684000   0.58882737   -7.5819905    338.47988  0.016749796  0.015858813           35 
 1685000   0.59016025   -7.6136477    338.31344  0.016731624  0.015846632           65 
 1686000   0.57255536   -7.5835932    339.00343  0.016755804  0.015834488           29 
 1687000   0.58572013   -7.5872861    338.93253   0.01674237  0.015822331           56 
 1688000    0.5782832   -7.5908913     338.2747  0.016699975  0.015810176           39 
 1689000   0.57115759   -7.6077494    339.22967  0.016737205  0.015798031           72 
 1690000   0.58628529   -7.6055109    338.31537  0.016682218  0.015785883           64 
 1691000   0.57613864   -7.6080333    338.91884  0.016702092  0.015773742           43 
 1692000   0.58515924   -7.5994402    338.60968  0.016676994  0.015761626           30 
 1693000    0.5816275   -7.6200402    338.88945  0.016680914  0.015749512           52 
 1694000   0.57715346   -7.5989194    338.80044  0.016666688  0.015737392           29 
 1695000   0.56544049   -7.6046749    338.72251  0.016653024  0.015725287           41 
 1696000   0.56769119    -7.616058    338.96324  0.016655033  0.015713214           58 
 1697000   0.56581955   -7.5952109    337.97097  0.016596492  0.015701116           48 
 1698000   0.57524977   -7.5835634    338.75698  0.016625294  0.015689059           48 
 1699000    0.5703793   -7.6199957     338.9228  0.016623641  0.015677011           51 
 1700000   0.58029081   -7.5962415    338.88775  0.016612145  0.015664957           40 
 1701000   0.57114256   -7.5807887    338.96358  0.016606094  0.015652923           76 
 1702000   0.58800283   -7.6038765    338.28355  0.016563041  0.015640905           96 
 1703000   0.57281109   -7.6167706    338.80521  0.016578842  0.015628898           83 
 1704000   0.57527368   -7.6217789    338.73956  0.016565902  0.015616894           56 
 1705000   0.57390954   -7.6016857    338.55126  0.016546983  0.015604888          111 
 1706000   0.57702566   -7.5956293    338.61942  0.016540613  0.015592891           60 
 1707000   0.56264766   -7.6109749    338.66745  0.016533267  0.015580906          161 
 1708000   0.56315304   -7.6187181    338.68963   0.01652467  0.015568903          167 
 1709000   0.56483765   -7.6274055     338.8038  0.016520568   0.01555691           96 
 1710000   0.58574732   -7.6037894    339.10512  0.016525591  0.015544927          109 
 1711000   0.56096866   -7.6356646    338.39645  0.016481417  0.015532953          110 
 1712000   0.58417607   -7.6194271     339.0604  0.016504108  0.015520997          207 
 1713000     0.563028   -7.6423798    338.67867  0.016475903  0.015509044           69 
 1714000   0.56246521   -7.6260116    338.75779  0.016470138  0.015497098           60 
 1715000   0.57045281   -7.6043003    339.17908  0.016481005  0.015485161           77 
 1716000   0.55825891   -7.6015938    338.34852  0.016431066  0.015473241           65 
 1717000   0.57053754   -7.6271129    338.58988  0.016433211  0.015461333           88 
 1718000   0.55753343   -7.6253364    339.04941  0.016445936   0.01544945          123 
 1719000   0.57180168   -7.6171041    338.67012  0.016417981  0.015437564          129 
 1720000   0.56142059   -7.6305203    338.99178   0.01642402  0.015425678          103 
 1721000   0.56002948   -7.6416358    338.53038  0.016392135  0.015413827           68 
 1722000   0.57332241   -7.6388575    338.24864  0.016368982  0.015401971           80 
 1723000   0.56270533   -7.6269184    338.81802   0.01638702  0.015390109           72 
 1724000   0.56638473   -7.6223376    339.13232  0.016392707  0.015378263           57 
 1725000   0.56957049   -7.6232616    338.66283  0.016360523  0.015366456           68 
 1726000    0.5588959   -7.6107789    337.73134  0.016306071  0.015354624           87 
 1727000   0.55783054   -7.6211362    338.72786  0.016344714  0.015342812          153 
 1728000    0.5607008   -7.6396271    338.64422  0.016331222  0.015331013          164 
 1729000   0.57016591   -7.6321505    338.36901  0.016308512   0.01531919           93 
 1730000   0.56335915    -7.642285    338.27831  0.016294716  0.015307407           64 
 1731000   0.56616876   -7.6626203    338.78803  0.016309842  0.015295631           75 
 1732000   0.56136212   -7.6335007    338.34821  0.016279263  0.015283883           79 
 1733000   0.56969599   -7.6544695    338.98372  0.016300429  0.015272143          129 
 1734000   0.56532444   -7.6373721    338.27957  0.016257188  0.015260403          145 
 1735000   0.56376455   -7.6130679    338.25102  0.016246447  0.015248666           60 
 1736000   0.56834283   -7.6673519    338.52573  0.016250275   0.01523693           62 
 1737000   0.55736479   -7.6283525    338.60438  0.016244693  0.015225192          177 
 1738000   0.55096568   -7.6349059    338.27227  0.016219422  0.015213476          181 
 1739000   0.56485747   -7.6258388    338.41026  0.016216708  0.015201762           72 
 1740000   0.56239501   -7.6471106    338.04303    0.0161898  0.015190047          137 
 1741000   0.56355535   -7.6343293    337.98702   0.01617782   0.01517834          178 
 1742000   0.56165078   -7.6326971    338.21104   0.01617925  0.015166652          196 
 1743000   0.55045891   -7.6491459    338.29545  0.016174003  0.015154955          138 
 1744000   0.55013361   -7.6256544    338.13284  0.016156959  0.015143286          208 
 1745000   0.55708075   -7.6497695    338.18875   0.01615037  0.015131629          206 
 1746000   0.55879618   -7.6721343    337.99764  0.016131999  0.015119966          207 
 1747000   0.56479907   -7.6504052    338.62565  0.016152721  0.015108314           89 
 1748000    0.5657424   -7.6472749    338.50084  0.016137531  0.015096671           87 
 1749000   0.56462182   -7.6436419    338.09167  0.016108808   0.01508503          104 
 1750000   0.54573811   -7.6480819    338.04999  0.016097619  0.015073413          223 
 1751000   0.55571972   -7.6781879    338.61073  0.016115112  0.015061792          167 
 1752000   0.55350126   -7.6643074    338.14952  0.016083977  0.015050172          187 
 1753000   0.54751375   -7.6725861    338.24686  0.016079429  0.015038544          153 
 1754000   0.54906426   -7.6532268    338.47477  0.016081089  0.015026941          103 
 1755000    0.5674001    -7.664679    338.49363  0.016072822  0.015015348          137 
 1756000   0.54622638   -7.6481774    338.78502  0.016077497  0.015003781          203 
 1757000   0.56227803   -7.6488364    338.42906  0.016051464  0.014992234          155 
 1758000   0.57513229   -7.6581879     338.4609  0.016043843  0.014980682          175 
 1759000    0.5444767   -7.6553171    337.91346  0.016008786  0.014969117           70 
 1760000   0.55758953    -7.650819    338.35773  0.016020726  0.014957566          115 
 1761000   0.55495623    -7.661214    337.98875  0.015994167  0.014946018           65 
 1762000   0.53173799   -7.6584397    337.55039  0.015964358   0.01493448           72 
 1763000   0.54875407   -7.6577866    337.94709  0.015974054  0.014922943          133 
 1764000   0.55517038   -7.6746688    338.31798   0.01598252  0.014911418          103 
 1765000   0.54617826   -7.6522391    338.21204  0.015968463  0.014899917          134 
 1766000   0.55143419   -7.6438996    338.26548  0.015961942  0.014888417           64 
 1767000   0.55228783   -7.6671085    337.73145  0.015927724   0.01487693           75 
 1768000   0.54351039   -7.6709953    338.37954  0.015949262  0.014865445          135 
 1769000   0.53716836   -7.6607167    337.49745  0.015898693  0.014853986          233 
 1770000   0.54802446   -7.6787488    337.97128  0.015912019  0.014842527          153 
 1771000    0.5516835   -7.6668866    337.97784  0.015903343   0.01483109          153 
 1772000   0.54889799   -7.6518965    337.83534  0.015887667  0.014819662           80 
 1773000   0.54375128   -7.6501626    337.96599  0.015884846  0.014808256          155 
 1774000   0.53485381   -7.6487862    338.44793  0.015898531  0.014796853           84 
 1775000   0.55242795   -7.6645668    338.30102  0.015882677  0.014785461           99 
 1776000   0.54454948   -7.6677356    338.97295  0.015905262  0.014774076           93 
 1777000   0.54484254   -7.6617159    337.63425  0.015833532  0.014762685           75 
 1778000   0.54269276   -7.6722022    338.35341  0.015858334  0.014751302          173 
 1779000    0.5338711   -7.6843476    338.26508  0.015845282  0.014739928          115 
 1780000   0.54247385   -7.6586825    337.84387  0.015816661  0.014728543          102 
 1781000   0.54449285   -7.6707065    338.04879  0.015817368  0.014717182           95 
 1782000   0.54962057   -7.6617296    337.40021  0.015778162  0.014705815           72 
 1783000   0.54232921   -7.6761725     337.5817  0.015777795  0.014694466          153 
 1784000   0.54528197    -7.686459    337.70239  0.015774588  0.014683124           66 
 1785000   0.54724676   -7.6783401    337.80812  0.015770687  0.014671798           87 
 1786000   0.54160382   -7.6672947    338.10595  0.015775754  0.014660466           63 
 1787000   0.53182788    -7.673046    337.65204  0.015745758  0.014649161          111 
 1788000   0.54947767   -7.6802758    337.93557  0.015750166   0.01463786           70 
 1789000   0.53751236   -7.6825177     338.0275  0.015745645  0.014626578          126 
 1790000   0.54661524   -7.6616281    337.38761  0.015707058  0.014615298           82 
 1791000   0.53254862   -7.6729908     338.1497  0.015733747  0.014604035          100 
 1792000   0.53039064   -7.6644672    337.74355   0.01570608  0.014592784          102 
 1793000   0.54421372   -7.6800382    337.86804  0.015703106  0.014581536           86 
 1794000   0.53907131   -7.6930198    337.82579  0.015692391  0.014570297          127 
 1795000    0.5450353   -7.6762858    338.37272   0.01570904   0.01455907           85 
 1796000   0.54136933   -7.6904774    337.74262  0.015671057  0.014547835           88 
 1797000   0.53159236   -7.6973504    337.71125  0.015660881   0.01453662          152 
 1798000   0.53771815   -7.6932339    338.46206   0.01568697  0.014525424           78 
 1799000   0.54054364   -7.6757052      337.403  0.015629192  0.014514226           94 
 1800000   0.53776434   -7.6738465    337.64428   0.01563168  0.014503042          154 
 1801000   0.52975804   -7.6912491    338.21625  0.015649466  0.014491884          145 
 1802000   0.52775206   -7.6925657    337.93778  0.015627903  0.014480726           73 
 1803000   0.53337312   -7.6811007    338.25738  0.015634007  0.014469579          217 
 1804000   0.52265165   -7.6784083    338.18191  0.015621855  0.014458448          148 
 1805000   0.52336668   -7.7001131    337.95418  0.015602686  0.014447321          143 
 1806000    0.5293909   -7.7038701    337.70498  0.015582548  0.014436193           92 
 1807000   0.53294551    -7.693808    338.11474  0.015592821  0.014425071           68 
 1808000    0.5229155   -7.6813675    337.34273  0.015548614  0.014413944           76 
 1809000   0.52778087   -7.6838877    337.55776  0.015549925  0.014402838          113 
 1810000   0.54050994   -7.6732462    337.49173  0.015538293  0.014391729          112 
 1811000   0.52669569   -7.6904528    338.00032  0.015553116  0.014380633          185 
 1812000   0.52790797   -7.6932177    337.34512    0.0155144  0.014369551          111 
 1813000     0.535883     -7.70324    337.64512  0.015519632  0.014358463           77 
 1814000   0.53003058   -7.6990732    337.59144  0.015508611  0.014347385          142 
 1815000   0.53364309   -7.7110013     337.5326  0.015497364  0.014336314          103 
 1816000   0.52528864   -7.7090981    337.84984  0.015503388  0.014325251          172 
 1817000   0.52597613   -7.7129992    336.75106  0.015444463  0.014314189          138 
 1818000   0.52106024   -7.7187762    336.99773  0.015447274  0.014303133           95 
 1819000   0.52523076   -7.7165784    337.21524  0.015448746  0.014292081          219 
 1820000   0.53118483   -7.7053173    336.87058  0.015424477  0.014281051           86 
 1821000   0.52596563   -7.6956355    337.57094  0.015448057  0.014270019          169 
 1822000   0.52417006   -7.7077285    337.95173  0.015456995  0.014258996          170 
 1823000   0.53280213   -7.6936884    337.32477  0.015419856  0.014247972          226 
 1824000     0.524463   -7.7078659    337.05402  0.015399032  0.014236955           85 
 1825000   0.53463095    -7.723358    337.29309  0.015401511  0.014225938          248 
 1826000   0.53291815   -7.7172289    337.56278  0.015405384  0.014214932           92 
 1827000   0.51556429   -7.6883697    337.43872  0.015391294  0.014203937          202 
 1828000   0.53373942    -7.712164    336.78037  0.015352862  0.014192954          154 
 1829000   0.52514622   -7.7059313    337.14715  0.015361179  0.014181981          250 
 1830000      0.53113   -7.6981669    336.69756  0.015332312  0.014171017           93 
 1831000   0.51984741   -7.7083534    337.29195   0.01535099  0.014160059          378 
 1832000   0.52284271   -7.7075134    337.27069  0.015341643  0.014149094           97 
 1833000   0.52755332   -7.7034441    336.69494  0.015307099  0.014138145          105 
 1834000   0.52434055   -7.7280695    337.43205  0.015332245  0.014127201          187 
 1835000   0.52422762   -7.7189428     337.6624  0.015334351   0.01411629          148 
 1836000   0.52476062   -7.7084661    336.78371  0.015286116  0.014105368           82 
 1837000   0.51306463    -7.702595    336.91327  0.015283672  0.014094468          195 
 1838000   0.51485781   -7.7015425    337.02249  0.015280309  0.014083565          181 
 1839000   0.51566962   -7.7197163    337.00476  0.015271196  0.014072672          135 
 1840000   0.52076947   -7.7118854    337.38326  0.015280039  0.014061813          197 
 1841000   0.52386062   -7.7033282    337.31552  0.015268673  0.014050943           98 
 1842000   0.52016032   -7.7144907    336.85802  0.015239686  0.014040088          210 
 1843000   0.52396157   -7.7230032    337.42518  0.015257062  0.014029232          134 
 1844000    0.5060046   -7.7077247    337.43667  0.015249307  0.014018384          169 
 1845000   0.51524446   -7.7082512     337.0784   0.01522486   0.01400755          120 
 1846000   0.51378427   -7.7084171    336.95581  0.015211078  0.013996715          213 
 1847000   0.52016643   -7.7127689    337.34122  0.015220232  0.013985902          211 
 1848000    0.5087269   -7.7030498    337.27228  0.015208887  0.013975094          192 
 1849000   0.52345497   -7.7133862    336.84194  0.015181266    0.0139643          171 
 1850000   0.51765684   -7.7131484    337.39501  0.015197973  0.013953513          193 
 1851000   0.51522101   -7.7339328    337.47351  0.015193297  0.013942738          226 
 1852000   0.51670453   -7.7192558    337.57929  0.015189853  0.013931973          131 
 1853000   0.52687013   -7.7289099    336.57308  0.015136404  0.013921214          135 
 1854000   0.51252938   -7.7227846    336.83461  0.015139995   0.01391046          240 
 1855000   0.50858588   -7.7259205    337.13483   0.01514532   0.01389972          208 
 1856000   0.51214704    -7.726268    336.99622  0.015130937  0.013888996          125 
 1857000    0.5115129   -7.7235969    337.35256  0.015138779  0.013878269          203 
 1858000   0.50679858   -7.7403268    336.78616  0.015105228   0.01386755          142 
 1859000   0.51507903   -7.7421795     337.1132  0.015111763  0.013856854          190 
 1860000   0.50744346   -7.7321779    337.36431  0.015114888  0.013846182          223 
 1861000   0.51184137   -7.7453969    336.82923  0.015082806  0.013835506           96 
 1862000   0.51320568    -7.731465    337.23016   0.01509265  0.013824834          275 
 1863000   0.50517802   -7.7316059    336.68838  0.015060314  0.013814171           86 
 1864000    0.5011771   -7.7380678    336.69953  0.015052733  0.013803523          169 
 1865000   0.50778631   -7.7189413    336.71377  0.015045298   0.01379288          207 
 1866000   0.51237964   -7.7346594    337.26119  0.015061682  0.013782245          160 
 1867000    0.5069906   -7.7282881    337.21859  0.015051714  0.013771612          157 
 1868000   0.50769992   -7.7203038    336.24129  0.015000058  0.013760999          223 
 1869000   0.50560447   -7.7388465     336.9288  0.015022686  0.013750391          217 
 1870000   0.50951733   -7.7343481    337.22106  0.015027676  0.013739796          225 
 1871000   0.51103226   -7.7242973    336.43203  0.014984501  0.013729209          264 
 1872000   0.50190263   -7.7420349    336.61391  0.014984594  0.013718619          209 
 1873000   0.49347868    -7.729715    336.03498  0.014950835  0.013708033          275 
 1874000   0.49666711   -7.7299459    336.91816  0.014982131  0.013697472          223 
 1875000   0.51560957   -7.7534226    337.26258  0.014989448  0.013686903          256 
 1876000   0.50700416   -7.7262144    336.93761  0.014967023  0.013676346          113 
 1877000   0.49440339    -7.736808    337.23364  0.014972191  0.013665814          196 
 1878000   0.50300107   -7.7282662    337.15044  0.014960527  0.013655278          183 
 1879000    0.5128841   -7.7565075    336.64694  0.014930235  0.013644749          193 
 1880000   0.49648301   -7.7340887    336.54517  0.014917782  0.013634228          222 
 1881000   0.48861282   -7.7408348    336.55481  0.014910279  0.013623714           99 
 1882000    0.5042364   -7.7414744    336.03894  0.014879514   0.01361321          255 
 1883000   0.49131247   -7.7516569    336.45729  0.014890126  0.013602713          156 
 1884000   0.51360653   -7.7513281    336.67346  0.014891784  0.013592231          250 
 1885000   0.49172073   -7.7438364    337.00463  0.014898525  0.013581747          200 
 1886000   0.50470367    -7.752737    336.82568  0.014882718  0.013571284          154 
 1887000   0.49889503   -7.7464647    336.49074   0.01486004  0.013560824          226 
 1888000   0.50261353   -7.7494774    336.80139  0.014865881  0.013550371          202 
 1889000    0.4944278   -7.7514027    336.56618  0.014847634  0.013539931          218 
 1890000   0.50190225   -7.7438472    336.42894  0.014833728  0.013529503           84 
 1891000   0.48659079   -7.7259651     337.0364  0.014852653  0.013519098          255 
 1892000   0.49003068   -7.7554123    336.96816  0.014841797  0.013508698          175 
 1893000   0.49517739   -7.7425682    336.12753  0.014796951  0.013498299          202 
 1894000   0.49623729   -7.7504167    336.69367  0.014814047  0.013487918          211 
 1895000   0.50417772   -7.7629282    336.85468  0.014813311  0.013477533          222 
 1896000   0.49130308   -7.7334796    336.51732   0.01479067  0.013467163          248 
 1897000   0.49347983   -7.7564395    336.33152  0.014774711  0.013456796          110 
 1898000   0.49656642   -7.7750062    336.28566  0.014764913  0.013446422          222 
 1899000   0.49347914   -7.7465316     336.4999  0.014766539  0.013436054          208 
 1900000   0.49448196   -7.7631785    336.75104  0.014769783  0.013425694          175 
 1901000   0.48344707   -7.7631024    336.68138  0.014758959  0.013415349          115 
 1902000   0.49533201   -7.7542637    336.28974   0.01473404  0.013405019          203 
 1903000   0.48784707   -7.7604864    336.65496  0.014742291  0.013394704          205 
 1904000   0.48599491   -7.7507362    336.53869   0.01472946  0.013384397          222 
 1905000   0.50004831   -7.7666784    336.39046  0.014715243  0.013374093          193 
 1906000   0.48664076   -7.7612964    336.47267  0.014711117  0.013363797          237 
 1907000   0.49140086   -7.7677718    336.15117  0.014689354   0.01335351          171 
 1908000   0.48516956   -7.7557976    336.67765  0.014704649  0.013343229          233 
 1909000    0.4971327   -7.7536133    336.05419   0.01466973  0.013332963          146 
 1910000   0.48977357   -7.7427439    336.15728  0.014666548  0.013322701          128 
 1911000   0.49659649   -7.7647005    336.64502  0.014680142  0.013312458          205 
 1912000   0.47915224   -7.7683182    336.47666  0.014665127  0.013302224           84 
 1913000   0.48359465   -7.7460357    335.79396  0.014627721  0.013291988          290 
 1914000   0.48733238   -7.7500844     336.1512  0.014635632  0.013281756          147 
 1915000   0.48870485   -7.7589783     336.2909  0.014634069  0.013271545          163 
 1916000   0.49748561    -7.733803    336.16486  0.014620949  0.013261347          223 
 1917000   0.49714208    -7.749462    336.32258  0.014620178  0.013251163          155 
 1918000   0.49190413   -7.7874129     335.9813  0.014597728  0.013240979          117 
 1919000   0.49262251    -7.767461    336.41749  0.014609063  0.013230802          193 
 1920000   0.48631827   -7.7651061    336.44076  0.014602463   0.01322064          154 
 1921000   0.48801489   -7.7705842    336.25473  0.014586792  0.013210481          193 
 1922000   0.49196874   -7.7734551    336.09871  0.014572438  0.013200327          106 
 1923000   0.48750814   -7.7729704    336.08648   0.01456433  0.013190175          239 
 1924000   0.49556376   -7.7556501    336.42533  0.014571437  0.013180041          157 
 1925000   0.48254226    -7.765208    336.12258  0.014550761  0.013169913          179 
 1926000   0.46928878   -7.7485294    336.00628  0.014538174  0.013159797          156 
 1927000   0.48382041   -7.7593597    336.45614  0.014550084  0.013149697          147 
 1928000   0.49032299   -7.7740595    336.45885  0.014542654  0.013139596          243 
 1929000   0.47177373   -7.7678275    335.93405  0.014512444  0.013129503          147 
 1930000   0.48889927   -7.7728727    336.70476  0.014538202  0.013119415          215 
 1931000   0.46645286   -7.7773857    336.09265  0.014504257  0.013109336          192 
 1932000   0.48378653   -7.7772535    336.25427  0.014503721  0.013099268          176 
 1933000   0.49043068   -7.7787346    336.37934   0.01450161  0.013089219          199 
 1934000   0.48383131   -7.7720407    335.74862  0.014466935  0.013079167          129 
 1935000    0.4868169   -7.7642366    335.81847  0.014462467  0.013069137          148 
 1936000   0.48414735   -7.7711027    336.25897  0.014473957  0.013059098           85 
 1937000    0.4792652   -7.7662327    335.90503  0.014451257  0.013049065          152 
 1938000   0.46993377   -7.7730492    336.26263  0.014459177  0.013039055          122 
 1939000   0.48143919   -7.7595346    336.34137  0.014455104  0.013029049          188 
 1940000   0.48050509   -7.7938425    336.25134  0.014443786  0.013019055          223 
 1941000   0.47730267   -7.7759091    335.78145  0.014416171  0.013009073          120 
 1942000    0.4819387   -7.7875062    336.06183  0.014420779  0.012999094          206 
 1943000   0.47107649   -7.7776611    336.01021  0.014411143  0.012989123          290 
 1944000   0.47632375    -7.786902    336.59741  0.014428901   0.01297916          159 
 1945000   0.48341018   -7.7696465    335.92805  0.014392804  0.012969201          218 
 1946000   0.46894423   -7.7974442    336.12919  0.014394022  0.012959251          216 
 1947000   0.47215773   -7.7944166    335.92901  0.014378061  0.012949311          232 
 1948000   0.46665043   -7.7952327    335.67643  0.014359874  0.012939378          150 
 1949000   0.47263334   -7.7808985    336.27804   0.01437823  0.012929449          185 
 1950000   0.47579606   -7.7862618    336.15132  0.014365441  0.012919535          190 
 1951000   0.47710959   -7.7682442     336.0127  0.014352157  0.012909635          225 
 1952000   0.48532366   -7.7772784    335.95221  0.014342222  0.012899745          182 
 1953000   0.47712638   -7.7711567    335.77002  0.014327105  0.012889867          178 
 1954000    0.4742321   -7.7975849    335.68036  0.014315948  0.012879994          195 
 1955000    0.4719971   -7.7996252    336.01834  0.014323032  0.012870127          197 
 1956000   0.47307396   -7.7863644     336.1797  0.014322584  0.012860269          204 
 1957000    0.4753599   -7.7838182    336.29313  0.014320096  0.012850422          163 
 1958000   0.46923453   -7.8020694    335.63896   0.01428494  0.012840579          211 
 1959000   0.47057929   -7.7908123    336.34822   0.01430782  0.012830749          205 
 1960000   0.47292672   -7.7996991    335.71993  0.014273807  0.012820926          291 
 1961000   0.46300106   -7.7876091    336.08061  0.014281855  0.012811101          207 
 1962000   0.46757792   -7.7847633    335.85082  0.014264816  0.012801299          176 
 1963000   0.47282467   -7.7917852    335.76692  0.014253987  0.012791504          240 
 1964000   0.47093532   -7.7936436     335.6143  0.014240254   0.01278171          249 
 1965000   0.46831179   -7.7947294    335.85484  0.014243208  0.012771931          167 
 1966000   0.46382459   -7.7827246    335.64939  0.014227255  0.012762163          213 
 1967000   0.47483953   -7.7920325    335.77423   0.01422531  0.012752411          213 
 1968000   0.46642126    -7.794903    335.70977  0.014215353  0.012742662          190 
 1969000   0.47992181   -7.7882685    336.03161  0.014221754  0.012732917          240 
 1970000   0.46628529   -7.7978594    335.42865  0.014189029  0.012723184          207 
 1971000   0.46412565   -7.7927587    335.84038  0.014199238  0.012713456          212 
 1972000   0.46222819   -7.7915608    335.98603  0.014198193  0.012703727          200 
 1973000   0.45705802   -7.8104844    335.66112  0.014177273  0.012694012          206 
 1974000   0.47517207   -7.7866776    335.97843  0.014183486  0.012684305          228 
 1975000   0.46164907   -7.7947572      335.982  0.014176456  0.012674617          178 
 1976000   0.45910479   -7.7765577    335.42137  0.014145638   0.01266493          233 
 1977000   0.45874101   -7.8103507    336.11145  0.014167571   0.01265526          227 
 1978000   0.47181792   -7.8123737    336.00104  0.014155757  0.012645587          228 
 1979000    0.4797875   -7.7855556    335.53301  0.014128896  0.012635927          196 
 1980000   0.47037542   -7.8031035    335.57052  0.014123339  0.012626274          204 
 1981000   0.47293459   -7.8009094    335.25812  0.014103068  0.012616633          223 
 1982000   0.46068216   -7.7869701    335.90307  0.014123069  0.012606992          150 
 1983000    0.4667984   -7.8156657    335.42398  0.014095814  0.012597367          218 
 1984000   0.46423824    -7.805007    335.70177  0.014100377   0.01258775          256 
 1985000   0.45940541   -7.8033018    334.98259  0.014063081  0.012578134          174 
 1986000   0.45165993   -7.8019326    335.96327  0.014097149  0.012568527          262 
 1987000   0.45521367   -7.8170362    335.49657  0.014070482  0.012558935          258 
 1988000   0.47051761   -7.7846771    335.04863  0.014044627  0.012549351          226 
 1989000   0.45729244   -7.8092413     335.5448  0.014058354  0.012539784          212 
 1990000   0.45651215   -7.8105245    335.51484  0.014050035  0.012530212          163 
 1991000   0.46115277   -7.7795001    335.28899  0.014033526  0.012520661          236 
 1992000    0.4634063   -7.8057154    335.57924  0.014038623  0.012511118          203 
 1993000    0.4552367   -7.8106024    335.58104  0.014031654  0.012501573          179 
 1994000   0.46597727   -7.8104126    335.44698  0.014019015  0.012492032          175 
 1995000    0.4544211    -7.804105    335.61738  0.014019105  0.012482505          269 
 1996000   0.45871321   -7.8091719    335.90793  0.014024212  0.012472988          212 
 1997000   0.45451503   -7.8132247    335.67016  0.014007268  0.012463473          222 
 1998000   0.46688921   -7.8053707    335.65787  0.013999744  0.012453973          175 
 1999000   0.45394165   -7.7997085    335.44753  0.013983973  0.012444489          232 
 2000000   0.44812277   -7.8267035    335.49795  0.013979081  0.012435001          165 
 2001000   0.44793803   -7.8295175    335.24947  0.013961747  0.012425521          190 
 2002000   0.45690295   -7.8201373    335.06999  0.013947302  0.012416054          225 
 2003000   0.45962807   -7.8005344    335.78603  0.013970129   0.01240659          154 
 2004000    0.4600315    -7.816203    335.89246  0.013967584   0.01239713          205 
 2005000   0.45883729   -7.8008799    335.85602  0.013959103  0.012387689          202 
 2006000   0.43895738   -7.8187195    335.13088  0.013922021  0.012378252          155 
 2007000   0.45646478   -7.8372695    335.62635  0.013935656  0.012368829          235 
 2008000   0.44359479   -7.8204007    335.76394  0.013934427  0.012359411          219 
 2009000    0.4480752   -7.8306815    335.47013  0.013915303  0.012350008          175 
 2010000   0.45061573   -7.8082126    335.23523  0.013898641  0.012340607          201 
 2011000   0.44142912   -7.8204046    334.77516  0.013872666  0.012331207          185 
 2012000   0.45469584   -7.8108082    335.22198  0.013884277  0.012321817          206 
Loop time of 4347.33 on 48 procs for 2000000 steps with 4000 atoms

Performance: 79497.017 tau/day, 460.052 timesteps/s
99.4% CPU use with 48 MPI tasks x no OpenMP threads

MPI task timing breakdown:
Section |  min time  |  avg time  |  max time  |%varavg| %total
---------------------------------------------------------------
Pair    | 267.33     | 288.22     | 301.94     |  36.7 |  6.63
Neigh   | 27.47      | 28.183     | 28.797     |   5.6 |  0.65
Comm    | 239.79     | 256.66     | 277.51     |  47.9 |  5.90
Output  | 3.9772     | 3.9788     | 4.0159     |   0.3 |  0.09
Modify  | 3708.1     | 3723.8     | 3738.8     |  11.4 | 85.66
Other   |            | 46.49      |            |       |  1.07

Nlocal:        83.3333 ave          92 max          77 min
Histogram: 4 7 6 4 11 3 5 3 2 3
Nghost:        1823.58 ave        1852 max        1791 min
Histogram: 1 3 7 4 7 7 8 3 2 6
Neighs:        11258.3 ave       12376 max        9858 min
Histogram: 2 4 5 2 7 5 6 7 3 7
FullNghs:      22516.9 ave       24993 max       20536 min
Histogram: 4 8 5 3 10 4 5 4 2 3

Total # of neighbors = 1080809
Ave neighs/atom = 270.20225
Neighbor list builds = 107761
Dangerous builds = 0

#clear
#
#next RN
#
#jump SELF
Total wall time: 1:12:30
