
units lj                  # Use reduced LJ style units
atom_style atomic         # Uncharged point particles
atom_modify map hash      # Needed for indexing of clusters etc
                          # Used to be able to find where atoms are in relation to each other.

lattice fcc 1.0 spacing 1 1 1
Lattice spacing in x,y,z = 1.5874011 1.5874011 1.5874011
region box block 0 10 0 10 0 10 units lattice
create_box 2 box
Created orthogonal box = (0.0000000 0.0000000 0.0000000) to (15.874011 15.874011 15.874011)
  3 by 4 by 4 MPI processor grid
create_atoms 1 box
Created 4000 atoms
  using lattice units in orthogonal box = (0.0000000 0.0000000 0.0000000) to (15.874011 15.874011 15.874011)
  create_atoms CPU = 0.024 seconds
set type 1 type/fraction 2 0.25 78393
Setting atom values ...
  1031 settings made for type/fraction
mass 1 1.0
mass 2 1.0
pair_style lj/cut  3.5
pair_modify tail  yes
pair_coeff 1  1  1.0  1.0   # Intearaction between 1 and 1 set with epsilon = 1 and sigma = 1
pair_coeff 1  2  1.5  0.8
pair_coeff 2  2  0.5  0.88

write_data data.0
System init for write_data ...
Neighbor list info ...
  update every 1 steps, delay 10 steps, check yes
  max neighbors/atom: 2000, page size: 100000
  master list distance cutoff = 3.8
  ghost atom cutoff = 3.8
  binsize = 1.9, bins = 9 9 9
  1 neighbor lists, perpetual/occasional/extra = 1 0 0
  (1) pair lj/cut, perpetual
      attributes: half, newton on
      pair build: half/bin/atomonly/newton
      stencil: half/bin/3d
      bin: standard
WARNING: Not all mixed pair coeffs generated from mixing. Use write_data with 'pair ij' option to store all pair coeffs. (../write_data.cpp:312)


#############################
#   M E L T   S Y S T E M   #
#############################

velocity all create 2.4 3143649 mom yes dist gaussian # Assign velocities
                                                    # Temperature 2.4, random number seed, zero linear momentum
                                                                                # Gaussian distribution

timestep 0.002   # simulation timestep
thermo 1000       # output thermodynamic data every 1000 steps bf 100

# Define a fix  in this case with index 1 applied to all
# particles in the simulation. This fix is for simulations
# in the anisotropic NPT ensemble. Note that we use the MTK
# correction.
fix 1 all npt temp 2.4 2.4 0.1 iso 5.68 5.68 0.5 mtk yes tchain 5 pchain 5 # Use NPT ensemble
                                                                         # Set temperature and pressure and damping
                                                                         # Numbers of thermostats in chain and in barostat
run 10000          # run for 10000 steps
Per MPI rank memory allocation (min/avg/max) = 3.642 | 3.644 | 3.648 Mbytes
Step Temp E_pair E_mol TotEng Press Volume 
       0          2.4   -6.7340002            0   -3.1349002   -3.8290783         4000 
    1000    2.3960464   -4.8922088            0   -1.2990377    5.8070505    4318.4555 
    2000    2.3695273    -4.954227            0   -1.4008246    5.8213445    4268.5602 
    3000    2.3737276   -4.9541218            0   -1.3944205    5.5279021    4306.8343 
    4000     2.374423   -4.9307861            0   -1.3700421    5.7605733    4291.8874 
    5000    2.3992492   -4.9618155            0   -1.3638414    5.4260614    4313.9538 
    6000    2.3384143   -4.9106119            0   -1.4038674    5.6190531    4318.7316 
    7000    2.3804457   -4.9063697            0   -1.3365937    5.8596928     4294.404 
    8000    2.3866544   -4.9797022            0   -1.4006156    5.6760987    4278.9891 
    9000    2.3434881   -4.9230437            0   -1.4086903    5.7534514    4292.5586 
   10000     2.408049   -4.8848208            0   -1.2736504    5.5439326    4337.4977 
Loop time of 2.39246 on 48 procs for 10000 steps with 4000 atoms

Performance: 722269.214 tau/day, 4179.799 timesteps/s
99.6% CPU use with 48 MPI tasks x no OpenMP threads

MPI task timing breakdown:
Section |  min time  |  avg time  |  max time  |%varavg| %total
---------------------------------------------------------------
Pair    | 0.98783    | 1.0782     | 1.1795     |   3.8 | 45.07
Neigh   | 0.19817    | 0.20872    | 0.22508    |   1.2 |  8.72
Comm    | 0.71526    | 0.82971    | 0.92346    |   4.6 | 34.68
Output  | 0.00025397 | 0.00025797 | 0.00032506 |   0.0 |  0.01
Modify  | 0.23321    | 0.26042    | 0.30294    |   3.0 | 10.89
Other   |            | 0.01511    |            |       |  0.63

Nlocal:        83.3333 ave          93 max          70 min
Histogram: 1 1 0 5 9 8 13 4 5 2
Nghost:        1552.12 ave        1581 max        1522 min
Histogram: 4 1 5 6 7 7 6 5 4 3
Neighs:        8800.58 ave       10059 max        7138 min
Histogram: 1 0 1 8 7 8 12 8 1 2

Total # of neighbors = 422428
Ave neighs/atom = 105.60700
Neighbor list builds = 904
Dangerous builds = 190

# Equilibrate just above the melting temperature to avoid step fn in T

fix 1 all npt temp 1.25 1.25 0.1 iso 5.68 5.68 0.5 mtk yes tchain 5 pchain 5
run 2000
Per MPI rank memory allocation (min/avg/max) = 3.643 | 3.645 | 3.649 Mbytes
Step Temp E_pair E_mol TotEng Press Volume 
   10000     2.408049   -4.8848208            0   -1.2736504    5.5439326    4337.4977 
   11000    1.2708124   -6.6813095            0   -4.7755674    5.7415973    3496.2822 
   12000    1.2465406   -6.7145563            0   -4.8452129    5.6536172    3486.8997 
Loop time of 0.545077 on 48 procs for 2000 steps with 4000 atoms

Performance: 634038.356 tau/day, 3669.203 timesteps/s
99.6% CPU use with 48 MPI tasks x no OpenMP threads

MPI task timing breakdown:
Section |  min time  |  avg time  |  max time  |%varavg| %total
---------------------------------------------------------------
Pair    | 0.23069    | 0.26164    | 0.29515    |   2.6 | 48.00
Neigh   | 0.035404   | 0.038224   | 0.041896   |   0.8 |  7.01
Comm    | 0.15581    | 0.19311    | 0.22556    |   3.3 | 35.43
Output  | 5.1902e-05 | 5.3299e-05 | 6.7052e-05 |   0.0 |  0.01
Modify  | 0.042458   | 0.047298   | 0.053298   |   1.3 |  8.68
Other   |            | 0.004757   |            |       |  0.87

Nlocal:        83.3333 ave          97 max          72 min
Histogram: 1 2 2 9 16 9 6 1 1 1
Nghost:        1797.23 ave        1834 max        1771 min
Histogram: 2 4 5 14 12 3 3 2 2 1
Neighs:        10957.0 ave       13543 max        9568 min
Histogram: 2 6 10 17 6 3 1 2 0 1

Total # of neighbors = 525937
Ave neighs/atom = 131.48425
Neighbor list builds = 142
Dangerous builds = 7

#############################
# L I N E A R  Q U E N C H  #
#############################

# Define solid atoms. This closely follows ten Wolde  Ruiz-Montero and Frenkel  Faraday Discuss  1996  104  93-110
# Compute components of the per-atom q6 vector
compute q6 all orientorder/atom degrees 1 6 components 6 nnn NULL cutoff 1.3 # compute the Q6 parameter.
                                                                             # Use all neighbours within 1.3 unit cell.

# get number of connections
compute coord_number all coord/atom orientorder q6 0.5

# An atom is solid if it has 8 or more connections (of a possible 14)
variable is_solid atom c_coord_number>=8
group solid dynamic all var is_solid    # Must be dynamic to update
dynamic group solid defined

# do clustering
compute cluster solid cluster/atom 1.3 # Create a cluster where all atoms within are solid and max 1.3 units from another member

# define chunks one chunk per cluster
compute clus_chunks solid chunk/atom c_cluster nchunk every compress yes  # Says which atoms are in which chunk

# count the size of each chunk
compute size_chunks solid property/chunk clus_chunks count


# Find the maximum entry in the vector of chunk sizes
variable max_n equal max(c_size_chunks)


# Thermo style which includes this variable
# thermo_style custom step temp pe vol v_max_n

thermo ${N}  # Print the thermo information every 100 steps
thermo 1000  

# Reset the npt fix at a lower temperature (below freezing)
fix 1  all npt temp  ${temp} ${temp}  0.1  iso  5.68  5.68  0.5  mtk yes tchain  5  pchain  5
fix 1  all npt temp  0.45 ${temp}  0.1  iso  5.68  5.68  0.5  mtk yes tchain  5  pchain  5
fix 1  all npt temp  0.45 0.45  0.1  iso  5.68  5.68  0.5  mtk yes tchain  5  pchain  5

dump dmp2 all dcd ${N} traj.dcd
dump dmp2 all dcd 1000 traj.dcd


compute msd all msd com yes
variable twopoint equal c_msd[4]/6/(step*dt+1.0e-6)
fix 9 all vector 10 c_msd[4]
variable fit equal slope(f_9)/6/(10*dt)
thermo_style custom step temp pe c_msd[4] v_twopoint v_fit v_max_n

fix 1 all npt temp 1.25 ${temp} 0.1 iso 5.68 5.68 0.5 mtk yes tchain 5 pchain 5
fix 1 all npt temp 1.25 0.45 0.1 iso 5.68 5.68 0.5 mtk yes tchain 5 pchain 5
run 500000 # 5000000  # Run for this many steps
Neighbor list info ...
  update every 1 steps, delay 10 steps, check yes
  max neighbors/atom: 2000, page size: 100000
  master list distance cutoff = 3.8
  ghost atom cutoff = 3.8
  binsize = 1.9, bins = 8 8 8
  4 neighbor lists, perpetual/occasional/extra = 1 3 0
  (1) pair lj/cut, perpetual
      attributes: half, newton on
      pair build: half/bin/atomonly/newton
      stencil: half/bin/3d
      bin: standard
  (2) compute orientorder/atom, occasional
      attributes: full, newton on
      pair build: full/bin/atomonly
      stencil: full/bin/3d
      bin: standard
  (3) compute coord/atom, occasional
      attributes: full, newton on
      pair build: full/bin/atomonly
      stencil: full/bin/3d
      bin: standard
  (4) compute cluster/atom, occasional
      attributes: full, newton on
      pair build: full/bin/atomonly
      stencil: full/bin/3d
      bin: standard
Per MPI rank memory allocation (min/avg/max) = 9.800 | 9.807 | 9.818 Mbytes
Step Temp PotEng c_msd[4] v_twopoint v_fit v_max_n 
   12000    1.2465406   -6.7145563 1.8356793e-30 1.2747773e-32 8.3333333e+20            6 
   13000    1.2863019   -6.7629328   0.53037278 0.0033998254  0.044217193            1 
   14000    1.2228656   -6.7152722    1.0709078  0.006374451  0.044040542            2 
   15000    1.2813383   -6.7395436    1.6137071 0.0089650389  0.044483855            3 
   16000       1.2485   -6.7411899    2.1642148  0.011271952  0.045171902            2 
   17000    1.2384206   -6.7290919    2.6963786  0.013217542  0.045163964            1 
   18000    1.2385798   -6.7682563    3.1326277  0.014502906  0.044426801            1 
   19000    1.2025353   -6.7388174    3.6518845  0.016017037   0.04359874            2 
   20000    1.2448082   -6.7540838    4.1693643  0.017372351  0.043295852            1 
   21000    1.2191828   -6.7788123    4.5920818  0.018222546  0.042823433            1 
   22000    1.2228816   -6.7646481    5.1031969  0.019330291   0.04229088            2 
   23000    1.2221209    -6.773671    5.5995835  0.020288346  0.042103661            1 
   24000    1.2447883   -6.7591479     6.093944  0.021159527  0.041931035            1 
   25000    1.2506896   -6.7569365    6.4901055  0.021633685  0.041695598            2 
   26000    1.2586312   -6.7520719    6.9871615  0.022394748  0.041374312            2 
   27000     1.211199   -6.7822553    7.4337062  0.022943537  0.041180507            1 
   28000    1.2404346   -6.7507907    7.9609349  0.023693258  0.041025193            2 
   29000    1.2432058   -6.8373868    8.3563074  0.024012377  0.040871906            1 
   30000    1.2301763   -6.8126799    8.8825724  0.024673812  0.040719471            2 
   31000     1.248662   -6.7983848    9.3888856  0.025238939  0.040644788            3 
   32000    1.2256149   -6.7949493    9.9389609   0.02588271   0.04063057            2 
   33000    1.2108415   -6.7671513    10.458773  0.026411042  0.040639933            1 
   34000    1.2335769   -6.7922871    10.962362  0.026868534  0.040664824            2 
   35000    1.2123109   -6.8220238    11.393104  0.027126437  0.040697555            2 
   36000    1.2411826   -6.7983564    11.838463  0.027403849  0.040659872            2 
   37000    1.2229214   -6.7972266    12.258609   0.02760948  0.040564616            1 
   38000    1.1844005   -6.7500468    12.686213  0.027820643   0.04047063            2 
   39000    1.2047603    -6.831099    13.024341  0.027829787  0.040332171            2 
   40000    1.1925518   -6.7609453    13.494244  0.028113007  0.040184642            2 
   41000    1.2255393   -6.8288086    13.863082  0.028176996   0.04000045            1 
   42000     1.206623   -6.8468177      14.2415  0.028256944  0.039808785            1 
   43000    1.2269162   -6.7868596    14.690441  0.028469847  0.039619721            1 
   44000    1.2053365   -6.8374172    15.143052  0.028680023  0.039441589            2 
   45000    1.1969493   -6.8617069    15.591035  0.028872286   0.03929554            2 
   46000    1.2001855   -6.8266128    15.868868  0.028747949  0.039145028            1 
   47000    1.1927325   -6.8299231    16.290436  0.028883751  0.038961274            2 
   48000      1.20343   -6.8307638    16.676022  0.028951426  0.038783665            1 
   49000    1.2074559   -6.8513867    17.128789  0.029130593  0.038588313            3 
   50000    1.2062143    -6.831891    17.568051  0.029280085  0.038427344            1 
   51000    1.1884111   -6.8606634    17.965701  0.029355721   0.03828309            2 
   52000    1.1857296   -6.8525045    18.360362  0.029423657  0.038125752            3 
   53000    1.1724129   -6.8690755    18.729348   0.02944866  0.037975721            1 
   54000    1.1796142   -6.8348382    19.168597  0.029581169  0.037832565            1 
   55000    1.1865796   -6.8866104    19.456654  0.029479778  0.037698373            1 
   56000    1.1560099   -6.9114156     19.92188  0.029645654  0.037562721            2 
   57000     1.167888   -6.9137509    20.380084  0.029795445  0.037444373            3 
   58000    1.1796862   -6.8801656    20.625968  0.029635012  0.037319152            5 
   59000    1.1817902   -6.8838677    21.060434  0.029746375  0.037181999            1 
   60000     1.184685   -6.9055219    21.440778  0.029778858   0.03705723            2 
   61000    1.1723181   -6.8784556     21.82197  0.029811435  0.036925736            1 
   62000    1.1522934   -6.9067277    22.320829  0.030001114  0.036802734            2 
   63000    1.1820948   -6.8920784    22.767282  0.030115452  0.036702075            2 
   64000    1.1721041   -6.9236788    23.067871  0.030036291  0.036602692            2 
   65000    1.1647049   -6.9357949    23.463307  0.030081163  0.036504833            1 
   66000     1.163596   -6.9036637    23.721224   0.02995104  0.036397716            2 
   67000    1.1334592   -6.9128184    24.244803  0.030155228  0.036303486            1 
   68000    1.1544443   -6.9038067    24.779925  0.030367554  0.036225518            1 
   69000    1.1794855   -6.8969277    25.111041  0.030327343  0.036157071            1 
   70000    1.1598259   -6.9265138    25.447259  0.030294356  0.036081437            1 
   71000    1.1514641   -6.8933943    25.950152  0.030457925   0.03600263            1 
   72000     1.166962   -6.9609495    26.493349  0.030663599  0.035945725            1 
   73000    1.1537628    -6.908236    26.767623  0.030556647   0.03589902            1 
   74000    1.1491224   -6.9110027    27.122004  0.030542797  0.035834088            1 
   75000    1.1203052    -6.895927    27.507773  0.030564192  0.035763532            1 
   76000    1.1585538    -6.916895    27.826332  0.030511329  0.035695344            3 
   77000    1.1358868   -6.9072302    28.240701  0.030563529  0.035623612            4 
   78000    1.1132917   -6.9542176    28.542132   0.03049373  0.035543392            2 
   79000    1.1210229   -6.9484202    28.971446  0.030560597  0.035468729            3 
   80000    1.1342725   -6.9423338    29.328492  0.030550512  0.035404137            3 
   81000     1.126408   -6.9707541    29.718308  0.030574391  0.035336573            1 
   82000    1.1049996   -6.9843571     30.18467  0.030675477  0.035269994            2 
   83000    1.1391108   -6.9618541    30.605666   0.03072858  0.035207681            2 
   84000    1.1308026   -6.9729704    30.864955  0.030619995  0.035146074            2 
   85000    1.1495595   -6.9662187    31.211246   0.03059926  0.035080056            2 
   86000    1.1627544   -6.9972217    31.586435   0.03060701  0.035017362            1 
   87000    1.1380463   -6.9877916    31.900296  0.030555839  0.034948797            3 
   88000    1.1128708   -6.9533424    32.255424  0.030544909  0.034880101            1 
   89000    1.1217502   -7.0215734    32.619121  0.030542248  0.034821491            5 
   90000    1.1372579   -6.9715765    32.976818  0.030534091  0.034757804            2 
   91000    1.1258462   -6.9647851    33.304043  0.030498208   0.03468829            2 
   92000     1.109258   -6.9728306    33.493139  0.030337988  0.034612442            2 
   93000    1.1192358   -6.9641562    33.981902  0.030449733  0.034539414            2 
   94000    1.0897211   -6.9814597    34.371071  0.030470808  0.034472471            1 
   95000     1.117762   -6.9989268    34.767334  0.030497661  0.034402218            3 
   96000    1.0989065   -7.0084736    35.074353  0.030446487  0.034338581            3 
   97000    1.1110091   -6.9944114    35.338644   0.03035966   0.03426871            2 
   98000    1.1755397   -6.9881219    35.762667  0.030410431  0.034204022            2 
   99000    1.1179201   -6.9788483    36.019562  0.030319497  0.034134037            2 
  100000    1.1107044   -6.9915467    36.204806  0.030170672  0.034056398            4 
  101000    1.1005623   -7.0358129    36.615053   0.03021044  0.033978767            2 
  102000    1.0922601   -6.9984499    37.011726  0.030238338  0.033905685            2 
  103000    1.1025036   -7.0333049    37.259736  0.030145417  0.033829622            1 
  104000    1.1011251   -7.0602195    37.502149  0.030049799  0.033752394            1 
  105000     1.117588   -7.0099665    37.846549  0.030036943  0.033669889            1 
  106000    1.1121499    -7.055842    38.087318   0.02994286  0.033586279            1 
  107000    1.0912351   -7.0216525     38.34381   0.02986278  0.033505165            2 
  108000    1.0860953   -7.0611538    38.899331  0.030014916  0.033429457            1 
  109000    1.0997741   -7.0813032    39.257991  0.030013755  0.033360529            1 
  110000    1.0747587   -7.0439822    39.657228  0.030043354  0.033290817            1 
  111000    1.0869324   -7.0489193    40.045161  0.030063934  0.033222815            3 
  112000    1.0881545    -7.018129    40.268345  0.029961566  0.033154994            3 
  113000    1.0913085   -7.0697405    40.472188  0.029846746   0.03308646            2 
  114000    1.0887153   -7.0554686    40.744901  0.029784284   0.03301775            2 
  115000    1.0642501   -7.0943704    41.012782  0.029719407  0.032944385            2 
  116000    1.0772489   -7.0663633    41.476096  0.029796046   0.03287344            1 
  117000    1.0851589   -7.0742718    41.671292  0.029680407    0.0328041            1 
  118000    1.0976393   -7.1052193    42.084064  0.029720384  0.032733906            1 
  119000    1.0406129    -7.089496    42.213053  0.029560962  0.032659609            3 
  120000    1.0644859   -7.0664835    42.743942  0.029683293  0.032587509            1 
  121000    1.0543579   -7.0847864    43.131749  0.029705062  0.032516802            5 
  122000    1.0974685   -7.1151622    43.349217  0.029610121   0.03245021            1 
  123000    1.0771544   -7.0799833    43.855391  0.029712325  0.032391423            2 
  124000    1.0833971   -7.0998593    44.128428  0.029656201  0.032331345            1 
  125000     1.057802   -7.1079458    44.579006  0.029719337  0.032274771            2 
  126000    1.0748434   -7.0993601    44.627201  0.029515345  0.032213384            1 
  127000    1.0576753   -7.1047051    44.866618  0.029440038  0.032148825            2 
  128000    1.0583341   -7.0907022    45.284646  0.029482191  0.032082713            2 
  129000    1.0632182   -7.0931339    45.428036  0.029346277  0.032016997            2 
  130000    1.0600229   -7.1006697     45.62691  0.029248019   0.03194847            4 
  131000    1.0696055   -7.0898364    45.987264  0.029253985  0.031878996            4 
  132000    1.0465697   -7.1170924    46.021667  0.029054083  0.031807847            2 
  133000    1.0548821   -7.1352716    46.365204   0.02905088  0.031735264            2 
  134000    1.0541465    -7.102423    46.517145  0.028928573  0.031659483            3 
  135000    1.0405274   -7.1366763     46.62989  0.028783882  0.031577644            2 
  136000    1.0444728   -7.1005362    46.895855  0.028735205  0.031494631            1 
  137000    1.0385254   -7.1409143    47.066104  0.028629017  0.031409828            2 
  138000    1.0608876   -7.1189864    47.385893   0.02861467  0.031325853            2 
  139000    1.0789518   -7.1446796    47.560987  0.028513781  0.031241108            2 
  140000    1.0262749   -7.1222952    48.201774  0.028691532  0.031157854            3 
  141000    1.0560778   -7.1427113    48.178877  0.028474513  0.031074684            3 
  142000      1.03877   -7.1359357     48.61736  0.028531315   0.03099611            2 
  143000    1.0517654   -7.1621804    48.751538  0.028409987  0.030918128            3 
  144000    1.0415037    -7.146494     48.86398  0.028277766  0.030837599            5 
  145000    1.0441681   -7.1646874     49.08458  0.028209529  0.030755257            3 
  146000    1.0194863   -7.1544265    49.499532  0.028253157  0.030676314            2 
  147000    1.0322052   -7.1527603    49.765324  0.028211635  0.030599091            1 
  148000    1.0666396   -7.1489743    49.978145  0.028140848   0.03052046            1 
  149000    1.0376972   -7.1849206    50.266121  0.028113043  0.030443042            2 
  150000    1.0477143   -7.1649145     50.37147   0.02798415  0.030365716            1 
  151000    1.0277432   -7.1563353    50.783462  0.028026193  0.030289239            3 
  152000    1.0201608    -7.179396    51.040974   0.02798299  0.030213616            2 
  153000    1.0292567   -7.1978517    51.140583  0.027854348  0.030136197            1 
  154000    1.0239454   -7.2002108    51.467715  0.027850495  0.030057103            2 
  155000    1.0232395   -7.1631695    51.865168  0.027884499  0.029979212           13 
  156000    1.0311055   -7.1907234    51.960015  0.027756418  0.029904667            3 
  157000    1.0022422   -7.1872071    52.283913  0.027751546  0.029831726            4 
  158000    1.0404857   -7.2246477     52.32029  0.027595089  0.029757516            2 
  159000    1.0279501    -7.201464    52.643848  0.027591115  0.029681761            2 
  160000    1.0300393   -7.2117953    53.136821  0.027675427  0.029608599            2 
  161000    1.0126694   -7.2038265    53.152443  0.027511616  0.029536331            2 
  162000    1.0231366   -7.2252894     53.42433  0.027481651  0.029461945            2 
  163000   0.98334714   -7.2190743    53.590322  0.027397915  0.029387103           10 
  164000    1.0170126   -7.2542614    53.824799  0.027349999  0.029311707            3 
  165000     1.001038   -7.1988351    54.240423  0.027394153  0.029240346            3 
  166000   0.98847896    -7.289955    54.349909  0.027284091  0.029169514            1 
  167000     1.012337   -7.2605477    54.631471  0.027261213  0.029099874            3 
  168000   0.99700916   -7.2401605    54.854273   0.02720946  0.029028494            3 
  169000   0.97622674   -7.2346938    55.003998  0.027122287  0.028958031            1 
  170000   0.99162082    -7.220535    55.517673  0.027214546  0.028888373            1 
  171000    0.9805223   -7.2465846    55.821076  0.027203253  0.028819923            1 
  172000   0.99099437   -7.2143535    56.000975  0.027132255  0.028753454            2 
  173000    1.0072806   -7.2914796    56.023636  0.026986337  0.028688204            5 
  174000   0.99469838   -7.2393583    56.410271  0.027016413  0.028622007            2 
  175000   0.98801876   -7.2900452    56.432699  0.026872714  0.028552381            1 
  176000   0.99224493   -7.2767148    56.549041  0.026775114  0.028482885            1 
  177000   0.98776928    -7.289185    56.668197  0.026679942  0.028410783            1 
  178000   0.96894415   -7.2759819    57.090819  0.026727912  0.028338418            1 
  179000   0.98736964   -7.2931597     56.88559  0.026483049  0.028264899            2 
  180000   0.98224471   -7.2793063     57.19758  0.026480361  0.028189556            2 
  181000    0.9662939    -7.296355    57.115516  0.026296278  0.028113912            3 
  182000   0.99095678   -7.2806034      57.6363  0.026390247  0.028038814            2 
  183000   0.99160725   -7.3019455    57.537629  0.026201106   0.02796556            1 
  184000   0.96364294   -7.2959602    57.964834  0.026252189   0.02789288            2 
  185000    0.9577645   -7.3195726    58.068012  0.026156762  0.027821221            3 
  186000   0.97957731   -7.3266048    58.411396   0.02616998  0.027749135            1 
  187000   0.97218798    -7.277068    58.779654  0.026194142   0.02768041            2 
  188000   0.93784238   -7.2872034    58.855044  0.026088229  0.027611698            2 
  189000   0.98189154   -7.2736453    58.884631  0.025963241  0.027540848            4 
  190000   0.97204691   -7.3031718    59.042838  0.025895981  0.027467879            3 
  191000    0.9601222   -7.2920922    59.414148  0.025922403  0.027395807            5 
  192000   0.95810764   -7.3133044     59.68963  0.025906958  0.027326995            2 
  193000   0.97172918   -7.3120679    59.775072  0.025809617  0.027256796            2 
  194000   0.98211775   -7.3149912    59.921326  0.025739401  0.027187537            3 
  195000   0.96664847   -7.3713447    59.867961  0.025584599  0.027116614            2 
  196000   0.93275878   -7.3348973    60.245056  0.025614395  0.027043938            2 
  197000   0.93884728   -7.3275414    60.391979  0.025546522  0.026972477            2 
  198000   0.95197802   -7.3347244    60.692926  0.025544161  0.026902819            1 
  199000    0.9528425   -7.2968318    61.133496  0.025600291  0.026833381            2 
  200000   0.95566457   -7.3672759    61.028782  0.025428659  0.026765616            4 
  201000   0.94545304   -7.3597698    61.128524  0.025343501  0.026695756            3 
  202000   0.93253056   -7.3707187    61.183348  0.025240655  0.026625773            2 
  203000   0.95066566   -7.3347968    61.401605  0.025205913  0.026555825            1 
  204000   0.96397702   -7.3653438    61.771558   0.02523348  0.026486645            2 
  205000   0.91802531   -7.3925568    61.658553  0.025064452  0.026417401            6 
  206000   0.93371843   -7.3681235    61.855943  0.025022631  0.026347774            1 
  207000   0.94556505   -7.3681731    61.962307  0.024944568   0.02627795            2 
  208000    0.9211908    -7.383355     62.04129  0.024856286  0.026206226            3 
  209000   0.93730609   -7.3813123    62.349377  0.024860198  0.026135126            2 
  210000   0.93321131   -7.3649524    62.513927  0.024807114  0.026065534            2 
  211000   0.92133413   -7.4187161    62.398356    0.0246439  0.025994574            3 
  212000   0.93785942   -7.4045578    62.946553  0.024743142  0.025925334            3 
  213000   0.92783255   -7.4253969    63.170238  0.024714491  0.025858264            2 
  214000   0.92146068    -7.415167    63.333511  0.024662582  0.025790674            4 
  215000   0.93516018   -7.3915494    63.446688   0.02459174  0.025722688            2 
  216000   0.89961929   -7.4423248    63.141776  0.024360253  0.025653432            2 
  217000   0.91471717   -7.3893708    63.709849  0.024466148  0.025584042            3 
  218000   0.91466545   -7.3859379    63.657059  0.024333738  0.025515962            1 
  219000   0.91302711   -7.4158029    63.951777   0.02433477   0.02544753            2 
  220000    0.9131018   -7.4464696    63.850432  0.024185769  0.025379081            2 
  221000   0.93021825    -7.444804      63.9581  0.024116931  0.025309003            1 
  222000   0.89842181   -7.4415856    63.977326  0.024015513  0.025238383            3 
  223000   0.91284069   -7.4321023    64.222656  0.023999498  0.025167502            2 
  224000   0.91442303   -7.4526289    64.164795  0.023870831   0.02509635            4 
  225000   0.91906931   -7.4555466    64.387994  0.023847405  0.025024754            3 
  226000   0.91512596   -7.4364266    64.345076   0.02372606  0.024953481            2 
  227000   0.90297917   -7.4300516    64.717107  0.023758116  0.024882484            3 
  228000   0.88624699   -7.4611479    64.711512  0.023651868  0.024811296            3 
  229000   0.90464946   -7.4461854    64.798796  0.023580348  0.024740727            4 
  230000   0.90761837    -7.427304    65.127201  0.023596812  0.024670737            4 
  231000   0.90443979   -7.4542102    65.259257  0.023542301  0.024601206            5 
  232000   0.90100283   -7.4963801    65.478945  0.023519736  0.024531547            3 
  233000   0.87740732   -7.5072632      65.3804  0.023383548  0.024461803            2 
  234000   0.89997347   -7.4659068    65.705743  0.023399481  0.024392876            1 
  235000   0.89619088   -7.4957617    65.979609  0.023397024   0.02432507            2 
  236000   0.89417426   -7.4901299    65.794283  0.023232445  0.024257831            3 
  237000   0.90749534   -7.5228929    66.130136  0.023252509  0.024190638            6 
  238000   0.89867001   -7.4715903    66.335875  0.023226847  0.024123928            3 
  239000   0.90179003   -7.4669951     66.72709   0.02326607  0.024058686            2 
  240000   0.88945933   -7.5214772    66.512415  0.023094588  0.023992023            2 
  241000   0.89189117   -7.5478427    66.418951  0.022966442  0.023925205            3 
  242000   0.87327566   -7.5043692    66.724192   0.02297665  0.023858165            3 
  243000   0.89392814   -7.5338668    66.743457  0.022888703  0.023791321            2 
  244000   0.87767484   -7.5311059    66.858997  0.022834357  0.023724524            4 
  245000   0.87656303   -7.5092164    66.989099  0.022785408  0.023657815            1 
  246000   0.85934079   -7.5394435    67.087222  0.022726024   0.02359073            3 
  247000   0.89299918   -7.5256965    67.330326  0.022716034  0.023524839            1 
  248000   0.85013125   -7.5660208    67.671149  0.022738961  0.023459348            3 
  249000   0.86698237   -7.5440779     67.86372  0.022712088  0.023395025            2 
  250000   0.85128025   -7.5505757    67.745224  0.022581741  0.023331398            2 
  251000   0.85651369   -7.5628356    67.763278  0.022497768   0.02326717            3 
  252000   0.84673265   -7.5397535    68.162598  0.022540542  0.023203822            1 
  253000   0.88572804   -7.5781335    68.207778   0.02246633  0.023140448            5 
  254000   0.87548646   -7.5371987    68.119651  0.022348967  0.023075959            3 
  255000   0.85696528   -7.5344846    68.307534  0.022322723  0.023011841            2 
  256000    0.8539995   -7.5521157    68.256923   0.02221905  0.022947661            4 
  257000   0.86446275   -7.5616797    68.252879  0.022131284  0.022883077            3 
  258000   0.86965997   -7.5596021    68.573168  0.022148956  0.022818947            5 
  259000   0.85057903   -7.5666128    68.518191   0.02204575  0.022753944            3 
  260000   0.84011976   -7.5499071     68.64455  0.022001458  0.022688794            3 
  261000   0.85655237   -7.6036042    68.868468  0.021988655  0.022624457            3 
  262000   0.85382991   -7.5820379    68.823937  0.021890565   0.02256039            1 
  263000   0.84456601   -7.6212573    68.881816   0.02182567  0.022496529            2 
  264000   0.86838147   -7.5930501    69.038762  0.021792538  0.022432749            2 
  265000   0.84903752   -7.6185127    68.971701  0.021689214  0.022368785            4 
  266000    0.8469729   -7.6001143     69.14887   0.02166318  0.022304754            2 
  267000   0.85065206   -7.6019051    69.302162  0.021629888  0.022240659            3 
  268000   0.85064395   -7.6015653      69.3156  0.021553358  0.022176987            2 
  269000   0.82806223   -7.6096957    69.508591  0.021533021  0.022113594            2 
  270000   0.83647144   -7.6374556    69.648888   0.02149657  0.022050955            3 
  271000   0.82757402   -7.6422205    69.806198   0.02146562    0.0219889            2 
  272000   0.82101994   -7.6175331    69.960622  0.021434014  0.021927176            2 
  273000   0.84193437   -7.6359529    69.899418  0.021336819  0.021865264            4 
  274000   0.83139872   -7.6465717    70.142726  0.021332946   0.02180392            4 
  275000   0.83009829   -7.6638251    70.066103  0.021232153  0.021741864            3 
  276000    0.8233412   -7.6392165    70.337171  0.021237068  0.021680185            2 
  277000   0.81327473    -7.643672    70.399075  0.021179024  0.021618875            3 
  278000   0.84430125   -7.6445067    70.427736  0.021111432  0.021557512            3 
  279000   0.80891848   -7.6285231    70.631115   0.02109651  0.021496334            1 
  280000   0.82372997   -7.6568621    70.601996  0.021012499  0.021435737            1 
  281000   0.80057257   -7.6296035    70.495891  0.020906255  0.021375119            3 
  282000   0.80409294   -7.6349169     70.57712  0.020856123  0.021314175            4 
  283000    0.8237294   -7.6222223    70.961349  0.020895568  0.021253244            4 
  284000   0.81748551   -7.6333719    70.687968  0.020741775  0.021192534            2 
  285000   0.81287744   -7.6703455    70.750007  0.020687136  0.021131261            5 
  286000   0.80925086   -7.6598361    70.754236  0.020616036  0.021070432            7 
  287000   0.82823849   -7.6866101    70.902357  0.020587212  0.021009629            3 
  288000   0.81817601   -7.6847218    70.949614  0.020529402   0.02094901            2 
  289000   0.80615036   -7.6646587     71.12419  0.020508705  0.020888471            3 
  290000   0.79865926   -7.7059036    71.109761  0.020433839  0.020827362            3 
  291000   0.79495165   -7.6830174    71.183903  0.020384852  0.020767038            1 
  292000   0.79659572    -7.671263    71.338614  0.020359193  0.020706998            1 
  293000    0.7998603   -7.7182979    71.400626  0.020307345  0.020647189            5 
  294000    0.7852573   -7.7111138    71.501611  0.020266896  0.020587284            4 
  295000   0.80559824   -7.7081016    71.594819  0.020224525  0.020527529            3 
  296000   0.80272536    -7.725649    71.491702  0.020127168  0.020467743            2 
  297000   0.80985782   -7.6990345    71.767015  0.020136648  0.020408937            3 
  298000   0.79729444   -7.7009696    71.822967  0.020084722  0.020350352            3 
  299000   0.79120536   -7.7344966    71.875634  0.020032228  0.020291878            3 
  300000   0.79416809   -7.7429731    71.832341  0.019953428  0.020232752            5 
  301000   0.77966417   -7.7427088    71.780928  0.019872904   0.02017387            3 
  302000   0.79800537   -7.7604071    71.819506  0.019817745  0.020114693            2 
  303000   0.78599295   -7.7454648    71.687266   0.01971597  0.020054905            5 
  304000   0.77275033    -7.738982    71.920952  0.019715173  0.019995034            2 
  305000   0.76318435   -7.7735785     71.94943  0.019658314  0.019935126            3 
  306000   0.78587301   -7.7583723    71.978804  0.019602071  0.019875219            1 
  307000    0.7883272   -7.7701107    71.925325  0.019523704  0.019815575            4 
  308000   0.78187219   -7.7711885    71.867622  0.019444703  0.019755514            3 
  309000   0.79175553   -7.7576954    72.138938  0.019454946  0.019695697            2 
  310000   0.77413046   -7.7534399     72.10959  0.019384298  0.019636431            3 
  311000   0.79927177   -7.8109939    71.995092  0.019291289  0.019577127            6 
  312000   0.74902559   -7.7937364    72.141148  0.019268469  0.019517949            2 
  313000   0.76605405    -7.758571    72.312425  0.019252509  0.019458999            3 
  314000   0.75226283   -7.7751125     72.32453  0.019194408  0.019400621            2 
  315000   0.76892057   -7.7881684    72.158224  0.019089477  0.019342016            6 
  316000   0.75640962   -7.7917032    72.316629  0.019070841  0.019283277            1 
  317000   0.76660516   -7.7877058    72.450594  0.019045897  0.019224535            3 
  318000   0.74423993   -7.8013099    72.377146  0.018966757  0.019165519            2 
  319000   0.75670158   -7.7967043    72.434375   0.01892225  0.019107257            5 
  320000   0.75074551   -7.8120005    72.526519  0.018887114  0.019049097            4 
  321000   0.76490367   -7.8104685    72.439947  0.018805801  0.018990923            2 
  322000   0.76402852   -7.8343293    72.554493  0.018777043  0.018932683            2 
  323000   0.73980418   -7.8313442    72.258051  0.018642428  0.018874335            2 
  324000   0.73599802    -7.849032    72.414738   0.01862519  0.018815772            2 
  325000   0.76060086   -7.8167516    72.515571  0.018593736  0.018757688            1 
  326000   0.75638804   -7.8152649    72.565402  0.018549438  0.018699556            3 
  327000   0.74031776   -7.8324679    72.270198  0.018417482  0.018641093            3 
  328000   0.73273051   -7.8451549    72.344305  0.018380159  0.018582678            2 
  329000   0.72703221   -7.8518468    72.526958  0.018370557  0.018524307            2 
  330000   0.74067805   -7.8541874    72.479815  0.018302984  0.018466032            3 
  331000    0.7392395   -7.8246674    72.756637  0.018317381  0.018408121            2 
  332000    0.7439883   -7.8406502    72.717196  0.018252308  0.018350701            2 
  333000   0.71788361   -7.8696371     72.54857  0.018155298  0.018293091            2 
  334000   0.74398998   -7.8529704    72.697632  0.018138132  0.018235685            4 
  335000   0.73504508   -7.8500557    72.696208  0.018083634  0.018178536            2 
  336000   0.72451336   -7.8739622    72.704311  0.018031823  0.018121248            2 
  337000   0.73365489   -7.8596471    72.753743   0.01799054  0.018063751            4 
  338000   0.74470204   -7.8546163    72.755923  0.017937851  0.018006507            2 
  339000   0.71979019   -7.8575112    72.766562  0.017887552   0.01794937            4 
  340000   0.72043459   -7.8617765    72.832047  0.017850992  0.017892447            4 
  341000   0.71824026   -7.8847193    72.751935  0.017779065  0.017835661            3 
  342000   0.72056224   -7.8711785    72.832999  0.017746832   0.01777923            4 
  343000   0.72496457    -7.855541    72.922137  0.017716749  0.017722987            5 
  344000   0.71450377   -7.8939258    73.013597  0.017687402  0.017667102            4 
  345000   0.73361574    -7.886449    73.117853  0.017661317  0.017611738            2 
  346000   0.71822961   -7.8818114    73.023226  0.017587482   0.01755639            3 
  347000   0.73069477   -7.8892543    73.092742  0.017553492  0.017501453            1 
  348000   0.70900898    -7.905994    73.033878  0.017488955  0.017446273            4 
  349000   0.70925905   -7.8990301    73.162434   0.01746954  0.017391153            2 
  350000   0.70111327   -7.8901382    73.032572  0.017388708   0.01733613            2 
  351000   0.70650969   -7.9627133    72.852759  0.017296477  0.017281021            3 
  352000   0.70568279   -7.9311445    73.220701  0.017334446   0.01722611            3 
  353000   0.70332792   -7.9596328    73.046553  0.017244229  0.017171626            3 
  354000   0.70942468   -7.9381244    73.237264   0.01724041  0.017117426            4 
  355000   0.69946611   -7.9658796     73.29623  0.017205688  0.017063551            2 
  356000   0.68553465   -7.9459492    73.265404  0.017150141  0.017009512            3 
  357000   0.70296083   -7.9829349    73.311586  0.017112882  0.016955528            2 
  358000   0.70301731    -7.985225     73.20601  0.017040505  0.016901632            2 
  359000   0.69955543   -7.9984419    73.099273  0.016968262  0.016847774            5 
  360000   0.69688949    -7.971466    73.152496  0.016933448  0.016794063            3 
  361000   0.69874759   -7.9743586    73.228388   0.01690406  0.016740409            4 
  362000    0.6910216   -7.9597753    73.273449  0.016867737  0.016687138            7 
  363000   0.69644244   -7.9664278    73.185677   0.01680112  0.016633999            3 
  364000   0.69397542   -7.9672614    73.071558  0.016728837  0.016580659            3 
  365000   0.68681407   -7.9755348    73.306617   0.01673667  0.016527432            3 
  366000   0.69046202   -8.0094334     73.22751   0.01667293    0.0164745            4 
  367000    0.6708637   -7.9864336    73.386767  0.016663662  0.016421792            3 
  368000   0.66641236    -7.965434    73.163978   0.01656793  0.016369284            2 
  369000   0.68132252   -8.0028973    73.234582  0.016538975  0.016316701            4 
  370000   0.67212751     -7.99402    73.232563   0.01649382  0.016264307            4 
  371000   0.68014905   -8.0177399    73.229272  0.016448623  0.016212028            4 
  372000    0.6854597   -7.9864213    73.260198  0.016411335  0.016159823            3 
  373000   0.67054254   -7.9845091    73.120756  0.016336183   0.01610777            7 
  374000   0.66049425   -8.0250369    73.207777  0.016311893  0.016055887            1 
  375000   0.67838174   -8.0114302    73.194522  0.016265449  0.016003833            2 
  376000     0.673308   -8.0218568    73.249555  0.016234387  0.015952164            2 
  377000   0.67562411   -8.0314674    73.386796  0.016221661   0.01590059            2 
  378000   0.66175222   -8.0294438    73.233254  0.016144897  0.015849172            4 
  379000    0.6621498   -8.0196977    73.308171  0.016118771   0.01579793            4 
  380000    0.6713158   -8.0324638    73.050711  0.016019893  0.015746687            5 
  381000     0.660157    -8.019098    73.053095  0.015978367  0.015695401            3 
  382000   0.64110905   -8.0488001    73.346112  0.016000461  0.015644385            4 
  383000   0.66010013    -8.062183    73.157268  0.015917595  0.015593601            8 
  384000   0.65292985   -8.0641637    73.305199  0.015908246  0.015542984            2 
  385000   0.64744294   -8.0311413    73.162655  0.015836072  0.015492701            4 
  386000   0.64966792    -8.036793    73.272965  0.015818861  0.015442618            2 
  387000   0.64676809   -8.0474365    73.313496  0.015786713  0.015392511            2 
  388000   0.64355703   -8.0678855     73.17912  0.015717165  0.015342536            4 
  389000    0.6463265   -8.0716733    73.212957   0.01568401  0.015292652            3 
  390000   0.63555015   -8.0581547    73.286531  0.015659515    0.0152428            4 
  391000   0.64134291   -8.0774599    73.165793  0.015593732   0.01519309            6 
  392000   0.63357214   -8.0815844    73.251381  0.015572147  0.015143551            4 
  393000   0.62910958   -8.0919928    73.286921  0.015540059  0.015094147            6 
  394000   0.63802436   -8.0734441    73.278376   0.01549881  0.015044916            8 
  395000   0.61302397   -8.0997727    73.194582  0.015441895    0.0149959            4 
  396000   0.63293379   -8.0979185     73.16736  0.015397172  0.014947255            3 
  397000   0.62136314   -8.0858184    73.123223  0.015349123  0.014898642            3 
  398000    0.6328937   -8.0979394    73.387345  0.015365859  0.014850174            6 
  399000   0.63376562   -8.0867165    73.131064  0.015273823   0.01480209            4 
  400000   0.63061975   -8.0879752    73.351779  0.015281621  0.014754194            2 
  401000   0.63472934   -8.0932632    73.340443  0.015241156  0.014706533            9 
  402000   0.62293527   -8.0982475    73.352399  0.015205721  0.014658885            4 
  403000   0.62911311   -8.1087505    73.251699  0.015147167  0.014611515            4 
  404000   0.63758008   -8.1029823     73.32303  0.015124387  0.014564154            5 
  405000    0.6150667   -8.1158332    73.244479   0.01507088  0.014516977            5 
  406000   0.61242734   -8.1223697    73.282219  0.015041506  0.014469922            3 
  407000    0.6274863   -8.1238433    73.369088  0.015022336  0.014423056            4 
  408000   0.61265978   -8.1085097    73.319592  0.014975407  0.014376317            7 
  409000    0.6196551   -8.1523793     73.31914    0.0149387  0.014329586            5 
  410000   0.60026506   -8.1392572    73.304008  0.014899189  0.014283024            3 
  411000   0.60967787    -8.135326    73.188433  0.014839504  0.014236549            5 
  412000   0.61758111   -8.1359792     73.31203  0.014828485  0.014190256            4 
  413000   0.62093049   -8.1283234    73.270595   0.01478422  0.014144073            3 
  414000   0.61092053   -8.1496427    73.083533  0.014710856  0.014098168            2 
  415000   0.61247036   -8.1397254    73.258297  0.014710501   0.01405248            5 
  416000   0.59907089   -8.1336658    73.185252  0.014660507  0.014006919            3 
  417000   0.59109787    -8.159812    73.293291  0.014646941  0.013961441            3 
  418000   0.61015922    -8.149502    73.110763  0.014575511   0.01391602            2 
  419000   0.59366695   -8.1633303     73.36103  0.014590499  0.013870783            6 
  420000   0.59032824   -8.1608561    73.292788   0.01454222  0.013825903            2 
  421000      0.59101   -8.1711939    73.311299  0.014511342  0.013781035            5 
  422000   0.58534589   -8.1931993    73.274654  0.014469718  0.013736314            3 
  423000   0.60038331   -8.1757278    73.286265  0.014437798  0.013691618            4 
  424000   0.59421654   -8.1829763    73.231855  0.014393053  0.013647156            2 
  425000   0.58325236   -8.1894839    73.202641  0.014353459  0.013602846            4 
  426000   0.58685426   -8.1880588    73.233353  0.014325773  0.013558592            3 
  427000   0.58978364   -8.1468755    73.105703  0.014267311  0.013514553            3 
  428000   0.58419608   -8.1930336    73.220099   0.01425625  0.013470565            2 
  429000   0.58408448    -8.203831     73.20601  0.014220282  0.013426711            2 
  430000   0.57511432   -8.2059373    73.124023  0.014171322  0.013383024            2 
  431000    0.5817558   -8.2046776    73.138727  0.014141285  0.013339464            2 
  432000   0.58085468   -8.2209185    73.182006  0.014116899  0.013296128            4 
  433000   0.57620784   -8.1931777    73.164866  0.014080998  0.013252906            1 
  434000   0.57259948   -8.2200892    73.128625  0.014041595  0.013209903            2 
  435000   0.58485211   -8.2411609    73.166468  0.014016565  0.013167072            3 
  436000   0.57648446   -8.2356928    73.063364   0.01396471  0.013124397            3 
  437000   0.57413053   -8.2126328    73.060351   0.01393218  0.013081773            2 
  438000    0.5720678   -8.2232944    73.147271  0.013916908  0.013039328            3 
  439000   0.56971338   -8.2257504    73.032305  0.013863384  0.012997068            2 
  440000   0.55340966   -8.2573409    73.136381  0.013851587  0.012954907            2 
  441000   0.57362405   -8.2315325    73.256491  0.013842874  0.012912931            3 
  442000   0.57055255   -8.2452412    72.973318  0.013758167  0.012871098            4 
  443000   0.56059609   -8.2236671    73.149189  0.013760194  0.012829396            3 
  444000   0.56543016   -8.2558372    73.091136  0.013718306  0.012787796            2 
  445000   0.56204032   -8.2851498    72.998003  0.013670038   0.01274638            2 
  446000   0.54217653   -8.2479075    73.109624  0.013660244  0.012705015            2 
  447000   0.56718927   -8.2703955    73.090452   0.01362611  0.012663867            2 
  448000   0.55353365    -8.277827    73.088046  0.013595247  0.012622796            3 
  449000   0.55440914   -8.2800968    73.009209  0.013550336  0.012581807            9 
  450000   0.54647618   -8.2740369    73.037322   0.01352543  0.012540909            3 
  451000   0.55368644    -8.268588    72.856801  0.013462084  0.012500167            4 
  452000   0.53777704   -8.2648752    72.923857  0.013444664  0.012459555            3 
  453000   0.54271888   -8.2660857    73.007236  0.013430323  0.012419136            3 
  454000   0.54869425   -8.2648022    72.817077  0.013365836   0.01237876            4 
  455000    0.5532048   -8.2797667    73.024861  0.013374517  0.012338632            2 
  456000   0.53712245   -8.2759415     72.88236  0.013319145  0.012298633            3 
  457000   0.53564264   -8.2888284    72.819416  0.013278522  0.012258784            3 
  458000   0.53543615   -8.3023088     72.88627  0.013261694  0.012219084            4 
  459000    0.5162562    -8.282315    72.748437  0.013207777  0.012179507            3 
  460000   0.52955739   -8.3149256    72.811955  0.013190572   0.01214006            4 
  461000   0.53597625   -8.3257375    72.764295  0.013153343  0.012100741            6 
  462000   0.53563471   -8.2968107    72.812893  0.013133639  0.012061579            4 
  463000   0.53422971   -8.2923189    72.851626  0.013112244  0.012022539            8 
  464000   0.53155286   -8.3134974    72.940066  0.013099868  0.011983683            4 
  465000   0.52338333   -8.3083755    72.753026  0.013038177  0.011944963            3 
  466000   0.53672419   -8.3323286     72.86718  0.013030611  0.011906543            4 
  467000   0.52557872   -8.3159902    72.773823   0.01298605  0.011868146            3 
  468000   0.52454958   -8.3049686    72.748333  0.012953763  0.011829844            4 
  469000    0.5288279   -8.3172454    72.802078  0.012935693  0.011791787            3 
  470000   0.52845334   -8.3274495    72.829854  0.012913095  0.011753837            2 
  471000   0.51152838   -8.3444677    72.780527  0.012876951  0.011716002            3 
  472000   0.51541836   -8.3334248    72.844554  0.012860974   0.01167843            2 
  473000    0.5180719   -8.3273554    72.782691  0.012822884  0.011640914            4 
  474000   0.51483765   -8.3431967    72.777873  0.012794985  0.011603528            2 
  475000   0.50957037   -8.3478652    72.791877  0.012770505  0.011566326            4 
  476000   0.51031889   -8.3345862    72.863116  0.012756148  0.011529247            2 
  477000   0.51162614   -8.3275103    72.799074  0.012718217  0.011492283            3 
  478000   0.50815427   -8.3514793    72.749876  0.012683033  0.011455486            3 
  479000   0.49818918    -8.362632    72.774356  0.012660813  0.011418867            4 
  480000   0.50473399    -8.358747    72.801271  0.012639109  0.011382334            3 
  481000   0.50915584   -8.3473792    72.708505  0.012596761  0.011345939            3 
  482000    0.5099294   -8.3547095    72.716496  0.012572008  0.011309664            2 
  483000   0.50478719   -8.3655113    72.809754  0.012562069  0.011273501            4 
  484000   0.50018381   -8.3698605    72.760903  0.012527704   0.01123748            3 
  485000   0.49967199   -8.3659098    72.686577  0.012489103  0.011201539            4 
  486000   0.49797999   -8.3683553    72.705724  0.012466688  0.011165745            2 
  487000   0.49706127   -8.3826144    72.592187  0.012421661  0.011130105            2 
  488000   0.49295231   -8.3809449    72.646045  0.012405404  0.011094538            3 
  489000   0.48922061   -8.3894987    72.580316  0.012368834  0.011059111            5 
  490000   0.48012647   -8.3851009    72.550153  0.012338461  0.011023825            3 
  491000   0.49375189   -8.3909815    72.536312  0.012310983  0.010988614            3 
  492000   0.48950858   -8.3765685    72.532897  0.012285382  0.010953578            3 
  493000   0.47521144   -8.4132446    72.603717  0.012272434  0.010918617            3 
  494000   0.48658355   -8.4118937    72.569997  0.012241902  0.010883795            4 
  495000   0.48172901   -8.4081409    72.636176  0.012228312  0.010849155            3 
  496000   0.48145826    -8.392968    72.437476  0.012170275  0.010814628            2 
  497000   0.47075539   -8.4103218    72.533985  0.012161969  0.010780191            3 
  498000   0.45915184   -8.3950594    72.489615  0.012130123  0.010745933            4 
  499000   0.47671419   -8.4151806    72.558423  0.012117305  0.010711773            3 
  500000   0.46801194   -8.4215125    72.421804  0.012070301  0.010677771            4 
  501000   0.46823662   -8.4049686    72.462374  0.012052956  0.010643889            2 
  502000    0.4668907   -8.4141216     72.51844  0.012038254  0.010610126            2 
  503000   0.46875396   -8.4050182    72.272694  0.011973607  0.010576465            3 
  504000   0.45770936   -8.4221944    72.284579  0.011951815  0.010542949            3 
  505000   0.44826203   -8.4123443    72.441398  0.011954026  0.010509572            4 
  506000   0.46395181   -8.4163513    72.528792  0.011944794  0.010476316            4 
  507000   0.46284256   -8.4142202    72.300177  0.011883658   0.01044317            3 
  508000   0.46016325   -8.4215735    72.387561    0.0118746  0.010410117            4 
  509000   0.45937682   -8.4280507    72.326113   0.01184121  0.010377236            3 
  510000   0.44991074   -8.4365851     72.53786  0.011852591  0.010344423            3 
  511000   0.45599474   -8.4312454    72.398734  0.011806708  0.010311847            4 
  512000   0.45431491   -8.4466307    72.335254  0.011773316  0.010279337            4 
Loop time of 1172.19 on 48 procs for 500000 steps with 4000 atoms

Performance: 73708.303 tau/day, 426.553 timesteps/s
99.4% CPU use with 48 MPI tasks x no OpenMP threads

MPI task timing breakdown:
Section |  min time  |  avg time  |  max time  |%varavg| %total
---------------------------------------------------------------
Pair    | 68.84      | 77.059     | 83.043     |  37.6 |  6.57
Neigh   | 7.667      | 8.0222     | 8.3452     |   6.3 |  0.68
Comm    | 74.037     | 79.866     | 90.085     |  42.4 |  6.81
Output  | 0.84952    | 0.84998    | 0.85857    |   0.1 |  0.07
Modify  | 991.75     | 995.84     | 999.82     |   5.1 | 84.96
Other   |            | 10.55      |            |       |  0.90

Nlocal:        83.3333 ave          93 max          78 min
Histogram: 11 3 11 1 9 1 7 0 3 2
Nghost:        1996.00 ave        2018 max        1967 min
Histogram: 3 1 4 3 6 8 10 4 5 4
Neighs:        12777.6 ave       14740 max       11422 min
Histogram: 5 6 7 7 7 6 5 1 2 2
FullNghs:      25553.9 ave       28618 max       23568 min
Histogram: 9 6 5 8 4 5 2 4 2 3

Total # of neighbors = 1226586
Ave neighs/atom = 306.64650
Neighbor list builds = 26812
Dangerous builds = 0

#clear
#
#next RN
#
#jump SELF
Total wall time: 0:19:35
