
units lj                  # Use reduced LJ style units
atom_style atomic         # Uncharged point particles
atom_modify map hash      # Needed for indexing of clusters etc
                          # Used to be able to find where atoms are in relation to each other.

lattice fcc 1.0 spacing 1 1 1
Lattice spacing in x,y,z = 1.5874011 1.5874011 1.5874011
region box block 0 10 0 10 0 10 units lattice
create_box 2 box
Created orthogonal box = (0.0000000 0.0000000 0.0000000) to (15.874011 15.874011 15.874011)
  3 by 4 by 4 MPI processor grid
create_atoms 1 box
Created 4000 atoms
  using lattice units in orthogonal box = (0.0000000 0.0000000 0.0000000) to (15.874011 15.874011 15.874011)
  create_atoms CPU = 0.002 seconds
set type 1 type/fraction 2 0.21 78393
Setting atom values ...
  872 settings made for type/fraction
mass 1 1.0
mass 2 1.0
pair_style lj/cut  3.5
pair_modify tail  yes
pair_coeff 1  1  1.0  1.0   # Intearaction between 1 and 1 set with epsilon = 1 and sigma = 1
pair_coeff 1  2  1.5  0.8
pair_coeff 2  2  0.5  0.88

write_data data.0
System init for write_data ...
Neighbor list info ...
  update every 1 steps, delay 10 steps, check yes
  max neighbors/atom: 2000, page size: 100000
  master list distance cutoff = 3.8
  ghost atom cutoff = 3.8
  binsize = 1.9, bins = 9 9 9
  1 neighbor lists, perpetual/occasional/extra = 1 0 0
  (1) pair lj/cut, perpetual
      attributes: half, newton on
      pair build: half/bin/atomonly/newton
      stencil: half/bin/3d
      bin: standard
WARNING: Not all mixed pair coeffs generated from mixing. Use write_data with 'pair ij' option to store all pair coeffs. (../write_data.cpp:312)


#############################
#   M E L T   S Y S T E M   #
#############################

velocity all create 2.4 3143649 mom yes dist gaussian # Assign velocities
                                                    # Temperature 2.4, random number seed, zero linear momentum
                                                                                # Gaussian distribution

timestep 0.002   # simulation timestep
thermo 1000       # output thermodynamic data every 1000 steps bf 100

# Define a fix  in this case with index 1 applied to all
# particles in the simulation. This fix is for simulations
# in the anisotropic NPT ensemble. Note that we use the MTK
# correction.
fix 1 all npt temp 2.4 2.4 0.1 iso 5.68 5.68 0.5 mtk yes tchain 5 pchain 5 # Use NPT ensemble
                                                                         # Set temperature and pressure and damping
                                                                         # Numbers of thermostats in chain and in barostat
run 10000          # run for 10000 steps
Per MPI rank memory allocation (min/avg/max) = 3.642 | 3.644 | 3.648 Mbytes
Step Temp E_pair E_mol TotEng Press Volume 
       0          2.4   -6.9803555            0   -3.3812555   -3.6586826         4000 
    1000    2.3948368   -4.8589255            0   -1.2675683    5.7875505     4421.972 
    2000    2.3590701   -4.8821531            0   -1.3444326    5.2223237    4474.1665 
    3000    2.3945177   -4.8747009            0   -1.2838222     5.747235    4414.6535 
    4000    2.3945093   -4.8309286            0   -1.2400627    5.7827764    4438.2085 
    5000    2.4220664   -4.8711542            0   -1.2389629     5.491146    4452.3216 
    6000    2.4272443   -4.8825367            0   -1.2425804    5.8767353    4400.2745 
    7000    2.3920542   -4.8613505            0   -1.2741663    5.6028058     4450.075 
    8000    2.3955574   -4.8383954            0   -1.2459576     5.553776    4462.3075 
    9000    2.4032221   -4.8758627            0   -1.2719308    5.5370159    4444.4965 
   10000    2.4095378    -4.876612            0   -1.2632088    5.6914035    4430.5983 
Loop time of 2.32461 on 48 procs for 10000 steps with 4000 atoms

Performance: 743351.377 tau/day, 4301.802 timesteps/s
99.7% CPU use with 48 MPI tasks x no OpenMP threads

MPI task timing breakdown:
Section |  min time  |  avg time  |  max time  |%varavg| %total
---------------------------------------------------------------
Pair    | 0.9817     | 1.0431     | 1.1404     |   3.4 | 44.87
Neigh   | 0.19562    | 0.20625    | 0.2333     |   1.3 |  8.87
Comm    | 0.7117     | 0.80629    | 0.89159    |   4.5 | 34.69
Output  | 0.00024039 | 0.00024748 | 0.00030227 |   0.0 |  0.01
Modify  | 0.21961    | 0.25396    | 0.29241    |   3.7 | 10.92
Other   |            | 0.01476    |            |       |  0.63

Nlocal:        83.3333 ave          91 max          75 min
Histogram: 1 6 2 7 4 8 9 3 4 4
Nghost:        1536.33 ave        1565 max        1503 min
Histogram: 1 3 4 7 4 10 8 4 2 5
Neighs:        8610.79 ave        9571 max        7403 min
Histogram: 1 2 5 5 5 11 5 4 5 5

Total # of neighbors = 413318
Ave neighs/atom = 103.32950
Neighbor list builds = 908
Dangerous builds = 233

# Equilibrate just above the melting temperature to avoid step fn in T

fix 1 all npt temp 1.25 1.25 0.1 iso 5.68 5.68 0.5 mtk yes tchain 5 pchain 5
run 2000
Per MPI rank memory allocation (min/avg/max) = 3.643 | 3.645 | 3.649 Mbytes
Step Temp E_pair E_mol TotEng Press Volume 
   10000    2.4095378    -4.876612            0   -1.2632088    5.6914035    4430.5983 
   11000    1.2540953   -6.6029061            0   -4.7222333    5.6586413    3608.9426 
   12000      1.28202   -6.5997043            0   -4.6771551    5.6287172    3612.6444 
Loop time of 0.514673 on 48 procs for 2000 steps with 4000 atoms

Performance: 671494.839 tau/day, 3885.966 timesteps/s
99.7% CPU use with 48 MPI tasks x no OpenMP threads

MPI task timing breakdown:
Section |  min time  |  avg time  |  max time  |%varavg| %total
---------------------------------------------------------------
Pair    | 0.23275    | 0.25071    | 0.29172    |   2.0 | 48.71
Neigh   | 0.033333   | 0.035266   | 0.040848   |   0.7 |  6.85
Comm    | 0.13205    | 0.17466    | 0.19951    |   2.6 | 33.94
Output  | 5.3628e-05 | 5.4934e-05 | 6.6663e-05 |   0.0 |  0.01
Modify  | 0.041686   | 0.049015   | 0.056268   |   2.1 |  9.52
Other   |            | 0.004964   |            |       |  0.96

Nlocal:        83.3333 ave          91 max          74 min
Histogram: 1 4 4 4 7 8 3 9 6 2
Nghost:        1758.98 ave        1791 max        1727 min
Histogram: 4 4 3 2 8 8 10 5 2 2
Neighs:        10582.3 ave       12026 max        9540 min
Histogram: 5 1 9 9 7 7 5 2 2 1

Total # of neighbors = 507949
Ave neighs/atom = 126.98725
Neighbor list builds = 143
Dangerous builds = 10

#############################
# L I N E A R  Q U E N C H  #
#############################

# Define solid atoms. This closely follows ten Wolde  Ruiz-Montero and Frenkel  Faraday Discuss  1996  104  93-110
# Compute components of the per-atom q6 vector
compute q6 all orientorder/atom degrees 1 6 components 6 nnn NULL cutoff 1.3 # compute the Q6 parameter.
                                                                             # Use all neighbours within 1.3 unit cell.

# get number of connections
compute coord_number all coord/atom orientorder q6 0.5

# An atom is solid if it has 8 or more connections (of a possible 14)
variable is_solid atom c_coord_number>=8
group solid dynamic all var is_solid    # Must be dynamic to update
dynamic group solid defined

# do clustering
compute cluster solid cluster/atom 1.3 # Create a cluster where all atoms within are solid and max 1.3 units from another member

# define chunks one chunk per cluster
compute clus_chunks solid chunk/atom c_cluster nchunk every compress yes  # Says which atoms are in which chunk

# count the size of each chunk
compute size_chunks solid property/chunk clus_chunks count


# Find the maximum entry in the vector of chunk sizes
variable max_n equal max(c_size_chunks)


# Thermo style which includes this variable
# thermo_style custom step temp pe vol v_max_n

thermo ${N}  # Print the thermo information every 100 steps
thermo 1000  

# Reset the npt fix at a lower temperature (below freezing)
fix 1  all npt temp  ${temp} ${temp}  0.1  iso  5.68  5.68  0.5  mtk yes tchain  5  pchain  5
fix 1  all npt temp  0.45 ${temp}  0.1  iso  5.68  5.68  0.5  mtk yes tchain  5  pchain  5
fix 1  all npt temp  0.45 0.45  0.1  iso  5.68  5.68  0.5  mtk yes tchain  5  pchain  5

dump dmp2 all dcd ${N} traj.dcd
dump dmp2 all dcd 1000 traj.dcd


compute msd all msd com yes
variable twopoint equal c_msd[4]/6/(step*dt+1.0e-6)
fix 9 all vector 10 c_msd[4]
variable fit equal slope(f_9)/6/(10*dt)
thermo_style custom step temp pe c_msd[4] v_twopoint v_fit v_max_n

fix 1 all npt temp 1.25 ${temp} 0.1 iso 5.68 5.68 0.5 mtk yes tchain 5 pchain 5
fix 1 all npt temp 1.25 0.45 0.1 iso 5.68 5.68 0.5 mtk yes tchain 5 pchain 5
run 5000000 # 5000000  # Run for this many steps
Neighbor list info ...
  update every 1 steps, delay 10 steps, check yes
  max neighbors/atom: 2000, page size: 100000
  master list distance cutoff = 3.8
  ghost atom cutoff = 3.8
  binsize = 1.9, bins = 9 9 9
  4 neighbor lists, perpetual/occasional/extra = 1 3 0
  (1) pair lj/cut, perpetual
      attributes: half, newton on
      pair build: half/bin/atomonly/newton
      stencil: half/bin/3d
      bin: standard
  (2) compute orientorder/atom, occasional
      attributes: full, newton on
      pair build: full/bin/atomonly
      stencil: full/bin/3d
      bin: standard
  (3) compute coord/atom, occasional
      attributes: full, newton on
      pair build: full/bin/atomonly
      stencil: full/bin/3d
      bin: standard
  (4) compute cluster/atom, occasional
      attributes: full, newton on
      pair build: full/bin/atomonly
      stencil: full/bin/3d
      bin: standard
Per MPI rank memory allocation (min/avg/max) = 9.774 | 9.782 | 9.789 Mbytes
Step Temp PotEng c_msd[4] v_twopoint v_fit v_max_n 
   12000      1.28202   -6.5997043 1.0038255e-30 6.9710101e-33 8.3333333e+20            2 
   13000    1.2590195   -6.6188108   0.50998853 0.0032691571  0.041698964            1 
   14000     1.237265   -6.6310946    1.0450314 0.0062204245    0.0437495            1 
   15000    1.2357144   -6.5348991    1.6202934   0.00900163  0.044145892            2 
   16000    1.2232634   -6.5995846    2.1485758  0.011190499  0.044825085            2 
   17000    1.2808149   -6.5929548    2.6734383  0.013105089  0.044653633            2 
   18000    1.2447552   -6.5851468    3.2223037  0.014918072  0.044885459            1 
   19000    1.2673355   -6.6241703    3.7065405  0.016256756  0.044670062            2 
   20000    1.2486405   -6.5814336    4.2322071  0.017634196  0.044403202            3 
   21000    1.2435076    -6.621077    4.6671618  0.018520483   0.04399063            1 
   22000    1.2395873   -6.6145944    5.1811636  0.019625619  0.043488913            1 
   23000     1.253818   -6.5887885    5.6985603  0.020646957  0.043217644            1 
   24000    1.2612645   -6.5817018    6.2293404  0.021629654  0.043095425            2 
   25000     1.252782     -6.60229    6.7384071  0.022461357  0.042974175            1 
   26000    1.2478495   -6.5931921    7.2629582  0.023278712  0.042892306            1 
   27000    1.2276246   -6.5871015    7.7833372  0.024022645  0.042922261            3 
   28000    1.2524567   -6.6074143     8.377822  0.024933994  0.042928131            1 
   29000    1.2404966   -6.5815811    8.9437233  0.025700354  0.043077534            1 
   30000    1.2399178   -6.6002037    9.3990641  0.026108511  0.043201745            2 
   31000    1.2400737   -6.6100813    9.8327107  0.026432018   0.04317996            2 
   32000    1.2396542   -6.5610867    10.352059  0.026958487  0.043097504            2 
   33000    1.2628723   -6.6224779     10.82115  0.027326136  0.043051887            1 
   34000    1.2644439   -6.6175292    11.326597  0.027761267   0.04298118            2 
   35000    1.2179811   -6.5805647    11.783436  0.028055799  0.042894311            2 
   36000    1.2643373   -6.6255921    12.371774  0.028638366  0.042811857            1 
   37000    1.2675644    -6.621094    13.005873  0.029292507  0.042827245            3 
   38000    1.2321045    -6.633729    13.568624  0.029755755  0.042914586            1 
   39000    1.2666091   -6.5973087    14.041343   0.03000287  0.042989515            1 
   40000    1.2387259     -6.55019    14.561472    0.0303364   0.04303496            1 
   41000    1.2258695   -6.6076752    15.024227  0.030537046   0.04302124            2 
   42000    1.2503672   -6.6187432    15.475843  0.030706037  0.043003548            1 
   43000    1.2486716   -6.6301625    15.907878  0.030829221  0.042959419            1 
   44000    1.2509567   -6.6494481    16.450403  0.031156066  0.042906433            2 
   45000    1.2590706   -6.6148611    17.115373  0.031695134  0.042902892            5 
   46000    1.2297244   -6.6194757    17.626032  0.031931216  0.042912016            1 
   47000    1.2253505   -6.5986408    18.128186  0.032142174  0.042915437            3 
   48000    1.2555672   -6.5625668    18.648843  0.032376463  0.042920258            1 
   49000    1.2620143   -6.5656762    19.096822  0.032477589  0.042906046            3 
   50000    1.2459848   -6.5575665    19.738161  0.032896935   0.04291584            5 
   51000    1.2275434    -6.622367    20.312844  0.033190922  0.042969168            2 
   52000    1.2485451   -6.6367973    20.823537  0.033371052  0.043022449            2 
   53000    1.2656804   -6.6252444    21.342796  0.033557855  0.043060433            2 
   54000    1.2354916   -6.6058683    21.854661  0.033726328   0.04309452            1 
   55000    1.2322351   -6.5937556     22.46097  0.034031772  0.043121127            1 
   56000    1.2484349   -6.6425589     22.71389  0.033800431  0.043143273            1 
   57000    1.2340421   -6.5633723    23.323926  0.034099307  0.043136806            1 
   58000    1.2521705   -6.6244548     23.52867  0.033805561  0.043093774            2 
   59000     1.236292   -6.6232936    24.196467    0.0341758  0.043050411            2 
   60000    1.2384558   -6.5805501    24.759709  0.034388484  0.043027103            2 
   61000    1.2488973   -6.6121996    25.148565  0.034355963  0.043006689            2 
   62000    1.2455848   -6.5914724    25.672795  0.034506444  0.042972563            2 
   63000     1.244602   -6.6162607    26.137835  0.034573855  0.042922421            1 
   64000     1.256681   -6.6445483    26.568731  0.034594701  0.042878015            2 
   65000    1.2561804    -6.642263    27.046284  0.034674723  0.042841864            1 
   66000    1.2240194   -6.6024019    27.768377  0.035061082  0.042809592            3 
   67000    1.2078444   -6.6290509    28.158801  0.035023384  0.042791003            1 
   68000    1.2357676   -6.6184657    28.800743  0.035295029  0.042769294            1 
   69000    1.2330475   -6.6015612    29.226535  0.035297748  0.042754255            3 
   70000    1.1986952   -6.5830754    29.750816  0.035417638  0.042737147            1 
   71000    1.2527852   -6.5881681    30.157094   0.03539565  0.042716813            2 
   72000    1.2098483   -6.5893904    30.826413  0.035678718  0.042693112            1 
   73000    1.2319913   -6.5809977    31.239015  0.035660976  0.042673085            2 
   74000    1.2204021   -6.6150831    31.763898  0.035770155  0.042654779            2 
   75000     1.256226   -6.6038548    32.542661  0.036158512  0.042653741            3 
   76000    1.2181986   -6.5759122    33.049615  0.036238612  0.042672133            2 
   77000    1.2438499   -6.6340964     33.42965  0.036179274  0.042682196            2 
   78000     1.241262   -6.6011905    34.006152  0.036331358  0.042691956            3 
   79000     1.231436   -6.6448964    34.337764  0.036221269  0.042692213            2 
   80000    1.2226456   -6.6132389    34.878877  0.036332163  0.042681508            2 
   81000    1.2479473   -6.6543318    35.264336  0.036280181  0.042672729            1 
   82000     1.248441   -6.6439887    35.888799  0.036472357  0.042663975            4 
   83000    1.2204101   -6.6256011    36.358482    0.0365045  0.042655835            2 
   84000    1.2520377   -6.6407814    36.964402  0.036671033  0.042658431            6 
   85000    1.2274333   -6.5945144    37.574368  0.036837615  0.042669208            2 
   86000    1.2398719   -6.6318649    38.206887  0.037022177  0.042686166            2 
   87000    1.2268144   -6.6295109    38.497647  0.036875141  0.042698855            1 
   88000    1.2038006   -6.6384759    39.042294  0.036971869  0.042699446            1 
   89000    1.2470114   -6.6092203    39.467035  0.036954152  0.042694524            1 
   90000    1.2477295   -6.6142212    40.045303  0.037078984  0.042688081            2 
   91000     1.234198    -6.603922    40.218095  0.036829757  0.042671895            2 
   92000    1.2119976   -6.6475576    40.506214  0.036690411  0.042637605            1 
   93000    1.2650186   -6.6193078    40.957387  0.036700168  0.042595377            1 
   94000    1.2398112   -6.6130019    41.880311  0.037127935  0.042562528            1 
   95000    1.2597632   -6.6095897    42.366056  0.037163207   0.04254104            3 
   96000    1.2354152   -6.6207893    42.685361  0.037053265  0.042521232            4 
   97000    1.2461207   -6.6508361    43.137903  0.037060054  0.042493687            3 
   98000    1.2215259   -6.6024996    43.611619   0.03708471   0.04246829            1 
   99000    1.2530626   -6.5998766    43.944857   0.03699062  0.042429914            1 
  100000    1.2579535   -6.6439525    44.540358  0.037116965  0.042396218            2 
  101000    1.2387974   -6.6358192    44.989251  0.037119843  0.042367552            4 
  102000    1.2281534   -6.6366932     45.48856  0.037163856  0.042333582            1 
  103000     1.226976   -6.6306118    45.798397  0.037053719  0.042299114            1 
  104000     1.247256    -6.605046    46.296001  0.037096154  0.042263651            2 
  105000    1.2421486   -6.5951122    46.738207  0.037093815  0.042230825            2 
  106000     1.224598   -6.6160606    47.330978  0.037209888  0.042198523            1 
  107000    1.2184483   -6.6045827    47.739343  0.037180173  0.042163299            2 
  108000    1.2334017   -6.5900176     48.00337  0.037039637  0.042125549            4 
  109000    1.2524849   -6.6287513    48.852433  0.037348955  0.042093792            2 
  110000    1.2487073    -6.589995    49.507494  0.037505677  0.042071962            2 
  111000    1.2403784   -6.6304299    49.836579  0.037414849  0.042055627            2 
  112000    1.2200858   -6.6336953    49.959807  0.037172476  0.042025994            2 
  113000     1.239653   -6.6638593    50.591051  0.037309034   0.04199146            2 
  114000    1.2276032   -6.6427937    51.282757  0.037487396  0.041964817            3 
  115000    1.2215426   -6.6600042    51.692453  0.037458299  0.041941412            1 
  116000    1.2463069   -6.6580371    51.978655  0.037340987  0.041912043            1 
  117000    1.2217139   -6.5741267    52.547272  0.037426832  0.041881823            2 
  118000    1.2414816   -6.5823446    53.297826  0.037639708  0.041858867            2 
  119000    1.2369295   -6.6372157    53.777628  0.037659403  0.041840702            5 
  120000    1.2281284   -6.6393167    54.216728  0.037650505  0.041828865            2 
  121000    1.2230985   -6.6152255    54.884716  0.037799391   0.04181212            1 
  122000    1.2253972   -6.6584443    55.461688  0.037883666   0.04180527            2 
  123000     1.252802   -6.6338899    55.855472   0.03784246  0.041792137            4 
  124000    1.2138396    -6.612367    56.409703  0.037909747  0.041787008            2 
  125000    1.2582038   -6.6429042    57.012629  0.038008419  0.041778323            1 
  126000    1.2332395   -6.6082205    57.493912  0.038025074  0.041772652            1 
  127000    1.2297538   -6.5919764    57.912441  0.038000289  0.041763373            2 
  128000    1.2252026    -6.612845    58.317869  0.037967362  0.041748237            1 
  129000    1.2261137   -6.6078711    58.769363  0.037964705  0.041733341            4 
  130000      1.23776   -6.6139978    59.049406  0.037852183  0.041714499            3 
  131000    1.2456058    -6.646977    59.545483  0.037878806  0.041694265            5 
  132000    1.2530538   -6.6396411    60.340443  0.038093714  0.041682213            3 
  133000     1.239033   -6.6079568    61.073134  0.038266375  0.041676964            1 
  134000    1.2184059   -6.6413367     61.36882  0.038164689  0.041677989            2 
  135000    1.2495281   -6.6495421    61.699357  0.038086023  0.041673424            1 
  136000    1.2214831    -6.698264    62.339676  0.038198331  0.041668939            4 
  137000    1.2264368   -6.5404204    62.842531  0.038225383  0.041666048            1 
  138000    1.2129668    -6.619062    63.450586  0.038315571  0.041662046            1 
  139000     1.232304    -6.654781    63.682375  0.038178882  0.041654863            2 
  140000    1.2320957   -6.6049598    64.325464  0.038288966  0.041650538            2 
  141000    1.2540639   -6.6615711    64.772506  0.038281623  0.041647976            3 
  142000    1.2228929   -6.6334148    65.469861   0.03842128  0.041648941            2 
  143000    1.2411206    -6.650978    65.882082  0.038392821  0.041651341            1 
  144000    1.2237602   -6.6190603    66.145091  0.038278409  0.041647439            3 
  145000    1.2432111   -6.6167165    67.066111  0.038543742   0.04164452            2 
  146000    1.2224246   -6.6475361    67.430911  0.038487963  0.041641837            1 
  147000    1.2307995   -6.6213258    68.053626  0.038579153  0.041642992            1 
  148000    1.2304764   -6.6540469    68.748717  0.038709863    0.0416467            1 
  149000    1.2120121   -6.6780032    69.218498  0.038712806  0.041652535            1 
  150000    1.2395921    -6.627485    70.025677  0.038903154   0.04165966            5 
  151000    1.2163083   -6.6479328    69.941089  0.038598835  0.041669267            2 
  152000    1.2206789   -6.6452048    70.934592  0.038889579   0.04167783            3 
  153000    1.2179433   -6.6205071    71.091107  0.038720646  0.041684495            1 
  154000    1.2479563   -6.6189017    72.108467  0.039019733  0.041693132            1 
  155000    1.2146125   -6.6197537    72.762919  0.039119849  0.041706009            2 
  156000     1.217086   -6.6438813     73.33307  0.039173649  0.041720713            2 
  157000    1.2446554   -6.6650207    73.752597  0.039146814  0.041739397            1 
  158000    1.2401254   -6.6146348    74.263723   0.03916863  0.041755874            1 
  159000    1.2390211   -6.6459165    74.704015  0.039153048  0.041768622            5 
  160000    1.2155636    -6.637453    75.024191  0.039075099  0.041774769            3 
  161000    1.2241899    -6.662396    75.431865  0.039043408   0.04177971            3 
  162000    1.2241421   -6.6579037    75.849628  0.039017298  0.041782986            2 
  163000    1.2300952   -6.6421678    76.242081  0.038978569  0.041785539            5 
  164000    1.2354699   -6.6320082    76.805619  0.039027245  0.041788972            2 
  165000    1.2475796   -6.6571907    76.999941  0.038888859  0.041787997            1 
  166000    1.2338582   -6.6407603    77.617396  0.038964556  0.041788452            2 
  167000    1.2263151   -6.6053888    78.371822  0.039107695  0.041790663            1 
  168000    1.1923599    -6.629048    79.031536   0.03920215  0.041796168            3 
  169000    1.2383211   -6.6401534    79.571255  0.039236319  0.041802846            1 
  170000    1.2447694   -6.6422586    80.075237  0.039252567  0.041812856            2 
  171000    1.2199076   -6.6585104    80.733002  0.039343568  0.041821347            2 
  172000    1.2175204   -6.6206182    80.976443  0.039232773  0.041830377            3 
  173000    1.2136626   -6.6041244    81.659857  0.039335191    0.0418386            2 
  174000    1.2402427   -6.6121885     81.96377  0.039254679  0.041844013            1 
  175000    1.2251984   -6.6445949    82.809931  0.039433301  0.041848824            1 
  176000    1.2210321   -6.6764681    82.785344  0.039197606  0.041850609            2 
  177000    1.2057767   -6.6444974    83.163982  0.039154417  0.041854216            2 
  178000    1.2390485    -6.641892    84.155603  0.039398691  0.041858504            1 
  179000    1.2229234   -6.6352196    84.614924  0.039392422  0.041863937            3 
  180000    1.2013336   -6.6378981    85.237951  0.039462014  0.041869618            2 
  181000    1.2186417   -6.6392483    85.870274  0.039535117  0.041876089            2 
  182000     1.218119   -6.6484652    86.395423  0.039558344   0.04188456            4 
  183000    1.2152394   -6.7016738    86.327579  0.039311283  0.041889424            4 
  184000    1.2245596   -6.6478747    87.056158  0.039427608  0.041893306            3 
  185000     1.239447   -6.6502076    87.560356  0.039441602  0.041896026            2 
  186000    1.2115415   -6.6674586    87.943043  0.039401005   0.04189766            2 
  187000      1.20904   -6.6744093    88.414737  0.039400507  0.041900157            2 
  188000    1.2347706   -6.6521889    89.122892  0.039504828  0.041905598            1 
  189000    1.2600702   -6.6281851    89.811545  0.039599446   0.04190876            1 
  190000    1.2079748    -6.663649    89.844892  0.039405654  0.041913371            2 
  191000    1.2275884   -6.6429647    90.747497  0.039593149  0.041915745            1 
  192000    1.1996898   -6.6596745    91.147419  0.039560511  0.041918723            2 
  193000    1.2153163   -6.6827816    91.924659  0.039691131  0.041922995            1 
  194000      1.20091   -6.6163125    92.327684  0.039659658  0.041930335            1 
  195000    1.1835377    -6.703037    92.727324  0.039627061  0.041934074            2 
  196000    1.1949819   -6.6863034    93.193049  0.039622895  0.041940148            2 
  197000    1.2235832   -6.6483865    93.860602  0.039704146  0.041948093            1 
  198000    1.2046638   -6.6684265    94.560901  0.039798359  0.041956779            2 
  199000    1.2043045   -6.6979546    95.256535  0.039889671  0.041967239            3 
  200000    1.2118036   -6.6092362    95.950712  0.039979463  0.041979306            2 
  201000    1.2226062   -6.6340808    96.060704  0.039826163   0.04199026            1 
  202000    1.2236245   -6.6902599    96.453074  0.039790872   0.04199601            2 
  203000    1.2294434   -6.6510088    97.025216  0.039829727  0.042003516            1 
  204000    1.2168032   -6.6451272     97.33002  0.039758995  0.042009725            3 
  205000    1.2193248   -6.6556508    97.815986  0.039762596  0.042011832            1 
  206000    1.2179246    -6.665866      98.6978  0.039926294  0.042015959            2 
  207000    1.2033486   -6.6789447    98.885457   0.03980896  0.042019375            2 
  208000    1.2169011   -6.6549665     99.31215  0.039788521  0.042023248            3 
  209000    1.2278743   -6.6542688    99.857598  0.039815629  0.042025661            2 
  210000    1.2263291   -6.6534454    100.12961  0.039733974  0.042027129            2 
  211000    1.2354495   -6.6996476    100.65568  0.039753426  0.042029164            2 
  212000    1.2440001   -6.6508475    101.53381   0.03991109  0.042031714            1 
  213000    1.2312337   -6.6473672    101.92405   0.03987639  0.042034994            1 
  214000    1.2320654   -6.6516785    102.01285  0.039724629  0.042038116            3 
  215000    1.2088297   -6.6811989    103.03376  0.039935567  0.042035948            1 
  216000    1.1989082   -6.6105353    102.81658   0.03966689  0.042033014            3 
  217000    1.2192107   -6.6520639    102.96575  0.039541378  0.042027025            1 
  218000    1.2391608   -6.6317629    104.09687  0.039792379  0.042020852            3 
  219000    1.2327287   -6.6550602    104.34939  0.039706771  0.042016651            1 
  220000    1.2059092   -6.6477221    104.97157   0.03976196  0.042014046            1 
  221000    1.2175573    -6.619206    105.63119  0.039830765    0.0420122            3 
  222000    1.2057609   -6.6764354     105.8994  0.039752028  0.042010595            2 
  223000     1.230321    -6.660747    106.63136  0.039847294  0.042011092            1 
  224000     1.192552   -6.7138409    106.77008  0.039721013  0.042009233            4 
  225000    1.2072888   -6.6829402    107.49998  0.039814807  0.042008394            3 
  226000    1.2322503   -6.6831598    108.34815  0.039951384   0.04200613            2 
  227000    1.1986514   -6.6247557     108.4505   0.03981296  0.042005471            3 
  228000    1.1985038   -6.6641994    108.98736  0.039834561  0.042001447            2 
  229000    1.2426777   -6.6841377    109.25271  0.039757173  0.041997641            2 
  230000    1.2344139   -6.6655586    110.24023  0.039942113   0.04199516            2 
  231000    1.2064647   -6.6496904    110.83289  0.039983005  0.041995169            2 
  232000    1.2279916   -6.6731463    111.43425   0.04002667  0.041995377            2 
  233000    1.2246463   -6.6728935    111.91514  0.040026875  0.041995351            4 
  234000    1.2241448   -6.6692361    112.41676  0.040034458  0.041996217            2 
  235000    1.2183813   -6.6682461    112.41793  0.039864513  0.041995697            2 
  236000    1.2105119   -6.6811276    112.65608  0.039779689  0.041993229            2 
  237000    1.2117303   -6.6527836    113.23143  0.039814147  0.041990527            1 
  238000    1.2171743   -6.6685121    113.84874  0.039863005  0.041986225            1 
  239000    1.2101933   -6.6468908    114.36328   0.03987562  0.041981757            1 
  240000    1.1988881   -6.6794165    114.80486  0.039862799  0.041978106            1 
  241000     1.198145    -6.650929    115.54828  0.039954454  0.041974249            1 
  242000    1.2045225   -6.6822234    115.58995  0.039803703  0.041970013            3 
  243000    1.1832723   -6.6437049    116.34233   0.03989792   0.04196615            2 
  244000    1.2441445   -6.6531178    116.24969  0.039702763   0.04196222            2 
  245000    1.1821247   -6.6614839    117.30304  0.039898994   0.04195782            1 
  246000    1.2144324   -6.6803132    117.93449  0.039950707  0.041954171            1 
  247000    1.2076591   -6.6439424    118.02934  0.039820963  0.041950013            4 
  248000    1.2234295   -6.6690627    118.49922  0.039818285  0.041945663            3 
  249000     1.244903    -6.678451    118.69043  0.039722366  0.041940848            1 
  250000    1.1973796   -6.6736828    119.79662  0.039932208  0.041936288            3 
  251000    1.2230496   -6.6761266    120.25208  0.039924328  0.041933044            2 
  252000    1.2447154   -6.6671396    121.19943  0.040079176  0.041931655            1 
  253000    1.1834459   -6.6747395    121.07419  0.039879508  0.041930068            1 
  254000    1.1879847   -6.6479441    121.94489  0.040008167  0.041926275            2 
  255000    1.2263973   -6.6592064    122.64537  0.040080186  0.041924828            1 
  256000    1.1934837   -6.6515633    122.74937  0.039957478  0.041923054            2 
  257000    1.2105673   -6.6742812    123.31407  0.039985108  0.041921086            1 
  258000    1.2016223     -6.66196    124.15256  0.040100955  0.041921143            4 
  259000    1.1892028   -6.6749071    124.68594  0.040117742  0.041921343            2 
  260000     1.214907   -6.6375641    125.22422  0.040135968  0.041922478            2 
  261000    1.1845153   -6.6480654     125.4955  0.040068805  0.041922454            1 
  262000    1.2163591   -6.7048333    126.16039  0.040127349  0.041922931            2 
  263000    1.2229636   -6.6747256    126.56664  0.040103498  0.041923105            2 
  264000    1.1973968    -6.646247    126.75682  0.040011624  0.041921092            1 
  265000     1.213043   -6.6537203    127.00834  0.039939728   0.04191825            3 
  266000    1.1836475    -6.716776    126.89687  0.039754659  0.041910137            1 
  267000    1.2238873   -6.6967832    127.60479  0.039826714  0.041901581            1 
  268000    1.2019801   -6.6420537    128.02928  0.039810098  0.041894098            1 
  269000    1.2044339   -6.6963942    128.20129  0.039715393  0.041885376            4 
  270000    1.2066438   -6.6596125    129.05964  0.039833223  0.041877635            5 
  271000    1.2139549   -6.6596217    129.34174  0.039772983  0.041870079            2 
  272000    1.2015135    -6.672549    130.34177   0.03993314  0.041861896            3 
  273000    1.1999591   -6.6808252    130.13512  0.039723785  0.041853648            2 
  274000    1.2258829    -6.685411    130.86802   0.03980171  0.041846401            4 
  275000    1.2274242   -6.6756877    131.35843  0.039805585  0.041838677            3 
  276000    1.1975787   -6.6367848    132.06591  0.039874972  0.041829493            2 
  277000    1.2409413   -6.7011711    132.47091   0.03985286  0.041822162            2 
  278000    1.2396238    -6.698327    133.08731  0.039894277  0.041815804            2 
  279000    1.2145022    -6.679937    133.38051  0.039838863  0.041809174            3 
  280000    1.2085379   -6.7329937    134.00624  0.039882809  0.041801937            4 
  281000    1.1791666   -6.6436256    134.13181  0.039778115  0.041795791            1 
  282000    1.2020165   -6.6922285    134.90328  0.039865037  0.041789164            1 
  283000    1.2165743   -6.6801246    135.48976  0.039896868  0.041781372            1 
  284000    1.1794669   -6.6907575    135.28207  0.039695444  0.041773453            2 
  285000    1.2120853   -6.7148443    135.40722  0.039592755  0.041762743            1 
  286000    1.2109799   -6.6901819    136.45794  0.039760473  0.041752901            2 
  287000    1.2179463   -6.6676728    136.81735  0.039726292  0.041742637            1 
  288000    1.2401364   -6.6901506    137.52029  0.039791751  0.041732496            3 
  289000    1.1997004   -6.6886389    137.67362  0.039698277  0.041721531            1 
  290000    1.2108304   -6.6628917    137.85324  0.039613001  0.041711556            2 
  291000    1.2170954   -6.6517567    138.52559  0.039669414  0.041700362            1 
  292000    1.2314321   -6.6982542    138.66332  0.039572864  0.041688433            2 
  293000    1.2083066   -6.6672754    138.92537  0.039512335  0.041675876            2 
  294000    1.2023787   -6.7344813    138.87702  0.039364234  0.041662144            2 
  295000    1.2016637   -6.7048833    140.10568  0.039577877  0.041648636            2 
  296000    1.2018989   -6.7462292    139.80389  0.039359202  0.041635038            2 
  297000    1.2044815   -6.7036115    140.48567  0.039417978  0.041621606            2 
  298000    1.2080363   -6.6817356    140.99365  0.039427754  0.041608254            2 
  299000    1.2391975   -6.6793439    141.80109  0.039520927  0.041594965            2 
  300000    1.2092036   -6.6931632    142.64203  0.039622787  0.041583125            1 
  301000    1.1820219   -6.6804467    142.95205  0.039576981  0.041572009            1 
  302000    1.2018865    -6.683844      143.342  0.039553533  0.041559352            2 
  303000    1.1841495   -6.7071487    143.92459  0.039583219  0.041548956            5 
  304000    1.2126694    -6.686885    144.32808  0.039563617  0.041538106            2 
  305000    1.2020647   -6.6852738     144.9505  0.039603961  0.041528646            1 
  306000    1.2008833   -6.6478953    146.25364  0.039829421   0.04151891            1 
  307000    1.2038924   -6.6714863    146.70093  0.039821098   0.04151156            2 
  308000    1.2300729    -6.691925    147.12472  0.039806471  0.041503925            2 
  309000       1.2105   -6.6857025    147.52665  0.039786043  0.041496353            3 
  310000    1.2001988   -6.6787263    148.81583  0.040004256  0.041491129            2 
  311000    1.1873923   -6.6785004    149.14276  0.039963225  0.041485609            1 
  312000    1.2094963    -6.683556    149.08031  0.039818459  0.041479817            1 
  313000    1.2152737   -6.6349698    149.55588  0.039817859  0.041472255            2 
  314000    1.2191582   -6.7082874     149.5625  0.039692807  0.041464283            6 
  315000    1.1834542   -6.6805012    150.79968  0.039894096  0.041457687            2 
  316000    1.2049506   -6.7022771    150.80642  0.039769625  0.041452119            3 
  317000    1.2061125   -6.6858052    151.71641  0.039883389  0.041444497            3 
  318000    1.2174166   -6.6987292    151.62317  0.039733536     0.041438            3 
  319000    1.1975288   -6.6837312    152.35984   0.03980142  0.041430596            2 
  320000    1.2020787   -6.6952757    152.75484  0.039779907  0.041424389            3 
  321000    1.2186303   -6.6516665    153.51827  0.039854171  0.041417146            4 
  322000    1.1784996   -6.6540386    154.30933  0.039935127  0.041410554            3 
  323000    1.1997742   -6.6934501    154.23452  0.039792188  0.041404318            1 
  324000    1.1853733   -6.7049743    154.96198  0.039856476  0.041397457            2 
  325000    1.1931164   -6.6853524    154.92222  0.039723647  0.041390586            2 
  326000    1.1817255   -6.6685733    155.66787    0.0397924  0.041384413            3 
  327000    1.2206179   -6.7179888    156.16039  0.039796226  0.041377833            2 
  328000     1.182979   -6.7500029    155.70057  0.039558073  0.041369356            2 
  329000    1.1863479   -6.6621309    157.27104  0.039835624  0.041361366            2 
  330000    1.1936401   -6.6797519    157.08561  0.039668084  0.041352663            2 
  331000    1.2015493   -6.6671891    157.14769  0.039563868  0.041343372            1 
  332000     1.186042     -6.66384    158.30385  0.039734902  0.041332998            1 
  333000    1.1756348   -6.7136207    158.15441   0.03957818  0.041322266            1 
  334000    1.1915307   -6.6843094    158.91793  0.039650182  0.041313113            1 
  335000    1.2003598   -6.7019108     159.4969  0.039675847  0.041306008            2 
  336000    1.2330335   -6.6956928    160.22705  0.039738852  0.041297952            1 
  337000    1.2035165   -6.6931985    159.93697  0.039549202  0.041289114            1 
  338000    1.1894064   -6.7051994    160.71317  0.039623562  0.041279647            1 
  339000    1.2006515   -6.6795613    161.28794   0.03964797  0.041269989            1 
  340000    1.2175078   -6.6896767    161.65774  0.039621994  0.041260875            2 
  341000    1.1698523   -6.6879101    161.88236  0.039560695  0.041251942            3 
  342000    1.1982204   -6.7368936    162.85549  0.039682137  0.041243624            2 
  343000    1.2219801   -6.6738294    163.68016  0.039766802  0.041235886            3 
  344000    1.1821039   -6.6915882    163.60825  0.039633782  0.041228376            1 
  345000    1.2142916    -6.713293    164.31776  0.039690279  0.041221112            1 
  346000    1.1994533   -6.6784426    165.24984  0.039800057  0.041214744            2 
  347000     1.196937   -6.7095205    165.18419  0.039669594  0.041207968            1 
  348000     1.210174   -6.7003073    165.76452  0.039694568  0.041199759            1 
  349000    1.1820838   -6.7069776    165.71242  0.039568391  0.041190541            2 
  350000    1.2102795   -6.7161064    166.42999  0.039626189  0.041182248            1 
  351000    1.1823562   -6.6923692    166.50529  0.039531171   0.04117211            1 
  352000    1.1662543   -6.7028998    166.79062  0.039486416  0.041161617            3 
  353000    1.2080872    -6.691704    167.49508  0.039540859  0.041151538            3 
  354000    1.1949484   -6.7250861    167.92913   0.03953134  0.041140969            2 
  355000    1.1798501   -6.6770507    168.25141  0.039495635  0.041130321            3 
  356000    1.2272571   -6.7121759    167.78596  0.039275739  0.041118635            2 
  357000     1.205836   -6.6843805     169.0358   0.03945747  0.041106592            1 
  358000    1.1972204   -6.7267377    168.51231  0.039225397  0.041094079            6 
  359000    1.2135497   -6.6921136     169.3509  0.039310794   0.04108055            2 
  360000    1.2082245    -6.709255    170.09554  0.039373967  0.041067771            1 
  361000    1.1854968   -6.6870052    170.06183  0.039257117  0.041054561            1 
  362000    1.2203291   -6.6669632    171.06077  0.039378631   0.04104231            1 
  363000      1.19129   -6.7034565     170.9893  0.039253742  0.041030049            2 
  364000    1.1892729   -6.6804486     171.6729  0.039302405  0.041017024            6 
  365000    1.1884534   -6.7321099    171.36116  0.039123552  0.041003361            1 
  366000    1.1780602   -6.7112607    171.96245  0.039153563  0.040989558            1 
  367000    1.1886531    -6.722711    172.69891  0.039214102  0.040974819            1 
  368000    1.1859852    -6.730484    172.87115  0.039146546  0.040958546            2 
  369000    1.1714119   -6.7047457    173.01879  0.039073801    0.0409436            2 
  370000    1.2070899   -6.7219928    173.07243  0.038980278  0.040927049            2 
  371000    1.1745814   -6.7287538    173.35166  0.038937928  0.040911611            2 
  372000    1.2131353   -6.6825986    173.93251  0.038963375  0.040896855            1 
  373000    1.1927846   -6.7045063     174.8568  0.039065416   0.04088193            2 
  374000    1.1960789   -6.7342627    175.58121  0.039122374  0.040867715            3 
  375000    1.2007091   -6.7366017    176.24838  0.039166306  0.040853411            1 
  376000    1.1775112   -6.6439137    176.51602  0.039121459   0.04083981            2 
  377000    1.2116741   -6.6823493    177.04824  0.039135331   0.04082643            1 
  378000    1.1816408   -6.7072739    177.67406  0.039169765  0.040813831            2 
  379000    1.1701385   -6.6911341    178.37071  0.039219593  0.040800619            2 
  380000    1.1837692    -6.729681    178.59299   0.03916513  0.040787499            3 
  381000    1.2175893   -6.6854067    178.93115  0.039136296  0.040774944            1 
  382000     1.167368   -6.7558061    179.16223  0.039084257  0.040762206            1 
  383000    1.1781884   -6.7061898    179.20629  0.038991795   0.04074952            1 
  384000    1.2038139   -6.6847575    180.72864  0.039220625   0.04073767            2 
  385000    1.2135485   -6.7115967    180.64051  0.039099677  0.040724946            1 
  386000    1.2052572   -6.7437335    180.93811  0.039062632  0.040711751            1 
  387000    1.1970646   -6.7141288    181.17567  0.039012848  0.040698725            1 
  388000      1.19404   -6.7383938    181.67797  0.039020183  0.040686137            2 
  389000    1.1783999   -6.7216048    182.35601  0.039065127  0.040673641            2 
  390000    1.1559709   -6.7138759    182.43693  0.038982249  0.040661377            3 
  391000    1.1655267   -6.7307626    183.30452  0.039067459  0.040647961            1 
  392000    1.1912157    -6.733794    182.81334  0.038863381  0.040633899            2 
  393000    1.2114724   -6.7276599    183.12524  0.038830628  0.040619045            5 
  394000    1.1966172   -6.6882985    183.59696  0.038831844  0.040604346            2 
  395000      1.19687   -6.7191381    183.58977   0.03873202  0.040589798            3 
  396000    1.1676615   -6.6732289    184.96375  0.038923348  0.040574615            4 
  397000    1.1898652   -6.7171333     185.0363  0.038840533  0.040559497            1 
  398000    1.1407006   -6.7182189    185.19994  0.038777207  0.040544355            2 
  399000    1.1992785   -6.7412245    185.75436  0.038795815  0.040528848            2 
  400000    1.2007348   -6.7156752     186.6518  0.038885791   0.04051475            1 
  401000    1.1901966   -6.7130425    187.03174  0.038867777  0.040500356            3 
  402000    1.1660912   -6.6842889    187.59814  0.038888504  0.040486165            1 
  403000    1.1678515   -6.6896228    188.01439  0.038878079  0.040472681            5 
  404000    1.1819077   -6.7129385    188.58202  0.038898931  0.040458932            5 
  405000    1.1915014   -6.7182829    188.77801  0.038843211  0.040444908            4 
  406000    1.1831204   -6.7357286    189.32228  0.038859252  0.040431585            1 
  407000    1.2077933   -6.6847105    189.71819  0.038844838  0.040418024            3 
  408000    1.1734288   -6.6969569     190.2213  0.038852389  0.040403923            1 
  409000    1.2012002   -6.7186031     190.4327  0.038800469  0.040390132            2 
  410000    1.1837376   -6.7310396    190.85501  0.038791668  0.040376015            1 
  411000    1.2250428   -6.7485704    191.25715  0.038778823  0.040362261            4 
  412000    1.1872355   -6.7110621    191.57492  0.038748973  0.040348853            1 
  413000     1.198342   -6.6800041    192.01621   0.03874419  0.040335311            4 
  414000    1.1870453   -6.7007232    192.30949  0.038709639    0.0403212            6 
  415000    1.2029077   -6.7477288    192.48051  0.038650706  0.040306402            2 
  416000    1.1700606    -6.726325    193.70928  0.038803943  0.040292133            1 
  417000    1.1847507   -6.6979602    194.03039  0.038775057  0.040278131            1 
  418000    1.1900066   -6.7291739    194.32327  0.038740683  0.040264453            5 
  419000    1.1529467   -6.7021389    194.54338  0.038692001  0.040250651            1 
  420000    1.1708336   -6.7204775    195.72894  0.038835107  0.040237707            2 
  421000    1.1977219    -6.738799     195.5682  0.038711045  0.040224036            3 
  422000    1.1923065   -6.7077505    196.24182  0.038752335  0.040210433            2 
  423000    1.1891406   -6.7359516    196.66184  0.038743467  0.040197926            3 
  424000    1.1869818   -6.6920275    197.59766  0.038836019  0.040185846            3 
  425000    1.1944501   -6.7554748    196.83743  0.038595574  0.040172715            2 
  426000    1.1828876   -6.7131399    197.67466  0.038668752  0.040159553            2 
  427000    1.1839019   -6.7153309    198.07394  0.038656117  0.040145935            1 
  428000    1.1773731    -6.756744    197.94088  0.038539892  0.040131479            2 
  429000    1.1909126    -6.720837    199.39521  0.038732559   0.04011734            2 
  430000    1.1748732   -6.7204539    199.22519  0.038609533  0.040102383            3 
  431000    1.1576622   -6.7137966     198.8806  0.038453325  0.040087693            2 
  432000    1.1837765   -6.7326812    199.71602  0.038525468  0.040073025            1 
  433000    1.1622928   -6.7137781     200.7068  0.038627175  0.040058853            1 
  434000    1.1835288   -6.7438086    201.02207  0.038598707  0.040044433            1 
  435000    1.1761748   -6.7514828    200.55734  0.038420947  0.040029898            1 
  436000    1.2060503   -6.7114555    201.70802  0.038552755   0.04001553            2 
  437000    1.1980241   -6.6775408    202.23281  0.038564609  0.040001615            1 
  438000    1.1730366   -6.7335236    203.06747  0.038635363  0.039988975            2 
  439000    1.1782225   -6.7468304    203.10766  0.038554985  0.039976564            2 
  440000    1.1728529   -6.7224288    203.17164  0.038479477  0.039963273            2 
  441000    1.1879297   -6.7199323    203.97179  0.038543422  0.039950543            2 
  442000     1.194801   -6.7529712    204.72203  0.038597668  0.039936876            1 
  443000    1.1761578   -6.7607287     204.4135  0.038452502  0.039923585            1 
  444000    1.2041798   -6.7218674    204.83583  0.038445164  0.039909946            3 
  445000    1.1899706   -6.7470927    205.46927  0.038477391  0.039896708            2 
  446000    1.1701152   -6.7262822    205.37684  0.038373849   0.03988292            2 
  447000    1.2052349   -6.7454035    205.92138  0.038389519  0.039869305            1 
  448000     1.184898   -6.7319766    206.73333   0.03845486   0.03985677            2 
  449000    1.2093463   -6.7444519    207.19368  0.038454654  0.039844266            1 
  450000    1.1853677   -6.7378129    208.07639  0.038532665   0.03983233            2 
  451000    1.1879285   -6.7138082    208.63104  0.038549711  0.039820302            3 
  452000     1.184705   -6.7602258    208.56852  0.038452899   0.03980839            3 
  453000    1.1849065   -6.7145058    209.39383  0.038519835  0.039796285            1 
  454000    1.1951646   -6.7283826     209.6187  0.038476266  0.039784179            2 
  455000    1.1764572   -6.7214787    210.46562  0.038546817   0.03977215            2 
  456000    1.1939353    -6.752877    210.84277  0.038531208  0.039759927            1 
  457000    1.1917269   -6.7172252    211.01017  0.038477419  0.039747874            1 
  458000    1.1932372   -6.6778905    210.48065  0.038297062  0.039735191            1 
  459000     1.151828   -6.7281929    211.43611  0.038387093  0.039722076            3 
  460000    1.1923769   -6.7533428    211.86176  0.038380754  0.039709161            1 
  461000    1.1873148   -6.7349236    211.94804  0.038313095  0.039695729            1 
  462000    1.1679365   -6.7583638    212.14781    0.0382662   0.03968215            3 
  463000    1.1896905   -6.7174793    212.58925  0.038263004  0.039668108            1 
  464000     1.169135   -6.7122091    212.59629  0.038181804  0.039654402            1 
  465000    1.2145138   -6.6949388    214.20865  0.038388647  0.039640582            1 
  466000    1.1843539   -6.7123388    213.94167  0.038258524  0.039627307            3 
  467000     1.165902   -6.7525544    213.91867  0.038172496   0.03961351            2 
  468000    1.1925751   -6.7591234    215.05069  0.038292502  0.039598839            2 
  469000    1.1491304   -6.7485715    214.88216   0.03818091  0.039584914            3 
  470000    1.1862424   -6.7352941    214.54567  0.038040012  0.039569823            2 
  471000    1.2112188   -6.7119518    216.55502   0.03831476  0.039555922            2 
  472000     1.185335   -6.7623926    216.71555  0.038261925  0.039541865            1 
  473000    1.1855338   -6.7358423    217.26334  0.038277545  0.039527957            3 
  474000    1.2088861   -6.7311225    218.67355  0.038444717  0.039515517            2 
  475000    1.1802319   -6.6892426    218.87714  0.038399498  0.039503187            3 
  476000     1.180692   -6.7278834    218.14725  0.038191045  0.039489788            1 
  477000    1.1739529   -6.7577758    218.22359  0.038124317  0.039476532            1 
  478000    1.1759162   -6.7308795    219.10295  0.038197865  0.039462954            1 
  479000    1.1779885   -6.7580052    218.63637  0.038036946  0.039448724            3 
  480000    1.1719477   -6.6962305     220.3685   0.03825842  0.039435342            4 
  481000    1.1547608   -6.7250102    220.41952   0.03818772  0.039422142            5 
  482000    1.1697328   -6.7583754    220.34793  0.038096115  0.039409367            2 
  483000    1.1770098   -6.7342248    220.38996  0.038024493  0.039396407            2 
  484000    1.1825066    -6.742265    221.63527  0.038160342  0.039383491            2 
  485000    1.2007841   -6.7157217    222.22505  0.038182998  0.039371171            2 
  486000    1.1931019   -6.7795903    221.88243  0.038045684   0.03935813            2 
  487000    1.1904036    -6.743052    222.01508   0.03799026  0.039345141            2 
  488000    1.1856051   -6.7060349    223.42845  0.038153765   0.03933251            2 
  489000    1.2124089   -6.7378464    223.10499  0.038020619  0.039319761            1 
  490000    1.1618068   -6.7409291    224.01687  0.038098107  0.039306841            3 
  491000    1.1622261   -6.7952101    224.08815  0.038032612  0.039293142            1 
  492000    1.1859903   -6.7699877    224.52679  0.038029606  0.039279555            3 
  493000    1.1712889   -6.7619119    224.92354   0.03801953  0.039267145            2 
  494000    1.1891839   -6.7332298    225.03251  0.037960949  0.039254423            2 
  495000    1.1908652   -6.6974515    225.73422  0.038002394  0.039241188            1 
  496000    1.1891201   -6.7474609    225.51757  0.037889377  0.039227193            2 
  497000    1.1603915   -6.7475651    225.75402  0.037852786  0.039213471            2 
  498000    1.1805162    -6.789666    225.55975  0.037744269  0.039198823            2 
  499000    1.1697591    -6.727905    227.01274  0.037911279  0.039184024            3 
  500000     1.199225    -6.725994    226.52416  0.037754026  0.039169773            1 
  501000    1.1796095   -6.7304469    227.26714  0.037802253  0.039154956            2 
  502000    1.1777585   -6.7721967    227.01936  0.037685816  0.039140298            6 
  503000    1.1819854   -6.7226366    228.49673  0.037855654  0.039126574            2 
  504000    1.1736277   -6.7346448    229.56241  0.037956748  0.039113209            2 
  505000    1.1851631   -6.7928143    228.45263  0.037698454   0.03909965            1 
  506000    1.1768512   -6.7504293    229.42211  0.037783615  0.039085546            4 
  507000    1.1357284   -6.7218316    230.93612  0.037957943  0.039071916            2 
  508000    1.1462053   -6.7935819    230.03471  0.037735353   0.03905801            1 
  509000    1.1920339   -6.7877439    230.09836  0.037671637  0.039043886            2 
  510000    1.2061155   -6.7734931    231.14652  0.037769039  0.039030526            3 
  511000    1.2032956   -6.7895087    231.33792   0.03772634  0.039016666            2 
  512000    1.1648207   -6.8085759    231.62636  0.037699604  0.039003073            3 
  513000     1.135405   -6.7581767    231.81434  0.037656651   0.03898837            3 
  514000    1.1721813    -6.730078    233.12248  0.037795473  0.038974196            4 
  515000    1.1621052   -6.7617681     233.3559  0.037759854  0.038960923            1 
  516000    1.1566157   -6.7047386    233.97283   0.03778631  0.038948271            2 
  517000     1.177518    -6.769854    234.78116  0.037843514  0.038935414            4 
  518000    1.1730345   -6.7808614    234.69223  0.037756151  0.038923072            2 
  519000    1.1803533   -6.7606172    235.23673  0.037770831  0.038910677            2 
  520000    1.1723764   -6.7294703     235.1483  0.037684022  0.038897496            6 
  521000    1.1643682   -6.7692782     236.4592  0.037821369  0.038885312            2 
  522000    1.1800784   -6.7249964    236.34629   0.03773089  0.038873405            1 
  523000    1.1598551   -6.7446542    236.68898   0.03771335  0.038861391            1 
  524000    1.2053761    -6.739809    237.75886  0.037811523  0.038848819            2 
  525000    1.1505547   -6.7393787    238.33052  0.037830242  0.038836419            2 
  526000    1.1350831    -6.746881    237.62516  0.037646572   0.03882358            3 
  527000    1.1661064   -6.7771099     238.5589  0.037722786  0.038811284            2 
  528000    1.1690493   -6.7458851    239.68385   0.03782889  0.038799249            2 
  529000    1.1827251   -6.7188689    240.93573   0.03795459   0.03878759            1 
  530000    1.1683599    -6.753268    239.94561  0.037727297  0.038775887            1 
  531000     1.133568   -6.7587034    240.32328  0.037715517   0.03876342            2 
  532000    1.1640282   -6.7742468    240.14103  0.037616077   0.03875082            2 
  533000    1.1662949   -6.7468593    241.14687  0.037702763  0.038737661            1 
  534000    1.1918834   -6.7262196    240.81809  0.037580851  0.038724898            1 
  535000    1.1746001   -6.7075436    241.14403  0.037561376  0.038711355            2 
  536000    1.1599303   -6.7770193    240.88945  0.037451717  0.038698083            3 
  537000    1.1937908   -6.7199643    243.48607  0.037784927  0.038685561            3 
  538000    1.1484234    -6.779422    242.30897  0.037532368  0.038673299            1 
  539000     1.169743   -6.7677438    242.65048  0.037515535  0.038659988            2 
  540000    1.1725835   -6.7972525    242.05218  0.037353731  0.038646128            3 
  541000    1.1339699   -6.7555145    242.72313  0.037388036  0.038632191            1 
  542000    1.1582389    -6.754228    243.37626  0.037419473  0.038618336            2 
  543000    1.1511503   -6.7602041    243.91733  0.037433598  0.038604693            1 
  544000    1.1800196   -6.7620245    244.32155  0.037426708  0.038590827            3 
  545000    1.1789388   -6.7698695    244.51797  0.037388068  0.038576764            4 
  546000    1.1493602   -6.7755016    244.43523  0.037306964  0.038562783            2 
  547000    1.1772412   -6.7215565    245.89005  0.037460398  0.038548911            2 
  548000    1.1784769   -6.7150802    246.59102  0.037498634  0.038535165            2 
  549000    1.1597945   -6.7565717    245.84554  0.037317174  0.038521637            2 
  550000    1.1732838   -6.7167095    246.51185  0.037350281  0.038508076            2 
  551000    1.1680658   -6.7916814    246.19999  0.037235328  0.038494478            1 
  552000    1.1952601   -6.7698904    247.57683  0.037375729  0.038480712            3 
  553000    1.1660145   -6.7802182    247.92014  0.037359876  0.038467146            1 
  554000    1.1727577   -6.7915891    248.48487  0.037377387  0.038453396            1 
  555000    1.1729705   -6.7690341    248.36724  0.037292378  0.038439514            1 
  556000    1.1460018   -6.7776557    248.49199  0.037244004  0.038425952            2 
  557000    1.1816474   -6.7467982    249.52952  0.037332364  0.038411909            2 
  558000     1.149039   -6.7500716    249.53932  0.037266923  0.038397919            1 
  559000    1.1636439    -6.725925    250.64693  0.037365375  0.038384451            1 
  560000    1.1754352    -6.744349    250.91753  0.037338918   0.03837098            2 
  561000    1.1469965   -6.8054642    250.90115  0.037269928  0.038357538            1 
  562000    1.1601455   -6.7868114    251.00341  0.037218774  0.038344688            2 
  563000    1.1218282   -6.7861921    251.46196  0.037220539  0.038331594            1 
  564000    1.1656914   -6.7593821    251.51956  0.037163055  0.038318781            1 
  565000    1.1670755   -6.7572053    253.32965  0.037364255   0.03830591            2 
  566000    1.1641116   -6.7568903    253.66163  0.037347119  0.038293378            1 
  567000    1.1494332   -6.7919873    253.30161  0.037228337  0.038280456            3 
  568000    1.1903747   -6.7605328    253.50724  0.037192964  0.038267141            3 
  569000    1.1652915   -6.7844687    253.64001  0.037147043  0.038253886            1 
  570000    1.1600102   -6.7858634    254.32307  0.037181735  0.038241324            1 
  571000    1.1572973   -6.7945991     255.5703  0.037298643  0.038228513            2 
  572000    1.1565411   -6.7653996    255.67184  0.037248228  0.038215982            2 
  573000    1.1453006   -6.7600898    255.90608  0.037217289  0.038203517            1 
  574000    1.1794549   -6.7917622    255.99713  0.037165669  0.038191097            1 
  575000    1.1524677   -6.7720646    256.86281  0.037226494  0.038178186            1 
  576000    1.1464707   -6.7838114    256.53857  0.037114955  0.038165275            2 
  577000    1.1462194    -6.768633    257.33345  0.037165431  0.038152844            3 
  578000     1.137243   -6.7489271    258.42314  0.037258238  0.038141336            2 
  579000    1.1320497   -6.7794254    259.05519  0.037284857  0.038130265            4 
  580000    1.1633022   -6.8018631    258.32537  0.037115714  0.038118639            3 
  581000    1.1734084   -6.7641246    259.40391  0.037206528  0.038107529            2 
  582000    1.1416583   -6.7670781    259.44772  0.037148871  0.038095814            2 
  583000    1.1523775   -6.7660681    260.00578   0.03716492  0.038084092            1 
  584000     1.147158   -6.7784651    260.84136  0.037220514  0.038072318            3 
  585000    1.1655294   -6.7420102    261.24135  0.037213867  0.038060863            3 
  586000    1.1876397   -6.8037857    260.78611  0.037085624  0.038048896            2 
  587000    1.1545751   -6.7659251    261.88875  0.037178982  0.038037118            4 
  588000    1.1401297   -6.7677173    262.78363  0.037242577  0.038025642            1 
  589000    1.1684138   -6.7705538    263.16869  0.037233827  0.038014844            2 
  590000    1.1807927   -6.7783583     264.6454  0.037379293  0.038004422            1 
  591000    1.1543634   -6.7095714    264.21849  0.037255851  0.037993473            3 
  592000    1.1910366   -6.7843553    265.03931  0.037308461  0.037983564            1 
  593000    1.1620649   -6.7829978    265.58283  0.037321926    0.0379736            2 
  594000    1.1334122   -6.8086607    265.20924  0.037206683  0.037963363            1 
  595000    1.1777307   -6.7699627    265.76256  0.037221648  0.037953086            1 
  596000    1.1354648   -6.7868134    265.67924  0.037147544  0.037942476            6 
  597000    1.1486676   -6.7707867    266.10269  0.037144429  0.037932007            2 
  598000    1.1377779   -6.8359453    266.02657  0.037071706  0.037921367            1 
  599000    1.1267845    -6.781455    267.46301  0.037209657  0.037910457            1 
  600000    1.1576512   -6.8138137    266.78075  0.037052881  0.037899279            1 
  601000    1.1335618   -6.7956014    267.55246  0.037098233  0.037887987            3 
  602000    1.1595989   -6.7587245    268.24509  0.037132487  0.037877417            4 
  603000    1.1409348   -6.8014133    268.84829  0.037154269  0.037867158            2 
  604000    1.1677458   -6.7500663    268.87524  0.037096474  0.037857148            3 
  605000    1.1593929   -6.7402254    270.17244  0.037213834  0.037846946            1 
  606000    1.1323139   -6.8294794    268.76251   0.03695854  0.037836855            1 
  607000     1.164406   -6.7685393    270.34138  0.037114412   0.03782642            1 
  608000    1.1462428   -6.7236773    271.45422  0.037205897  0.037816544            2 
  609000    1.1480049   -6.7824327    271.06496  0.037091537  0.037806587            3 
  610000    1.1537335   -6.7513106    271.56812  0.037099471  0.037796736            1 
  611000    1.1586773   -6.7498687    271.73239  0.037061155  0.037786873            3 
  612000    1.1460746   -6.8128176    271.99129  0.037035851  0.037776714            4 
  613000    1.1519891   -6.7786488    272.65872  0.037066166  0.037766909            4 
  614000    1.1514442   -6.7941057    272.69103  0.037010183  0.037756998            3 
  615000    1.1584178     -6.77517    273.38546    0.0370441   0.03774667            2 
  616000    1.1514068   -6.8053304    273.74527   0.03703264  0.037736199            2 
  617000    1.1428207   -6.7915241    274.75616  0.037109152  0.037726108            2 
  618000    1.1317617   -6.7391283    274.93904  0.037073765  0.037716115            1 
  619000    1.1432571   -6.7735678     275.3996  0.037075875  0.037706223            2 
  620000    1.1396913   -6.7674993    274.99096   0.03696115  0.037695811            2 
  621000    1.1543225   -6.7783693    275.22297  0.036932765  0.037685698            3 
  622000     1.142295   -6.8414174    275.14161  0.036862488  0.037675599            2 
  623000    1.1742135     -6.78904    276.66096  0.037006549  0.037665192            1 
  624000    1.1544919   -6.7555151    277.85894   0.03710723   0.03765546            2 
  625000    1.1230657   -6.8105924    278.70216  0.037160288  0.037646115            2 
  626000    1.1492897   -6.7856812    278.56181  0.037082243  0.037636972            2 
  627000    1.1549299   -6.7679948    279.69358  0.037173522  0.037627978            1 
  628000    1.1679082   -6.7807129    278.97469  0.037018934   0.03761891            2 
  629000    1.1550171   -6.8484046    279.37589  0.037013234  0.037609638            2 
  630000    1.1720385   -6.7903569    279.86586  0.037019294  0.037600245            1 
  631000    1.1323638    -6.785917    280.06128  0.036986434  0.037591253            3 
  632000    1.1447448   -6.8108618     280.1867  0.036944449  0.037582194            2 
  633000    1.1536675   -6.7454849    281.22165  0.037022334  0.037573108            4 
  634000    1.1559605   -6.7875211    280.50439  0.036869662  0.037563708            2 
  635000    1.1466304   -6.7472665    281.66785  0.036964285  0.037553896            4 
  636000    1.1320795   -6.7646398    280.74026  0.036784625  0.037544022            1 
  637000    1.1587444   -6.7952968    280.96107  0.036755765   0.03753333            3 
  638000    1.1323512   -6.8225265    280.68774  0.036662453  0.037522485            1 
  639000    1.1172011   -6.7765727    281.97001  0.036772302  0.037511576            3 
  640000    1.1415211   -6.8066643    282.31259  0.036759452  0.037500521            3 
  641000    1.1506479   -6.8264566    283.29856  0.036830286  0.037490067            3 
  642000    1.1602853   -6.7949798    283.40752  0.036787062  0.037480274            2 
  643000    1.1295798   -6.8052443    283.28393  0.036713832  0.037469563            1 
  644000    1.1499413   -6.8028757    283.49707  0.036684404  0.037458797            1 
  645000    1.1400225   -6.7776162     285.1655  0.036843088   0.03744804            1 
  646000    1.1478216   -6.8106345    284.04411  0.036641397  0.037437284            2 
  647000     1.140278   -6.7715252    285.44729  0.036765494   0.03742643            2 
  648000    1.1519185     -6.80824    284.89614  0.036637879  0.037415325            1 
  649000    1.1184523   -6.7768492     284.9053  0.036582601  0.037404215            4 
  650000    1.1534085   -6.8213236    284.91437  0.036527483  0.037392343            6 
  651000    1.1411484   -6.8194095    285.31798  0.036523039  0.037380279            4 
  652000    1.1558498   -6.7764655    286.41525  0.036607266  0.037368559            2 
  653000    1.1577382   -6.7958103    286.30872  0.036537611  0.037357517            1 
  654000    1.1432734   -6.8193767    286.34213  0.036486001  0.037345745            2 
  655000    1.1578744   -6.7838744    287.46838  0.036573585  0.037333826            2 
  656000    1.1483103   -6.8545508     286.3912  0.036380996  0.037322278            2 
  657000    1.1339282   -6.8244112    287.54627   0.03647213  0.037310128            4 
  658000    1.1536303   -6.8011284    287.97459  0.036470946  0.037297968            2 
  659000    1.1442314   -6.8142357    288.04487  0.036424491  0.037285637            2 
  660000    1.1585634   -6.7715762    288.84884  0.036470813  0.037273755            2 
  661000    1.1627092   -6.7790408    289.36155  0.036480276  0.037261667            6 
  662000    1.1425391   -6.8122649    289.75848  0.036475137  0.037249863            1 
  663000    1.1394872   -6.8171972    288.66357  0.036282499  0.037238089            1 
  664000    1.1423194   -6.8099905      289.238   0.03629995  0.037225726            2 
  665000    1.1623439   -6.8076388     290.2533  0.036372594  0.037213874            2 
  666000    1.1326694   -6.7446416    290.22225  0.036314096  0.037202325            2 
  667000    1.1623673   -6.8054822     291.3769   0.03640391  0.037190597            2 
  668000    1.1485258   -6.8115417    290.95268  0.036296492  0.037178953            2 
  669000     1.160498   -6.7686876    292.31588  0.036412043  0.037166652            2 
  670000    1.1592955   -6.8090308    290.96391  0.036189542  0.037154239            2 
  671000    1.1548131   -6.8062367    292.74428  0.036356717  0.037141929            2 
  672000    1.1440227   -6.8336752    292.99357  0.036333529  0.037129808            3 
  673000    1.1215417   -6.8281101    292.98933  0.036279015  0.037117841            3 
  674000    1.1553558   -6.8027467    292.71922  0.036191793  0.037105544            2 
  675000    1.1612324   -6.7726414     294.4067  0.036346506  0.037093882            1 
  676000    1.1305247   -6.8215602    294.08175  0.036252681  0.037082151            4 
  677000    1.1291113   -6.7978523    294.20565  0.036214383  0.037070047            2 
  678000    1.1391896   -6.8273809    294.54022  0.036202092  0.037057527            3 
  679000      1.13818   -6.7680241    295.44158  0.036259399  0.037044942            3 
  680000    1.1371883   -6.8135472     295.2841  0.036186777   0.03703259            2 
  681000    1.1326999   -6.7778015    295.85848  0.036203926  0.037020465            2 
  682000    1.1313443    -6.813168     296.0113  0.036169514  0.037008363            2 
  683000    1.1293057   -6.8390388    296.70774   0.03620153   0.03699652            2 
  684000    1.1422407   -6.8351225    296.42584  0.036114259  0.036984368            2 
  685000    1.1467752   -6.8084762    296.67898  0.036092333  0.036971675            2 
  686000    1.1279575   -6.7935267    296.96084   0.03607396  0.036959709            2 
  687000    1.1390942   -6.8333761    296.75728  0.035996759  0.036946991            1 
  688000    1.1336654   -6.8103558    297.75012  0.036064695  0.036933822            2 
  689000     1.126122   -6.8093079    298.49323  0.036102229  0.036920634            2 
  690000    1.1353473   -6.8319206    299.16052  0.036130497  0.036908185            1 
  691000     1.168093   -6.8009857    298.60929  0.036011733  0.036895983            1 
  692000    1.1258138   -6.7953101    300.21869  0.036153504  0.036884085            2 
  693000    1.1337333   -6.7967033    300.30386  0.036111576  0.036872447            2 
  694000    1.1552406   -6.8383695    300.22714  0.036050329  0.036860652            3 
  695000    1.1259593   -6.8020605    301.26496  0.036122897  0.036848891            2 
  696000    1.1518511   -6.8044524    300.40138  0.035967598  0.036837098            3 
  697000    1.1215311   -6.7859901    301.36729  0.036031479  0.036825152            2 
  698000    1.1507713   -6.7929508    302.08972  0.036066108  0.036813208            2 
  699000    1.1258549   -6.7952296    303.02048  0.036125475  0.036801647            1 
  700000    1.1295222   -6.7958152    303.42841   0.03612243  0.036790079            1 
  701000    1.1447273   -6.8335706    302.82208   0.03599882  0.036779004            2 
  702000    1.1361881   -6.8135571    305.36065  0.036248889  0.036768127            1 
  703000    1.1434231   -6.8095715    304.70509  0.036119617  0.036757522            1 
  704000    1.1497127   -6.7720773    304.96214  0.036098738   0.03674675            2 
  705000    1.1226374   -6.7887201    305.69214  0.036133823  0.036735778            2 
  706000    1.1217205   -6.7988795    305.29241  0.036035459  0.036725082            2 
  707000     1.140992   -6.7891687    306.19903  0.036091352  0.036714103            2 
  708000    1.1195893   -6.8249798     306.3294  0.036055721  0.036702765            3 
  709000    1.1353221   -6.7712576    306.73218  0.036052208  0.036691351            4 
  710000    1.1157308   -6.7933566    307.05646   0.03603949  0.036680116            3 
  711000    1.1473051   -6.8091232    306.82943  0.035962193  0.036668638            2 
  712000    1.1542091    -6.802151    307.63333  0.036005773  0.036657609            2 
  713000    1.1771093    -6.791665    307.49169   0.03593872  0.036646438            2 
  714000    1.1462553   -6.7663684    309.25649  0.036094361   0.03663545            2 
  715000    1.1427494   -6.8069647    308.87184  0.035999049  0.036624866            3 
  716000    1.1369914   -6.8226533    309.23602  0.035991157  0.036614273            1 
  717000    1.1720758   -6.8355971     308.9446   0.03590709  0.036603259            2 
  718000    1.1160164   -6.8150665    310.13819  0.035995611  0.036591969            3 
  719000    1.1432566    -6.778277    310.50955   0.03598859  0.036581335            3 
  720000    1.1413706   -6.8452135    309.44866  0.035815817  0.036570635            3 
  721000    1.1188066   -6.8084219    310.68192  0.035908682  0.036559429            2 
  722000    1.1357195   -6.8047367    310.42669  0.035829489  0.036548169            2 
  723000    1.1283465   -6.7675134    312.16211  0.035979957    0.0365372            2 
  724000    1.1118431   -6.8074601    311.72407  0.035879842     0.036526            1 
  725000    1.1530477   -6.8185322    311.51324  0.035806119   0.03651457            1 
  726000    1.0906544    -6.825683    312.16747  0.035831895  0.036503531            3 
  727000     1.137021   -6.7942594     312.5141  0.035822341  0.036492657            2 
  728000    1.1487753   -6.8216626    313.01003  0.035829903  0.036481431            2 
  729000    1.1442193   -6.8097366    312.91943  0.035770396  0.036470386            3 
  730000    1.1469187   -6.8345577    314.48875  0.035900543  0.036459876            2 
  731000    1.1143268   -6.8124834    314.05331   0.03580179  0.036449327            2 
  732000    1.1107217   -6.8291705    315.03215  0.035864316  0.036438283            2 
  733000    1.1320705   -6.8327851    314.50087  0.035754988  0.036427932            3 
  734000    1.1087277   -6.7857963    316.08996  0.035886689  0.036417149            1 
  735000    1.1317838   -6.8267235    314.56404  0.035664857  0.036406289            2 
  736000    1.1564673   -6.7698856     316.1711  0.035798358  0.036395448            2 
  737000    1.1295532   -6.8202525    316.39343  0.035774924  0.036384446            1 
  738000    1.1368324   -6.7917495    316.67453   0.03575819  0.036373338            3 
  739000    1.1334683   -6.8322435    316.70472  0.035713207  0.036362235            2 
  740000    1.1243277   -6.7963401    317.86225  0.035795299  0.036351392            3 
  741000    1.1243161   -6.8492529    316.57741  0.035602498  0.036340091            1 
  742000     1.133972   -6.8133044     317.0555   0.03560821  0.036328799            2 
  743000    1.1446651   -6.8169631    317.68404  0.035630781  0.036317529            1 
  744000    1.1277387    -6.836978    318.21705  0.035642591  0.036305873            1 
  745000     1.132198   -6.7833287    317.91159   0.03556058  0.036294587            2 
  746000    1.1092471   -6.8014918    318.70618  0.035601673  0.036283336            3 
  747000    1.1363888   -6.7826141     319.8919  0.035686289  0.036272088            3 
  748000    1.1187421   -6.8226053    319.69634  0.035616794  0.036260656            1 
  749000    1.1215391   -6.8358345    319.54128   0.03555199  0.036249314            3 
  750000    1.1525083   -6.8188299    321.03949  0.035671054  0.036238445            3 
  751000    1.1311777    -6.794677    321.53426  0.035678458  0.036227595            1 
  752000    1.1184118   -6.8347911    320.93572  0.035564685  0.036216815            2 
  753000    1.1531561   -6.7905145    321.46448  0.035575972  0.036205811            1 
  754000    1.1351581   -6.7988766    321.04602   0.03548254  0.036194857            2 
  755000    1.1219893   -6.8325836    322.30374  0.035574365  0.036183582            1 
  756000    1.1316921   -6.8030499    323.25239  0.035631877   0.03617249            4 
  757000    1.1398323   -6.8487744    322.34071  0.035484447  0.036161438            2 
  758000     1.131127   -6.8389918    324.12852  0.035634182  0.036150405            1 
  759000    1.1235703    -6.858667    323.63728  0.035533298  0.036139128            2 
  760000     1.117333   -6.8671545    323.54728  0.035476675  0.036127645            5 
  761000    1.1363423   -6.8630894    324.04895  0.035484992  0.036116148            3 
  762000    1.1168624   -6.7994817    325.13019   0.03555667  0.036104822            3 
  763000    1.1225888   -6.8213989     324.4009  0.035430417  0.036093307            2 
  764000    1.1046803   -6.8315612     324.3355  0.035376908  0.036081657            2 
  765000    1.1398971   -6.8301566     324.7118  0.035371655  0.036070017            2 
  766000    1.1011794    -6.868112    324.73835  0.035328367  0.036058449            4 
  767000    1.1283999   -6.8428705    325.86957  0.035405212  0.036046956            1 
  768000    1.1235192   -6.8339599    325.46514  0.035315227  0.036035367            3 
  769000    1.1270003   -6.8239321     326.1435  0.035342815  0.036024211            1 
  770000     1.146274   -6.8102611    326.99163  0.035388704  0.036012965            5 
  771000    1.1254867   -6.8535265    327.88014  0.035438839  0.036002046            2 
  772000    1.1281157   -6.8846842    327.03056  0.035301226  0.035990726            2 
  773000    1.1272939    -6.821597    329.01004  0.035468956  0.035979867            4 
  774000    1.0997077   -6.8482149    329.00417  0.035422499  0.035969975            1 
  775000    1.1135822   -6.8031008    330.63145  0.035551769  0.035959848            2 
  776000    1.1107058   -6.7981806    330.78285  0.035522213  0.035949607            2 
  777000    1.1435073    -6.856548    330.13042  0.035406523  0.035939301            2 
  778000     1.142491   -6.8336391    331.02218  0.035456531  0.035929023            1 
  779000     1.130092   -6.8326691    330.08466  0.035310725  0.035918699            2 
  780000    1.1588383   -6.8284755    330.86002  0.035348293  0.035908119            2 
  781000    1.1351823    -6.824412    331.18277   0.03533747   0.03589728            2 
  782000    1.1437125   -6.8113192    332.74619  0.035458886  0.035886512            1 
  783000     1.122584   -6.8591597    331.72844  0.035305283  0.035876047            5 
  784000    1.1401929   -6.8234175     332.8975  0.035384513  0.035866017            3 
  785000    1.1055214    -6.867008    332.54337  0.035301844  0.035855598            3 
  786000    1.1114177   -6.8351803     334.5384  0.035468448  0.035845386            3 
  787000     1.126038   -6.8336402    333.89142  0.035354873  0.035835482            1 
  788000    1.1267584   -6.8286122    333.75204  0.035295267  0.035825131            2 
  789000     1.120413   -6.8960635    333.04969  0.035176351  0.035814467            2 
  790000    1.1156784   -6.8270273    334.23749  0.035257119  0.035804045            5 
  791000    1.1063963   -6.8666512    335.26634  0.035320938  0.035794005            2 
  792000    1.1208163   -6.8419087    335.52225  0.035303267  0.035784428            1 
  793000    1.1328714   -6.8558607     336.0268   0.03531177  0.035774754            1 
  794000    1.1089522   -6.8152919    337.49846  0.035421752  0.035764751            2 
  795000    1.1093203   -6.8599177    338.03334  0.035433264  0.035755358            2 
  796000    1.1386381   -6.8260708    339.26948  0.035518162  0.035746328            1 
  797000    1.1487214   -6.8332532    339.11586  0.035457534  0.035737622            1 
  798000    1.1308989   -6.8491603    339.28204  0.035430455  0.035728715            2 
  799000    1.1294173   -6.8400691    339.25068  0.035382841  0.035719545            2 
  800000    1.1335431   -6.8912726    338.65266  0.035276319  0.035710317            2 
  801000    1.1265769   -6.8683107    340.50833  0.035425336  0.035700844            1 
  802000    1.1259343   -6.8413482    340.60002  0.035390692   0.03569156            1 
  803000    1.1155003    -6.840614    340.85699  0.035373287  0.035682555            2 
  804000    1.1120675   -6.8007715    341.26005  0.035371067  0.035673582            2 
  805000    1.1155875   -6.8663191    341.12813  0.035313471  0.035664944            2 
  806000    1.1318055   -6.8413108    341.69305  0.035328065  0.035655819            2 
  807000    1.0986114   -6.8382306    341.97842  0.035313757  0.035646942            3 
  808000    1.1370852   -6.8673366    342.47039  0.035320791   0.03563799            3 
  809000    1.1178267   -6.8131612    344.12955  0.035448038  0.035629078            3 
  810000    1.1180395   -6.8562544    343.03378  0.035291541  0.035620653            1 
  811000    1.1183375   -6.8446004    344.39107  0.035387492  0.035612236            1 
  812000     1.105154    -6.851652    343.27873  0.035229754  0.035603681            2 
  813000    1.1250372   -6.8234672    345.17175  0.035380459  0.035595258            2 
  814000    1.0997145   -6.8873236    346.06558  0.035428499  0.035587013            2 
  815000    1.1115795   -6.8689971    346.95638  0.035476113  0.035579091            2 
  816000    1.1325284   -6.8519386    346.92786  0.035429724   0.03557127            1 
  817000    1.1290824   -6.8526463    346.63291  0.035356273  0.035563627            2 
  818000    1.1333888   -6.8317706    347.95021  0.035447251  0.035555899            2 
  819000    1.1179911   -6.8711546     347.9185  0.035400742  0.035548239            3 
  820000    1.1218269   -6.8245858    349.42688  0.035510862  0.035540801            3 
  821000    1.1447267   -6.8508668    349.83512  0.035509046  0.035533273            1 
  822000    1.1171112    -6.854367    349.44914  0.035426717  0.035525633            2 
  823000    1.1182872   -6.8664719    348.85696   0.03532371  0.035517675            3 
  824000    1.1168856   -6.8464171    348.54297  0.035249087  0.035509664            4 
  825000    1.1117453   -6.8458801    349.94054  0.035347529  0.035501647            2 
  826000    1.1253067   -6.8634598    350.03107  0.035313869  0.035493203            1 
  827000     1.128889   -6.8531713    349.94697  0.035262694  0.035484922            2 
  828000    1.1010952    -6.858004    350.37007  0.035262689  0.035476519            2 
  829000    1.1168355   -6.8351098    350.85251  0.035268648  0.035468347            3 
  830000     1.107377    -6.839063    351.37479  0.035278594  0.035459993            2 
  831000    1.1100875   -6.8315245     351.9545  0.035294274  0.035451753            5 
  832000    1.1186507   -6.8569647    352.11978  0.035268407  0.035443714            1 
  833000    1.1111438   -6.8819001    351.58435  0.035172504  0.035435506            3 
  834000    1.1032404    -6.807417    353.61858  0.035333591  0.035427495            4 
  835000    1.1459733   -6.8471008    352.63195   0.03519281   0.03541953            3 
  836000    1.1404099   -6.8491073    353.08174  0.035195548  0.035411431            2 
  837000    1.1071602   -6.8094358    353.60517  0.035205613  0.035403439            3 
  838000    1.1081198   -6.8234891    354.31087  0.035233778  0.035395265            3 
  839000    1.1082963   -6.8335307    354.50475   0.03521104  0.035387054            1 
  840000    1.1116126   -6.8347679    355.58764  0.035276551   0.03537895            4 
  841000    1.1197784   -6.8579929    355.09165  0.035185459  0.035370802            3 
  842000    1.1378622   -6.8499512    354.17459  0.035052908  0.035362502            2 
  843000    1.1183837   -6.8464358    355.51923   0.03514425  0.035354536            2 
  844000    1.1182256   -6.8383487    356.45356  0.035194861  0.035346689            2 
  845000    1.0894877   -6.8338563    357.19391  0.035226224  0.035338497            2 
  846000    1.0948261   -6.8801859    357.99215  0.035263214  0.035330673            1 
  847000      1.11471   -6.8487268    358.10157  0.035232346  0.035322653            2 
  848000    1.1052355   -6.8547469     359.5244  0.035330621  0.035315065            2 
  849000     1.110888   -6.8231919     359.1733  0.035254544  0.035307396            5 
  850000    1.1344434   -6.8595189    358.90063  0.035186337  0.035299828            2 
  851000    1.1524721   -6.8396404    358.64399  0.035119858  0.035292085            2 
  852000    1.1289372   -6.8637151    360.40062  0.035250452    0.0352847            2 
  853000    1.1191042   -6.8910486    361.71897  0.035337922  0.035277155            2 
  854000    1.1056305   -6.8825384     359.0816  0.035039188  0.035269522            4 
  855000    1.1189688   -6.8290504    361.38345  0.035222558   0.03526205            2 
  856000    1.1005558   -6.8403655    361.11327  0.035155108  0.035254886            2 
  857000    1.1168116   -6.8467902    362.49331   0.03524828  0.035247844            2 
  858000    1.1179942   -6.8702155    363.39023  0.035294311  0.035240757            3 
  859000    1.1076699   -6.8735858    364.14276  0.035326228  0.035233901            3 
  860000    1.1420228   -6.8702499    363.43932  0.035216989  0.035227167            3 
  861000    1.1261672   -6.8777456    364.01583  0.035231884  0.035220706            3 
  862000    1.1328436   -6.8583987    364.99031   0.03528522  0.035214376            2 
  863000    1.1168137   -6.8521801    365.96579  0.035338528  0.035208227            2 
  864000    1.1092604   -6.8356136    366.24707  0.035324756  0.035201873            3 
  865000    1.1043967   -6.8521756    365.04713  0.035168317  0.035195328            2 
  866000    1.1073311   -6.8877268    365.58048   0.03517903  0.035188576            1 
  867000    1.1374415   -6.8745989    365.47885  0.035128686  0.035181945            2 
  868000    1.0963643    -6.878907    366.45604  0.035182032  0.035175547            2 
  869000    1.0966352   -6.8836764    366.84009  0.035178374  0.035168745            3 
  870000    1.1126166   -6.8606497    367.98356  0.035247468  0.035162199            3 
  871000    1.1025228   -6.8612769    369.07146  0.035311085  0.035155885            3 
  872000    1.1213528   -6.8556863    368.84604  0.035249048  0.035149428            5 
  873000    1.1122566   -6.8678954    369.55931  0.035276758  0.035142609            3 
  874000    1.1101533   -6.8313527     369.4228  0.035223379  0.035135955            3 
  875000    1.0941571   -6.8515697    368.05695  0.035053043  0.035129196            2 
  876000    1.0917078   -6.8271331     369.7819  0.035177121  0.035122721            2 
  877000    1.1007919   -6.8633137    369.63959  0.035123488  0.035116306            3 
  878000    1.1146422   -6.8958316    370.46965  0.035162267   0.03510965            4 
  879000    1.1135994   -6.9065027    369.41367  0.035022153  0.035102893            2 
  880000    1.1123567   -6.8852365    371.27429   0.03515855  0.035096219            2 
  881000    1.1119567   -6.8636009    371.68203  0.035157211  0.035089768            2 
  882000    1.1162135   -6.9063587     371.3883  0.035089598  0.035083048            2 
  883000    1.1154059   -6.8704528    372.83663  0.035186545  0.035076059            3 
  884000    1.1132604   -6.8827381    372.85757  0.035148715  0.035069263            2 
  885000    1.1447686   -6.8925457    372.56181   0.03508115  0.035062565            2 
  886000    1.0977846   -6.8334707    373.76989  0.035155182  0.035056197            2 
  887000    1.1095575    -6.854752    373.66429  0.035105627   0.03504991            2 
  888000    1.1122108   -6.8745471     373.3799  0.035039405  0.035043587            6 
  889000    1.1347866   -6.8957996    373.92213  0.035050819  0.035037223            2 
  890000    1.0949026   -6.8595319    375.02592  0.035114786  0.035031128            1 
  891000    1.1015191   -6.8468228     376.3687  0.035200963  0.035025203            1 
  892000    1.1311433    -6.889059    376.31533  0.035156514  0.035019575            1 
  893000    1.0983364   -6.8841983     377.9587  0.035270502  0.035013971            3 
  894000    1.1199137   -6.8776446    377.34734  0.035174062  0.035007909            2 
  895000    1.1083711   -6.8032379    379.44286  0.035329875  0.035002775            3 
  896000    1.1068372    -6.853422    379.67418  0.035311959  0.034997898            1 
  897000    1.1291552   -6.9007671    380.06495  0.035308895  0.034992535            3 
  898000    1.1058819   -6.9021321    380.03162  0.035266483   0.03498747            3 
  899000    1.1026712   -6.8547668    379.29401  0.035158881  0.034982111            3 
  900000    1.0764111   -6.8771184    381.03961  0.035281446  0.034976785            1 
  901000    1.0974333   -6.8888542     380.0952  0.035154939  0.034971413            2 
  902000    1.1153565   -6.8397886    381.03339  0.035202641   0.03496631            2 
  903000    1.1114459   -6.8289887    381.44875  0.035201988  0.034961135            2 
  904000    1.0847555   -6.8678794    381.70546  0.035186712  0.034956074            7 
  905000    1.1283152   -6.8341428    383.34697  0.035298985  0.034950986            2 
  906000    1.1223323   -6.8456749    382.57415  0.035188939  0.034945788            2 
  907000    1.0990794   -6.9022546    381.02947  0.035008221  0.034940357            1 
  908000    1.1154834   -6.9098866    382.26884  0.035083411  0.034934883            2 
  909000    1.1124177   -6.8569274    385.88518  0.035376345  0.034929853            2 
  910000     1.112462    -6.838419    383.51157  0.035120107  0.034925051            2 
  911000    1.1291029   -6.9032385    385.12291  0.035228952  0.034920031            2 
  912000    1.0896064   -6.8366078    385.61899  0.035235653  0.034915271            2 
  913000    1.0995173   -6.8432364    385.78378  0.035212101  0.034910566            2 
  914000    1.1332202   -6.8894468    384.64673  0.035069906  0.034905706            1 
  915000    1.0635168   -6.8890596    386.44156  0.035195042  0.034900639            3 
  916000    1.0949903   -6.8849404    385.40504  0.035062322  0.034895547            4 
  917000    1.1038596   -6.8928715    385.76802  0.035057072  0.034890301            4 
  918000    1.1107817   -6.8482803    386.91219  0.035122748  0.034885133            2 
  919000    1.0979669   -6.9229786    385.69092  0.034973786   0.03487959            3 
  920000    1.0973216    -6.904599    386.86539  0.035042155  0.034873682            2 
  921000    1.0687916   -6.8440015    386.97549  0.035014069  0.034868104            1 
  922000    1.0850742   -6.8520139    388.50923  0.035114717  0.034862519            1 
  923000    1.1150741   -6.8848375    387.52483  0.034987796  0.034856921            1 
  924000    1.1067832   -6.8921613    387.87168  0.034981213   0.03485136            3 
  925000    1.1063516   -6.8599487    389.90943  0.035126976  0.034845841            1 
  926000    1.1362268    -6.892623    388.31047  0.034945146  0.034840449            1 
  927000     1.101693   -6.9153889    389.09499  0.034977975  0.034834532            1 
  928000    1.0929782   -6.8738333    390.60587  0.035075959  0.034828324            1 
  929000    1.0868208    -6.889882    388.86878  0.034882381  0.034822406            2 
  930000    1.1009913   -6.8598511    389.03667  0.034859916  0.034816545            2 
  931000    1.0945026    -6.902949     388.7486  0.034796688  0.034810258            2 
  932000    1.0843952   -6.9053651    390.21833  0.034890766  0.034804016            4 
  933000    1.1210646   -6.9092947    389.93173  0.034827772  0.034797479            2 
  934000    1.0980504    -6.852672    390.39284  0.034831623  0.034791137            1 
  935000    1.1078746   -6.8508414    391.89067  0.034927867  0.034785168            5 
  936000    1.0868013   -6.8585751    392.42297  0.034937943  0.034779233            3 
  937000    1.0880596   -6.8859625    393.10925  0.034961691  0.034773237            1 
  938000    1.0922894   -6.8716135      392.679  0.034886194  0.034767455            2 
  939000    1.1052155    -6.921905    392.33697  0.034818687  0.034761309            2 
  940000    1.1032066   -6.9025355    392.73138  0.034816612  0.034755054            3 
  941000    1.1004449   -6.8851278    392.72909  0.034779409  0.034748942            1 
  942000    1.1153738   -6.8550304    393.80031  0.034837253  0.034742813            1 
  943000    1.1105339   -6.8887433    394.41184  0.034854352   0.03473671            3 
  944000    1.1036584   -6.8806431    394.38099  0.034814706  0.034730481            2 
  945000    1.1177065    -6.913695    394.24355  0.034765745  0.034724474            1 
  946000    1.0903865   -6.8836794    396.20832  0.034902072  0.034718494            2 
  947000    1.1172202   -6.9025476    395.04575  0.034762914   0.03471245            2 
  948000    1.0979178   -6.8490557    397.56357  0.034947571  0.034706481            2 
  949000    1.1022084   -6.8906758     395.5493  0.034733869  0.034700847            2 
  950000    1.0928735   -6.8788618    395.95834  0.034733187  0.034694605            2 
  951000    1.0998191   -6.8944047    396.57301  0.034750527  0.034688381            2 
  952000    1.1009358   -6.9440967    396.04515  0.034667818  0.034682144            2 
  953000    1.0948376   -6.9001976    396.67762  0.034686745  0.034675876            2 
  954000    1.0864868   -6.8573364    397.78037  0.034746713  0.034669611            3 
  955000    1.0839548   -6.9070899    396.77767  0.034622833  0.034662911            2 
  956000    1.0885325   -6.9189598    397.60888  0.034659072  0.034656084            2 
  957000    1.0973292    -6.904168    395.52526  0.034441419   0.03464911            2 
  958000    1.1192965   -6.8770255    397.94115  0.034615618  0.034642022            5 
  959000    1.1206902   -6.9133212    398.82708  0.034656507  0.034634935            2 
  960000    1.0936617   -6.9060987    399.14228  0.034647767   0.03462803            5 
  961000     1.104284    -6.918267    398.28969  0.034537781  0.034621056            2 
  962000    1.0802362   -6.8751209    400.23588  0.034670467  0.034614183            4 
  963000     1.108415   -6.9327973    398.58646  0.034491732  0.034607199            6 
  964000    1.0958933   -6.8632397    401.08685  0.034672099  0.034600185            3 
  965000    1.1043247   -6.8745881    400.09062   0.03455014  0.034593157            3 
  966000     1.105384   -6.9012037    399.56725  0.034469224  0.034586307            3 
  967000    1.1025959   -6.8813431    400.82354  0.034541843  0.034579104            2 
  968000    1.1152066   -6.9238887    401.05419  0.034526015  0.034571635            1 
  969000    1.0919511   -6.9286566    400.84764  0.034472621  0.034564239            3 
  970000    1.1010906   -6.8851233    400.90467  0.034441982  0.034556616            4 
  971000     1.100776   -6.9004905    399.63482   0.03429753  0.034548821            2 
  972000    1.0697677   -6.8868643     402.2768  0.034488752  0.034541218            1 
  973000    1.0858906   -6.9066366    402.25497  0.034451436   0.03453368            2 
  974000    1.1168705   -6.8163413    402.47444  0.034434842  0.034526114            3 
  975000    1.1054342   -6.8881406    402.21145  0.034377047  0.034518529            8 
  976000    1.0799838   -6.8510732    403.02172  0.034411008   0.03451083            2 
  977000    1.0911511   -6.9025912    401.70443  0.034263428  0.034503032            3 
  978000    1.1080993   -6.9038425    402.88813  0.034329254   0.03449524            1 
  979000    1.0902785   -6.9122381      404.614  0.034441097  0.034487641            1 
  980000    1.0800101   -6.9051739    404.34463  0.034383046  0.034480031            4 
  981000    1.1232777   -6.8956515    403.51678  0.034277674  0.034472251            2 
  982000    1.0935198   -6.8896394    403.85468  0.034271443  0.034464529            2 
  983000    1.0849019    -6.886113    404.08085  0.034255752  0.034456476            1 
  984000    1.0961615   -6.9110039    403.21137  0.034147304  0.034447892            2 
  985000    1.1033726   -6.8954334    404.86021  0.034252133  0.034439662            2 
  986000    1.0817335    -6.934671    404.78345  0.034210907   0.03443138            2 
  987000    1.0672684   -6.9179936    404.60014  0.034160769  0.034422863            1 
  988000    1.0838281   -6.9128547    406.15791  0.034257584  0.034414712            4 
  989000    1.1112463   -6.8851176    406.87377  0.034283264  0.034406844            2 
  990000    1.1026624   -6.9137493    405.15985  0.034104364  0.034398936            2 
  991000    1.0792932   -6.9320746    405.54608  0.034102428  0.034390457            1 
  992000    1.1046425   -6.8883954    407.58365  0.034239218  0.034382021            2 
  993000    1.0736473   -6.9074716    406.81545  0.034140269  0.034373843            2 
  994000    1.0887042   -6.8563053    407.89723  0.034196616  0.034365555            3 
  995000    1.0762913   -6.9441948    406.57969  0.034051901   0.03435707            2 
  996000     1.090658   -6.9231625    407.22598  0.034071785  0.034348756            6 
  997000     1.091419   -6.9048145    408.81945    0.0341708  0.034340605            2 
  998000    1.0812123   -6.9175998    409.23929  0.034171617  0.034332575            2 
  999000    1.1098353   -6.8659971    409.92627  0.034194717  0.034324527            2 
 1000000    1.0948076   -6.9512079    408.77862  0.034064885  0.034316968            1 
 1001000    1.0763569   -6.9236088    409.59074  0.034098463  0.034308913            3 
 1002000    1.0912557   -6.8816033    410.11899  0.034108365  0.034301122            3 
 1003000     1.094213   -6.9208664    410.12916  0.034075205   0.03429303            2 
 1004000    1.1020981   -6.9139236    411.75968    0.0341766  0.034285037            2 
 1005000     1.086919    -6.906777    410.52849  0.034040505  0.034277189            2 
 1006000    1.0856069   -6.8813619    412.22987  0.034147603   0.03426915            2 
 1007000    1.1077415   -6.9091567    410.98732  0.034010867  0.034261304            2 
 1008000    1.0831249   -6.9271744    411.35546  0.034007561  0.034253074            3 
 1009000     1.074121   -6.9180143    412.31674  0.034053249  0.034244967            1 
 1010000    1.1037202   -6.9210416    412.74674  0.034055011  0.034237002            1 
 1011000    1.0702909   -6.9101661    412.50949  0.034001771  0.034229206            3 
 1012000    1.0636491   -6.9206561    412.25591  0.033947292   0.03422119            2 
 1013000    1.1109971   -6.9119191    412.65497  0.033946609  0.034213078            2 
 1014000    1.0935943   -6.9472084    412.51366  0.033901517  0.034205156            3 
 1015000    1.0938179   -6.9137927    414.74265  0.034051121  0.034197213            1 
 1016000     1.092053   -6.8700034    416.12776  0.034131214  0.034189552            2 
 1017000    1.0952579   -6.9170666    415.44751  0.034041914  0.034181898            2 
 1018000    1.0835354   -6.8913403    415.62321  0.034022856  0.034174246            1 
 1019000    1.0717175   -6.9474983    416.88393  0.034092569  0.034166513            1 
 1020000    1.0879017   -6.9165973    417.11975  0.034078411  0.034159051            5 
 1021000    1.0866157   -6.8934152    417.64831  0.034088174  0.034151655            2 
 1022000    1.0961822   -6.8916939    417.89664  0.034075068  0.034144197            1 
 1023000    1.0792633   -6.9224316    418.30764   0.03407524  0.034136574            2 
 1024000    1.0847398   -6.8891742    417.63728  0.033987409  0.034128856            2 
 1025000     1.082392   -6.9005689    417.35822  0.033931563  0.034121096            3 
 1026000     1.078225   -6.9112003    417.57166  0.033915827  0.034113536            1 
 1027000    1.0817641   -6.9011191    419.47383   0.03403715  0.034105742            1 
 1028000    1.0716454   -6.9020253    418.87938  0.033955851  0.034098204            2 
 1029000    1.1140077   -6.9064855    418.91984  0.033926129  0.034090551            4 
 1030000    1.0887926   -6.8950243    420.20242   0.03399696    0.0340827            1 
 1031000    1.0890613   -6.9474246    418.00654  0.033786497  0.034074544            2 
 1032000    1.0932598   -6.9072208    420.03372  0.033917452  0.034066641            1 
 1033000    1.0915367   -6.8871268    420.88914  0.033953626  0.034058946            2 
 1034000     1.075571   -6.8875208    421.99764  0.034010126  0.034051273            2 
 1035000    1.0848597   -6.8993375    420.91857  0.033890384  0.034043548            2 
 1036000    1.0907466   -6.8780471    421.28403  0.033887068  0.034035874            2 
 1037000    1.0817838   -6.8890086    422.00483  0.033912314  0.034028215            2 
 1038000    1.0911456   -6.9138701     421.0684  0.033804464  0.034020436            5 
 1039000     1.106331   -6.8752225     422.2944   0.03387026  0.034012716            2 
 1040000    1.0670603   -6.9504996    422.59784  0.033862006  0.034005058            8 
 1041000    1.0701248   -6.9064798    423.57683  0.033907847  0.033997395            1 
 1042000    1.0770599   -6.9407881    424.02133  0.033910855  0.033989861            3 
 1043000    1.1115124   -6.9509558    424.93919  0.033951677  0.033982591            2 
 1044000    1.0892935   -6.8661995     425.9505   0.03399988  0.033975467            2 
 1045000    1.0774694   -6.9371159    425.59398  0.033938914  0.033968489            2 
 1046000    1.0706623   -6.9172939    426.32189  0.033964459  0.033961561            6 
 1047000    1.0918347   -6.9262871    424.85713  0.033815435  0.033954412            2 
 1048000    1.0768652    -6.938319    425.77264  0.033855967  0.033947122            2 
 1049000    1.0855597   -6.9542877      425.712  0.033818875  0.033939579            1 
 1050000    1.0859114   -6.9282303    426.41527  0.033842482  0.033932033            1 
 1051000    1.0645315   -6.9111509    425.62687   0.03374777  0.033924433            1 
 1052000    1.0772874   -6.9426336    425.64077  0.033716791  0.033916874            2 
 1053000      1.06371   -6.9040948    427.12941  0.033802581  0.033909504            2 
 1054000    1.0713539   -6.8933538    428.54281  0.033882259  0.033902259            1 
 1055000    1.0840072   -6.8993477     427.9816  0.033805813   0.03389501            3 
 1056000    1.0812394   -6.8827228    428.88517  0.033845105  0.033887929            1 
 1057000    1.0691947   -6.9437728    428.84684  0.033810063  0.033880836            3 
 1058000    1.0689065   -6.9270391    429.78885  0.033852304  0.033873728            2 
 1059000    1.1092879   -6.9699179    428.28575  0.033702058  0.033866526            2 
 1060000    1.0815223   -6.9516717    431.57171  0.033928594  0.033859141            3 
 1061000    1.0785727   -6.9375053    430.12511  0.033782997  0.033852088            4 
 1062000    1.1019608   -6.9550761    431.79295  0.033882059  0.033844768            1 
 1063000    1.0762799   -6.8858317    433.22844  0.033962719  0.033837692            1 
 1064000    1.0895344   -6.9368434    431.41792  0.033788998  0.033830782            4 
 1065000    1.0656501     -6.92707    432.30588  0.033826751  0.033823748            2 
 1066000    1.0616444   -6.9175089    431.79721  0.033755254   0.03381663            1 
 1067000    1.0746307   -6.9346005    432.78403   0.03380069  0.033809713            1 
 1068000    1.0582821   -6.9273401    432.46069  0.033743812   0.03380289            2 
 1069000    1.0951752   -6.8892321    435.22269  0.033927556  0.033795967            2 
 1070000    1.0848232    -6.881111    433.30646  0.033746609   0.03378908            3 
 1071000    1.0886236   -6.9440622    432.57469  0.033658161  0.033781998            2 
 1072000    1.0761354   -6.9094759    433.59732  0.033706259  0.033774764            1 
 1073000    1.0776509   -6.9695496     434.1886  0.033720767  0.033767342            2 
 1074000    1.0909008   -6.9659358    433.70637  0.033651953  0.033760003            3 
 1075000    1.1007874   -6.9473464    435.63956  0.033770508  0.033752821            1 
 1076000    1.0745441   -6.9211221    435.85841  0.033756073  0.033745904            2 
 1077000    1.0701405   -6.8979181    436.38688  0.033765621  0.033739115            1 
 1078000    1.0881432   -6.8979315    435.96435  0.033701635  0.033732177            2 
 1079000    1.0524916   -6.9596005    436.21452  0.033689722  0.033725103            2 
 1080000    1.0583526     -6.94641    436.81778  0.033705076  0.033718113            3 
 1081000    1.0715964   -6.9338277    438.30906  0.033788857  0.033711476            2 
 1082000    1.1023802   -6.9492678    437.61929  0.033704504   0.03370462            2 
 1083000     1.096349   -6.9289488    438.37772  0.033731742  0.033698007            3 
 1084000     1.085435   -6.9322347    439.16161  0.033760886  0.033691348            2 
 1085000     1.073927    -6.928422    439.76693  0.033776262  0.033685011            2 
 1086000    1.0975244   -6.9259793    440.12234  0.033772432  0.033678348            3 
 1087000    1.0987435   -6.9426079    440.54181  0.033773521  0.033671945            3 
 1088000    1.0611976   -6.9928832    439.01665  0.033625662  0.033665297            3 
 1089000    1.0905189   -6.9519844    441.31868  0.033770942  0.033658851            3 
 1090000    1.0785771   -6.9273025    440.97453  0.033713649  0.033652276            3 
 1091000    1.0730875   -6.9284918    441.28912  0.033706777  0.033646051            3 
 1092000    1.0733172    -6.942194    441.01085  0.033654674  0.033639668            2 
 1093000    1.1022575    -6.963551    441.47587  0.033659337  0.033633287            1 
 1094000    1.0633302   -6.9241741    441.86774  0.033658421  0.033626746            1 
 1095000    1.0940322   -6.9506768    444.40055  0.033820438  0.033620593            2 
 1096000    1.0510185   -6.9214602    443.73201  0.033738748  0.033614205            4 
 1097000    1.0677646   -6.9539857    443.58487  0.033696815   0.03360765            2 
 1098000    1.0435333   -6.9179432    445.46371  0.033808721  0.033601147            1 
 1099000    1.0772204   -6.9225332    443.62327  0.033638404  0.033594814            1 
 1100000    1.0826022   -6.9540008    444.68744  0.033688442   0.03358834            2 
 1101000    1.0578173   -6.9320611    445.38006  0.033710268  0.033581924            1 
 1102000      1.07066   -6.9524839    444.65613  0.033624934  0.033575477            1 
 1103000    1.0720135   -6.9598673    444.41902  0.033576535  0.033568821            4 
 1104000    1.0966921   -6.9241061    444.84762  0.033578474  0.033561844            2 
 1105000    1.0914578   -6.9177275    444.08466  0.033490548  0.033554884            4 
 1106000    1.0722752    -6.944528    444.96343  0.033526479  0.033547851            2 
 1107000    1.0571458   -6.9368573    445.51935  0.033538042  0.033540703            2 
 1108000    1.0648142   -6.9420461    445.49873  0.033506222  0.033533582            1 
 1109000    1.0605409   -6.9195773    445.91433  0.033507239   0.03352642            2 
 1110000    1.0861265   -6.9508547    443.95666   0.03333008   0.03351927            4 
 1111000    1.0834812   -6.9753794    447.31259  0.033551799  0.033512146            2 
 1112000    1.0630207   -6.9367092    447.95167   0.03356952   0.03350534            3 
 1113000    1.0773883   -6.9738456    447.12875  0.033477744  0.033498274            2 
 1114000     1.053563   -6.9475517    447.60207  0.033483099  0.033491454            2 
 1115000    1.0662326   -6.9136858    447.64306  0.033456133  0.033484595            3 
 1116000    1.0957219   -6.9348464    449.49841  0.033564696  0.033477858            2 
 1117000    1.0964072   -6.9692366    447.33951  0.033373583  0.033470942            1 
 1118000    1.0716376    -6.919724    448.40742  0.033423332  0.033464028            3 
 1119000    1.0678256   -6.9586126     449.1958  0.033452174   0.03345693            1 
 1120000    1.0958482   -6.9522859    448.88521  0.033399197  0.033449733            2 
 1121000    1.0572433   -6.9172461    449.77425  0.033435493   0.03344243            2 
 1122000    1.0668259   -6.9222947    450.18523  0.033436217  0.033435362            2 
 1123000    1.0679107   -6.9470488    450.10291  0.033400334   0.03342842            3 
 1124000    1.0899868    -6.944172    450.06154  0.033367552  0.033421438            6 
 1125000    1.0618166   -6.9341077    450.27376  0.033353612  0.033414404            2 
 1126000    1.0611472   -6.9696622    450.15966  0.033315546  0.033407378            2 
 1127000    1.0668631   -6.9614813    451.45071  0.033381448  0.033400176            2 
 1128000    1.0503851   -6.9759902    451.31971  0.033342177  0.033392949            3 
 1129000     1.077009   -6.9629363    452.31084  0.033385801  0.033385754            2 
 1130000    1.0713338   -6.9431078    453.78776  0.033465174  0.033378831            3 
 1131000     1.023705   -6.9651081    452.33929   0.03332886  0.033371751            5 
 1132000    1.0598881   -6.9673064    452.80621   0.03333379  0.033364832            2 
 1133000    1.0503877   -6.9465325    454.24656  0.033410309  0.033357879            2 
 1134000    1.0856284   -6.9741608    452.64859  0.033263418  0.033350821            4 
 1135000    1.0429137   -6.9507196    455.00331  0.033406998  0.033343794            2 
 1136000    1.0629566   -6.9690748    453.23758  0.033248062  0.033336671            2 
 1137000    1.0629185   -6.9464501     455.4152  0.033378422  0.033329637            2 
 1138000    1.0599047   -6.9588844    454.47921  0.033280551  0.033322628            3 
 1139000    1.0729998   -6.9450223    455.18738  0.033303145  0.033315542            4 
 1140000    1.0781991   -6.9504545    455.12866  0.033269639  0.033308598            3 
 1141000    1.0984018   -6.9675133    455.99322  0.033303624  0.033301568            2 
 1142000    1.0885852   -6.9877519    454.84208  0.033190461  0.033294256            2 
 1143000    1.0845309   -6.9045738    455.40861  0.033202728  0.033286946            2 
 1144000    1.0864671   -6.9606071    455.12447  0.033153006  0.033279659            2 
 1145000    1.0774151    -6.954577    457.34821  0.033285896  0.033272236            2 
 1146000     1.062374   -6.9629244    456.43482  0.033190432  0.033264881            1 
 1147000    1.0646588   -6.9276778    456.80727  0.033188555  0.033257569            2 
 1148000    1.0487561   -6.9470264    456.87995  0.033164921  0.033250175            2 
 1149000    1.0730324   -6.9743955    457.22147  0.033160826  0.033242936            2 
 1150000    1.0832032   -6.9314592    457.30393  0.033137966  0.033235702            1 
 1151000    1.0948058   -6.9538863    458.13209  0.033169135  0.033228554            2 
 1152000    1.0420553   -6.9546096    458.98063  0.033201724  0.033221433            1 
 1153000    1.0689928   -6.9488815    458.72492  0.033154446  0.033214303            2 
 1154000    1.0429185   -6.9511544    458.65488  0.033120658  0.033207143            1 
 1155000    1.0780715   -6.9481352    459.73378  0.033169826  0.033200056            3 
 1156000    1.0718005   -6.9535936    458.11901  0.033024727  0.033192786            2 
 1157000    1.0755119   -6.9339161    460.48106   0.03316631  0.033185542            2 
 1158000    1.0693174   -6.9516929    460.70695  0.033153926  0.033178305            2 
 1159000    1.0606451   -6.9576419     460.4904   0.03310975  0.033171024            2 
 1160000    1.0574865   -6.9469914    461.85049  0.033178915   0.03316389            2 
 1161000    1.0320129   -6.9141461     462.6837  0.033210142   0.03315684            2 
 1162000    1.0371664   -6.9814369    460.79851  0.033046364   0.03314988            2 
 1163000     1.078028   -6.9472665    462.78779  0.033160489  0.033142764            5 
 1164000    1.0918726   -6.9598414    462.22771  0.033091903  0.033135667            1 
 1165000     1.049472   -6.9695306    462.96324  0.033116112  0.033128662            2 
 1166000    1.0575485   -6.9552582    462.78753  0.033075153  0.033121596            1 
 1167000    1.0612835    -6.990099    461.70289  0.032969358  0.033114414            1 
 1168000    1.0850514    -6.984699    462.30791  0.032984297  0.033107177            2 
 1169000    1.0721732   -6.9683117    463.16549  0.033017215  0.033100001            1 
 1170000    1.0528716   -7.0038814     463.8748  0.033039516  0.033092969            1 
 1171000    1.0728932   -6.9822799    464.24909  0.033037937   0.03308613            2 
 1172000    1.0736386    -6.951577    464.59767  0.033034533  0.033079162            2 
 1173000    1.0550697   -7.0322081    463.35572  0.032918139  0.033072105            4 
 1174000    1.0478433   -6.9372585    465.16864  0.033018785   0.03306485            2 
 1175000    1.0786816   -6.9716848    465.28948  0.032999254  0.033057545            2 
 1176000    1.0506204   -6.9802155    466.23602  0.033038266   0.03305043            3 
 1177000    1.0262218   -6.9513318    465.69556  0.032971932  0.033043221            2 
 1178000    1.0513079   -6.9523898    467.64781  0.033082047  0.033035928            4 
 1179000    1.1098735   -6.9790455    466.05684  0.032941535  0.033028764            1 
 1180000    1.0601292   -6.9902973    467.02197  0.032981778  0.033021573            1 
 1181000     1.061926   -6.9380857    466.70769  0.032931675  0.033014464            2 
 1182000    1.0539611   -6.9944738    466.41628  0.032883269  0.033007267            1 
 1183000     1.061148   -6.9818929    467.40689  0.032925253  0.032999878            3 
 1184000    1.0675193   -6.9400962    469.49996  0.033044761  0.032992762            2 
 1185000    1.0802759   -6.9586913    469.39483  0.033009481  0.032985413            1 
 1186000    1.0561245   -6.9893809    467.94682  0.032879906  0.032978082            7 
 1187000    1.0398866   -6.9646484    468.76781  0.032909843  0.032970829            4 
 1188000    1.0394533   -6.9696988     470.5144  0.033004657  0.032963682            1 
 1189000    1.0653692   -6.9861033    469.55065  0.032909353   0.03295668            2 
 1190000    1.0590115   -6.9576714    470.27878  0.032932688   0.03294978            5 
 1191000    1.0471102   -6.9617416    470.97852  0.032953997  0.032942875            2 
 1192000    1.0567492   -6.9710115    470.73417  0.032909268  0.032935823            1 
 1193000    1.0599478   -6.9391899    470.66696  0.032876988  0.032928654            2 
 1194000      1.04421   -6.9732132    471.47418  0.032905792  0.032921661            4 
 1195000     1.059185   -6.9699624     472.2354  0.032931339  0.032914612            3 
 1196000    1.0711449   -6.9734205    472.01219  0.032888252  0.032907785            2 
 1197000    1.0745015   -6.9850012    471.86827  0.032850757  0.032900958            4 
 1198000    1.0507825    -6.971049    473.85888  0.032961803  0.032894018            1 
 1199000    1.0621873   -6.9550639    474.10844  0.032951657  0.032887134            1 
 1200000    1.0834298   -6.9557904    475.13809  0.032995701  0.032880314            1 
 1201000    1.0594447   -6.9977292    473.54116  0.032857422  0.032873435            2 
 1202000     1.034613   -6.9591593    474.88102  0.032922977  0.032866615            1 
 1203000    1.0475664    -6.956874    475.30702  0.032925119  0.032859824            2 
 1204000    1.0593621   -6.9890524    474.78177  0.032861418  0.032853117            2 
 1205000    1.0810586   -7.0143368     474.6645  0.032826037  0.032846143            2 
 1206000    1.0463212   -6.9752968    476.88381  0.032952171  0.032839212            3 
 1207000     1.065099   -7.0019266    475.66186  0.032840504  0.032832358            3 
 1208000    1.0497889   -6.9531775    477.82213  0.032962343  0.032825543            1 
 1209000    1.0514235   -7.0181313    475.76961  0.032793604  0.032818551            1 
 1210000    1.0433518   -6.9740986     476.9918  0.032850675  0.032811708            2 
 1211000    1.0736698   -6.9427829     479.6749  0.033008182  0.032805153            2 
 1212000    1.0484595   -6.9669284    479.13354  0.032943726  0.032798646            3 
 1213000    1.0765964   -6.9644977    478.85111  0.032897163  0.032792368            6 
 1214000    1.0550174   -6.9556742    479.49398  0.032914194  0.032786091            2 
 1215000    1.0487777    -6.947792    480.28809   0.03294157  0.032779793            3 
 1216000    1.0672648   -6.9663287    479.51615  0.032861578  0.032773351            1 
 1217000    1.0707809   -6.9477389    482.02122  0.033006109  0.032766941            2 
 1218000    1.0629121   -6.9657131    480.59411  0.032881371  0.032760799            4 
 1219000    1.0539936   -6.9813369    482.05581  0.032954321  0.032754551            1 
 1220000    1.0991099   -6.9405584    482.52224  0.032959169  0.032748648            3 
 1221000    1.0692187   -6.9718124    480.66093  0.032805141  0.032742518            1 
 1222000    1.0565925      -6.9311    483.27461  0.032956534  0.032736298            1 
 1223000    1.0674082   -6.9613835    482.59971    0.0328836  0.032730149            2 
 1224000    1.0399345   -6.9803242    482.97254  0.032882118  0.032723962            2 
 1225000    1.0355349   -7.0023888    483.43041  0.032886422  0.032718044            1 
 1226000    1.0876655   -6.9613663    486.24065  0.033050615  0.032712014            1 
 1227000    1.0736372   -6.9389527     484.9714  0.032937476  0.032706038            2 
 1228000    1.0435991   -6.9609716     486.4777  0.033012873  0.032700112            2 
 1229000    1.0618103   -6.9762519     485.8429  0.032942968  0.032694184            5 
 1230000    1.0493559   -6.9588725    485.31468  0.032880399  0.032688435            3 
 1231000    1.0494595   -6.9711655    486.91648  0.032962123  0.032682635            3 
 1232000    1.0338821   -6.9811916    485.51251  0.032840402  0.032676741            2 
 1233000    1.0686815   -6.9611065    486.95178  0.032911042  0.032671044            2 
 1234000    1.0569956   -6.9841685    486.27827  0.032838889  0.032665182            4 
 1235000    1.0507205   -6.9950497    487.31147  0.032882015  0.032659327            2 
 1236000    1.0617539   -6.9740794     487.8447  0.032891363  0.032653425            1 
 1237000    1.0420494   -6.9497884    486.73227  0.032789832  0.032647665            2 
 1238000    1.0414545   -6.9644013    488.87993  0.032907911   0.03264192            2 
 1239000    1.0298586   -7.0111677    488.80989   0.03287664  0.032636165            4 
 1240000    1.0587392    -6.921486    490.75748  0.032981014  0.032630402            3 
 1241000    1.0611878   -6.9489158    489.94607  0.032899951  0.032624581            2 
 1242000    1.0734809    -6.967404    491.08612  0.032949954  0.032618896            1 
 1243000    1.0404149   -6.9868232    491.22001  0.032932422  0.032613479            6 
 1244000    1.0429438   -6.9859365    490.53996  0.032860394  0.032607758            2 
 1245000    1.0650252     -6.99553    491.21067  0.032878893  0.032602105            4 
 1246000    1.0369905    -6.987678    490.56574  0.032809372  0.032596358            3 
 1247000    1.0450805   -6.9371547    491.94631  0.032875322  0.032590677            3 
 1248000    1.0509849   -7.0110621    491.76683  0.032836994  0.032585117            2 
 1249000    1.0436021    -7.019675    492.17094  0.032837666   0.03257948            1 
 1250000    1.0713631    -6.976336    493.56562  0.032904374  0.032573921            3 
 1251000     1.054563   -7.0209351    492.58519  0.032812762   0.03256851            3 
 1252000    1.0799812     -6.97492    494.91161  0.032941401   0.03256316            2 
 1253000    1.0417656   -7.0054886    494.66718  0.032898855   0.03255788            2 
 1254000    1.0522026   -6.9706933    495.88373  0.032953464  0.032552712            2 
 1255000    1.0361669   -6.9915042    495.18891  0.032881069  0.032547354            2 
 1256000    1.0241524   -6.9713565    495.83944  0.032898052   0.03254181            4 
 1257000    1.0355971   -6.9839061    494.78977  0.032802292  0.032536493            6 
 1258000    1.0478145   -6.9953741    496.60792  0.032896656  0.032531155            2 
 1259000    1.0583382   -6.9778647    494.86445  0.032755126  0.032525674            3 
 1260000    1.0353099   -7.0079122     495.0108  0.032738809  0.032520038            1 
 1261000    1.0438777   -6.9634202    494.98604  0.032711211  0.032514335            3 
 1262000     1.059209   -6.9532293    496.73399  0.032800713  0.032508734            3 
 1263000    1.0675669   -7.0008044    495.87804  0.032718266  0.032503047            3 
 1264000     1.074623   -7.0004549    494.35556  0.032592007  0.032497205            2 
 1265000    1.0666764   -6.9642323    496.53595  0.032709878  0.032491268            2 
 1266000    1.0375645   -7.0055789    496.13567  0.032657693  0.032485407            5 
 1267000     1.039246    -6.990997    496.91281  0.032683031  0.032479516            2 
 1268000     1.057615   -6.9587368    497.85924  0.032719456  0.032473676            4 
 1269000    1.0391354   -6.9711152    498.75981  0.032752811  0.032467897            2 
 1270000    1.0590014   -6.9574774    498.98547  0.032741828  0.032462059            2 
 1271000    1.0590668   -6.9762857    497.04314  0.032588719  0.032456116            4 
 1272000    1.0439487   -7.0186732     497.3204  0.032581263  0.032449946            4 
 1273000    1.0743881   -6.9958148    497.92124  0.032595001  0.032443844            2 
 1274000    1.0653262   -6.9793321    499.52355  0.032674225  0.032437912            3 
 1275000    1.0596166   -7.0300922    498.99578  0.032614103  0.032431815            4 
 1276000    1.0628378   -6.9793714    499.01587  0.032589856  0.032425758            4 
 1277000    1.0482557   -7.0031132     498.2815  0.032516412  0.032419552            3 
 1278000    1.0609377   -6.9719547    500.22763  0.032617868  0.032413289            1 
 1279000    1.0501766   -6.9887397     499.7959  0.032564236  0.032406918            2 
 1280000     1.020142   -7.0086951     499.2741  0.032504824  0.032400586            3 
 1281000    1.0466737    -7.008219    499.41888  0.032488868  0.032394159            1 
 1282000    1.0644842   -6.9691312     500.5739  0.032538605   0.03238794            2 
 1283000    1.0467715   -6.9882679      500.279  0.032494089  0.032381673            3 
 1284000    1.0353977   -7.0095017    501.18768  0.032527757  0.032375498            3 
 1285000    1.0357863   -7.0041707    500.39546  0.032451067  0.032369258            4 
 1286000    1.0635511   -6.9930886     501.3621  0.032488472  0.032362909            2 
 1287000    1.0808333   -7.0120695    502.16383  0.032515141  0.032356487            3 
 1288000    1.0258369   -7.0080598    501.66088  0.032457355  0.032350127            2 
 1289000    1.0462033   -7.0227626    502.32707  0.032475244  0.032343795            3 
 1290000    1.0460272   -6.9696635    503.41624  0.032520429  0.032337637            2 
 1291000    1.0381758   -6.9837018    501.96253  0.032401403  0.032331323            2 
 1292000    1.0611561   -7.0150725    501.68294  0.032358291  0.032324776            4 
 1293000    1.0330458   -7.0125558    503.77275  0.032467953   0.03231826            3 
 1294000    1.0239422   -6.9955188     502.7224  0.032375219  0.032311934            1 
 1295000    1.0704897     -7.00658    504.22785  0.032447094  0.032305495            3 
 1296000    1.0546549   -7.0263546    503.42407  0.032370375  0.032298978            4 
 1297000    1.0329479   -6.9818983    504.14615  0.032391811  0.032292306            3 
 1298000    1.0379342   -6.9971417    503.22275  0.032307572  0.032285793            4 
 1299000    1.0310482   -6.9945154    504.74656  0.032380457  0.032279376            4 
 1300000    1.0183997   -7.0328537    503.63123  0.032284053    0.0322729            3 
 1301000    1.0281675   -7.0678896    504.33492  0.032304312  0.032266316            5 
 1302000    1.0386718   -6.9805452    505.52843   0.03235589  0.032259839            3 
 1303000    1.0528963     -6.98747    506.40876   0.03238736  0.032253465            4 
 1304000    1.0336169   -7.0082702    506.09041  0.032342178  0.032246967            2 
 1305000    1.0355293   -6.9874315    505.50727  0.032280158  0.032240367            1 
 1306000    1.0840479   -7.0273111    505.53494  0.032257206  0.032233851            2 
 1307000      1.01381    -7.030818    505.18045  0.032209924  0.032227002            3 
 1308000    1.0277978    -6.988931    508.38647  0.032389556  0.032220474            1 
 1309000    1.0584732    -7.008213    508.12141  0.032347938  0.032213881            5 
 1310000    1.0423559   -6.9910299    507.51578  0.032284719  0.032207271            2 
 1311000    1.0260742   -7.0378634    508.76396  0.032339433  0.032200904            3 
 1312000    1.0470125   -6.9983394    509.39484  0.032354855  0.032194343            2 
 1313000    1.0232742   -7.0514895    508.86331  0.032296478  0.032187953            2 
 1314000    1.0462575   -6.9845457    508.92234  0.032275643  0.032181504            2 
 1315000     1.033787   -7.0161126    508.79605  0.032243095  0.032174994            2 
 1316000    1.0533182   -7.0193191    509.13427  0.032240012  0.032168459            1 
 1317000    1.0411079   -7.0317268    510.25041  0.032286156   0.03216194            2 
 1318000   0.99999589   -7.0178337    510.34464  0.032267618  0.032155472            1 
 1319000    1.0455486   -6.9933753    511.42304  0.032311287  0.032149197            2 
 1320000    1.0401628   -7.0020837    511.50632  0.032292066  0.032142748            3 
 1321000    1.0493226    -7.003254    509.73641  0.032155968  0.032136208            3 
 1322000    1.0592368   -6.9933553    510.71794  0.032193516  0.032129616            2 
 1323000    1.0409275   -7.0069134    511.46144  0.032216014  0.032122911            1 
 1324000    1.0433263   -7.0100797    510.35877  0.032122279  0.032116229            2 
 1325000     1.055492   -7.0309542    511.48433  0.032168826  0.032109548            3 
 1326000    1.0711902   -6.9983571    511.23495  0.032128893  0.032102879            6 
 1327000    1.0467073   -6.9992635     513.4186  0.032241811  0.032096544            4 
 1328000    1.0495187   -6.9859235    515.18489  0.032328369  0.032090329            4 
 1329000    1.0798197   -7.0021087    514.81653  0.032280946  0.032084096            2 
 1330000    1.0248134   -6.9858322    513.58603  0.032179576  0.032077989            3 
 1331000     1.051407    -7.055898    514.02413  0.032182828  0.032071707            3 
 1332000    1.0557421   -7.0066712    515.18553  0.032231327  0.032065443            3 
 1333000    1.0382326   -7.0538309    513.34998  0.032092397  0.032059131            3 
 1334000    1.0266405   -7.0236596    515.33571  0.032192386  0.032052614            3 
 1335000    1.0379498   -6.9823989    515.56236  0.032182419  0.032046332            4 
 1336000    1.0234486   -6.9980205    515.44058  0.032150735  0.032040044            2 
 1337000    1.0284439   -7.0387234    516.11935  0.032168994  0.032033804            2 
 1338000    1.0289599   -7.0035107    517.18788  0.032211503  0.032027411            3 
 1339000    1.0500568   -7.0135268    517.00492  0.032176059  0.032021074            2 
 1340000    1.0336646   -6.9810668    517.73196  0.032197261   0.03201485            2 
 1341000    1.0456286   -7.0305802    516.35027  0.032087389  0.032008565            3 
 1342000    1.0278415   -7.0339733    518.52388  0.032198452  0.032002324            3 
 1343000    1.0383142   -7.0022564    518.22953  0.032156213  0.031996071            2 
 1344000    1.0506946   -6.9862984    518.37311   0.03214119  0.031989765            3 
 1345000    1.0474991    -7.029277    517.81881   0.03208295  0.031983328            3 
 1346000    1.0070327   -7.0348148    516.94943  0.032005289  0.031976799            1 
 1347000     1.018937   -7.0267014    517.77946  0.032032879  0.031970283            3 
 1348000    1.0175169   -7.0276138    518.38087  0.032046295  0.031963844            2 
 1349000    1.0214757   -7.0280007    518.11344  0.032006019  0.031957517            4 
 1350000    1.0412347   -7.0153405    519.74375  0.032082947  0.031951201            2 
 1351000    1.0500962    -6.998483    519.88767  0.032068078  0.031944802            2 
 1352000    1.0320898   -7.0144959    520.43397  0.032078031  0.031938554            4 
 1353000    1.0397862   -7.0620332    518.96148  0.031963629  0.031932272            1 
 1354000    1.0632192   -7.0190156     519.9582  0.032001366  0.031925732            3 
 1355000    1.0272992   -7.0121164    519.91178  0.031974894  0.031919267            1 
 1356000    1.0558928   -7.0420027    520.03934  0.031959153  0.031912715            3 
 1357000    1.0254528   -7.0120197    522.72312  0.032100413  0.031906357            2 
 1358000    1.0339605   -7.0335298    521.46513  0.031999579  0.031899884            3 
 1359000    1.0437065   -6.9900778    521.98605  0.032007975   0.03189349            2 
 1360000   0.99088659   -7.0431047     521.6879  0.031966171  0.031886918            6 
 1361000    1.0549026   -7.0130507    522.16133  0.031971671  0.031880559            1 
 1362000    1.0218788   -7.0183408     523.3591  0.032021482  0.031873933            3 
 1363000    1.0501981   -7.0429139    523.54438  0.032009317  0.031867392            1 
 1364000    1.0428174   -7.0555151    524.09957  0.032019768  0.031861068            1 
 1365000    1.0232501   -7.0636234    522.29411  0.031886087   0.03185486            2 
 1366000    1.0222105   -7.0076998    523.99141  0.031966289   0.03184834            2 
 1367000    1.0455954   -7.0015898    524.71896  0.031987257  0.031842062            3 
 1368000    1.0567573   -7.0155768    525.84418  0.032032418  0.031835688            2 
 1369000    1.0391185   -6.9959907    524.46808  0.031925254  0.031829299            5 
 1370000    1.0126665   -7.0135341    525.11101  0.031941059  0.031822965            1 
 1371000     1.023469   -7.0483559    526.23036  0.031985799  0.031816574            1 
 1372000    1.0061196   -7.0572221    523.80108  0.031814934  0.031810165            1 
 1373000    1.0292315   -6.9868339    524.83718  0.031854648  0.031803693            1 
 1374000    1.0323471   -7.0393952    526.00087  0.031902042  0.031797393            2 
 1375000    1.0271887   -7.0433783    528.03166  0.032001919  0.031791016            2 
 1376000    1.0114147   -7.0480948    526.76447  0.031901918  0.031784594            2 
 1377000    1.0369918   -7.0296703    525.50022  0.031802241  0.031778049            3 
 1378000    1.0369567   -7.0265318    526.32937  0.031829304  0.031771485            1 
 1379000    1.0374523   -7.0163667    527.15577  0.031856162  0.031765047            2 
 1380000    1.0141818   -7.0628694    527.56029  0.031857505  0.031758433            2 
 1381000    1.0392464   -7.0181779    527.45552  0.031828115   0.03175196            3 
 1382000    1.0465281    -7.034097    528.99539  0.031897937  0.031745568            2 
 1383000    1.0381479   -7.0301587    527.07907  0.031759404   0.03173899            3 
 1384000    1.0490871    -7.046104    528.31423  0.031810828  0.031732471            3 
 1385000    1.0303586   -7.0163656    528.30691   0.03178742  0.031725856            4 
 1386000    1.0208234   -7.0589843    527.35929  0.031707509  0.031719301            2 
 1387000    1.0364104   -7.0732017    528.65631  0.031762576  0.031712668            5 
 1388000    1.0130424   -7.0324505    528.68582  0.031741464  0.031706133            2 
 1389000    1.0147064   -7.0773133     528.1611  0.031687131  0.031699412            2 
 1390000     1.026452   -7.0371528    529.92692  0.031770199  0.031692619            3 
 1391000    1.0420684   -7.0076668    530.54093  0.031784144  0.031685923            1 
 1392000    1.0090215   -7.0448044    528.18875  0.031620495  0.031679202            1 
 1393000    1.0434171   -7.0413272    528.69881  0.031628309  0.031672283            2 
 1394000    1.0179016   -7.0192573    528.77518  0.031610186  0.031665488            3 
 1395000    1.0355195   -7.0529936    530.86341   0.03171227  0.031658832            7 
 1396000    1.0513477   -7.0154114    531.04507  0.031700398  0.031652171            1 
 1397000    1.0020324   -7.0269902     530.1641  0.031625155  0.031645483            3 
 1398000    1.0296328   -7.0541158    529.99574  0.031592498  0.031638675            2 
 1399000    1.0364306   -7.0570014    529.10017  0.031516569  0.031631776            2 
 1400000    1.0197491   -7.0522921    531.29747  0.031624849  0.031624785            2 
 1401000    1.0518527   -7.0681853    531.76512  0.031630093  0.031617922            5 
 1402000    1.0015566   -7.0439872    532.97914  0.031679692  0.031611251            4 
 1403000    1.0247371   -7.0384644     533.1314  0.031666156  0.031604727            2 
 1404000    1.0288208    -7.007426    533.84035  0.031685681  0.031597961            2 
 1405000    1.0232725   -7.0593572    532.80674  0.031601823   0.03159114            2 
 1406000    1.0212336   -7.0337973    531.84532  0.031522364  0.031584252            2 
 1407000    1.0192881    -7.024178    533.05998  0.031571901  0.031577411            3 
 1408000    1.0033656    -7.048028    533.81111  0.031593934  0.031570586            6 
 1409000     1.010788   -7.0642019     533.4894  0.031552484  0.031563572            3 
 1410000    1.0269371   -6.9946727     535.4517  0.031646081  0.031556584            2 
 1411000     1.006266   -7.0062125    534.76812  0.031583281  0.031549845            1 
 1412000    1.0089773   -7.0502807    534.99053   0.03157404  0.031542939            1 
 1413000    1.0020999   -7.0395662    535.65563  0.031590919  0.031536334            4 
 1414000     1.029296     -7.01324    538.03212  0.031708635  0.031529807            4 
 1415000    1.0151428   -7.0525998    535.63514  0.031545061  0.031523216            1 
 1416000     1.016004   -7.0375966    536.48768  0.031572957  0.031516524            5 
 1417000    1.0079049   -7.0338505    535.72417  0.031505774  0.031509949            4 
 1418000    1.0250142   -7.0381003    536.48907  0.031528507  0.031503311            2 
 1419000    1.0467262   -7.0517614    537.49567  0.031565402  0.031496787            4 
 1420000    1.0398426    -7.053056    536.57794  0.031489315  0.031490123            2 
 1421000    1.0480302   -7.0538194    537.66427  0.031530862  0.031483347            3 
 1422000    1.0156013   -7.0804259    537.76295  0.031514472  0.031476646            1 
 1423000    1.0260928   -7.0517856    538.89601   0.03155868  0.031469993            3 
 1424000    1.0240769   -7.0341043    536.01932  0.031368172    0.0314634            2 
 1425000    1.0018406   -7.0246753     540.4077   0.03160279  0.031456703            4 
 1426000    1.0414896   -7.0487698    538.02377  0.031441314  0.031450048            2 
 1427000    1.0340694   -7.0548457    540.08279  0.031539523  0.031443499            2 
 1428000    1.0353453   -7.0943576    538.05275   0.03139897  0.031436761            1 
 1429000   0.99726266   -7.0371083    539.35188  0.031452757  0.031429989            2 
 1430000    1.0071362   -7.0528591    539.07743  0.031414769  0.031423198            3 
 1431000    1.0211385   -7.0485892    540.08877   0.03145171  0.031416494            4 
 1432000    1.0148945   -7.0291192    540.72106  0.031466542  0.031409999            3 
 1433000      1.02149   -7.0385648    540.34226  0.031422555  0.031403462            3 
 1434000    1.0229102   -7.0287968    539.32578  0.031341573  0.031396813            1 
 1435000     1.006576   -7.0453729    541.52728  0.031447577  0.031390037            2 
 1436000    1.0449962    -7.028372    542.69973  0.031493717  0.031383393            3 
 1437000    1.0277719   -7.0419713    542.10499  0.031437311  0.031376835            4 
 1438000    1.0200726   -7.0352673    541.43764  0.031376775  0.031370239            2 
 1439000    1.0216281   -7.0506157    542.37085  0.031409014  0.031363389            2 
 1440000    1.0165673   -7.0390289    541.36119  0.031328773  0.031356372            3 
 1441000    1.0116134   -7.0845981    542.64184  0.031381092  0.031349376            2 
 1442000    1.0282246   -7.0373403    542.68571  0.031361865  0.031342376            2 
 1443000    1.0151288   -7.0446898    542.15473  0.031309467  0.031335578            2 
 1444000     1.020293   -7.0125043    543.98957  0.031393673  0.031328806            1 
 1445000    1.0208051   -7.0535267    543.14224  0.031323082  0.031321908            3 
 1446000    1.0261279   -7.0401385    543.46571  0.031320062   0.03131498            2 
 1447000    1.0386091   -7.0526053    544.37161  0.031350588  0.031307953            3 
 1448000    1.0268982   -7.0423181    542.47426  0.031219743   0.03130089            2 
 1449000    1.0176674     -7.04776    543.85496  0.031277603    0.0312938            5 
 1450000   0.99309137    -7.068243    542.23108  0.031162706  0.031286824            2 
 1451000    1.0087154   -7.0730091     543.4513  0.031211308  0.031279808            2 
 1452000    1.0155459   -7.0593076    544.76252  0.031265067  0.031272845            2 
 1453000    1.0040135   -7.0594406    545.71072  0.031297931  0.031265841            3 
 1454000    1.0345068   -7.0426539    547.07546  0.031354623  0.031259036            6 
 1455000    1.0231164    -7.062879     545.2609  0.031229147  0.031252334            3 
 1456000    1.0124138   -7.0848505    545.15939  0.031201888  0.031245448            3 
 1457000     1.003608   -7.0104384    547.05498  0.031288891   0.03123863            2 
 1458000    1.0310813   -7.0863465    547.53621  0.031294937  0.031231793            3 
 1459000     1.033567   -7.0832816    546.59873  0.031219941  0.031224947            2 
 1460000     1.008786   -7.0511759    546.50613  0.031193272  0.031218029            1 
 1461000    1.0205273     -7.03983    547.85622  0.031248929  0.031211131            2 
 1462000    1.0299908    -7.047067    548.30901  0.031253364  0.031204369            2 
 1463000    1.0064172   -7.0304562      548.218  0.031226817  0.031197397            6 
 1464000      1.00617   -7.0638739    547.59665  0.031170119  0.031190366            1 
 1465000     1.024856    -7.079615    546.94148  0.031111575  0.031183222            4 
 1466000    1.0222251    -7.061714    546.82405  0.031083677  0.031176082            1 
 1467000    1.0298894   -7.0541243    546.53757  0.031046215  0.031168925            1 
 1468000    1.0251273   -7.0700407    546.63086  0.031030362  0.031161662            3 
 1469000    1.0171788   -7.0464523    548.15443  0.031095667  0.031154316            3 
 1470000   0.99791725    -7.080887    549.20898  0.031134296  0.031147112            2 
 1471000    1.0170742   -7.0798657    547.97741  0.031043361   0.03113991            3 
 1472000    1.0233661   -7.0730703    547.73582  0.031008595  0.031132686            2 
 1473000    1.0390023   -7.0565226    548.56597  0.031034508  0.031125364            1 
 1474000    1.0107425   -7.0743117    550.19745   0.03110569  0.031118117            4 
 1475000    1.0222035   -7.0724049    549.49418  0.031044869  0.031110852            3 
 1476000     1.019767   -7.0990268    548.50919  0.030968224  0.031103693            2 
 1477000    1.0111655   -7.0739724    550.87064  0.031080492  0.031096439            2 
 1478000      1.01423   -7.0562816    548.76247  0.030940599   0.03108921            3 
 1479000    1.0135327    -7.041163    548.90773  0.030927864  0.031081937            4 
 1480000     1.010445   -7.0920896    549.28405  0.030928156  0.031074678            3 
 1481000    1.0136593   -7.0526071    551.02294  0.031005117  0.031067342            4 
 1482000    1.0228364    -7.114969    549.91086  0.030921664   0.03105997            2 
 1483000    1.0375541   -7.0365359    551.26104  0.030976683  0.031052743            3 
 1484000    1.0222613    -7.044649    551.15655  0.030949941  0.031045478            2 
 1485000    1.0083704   -7.0420772    552.30329   0.03099345  0.031038115            2 
 1486000    1.0138641   -7.0378805    551.58256  0.030932176    0.0310308            2 
 1487000    1.0064204   -7.0748698    551.82643  0.030925041  0.031023532            2 
 1488000    1.0096192    -7.067338    551.71396  0.030897959  0.031016209            2 
 1489000    1.0039993    -7.076249    553.05113  0.030952044   0.03100892            2 
 1490000    1.0400029   -7.0659334    552.54813  0.030903139  0.031001615            2 
 1491000    1.0262559    -7.058299    553.04517  0.030910193  0.030994413            2 
 1492000   0.99911883   -7.0845539    551.63821  0.030810892  0.030987256            3 
 1493000    1.0077947   -7.0780171    552.82478  0.030856485  0.030980126            3 
 1494000    1.0330753   -7.0855645    554.03172  0.030903153  0.030973036            2 
 1495000    1.0367384   -7.0687335    554.90839  0.030931349  0.030966026            3 
 1496000    1.0202371   -7.0714565    554.71332  0.030899806  0.030959086            1 
 1497000    1.0110336   -7.0246892    555.73637  0.030936115  0.030952275            3 
 1498000    1.0356425   -7.0508567    556.21803  0.030942258  0.030945382            2 
 1499000    1.0411296   -7.0985197    555.70081  0.030892863  0.030938353            2 
 1500000    1.0031038   -7.0409309    557.50812  0.030972673  0.030931476            2 
 1501000   0.98304845   -7.0417101    558.78387  0.031022867  0.030924594            3 
 1502000    1.0144183    -7.066086    556.61813  0.030882053   0.03091783            2 
 1503000   0.99937627   -7.0499714    558.07398  0.030942225  0.030911033            4 
 1504000    1.0108275    -7.083353    558.18978  0.030928069  0.030904189            2 
 1505000    1.0132155    -7.064883    557.89763  0.030891342  0.030897328            4 
 1506000    1.0086855   -7.0591964    558.47279  0.030902656  0.030890546            1 
 1507000    1.0211896    -7.064692    559.05982  0.030914611  0.030883775            2 
 1508000     1.025891   -7.0363202    560.97558  0.030999977  0.030877014            2 
 1509000     1.028123   -7.0432622    558.07974  0.030819513  0.030870268            2 
 1510000     1.009749   -7.0602533      558.782  0.030837859  0.030863358            4 
 1511000   0.99508683   -7.0418698    561.06567  0.030943397  0.030856476            1 
 1512000    1.0163593   -7.0677262    558.99193  0.030808638  0.030849572            5 
 1513000    1.0069933   -7.1109938    560.09269  0.030848903  0.030842554            3 
 1514000    1.0036709   -7.0590574    560.13505  0.030830859  0.030835821            5 
 1515000   0.98789905   -7.0853159    561.62425  0.030892423  0.030828903            2 
 1516000    1.0133895    -7.061435    560.14116  0.030790521  0.030821911            2 
 1517000    1.0331788   -7.0960753    560.43861  0.030786564  0.030814945            1 
 1518000   0.98655552   -7.0943728    560.17585  0.030751858  0.030807851            2 
 1519000    1.0247795   -7.1042438    559.14931  0.030675297  0.030800757            4 
 1520000   0.99843394   -7.1028274    560.81561   0.03074647  0.030793737            3 
 1521000    1.0271849   -7.1058945    560.84871  0.030728068  0.030786791            4 
 1522000   0.96511042   -7.0971963    561.35953  0.030735848  0.030779755            4 
 1523000   0.99899627   -7.0604602    563.15414  0.030813862  0.030772841            2 
 1524000   0.99896228   -7.0788379     562.6337  0.030765185   0.03076607            3 
 1525000    1.0110389   -7.1098419    562.92111  0.030760716  0.030759163            3 
 1526000    0.9974516   -7.0645236    561.49285  0.030662563   0.03075217            3 
 1527000    1.0252952   -7.0731466    563.61867  0.030758495  0.030745133            1 
 1528000   0.96814725   -7.0726175    564.39842  0.030780891   0.03073819            3 
 1529000    1.0134997   -7.0668488    563.94236  0.030735904  0.030731202            2 
 1530000    1.0192754   -7.0445731    564.79468  0.030762237  0.030724279            2 
 1531000    1.0039235   -7.0726193    563.42863  0.030667789  0.030717366            1 
 1532000    0.9976064    -7.093652    563.67286  0.030661056   0.03071029            3 
 1533000    1.0257067   -7.1000355    563.79933   0.03064793  0.030703091            3 
 1534000   0.99417216   -7.1105361    563.19117  0.030594914  0.030695895            2 
 1535000   0.99024405   -7.0833733    564.20304  0.030629915  0.030688725            2 
 1536000   0.98661649   -7.1135296    563.06032  0.030547977  0.030681467            2 
 1537000    1.0041452   -7.0604833    562.19716  0.030481303  0.030674316            2 
 1538000   0.99889618   -7.0768369    564.84371  0.030604882  0.030667087            7 
 1539000    1.0064259   -7.1021737     565.5676  0.030624193  0.030659837            2 
 1540000    0.9943692   -7.0852187    565.65351  0.030608956  0.030652499            2 
 1541000    1.0253346   -7.0597113    565.41995  0.030576463  0.030645216            2 
 1542000    1.0068025   -7.0838995    565.14752  0.030541911  0.030637964            2 
 1543000   0.98857787   -7.1067442    565.16207  0.030522903  0.030630765            4 
 1544000   0.98418855   -7.0914233     566.3336  0.030566364  0.030623602            4 
 1545000    1.0112779   -7.1167078    566.38619  0.030549417  0.030616503            4 
 1546000    1.0467856   -7.1119059    567.08176  0.030567149   0.03060925            2 
 1547000    1.0401783   -7.1015227    565.83405  0.030480179  0.030602198            3 
 1548000   0.98888335   -7.1254247    565.31092  0.030432328  0.030594872            1 
 1549000    1.0188167    -7.078788    566.45269  0.030474107   0.03058741            2 
 1550000     0.972461   -7.0960645    565.95393  0.030427631  0.030580133            2 
 1551000    1.0150398   -7.0565042    566.29062  0.030426103  0.030572853            2 
 1552000   0.98757814   -7.1010084    567.69439  0.030481872  0.030565524            2 
 1553000     1.007366    -7.088417    567.24361  0.030438056   0.03055801            2 
 1554000    1.0064303   -7.0986981    568.37098  0.030478924  0.030550644            2 
 1555000    1.0111373    -7.081587    566.99732  0.030385709  0.030543254            2 
 1556000   0.98706078   -7.0908523     567.4015  0.030387826  0.030535838            2 
 1557000      0.98425   -7.1047566    567.84447  0.030392018  0.030528411            1 
 1558000    1.0086178   -7.1066611    566.99919  0.030327299  0.030520894            4 
 1559000    1.0040031   -7.1216531    567.17944  0.030317481  0.030513508            2 
 1560000   0.99865932   -7.0770692    568.21166  0.030353187  0.030506019            4 
 1561000    0.9938791   -7.0863734    567.37075  0.030288851  0.030498522            3 
 1562000    1.0217441   -7.0508457    570.28813  0.030425103  0.030491091            2 
 1563000   0.99503168   -7.0782048    570.34894   0.03040888  0.030483679            1 
 1564000   0.99516756    -7.102379    567.32213  0.030228161  0.030476103            1 
 1565000   0.99807027   -7.0719073    569.61284  0.030330822   0.03046855            2 
 1566000    1.0146444   -7.0696136    570.10612  0.030337703  0.030460997            2 
 1567000   0.97428689   -7.0868301    568.81888  0.030249887  0.030453445            2 
 1568000    1.0142496   -7.0916231    569.97162  0.030291859  0.030445793            1 
 1569000    0.9967272   -7.0981089     567.9652  0.030165987  0.030438252            2 
 1570000   0.98598541   -7.1107932    569.49276  0.030227853  0.030430538            3 
 1571000    1.0034367    -7.073144    570.66991  0.030271054  0.030422958            2 
 1572000   0.99968446   -7.0884638    569.31622  0.030180037  0.030415397            3 
 1573000    0.9935636    -7.091486    570.77152  0.030237949  0.030407867            2 
 1574000    1.0105112   -7.0694408    573.08549  0.030341248  0.030400357            2 
 1575000    1.0202102   -7.1192334    570.68688  0.030195073  0.030392792            2 
 1576000    1.0132075   -7.0750933    572.15729  0.030253664  0.030385183            2 
 1577000   0.99139744    -7.096786    572.15453  0.030234334  0.030377537            5 
 1578000   0.99393174   -7.0982863     572.0986   0.03021222  0.030370039            3 
 1579000   0.99463942    -7.093762    571.74793  0.030174579  0.030362433            3 
 1580000   0.99248948   -7.1025559    573.30164  0.030237428  0.030354791            2 
 1581000    1.0026445   -7.0983176    573.90486  0.030250098  0.030347304            2 
 1582000   0.98671811   -7.0859323     573.9307  0.030232338  0.030339759            8 
 1583000   0.98314141    -7.104946    576.05338  0.030324983  0.030332279            9 
 1584000    1.0081136    -7.085979    573.59591  0.030176553  0.030324835            2 
 1585000   0.99040933   -7.0713042    574.81825   0.03022178  0.030317387            2 
 1586000    1.0020508   -7.1108402     573.1638  0.030115795  0.030309874            2 
 1587000    1.0268517   -7.0936884    575.10916  0.030198969  0.030302352            2 
 1588000   0.98596713   -7.0883263    574.73397  0.030160263  0.030294759            1 
 1589000   0.98099781   -7.0734293    576.02788   0.03020914   0.03028722            2 
 1590000    1.0016687   -7.0975336    575.06984  0.030139929  0.030279627            1 
 1591000   0.99620357    -7.091793    575.13757  0.030124532  0.030272104            2 
 1592000   0.99397039   -7.0735737    576.03536  0.030152605  0.030264622            2 
 1593000   0.98929383   -7.1086872    576.34803  0.030150033  0.030257158            5 
 1594000   0.99403497   -7.1111582    576.60852  0.030144736  0.030249675            3 
 1595000   0.98203153   -7.0967374    577.14974  0.030154114  0.030242235            2 
 1596000    1.0088718   -7.1036945    577.42495   0.03014959   0.03023481            2 
 1597000    0.9811065   -7.0958566    578.64673  0.030194465  0.030227352            1 
 1598000   0.99873535    -7.073579    578.08885  0.030146477  0.030219988            3 
 1599000    1.0015068   -7.0993961    576.14913  0.030026534   0.03021264            2 
 1600000   0.99774418   -7.1025828    578.15828  0.030112411  0.030205067            1 
 1601000   0.99630696   -7.0922611    578.06841  0.030088924  0.030197483            2 
 1602000   0.99503154   -7.1285449    576.40864  0.029983803  0.030190031            1 
 1603000   0.99746789    -7.085547     578.3519  0.030066121  0.030182618            4 
 1604000   0.98448678    -7.073091    577.83922  0.030020741  0.030175138            2 
 1605000   0.98441037   -7.0613968    578.86544  0.030055319  0.030167648            4 
 1606000   0.99331591   -7.1195883    579.13772  0.030050733   0.03016014            2 
 1607000    1.0302336   -7.1115073    578.79794  0.030014413  0.030152588            3 
 1608000   0.97964379   -7.1493125    577.87035  0.029947676  0.030144999            3 
 1609000    1.0130778   -7.0966828    579.41703  0.030009169  0.030137435            4 
 1610000   0.99321678   -7.1116187    580.06418  0.030024026  0.030129953            2 
 1611000    1.0055218   -7.0652882     579.4109  0.029971596  0.030122556            5 
 1612000   0.98874923    -7.127711    580.30927  0.029999445  0.030115104            2 
 1613000   0.98392849   -7.0991677    579.59103   0.02994374  0.030107592            2 
 1614000     1.012565    -7.116489    580.40145  0.029967031  0.030100111            4 
 1615000   0.99511396   -7.1097802    580.62658  0.029960092  0.030092543            3 
 1616000   0.99994691   -7.1166644    579.23838  0.029869966  0.030085138            2 
 1617000   0.97077231   -7.1111489    580.27358  0.029904843  0.030077651            3 
 1618000   0.99134332   -7.0924046    582.16747  0.029983904  0.030070015            3 
 1619000     1.016538   -7.1392432    580.54219  0.029881727  0.030062589            2 
 1620000   0.99081594   -7.0645861    582.69192  0.029973864  0.030055149            2 
 1621000    1.0126721   -7.1009241    582.27324   0.02993385  0.030047692            5 
 1622000   0.98216172    -7.118279    583.51145   0.02997901  0.030040243            3 
 1623000   0.99166039   -7.1222358    581.81903  0.029873641  0.030032863            2 
 1624000   0.98830012   -7.1115282    581.10034  0.029818367  0.030025282            2 
 1625000   0.96605153   -7.1011966    583.84581  0.029940811  0.030017859            2 
 1626000    0.9715367   -7.0733654     582.3562  0.029846054  0.030010402            3 
 1627000   0.98468868   -7.1187654    583.90523  0.029907049  0.030002966            3 
 1628000   0.98327143   -7.1044276      583.688  0.029877559  0.029995459            3 
 1629000    0.9864455   -7.0987242    584.75152  0.029913624  0.029988069            4 
 1630000   0.99395174   -7.1501281     583.9712  0.029855378  0.029980629            2 
 1631000   0.99430454   -7.1160175    582.87053  0.029780836  0.029973091            3 
 1632000   0.98562509   -7.1055601    584.81701   0.02986198  0.029965523            2 
 1633000   0.96813066   -7.0997628     586.3274   0.02992077  0.029958083            2 
 1634000   0.98045671   -7.0949638    586.49259  0.029910883  0.029950703            1 
 1635000   0.97533385   -7.0905804    587.18785  0.029928025  0.029943325            2 
 1636000   0.99394873   -7.0999093    583.81147  0.029737748  0.029935907            2 
 1637000   0.96132008   -7.1206761    584.63847  0.029761681  0.029928346            4 
 1638000   0.98034014     -7.11305    587.28773  0.029878293  0.029920938            4 
 1639000   0.98961327   -7.1217485    587.42624  0.029867106   0.02991356            2 
 1640000   0.97518569    -7.132065    586.14344  0.029783711  0.029906141            4 
 1641000   0.98354261   -7.1171287    586.71072  0.029794369  0.029898707            2 
 1642000    1.0059173   -7.1570213    586.03524  0.029741943   0.02989129            2 
 1643000    1.0038699   -7.1191748    586.89786  0.029767593   0.02988385            4 
 1644000   0.95652848   -7.0939704    588.88549  0.029850238  0.029876492            2 
 1645000   0.98348755    -7.115702    588.21054  0.029797899  0.029869187            5 
 1646000   0.98382334   -7.1181396    587.28068   0.02973272  0.029861925            2 
 1647000   0.98754832   -7.1281678     589.0065  0.029801989   0.02985461            4 
 1648000   0.99751472   -7.1439706    587.23229  0.029694189   0.02984719            2 
 1649000   0.98726838   -7.1300463    588.12252   0.02972117  0.029839891            4 
 1650000   0.96884391   -7.1033663    588.32402  0.029713334  0.029832529            6 
 1651000   0.99000473   -7.1045553      588.209  0.029689532  0.029825152            3 
 1652000   0.98243418    -7.128041    587.97544  0.029659778  0.029817626            2 
 1653000     0.989562   -7.1084603    591.05046  0.029796857  0.029810205            3 
 1654000   0.96454697    -7.096936    589.02988  0.029677039  0.029802647            2 
 1655000   0.99026489   -7.1424395    589.17939  0.029666636  0.029795038            3 
 1656000     1.001416   -7.1286557    589.40044  0.029659845  0.029787434            3 
 1657000   0.98291699   -7.1330623    589.32357  0.029638079  0.029779899            1 
 1658000   0.97241871   -7.0949752    589.08256   0.02960809  0.029772334            5 
 1659000   0.97942921   -7.1729537    588.58464  0.029565232  0.029764715            4 
 1660000   0.99547085   -7.1509354    590.22816  0.029629928  0.029757192            2 
 1661000   0.97600958   -7.1405031    589.91565   0.02959641   0.02974961            2 
 1662000   0.96697488   -7.1362078    590.02385  0.029584028  0.029742029            1 
 1663000   0.98283553   -7.1315106    590.22118  0.029576127  0.029734565            3 
 1664000   0.99573498   -7.1340097    590.00823  0.029547688  0.029726962            2 
 1665000   0.97083796   -7.1211041    590.35839  0.029547467  0.029719297            2 
 1666000   0.97240002   -7.1029441    590.13588  0.029518602  0.029711632            4 
 1667000   0.96126005   -7.1239358    592.91624  0.029639884  0.029704039            4 
 1668000   0.98918176   -7.1300477    591.22396  0.029537568  0.029696473            4 
 1669000   0.97660431   -7.1316198    591.67844  0.029542562  0.029688872            2 
 1670000   0.98211695   -7.1233199     591.2697  0.029504476  0.029681185            6 
 1671000   0.98422119   -7.1391381    591.79673  0.029513103  0.029673752            1 
 1672000   0.98948497   -7.1271842    592.16383  0.029513747  0.029666221            1 
 1673000    1.0102439   -7.1389144     591.5657  0.029466313  0.029658649            3 
 1674000   0.99442601   -7.1405221    592.22801  0.029481681  0.029651089            3 
 1675000   0.95635618   -7.1627641    590.87126   0.02939658  0.029643433            1 
 1676000     1.000438   -7.1478371     593.2919  0.029499398  0.029635811            2 
 1677000   0.98010938   -7.1169818    592.93235  0.029463941  0.029628258            2 
 1678000   0.99577354   -7.1310587    591.35431  0.029368013  0.029620605            2 
 1679000    0.9852448   -7.1202317    592.73782  0.029419189  0.029613035            2 
 1680000   0.97117506   -7.1342183     593.2056  0.029424881  0.029605374            3 
 1681000   0.98162965   -7.1819149    593.61113   0.02942748  0.029597662            3 
 1682000   0.97252632   -7.1414623    593.66692  0.029412749  0.029590004            4 
 1683000   0.98771838   -7.1255162    594.71832  0.029447332  0.029582283            5 
 1684000   0.98541854   -7.1383862    595.55774  0.029471385  0.029574738            7 
 1685000   0.98532958     -7.06751     596.2888  0.029490049  0.029567251            2 
 1686000    1.0037663   -7.1195124    593.72193  0.029345686  0.029559803            8 
 1687000   0.96433046   -7.1202403    595.83347  0.029432596  0.029552296            5 
 1688000   0.97211273   -7.1269769    595.35682  0.029391628  0.029544841            3 
 1689000   0.98483612   -7.1314743    597.14138  0.029462274  0.029537387            6 
 1690000   0.97913713   -7.1637971    596.10877  0.029393923  0.029529913            2 
 1691000   0.97314038   -7.1407882    596.39691  0.029390741  0.029522462            4 
 1692000   0.99885316     -7.13682    594.76881  0.029293184  0.029515011            3 
 1693000   0.97832136   -7.1526056     596.1909   0.02934588  0.029507536            1 
 1694000   0.97214825   -7.1265935    596.96468  0.029366621  0.029500043            3 
 1695000   0.98179308   -7.1574977     597.4151   0.02937144  0.029492585            2 
 1696000   0.98308888   -7.1724958    598.36347  0.029400721   0.02948516            3 
 1697000   0.97215665   -7.1385675    597.61885   0.02934683  0.029477666            2 
 1698000   0.97137686   -7.1323427    598.93689  0.029394233  0.029470199            2 
 1699000   0.97316533    -7.155528    599.78765   0.02941866  0.029462687            4 
 1700000   0.98072911   -7.1291098    601.27384  0.029474208  0.029455314            2 
 1701000   0.99055172   -7.0923603    599.44101  0.029367088  0.029447954            4 
 1702000   0.97752489   -7.1518813    599.54124  0.029354741  0.029440732            3 
 1703000   0.97963741   -7.1519696    597.93709  0.029259008  0.029433392            3 
 1704000   0.98890325   -7.1635912    599.58598  0.029322475  0.029426103            3 
 1705000   0.96960823    -7.130098    600.38639  0.029344398  0.029418733            4 
 1706000   0.95479519   -7.1295539    601.18994  0.029366449  0.029411227            3 
 1707000    0.9506759   -7.1328629    600.01786  0.029292026  0.029403918            2 
 1708000     0.983409    -7.135131    602.13991  0.029378411  0.029396662            2 
 1709000   0.97883908   -7.1409493    602.99541  0.029402936  0.029389393            2 
 1710000   0.97909311   -7.1569425    600.14963  0.029247058    0.0293821            2 
 1711000   0.98122565    -7.142246    601.89353    0.0293149  0.029374864            2 
 1712000   0.98471084   -7.1222705    601.66892  0.029286844  0.029367597            3 
 1713000   0.95511571   -7.1253168    602.44366  0.029307436  0.029360362            7 
 1714000    0.9964737   -7.1122156     603.8264  0.029357565  0.029353096            2 
 1715000   0.95360869   -7.1479043    602.24006  0.029263366   0.02934579            2 
 1716000   0.97790423   -7.1601299    601.89728  0.029229666  0.029338372            4 
 1717000   0.99484764   -7.1812782    601.68141  0.029202165  0.029330956            1 
 1718000   0.97166106   -7.1574836    603.80039   0.02928795  0.029323615            2 
 1719000   0.96761399    -7.156179    602.59755  0.029212602  0.029316282            3 
 1720000    0.9729495   -7.1402681    603.67327  0.029247736  0.029308987            5 
 1721000   0.96765798   -7.1217962     602.9559  0.029196005  0.029301798            2 
 1722000   0.97696887   -7.1293046    602.57507  0.029160621  0.029294546            4 
 1723000   0.97587102   -7.1617938    604.00628  0.029212917  0.029287213            2 
 1724000   0.98110154   -7.1304066    605.74638  0.029280084  0.029280085            3 
 1725000   0.95573875   -7.1540272    606.60059  0.029304376  0.029273008            3 
 1726000   0.96511467   -7.1232445    604.88879   0.02920475  0.029265859            2 
 1727000   0.99088348   -7.1388236    606.07409  0.029245034   0.02925871            3 
 1728000   0.94896658   -7.1628241    604.87993  0.029170521  0.029251483            2 
 1729000   0.95467897   -7.1775126    606.24156  0.029219277  0.029244164            3 
 1730000   0.98705435   -7.1839198    605.28915   0.02915651  0.029236929            3 
 1731000   0.97550478   -7.1647711    606.13646  0.029180458  0.029229677            7 
 1732000   0.99288825   -7.1642252     606.1931  0.029166335   0.02922238            5 
 1733000    0.9553127   -7.1552614    606.27497  0.029153441  0.029215154            2 
 1734000    0.9716003   -7.1830981    607.30643  0.029186199  0.029207911            1 
 1735000   0.97215605   -7.1560855    608.08117  0.029206588  0.029200651            2 
 1736000   0.95450161   -7.1403472    609.25646  0.029246182   0.02919328            4 
 1737000   0.95857546   -7.1526849    606.49036   0.02909664  0.029185917            3 
 1738000   0.97192444    -7.182606    605.11831  0.029014111  0.029178456            4 
 1739000   0.97045545   -7.1336318    607.56902  0.029114866  0.029170984            2 
 1740000   0.98594983   -7.1489751    606.90101   0.02906614  0.029163552            4 
 1741000   0.98388492   -7.1482737    608.65992  0.029133636  0.029156181            1 
 1742000   0.97243351   -7.1410683    606.75888   0.02902597  0.029148862            4 
 1743000   0.98850564    -7.167824    607.17889  0.029029398  0.029141507            2 
 1744000   0.96803489   -7.1387052    605.36281  0.028925975  0.029134074            2 
 1745000   0.97522272    -7.144746    608.71352  0.029069413  0.029126616            3 
 1746000   0.96425071   -7.1134435    610.33599  0.029130202  0.029119253            2 
 1747000   0.99343744   -7.1611177    606.83296   0.02894643  0.029111882            2 
 1748000   0.98878309   -7.1760467    607.05554  0.028940481  0.029104334            3 
 1749000   0.97474658   -7.1624232     608.1408  0.028975643   0.02909675            2 
 1750000   0.98298745    -7.151919    607.25528  0.028916918  0.029089136            3 
 1751000   0.98785644    -7.158774    608.02849  0.028937202  0.029081607            2 
 1752000   0.95686538   -7.1555024    608.62577  0.028949095  0.029073953            7 
 1753000   0.96935046    -7.119407    609.30172  0.028964714  0.029066415            2 
 1754000   0.98724006   -7.1532593    609.20494  0.028943602  0.029058826            2 
 1755000   0.97350383    -7.144287    609.56169   0.02894405  0.029051203            6 
 1756000   0.98590385   -7.1682808    608.56631   0.02888033  0.029043661            3 
 1757000   0.97833195   -7.1493686    610.27628  0.028944995  0.029036045            2 
 1758000    0.9500101   -7.1673569    608.03763  0.028822413  0.029028319            2 
 1759000   0.95607742   -7.1320629    609.24562  0.028863257  0.029020677            2 
 1760000    0.9677341    -7.159464    610.01734  0.028883397  0.029013042            2 
 1761000   0.94940266   -7.1730289    610.41764  0.028885938  0.029005435            3 
 1762000   0.94864025   -7.1538944    609.57638  0.028829757  0.028997804            4 
 1763000   0.96096365   -7.1630345     608.9509  0.028783839   0.02899008            2 
 1764000    0.9569152    -7.183944    609.16207  0.028777498  0.028982318            2 
 1765000   0.96548268    -7.108903    608.52368  0.028731052  0.028974601            3 
 1766000   0.96199089   -7.1264482    610.21429  0.028794559  0.028966795            4 
 1767000   0.96933936   -7.1602994    610.25282   0.02878008  0.028959104            3 
 1768000   0.98361524   -7.1686428    610.15206  0.028759053  0.028951345            3 
 1769000   0.97497104   -7.1633917    610.61588  0.028764645  0.028943741            2 
 1770000    0.9738186   -7.1655939    610.79376  0.028756768  0.028936042            4 
 1771000   0.98631477   -7.1511277    611.49296  0.028773431  0.028928353            2 
 1772000   0.97736735    -7.156829    611.19544  0.028743201  0.028920668            4 
 1773000   0.94454718   -7.1436612    612.21815  0.028775059  0.028912947            4 
 1774000   0.97021075   -7.1588946    613.10376   0.02880044  0.028905359            2 
 1775000   0.98668871   -7.1462477    611.65759  0.028716319  0.028897721            2 
 1776000   0.97174323   -7.1398214    613.94408  0.028807436  0.028890184            3 
 1777000   0.95435989   -7.1697632     613.3691  0.028764261   0.02888259            1 
 1778000   0.95368258   -7.1626472    612.45426  0.028705205  0.028874983            2 
 1779000   0.94690947   -7.1742642    612.87135  0.028708607  0.028867436            2 
 1780000   0.97998007   -7.1599608    611.90403  0.028647192  0.028859802            3 
 1781000    0.9331074   -7.1840011    613.19504  0.028691514  0.028852107            2 
 1782000   0.96830151   -7.1901916    613.02257  0.028667348  0.028844386            4 
 1783000   0.95238016   -7.1612343    612.59825  0.028631438  0.028836801            6 
 1784000   0.98271843   -7.1536916    615.26984  0.028740183  0.028829234            2 
 1785000   0.96075721   -7.1243981    615.84883  0.028751112  0.028821637            2 
 1786000   0.97237385     -7.18524     612.0518  0.028557848  0.028814042            3 
 1787000     0.976029   -7.1703137    614.12536  0.028638563  0.028806259            3 
 1788000   0.97438792   -7.1803001    613.72729  0.028603994  0.028798474            2 
 1789000   0.96510673   -7.1717057    614.04335  0.028602727  0.028790754            2 
 1790000   0.95019777   -7.1252331    616.28099  0.028690921   0.02878323            4 
 1791000   0.98995777   -7.1902906    614.69188  0.028600962  0.028775539            4 
 1792000   0.99140348   -7.1707688    616.44098   0.02866634  0.028767901            3 
 1793000   0.96598356   -7.1724676    614.25555   0.02854878  0.028760286            2 
 1794000    0.9858244   -7.1891506    615.59466   0.02859507  0.028752684            1 
 1795000   0.93006627   -7.1534586    615.44441  0.028572164  0.028745045            1 
 1796000   0.94788479   -7.1379606    618.19867  0.028684051  0.028737453            2 
 1797000   0.96170925   -7.1234053    617.48949  0.028635202  0.028729854            3 
 1798000   0.97695855   -7.1637356    615.68278  0.028535538  0.028722248            1 
 1799000   0.97291863   -7.1311984    617.20628  0.028590248  0.028714599            1 
 1800000    0.9389159   -7.1667401    616.10418  0.028523342  0.028706884            3 
 1801000   0.97366843   -7.2020072    614.98543  0.028455739  0.028699164            2 
 1802000   0.96508485   -7.1812888     615.7368  0.028474695  0.028691363            3 
 1803000   0.96034029   -7.1912037    616.18168  0.028479464  0.028683618            2 
 1804000   0.95277114   -7.1697243    617.19037  0.028510272  0.028675793            2 
 1805000   0.95603637   -7.1629868    617.26361  0.028497858  0.028668076            3 
 1806000    0.9576301   -7.1588719    617.48315  0.028492209  0.028660408            4 
 1807000    0.9421905   -7.1395744    618.47459  0.028522163  0.028652775            6 
 1808000   0.95405577   -7.1649578    618.67738  0.028515734  0.028645175            2 
 1809000   0.96423223   -7.1445746    619.38868  0.028532738  0.028637573            2 
 1810000   0.95551156     -7.13519    619.11478  0.028504364  0.028630029            2 
 1811000   0.96467417   -7.1739234    620.42051  0.028548708  0.028622537            2 
 1812000   0.97855137   -7.1546703    619.61348  0.028495837  0.028615035            1 
 1813000   0.93571676   -7.1387014     620.3631  0.028514575  0.028607566            3 
 1814000   0.94125369   -7.1681175    620.47276  0.028503894   0.02860005            4 
 1815000   0.95398788   -7.1500743    620.06652  0.028469537  0.028592493            3 
 1816000   0.95290202   -7.1902257    620.32534  0.028465737  0.028584891            3 
 1817000   0.95438482   -7.2056037    619.98736   0.02843457  0.028577336            1 
 1818000   0.96084462   -7.2129862     617.7333  0.028315608  0.028569725            4 
 1819000   0.95173883   -7.1894169    621.16152  0.028457097  0.028562212            4 
 1820000    0.9364161   -7.2059469    621.14122  0.028440532  0.028554744            1 
 1821000    0.9506314    -7.170677    621.85355  0.028457512  0.028547315            4 
 1822000   0.96742074   -7.1887074    622.36118  0.028465111  0.028540004            1 
 1823000   0.98033329   -7.1629892    622.59488  0.028460179  0.028532619            9 
 1824000   0.94159899   -7.1944559    622.36711   0.02843417  0.028525233            2 
 1825000   0.95318376   -7.1893165    622.46122  0.028422887  0.028517885            1 
 1826000   0.99424761   -7.1620003    623.49682  0.028454583  0.028510522            4 
 1827000   0.96156711    -7.198778    621.69759  0.028356942  0.028503217            3 
 1828000   0.97560218   -7.1915269    622.49252  0.028377668  0.028495789            4 
 1829000    0.9527316    -7.172637    623.63822  0.028414353  0.028488374            3 
 1830000   0.93589918   -7.1695686    625.02552     0.028462  0.028480939            2 
 1831000   0.94555798   -7.1745898    625.71274  0.028477733  0.028473554            2 
 1832000    0.9872818   -7.1761144    624.06348  0.028387167  0.028466242            4 
 1833000   0.94406354    -7.162879    625.40684  0.028432753  0.028458946            2 
 1834000   0.95080457   -7.1972727    625.73102   0.02843198  0.028451706            3 
 1835000   0.95482654   -7.1779676    626.56168  0.028454209  0.028444348            2 
 1836000   0.97674916   -7.1670735    626.47236  0.028434657  0.028437094            1 
 1837000   0.97483709   -7.1920685    626.38397  0.028415168  0.028429771            2 
 1838000    0.9627753   -7.1835391     625.1457  0.028343566  0.028422463            4 
 1839000   0.96896769   -7.1674521    626.91528  0.028408342  0.028415218            3 
 1840000   0.96261122   -7.1699415    627.12572  0.028402433  0.028407868            4 
 1841000   0.95851792   -7.2051764    626.00516  0.028336283   0.02840059            3 
 1842000   0.96546488   -7.1616578    627.11019  0.028370892  0.028393283            2 
 1843000   0.95576524   -7.2063997    626.52227  0.028328914  0.028386041            3 
 1844000   0.95927601   -7.1734887    627.63477  0.028363827  0.028378927            1 
 1845000   0.97602565   -7.1899744    628.10366  0.028369632  0.028371831            2 
 1846000   0.96559878   -7.1856873    628.85133  0.028388016  0.028364696            3 
 1847000   0.94726412    -7.160953    627.49477  0.028311441  0.028357531            7 
 1848000    0.9573139   -7.1449462    629.89526  0.028404368  0.028350376            5 
 1849000   0.95940936   -7.1701452    630.82625  0.028430965  0.028343264            2 
 1850000   0.95054901   -7.2064416    629.08574  0.028337195  0.028336184            3 
 1851000   0.95931554   -7.1688154    630.56754  0.028388598  0.028329179            4 
 1852000   0.96384151   -7.2178998    628.42542  0.028276882  0.028322108            2 
 1853000   0.94883087   -7.1876225    629.44794  0.028307607  0.028314965            2 
 1854000     0.964868   -7.1697358    630.90318  0.028357748  0.028307959            3 
 1855000   0.94757276   -7.1939565     629.9872  0.028301312  0.028300784            4 
 1856000   0.97162319   -7.1685445    630.52908  0.028310393  0.028293684            5 
 1857000   0.96327184    -7.203482    630.45391  0.028291775   0.02828655            2 
 1858000   0.95927615   -7.1932536    629.57015   0.02823691  0.028279348            2 
 1859000   0.94643596   -7.1997689    629.84477  0.028234031  0.028272109            5 
 1860000   0.94499325   -7.2230466    630.86561  0.028264588  0.028264896            3 
 1861000   0.93049755   -7.1982169    628.75025  0.028154677  0.028257705            3 
 1862000   0.94424179    -7.199277    630.28815  0.028208385  0.028250428            4 
 1863000   0.95066693   -7.1983297    632.62822  0.028297916  0.028243161            5 
 1864000    0.9741804   -7.1997576    629.89521  0.028160551   0.02823593            3 
 1865000    0.9452217   -7.2241121    631.57422  0.028220474  0.028228692            2 
 1866000   0.94928481   -7.1400201    632.36291  0.028240573  0.028221617            2 
 1867000   0.95906707   -7.1700873    631.41558  0.028183163  0.028214536            2 
 1868000   0.94834516   -7.1950079    632.39204  0.028211636  0.028207332            4 
 1869000    0.9696072   -7.1968673    632.35662  0.028194963  0.028200214            8 
 1870000   0.94080314   -7.1857925    632.79333  0.028199346   0.02819307            3 
 1871000   0.96074345   -7.1916536    634.43412  0.028257355  0.028185981            2 
 1872000   0.95888656   -7.1633899    634.40063  0.028240769  0.028178951            2 
 1873000   0.96358298   -7.2123229    633.73008  0.028195857  0.028171961            3 
 1874000   0.95080292   -7.2170482     632.5003  0.028126125  0.028164859            2 
 1875000   0.94242094   -7.2115705    634.85203  0.028215646   0.02815772            4 
 1876000   0.96094713   -7.1852638     633.5545  0.028142968  0.028150703            4 
 1877000     0.958124   -7.2010924    635.28597  0.028204847  0.028143729            2 
 1878000   0.93351632   -7.1714773     634.4007  0.028150546  0.028136712            2 
 1879000    0.9575406   -7.1920676    635.96123  0.028204773  0.028129763            3 
 1880000   0.94300223   -7.2269593    633.92331  0.028099438  0.028122677            3 
 1881000   0.95119921   -7.1773702     635.2487  0.028143217  0.028115573            2 
 1882000   0.96377114   -7.2497284    634.47346  0.028093937  0.028108483            5 
 1883000   0.93841292   -7.2298045    633.02194  0.028014779  0.028101381            4 
 1884000   0.95817702    -7.224812    632.82454  0.027991177  0.028094256            2 
 1885000   0.95852614   -7.1902806     638.1015  0.028209615  0.028087218            3 
 1886000   0.95658087   -7.2249219    636.08353  0.028105494  0.028080235            5 
 1887000   0.93837004   -7.1805481    637.02012  0.028131961  0.028073197            5 
 1888000   0.95075168   -7.2071422    636.36931  0.028088335  0.028066169            3 
 1889000   0.94177856    -7.191145    637.38515  0.028118279  0.028059086            3 
 1890000   0.96685101   -7.2112859    637.09563  0.028090636  0.028052044            3 
 1891000   0.94743092   -7.2253461    636.77107  0.028061479  0.028045064            5 
 1892000   0.93563381   -7.1779181    638.30172  0.028114065  0.028038118            3 
 1893000    0.9509582   -7.2275334    636.32564  0.028012222  0.028031142            3 
 1894000   0.93558466   -7.2252623    638.62088  0.028098419  0.028024218            2 
 1895000    0.9454848   -7.2268092    638.12711  0.028061878   0.02801718            3 
 1896000   0.94599032    -7.226653    636.61319  0.027980537  0.028010099            1 
 1897000   0.96086867   -7.2382678    637.45046  0.028002568  0.028002955            2 
 1898000   0.94706012   -7.1945522    640.04931  0.028101919  0.027995961            6 
 1899000   0.95523307   -7.1826541    638.70229   0.02802801  0.027989027            2 
 1900000   0.93841816   -7.2085973    639.18458  0.028034411  0.027982084            2 
 1901000   0.94740233    -7.193502    640.35642  0.028071034  0.027975125            4 
 1902000   0.95423525   -7.2353687    640.27193  0.028052573  0.027968237            3 
 1903000   0.93906401   -7.1682593    641.53859    0.0280933  0.027961445            3 
 1904000   0.96721746   -7.2223346    639.66939  0.027996735  0.027954649            3 
 1905000   0.93392375   -7.2153876    641.42588  0.028058875  0.027947768            6 
 1906000   0.93239776   -7.1965277    641.09152  0.028029535   0.02794084            6 
 1907000   0.94734902   -7.2204103    640.88293  0.028005722  0.027934013            2 
 1908000    0.9342908   -7.1926199    642.74258  0.028072265  0.027927228            4 
 1909000   0.95685217   -7.2043143    640.55989  0.027962279  0.027920399            1 
 1910000   0.94860923   -7.1967834     643.8424  0.028090855  0.027913606            2 
 1911000   0.95853955   -7.1814423    643.53997  0.028062967  0.027906843            2 
 1912000   0.96055574   -7.2101628    642.59902  0.028007279  0.027900029            1 
 1913000   0.95992124   -7.2019695    643.23223  0.028020222  0.027893147            3 
 1914000   0.94499974   -7.2163888    642.85825    0.0279893  0.027886356            5 
 1915000   0.95199354   -7.1923565    644.19123  0.028032691  0.027879579            2 
 1916000   0.92336213   -7.2131586    642.84087  0.027959328  0.027872697            4 
 1917000   0.96357715   -7.2047688    644.84268  0.028031763  0.027865855            6 
 1918000   0.96378106   -7.1923703    643.37801  0.027953511  0.027859118            4 
 1919000   0.92012518   -7.2013075    645.04578  0.028011368  0.027852339            5 
 1920000   0.94842101   -7.2286433    644.73302  0.027983204  0.027845654            2 
 1921000   0.95803448   -7.1928072    645.28764  0.027992696  0.027839014            3 
 1922000    0.9446636   -7.1819879     646.2729  0.028020851  0.027832375            3 
 1923000   0.94123823   -7.2050537    643.60831  0.027890809  0.027825674            2 
 1924000   0.94420416   -7.2096083    644.22067  0.027902836  0.027818943            5 
 1925000   0.94616834    -7.224672    645.38466   0.02793873  0.027812163            3 
 1926000   0.94960076   -7.1875695    648.48224  0.028058249  0.027805415            4 
 1927000    0.9278087   -7.2133352    645.48493  0.027914069  0.027798722            7 
 1928000   0.96017473   -7.1917604     646.9102  0.027961195  0.027791993            3 
 1929000   0.94709342   -7.2109354    645.98165  0.027906586  0.027785294            3 
 1930000    0.9290066   -7.2117467    646.09344  0.027896953  0.027778469            2 
 1931000   0.91081164   -7.2461202    646.27777  0.027890461  0.027771678            2 
 1932000   0.93040265   -7.2421753    645.91128  0.027860217  0.027764815            3 
 1933000   0.95213625   -7.2274837    644.19087  0.027771636  0.027758049            3 
 1934000   0.94846406   -7.2226764    647.53973  0.027901574  0.027751273            3 
 1935000   0.94430195   -7.2120966    646.93958  0.027861308  0.027744469            2 
 1936000   0.92916231   -7.2031548    647.58923  0.027874881  0.027737686            3 
 1937000   0.92568456   -7.1856448    648.72987  0.027909562  0.027731004            2 
 1938000   0.94216194   -7.1974841    646.13957  0.027783779  0.027724219            3 
 1939000   0.95138116   -7.2357669    647.55394  0.027830236  0.027717401            1 
 1940000   0.94643476   -7.2146818    647.20234  0.027800788  0.027710624            5 
 1941000   0.93685848   -7.2354109    649.15244  0.027870189  0.027703864            4 
 1942000   0.92843736   -7.2394337     647.2966  0.027776202   0.02769702            3 
 1943000   0.95408346   -7.2336215    647.52819  0.027771839  0.027690043            1 
 1944000   0.92811016   -7.2244216    648.68865  0.027807298  0.027683175            2 
 1945000   0.95507556    -7.199908    648.96554  0.027804864  0.027676329            2 
 1946000   0.94819685   -7.2087232    648.94729  0.027789795  0.027669469            1 
 1947000   0.95741777   -7.2550077    646.85876  0.027686131  0.027662747            2 
 1948000   0.94066891   -7.2417275    646.68106  0.027664316  0.027655903            3 
 1949000   0.92479302   -7.2447565    646.86445  0.027657963  0.027648939            3 
 1950000   0.94690616   -7.2337063    646.65915  0.027635006  0.027641995            4 
 1951000   0.93919629   -7.2059592    650.41908   0.02778144  0.027635023            2 
 1952000   0.93824694   -7.2356027    648.28509  0.027676105  0.027628142            2 
 1953000   0.94714581   -7.1795134    649.11042  0.027697151  0.027621224            2 
 1954000   0.91117735   -7.2128976     647.9799  0.027634762  0.027614262            4 
 1955000   0.92407274   -7.2163804    648.18519  0.027629377  0.027607312            4 
 1956000   0.94252655   -7.2582151    648.24234  0.027617686  0.027600367            1 
 1957000   0.93713927   -7.2242475    650.85499  0.027714827   0.02759345            3 
 1958000   0.93216445   -7.2107685    649.12682  0.027627121  0.027586544            1 
 1959000   0.93427582   -7.2786441     648.8815  0.027602582  0.027579489            3 
 1960000      0.94851   -7.2539108    649.65085   0.02762121  0.027572492            1 
 1961000   0.92077609   -7.1949551    649.97426  0.027620868  0.027565465            2 
 1962000   0.94804971   -7.2410968     649.0537   0.02756769  0.027558464            2 
 1963000   0.93955313   -7.2252948    650.27773  0.027605609  0.027551447            2 
 1964000   0.94734574   -7.2292422    650.70102  0.027609514   0.02754443            4 
 1965000   0.92996946   -7.2238159    650.31059  0.027578906  0.027537483            2 
 1966000   0.91311989   -7.2008349    651.04613  0.027596055  0.027530568            4 
 1967000   0.92192991   -7.2298495    651.39617  0.027596855  0.027523656            3 
 1968000   0.91974723    -7.224895    651.80586   0.02760018   0.02751663            3 
 1969000   0.94514053   -7.2266088    651.83682  0.027587473   0.02750971            3 
 1970000   0.92543454   -7.2084916    651.17013  0.027545268  0.027502798            4 
 1971000   0.93686148   -7.2130313    651.76562   0.02755647  0.027495895            5 
 1972000    0.9522872   -7.2210861    653.25028  0.027605235  0.027489042            2 
 1973000   0.93478165   -7.2362908    651.31947  0.027509692  0.027482117            2 
 1974000   0.93900117   -7.2391662    653.24172  0.027576905  0.027475174            1 
 1975000   0.92949538   -7.2262875      653.704  0.027582447  0.027468251            2 
 1976000    0.9332269   -7.2240982    652.77897  0.027529478  0.027461445            3 
 1977000   0.93831618   -7.1923313    654.93909  0.027606605  0.027454648            3 
 1978000   0.95349444   -7.2116654    654.36977  0.027568662  0.027447853            1 
 1979000   0.95171425   -7.2161402    652.55671  0.027478386     0.027441            3 
 1980000    0.9280473   -7.2366481     654.8661  0.027561704  0.027434179            3 
 1981000   0.93206509   -7.2556957     653.6457  0.027496454  0.027427236            2 
 1982000    0.9297458   -7.2156624    654.79728  0.027530999  0.027420391            4 
 1983000   0.91812103    -7.249075    653.28826  0.027453701  0.027413515            1 
 1984000   0.91897731   -7.2329352    653.27045  0.027439115  0.027406645            3 
 1985000   0.95857606   -7.2605082    654.04251  0.027457704  0.027399732            2 
 1986000   0.92978825    -7.211879    655.26357  0.027495115  0.027392829            2 
 1987000   0.93469157   -7.2307152    655.11123  0.027474888  0.027385929            6 
 1988000   0.93934022   -7.2463899    654.09562  0.027418495  0.027378997            5 
 1989000    0.9401748   -7.2342856    655.48706  0.027463008  0.027372035            2 
 1990000   0.96090836   -7.2513643    653.41882  0.027362597  0.027365073            4 
 1991000   0.94080088   -7.2397388    655.25241  0.027425599  0.027358073            3 
 1992000   0.92556283   -7.2864918    654.70958  0.027389122   0.02735112            4 
 1993000    0.9389061   -7.2225017    654.50782  0.027366943  0.027344115            5 
 1994000   0.95583042   -7.2230031    651.96168   0.02724681  0.027337194            3 
 1995000   0.96432318   -7.2716983     654.4525  0.027337197  0.027330159            2 
 1996000   0.93757197   -7.2716847    655.36089  0.027361427  0.027323122            3 
 1997000   0.91910523   -7.2307517    655.52702  0.027354658   0.02731614            4 
 1998000   0.91762399   -7.2394343    656.04815  0.027362702  0.027309214            6 
 1999000   0.93096707   -7.2016219    657.81982  0.027422871  0.027302397            5 
 2000000   0.92947504   -7.2304453    658.08157  0.027420066  0.027295566            2 
 2001000   0.92880253   -7.2511351    658.50546  0.027424015  0.027288755            2 
 2002000    0.9342874   -7.2316531    656.96149   0.02734605  0.027281957            3 
 2003000   0.93894718   -7.1981926    658.85223   0.02741106  0.027275171            2 
 2004000   0.94626062   -7.2336977    658.98487  0.027402897  0.027268434            2 
 2005000   0.91054966   -7.2327954    659.32574  0.027403397  0.027261671            3 
 2006000   0.93564323   -7.2489515    659.01985  0.027377029  0.027254889            2 
 2007000   0.92053545   -7.2254356    659.92932  0.027401151  0.027248155            5 
 2008000   0.93417499   -7.2414021    659.76625  0.027380737  0.027241416            6 
 2009000   0.91612416   -7.2070837    660.04828  0.027378807  0.027234701            4 
 2010000   0.94862938    -7.243467    660.35672  0.027377973  0.027228013            6 
 2011000   0.94044503   -7.2456112    661.99043  0.027432058  0.027221357            3 
 2012000    0.9146498   -7.2316491    661.34102  0.027391526  0.027214714            2 
 2013000   0.93416625   -7.2379889    661.00353  0.027363948  0.027208078            2 
 2014000   0.91739188   -7.2660824    660.32259  0.027322186  0.027201341            4 
 2015000   0.91752885   -7.2802275    658.97123  0.027252739  0.027194563            4 
 2016000   0.94610046   -7.2208268    661.28711   0.02733495  0.027187818            4 
 2017000    0.9270702   -7.2297097    661.29145  0.027321577  0.027181114            2 
 2018000   0.95775094    -7.284201    661.74249  0.027326664  0.027174407            4 
 2019000   0.92767935   -7.2447909    661.30585  0.027295107  0.027167707            3 
 2020000    0.9263598   -7.2766814    660.47114  0.027247159  0.027160992            2 
 2021000   0.93603127   -7.2533548    659.63193  0.027199073  0.027154177            5 
 2022000   0.93821077   -7.2683306    662.39329  0.027299427  0.027147362            2 
 2023000    0.9181806    -7.262004    661.72969  0.027258597  0.027140654            2 
 2024000   0.92405632   -7.2388224    662.59155  0.027280614  0.027133916            4 
 2025000   0.91323548   -7.2399844    663.83247  0.027318209  0.027127273            2 
 2026000   0.92130868   -7.2598909    662.57246  0.027252898   0.02712053            3 
 2027000   0.92464546    -7.263419    662.66123  0.027243103  0.027113792            2 
 2028000   0.92077191    -7.255037    663.09632  0.027247548  0.027107009            2 
 2029000   0.94184771   -7.2910907    660.37232  0.027122241   0.02710026           11 
 2030000   0.93377757   -7.2514578    664.82716  0.027291755  0.027093485            5 
 2031000   0.91563272   -7.2362703    663.44001  0.027221402  0.027086776            4 
 2032000   0.91966917   -7.2723699    663.65907  0.027216989  0.027080115            2 
 2033000   0.91749113   -7.2736808     663.0919  0.027180353  0.027073394            2 
 2034000   0.92161845   -7.2897518    663.61433  0.027188394   0.02706654            2 
 2035000    0.9467545   -7.2737895    663.15238  0.027156117  0.027059729            2 
 2036000   0.90459765   -7.2552254     663.1357  0.027142097  0.027052907            2 
 2037000   0.92925419   -7.2532382    663.76812  0.027154644  0.027046181            2 
 2038000   0.93634143   -7.2192228     664.1945  0.027158754  0.027039415            3 
 2039000   0.91402648   -7.2545748    662.12381  0.027060806  0.027032625            3 
 2040000   0.93040477   -7.2815602    662.34442  0.027056553  0.027025793            1 
 2041000   0.91812235   -7.2705544    664.48213  0.027130579  0.027019037            3 
 2042000    0.9173773   -7.2425653    663.65396  0.027083495    0.0270122            4 
 2043000   0.92872417   -7.2434898     664.5748  0.027107799  0.027005352            3 
 2044000   0.90503594   -7.2361037    664.44771  0.027089356  0.026998469            3 
 2045000   0.92145823    -7.274708    664.41366  0.027074721  0.026991612            3 
 2046000   0.94286955   -7.2826334    663.88924  0.027040129   0.02698471            2 
 2047000   0.89838724    -7.235917    663.53609  0.027012542  0.026977814            4 
 2048000   0.91850815   -7.2315985    665.61355  0.027083884  0.026970942            3 
 2049000   0.93038135   -7.2574879    664.86615   0.02704027  0.026964032            4 
 2050000   0.91108911   -7.2576984     665.9759  0.027072191  0.026957182            3 
 2051000   0.92331744   -7.2710466    663.56205  0.026960915  0.026950351            4 
 2052000   0.92257981   -7.2526576    665.93676  0.027044215  0.026943509            2 
 2053000   0.93471467     -7.22515    664.98557  0.026992432  0.026936717            1 
 2054000   0.93301348   -7.2556647    666.89976  0.027056952  0.026929884            2 
 2055000   0.94047614    -7.263641    664.90078  0.026962724  0.026923029            3 
 2056000   0.91585241   -7.2559348    667.71474  0.027063665  0.026916228            4 
 2057000   0.93989169   -7.2366401    667.87818  0.027057129  0.026909412            3 
 2058000   0.93596442   -7.2371741    666.93595  0.027005829  0.026902583            2 
 2059000   0.93148319   -7.2583486    665.70862   0.02694304  0.026895744            2 
 2060000   0.92122995   -7.2282342    667.35584  0.026996595  0.026888958            5 
 2061000   0.92547481   -7.2549363    667.03833  0.026970658  0.026882183            2 
 2062000   0.91032694   -7.2842526    667.00088  0.026956065  0.026875359            2 
 2063000   0.91367064   -7.2637411    666.45783  0.026921063  0.026868499            2 
 2064000   0.92193211   -7.2507768    668.05921  0.026972675  0.026861719            4 
 2065000   0.91411168   -7.2547396    666.80069  0.026908825  0.026854926            3 
 2066000   0.91219846   -7.2461791    668.59902  0.026968337  0.026848186            2 
 2067000   0.92138836   -7.2628449     669.1493  0.026977475  0.026841396            2 
 2068000   0.90943892   -7.2561498      669.201  0.026966514  0.026834552            4 
 2069000    0.9242882   -7.2621044     670.3315  0.026999013  0.026827714            1 
 2070000   0.91096594   -7.2707481    670.41467  0.026989318  0.026820997            4 
 2071000   0.92152706   -7.2646285     668.3134  0.026891735  0.026814271            7 
 2072000   0.93132065   -7.2200362    670.07839  0.026949742  0.026807516            2 
 2073000   0.91437081   -7.2391927    670.67964  0.026960912  0.026800798            6 
 2074000   0.93732346   -7.2786087    669.15315  0.026886578  0.026794035           10 
 2075000   0.92323728   -7.2577666    670.50398  0.026927871  0.026787282            3 
 2076000   0.93071727   -7.2776816    669.55833   0.02687694  0.026780511            5 
 2077000   0.92739555   -7.2813087    670.20021  0.026889753  0.026773738            5 
 2078000   0.91487117   -7.2716059    670.75115  0.026898907   0.02676697            4 
 2079000   0.91537928   -7.2846624    671.39867  0.026911923  0.026760218            3 
 2080000    0.9259839   -7.2555997    669.26051  0.026813322    0.0267534            3 
 2081000   0.92356048   -7.2712606    671.30708  0.026882392  0.026746638            1 
 2082000   0.91128332   -7.2800815    670.12429  0.026822138  0.026739759            3 
 2083000    0.9291835   -7.2635089    670.81205  0.026836776  0.026732919            4 
 2084000   0.90259872   -7.2472966    671.74699  0.026861284  0.026726152            3 
 2085000    0.9088573   -7.2586118     671.1183  0.026823274  0.026719384            5 
 2086000   0.91589461   -7.2400323    673.20931  0.026893948  0.026712688            3 
 2087000   0.91567349   -7.2583349    671.83453  0.026826167  0.026705952            2 
 2088000   0.88424123   -7.2842141    671.63584  0.026805389   0.02669921            2 
 2089000   0.91079849   -7.2782965    670.09416  0.026731058  0.026692418            4 
 2090000   0.92141617   -7.2196076    671.24097  0.026763994    0.0266857            3 
 2091000   0.92417693   -7.2797623    671.14861  0.026747514  0.026678925            2 
 2092000    0.9239065   -7.2526295    672.57259  0.026791451  0.026672199            2 
 2093000   0.95383978   -7.2930619    673.52955  0.026816752  0.026665495            4 
 2094000    0.9165794   -7.3078721    673.70635  0.026810982  0.026658772            2 
 2095000   0.89570813   -7.2827684    672.84634  0.026763975  0.026651931            2 
 2096000   0.90091414   -7.3273362    671.39748  0.026693602   0.02664501            2 
 2097000    0.9318231   -7.2642765    671.96465  0.026703411  0.026638056            2 
 2098000   0.91454228   -7.3232935    671.08576  0.026655774  0.026631104            2 
 2099000     0.909424   -7.2848101    672.36914  0.026694027  0.026624154            2 
 2100000   0.91719111   -7.2446994    673.33527  0.026719654  0.026617227            2 
 2101000   0.90767883   -7.3060377    671.43212   0.02663145  0.026610294            4 
 2102000   0.92307278   -7.2856146     674.1487  0.026726479  0.026603442            9 
 2103000   0.91734107    -7.290074    671.75854  0.026619058   0.02659663            3 
 2104000   0.90752993    -7.275393    673.01447   0.02665615  0.026589813            3 
 2105000   0.94409585   -7.3006749    673.98808   0.02668203  0.026582876            4 
 2106000    0.9118259   -7.2643923    672.71803  0.026619105  0.026575984            4 
 2107000   0.90724992   -7.2596955    672.39929  0.026593865  0.026569019            4 
 2108000   0.91848838   -7.3114753    673.05686  0.026607245   0.02656206            3 
 2109000   0.92572578   -7.2656811    673.31772  0.026604936  0.026555129            3 
 2110000   0.90905233   -7.2648446    671.33497  0.026514019  0.026548125            1 
 2111000   0.92472086   -7.2841694    673.01541  0.026567796  0.026541248            3 
 2112000   0.92181149   -7.3114225    673.61812  0.026578998   0.02653439            2 
 2113000    0.9097973   -7.3063605    672.86093  0.026536556  0.026527545            5 
 2114000   0.90313754   -7.2568286    675.45337  0.026626197  0.026520662            1 
 2115000   0.90633664   -7.2636525    676.74557  0.026664522  0.026513787            3 
 2116000   0.90647312   -7.2784475    673.36966  0.026518969  0.026506859            3 
 2117000   0.94614677   -7.2528551    674.99053  0.026570246  0.026499955            3 
 2118000   0.89918003   -7.2965821    677.18732  0.026644134   0.02649307            3 
 2119000   0.94259034   -7.2325257    675.93471    0.0265823  0.026486168            4 
 2120000   0.91674071    -7.236789    675.54219  0.026554331  0.026479318            4 
 2121000   0.90569027   -7.2649411    675.72251  0.026548896  0.026472435            3 
 2122000   0.90837622   -7.2639169    676.89445  0.026582408   0.02646553            3 
 2123000   0.91612047   -7.2949176    675.59448   0.02651886   0.02645858            4 
 2124000   0.92935875   -7.2932444    676.16453   0.02652874  0.026451585            2 
 2125000   0.92128285   -7.2721755    676.25451  0.026519785  0.026444689            3 
 2126000    0.8864844   -7.3082506    674.45064  0.026436604  0.026437757            2 
 2127000   0.93271093    -7.262472     678.0611  0.026565629  0.026430833            2 
 2128000   0.90528388   -7.2824822    677.63749  0.026536556  0.026423853            2 
 2129000   0.90736612    -7.298541    675.18137  0.026427954  0.026416869            2 
 2130000   0.90578255   -7.2932196    676.40258  0.026463325  0.026409835            6 
 2131000   0.90938744    -7.284166    675.71467  0.026424006  0.026402815            4 
 2132000   0.90219555   -7.3133614    675.01195  0.026384144  0.026395885            3 
 2133000   0.91193107   -7.3158935     677.9325  0.026485877  0.026388916            3 
 2134000   0.93344489   -7.3170887    677.60362  0.026460622  0.026381924            1 
 2135000    0.9258418   -7.3093725    675.93854  0.026383237  0.026374934            3 
 2136000    0.8988213   -7.2813929    677.74993  0.026441555   0.02636799            5 
 2137000   0.92572769   -7.3014115    676.01999  0.026361722   0.02636104            5 
 2138000   0.91379231   -7.2806068    678.67984  0.026453065  0.026354163            3 
 2139000   0.90254076   -7.3227584    678.92333  0.026450184  0.026347309            2 
 2140000   0.91335372   -7.2675763    680.11488  0.026484224  0.026340547            3 
 2141000   0.91467776   -7.3013808    679.11053  0.026432762  0.026333759            4 
 2142000   0.90061781   -7.2582295    679.45677  0.026433892   0.02632689            3 
 2143000   0.92680198    -7.288182    680.42078  0.026459044  0.026320043            3 
 2144000   0.89761166   -7.2886205    680.19154  0.026437793  0.026313244            2 
 2145000   0.91990677   -7.3014875    680.13541  0.026423287  0.026306391            3 
 2146000   0.88760275   -7.3064679      679.184  0.026374029  0.026299557            3 
 2147000   0.89230354    -7.258223    680.53158   0.02641405  0.026292687            3 
 2148000   0.93170184   -7.3198072     678.6027   0.02632692  0.026285853            3 
 2149000   0.90483204    -7.265844    680.19218  0.026376306  0.026279063            9 
 2150000   0.90388853   -7.3274265    681.09321  0.026398962  0.026272314            2 
 2151000   0.89987583   -7.2813229    680.05774  0.026346573  0.026265496            3 
 2152000   0.90680667   -7.2427483    680.96737  0.026369554  0.026258747            2 
 2153000   0.92000412   -7.3130324    681.54711  0.026379746  0.026252014            4 
 2154000   0.90591979   -7.2939362    679.71584  0.026296651  0.026245243            2 
 2155000   0.92059056    -7.287233     683.1335  0.026416609  0.026238459            4 
 2156000   0.92436935   -7.2779143    683.06487  0.026401703  0.026231692            8 
 2157000   0.92109714   -7.3049911    679.30174  0.026244079    0.0262249            4 
 2158000   0.90326308   -7.2883891    681.56202    0.0263192   0.02621803            4 
 2159000   0.90370521    -7.313124    679.22874   0.02621695  0.026211164            2 
 2160000    0.9112231   -7.3022044    683.76324  0.026379755  0.026204299            3 
 2161000   0.89094704   -7.3215565    681.17528   0.02626775  0.026197435            2 
 2162000   0.91096072   -7.3237529    682.19712  0.026294986   0.02619062            4 
 2163000   0.90380028    -7.314279    681.02093  0.026237515  0.026183792            4 
 2164000   0.90884058   -7.3054016    681.89202  0.026258935  0.026176977            2 
 2165000   0.91202242   -7.3157868    683.17276  0.026296103  0.026170176            3 
 2166000   0.88293589   -7.3011333    684.27262  0.026326278  0.026163423            5 
 2167000   0.90824666   -7.2968574    683.81654   0.02629659  0.026156648            3 
 2168000   0.90596651    -7.294375    684.07351  0.026294338  0.026149925            4 
 2169000   0.89714792   -7.2747606    682.72999  0.026230597  0.026143202            2 
 2170000   0.90040226   -7.3082572    683.34995  0.026242318  0.026136408            2 
 2171000   0.90930708   -7.3205478    681.72371  0.026167807  0.026129588            6 
 2172000   0.88113401   -7.3021852    682.99653  0.026204594  0.026122795            5 
 2173000    0.9088669    -7.316475    683.55728  0.026214039  0.026115949            3 
 2174000   0.93842258    -7.270237    683.80699  0.026211553  0.026109149            2 
 2175000   0.90670694   -7.3337648    682.27651  0.026140862  0.026102332            3 
 2176000   0.91108702   -7.2713176    683.05012  0.026158476  0.026095484            4 
 2177000   0.91420056   -7.2761676    685.12108  0.026225734  0.026088676            3 
 2178000   0.90091684   -7.2929797    685.34679  0.026222329  0.026081843            1 
 2179000   0.91483766    -7.292239    684.62317  0.026182621  0.026074987            6 
 2180000    0.9092707   -7.3015044    686.23293  0.026232146  0.026068144           15 
 2181000   0.90342878   -7.3032172     684.2131  0.026142943  0.026061275            3 
 2182000   0.89262816   -7.3170169    686.01858  0.026199915  0.026054411            2 
 2183000   0.91401041     -7.32899    683.99455  0.026110649  0.026047558            2 
 2184000   0.91412577   -7.3384741    682.70235  0.026049388  0.026040721            2 
 2185000   0.89724905     -7.33407    685.49582  0.026144005   0.02603389            4 
 2186000   0.89920856   -7.3144982    686.27225  0.026161644  0.026027073            3 
 2187000    0.8824992   -7.3166452     685.1413  0.026106588  0.026020246            4 
 2188000   0.90116984   -7.2887344    685.64837  0.026113969  0.026013449            2 
 2189000    0.9184631   -7.3136856    686.15222   0.02612122  0.026006655            3 
 2190000    0.9110926   -7.2971084    683.97515  0.026026452  0.025999847            4 
 2191000   0.90706644   -7.3027994    686.47604  0.026109693  0.025993044            7 
 2192000   0.89376532   -7.3068418    684.01872  0.026004361  0.025986173            3 
 2193000   0.90019765   -7.3210035    687.09088  0.026109245   0.02597931            5 
 2194000   0.88442383   -7.3154598    684.97746  0.026017071  0.025972466            6 
 2195000   0.88405355    -7.326761    686.27919  0.026054639  0.025965669            2 
 2196000   0.90048144   -7.3412755    683.55575  0.025939426   0.02595882            2 
 2197000   0.88550264   -7.3388213    684.94586  0.025980347  0.025951916            5 
 2198000   0.88762552   -7.3304228    685.41134  0.025986175  0.025944988            2 
 2199000   0.89640496   -7.3193111    685.57553  0.025980579  0.025938136            3 
 2200000   0.89746439    -7.300559    686.17563  0.025991501  0.025931297            2 
 2201000   0.90738694   -7.3002198    688.93099  0.026084014   0.02592449            3 
 2202000   0.89472283    -7.287757    688.83643   0.02606859  0.025917708            2 
 2203000   0.90616905   -7.3001142    687.36617  0.026001141  0.025910908            6 
 2204000   0.90336108   -7.3131129    686.84426  0.025969611  0.025904098            3 
 2205000   0.89994289    -7.330051    687.05612   0.02596584  0.025897272            2 
 2206000   0.89878191     -7.31338    687.57543  0.025973686  0.025890449            2 
 2207000   0.89923589   -7.2603794    686.87573  0.025935498  0.025883634            2 
 2208000   0.90448082   -7.2969371    688.42727   0.02598231  0.025876836            2 
 2209000   0.90334259   -7.3102292    687.39199  0.025931492  0.025870131            6 
 2210000    0.8889147   -7.2994633    688.39724  0.025957664  0.025863325            4 
 2211000   0.89350331   -7.3351189    689.08527  0.025971855  0.025856484            4 
 2212000   0.90354835   -7.3652273    689.04272  0.025958511  0.025849586            3 
 2213000   0.90388702   -7.3396023    689.49915  0.025963968  0.025842698            3 
 2214000    0.8844919    -7.309277    689.02793  0.025934505  0.025835861            3 
 2215000   0.88941593   -7.3207912     686.9311  0.025843909  0.025829012            3 
 2216000   0.88549338   -7.3069207    688.55083  0.025893157  0.025822139            2 
 2217000   0.90940379   -7.3455123    686.96083  0.025821712  0.025815245            3 
 2218000   0.88551443   -7.3434268    687.62383   0.02583498  0.025808392            4 
 2219000   0.90796149    -7.327198    688.68851  0.025863321   0.02580154            2 
 2220000   0.87778373    -7.333199      689.353  0.025876614  0.025794704            2 
 2221000   0.90325631   -7.3347437      689.603  0.025874343  0.025787897            4 
 2222000   0.90606328   -7.2971308    692.45493  0.025969657   0.02578116            5 
 2223000   0.91289573   -7.3468855    690.19954  0.025873427  0.025774463            2 
 2224000   0.90938231   -7.3334276    691.81659  0.025922384  0.025767709            3 
 2225000   0.90782852   -7.3401924    691.91347  0.025914362  0.025760915            5 
 2226000   0.90421675   -7.3332189    692.86491  0.025938339  0.025754138            3 
 2227000    0.8756397   -7.3352916    690.30457  0.025830885  0.025747341            5 
 2228000   0.89662395   -7.3556681    688.65715  0.025757673  0.025740451            2 
 2229000   0.89871701   -7.3083802    689.34957  0.025772004  0.025733558           12 
 2230000   0.89577781   -7.3190119    690.14357  0.025790118  0.025726718            6 
 2231000   0.89622949   -7.3246516    689.71933  0.025762712  0.025719885            3 
 2232000   0.89869965   -7.3022097    690.44697  0.025778337  0.025713041            3 
 2233000   0.90979689    -7.269626    692.66332  0.025849504  0.025706252            4 
 2234000   0.90820306   -7.3155908    689.12599  0.025705983  0.025699398            3 
 2235000    0.8939674   -7.3451977      691.414  0.025779791  0.025692499            8 
 2236000   0.88732456   -7.3626865    690.27766  0.025725912  0.025685582            2 
 2237000   0.89222661   -7.3185521    691.24473  0.025750437  0.025678694            3 
 2238000   0.89344781   -7.3239491    691.48415  0.025747846  0.025671801            5 
 2239000   0.90538315   -7.3283406    691.27354  0.025728508  0.025664893            4 
 2240000    0.8922515    -7.290616    691.05325  0.025708826  0.025657957            4 
 2241000   0.88366891   -7.3368913    689.03423  0.025622275  0.025651079            6 
 2242000   0.90676728   -7.3290005    691.50449  0.025702665  0.025644164            2 
 2243000   0.89194194   -7.3207565    692.10778  0.025713619   0.02563728            3 
 2244000   0.90274698   -7.3043024    692.68021  0.025723418  0.025630402            1 
 2245000   0.89588176   -7.3570483    690.44329  0.025628927  0.025623476            2 
 2246000   0.88953579   -7.3183705    692.62474  0.025698454  0.025616454            2 
 2247000   0.89475237   -7.3679237    691.09633  0.025630334  0.025609495            4 
 2248000   0.90199409   -7.3101597    693.12377   0.02569409  0.025602515            2 
 2249000   0.88968849   -7.3207818    691.69099  0.025629576  0.025595537            4 
 2250000   0.86746222   -7.3305233    691.79792  0.025622145  0.025588583            8 
 2251000   0.88817408   -7.3249537    692.62428  0.025641355  0.025581677            2 
 2252000   0.87953727   -7.3223812    693.10195  0.025647645  0.025574779            2 
 2253000   0.89421109   -7.3507605    693.27099  0.025642513   0.02556788            5 
 2254000   0.88780475   -7.3222257    691.92194  0.025581261   0.02556097            3 
 2255000   0.90083961   -7.3368621    693.96944  0.025645582  0.025554083            5 
 2256000   0.89739483   -7.3279366    692.98327  0.025597786   0.02554716            3 
 2257000   0.89247076   -7.3466333    694.29235  0.025634779  0.025540239            1 
 2258000     0.890088   -7.3347707    694.02267  0.025613473  0.025533344            3 
 2259000   0.87530617   -7.3314088    692.17658  0.025534034  0.025526415            2 
 2260000   0.89952393   -7.3345105    692.74896  0.025543841  0.025519463            3 
 2261000   0.88676759   -7.3192057    694.31466   0.02559025  0.025512592            8 
 2262000   0.88311826   -7.3114786    694.93407  0.025601756   0.02550576            3 
 2263000   0.89787292   -7.3072055    693.47695  0.025536786  0.025498953            2 
 2264000   0.91045514   -7.3202299    697.25469  0.025664557  0.025492158            2 
 2265000   0.88627179   -7.3227336    693.59411  0.025518547  0.025485324            3 
 2266000    0.8741434   -7.3399984    694.92914  0.025556382  0.025478487            4 
 2267000   0.90044924   -7.3356361    695.31944  0.025559456  0.025471567            7 
 2268000   0.87743468   -7.3514798    695.90516  0.025569707  0.025464736            7 
 2269000    0.8752971   -7.3244865    696.83458  0.025592573   0.02545787            2 
 2270000   0.88918855   -7.3172705    696.90268  0.025583799  0.025451075            2 
 2271000   0.87155479   -7.3229731    695.01991  0.025503446  0.025444256            2 
 2272000   0.90211723    -7.313614    697.76192  0.025592793  0.025437428            3 
 2273000    0.8930055   -7.3230397    697.62207  0.025576407  0.025430604            5 
 2274000   0.88626974   -7.3691871     694.2981  0.025443349  0.025423733            8 
 2275000     0.878743   -7.3417572    697.57202  0.025552089  0.025416925            3 
 2276000   0.89630887   -7.3335963     699.2081  0.025600765  0.025410245            4 
 2277000   0.89456391   -7.3057048    699.08905  0.025585165  0.025403549            1 
 2278000   0.87872692   -7.3500073    697.31578  0.025509064  0.025396844            4 
 2279000   0.89528344   -7.3203538      698.345  0.025535505  0.025390097            3 
 2280000   0.89728452   -7.3629597    698.37937  0.025525562  0.025383352            4 
 2281000   0.87986175   -7.3578353    698.72958  0.025527166  0.025376551            2 
 2282000   0.88256425   -7.3944274    696.78185  0.025444853   0.02536973            5 
 2283000   0.90671624   -7.3513691    698.42351  0.025493631  0.025362929            3 
 2284000    0.8860738   -7.3272373    698.52104  0.025486027  0.025356185            2 
 2285000   0.86844764     -7.35183    699.88381  0.025524574  0.025349526            3 
 2286000   0.90103881   -7.3232419    699.82026  0.025511092  0.025342793            5 
 2287000   0.88428751   -7.3265832     698.6132  0.025455954  0.025336083            1 
 2288000   0.86674937   -7.3481041     699.1774  0.025465377  0.025329362            2 
 2289000   0.90356737   -7.3413302    698.91567  0.025444724  0.025322623            6 
 2290000   0.89451472   -7.3629789    698.61167   0.02542255  0.025315914            3 
 2291000    0.8700965   -7.3264014    698.36836  0.025402603  0.025309168            2 
 2292000    0.8947666   -7.3368036    699.84574  0.025445235  0.025302412            3 
 2293000    0.8910377    -7.350236    698.87406  0.025398825  0.025295649            2 
 2294000   0.89019405   -7.3325249    699.91312  0.025425498  0.025288888            3 
 2295000   0.86908083   -7.3592564    699.10129  0.025384942  0.025282125            3 
 2296000   0.89741945   -7.3574794    698.74228  0.025360855  0.025275375            3 
 2297000   0.87659871   -7.3527982    701.56382  0.025452177  0.025268631            6 
 2298000   0.87435691   -7.3336054    700.43844  0.025400291  0.025261874           10 
 2299000   0.88534138   -7.3415692    701.38029  0.025423383  0.025255137            4 
 2300000   0.87318617   -7.3443997    698.40858  0.025304659  0.025248383            2 
 2301000   0.88131265   -7.3829875    701.73744   0.02541422  0.025241635            5 
 2302000   0.87504946   -7.3582981    700.47195  0.025357369  0.025234903            1 
 2303000   0.88484512   -7.2974253    700.87613  0.025360983  0.025228224            2 
 2304000   0.85718641   -7.3440079    701.95511  0.025389001  0.025221511            3 
 2305000    0.8833695   -7.3397519    699.62315  0.025293678   0.02521483            1 
 2306000   0.89653693    -7.322794    701.69033  0.025357413  0.025208052            2 
 2307000   0.89699232   -7.3520273    701.73247  0.025347943  0.025201272            4 
 2308000   0.90227412   -7.3963792    700.39772  0.025288768  0.025194475            7 
 2309000   0.89377432   -7.3552644    700.25857  0.025272794  0.025187652            6 
 2310000   0.88094556   -7.3832634     700.3782  0.025266169  0.025180815            2 
 2311000    0.8946316    -7.350249    701.19644  0.025284741  0.025173958            5 
 2312000   0.87156961    -7.356702    700.16279  0.025236548  0.025167137            2 
 2313000   0.87698468   -7.3416222    700.64154  0.025242886  0.025160271            3 
 2314000    0.8890577    -7.332275    701.80231   0.02527378  0.025153492            3 
 2315000   0.86348923   -7.3466254    702.77346  0.025297821   0.02514672            3 
 2316000   0.89183246   -7.3398444    700.72818  0.025213305   0.02513997            3 
 2317000   0.89760624   -7.3768959    701.36532  0.025225339  0.025133215            3 
 2318000   0.87559911   -7.3760394    701.87591  0.025232812   0.02512646            3 
 2319000    0.8740817   -7.3706501      703.266  0.025271884  0.025119674            4 
 2320000   0.86019832   -7.3303188    702.98865  0.025251029   0.02511292            2 
 2321000   0.88632459   -7.3492937    702.62378  0.025227049  0.025106214            2 
 2322000   0.88682458   -7.3683984    701.80746  0.025186888  0.025099458            3 
 2323000   0.87512791   -7.3366323    704.83315  0.025284587  0.025092761            3 
 2324000   0.88550077   -7.3530006    702.66789  0.025196066  0.025086057            2 
 2325000   0.88543113   -7.3639825     704.8675  0.025264068  0.025079407            2 
 2326000   0.88562751   -7.3588919    703.39111  0.025200312  0.025072688            3 
 2327000   0.87871523   -7.3409059    703.44456  0.025191397  0.025065928            5 
 2328000   0.86458049   -7.3815827    702.92931  0.025162131  0.025059157            3 
 2329000   0.88678568    -7.342634    705.07644  0.025228154  0.025052382            3 
 2330000   0.86597078   -7.3974506    703.13683  0.025147955  0.025045611            5 
 2331000   0.88040057   -7.3843116    701.96452  0.025095257  0.025038759            3 
 2332000   0.87917175   -7.3598582    703.65857  0.025145032  0.025031916            4 
 2333000    0.8715856   -7.3430895    702.31334  0.025086203   0.02502509            4 
 2334000   0.88486268   -7.3384304    702.58433   0.02508513  0.025018277            4 
 2335000   0.88134463   -7.3465174    702.91123  0.025086054   0.02501149            6 
 2336000   0.87816509   -7.3314703    703.88125  0.025109919  0.025004772            3 
 2337000   0.88298085   -7.3608047    705.50208  0.025156971  0.024998011            6 
 2338000   0.87889265   -7.3931062    705.09324  0.025131638  0.024991225            3 
 2339000   0.88411417   -7.3880845    704.72886  0.025107912  0.024984454            2 
 2340000   0.86426181   -7.2900807    705.16543  0.025112729  0.024977669            2 
 2341000   0.87426971    -7.350285    706.83711  0.025161509   0.02497092            4 
 2342000   0.89807572   -7.3777979    704.33878  0.025061869  0.024964148            5 
 2343000   0.88492913   -7.3521344    705.36212   0.02508757  0.024957415            7 
 2344000   0.86345141   -7.3901921    704.37194  0.025041665  0.024950687            3 
 2345000   0.87213535   -7.3671101    705.25676  0.025062429  0.024943881            3 
 2346000   0.86691078   -7.3376261    705.30343  0.025053404   0.02493707            2 
 2347000   0.86684449   -7.3625961    704.47456  0.025013299  0.024930216            3 
 2348000   0.86179673   -7.3642895    706.18418  0.025063323  0.024923415            2 
 2349000   0.88414509   -7.3844641    704.06097   0.02497733  0.024916584            3 
 2350000   0.86992136   -7.3594002    705.89584  0.025031768   0.02490972            2 
 2351000    0.8592065   -7.3395759    704.85982  0.024984397  0.024902927            4 
 2352000   0.87738572   -7.3579329    708.26612  0.025094463  0.024896278            4 
 2353000    0.8737086   -7.3897303    704.24679   0.02494145  0.024889571            3 
 2354000   0.87123836   -7.3255362    705.86616  0.024988182  0.024882847            4 
 2355000   0.88245009    -7.366678    707.09087  0.025020908  0.024876176            6 
 2356000   0.85865493   -7.3566065    707.57217  0.025027312  0.024869512            3 
 2357000   0.88278076   -7.3248644    709.28707  0.025077325  0.024862816            2 
 2358000   0.87311575   -7.3667302    706.49261  0.024967932   0.02485618            4 
 2359000   0.87484367   -7.3554852    707.46241  0.024991607  0.024849568            3 
 2360000   0.85372057     -7.36204    708.12378  0.025004371  0.024842936            2 
 2361000   0.86180308   -7.3678993    707.15126  0.024959454  0.024836256            5 
 2362000   0.86027294   -7.3526226    708.36453  0.024991692  0.024829596            2 
 2363000   0.87227317   -7.3575833    710.05716  0.025040808  0.024822934            3 
 2364000    0.8595391    -7.384084    708.08265  0.024960612  0.024816327            3 
 2365000   0.87748916   -7.3505921    709.78984  0.025010213  0.024809724            4 
 2366000   0.86231567   -7.3724546    710.61138  0.025028578  0.024803148            2 
 2367000    0.8599044   -7.3502456    709.20234  0.024968397  0.024796554            2 
 2368000   0.88183889   -7.3472278    709.65322   0.02497372  0.024789942            2 
 2369000    0.8813521   -7.3849845    706.83297  0.024863971  0.024783318            4 
 2370000   0.85593979   -7.3137848    709.41374  0.024944224  0.024776688            5 
 2371000   0.87858151   -7.3713983    709.81677  0.024947869  0.024770084            5 
 2372000   0.86181314   -7.3980895     708.5048  0.024891259  0.024763473            2 
 2373000   0.86455287   -7.4075229      709.407  0.024912453  0.024756845            9 
 2374000   0.87133059   -7.3915128    709.10981  0.024891527  0.024750259            5 
 2375000   0.87976241   -7.3727614     712.2723   0.02499201   0.02474362            1 
 2376000   0.86331634   -7.3835232    710.77626  0.024929022  0.024737074            7 
 2377000   0.89102393   -7.3777734     711.9626  0.024960125  0.024730513            4 
 2378000    0.8762762    -7.380985    710.65802  0.024903912  0.024723954            5 
 2379000   0.88448041   -7.4085301    710.74353  0.024896439  0.024717423            1 
 2380000   0.88992604   -7.3836678    709.53108  0.024843525  0.024710832            1 
 2381000   0.84502804   -7.4218483    710.52226  0.024867782  0.024704244            2 
 2382000   0.87300064   -7.3932911    711.40675  0.024888285  0.024697666            4 
 2383000    0.8581531   -7.3883175    712.21519  0.024906112  0.024691114            5 
 2384000   0.84862373    -7.395163    710.27416  0.024827816  0.024684524            2 
 2385000   0.87334085   -7.3969658    711.55406  0.024862127  0.024677907            3 
 2386000   0.87864145    -7.391138      712.417  0.024881846   0.02467129            4 
 2387000   0.85972412   -7.3612233    712.64997  0.024879555  0.024664738            2 
 2388000   0.85430254   -7.3931813    711.57536  0.024831636  0.024658153            3 
 2389000   0.88022226   -7.3955847    710.88039     0.024797  0.024651587            3 
 2390000   0.86118359   -7.4017337    712.63734  0.024847885  0.024645021            8 
 2391000   0.86894234   -7.3929283    711.91643  0.024812367  0.024638456            3 
 2392000   0.86510072   -7.3584407    712.55742  0.024824325  0.024631903            1 
 2393000   0.85600559   -7.3725751    712.93021  0.024826933  0.024625306            2 
 2394000   0.87265192   -7.3836957    711.56985   0.02476921  0.024618706            2 
 2395000    0.8711099   -7.3689854    712.89243  0.024804886  0.024612167            3 
 2396000    0.8642935   -7.3954188    711.44028  0.024744028  0.024605595            3 
 2397000   0.86056503   -7.3580188    714.83479  0.024851717  0.024599016            4 
 2398000   0.87470266    -7.383819    713.39969  0.024791482  0.024592478            6 
 2399000    0.8544762   -7.3651876     712.5266   0.02475082  0.024585906            2 
 2400000   0.85783732   -7.3716465    712.59867  0.024743009  0.024579287            3 
 2401000    0.8577977   -7.3916265    712.80739  0.024739948  0.024572679            3 
 2402000   0.86218264   -7.3806952    713.36445  0.024748975  0.024566065            3 
 2403000   0.85713919   -7.3716014    713.89657  0.024757129  0.024559378            3 
 2404000   0.87429882   -7.4017847    711.61121   0.02466761  0.024552723            4 
 2405000    0.8755289   -7.3927545    714.47859  0.024756708  0.024546079            4 
 2406000   0.87871272   -7.4087544    712.07126  0.024663039  0.024539443            3 
 2407000    0.8853967    -7.387393    709.89208  0.024577347  0.024532818            3 
 2408000   0.87347159    -7.376978    713.89145  0.024705546   0.02452624            3 
 2409000   0.85169654   -7.3485429    713.97294  0.024698109  0.024519692            2 
 2410000   0.88182733   -7.3476315    716.85915  0.024787661  0.024513209            2 
 2411000   0.88360263   -7.3572678    714.52437  0.024696681  0.024506683            4 
 2412000   0.85800209   -7.3692378    715.30117   0.02471328  0.024500116            2 
 2413000   0.88363681   -7.4069107    714.03002  0.024659139  0.024493506            3 
 2414000   0.86780984   -7.3988971    713.95123  0.024646204  0.024486844            3 
 2415000   0.87046121   -7.3888415    714.13272  0.024642261  0.024480247            5 
 2416000   0.85063813   -7.3819086    716.40771  0.024710531  0.024473663            2 
 2417000    0.8679592   -7.3844426    715.55099  0.024670769  0.024467028            3 
 2418000   0.86013527   -7.3829156    713.61603   0.02459388  0.024460404            2 
 2419000    0.8727563   -7.3808929     714.9688  0.024630316  0.024453791            5 
 2420000    0.8476492   -7.4129996    715.48059  0.024637761  0.024447173            3 
 2421000   0.85525944   -7.3997452    714.80526  0.024604339  0.024440554            2 
 2422000   0.85463404   -7.4122163    715.54534  0.024619644  0.024433988            3 
 2423000   0.85353886    -7.404366     714.8857  0.024586797  0.024427398            4 
 2424000   0.87311683   -7.3963913    716.48072  0.024631488  0.024420825            1 
 2425000   0.84596112   -7.3941961     715.6655  0.024593316  0.024414209            9 
 2426000   0.88807276   -7.3903113    714.95092  0.024558633   0.02440762            4 
 2427000   0.84912898   -7.4110888    715.85928  0.024579703  0.024400981            3 
 2428000   0.86334227   -7.4151344    714.93208  0.024537757  0.024394292            3 
 2429000   0.83493535   -7.4229458    715.11669  0.024533988  0.024387615            3 
 2430000   0.86494863   -7.3639761    714.38777  0.024498895   0.02438093            3 
 2431000   0.86076939   -7.3918413    717.34343  0.024590135  0.024374283            6 
 2432000   0.86587848   -7.3729498    716.19301  0.024540605  0.024367663            4 
 2433000   0.85737265   -7.4066857     715.4384  0.024504672  0.024360951            2 
 2434000   0.86010959   -7.4166801    714.21451  0.024452702  0.024354234            4 
 2435000   0.85923144   -7.3583581    715.66925  0.024492445  0.024347493            2 
 2436000   0.87526097   -7.3748491    716.10019  0.024497133   0.02434078            3 
 2437000   0.84439902   -7.4005094    716.38951  0.024496974  0.024334086            4 
 2438000   0.86731107   -7.3937685     715.4942  0.024456323  0.024327365            5 
 2439000   0.86804663   -7.3795338     715.6785  0.024452593  0.024320651            2 
 2440000   0.86862519   -7.3900227     715.8889  0.024449757  0.024313924            3 
 2441000    0.8577629   -7.3548508      718.291  0.024521747  0.024307179            4 
 2442000   0.86414638   -7.3950745    715.67969  0.024422594  0.024300458            2 
 2443000    0.8676286   -7.3650455    716.28311   0.02443318  0.024293712            3 
 2444000   0.84971385   -7.4471607     715.3879  0.024392659  0.024286988            3 
 2445000   0.87728821   -7.3749235    715.49341  0.024386278  0.024280231            2 
 2446000   0.84626097    -7.406851    717.24662  0.024436039  0.024273494            2 
 2447000   0.85555973   -7.3730864    717.76571  0.024443731  0.024266795            3 
 2448000   0.86263132   -7.4368188    715.06937  0.024341959  0.024260082            2 
 2449000   0.86027161    -7.444846     714.8485  0.024324503  0.024253316            3 
 2450000     0.871779   -7.4151085     715.4416  0.024334748  0.024246514            4 
 2451000   0.87094902   -7.3998717    716.36977  0.024356377  0.024239787            2 
 2452000   0.86462017   -7.3967099     717.2181  0.024375275  0.024233116            5 
 2453000   0.86292929   -7.3759193     716.8126  0.024351563  0.024226422            3 
 2454000   0.86838915   -7.3666267    717.42844  0.024362552  0.024219743            2 
 2455000    0.8477862   -7.3486067    718.72106  0.024396506  0.024213073            3 
 2456000   0.87189735   -7.3995528    717.73265  0.024353035  0.024206368            3 
 2457000    0.8821397   -7.4224966    716.74232  0.024309535  0.024199625            3 
 2458000   0.85631604   -7.4379448    716.18319  0.024280688  0.024192872            3 
 2459000   0.85185327   -7.4062856    717.82046    0.0243263  0.024186151            2 
 2460000   0.85903726   -7.3790976    717.98762  0.024322074  0.024179472            1 
 2461000   0.86898881   -7.4164547    719.03897  0.024347791   0.02417279            4 
 2462000   0.86683881   -7.3601085    720.54749  0.024388962  0.024166133            6 
 2463000   0.85847564   -7.3918927    720.89139  0.024390695  0.024159522            3 
 2464000   0.85191433   -7.3893793     720.0462  0.024352212  0.024152869            2 
 2465000   0.84061437   -7.3973454    719.33313  0.024318226  0.024146273            2 
 2466000   0.85028871   -7.4163039    719.32947  0.024308241  0.024139643            2 
 2467000   0.86686514   -7.3985334    719.89547  0.024317507   0.02413299            2 
 2468000   0.84878281   -7.3948009    720.70371  0.024334944  0.024126357            1 
 2469000   0.85719346   -7.4112095    720.54619  0.024319771  0.024119808            4 
 2470000   0.86334332   -7.3678678    719.36204  0.024269974  0.024113244            6 
 2471000   0.85055336   -7.3979908    719.41796  0.024262038   0.02410666            3 
 2472000   0.87269091    -7.425412     719.1363  0.024242728  0.024100019            4 
 2473000   0.85832648   -7.3855216    720.45688  0.024277425  0.024093398            5 
 2474000   0.83983427   -7.4181091     720.9079  0.024282804  0.024086758            1 
 2475000   0.86543329   -7.4232293    717.84504  0.024169867  0.024080129            9 
 2476000   0.85056535   -7.4421551    718.25074   0.02417376  0.024073437            3 
 2477000   0.86055443    -7.414962    718.92005  0.024186518  0.024066663            4 
 2478000   0.86640119   -7.4251436    718.29835   0.02415585  0.024059937            3 
 2479000   0.85158012   -7.4498827     718.9557  0.024168203  0.024053205            3 
 2480000   0.86221461   -7.4347606    717.74112  0.024117645  0.024046472            2 
 2481000   0.85871981   -7.3747928    719.92573  0.024181302  0.024039775            2 
 2482000   0.84988166   -7.4267621    720.30188  0.024184189   0.02403308            3 
 2483000   0.84243964   -7.4102283    721.13352   0.02420236   0.02402637            2 
 2484000    0.8522644   -7.4196165    719.57769  0.024140422  0.024019648            3 
 2485000   0.85207312   -7.4272061    721.66267  0.024200626   0.02401295            6 
 2486000   0.81604131   -7.4115639    720.13633  0.024139727  0.024006292            2 
 2487000   0.83952418   -7.4515625    722.19103  0.024198869  0.023999584            8 
 2488000   0.85109096   -7.4092338    720.34849  0.024127428  0.023992924            2 
 2489000   0.85543819   -7.4056363    722.05804  0.024174971   0.02398628            4 
 2490000   0.87286479   -7.3882471    720.23403  0.024104218  0.023979691            5 
 2491000    0.8403974   -7.4061677    721.61541  0.024140754  0.023973024            1 
 2492000    0.8590617   -7.4459812    721.24928  0.024118823  0.023966355            3 
 2493000   0.84427662    -7.406973    721.82523    0.0241284  0.023959674            2 
 2494000     0.851603   -7.4243959     722.3243  0.024135402  0.023953052            2 
 2495000   0.86109201   -7.4418383    720.92561  0.024079012  0.023946385            2 
 2496000   0.87277914   -7.4064888    721.69165   0.02409494  0.023939735            3 
 2497000   0.86704228    -7.408326    723.62023  0.024149654  0.023933138            7 
 2498000   0.84867132   -7.4299857    722.53348  0.024103732  0.023926523            4 
 2499000   0.85454884   -7.4007614    723.15515  0.024114818  0.023919924            2 
 2500000   0.87326226   -7.4010991    721.96967  0.024065656  0.023913301           10 
 2501000    0.8504825   -7.4273027    722.19057  0.024063394  0.023906648            4 
 2502000   0.85660519   -7.3759751     723.3789  0.024093355  0.023900015            2 
 2503000    0.8412215   -7.4054239    722.85637  0.024066333  0.023893388            3 
 2504000   0.84625316   -7.4014049    722.72106  0.024052218  0.023886747            3 
 2505000   0.83500296   -7.4340892     722.5639  0.024037389  0.023880061            2 
 2506000   0.88122333   -7.3959527    723.41351  0.024056049  0.023873367            5 
 2507000   0.86289843   -7.4563421    720.27005  0.023941964  0.023866671            2 
 2508000   0.83642644   -7.4198271    720.85147  0.023951737   0.02385986            4 
 2509000   0.84890444   -7.4240218    721.57955  0.023966373  0.023853077            2 
 2510000   0.83235854   -7.4377568    720.71935  0.023928265  0.023846295            5 
 2511000   0.86189197   -7.4580931    720.25006  0.023903162   0.02383951            6 
 2512000   0.84632484   -7.4333155    722.88983  0.023981218  0.023832713            5 
 2513000    0.8501186   -7.4417711    722.47741  0.023957999  0.023825926            3 
 2514000   0.86080515   -7.4101263     722.0794  0.023935276  0.023819171            5 
 2515000   0.84794849    -7.394133    723.25069  0.023964569  0.023812424            3 
 2516000   0.85700964   -7.3936845    723.93837  0.023977821   0.02380571            3 
 2517000   0.84719967   -7.4053386    722.30476  0.023914209  0.023799019            3 
 2518000   0.84552716   -7.4368724    722.04899  0.023896247  0.023792297            4 
 2519000    0.8375283   -7.4107175    722.20442  0.023891902  0.023785575            4 
 2520000   0.85261232    -7.416072    725.31799  0.023985383  0.023778929            4 
 2521000   0.84355331   -7.4195456    723.63908  0.023920372  0.023772332            2 
 2522000   0.85458766   -7.4218801     725.3852  0.023968583  0.023765725            5 
 2523000    0.8436774   -7.4097069     724.3572  0.023925129   0.02375913            6 
 2524000   0.82827655   -7.4242407    724.52664  0.023921244  0.023752488            8 
 2525000   0.83874744   -7.4501935    724.74197  0.023918877  0.023745861            4 
 2526000   0.83647789   -7.4382118    724.22587  0.023892382  0.023739244            2 
 2527000   0.84079126   -7.4200643    724.73397  0.023899682  0.023732569            2 
 2528000   0.84428578    -7.423486    725.77813  0.023924648  0.023725941            5 
 2529000   0.84666913   -7.4332043     723.7851  0.023849516  0.023719331            3 
 2530000   0.85434693   -7.4319034    724.93624  0.023878005  0.023712747            8 
 2531000   0.84253227   -7.4410372     725.3488  0.023882155  0.023706113            7 
 2532000   0.85214929   -7.4289624    725.76887  0.023886548  0.023699474            3 
 2533000   0.85172836   -7.4578486    724.55369   0.02383714  0.023692852            8 
 2534000   0.84549659   -7.4595196    724.81313  0.023836264  0.023686187            4 
 2535000   0.84502173   -7.4330053    725.33098  0.023843885   0.02367955            2 
 2536000   0.84150017   -7.4380678    725.36695  0.023835665  0.023672929            5 
 2537000   0.85384357   -7.4463255    725.69064  0.023836902  0.023666306            8 
 2538000   0.83622466   -7.4477656    724.38909  0.023784775  0.023659688            3 
 2539000   0.84871571   -7.4354229    725.60094  0.023815181  0.023653041            3 
 2540000   0.83863323   -7.4486156    725.55329  0.023804242  0.023646427            3 
 2541000   0.84119043   -7.4207816    727.41245  0.023855846  0.023639848            2 
 2542000    0.8194249    -7.419829    727.09538  0.023836067  0.023633239            6 
 2543000   0.84446483   -7.4449734    725.90935  0.023787828  0.023626621            3 
 2544000    0.8517597   -7.4352645    725.02042  0.023749359  0.023619972            3 
 2545000   0.85888596   -7.4502249    727.35252  0.023816389   0.02361332            3 
 2546000   0.84293884   -7.4947684    725.92995  0.023760472   0.02360667            4 
 2547000    0.8608123   -7.4199308    727.10424  0.023789564  0.023600022            1 
 2548000   0.84496485   -7.4422288    727.51691  0.023793724  0.023593391            2 
 2549000   0.84613958   -7.4208893    727.18722  0.023773611  0.023586794            3 
 2550000   0.83386974   -7.4558417    726.71664   0.02374891  0.023580222            3 
 2551000   0.84943555   -7.4257937    727.85107  0.023776658  0.023573603            5 
 2552000   0.85724005   -7.4299136     727.8029  0.023765769   0.02356699            2 
 2553000    0.8553774    -7.423732    726.90044  0.023727002   0.02356035            3 
 2554000   0.85040534   -7.4590919    726.75246  0.023712884  0.023553749            2 
 2555000   0.84049154   -7.4236723    728.86738  0.023772583  0.023547175            1 
 2556000   0.84133232   -7.4161938    728.72656  0.023758691  0.023540614            3 
 2557000   0.86325419   -7.4591369     727.4193  0.023706795  0.023534036            5 
 2558000   0.84889242   -7.4633567    727.91729  0.023713751  0.023527418            3 
 2559000   0.84834124   -7.4379604    727.14805  0.023679434  0.023520812            1 
 2560000   0.84928242   -7.4347148    726.02353  0.023633579  0.023514194            4 
 2561000   0.82347803   -7.4486198    727.44595  0.023670635  0.023507543            3 
 2562000   0.85352702   -7.4595119    728.76612  0.023704336  0.023500972            3 
 2563000   0.83206146    -7.428119    728.22922  0.023677631   0.02349437            6 
 2564000   0.83888129   -7.4028918    727.29313  0.023637972  0.023487809           11 
 2565000   0.81962867   -7.4534107     728.7598  0.023676407  0.023481243            2 
 2566000   0.85013287   -7.4485238    728.79084  0.023668188  0.023474637            8 
 2567000   0.83446541    -7.429139     728.9346  0.023663635  0.023468014            4 
 2568000   0.84986011   -7.4442356    728.13859  0.023628589  0.023461373            4 
 2569000   0.83569636     -7.45909    727.99683  0.023614793  0.023454738            4 
 2570000   0.84177554   -7.4349936    727.55042  0.023591129  0.023448121            5 
 2571000   0.83503946   -7.4437746    729.01199  0.023629327  0.023441514            4 
 2572000    0.8329322   -7.4411165    730.48771  0.023667953  0.023434919            4 
 2573000   0.82451593   -7.4504372    729.05027  0.023612199  0.023428363            9 
 2574000   0.84351106   -7.4504314    730.75992  0.023658376   0.02342181            2 
 2575000    0.8251936   -7.4269057     730.4616  0.023639534  0.023415296            3 
 2576000   0.83070528   -7.4181901    731.45287  0.023662425  0.023408751            4 
 2577000   0.85810513    -7.452335    730.21614   0.02361325  0.023402168            2 
 2578000   0.82522435   -7.4450614    729.45733  0.023579562  0.023395609            3 
 2579000   0.85397048   -7.4174514    729.59514  0.023574872  0.023389077            5 
 2580000   0.83077242   -7.4560898    729.25983  0.023554904  0.023382565            4 
 2581000   0.84982542   -7.4463828    731.82855  0.023628715  0.023376009            2 
 2582000   0.84055783   -7.4570195    730.64328  0.023581309  0.023369498            4 
 2583000   0.82865748   -7.4058346    731.36327  0.023595408  0.023363039            2 
 2584000   0.83496031    -7.407339    732.62495  0.023626966  0.023356612            5 
 2585000   0.84913307   -7.4230476    730.81858  0.023559593  0.023350186            3 
 2586000    0.8407382    -7.403129     731.9768  0.023587806  0.023343722            4 
 2587000    0.8145401   -7.4973892    731.48341  0.023562795  0.023337216            3 
 2588000   0.82830923   -7.4777103     730.1014   0.02350919  0.023330637            4 
 2589000   0.82273266   -7.4722757    732.04175  0.023562564  0.023324071            2 
 2590000    0.8308881    -7.477563    731.45026  0.023534436  0.023317542            5 
 2591000   0.81545439   -7.4664222    730.87335  0.023506798   0.02331099            3 
 2592000   0.83361572   -7.4307806    732.43742  0.023548014  0.023304447            3 
 2593000   0.83826187   -7.4727216    732.87116  0.023552872  0.023297939            5 
 2594000    0.8301538    -7.424986    731.26228  0.023492106  0.023291442            6 
 2595000    0.8409234   -7.4691548    729.76946  0.023435114   0.02328495            3 
 2596000   0.85252692   -7.4410026    729.98899  0.023433134  0.023278395            3 
 2597000   0.83263225   -7.4355803    730.56688  0.023442654  0.023271854            5 
 2598000   0.83304259   -7.4831486     729.0838   0.02338606  0.023265314            3 
 2599000   0.84184772   -7.4533793    730.61778  0.023426247   0.02325879            2 
 2600000   0.83339501   -7.4441724    730.14107  0.023401957  0.023252243            2 
 2601000   0.80606515    -7.463846    731.75673  0.023444724  0.023245682            3 
 2602000    0.8508921   -7.4965899    731.61719  0.023431245  0.023239105            5 
 2603000   0.83148076   -7.4268201    732.24337   0.02344229  0.023232618            4 
 2604000   0.83728329   -7.4472919    731.36265  0.023405103  0.023226166            4 
 2605000   0.84248794   -7.4365731    732.46231  0.023431296  0.023219681            2 
 2606000   0.84229511    -7.481595    733.28631  0.023448654  0.023213147            2 
 2607000    0.8389969   -7.4533769    732.70515  0.023421083  0.023206654            4 
 2608000   0.84840614   -7.4442634    732.52578  0.023406371  0.023200152            3 
 2609000   0.84002616    -7.480955    732.82858  0.023407071  0.023193673            1 
 2610000   0.84978379   -7.4649791    734.13418  0.023439789  0.023187268            6 
 2611000   0.83929507   -7.4371792     735.2213  0.023465508  0.023180835            2 
 2612000    0.8449224   -7.4490451    735.33883  0.023460274  0.023174431            2 
 2613000   0.81868772   -7.4509309    734.32301  0.023418899  0.023168017            2 
 2614000   0.84782644   -7.4481903    735.38821  0.023443899  0.023161597            3 
 2615000   0.82517264   -7.4811147     734.2465   0.02339855  0.023155162            5 
 2616000   0.83788365   -7.4573761    732.93144  0.023347714  0.023148723            4 
 2617000   0.81699083   -7.5007669     734.1684  0.023378181  0.023142276            2 
 2618000   0.83909291   -7.4684417    733.53089  0.023348959  0.023135801            5 
 2619000   0.84705376   -7.4623832    734.79362  0.023380222  0.023129366            4 
 2620000   0.84061342   -7.4898828    733.43312  0.023328026  0.023122928            6 
 2621000   0.84212642   -7.4639561      734.498  0.023352982   0.02311647            3 
 2622000   0.82949441   -7.4695012    733.48906  0.023312009  0.023110041            2 
 2623000   0.82885302    -7.447506    736.15622  0.023387858  0.023103609            3 
 2624000   0.85291473   -7.4723102    734.85751    0.0233377  0.023097176            5 
 2625000   0.85704687    -7.492864    733.08899  0.023272666  0.023090701            3 
 2626000   0.85052708   -7.4803859    734.89817  0.023321216   0.02308422            7 
 2627000   0.85207002   -7.4433131    737.02123  0.023379686  0.023077752            5 
 2628000    0.8305266   -7.4607331    735.40472  0.023319531  0.023071353            9 
 2629000   0.84179577   -7.4465142     735.7661  0.023322115  0.023064908            3 
 2630000   0.81728352   -7.4614181    735.86674  0.023316437  0.023058493            5 
 2631000   0.84962477   -7.4404391    735.87321  0.023307779  0.023052079            4 
 2632000   0.83207005   -7.4445511    735.73834  0.023294654  0.023045639            3 
 2633000   0.82695018   -7.4623162    735.27133  0.023271026  0.023039221            5 
 2634000   0.82428608   -7.4900283     735.9481  0.023283602  0.023032795            5 
 2635000   0.83761602   -7.4751115    735.00748  0.023245018  0.023026317            8 
 2636000   0.83160072   -7.4652124    734.76579  0.023228559  0.023019802            2 
 2637000   0.84022946   -7.4763762    734.22457  0.023202647  0.023013338            7 
 2638000   0.83486704   -7.4929196    737.31814  0.023291576   0.02300689            2 
 2639000   0.84084856    -7.488002    735.14854  0.023214239  0.023000447            1 
 2640000    0.8281045   -7.4810491    735.08994  0.023203597  0.022994002            4 
 2641000   0.81216591   -7.4653369    736.46437  0.023238179  0.022987528            2 
 2642000   0.81109075   -7.4678708    736.50906  0.023230793  0.022981103            5 
 2643000   0.84177888   -7.5026716    736.50193  0.023221779  0.022974665            4 
 2644000   0.82214182   -7.4649511    736.35413  0.023208338  0.022968244            8 
 2645000   0.82416327   -7.4707509    736.62947  0.023208238  0.022961821            3 
 2646000   0.83917535   -7.4845326     735.0478  0.023149654  0.022955401            2 
 2647000   0.83133179   -7.4855789    735.58125  0.023157702  0.022949004            4 
 2648000   0.83340668    -7.439457     737.7361  0.023216771  0.022942591            2 
 2649000   0.82710093   -7.4834471    740.04558  0.023280659  0.022936198            3 
 2650000   0.82605294   -7.4699642    738.69679  0.023229459  0.022929858            2 
 2651000   0.82930462   -7.4514171    736.76722  0.023160041  0.022923464            4 
 2652000   0.82965761   -7.4693119    736.94257  0.023156818  0.022917088            4 
 2653000   0.84220907   -7.4861257    737.97947  0.023180659  0.022910722            4 
 2654000   0.80353765   -7.4599112    737.88974  0.023169108   0.02290436            3 
 2655000   0.82488966   -7.4636463    738.57284  0.023181822  0.022897981            3 
 2656000   0.82911393   -7.4831155    737.19257  0.023129787  0.022891583            6 
 2657000   0.84856479   -7.4924628    738.27371   0.02315499  0.022885185            5 
 2658000   0.81670954   -7.4731625    738.77365  0.023161953  0.022878755            2 
 2659000   0.80979685    -7.475594    738.60874  0.023148074   0.02287235            6 
 2660000   0.81932566   -7.4799141    739.07748  0.023154056  0.022865954            5 
 2661000   0.81648139   -7.4921473     739.3053   0.02315249  0.022859596            3 
 2662000   0.83111335   -7.4919256    737.78894  0.023096323   0.02285326            3 
 2663000   0.82308516   -7.4926752     739.1443  0.023130063  0.022846927            6 
 2664000   0.82512005   -7.4711726    738.83633  0.023111747  0.022840549            2 
 2665000   0.80975925   -7.4714671    739.55763  0.023125629  0.022834232            3 
 2666000   0.83277943   -7.4876556     740.1433  0.023135262  0.022827915            6 
 2667000   0.81437441   -7.4702051    738.64627  0.023079811  0.022821607            5 
 2668000   0.84205262   -7.4681827    738.62885  0.023070616  0.022815278            2 
 2669000   0.80102267   -7.4922127    739.61987  0.023092915   0.02280894            3 
 2670000     0.825529   -7.4767633    738.81391  0.023059111  0.022802615            2 
 2671000   0.81519748   -7.4903601    741.30004  0.023128043  0.022796297            3 
 2672000   0.82540879   -7.4847011    739.14337  0.023052126  0.022789956            4 
 2673000   0.80171379   -7.4406151    740.81698  0.023095678  0.022783669            2 
 2674000   0.83132418   -7.4612256    740.16517  0.023066728  0.022777401            3 
 2675000   0.81641966   -7.4846039    738.51417  0.023006672  0.022771049            3 
 2676000    0.8198096   -7.4874734    739.50102  0.023028806  0.022764701            4 
 2677000   0.81444251   -7.4710452    740.30717  0.023045299  0.022758392            2 
 2678000   0.81288399     -7.48372    741.07311  0.023060527  0.022752083            4 
 2679000   0.81779006    -7.478603    740.31794  0.023028429  0.022745781            4 
 2680000   0.81616785     -7.50106    741.22726  0.023048111  0.022739502            2 
 2681000   0.81303774   -7.4741674    739.73477  0.022993124   0.02273318            4 
 2682000   0.82965867   -7.5115671      739.731  0.022984433  0.022726837            3 
 2683000   0.83349711   -7.5129509    739.77901  0.022977358  0.022720463           11 
 2684000   0.80285906   -7.4864379    741.58276    0.0230248  0.022714047            4 
 2685000   0.81760773   -7.5025288    741.33863  0.023008648  0.022707679            7 
 2686000   0.80738039   -7.4911984    740.35185  0.022969467  0.022701322            2 
 2687000   0.79814852     -7.48785    740.44183  0.022963709  0.022694961            4 
 2688000    0.8406093   -7.5115685    739.93887  0.022939573  0.022688595            9 
 2689000   0.81031331   -7.4687186    741.21355  0.022970545  0.022682235            4 
 2690000   0.81893735   -7.4679309    741.10045  0.022958502  0.022675898            4 
 2691000   0.81560807   -7.4902692    739.81969  0.022910309  0.022669533            3 
 2692000   0.82075683   -7.5028151    741.13137  0.022942402  0.022663162            2 
 2693000    0.8309866   -7.4824653    741.85154  0.022956168  0.022656826            5 
 2694000   0.81965836   -7.4721517    742.99702   0.02298308  0.022650506            4 
 2695000   0.81717143   -7.4928237    740.42046  0.022894881  0.022644165            2 
 2696000   0.81093304   -7.5074766    740.41361  0.022886177  0.022637776            2 
 2697000   0.81828719   -7.5039357    741.23045  0.022902931  0.022631382            3 
 2698000   0.83657388   -7.4920123    740.99499  0.022887169  0.022625028            5 
 2699000   0.82928077   -7.5086816    742.32122  0.022919637  0.022618698            8 
 2700000    0.8362353   -7.4768733     741.8793  0.022897509  0.022612375            3 
 2701000   0.81868454   -7.4975973    741.67263  0.022882655  0.022606052            7 
 2702000    0.8336322   -7.4935126    742.32669  0.022894359  0.022599713            3 
 2703000   0.82950273    -7.472977    742.68821  0.022897034  0.022593377            4 
 2704000   0.83030839   -7.4911105    742.61421  0.022886286  0.022587083            2 
 2705000   0.80744913   -7.5070083    742.54408  0.022875665  0.022580818            2 
 2706000    0.8179006   -7.4919451    741.49731  0.022834975  0.022574503            3 
 2707000   0.80509259   -7.4828715    741.24909  0.022818898  0.022568158            4 
 2708000   0.82813349   -7.4868228    743.41775  0.022877208  0.022561818            4 
 2709000   0.81491974   -7.4877009    741.11387  0.022797892   0.02255547            2 
 2710000   0.81516237    -7.486423    742.24401  0.022824231  0.022549114            2 
 2711000   0.83292358   -7.4800868    743.80959  0.022863937  0.022542779            4 
 2712000   0.81603632   -7.5030987    742.34333  0.022810451  0.022536457            3 
 2713000   0.80727026   -7.5010044    743.44795  0.022835973  0.022530112            5 
 2714000   0.83099868   -7.4892797    742.88357   0.02281023  0.022523834            4 
 2715000   0.81924629   -7.5054165    742.30239   0.02278399  0.022517536            4 
 2716000    0.8140611   -7.4890646    743.81047  0.022821873  0.022511266            2 
 2717000   0.80513838   -7.4858454    741.77662  0.022751092     0.022505            3 
 2718000   0.82852035   -7.4817495    743.48903  0.022795224  0.022498729            4 
 2719000   0.82240087   -7.4893772    744.21528  0.022809099  0.022492418            2 
 2720000   0.82159056   -7.5022813    744.30936  0.022803596   0.02248616            3 
 2721000   0.82026439    -7.503781     746.0808  0.022849467  0.022479879            2 
 2722000   0.81948737   -7.5214622    743.12306  0.022750522    0.0224736            2 
 2723000   0.82283159   -7.5045615     743.7922  0.022762645  0.022467309            2 
 2724000     0.833538   -7.5339716    744.92252  0.022788868   0.02246105            3 
 2725000   0.80800732   -7.4670965    743.89427   0.02274906  0.022454734            7 
 2726000   0.82394644   -7.4936255    743.28948  0.022722227  0.022448432            3 
 2727000   0.81476416   -7.5336867    745.49264   0.02278122  0.022442166            3 
 2728000   0.80687114   -7.4948268    745.74895  0.022780699  0.022435915            3 
 2729000   0.83005531   -7.4830553    745.31505  0.022759101  0.022429681            5 
 2730000    0.8032558   -7.4869654    747.24371  0.022809637   0.02242348            4 
 2731000   0.82688108   -7.4896763    745.98734  0.022762948  0.022417301            2 
 2732000   0.82836994   -7.4812488    746.48557  0.022769814  0.022411111            5 
 2733000   0.82629611   -7.5065613    746.72712  0.022768847  0.022404934            8 
 2734000   0.82239106   -7.4524672    744.71031  0.022699046  0.022398809            3 
 2735000   0.81460648   -7.5058543    746.68373  0.022750876  0.022392622            2 
 2736000   0.81577149   -7.4582268    745.59383  0.022709364  0.022386396            3 
 2737000   0.80657761    -7.447242    747.14172  0.022748195  0.022380239            3 
 2738000   0.80489912   -7.5115492    745.58178  0.022692409   0.02237407            7 
 2739000   0.80246574   -7.4935789    746.34965  0.022707486  0.022367873            5 
 2740000   0.81190573   -7.5179949    745.51577  0.022673837  0.022361663            5 
 2741000   0.81708904   -7.5061135    747.23433  0.022717814  0.022355414            3 
 2742000   0.83010839   -7.5247019    745.09303  0.022644451  0.022349152            3 
 2743000   0.80801218   -7.5089245    747.15085  0.022698713   0.02234287            3 
 2744000   0.81337166   -7.5045309    746.15122  0.022660083  0.022336608            2 
 2745000   0.80410007   -7.4666496    746.72686  0.022669304   0.02233041            5 
 2746000    0.8093335   -7.5395455    745.55785  0.022625572  0.022324199            5 
 2747000   0.81006636   -7.5190339    746.76287  0.022653891  0.022317953            4 
 2748000   0.79447201   -7.5082052    746.35807  0.022633372  0.022311689            4 
 2749000   0.81290575   -7.4910103    745.87719  0.022610561  0.022305437            2 
 2750000   0.81583937   -7.4924599    747.51945  0.022652105  0.022299231            2 
 2751000   0.80705987   -7.5279137    746.66195  0.022617895  0.022292955            6 
 2752000   0.80870957   -7.5014884    746.66751  0.022609845  0.022286708            3 
 2753000   0.80115769   -7.5195241    745.10635  0.022554376  0.022280441            3 
 2754000   0.80624363    -7.476266    747.85825  0.022629456  0.022274188            3 
 2755000   0.82484842   -7.5343289    745.88418   0.02256153  0.022267942            1 
 2756000    0.8143765   -7.5209822    745.82087  0.022551429  0.022261643            3 
 2757000   0.79644292   -7.5063911    748.30662  0.022618384  0.022255359            4 
 2758000   0.80734222   -7.5121956    747.61581   0.02258931  0.022249092            3 
 2759000   0.82555934   -7.5200358    746.55884  0.022549198  0.022242852            3 
 2760000   0.80280226   -7.5300563    746.04139  0.022525404  0.022236571            4 
 2761000   0.79834084   -7.5344152    746.86729  0.022542173   0.02223031            5 
 2762000   0.80938088   -7.5067773     747.1381  0.022542183  0.022224039            4 
 2763000    0.7989854   -7.4938052    748.16806  0.022565088  0.022217786            2 
 2764000   0.78550881   -7.4975349     748.5775  0.022569268  0.022211593            2 
 2765000    0.8055532   -7.5058473    747.05175  0.022515122  0.022205391            3 
 2766000   0.81329952   -7.4972147    747.70612  0.022526697  0.022199203            3 
 2767000   0.81333703   -7.5254214    747.17069   0.02250243  0.022193006            5 
 2768000   0.80536142   -7.4981938    745.09324  0.022431757  0.022186811            4 
 2769000   0.81068009   -7.5143978    749.25931  0.022549034  0.022180663            3 
 2770000   0.81046796   -7.5194807    748.87886  0.022529448  0.022174501            3 
 2771000   0.80523585   -7.5086969    747.91488  0.022492328  0.022168344            5 
 2772000   0.80927193   -7.5374525    749.67736  0.022537198  0.022162181            2 
 2773000    0.8171213   -7.4984801    748.85332  0.022504307  0.022156002            4 
 2774000   0.79785913   -7.4947107    750.38019  0.022542063  0.022149861            4 
 2775000   0.81135214   -7.5414008    747.86373   0.02245837  0.022143711            2 
 2776000   0.82500395   -7.5300945    751.54976  0.022560932  0.022137532            3 
 2777000    0.7939586   -7.5176138    748.56393  0.022463207  0.022131389            4 
 2778000   0.81191198   -7.4908527    750.78055  0.022521615  0.022125258            3 
 2779000   0.80989647   -7.5226089    749.09244   0.02246289   0.02211913            1 
 2780000    0.7865319   -7.5452748    748.96566  0.022451009  0.022112954            5 
 2781000   0.81037584   -7.5100314    748.75197  0.022436533  0.022106779            3 
 2782000   0.81824447   -7.5462534    748.01301  0.022406333  0.022100573            4 
 2783000   0.79509372   -7.5283637    750.03379  0.022458791   0.02209437            5 
 2784000   0.80132441   -7.5351204    750.18271  0.022455182  0.022088153            5 
 2785000   0.81455162    -7.534214    750.23462  0.022448672  0.022081979            3 
 2786000   0.81770411   -7.5363501    750.22204  0.022440238  0.022075805            2 
 2787000   0.80918318    -7.524221    750.12592  0.022429312  0.022069624            4 
 2788000   0.81276714   -7.5160162    749.14248  0.022391872  0.022063422            3 
 2789000   0.80397935   -7.5208633    747.92139  0.022347358   0.02205724            3 
 2790000   0.81328623   -7.5168638    751.28254  0.022439741  0.022051066            2 
 2791000   0.80792191   -7.5242798    750.12885  0.022397255  0.022044882            5 
 2792000   0.80275177   -7.5337065    748.64031  0.022344804  0.022038716            2 
 2793000   0.79426063   -7.5247174    750.70725  0.022398474   0.02203253            3 
 2794000   0.80161652   -7.5481035    748.95703  0.022338255  0.022026366            4 
 2795000   0.81395546   -7.5256447    750.46334  0.022375174  0.022020225            4 
 2796000   0.80743423    -7.516813    751.77147   0.02240616  0.022014098            3 
 2797000   0.81834182   -7.5134542    751.48988  0.022389759  0.022007973            4 
 2798000   0.80283595   -7.5167569    751.18266  0.022372607  0.022001836            3 
 2799000   0.80537737   -7.5325293    751.40536  0.022371244  0.021995732            3 
 2800000   0.80726809   -7.5035402    750.39322  0.022333131  0.021989566            2 
 2801000   0.78862774   -7.5273934    751.37499  0.022354367  0.021983411            6 
 2802000   0.80944133   -7.5264573    750.65605  0.022325007  0.021977255            3 
 2803000   0.80351291   -7.5267672    750.74331  0.022319637  0.021971069            3 
 2804000   0.80678222    -7.519929     751.1349  0.022323315  0.021964937            8 
 2805000    0.7946326   -7.5132111    751.01865  0.022311903  0.021958754            2 
 2806000   0.78343172   -7.5509397    750.81243  0.022297827  0.021952572            3 
 2807000   0.79537839   -7.4980698    750.82156  0.022290154  0.021946433            3 
 2808000   0.79428921   -7.5075064    751.35808  0.022298139  0.021940303            2 
 2809000   0.81623696   -7.5098824    751.28382  0.022287998  0.021934169            3 
 2810000    0.7961641   -7.5107299    751.93411  0.022299351  0.021928033            5 
 2811000   0.81320569   -7.5261029    750.65784  0.022253582  0.021921866            3 
 2812000   0.81847977   -7.5562524    749.21946  0.022203042   0.02191571            4 
 2813000   0.79821623   -7.5305879    751.42306   0.02226043  0.021909543            3 
 2814000    0.8078022   -7.5375866    751.29291  0.022248665  0.021903364            6 
 2815000   0.79474428   -7.5529575    752.29755  0.022270502   0.02189722            4 
 2816000   0.80883956   -7.5197685    752.09665  0.022256648  0.021891046            9 
 2817000   0.80671519   -7.5431549    752.78041  0.022268974  0.021884932            5 
 2818000   0.80895328   -7.5274723     750.4063  0.022190865  0.021878779            5 
 2819000   0.78335172   -7.5244783    753.91061  0.022286585  0.021872646            3 
 2820000   0.79064188   -7.5323237    751.82839  0.022217151  0.021866489            8 
 2821000   0.79209886   -7.5409069    751.14905  0.022189207  0.021860321            4 
 2822000   0.79646499   -7.5528663    751.51225   0.02219207  0.021854139            3 
 2823000   0.80231097   -7.5960356    750.57043  0.022156407   0.02184793            4 
 2824000    0.7967477   -7.5142115     751.0617  0.022163058  0.021841772            7 
 2825000   0.78787397   -7.4950473    753.13069  0.022216245  0.021835683            5 
 2826000   0.79610687   -7.5282308    752.92077  0.022202193  0.021829569            3 
 2827000   0.80796546   -7.5484311    752.39353  0.022178798  0.021823454            4 
 2828000   0.79589558   -7.5232969    752.91599  0.022186351  0.021817337            4 
 2829000    0.7946132   -7.4971656    752.41861  0.022163857  0.021811231            5 
 2830000   0.81457648   -7.5296215    752.21467   0.02215002  0.021805101            4 
 2831000   0.80907967   -7.5616338    752.18147  0.022141218  0.021798932            4 
 2832000   0.78311257   -7.5319054    751.16871  0.022103599  0.021792759            3 
 2833000   0.79474145   -7.5262294    753.37575  0.022160718  0.021786602            3 
 2834000    0.8070734   -7.5358326    752.15271  0.022116935  0.021780438            5 
 2835000   0.80259701   -7.5363401    751.72673  0.022096612   0.02177429            3 
 2836000   0.79670685   -7.5582935    752.94183  0.022124525  0.021768116            2 
 2837000   0.78714505   -7.5787377    752.84509  0.022113885  0.021761922            7 
 2838000   0.79059174   -7.5243477    753.06045  0.022112416  0.021755766            6 
 2839000    0.7977388   -7.5184975     753.0668  0.022104814  0.021749654            7 
 2840000   0.79532989   -7.5703234    754.04962  0.022125869  0.021743557            2 
 2841000   0.78879666   -7.5364739    754.13647  0.022120628  0.021737448            4 
 2842000   0.82127282   -7.5284768    754.61469  0.022126867  0.021731348            2 
 2843000   0.78759232   -7.5323913    753.81066  0.022095517  0.021725234            2 
 2844000   0.81012822    -7.514675    754.29104  0.022101824  0.021719123            2 
 2845000   0.80407397   -7.5476725    751.62895  0.022016079  0.021712956            2 
 2846000   0.79945182   -7.5699197    753.23189  0.022055279  0.021706805            7 
 2847000   0.78703661   -7.5168131    755.08864   0.02210188  0.021700694            3 
 2848000   0.79258914   -7.5083034    753.90381  0.022059451  0.021694579            4 
 2849000   0.80894751   -7.5570616    754.68042  0.022074424  0.021688435            3 
 2850000   0.80943909   -7.5689595    753.44366  0.022030516  0.021682261            3 
 2851000   0.79769375   -7.5563173    752.72666  0.022001832  0.021676085            3 
 2852000   0.79490159   -7.5444252      751.724   0.02196482  0.021669932            3 
 2853000   0.78240411   -7.5322103    753.37405  0.022005317  0.021663736            3 
 2854000     0.808041   -7.5550846     753.2615  0.021994321  0.021657525            2 
 2855000   0.76835885   -7.5314912    754.43008  0.022020726  0.021651299            5 
 2856000   0.76712822   -7.5615591    750.95748  0.021911691  0.021645072            2 
 2857000   0.79330151   -7.5393464    751.88067   0.02193095  0.021638856            3 
 2858000   0.79594308   -7.5573026    753.70189  0.021976379  0.021632651            1 
 2859000   0.78603562   -7.5330815    753.40301   0.02195998  0.021626467            3 
 2860000    0.7760609   -7.5515853     753.5389  0.021956262  0.021620275            4 
 2861000   0.78481385    -7.510054    754.88629  0.021987833  0.021614096            2 
 2862000   0.79195646   -7.5462554    753.44265  0.021938116  0.021607905            2 
 2863000   0.80334645   -7.5739334    752.37137  0.021899271  0.021601692            9 
 2864000   0.78634665    -7.559728    753.46574  0.021923468  0.021595424            5 
 2865000   0.80097542   -7.5652765    754.45326  0.021944539  0.021589219            5 
 2866000   0.78481446   -7.5622001    753.54362  0.021910433  0.021583002            2 
 2867000   0.78909318   -7.5271783    753.39918  0.021898592  0.021576816            3 
 2868000   0.80563751   -7.5114955    755.41594  0.021949557  0.021570632            3 
 2869000   0.78794935   -7.5578598    754.05608  0.021902407  0.021564429            3 
 2870000   0.79900978   -7.5705296    753.65809   0.02188322  0.021558226            2 
 2871000   0.80348771   -7.5599423    754.45016  0.021898588  0.021552022            5 
 2872000   0.78581912   -7.5524676    753.95351  0.021876553  0.021545804            3 
 2873000   0.78014354   -7.5625159    754.79991  0.021893489  0.021539603            2 
 2874000   0.79867776   -7.5388767    752.51685  0.021819672  0.021533427            4 
 2875000   0.79303817   -7.5253235    755.46082  0.021897415  0.021527248            4 
 2876000   0.78831305   -7.5573767    753.30491  0.021827333  0.021521066            4 
 2877000   0.78308706   -7.5646426    752.89586  0.021807898  0.021514883            6 
 2878000   0.79181935   -7.5837178    753.83464  0.021827503  0.021508673            1 
 2879000   0.79536539   -7.5291635    753.92894  0.021822651  0.021502495            5 
 2880000   0.78243033   -7.5886927    753.18154  0.021793447   0.02149632            4 
 2881000   0.77416742   -7.5545271    754.36467  0.021820105  0.021490156            3 
 2882000   0.77942918   -7.5633122      755.806   0.02185421  0.021483999            4 
 2883000    0.7938484   -7.5653899     753.6059  0.021783036  0.021477893            2 
 2884000   0.79618928   -7.5673539    755.41315  0.021827703  0.021471722            7 
 2885000   0.80123653   -7.5814689       754.02  0.021779896  0.021465524            5 
 2886000    0.7890077   -7.5462126    753.20197  0.021748728  0.021459375            3 
 2887000   0.79028919     -7.54542    755.69301  0.021813099  0.021453179            3 
 2888000   0.80358929   -7.5696711    755.06069  0.021787301  0.021447004            4 
 2889000   0.79293225   -7.5632732    756.63262  0.021825101  0.021440904            2 
 2890000   0.79267231   -7.5552936    755.22185   0.02177687  0.021434752            3 
 2891000   0.78594002   -7.5547225    755.55496  0.021778939  0.021428578            4 
 2892000   0.78530171   -7.5976208    754.48508   0.02174058  0.021422402            7 
 2893000   0.78469061   -7.5787123    754.20136  0.021724892  0.021416217            2 
 2894000   0.78082653   -7.5705875    753.80365  0.021705933   0.02141006            4 
 2895000    0.7905066   -7.5990063    755.43138   0.02174529  0.021403916            5 
 2896000   0.78463251   -7.5475078    756.10014  0.021757025  0.021397767            4 
 2897000    0.7912247   -7.5799683    754.75595  0.021710849   0.02139159            2 
 2898000    0.7795584    -7.548234    755.28924  0.021718692  0.021385439            2 
 2899000   0.80154917   -7.5390959    757.94915  0.021787661  0.021379302            3 
 2900000   0.79398589   -7.5764132    756.44555  0.021736941  0.021373176            4 
 2901000   0.80195066    -7.555258    755.80376  0.021711012  0.021367046            3 
 2902000   0.77962891   -7.5290219    756.29067  0.021717513  0.021360923            4 
 2903000   0.77632444   -7.5636337    753.71563  0.021636113  0.021354785            3 
 2904000   0.77171577   -7.5880669    755.65014  0.021684175  0.021348657            3 
 2905000   0.78002387   -7.5561955    757.16753  0.021720239  0.021342508            3 
 2906000   0.79614962   -7.5864056    754.57227  0.021638342  0.021336324            8 
 2907000   0.79388853   -7.5990635    755.58674   0.02165998  0.021330127            4 
 2908000   0.81174709   -7.5726842    757.63647   0.02171127  0.021323949            5 
 2909000   0.77761629    -7.586718    755.24805  0.021635386  0.021317777            5 
 2910000   0.78516393   -7.5974796    755.53111  0.021636057  0.021311586            3 
 2911000   0.78468248   -7.5743873    757.00272  0.021670752  0.021305419            3 
 2912000   0.78879129   -7.5220378    757.21115  0.021669275  0.021299305            6 
 2913000   0.76537014   -7.5614067    756.91161  0.021653267  0.021293199            2 
 2914000    0.7829605    -7.570455    756.17846   0.02162487  0.021287087            9 
 2915000   0.78006775   -7.5865669    757.64459  0.021659365  0.021280957            5 
 2916000   0.76825492   -7.6001234    755.53228  0.021591572   0.02127481            5 
 2917000   0.78581561   -7.5943804    756.83608  0.021621417  0.021268637            3 
 2918000   0.80999704   -7.5663664    758.37732  0.021658023  0.021262465            8 
 2919000   0.79344929   -7.5948906    756.69125  0.021602468  0.021256331            5 
 2920000   0.78065645   -7.5510432      757.482  0.021617637  0.021250202            4 
 2921000   0.78591685   -7.5697362     756.8068  0.021590973  0.021244097            4 
 2922000   0.77303208   -7.5408584    758.19422  0.021623152  0.021238016            4 
 2923000   0.76769876   -7.5650696    757.35971  0.021591964  0.021231948            6 
 2924000   0.79964803   -7.5488144    759.43889  0.021643835  0.021225875            4 
 2925000   0.79469633   -7.5975013    756.75288  0.021559911  0.021219787            6 
 2926000   0.76160086    -7.571202    758.55321  0.021603817  0.021213696            2 
 2927000   0.79107425   -7.6200742    758.31297  0.021589596  0.021207614            9 
 2928000   0.78310453   -7.5625792    756.91941  0.021542561   0.02120153            5 
 2929000   0.77906051   -7.5898815     758.0481  0.021567318  0.021195453            9 
 2930000   0.78103128   -7.5896633    757.32489  0.021539388  0.021189354           14 
 2931000   0.77314018   -7.5558265    758.15877  0.021555748  0.021183233            4 
 2932000   0.76958542   -7.6194738    756.30746  0.021495778  0.021177116            3 
 2933000   0.77984546   -7.5964692    755.50721  0.021465712  0.021171013           11 
 2934000   0.76385968   -7.5776332     756.7013  0.021492311  0.021164911            2 
 2935000   0.79714768   -7.5848078    757.72017  0.021513917  0.021158789            4 
 2936000   0.78356539   -7.5708554     759.2796  0.021550852  0.021152689            2 
 2937000    0.7853092   -7.5929311    756.37655  0.021461144  0.021146578            2 
 2938000   0.78568334    -7.596627    757.28111  0.021479496  0.021140444            6 
 2939000   0.76967791   -7.5992986    759.16115  0.021525495  0.021134314            3 
 2940000   0.77452662     -7.56481     760.1913  0.021547372  0.021128228            4 
 2941000   0.79503104   -7.5701092    759.12393  0.021509802  0.021122159            2 
 2942000   0.78492761   -7.5951942    761.13166   0.02155936   0.02111607            5 
 2943000   0.76999543   -7.5906173    758.88835  0.021488514  0.021109961            4 
 2944000   0.77636096    -7.582017    758.91787   0.02148205  0.021103909            3 
 2945000   0.79439386   -7.6160506    759.47208  0.021490438  0.021097852            5 
 2946000   0.78655231   -7.5620087    760.01039   0.02149837    0.0210918            3 
 2947000    0.7702401   -7.5736302    760.14236  0.021494807  0.021085772            7 
 2948000   0.77114795   -7.5890846     759.8542   0.02147937  0.021079761            5 
 2949000   0.76210798   -7.5907344     761.4822  0.021518091  0.021073721            7 
 2950000   0.78121759   -7.5908866    758.04345  0.021413657  0.021067697            4 
 2951000   0.76369709   -7.5619624    760.15036  0.021465897  0.021061645            5 
 2952000   0.78774828   -7.5379392    760.55907  0.021470163  0.021055652            3 
 2953000   0.77331028   -7.5839893    759.72853  0.021439455   0.02104965            3 
 2954000   0.77443046   -7.5702888    759.96688  0.021438921  0.021043605            4 
 2955000   0.76815304   -7.5989982    760.95924  0.021459652  0.021037567            5 
 2956000   0.77693573   -7.5731224    759.94813  0.021423887  0.021031557            7 
 2957000   0.79285598   -7.6032632     760.8484  0.021442013  0.021025568            4 
 2958000   0.76303467   -7.5597207    760.63047  0.021428625  0.021019598            3 
 2959000   0.78216545   -7.6040565    760.44812  0.021416248  0.021013628            3 
 2960000   0.76181771    -7.606513    758.64235  0.021358174  0.021007624            3 
 2961000    0.7757338   -7.5842516    760.70766  0.021409086   0.02100162            2 
 2962000    0.7852445    -7.582803    762.89483  0.021463393  0.020995648            3 
 2963000   0.75654246   -7.5899532    760.74665  0.021395732  0.020989701            3 
 2964000    0.7813961   -7.6141787    759.32016  0.021348408  0.020983711            6 
 2965000   0.76369498   -7.5770958    761.76292  0.021409863  0.020977709            6 
 2966000    0.7690975   -7.5842578    763.52886  0.021452261  0.020971739            4 
 2967000   0.77435562   -7.6134254    760.57142  0.021361965  0.020965772            6 
 2968000   0.75975305   -7.5936832    761.13612  0.021370623  0.020959789            3 
 2969000   0.77940499   -7.5877461    762.99403  0.021415573  0.020953811            4 
 2970000   0.76532541    -7.614085    760.20642  0.021330146  0.020947812            3 
 2971000    0.7883689   -7.6080797    760.34767  0.021326929  0.020941776            7 
 2972000   0.78399686   -7.6026441      760.482   0.02132352  0.020935747            4 
 2973000   0.76534764   -7.5809832    761.44412  0.021343315  0.020929712            3 
 2974000   0.79482668    -7.601027    760.78011  0.021317533  0.020923716            4 
 2975000   0.79970529   -7.5992602    762.31798  0.021353445  0.020917714            4 
 2976000   0.78248716   -7.6043145    762.48532  0.021350955   0.02091176            5 
 2977000   0.77450602   -7.5793127    761.78125  0.021324075  0.020905766            2 
 2978000   0.78807904   -7.5766392    762.83776  0.021346479  0.020899783            4 
 2979000   0.78491489   -7.6197137    762.09339   0.02131849  0.020893778            5 
 2980000   0.77199986    -7.604735    762.65996   0.02132718  0.020887767            6 
 2981000   0.77759549   -7.6173132    762.24166  0.021308332  0.020881776            3 
 2982000   0.75883812   -7.6044064    764.12516  0.021353822  0.020875796            1 
 2983000   0.77829345   -7.5914296      762.603   0.02130414  0.020869876            6 
 2984000   0.76293097   -7.5933775    761.94241  0.021278552   0.02086392           10 
 2985000   0.75404632   -7.5873669    762.95857  0.021299793  0.020857963            4 
 2986000   0.78721665   -7.6056981    762.74512  0.021286702  0.020852025            5 
 2987000   0.78362973   -7.6230976    761.65242  0.021249091   0.02084609            1 
 2988000   0.76873947   -7.6159021    763.04177  0.021280728  0.020840152            2 
 2989000   0.77314682   -7.6282089    763.80318  0.021294836  0.020834188            5 
 2990000   0.78122662   -7.6060094    763.31803  0.021274193  0.020828228            6 
 2991000   0.77834957   -7.5999006    762.70306  0.021249946  0.020822278            1 
 2992000   0.76503855   -7.5994907    762.86547  0.021247367  0.020816314            6 
 2993000   0.77823917     -7.59927    761.84022  0.021211722  0.020810343            3 
 2994000   0.79101603   -7.6238224    761.72945  0.021201555  0.020804366            3 
 2995000   0.76096079   -7.6206411    759.83158  0.021141669  0.020798402            3 
 2996000   0.77298436   -7.6252517    762.12905  0.021198516  0.020792422            8 
 2997000   0.77899168   -7.5804277    761.73105  0.021180376   0.02078643            7 
 2998000   0.76818396   -7.5975104    763.63853  0.021226332  0.020780446            6 
 2999000    0.7765419   -7.6081126    764.83118  0.021252395  0.020774471            3 
 3000000   0.77481226   -7.6163225    761.21183  0.021144773  0.020768507            3 
 3001000   0.77791981   -7.6182551    762.21233   0.02116551  0.020762532            2 
 3002000   0.76789405   -7.6337183      762.625  0.021169915  0.020756526            4 
 3003000   0.78151988   -7.6026501    762.43238   0.02115752  0.020750532           12 
 3004000   0.75837236   -7.5844388    761.64861  0.021128734  0.020744573            4 
 3005000   0.77368868   -7.6165582    763.62413  0.021176487  0.020738572            2 
 3006000    0.7672623   -7.6218692    763.34684  0.021161755   0.02073259            6 
 3007000   0.76763967    -7.621242    762.58732  0.021133669  0.020726601            6 
 3008000   0.75573082   -7.6181426    760.73453  0.021075314   0.02072061            7 
 3009000   0.79026204   -7.6257487    762.64531  0.021121228   0.02071462            4 
 3010000   0.77268698   -7.6466125    763.13552  0.021127783  0.020708618            6 
 3011000   0.75428868   -7.5941804    762.82472  0.021112164  0.020702634            5 
 3012000    0.7714691    -7.647336    762.63607  0.021099936  0.020696624            6 
 3013000   0.76143188   -7.6233965    761.82256  0.021070433  0.020690582            4 
 3014000   0.76676413    -7.635059    763.94956  0.021122251   0.02068456            2 
 3015000   0.78687151   -7.6199822    762.67628  0.021080052  0.020678533            7 
 3016000   0.75720668   -7.5960609    762.73159  0.021074591  0.020672511            6 
 3017000   0.77146065    -7.651493    760.95394  0.021018505  0.020666466            4 
 3018000   0.76081651   -7.6253674    761.97781  0.021039811  0.020660436            5 
 3019000   0.77042533   -7.6179527    761.87423  0.021029983  0.020654443            4 
 3020000   0.77460202   -7.6247822    763.49017   0.02106761  0.020648439            2 
 3021000   0.76276838   -7.6265147    762.63484  0.021037042  0.020642435            2 
 3022000   0.76992136   -7.6086182    763.40198  0.021051235  0.020636439            4 
 3023000   0.78044638   -7.6170507    762.43114  0.021017508   0.02063045            6 
 3024000   0.76812207   -7.6267903    763.85003  0.021049659  0.020624487            7 
 3025000   0.76899488   -7.6039901    764.75368  0.021067594  0.020618531            3 
 3026000   0.76238358   -7.6049294    764.97821  0.021066816  0.020612589            4 
 3027000   0.77057502   -7.6155474    765.52596  0.021074936  0.020606646           12 
 3028000   0.75948184   -7.6249257    763.06516  0.021000252  0.020600714            6 
 3029000   0.78943741   -7.6172963    763.83098  0.021014388  0.020594762            4 
 3030000   0.76051121   -7.5947897    766.83003  0.021089935  0.020588828            4 
 3031000   0.76728779   -7.6421899    765.72443   0.02105258  0.020582936            6 
 3032000   0.76627836   -7.5882744    766.87969  0.021077388  0.020577024            3 
 3033000   0.77529664    -7.617173    766.03703  0.021047286  0.020571129            5 
 3034000   0.76815017   -7.6450071    763.64046  0.020974524  0.020565168            5 
 3035000   0.73711266   -7.6103197    763.93853  0.020975797  0.020559222            4 
 3036000    0.7788293   -7.6294286    765.22565  0.021004217  0.020553304            3 
 3037000   0.76566487   -7.6310144    764.88966  0.020988082  0.020547363            2 
 3038000   0.77445716   -7.6329786    765.21818  0.020990185  0.020541441            4 
 3039000   0.77072552   -7.6454023     764.7696  0.020970977  0.020535512            6 
 3040000   0.76837939   -7.6190951    765.96811  0.020996933  0.020529588            3 
 3041000   0.75843522   -7.6322013    765.70924  0.020982934  0.020523674            2 
 3042000   0.73775278   -7.5954894    766.08393  0.020986301  0.020517749            2 
 3043000   0.76987543   -7.6276092    765.26051  0.020956855  0.020511834            4 
 3044000   0.77202967   -7.6360507    765.98504  0.020969805  0.020505951            5 
 3045000   0.77668999   -7.6371051    765.52696  0.020950382  0.020500073            7 
 3046000   0.75956246   -7.6120812     766.4761  0.020969471  0.020494167            3 
 3047000   0.76659532   -7.6418225    766.02008  0.020950117  0.020488285            7 
 3048000    0.7510957   -7.6515975    764.83314  0.020910792  0.020482399            5 
 3049000   0.75719601   -7.6146467    767.39199  0.020973871  0.020476524            2 
 3050000   0.77551724     -7.63936    764.90994  0.020899179  0.020470656            2 
 3051000   0.75388061   -7.6197025     766.2646  0.020929329  0.020464778            2 
 3052000   0.74738999   -7.6108548    767.21048  0.020948298  0.020458894            5 
 3053000   0.73768845   -7.6025143    766.61905  0.020925293  0.020453023            2 
 3054000   0.75654158   -7.6210408    766.20231   0.02090707  0.020447148            3 
 3055000   0.75566353   -7.6042037    767.08858  0.020924402  0.020441266            3 
 3056000   0.74749978   -7.6185096    766.28243  0.020895573  0.020435412            9 
 3057000   0.75371089   -7.6380762    766.29273  0.020889018  0.020429549            5 
 3058000    0.7655749   -7.6185079    765.54526  0.020861818  0.020423683            1 
 3059000   0.77166449   -7.5966198    768.88157  0.020945886  0.020417835            5 
 3060000   0.77120771   -7.6334606    766.12103  0.020863862  0.020411984            6 
 3061000   0.77131956   -7.6305388    768.77384  0.020929267   0.02040612            4 
 3062000   0.75336334   -7.6084468    767.04068  0.020875264  0.020400264            1 
 3063000   0.76148412   -7.6147595    767.57734  0.020883049  0.020394358            3 
 3064000   0.76950439   -7.6213322    766.01805  0.020833824  0.020388469            5 
 3065000   0.76537623   -7.6159775    766.70856  0.020845801  0.020382582            6 
 3066000    0.7558781   -7.6207675    767.49168  0.020860287  0.020376706            7 
 3067000   0.78622552   -7.6045686    767.40425   0.02085111  0.020370856            3 
 3068000   0.75371077   -7.5934233    768.69019  0.020879243   0.02036502            6 
 3069000   0.76765504   -7.6230113    766.62489   0.02081636  0.020359154            6 
 3070000    0.7532922   -7.6388081    769.38943  0.020884621  0.020353286            4 
 3071000    0.7625581   -7.6437718     765.8657  0.020782202  0.020347417            3 
 3072000   0.75729253   -7.6404565      765.757  0.020772488  0.020341544            3 
 3073000   0.76555956   -7.6378223     765.7242  0.020764839    0.0203357            4 
 3074000    0.7521667   -7.6161277     766.7505  0.020785906   0.02032985            4 
 3075000   0.77071932   -7.6272767    767.11409     0.020789  0.020323995            3 
 3076000   0.75029749    -7.601904    766.73494   0.02077197  0.020318142            5 
 3077000   0.76499248   -7.6331601    765.27393  0.020725651  0.020312279            2 
 3078000   0.76274657   -7.6240198    765.98506   0.02073817    0.0203064            3 
 3079000   0.76700689   -7.6480602    766.38158  0.020742167  0.020300503            5 
 3080000   0.76085537   -7.6251133    767.15985   0.02075649  0.020294631            5 
 3081000   0.75742873   -7.6177815    767.55808  0.020760524   0.02028873            3 
 3082000   0.75716465      -7.6181    766.79983  0.020733286  0.020282848            6 
 3083000   0.76760032   -7.6207218     769.9557  0.020811863  0.020276997            3 
 3084000   0.75791644   -7.6258813    767.08893  0.020727652  0.020271114            9 
 3085000   0.75946532   -7.6142044    765.52804  0.020678769  0.020265223            6 
 3086000   0.76927729   -7.6256656    767.08887  0.020714217  0.020259329           16 
 3087000   0.75730798   -7.6351061    767.48831  0.020718289  0.020253441            3 
 3088000   0.75636289   -7.6175897    767.15834  0.020702676  0.020247549            3 
 3089000   0.75050598   -7.6201367    767.63427  0.020708813   0.02024169            3 
 3090000   0.74608135   -7.6317394    767.08179  0.020687211  0.020235843            2 
 3091000   0.74530243   -7.6473198    766.74117  0.020671335  0.020229991            9 
 3092000   0.75384699   -7.6338883    768.29237  0.020706457  0.020224128            2 
 3093000   0.76766922   -7.6551864    767.70016  0.020683806  0.020218276            5 
 3094000   0.76252885   -7.6269449    768.21172    0.0206909  0.020212427            4 
 3095000   0.76356833   -7.6430604    768.97566  0.020704784   0.02020659            3 
 3096000   0.75470393    -7.620186     766.3147  0.020626472  0.020200715            7 
 3097000   0.75513382   -7.6243675    768.86181  0.020688349  0.020194831            3 
 3098000   0.75616503   -7.6456138    767.64996  0.020649074  0.020188958            7 
 3099000   0.75061217   -7.6328631    767.24505  0.020631522   0.02018306            2 
 3100000   0.77102777    -7.685296    769.20914  0.020677665  0.020177177            5 
 3101000    0.7581584   -7.6445362    768.97194  0.020664623   0.02017127            5 
 3102000   0.75749977   -7.6309779    767.44523  0.020616947  0.020165415            4 
 3103000   0.74585906   -7.6510158    767.16398   0.02060275  0.020159544            3 
 3104000   0.75990109   -7.6428044    768.70205  0.020637405  0.020153672            3 
 3105000   0.76214514   -7.6362822    767.18581  0.020590065   0.02014779            5 
 3106000   0.75439314   -7.6463855    765.43362  0.020536425  0.020141929            3 
 3107000    0.7415308   -7.6645512    767.86884   0.02059513  0.020136057            5 
 3108000   0.75088084   -7.6479564    766.71115  0.020557463  0.020130186            5 
 3109000   0.74439972   -7.6659173    769.30852  0.020620471  0.020124326            3 
 3110000   0.76713236   -7.6555919    768.17847   0.02058356  0.020118473           11 
 3111000   0.76436738   -7.6431698    768.27468  0.020579521  0.020112595            9 
 3112000   0.75299985   -7.6281442    768.27316  0.020572867  0.020106754            7 
 3113000   0.75061683    -7.662456    767.54048  0.020546645   0.02010088            3 
 3114000   0.74255096   -7.6777042     766.9307  0.020523729  0.020094997            3 
 3115000   0.76330847   -7.6838973    769.32383  0.020581162  0.020089121            5 
 3116000   0.73442759   -7.6505039    768.79033  0.020560289  0.020083243            3 
 3117000   0.75113123   -7.6431788     769.0466  0.020560544  0.020077351            3 
 3118000   0.75855368    -7.654571    766.85172  0.020495289  0.020071466            4 
 3119000   0.74739223   -7.6485917    766.36416  0.020475691  0.020065611            4 
 3120000   0.74172415   -7.6390176    769.13694  0.020543187  0.020059751            3 
 3121000   0.74662511   -7.6573083    767.79206  0.020500696  0.020053872            2 
 3122000    0.7624465    -7.647748    768.60787  0.020515905   0.02004801            6 
 3123000   0.72902522   -7.6692824    767.97611  0.020492478  0.020042156            4 
 3124000    0.7577323   -7.6318286    767.51831  0.020473707  0.020036328            3 
 3125000   0.75355211   -7.6152851    770.53278  0.020547541  0.020030512            3 
 3126000   0.73981646   -7.6155678    769.87215  0.020523356  0.020024671            3 
 3127000   0.75406302   -7.6643929    769.89628  0.020517436  0.020018847            3 
 3128000   0.75725279   -7.6359013    768.34014   0.02046942  0.020013039            6 
 3129000   0.76669206   -7.6244263    770.00969  0.020507342  0.020007233            2 
 3130000   0.75352194   -7.6231729    767.49284  0.020433782  0.020001425            4 
 3131000   0.74287599   -7.6265551    769.88423  0.020490904  0.019995615            3 
 3132000   0.77344428   -7.6528194    769.66573  0.020478548  0.019989817            9 
 3133000   0.75800812   -7.6471651     769.7367  0.020473899  0.019983977            7 
 3134000   0.73728344   -7.6656228    769.39899  0.020458386   0.01997812            5 
 3135000   0.74272557   -7.6485302    769.84605  0.020463744  0.019972276            5 
 3136000   0.74450329   -7.6444192    770.42477  0.020472597  0.019966472            3 
 3137000   0.75712974    -7.679214    768.14012   0.02040538  0.019960644            3 
 3138000   0.76265539   -7.6407534     769.9927  0.020448075  0.019954819            3 
 3139000   0.74628257   -7.6544557    771.71233  0.020487213  0.019948995            5 
 3140000   0.74253941   -7.6263758    770.33161  0.020444045  0.019943193            3 
 3141000    0.7602864   -7.6509873    770.13443  0.020432305  0.019937361            4 
 3142000   0.75409444   -7.6852765    769.56944  0.020410817  0.019931525            3 
 3143000   0.74879314   -7.6821137    768.24312  0.020369157  0.019925687            3 
 3144000    0.7377586   -7.6365614    770.33408    0.0204181  0.019919868            3 
 3145000   0.73996642   -7.6301573    770.05088  0.020404104  0.019914096            6 
 3146000   0.76155195   -7.6465453     770.4989  0.020409486  0.019908301            4 
 3147000   0.75715079   -7.6472945    772.31223  0.020451018  0.019902501            3 
 3148000   0.73730462   -7.6420262    770.92057  0.020407681  0.019896685            4 
 3149000   0.75934839   -7.6397609    770.80558  0.020398158  0.019890875            5 
 3150000   0.75456064   -7.6679301    772.35721   0.02043273  0.019885075            6 
 3151000   0.75189382   -7.6361344    771.77959   0.02041097  0.019879268            2 
 3152000    0.7511325   -7.6702184    770.97267  0.020383161  0.019873461            3 
 3153000   0.74172538   -7.6645341    769.04796  0.020325826   0.01986766            2 
 3154000   0.76588274   -7.6504199    770.82013  0.020366205  0.019861856            2 
 3155000   0.73534761   -7.6824636    770.21914  0.020343876  0.019856061            4 
 3156000    0.7512007   -7.6863556    769.27227  0.020312428  0.019850243            2 
 3157000   0.75074789   -7.6765144    771.09724  0.020354166  0.019844413            4 
 3158000    0.7353922   -7.6644891    770.59584   0.02033449  0.019838597            7 
 3159000    0.7360165   -7.6899032    770.99399  0.020338556  0.019832776            6 
 3160000   0.73880686   -7.6825927    770.00083  0.020305929  0.019826968            7 
 3161000   0.76338298   -7.6321745    772.38839  0.020362448  0.019821173            6 
 3162000   0.75083157   -7.6624048     771.4805  0.020332082  0.019815387            8 
 3163000   0.73781387   -7.6356763    771.18241    0.0203178  0.019809629            3 
 3164000   0.74730639   -7.6546769    770.59032  0.020295784  0.019803893            8 
 3165000   0.74168119   -7.6578787    771.47816  0.020312748  0.019798131            6 
 3166000   0.72925532    -7.634604    773.00136  0.020346425  0.019792381            2 
 3167000   0.74612962   -7.6852196    771.74643  0.020306979  0.019786626            9 
 3168000   0.76358935   -7.6765189    771.12521  0.020284228  0.019780837            6 
 3169000   0.74202073    -7.664228    769.06773  0.020223723  0.019775046            4 
 3170000   0.73202518   -7.6559782    769.21472  0.020221207  0.019769261            7 
 3171000   0.75514821   -7.6745394    770.33638  0.020244307  0.019763489           11 
 3172000   0.73664734   -7.6669195    772.49706  0.020294689  0.019757729            4 
 3173000   0.74421101   -7.6715529    772.43183   0.02028658  0.019751961            6 
 3174000   0.72590315   -7.6795926    771.80195  0.020263651  0.019746186            3 
 3175000   0.74750421   -7.6885237    771.68004  0.020254069  0.019740406            5 
 3176000   0.74448397   -7.6550027    771.12475  0.020233122  0.019734625            3 
 3177000   0.73942513   -7.6679152    771.18788  0.020228409   0.01972885            6 
 3178000    0.7436382   -7.6781837    771.85649  0.020239576   0.01972305            4 
 3179000   0.73988581   -7.6859242    769.83865  0.020180315  0.019717284           11 
 3180000   0.74929447   -7.7093271    770.07346  0.020180122  0.019711493           27 
 3181000   0.73915996   -7.6608327    771.72995  0.020217174  0.019705718            7 
 3182000   0.75320423   -7.6777703    771.05774  0.020193216  0.019699979           14 
 3183000   0.75266332   -7.6495509    772.95421  0.020236522  0.019694262            6 
 3184000   0.73389506   -7.6753004    771.85994  0.020201527  0.019688562           10 
 3185000   0.74778381   -7.6638094    772.08844  0.020201163  0.019682865            4 
 3186000   0.75181831   -7.6534649    772.55475  0.020207019  0.019677162            6 
 3187000   0.74852381   -7.6770669    773.57288    0.0202273  0.019671459            5 
 3188000   0.75507729    -7.658733    771.88472  0.020176828  0.019665754            5 
 3189000   0.74938648   -7.6684943    773.98853  0.020225476  0.019660051            3 
 3190000   0.72667886    -7.697422    771.74724  0.020160586   0.01965432            6 
 3191000   0.73931621   -7.6673898    773.08117  0.020189104  0.019648579            6 
 3192000   0.74959561   -7.6672924    771.33024  0.020137068   0.01964286            4 
 3193000   0.73398895   -7.6548959    772.72025  0.020167039  0.019637148            3 
 3194000   0.74145923   -7.6674313    772.62461  0.020158229  0.019631445            6 
 3195000    0.7419395   -7.6819458    772.75879   0.02015542  0.019625743            8 
 3196000   0.73177898   -7.6804901    772.45278  0.020141134   0.01962002            4 
 3197000   0.74954517   -7.6439021    773.72656  0.020168037  0.019614307            3 
 3198000   0.75287762   -7.6586557    773.13216  0.020146241  0.019608588            3 
 3199000   0.75197317    -7.688239    771.35766  0.020093718   0.01960286            5 
 3200000   0.74984407   -7.6989592    771.01998  0.020078645  0.019597139            4 
 3201000    0.7419471   -7.7107433    773.08608  0.020126161  0.019591406            5 
 3202000    0.7546102   -7.6762812    772.53102   0.02010543  0.019585688            4 
 3203000   0.73406929   -7.6874901    772.76009  0.020105112  0.019579985            3 
 3204000   0.73140204   -7.6885192    773.22086  0.020110821  0.019574296            2 
 3205000   0.73301098   -7.6980002    773.17425  0.020103335  0.019568581            4 
 3206000   0.74523186   -7.6792134    772.35098  0.020075665  0.019562859            8 
 3207000   0.72955672   -7.6902014    772.66287  0.020077509   0.01955715            6 
 3208000   0.73856151   -7.6845335    773.00107  0.020080036  0.019551437            9 
 3209000   0.75605103   -7.7074377    773.13881  0.020077356  0.019545766            5 
 3210000   0.75848478   -7.7092411    772.12652  0.020044821  0.019540077            5 
 3211000   0.72970167   -7.6901721    772.96249  0.020060274  0.019534377            5 
 3212000   0.74171126   -7.6491378    774.39177  0.020091111  0.019528699            3 
 3213000   0.74033281   -7.6867715     773.7009  0.020066939  0.019523044            2 
 3214000   0.75875927   -7.7056805    772.20255  0.020021846  0.019517346            3 
 3215000   0.73472046   -7.6928873    771.72019  0.020003115  0.019511649            3 
 3216000   0.74079575   -7.7206403     772.9444  0.020028617  0.019505923            4 
 3217000   0.73600118   -7.7027712    773.43511  0.020035103  0.019500224            7 
 3218000   0.74230195    -7.694777    772.54446  0.020005813  0.019494534            6 
 3219000    0.7375512   -7.7067677    772.77753  0.020005631  0.019488843           10 
 3220000   0.73724418   -7.7154533    772.49177  0.019992023  0.019483146            6 
 3221000   0.72624932   -7.7224219    774.02392  0.020025456  0.019477441           15 
 3222000   0.72392743     -7.68061    771.56127  0.019955547  0.019471723            6 
 3223000   0.74599256   -7.6855427    773.03018  0.019987335  0.019466015            4 
 3224000   0.74122935   -7.6766145    773.87612  0.020003001  0.019460313            4 
 3225000   0.74916057   -7.7001432     773.8655  0.019996525  0.019454603            7 
 3226000   0.73383832   -7.6835987    772.84085  0.019963857  0.019448904            4 
 3227000   0.73116883   -7.7114077    773.95295   0.01998639  0.019443182            3 
 3228000    0.7358813   -7.7117747    772.47335  0.019942001  0.019437455            3 
 3229000   0.72370244   -7.6762721     773.3676  0.019958904  0.019431709            2 
 3230000   0.73302419   -7.7083849    772.97129    0.0199425  0.019425974            6 
 3231000   0.74724549   -7.6758841    773.95355  0.019961662  0.019420267            3 
 3232000    0.7264174   -7.6689486    773.69902  0.019948923  0.019414585            6 
 3233000   0.72062649   -7.6925666    774.22334  0.019956267  0.019408882            4 
 3234000   0.72058022   -7.7117238    774.99093  0.019969875  0.019403204            5 
 3235000   0.74517038   -7.6875226    772.96916  0.019911622  0.019397536            3 
 3236000   0.74702563   -7.6807437    774.29985  0.019939737  0.019391869            6 
 3237000   0.74721054   -7.6804719     773.6035   0.01991565  0.019386214            5 
 3238000   0.73607578   -7.6969062    773.86299  0.019916178   0.01938055            7 
 3239000   0.73549819   -7.7046463     774.4475  0.019925067  0.019374882            6 
 3240000   0.72631077   -7.6973402     771.0547  0.019831654  0.019369181            2 
 3241000   0.70832028   -7.6979943    773.85396   0.01989751  0.019363465            2 
 3242000   0.73478715     -7.69178    773.67114  0.019886673  0.019357776            5 
 3243000   0.73166385   -7.6662859    773.86038  0.019885404  0.019352069            3 
 3244000   0.71876801   -7.6946198    774.62484  0.019898912  0.019346372            4 
 3245000   0.73058456   -7.7069759    773.10723  0.019853807  0.019340696            8 
 3246000   0.72542348   -7.7061337    773.51556  0.019858173  0.019335001            5 
 3247000    0.7344188   -7.6853921    774.41488  0.019875138  0.019329284            2 
 3248000   0.75385518   -7.6764081    773.62477  0.019848747  0.019323579            5 
 3249000   0.73099135   -7.6949662    772.28709  0.019808328  0.019317879            3 
 3250000   0.73037392   -7.6924139    775.11871  0.019874839  0.019312162            9 
 3251000   0.72458939   -7.6711221    773.99252  0.019839857  0.019306451            3 
 3252000   0.72433978   -7.7268123    771.86759  0.019779305  0.019300746            2 
 3253000   0.73865779   -7.7110792    772.41625   0.01978728  0.019295044            4 
 3254000   0.72860095   -7.7003863    773.50587  0.019809103  0.019289321            5 
 3255000   0.71872757   -7.7118435    772.56534  0.019778939  0.019283595            6 
 3256000   0.72804286    -7.700797    773.06086  0.019785546  0.019277877            4 
 3257000   0.71119291   -7.7096436    775.13691  0.019832589  0.019272185            5 
 3258000   0.72840052   -7.7060623    773.37695  0.019781485  0.019266481            8 
 3259000   0.72436574    -7.697667    773.17296    0.0197702  0.019260779            5 
 3260000    0.7236699    -7.712625    774.39831  0.019795458  0.019255087            4 
 3261000   0.72624271   -7.7202954     773.5843  0.019768586  0.019249376           10 
 3262000   0.73585686   -7.7094042    773.68182  0.019765017  0.019243678            7 
 3263000   0.72689638   -7.6925149    774.84222  0.019788595   0.01923801            3 
 3264000     0.741749   -7.7102245    774.91098  0.019784288  0.019232307            6 
 3265000   0.73699849   -7.7131348    772.96649  0.019728598  0.019226626            4 
 3266000   0.72916789   -7.7079867    775.27381   0.01978143  0.019220944            4 
 3267000   0.73230687   -7.6935079    776.62067   0.01980973  0.019215288            2 
 3268000    0.7260914    -7.736711    773.58826  0.019726343  0.019209611            2 
 3269000   0.73801703   -7.7240493    773.70256  0.019723222  0.019203916            2 
 3270000   0.71575943   -7.7008063    772.95333  0.019698097  0.019198222            2 
 3271000   0.73019669    -7.723533    774.76265   0.01973817  0.019192528            6 
 3272000   0.72659564   -7.6851322    774.41759  0.019723349  0.019186838            5 
 3273000   0.74205377    -7.722992    774.21082  0.019712059  0.019181154            4 
 3274000   0.72289331   -7.6960695     775.4414   0.01973736  0.019175491            5 
 3275000   0.73593748   -7.7125613     772.8458  0.019665287  0.019169796            3 
 3276000   0.71584324    -7.709904    773.89924  0.019686082  0.019164117            3 
 3277000   0.71635288   -7.7082576    773.50164  0.019669963  0.019158437            6 
 3278000   0.72378724    -7.688849    774.97005  0.019701293  0.019152772            3 
 3279000   0.72066681   -7.7105354    773.71168  0.019663304  0.019147098            3 
 3280000   0.71157383   -7.7111809    774.61352  0.019680221  0.019141406            2 
 3281000   0.73153438   -7.7375824    771.13928  0.019585982  0.019135712            3 
 3282000   0.73174979   -7.7164264    774.12525  0.019655831  0.019130016            6 
 3283000   0.74407792   -7.7109647    774.37734  0.019656243  0.019124361            3 
 3284000   0.72408039   -7.6843275    776.18497  0.019696127  0.019118706            3 
 3285000   0.73709509   -7.6806838    773.68318  0.019626666  0.019113051            4 
 3286000   0.73455577   -7.7201633    774.78957  0.019648751  0.019107392            3 
 3287000   0.73640035   -7.7232316      774.986  0.019647754  0.019101739            2 
 3288000   0.72044287    -7.705123    774.95933  0.019641102  0.019096095            2 
 3289000   0.71190278   -7.7080609    774.27659  0.019617832  0.019090438            4 
 3290000   0.71557524   -7.6854934    775.82895  0.019651189  0.019084799            3 
 3291000   0.72174643   -7.6960614    773.36088  0.019582722  0.019079151            4 
 3292000   0.73238355   -7.6804619      773.821  0.019588422   0.01907352            3 
 3293000   0.72765603   -7.7067727    774.57362  0.019601519  0.019067849            4 
 3294000   0.71618444   -7.7087332    775.98649  0.019631312  0.019062204            6 
 3295000   0.74092337   -7.6919997    776.08614  0.019627874   0.01905656            5 
 3296000   0.71985986   -7.7246001    774.74119  0.019587914  0.019050904            5 
 3297000   0.72192833   -7.7207818    776.91011  0.019636794  0.019045248            4 
 3298000   0.72356333   -7.7003587    775.46845  0.019594412  0.019039609            4 
 3299000     0.730661   -7.7461649    774.09838  0.019553864  0.019033958            4 
 3300000   0.73290617   -7.7277045    773.99241  0.019545263  0.019028309            9 
 3301000    0.7335268   -7.7121238    776.67211  0.019606991  0.019022658            5 
 3302000   0.72567749   -7.7221832    775.06548  0.019560506     0.019017            7 
 3303000   0.73397392   -7.7108687    776.08724  0.019580362  0.019011393            5 
 3304000    0.7345731   -7.6890344    774.88698  0.019544163  0.019005774            4 
 3305000   0.71698883    -7.718808    774.51535  0.019528879  0.019000152            3 
 3306000   0.71714134   -7.7312454    776.30355  0.019568047  0.018994517            8 
 3307000   0.70402804   -7.7430894    777.88053  0.019601868  0.018988884           10 
 3308000   0.73637202   -7.7225301    776.44684  0.019559826  0.018983238            9 
 3309000   0.73151392   -7.6990846    776.97674  0.019567259  0.018977615            6 
 3310000   0.72808433   -7.7123609    775.89923   0.01953422  0.018972003            4 
 3311000   0.72857569   -7.6843574    776.99601  0.019555925  0.018966381            7 
 3312000    0.7258295   -7.7000692    775.26509  0.019506469  0.018960737            6 
 3313000   0.73412043     -7.71503    776.76564  0.019538325  0.018955126            4 
 3314000   0.72669356   -7.6845143    774.97079  0.019487296  0.018949505            4 
 3315000   0.73332652   -7.7110862    776.13144  0.019510594  0.018943888            4 
 3316000   0.72982932   -7.7370693    777.65635  0.019543032  0.018938273            3 
 3317000   0.70143678   -7.7008952    776.18224  0.019500107  0.018932663            5 
 3318000   0.71227643   -7.7285567    777.30065  0.019522319  0.018927053            3 
 3319000   0.70994674   -7.7004832    775.84982   0.01948001   0.01892146            4 
 3320000   0.72925651     -7.72421    776.66758  0.019494668  0.018915866            5 
 3321000   0.72048352   -7.7271145    778.12291  0.019525317  0.018910265            3 
 3322000   0.71692783   -7.7274477    778.25804  0.019522829  0.018904698            5 
 3323000   0.72291489   -7.7114587    778.16032  0.019514503   0.01889914            6 
 3324000   0.71220291   -7.7005176    777.48381  0.019491672  0.018893597            2 
 3325000   0.72120855   -7.6954477    776.52303   0.01946173  0.018888027            6 
 3326000   0.72180456   -7.6971867    777.73858  0.019486335  0.018882456            5 
 3327000   0.72150298   -7.6969388    777.58757  0.019476695  0.018876905            5 
 3328000   0.72527172   -7.7238568    778.59317  0.019496023  0.018871343            8 
 3329000   0.71736417   -7.6876686    778.65381  0.019491685  0.018865777            5 
 3330000   0.71493241   -7.7199124    776.85306  0.019440767  0.018860196            5 
 3331000   0.73072399   -7.7187927    775.94216  0.019412143  0.018854611            2 
 3332000   0.72814096   -7.6990047    778.29113  0.019465064  0.018849042            3 
 3333000   0.71209613   -7.7135865    776.81352   0.01942228  0.018843481            1 
 3334000   0.71468166   -7.7225341    776.59689   0.01941104  0.018837902            3 
 3335000   0.73284307   -7.7303776    778.60292  0.019455345  0.018832317            6 
 3336000   0.70610056   -7.7274951    776.82396  0.019405075  0.018826739            4 
 3337000   0.72131475   -7.7332809    777.44988  0.019414891  0.018821148            5 
 3338000   0.72035268   -7.7197308    775.67918  0.019364869  0.018815575            5 
 3339000   0.71867232    -7.735316     776.6453  0.019383181  0.018809993            5 
 3340000   0.72325913   -7.7164928    777.53287  0.019399523   0.01880441            4 
 3341000   0.71788128   -7.7348696    775.48577  0.019342656  0.018798818            5 
 3342000   0.71050913   -7.7125142    776.96501  0.019373754  0.018793221            6 
 3343000   0.72494837   -7.7495214    774.59149  0.019308792   0.01878761            6 
 3344000   0.70891478   -7.7636353    776.23979  0.019344094  0.018782002            4 
 3345000   0.71038254   -7.7232747    776.71399  0.019350124  0.018776388            9 
 3346000   0.72427777    -7.718665    777.89141  0.019373665  0.018770802            4 
 3347000   0.73324042   -7.7572873    777.82624  0.019366254  0.018765233            5 
 3348000   0.73618763   -7.7220329    777.72722  0.019358005  0.018759664            5 
 3349000   0.70088496    -7.739721    777.64353  0.019350143  0.018754105            8 
 3350000   0.72508124   -7.7367126    777.39151  0.019338097  0.018748534            4 
 3351000   0.71244248   -7.7377348    778.33263   0.01935573  0.018742981            8 
 3352000   0.71377503   -7.7427573    777.41215  0.019327072  0.018737404            5 
 3353000   0.71764635   -7.7307858    779.55105  0.019374467  0.018731864            3 
 3354000   0.71092301   -7.7229821     779.1472  0.019358656   0.01872635            4 
 3355000   0.71088884    -7.719147     777.1655  0.019303664  0.018720836            5 
 3356000   0.71201923   -7.7226437    778.78716  0.019338179  0.018715286            3 
 3357000   0.71962185   -7.7090107    778.20286  0.019317914  0.018709742            5 
 3358000   0.71568501   -7.7640577    777.42349   0.01929282  0.018704216           11 
 3359000    0.7099148   -7.7470961    778.08681  0.019303533  0.018698666            4 
 3360000    0.7190418   -7.7546677    777.98006   0.01929514  0.018693114            3 
 3361000   0.71430095   -7.7907769    776.31797  0.019248189  0.018687544            4 
 3362000    0.7180167    -7.751615     777.8636  0.019280775  0.018681968            3 
 3363000     0.709926   -7.7355669    778.93289  0.019301539  0.018676415            5 
 3364000   0.70766248    -7.743948     777.3177  0.019255789  0.018670864            6 
 3365000   0.72295699   -7.7322164    777.76934  0.019261252   0.01866531            5 
 3366000   0.70785459   -7.7431589     775.9477   0.01921043  0.018659758            4 
 3367000   0.71372695   -7.7631122    777.32043    0.0192387  0.018654204            3 
 3368000   0.72425976   -7.7341985    778.89176  0.019271867  0.018648663            5 
 3369000   0.72124965   -7.7072458    778.61938  0.019259409  0.018643118            8 
 3370000   0.71254426   -7.7081514    778.83749  0.019259087  0.018637593            2 
 3371000   0.71623014     -7.75058    779.19296  0.019262162  0.018632073            4 
 3372000   0.71502019   -7.7198156    778.54034  0.019240321  0.018626572            2 
 3373000   0.70914956   -7.7330591    777.81306  0.019216648  0.018621064            4 
 3374000   0.71225358    -7.740474    779.75484  0.019258912  0.018615569            5 
 3375000   0.71971067   -7.7269617    779.73473  0.019252709   0.01861007            3 
 3376000   0.70957643   -7.7747885    779.46464   0.01924034  0.018604575            3 
 3377000   0.71213232    -7.725436    779.46538   0.01923466  0.018599086            4 
 3378000   0.71462669    -7.760425    778.18699  0.019197429  0.018593576           14 
 3379000   0.71520291   -7.7404535    780.46806  0.019248004  0.018588086           13 
 3380000   0.71757736   -7.7397843    779.20781  0.019211238  0.018582588            4 
 3381000   0.71512619   -7.7130469    779.25571  0.019206736  0.018577086           10 
 3382000   0.71349367   -7.7647155    777.18665  0.019150075  0.018571574           11 
 3383000   0.71529906   -7.7560994    778.47289  0.019176098   0.01856605            3 
 3384000   0.70483369   -7.7584944    777.35125   0.01914281  0.018560518           11 
 3385000   0.68773669   -7.7460968    779.51355  0.019190388  0.018554978            5 
 3386000   0.70606761   -7.7343573    778.47223  0.019159092  0.018549462            2 
 3387000   0.69660543   -7.7609749    775.98538  0.019092249  0.018543945            7 
 3388000   0.70975553    -7.766079    777.63439  0.019127174  0.018538421            9 
 3389000   0.70727505   -7.7705741    778.04219  0.019131558  0.018532897            3 
 3390000   0.71060003   -7.7554224    778.55453  0.019138509  0.018527378            2 
 3391000   0.72916473   -7.7608121    779.40266  0.019153707  0.018521872            6 
 3392000   0.71055094   -7.7397725    779.22699  0.019143745  0.018516399            2 
 3393000   0.69811798   -7.7446609    779.70815   0.01914992  0.018510926            4 
 3394000   0.71696138   -7.7752535    777.75936  0.019096429  0.018505405            3 
 3395000   0.71217668   -7.7741181    776.67555  0.019064201  0.018499875            7 
 3396000   0.70577692   -7.7722475      777.678  0.019083186  0.018494336            4 
 3397000   0.70595021   -7.7793828    777.53834  0.019074142  0.018488785            7 
 3398000   0.69402419   -7.7770218    776.76215  0.019049494  0.018483213            5 
 3399000   0.70857117    -7.756238     778.1606  0.019078175  0.018477647            4 
 3400000   0.69396403   -7.7532442    776.34661  0.019028103  0.018472108            5 
 3401000   0.73993657   -7.7724369     779.0215   0.01908805   0.01846657            7 
 3402000   0.70646874   -7.7326665    779.39537  0.019091597  0.018461059            3 
 3403000   0.72398881   -7.7753764    779.15734  0.019080158  0.018455549            6 
 3404000   0.69994872   -7.7583403    778.23458  0.019051963  0.018450018            5 
 3405000   0.72022162   -7.7650351    777.20417   0.01902115  0.018444495            2 
 3406000   0.70716855   -7.7737446    778.38599   0.01904448  0.018438947            4 
 3407000   0.71845905   -7.7540123    776.92241  0.019003092  0.018433429            5 
 3408000   0.69888613   -7.7824645    778.76213  0.019042501  0.018427922            4 
 3409000   0.71632799   -7.7593738    779.28913  0.019049798  0.018422421            5 
 3410000   0.67792064    -7.755629    780.79145  0.019080925  0.018416924            3 
 3411000   0.70466509   -7.7457245    779.26322  0.019037995  0.018411438            5 
 3412000   0.72088598   -7.7580954    776.82323  0.018972822  0.018405945            7 
 3413000   0.70072242   -7.7781627    777.72699   0.01898933  0.018400426            5 
 3414000   0.70742067   -7.7657462    777.71714  0.018983527  0.018394914            8 
 3415000   0.71144239   -7.7601588    780.36062  0.019042475  0.018389403            3 
 3416000   0.71930231   -7.7602029    778.37258  0.018988402  0.018383912            4 
 3417000   0.71857141   -7.7393237    778.37141  0.018982817  0.018378413            7 
 3418000     0.698663   -7.7478692    779.92612  0.019015168  0.018372911            8 
 3419000   0.69735922   -7.7358377      779.742  0.019005119  0.018367425           13 
 3420000   0.70028658    -7.755929     778.4388  0.018967807   0.01836194            2 
 3421000   0.71448222   -7.7481236    781.00785  0.019024843  0.018356453            3 
 3422000   0.71346527   -7.7362061    779.62253  0.018985548  0.018350962            5 
 3423000   0.70513919   -7.7441574    778.06555  0.018942096  0.018345471            5 
 3424000   0.69713284   -7.7517956    777.78617  0.018929765  0.018339974            2 
 3425000   0.70481017   -7.7615509     778.9042   0.01895144  0.018334467            5 
 3426000   0.70730831   -7.7492478    780.28966  0.018979608  0.018328966            3 
 3427000   0.70370832   -7.7578864     779.0809  0.018944677  0.018323467            9 
 3428000   0.71025516   -7.7596858    780.26104  0.018967839  0.018317984            4 
 3429000   0.71004613   -7.7480874    779.78191  0.018950664  0.018312493            3 
 3430000   0.70542719    -7.742421    779.20804  0.018931196  0.018307016            4 
 3431000   0.69009388   -7.7610511    779.55529  0.018934113  0.018301547            2 
 3432000   0.69542441   -7.7658023    778.48754  0.018902669  0.018296056            8 
 3433000   0.70107754   -7.7548132    778.91127  0.018907449  0.018290561            4 
 3434000     0.700754   -7.7739007    779.74893  0.018922271  0.018285073            4 
 3435000    0.6930587   -7.7733438    780.92373  0.018945263   0.01827959            3 
 3436000   0.71230773   -7.7553058    779.28274   0.01889995  0.018274081            6 
 3437000   0.70520442   -7.7479174     778.5785  0.018877376  0.018268565            4 
 3438000   0.71451067   -7.7650884     777.9384   0.01885637  0.018263041            7 
 3439000    0.6906097   -7.7891789    778.31149  0.018859927  0.018257529            3 
 3440000   0.68420158   -7.7948972    778.08265  0.018848901  0.018252008            3 
 3441000   0.69691261   -7.7795645    778.26583   0.01884786   0.01824649            3 
 3442000    0.6978861   -7.7729987    780.49969  0.018896467  0.018240984            3 
 3443000   0.70603546   -7.7667013    778.83594   0.01885071  0.018235475            5 
 3444000   0.69462921    -7.814245    777.26289  0.018807174  0.018229961            4 
 3445000   0.70344865   -7.7962324    777.79148  0.018814501  0.018224448            3 
 3446000   0.70853967   -7.7748379    777.80701  0.018809417  0.018218921            3 
 3447000   0.68390491    -7.781234    776.92149  0.018782552  0.018213408            4 
 3448000   0.69030438   -7.7986506    778.23775  0.018808917  0.018207888            4 
 3449000   0.70857975   -7.7524045    779.49367  0.018833809  0.018202397            6 
 3450000    0.7058241   -7.7728996    778.67073  0.018808472  0.018196901            5 
 3451000   0.68606629   -7.7693451    780.15039  0.018838752  0.018191433            6 
 3452000   0.70497972   -7.7916142    778.48122     0.018793  0.018185935            5 
 3453000   0.69104727   -7.7533283    780.44018  0.018834834  0.018180457            2 
 3454000   0.69772578   -7.7491509    779.80943  0.018814163  0.018174978            5 
 3455000   0.68743923   -7.7928437    779.34798  0.018797588  0.018169509            6 
 3456000   0.70606477   -7.7495047    778.31024  0.018767126  0.018164022            3 
 3457000   0.70707513   -7.7788289    778.93718   0.01877681   0.01815853            4 
 3458000   0.69777827   -7.7631957    779.70749  0.018789943   0.01815303            4 
 3459000   0.69340234   -7.7648465    780.23636  0.018797253  0.018147532            5 
 3460000   0.69725608   -7.7745629    778.02172  0.018738481  0.018142031            6 
 3461000   0.71098059    -7.783754    778.38267  0.018741757  0.018136522            4 
 3462000   0.70213239   -7.7675724    777.05416  0.018704365  0.018131022            5 
 3463000   0.69889411   -7.7844245    778.18189  0.018726102  0.018125513            4 
 3464000   0.70976626   -7.7660122    778.02722  0.018716975   0.01812001            4 
 3465000   0.69508127   -7.7838426    777.03267  0.018687654  0.018114507            7 
 3466000   0.69687951   -7.7980751    777.85683  0.018702078  0.018108989            3 
 3467000   0.70512917     -7.77164     778.1186  0.018702976  0.018103469            6 
 3468000   0.69834751   -7.7697861    777.59963  0.018685112  0.018097961            2 
 3469000   0.70399682   -7.7866543    779.82573  0.018733202  0.018092443            7 
 3470000   0.69411808     -7.77903    777.74139  0.018677747  0.018086922            4 
 3471000   0.71168535   -7.8015922    777.06092  0.018656029  0.018081375            6 
 3472000   0.69484023   -7.7671148      776.748  0.018643145  0.018075853            4 
 3473000   0.69138725   -7.8216789     777.9474  0.018666556  0.018070349            8 
 3474000   0.68100444   -7.7883018    780.39483  0.018719891  0.018064849            4 
 3475000   0.67693115   -7.7905327    777.18504  0.018637531  0.018059336            9 
 3476000   0.68178339   -7.7784114    778.41228  0.018661591  0.018053818           13 
 3477000   0.68653014   -7.7656345    777.94774   0.01864509  0.018048288            8 
 3478000   0.70175627   -7.7800003    779.05472  0.018666253  0.018042767            6 
 3479000   0.69705795   -7.7755302    778.10428  0.018638121  0.018037261            5 
 3480000   0.67800797     -7.77921    779.21461  0.018659354  0.018031735            6 
 3481000   0.70995342   -7.7654673    776.56663  0.018590602  0.018026209            8 
 3482000   0.69787883   -7.7958539    776.70772   0.01858864  0.018020669            7 
 3483000   0.69366821   -7.7917476    778.60128  0.018628608  0.018015151           10 
 3484000   0.69760462   -7.8070526    777.20636  0.018589896  0.018009623            7 
 3485000   0.68318899   -7.7941512    776.00706  0.018555884  0.018004082            3 
 3486000   0.68938361    -7.780103    778.86533  0.018618888  0.017998561            5 
 3487000   0.71778767   -7.7849719    778.00611  0.018593015  0.017993058            4 
 3488000   0.70836288   -7.7928346    777.66924  0.018579636  0.017987537            3 
 3489000   0.67600102   -7.8123671    777.20057  0.018563117     0.017982            4 
 3490000   0.70612351   -7.7974347    777.70571  0.018569859  0.017976474            5 
 3491000   0.70156003   -7.7793019    776.99581  0.018547594  0.017970943            7 
 3492000   0.70188293   -7.8094847    776.45245  0.018529316  0.017965414            7 
 3493000   0.69250532   -7.8046327    778.51482  0.018573214  0.017959883            7 
 3494000    0.6857802   -7.7965978    776.26553  0.018514251   0.01795435           11 
 3495000   0.69894013   -7.8313244    776.93089  0.018524819  0.017948832            5 
 3496000   0.69182642   -7.8151371    776.58208  0.018511205  0.017943306            6 
 3497000   0.68162199   -7.8051314    776.70633  0.018508873  0.017937783            7 
 3498000   0.70094769   -7.7991338    778.20638  0.018539317   0.01793229           17 
 3499000   0.70088085   -7.8032275    777.27764    0.0185119  0.017926762            9 
 3500000   0.69887603   -7.8077239    778.27928  0.018530459  0.017921216           19 
 3501000   0.68433044   -7.8039336     777.2563  0.018500816  0.017915677            6 
 3502000   0.68730148   -7.8077352     777.1405  0.018492778  0.017910139            9 
 3503000   0.68108332   -7.8064067     775.2898  0.018443472  0.017904584           12 
 3504000   0.69452789   -7.8081863     777.4381    0.0184893  0.017899036            9 
 3505000   0.69927688   -7.8190882    776.65144  0.018465322   0.01789349           11 
 3506000   0.67934937   -7.8123573    776.39888  0.018454052  0.017887947           11 
 3507000   0.68620323   -7.8171739    778.27578  0.018493389    0.0178824            9 
 3508000   0.68710243   -7.8174655    779.96931  0.018528347   0.01787687            5 
 3509000   0.68481527   -7.7992373    776.79883  0.018447773  0.017871329            5 
 3510000   0.71007585   -7.8347784    778.55442  0.018484198  0.017865804            8 
 3511000   0.68898164   -7.8090359    777.92434  0.018463978  0.017860293            3 
 3512000   0.68925925   -7.7775932    778.55932  0.018473788  0.017854786            7 
 3513000   0.69946008   -7.8100714    777.61354  0.018446094  0.017849297           11 
 3514000   0.69197432   -7.7994637    778.85886  0.018470377  0.017843792            9 
 3515000   0.69925968   -7.7963646    778.29432  0.018451738  0.017838282            8 
 3516000   0.67741463   -7.7942943    777.80323  0.018434851  0.017832786            6 
 3517000   0.69213303   -7.8168511    778.93048  0.018456319  0.017827313            7 
 3518000   0.68323228   -7.7978264    777.04256  0.018406352  0.017821837            6 
 3519000   0.67978891   -7.7952589    778.05406  0.018425075  0.017816356            8 
 3520000   0.70270042   -7.8104506    776.90349  0.018392602  0.017810885            5 
 3521000     0.690643   -7.7976028    779.07197    0.0184387  0.017805417            7 
 3522000   0.68988033   -7.7952287    778.41944  0.018418026  0.017799962           10 
 3523000   0.69987417   -7.7825415    777.85364  0.018399414  0.017794507            5 
 3524000   0.68875078   -7.8124212    777.05391  0.018375282  0.017789037            4 
 3525000   0.67994184   -7.7995515    778.36911  0.018401161  0.017783552            4 
 3526000   0.69592395   -7.8149713    777.59353  0.018377612  0.017778072            5 
 3527000   0.67281381   -7.8062268    776.11856  0.018337552   0.01777259            8 
 3528000   0.69878518   -7.8227994    778.55057    0.0183898  0.017767104            7 
 3529000   0.68268636   -7.7972721    778.59945  0.018385743   0.01776162            4 
 3530000   0.68919672   -7.8091714     778.1304  0.018369462  0.017756129            9 
 3531000   0.68534087   -7.8053255    778.43455  0.018371437  0.017750648            2 
 3532000   0.68063976   -7.8360059    777.11637  0.018335135  0.017745166            4 
 3533000    0.6839842   -7.8342177    777.77531  0.018345488  0.017739676            6 
 3534000   0.69429868   -7.8245125    777.96788  0.018344838  0.017734179            7 
 3535000   0.68964363   -7.8154124    777.38707  0.018325956  0.017728672           10 
 3536000   0.68351333   -7.8183662    778.18982  0.018339692  0.017723171            3 
 3537000   0.68175797   -7.8381801     777.3484  0.018314683  0.017717657            5 
 3538000   0.68629908   -7.8176317    777.72003   0.01831826  0.017712154            7 
 3539000   0.69570683   -7.8302076    776.89165  0.018293578  0.017706647            7 
 3540000   0.68282077   -7.8118747    775.01452  0.018244221  0.017701156            5 
 3541000   0.68409447   -7.8245856    776.52169  0.018274538  0.017695648            6 
 3542000   0.67961922    -7.812565     777.8624  0.018300922  0.017690142            4 
 3543000   0.66222458   -7.8161227    777.60372  0.018289672  0.017684652            3 
 3544000   0.68068763   -7.7945197    776.70085  0.018263282  0.017679155           11 
 3545000    0.6993791   -7.8076815    777.46046  0.018275986  0.017673673            2 
 3546000   0.69160583   -7.8226306    778.55881  0.018296644  0.017668192            5 
 3547000   0.67672928   -7.8264315    777.41501  0.018264613  0.017662701            2 
 3548000   0.69045344   -7.7894489    778.72168  0.018290156  0.017657229            6 
 3549000    0.6718921   -7.8199305     777.4337   0.01825476  0.017651766            4 
 3550000     0.696177   -7.8232485    778.31215  0.018270238  0.017646288            9 
 3551000   0.68471381   -7.8424664    777.52749  0.018246679  0.017640815            7 
 3552000   0.68625594   -7.8492448    777.41024  0.018238791  0.017635338            6 
 3553000    0.6855757   -7.8219668    777.32857  0.018231742  0.017629851            5 
 3554000    0.6863281   -7.8312842    776.16838  0.018199409   0.01762437            6 
 3555000   0.68802242   -7.8161377    776.77853  0.018208592  0.017618879            4 
 3556000   0.68805137   -7.8234824    777.34295  0.018216698  0.017613409            5 
 3557000   0.67044445   -7.8055682    776.31807  0.018187566  0.017607942            5 
 3558000   0.68693334   -7.8169901    777.68264  0.018214415  0.017602481            3 
 3559000   0.69821809   -7.8003128    779.12377   0.01824304  0.017597018            4 
 3560000   0.69559182   -7.8339796    777.67208  0.018203934  0.017591553            6 
 3561000   0.67164918   -7.8273341    777.63322  0.018197913  0.017586098            3 
 3562000    0.6740153   -7.8055932    778.55645  0.018214403   0.01758064            3 
 3563000   0.68073147   -7.8121064    777.07066  0.018174541  0.017575195            6 
 3564000    0.6852859   -7.8349757    777.23244  0.018173224  0.017569753            7 
 3565000   0.68306612   -7.7991131    779.57062  0.018222782  0.017564324            7 
 3566000    0.6803668   -7.8054028    778.48449   0.01819229  0.017558894            4 
 3567000   0.68322917   -7.8032942    777.02093  0.018152998  0.017553479            6 
 3568000   0.67268338   -7.7907961    778.36528  0.018179309  0.017548066            6 
 3569000   0.68304536   -7.8193152    778.40428  0.018175126  0.017542643            9 
 3570000   0.68713876    -7.828016    778.75172  0.018178145  0.017537215            4 
 3571000    0.6916587   -7.8340294    777.15375  0.018135764  0.017531782            3 
 3572000   0.68542462   -7.8176733    779.03944  0.018174679  0.017526347            2 
 3573000   0.68353409   -7.8206942    777.78922  0.018140433  0.017520913            6 
 3574000   0.68117142   -7.8208175     777.9947  0.018140149  0.017515475            7 
 3575000    0.6703459   -7.8440547    778.92209  0.018156692  0.017510049            3 
 3576000   0.68740578    -7.814194    778.60411  0.018144205  0.017504614            6 
 3577000   0.68379692   -7.8198459    779.70285   0.01816473  0.017499182            5 
 3578000    0.6945859   -7.8289002    778.70808  0.018136484  0.017493743            4 
 3579000   0.68777677   -7.8611816    779.53842   0.01815075  0.017488304            4 
 3580000   0.67343098   -7.8076843    777.93013  0.018108243  0.017482861            7 
 3581000   0.67019893   -7.8059021      778.855  0.018124709  0.017477441            5 
 3582000   0.65749491   -7.8263667    779.05472  0.018124296  0.017472019            4 
 3583000   0.68248155   -7.8070462    777.06775  0.018073024  0.017466592            4 
 3584000   0.68616441   -7.8099327    777.19943  0.018071043  0.017461172            6 
 3585000   0.68637924   -7.8625011    776.87874  0.018058548  0.017455733            6 
 3586000   0.67217477   -7.8069518     777.1244  0.018059221  0.017450285            5 
 3587000   0.65246275   -7.8105549     777.5423  0.018063895  0.017444857            8 
 3588000   0.67417009   -7.8226105    779.61322  0.018106959  0.017439436            8 
 3589000   0.67204486   -7.8277484    777.91053  0.018062379  0.017434024           10 
 3590000   0.68379587   -7.8182907    778.73252  0.018076428  0.017428598           10 
 3591000    0.6770226   -7.8271155    777.00282  0.018031254  0.017423177            5 
 3592000   0.67097931   -7.8348896    778.95349   0.01807149  0.017417761            5 
 3593000   0.65580144   -7.8270858     777.5328   0.01803351   0.01741235            8 
 3594000   0.68387662   -7.8376755    778.96494  0.018061699  0.017406943           10 
 3595000   0.67554874    -7.816305     778.3519  0.018042464  0.017401525            4 
 3596000   0.67688083   -7.8224762    779.01493  0.018052812  0.017396119            6 
 3597000   0.67322706   -7.8164173    776.98758  0.018000824  0.017390709            6 
 3598000   0.66798084   -7.8585962    777.32176  0.018003561  0.017385294            7 
 3599000   0.67140926   -7.8345282    778.42299  0.018024057  0.017379872            8 
 3600000   0.68596842   -7.8122195     779.4172  0.018042065  0.017374466            3 
 3601000   0.67071246   -7.8588992     777.4531  0.017991602   0.01736906            6 
 3602000    0.6877561   -7.8386611    779.44182  0.018032617  0.017363642           10 
 3603000   0.66290739   -7.8271305    777.95138  0.017993139  0.017358248            5 
 3604000   0.66322816   -7.8334829     777.6793  0.017981856  0.017352841           10 
 3605000    0.6721261   -7.7944255    779.32876  0.018014997  0.017347425           10 
 3606000   0.69325595   -7.8481649    777.34435  0.017964142  0.017342012           12 
 3607000   0.67464143   -7.8378614    779.61013  0.018011508  0.017336608            9 
 3608000    0.6757285   -7.8400999    778.48841  0.017980608  0.017331198           11 
 3609000   0.68173034   -7.8437392    776.60379  0.017932109  0.017325785            8 
 3610000   0.67401035   -7.8276087    777.87496  0.017956486  0.017320393            7 
 3611000   0.67430495   -7.8444637    777.15759  0.017934958  0.017314993           14 
 3612000   0.66120247    -7.830722    779.02126   0.01797299  0.017309592            8 
 3613000   0.66783494   -7.8271206    778.45848  0.017955035  0.017304193            7 
 3614000   0.67299934   -7.8597526    779.23776  0.017968035  0.017298798            5 
 3615000   0.68541239   -7.8051382    779.18488  0.017961846  0.017293408            5 
 3616000   0.66507578   -7.8384563    778.15627  0.017933174  0.017288016            7 
 3617000   0.68018976   -7.8414984    777.13563  0.017904701  0.017282616            5 
 3618000   0.67533565   -7.8499013    778.92162  0.017940889  0.017277219            4 
 3619000   0.65779583   -7.8196869    778.03066  0.017915415  0.017271827            4 
 3620000   0.67747905   -7.8445862    777.26779  0.017892905  0.017266434            7 
 3621000   0.66125023   -7.8316607    777.69194  0.017897725  0.017261033            7 
 3622000   0.65983726   -7.8711118    777.55706   0.01788968  0.017255633            6 
 3623000    0.6683161    -7.847241    778.87138  0.017914973  0.017250229            6 
 3624000   0.66988205   -7.8653515    778.22784  0.017895232  0.017244821            7 
 3625000    0.6725257   -7.8465347    778.56571  0.017898062  0.017239424            5 
 3626000    0.6860807   -7.8571455     778.5379  0.017892487  0.017234052            3 
 3627000    0.6633001   -7.8241029    776.87245  0.017849289  0.017228667            4 
 3628000   0.68085483   -7.8472636    777.06833  0.017848868  0.017223279            8 
 3629000   0.66109743   -7.8469483    778.46244  0.017875963  0.017217893            3 
 3630000   0.66641421   -7.8259342    776.96858  0.017836744  0.017212507            3 
 3631000   0.66581386   -7.8300784    779.05454  0.017879706  0.017207128            5 
 3632000   0.66607814   -7.8379698    778.39342  0.017859614  0.017201766            4 
 3633000    0.6501521   -7.8325437    779.19825  0.017873159  0.017196404            3 
 3634000   0.67276172   -7.8564376    778.86727  0.017860651  0.017191063            3 
 3635000   0.66675462   -7.8457313    779.33101  0.017866369  0.017185708            4 
 3636000   0.66605815   -7.8259695    779.35566   0.01786202  0.017180361            5 
 3637000     0.667412   -7.8471963    779.30884  0.017856036  0.017175015            9 
 3638000   0.67617309   -7.8307952    778.36394  0.017829484  0.017169661            8 
 3639000   0.65971525   -7.8402998    778.59121  0.017829789  0.017164314            5 
 3640000   0.65148431   -7.8471793    779.37851  0.017842915  0.017158961            5 
 3641000   0.67601066   -7.8508421    779.04383  0.017830354  0.017153598            9 
 3642000   0.67785561   -7.8467617    778.97385  0.017823857  0.017148258            3 
 3643000   0.68681143   -7.8543058    778.91163  0.017817541  0.017142927           14 
 3644000   0.64939753   -7.8390998    778.71092  0.017808062  0.017137601            5 
 3645000   0.67868045   -7.8458503    776.84926  0.017760614  0.017132267            4 
 3646000   0.66499651   -7.8573612     779.6723  0.017820267  0.017126928            4 
 3647000   0.66882889   -7.8605727    778.15124  0.017780624  0.017121586            5 
 3648000   0.66645383   -7.8467119    777.95953  0.017771371  0.017116237            4 
 3649000   0.67206234   -7.8231097    778.51932  0.017779285  0.017110897            3 
 3650000   0.66677345   -7.8453898    779.71431  0.017801697  0.017105556            8 
 3651000   0.67089083   -7.8446763    778.32725  0.017765161  0.017100221            8 
 3652000   0.65776318    -7.843378    780.03818  0.017799338   0.01709487            3 
 3653000   0.67208379   -7.8586939    778.24526  0.017753565  0.017089517            5 
 3654000   0.66831647   -7.8459798     777.4082  0.017729616  0.017084167            4 
 3655000   0.66730873   -7.8632143    777.31314  0.017722598  0.017078827            5 
 3656000   0.66765347   -7.8670487    778.05749  0.017734717  0.017073475           14 
 3657000   0.66747057   -7.8550752    779.25391   0.01775713   0.01706813            4 
 3658000   0.67330677   -7.8422378    778.66957  0.017738964  0.017062793           10 
 3659000   0.67833644   -7.8432993    778.13397  0.017721918  0.017057464            3 
 3660000   0.67816869   -7.8789288    777.47317   0.01770203  0.017052129            3 
 3661000   0.66225472   -7.8663351    779.19988  0.017736499  0.017046806            5 
 3662000   0.65418778    -7.864895    779.15621  0.017730662  0.017041488            2 
 3663000   0.68223014   -7.8667749    779.89281  0.017742579  0.017036175            4 
 3664000   0.68521431   -7.8698108    779.21317  0.017722279  0.017030866            7 
 3665000   0.67854865   -7.8480853    778.21176  0.017694674  0.017025557           10 
 3666000   0.69014837   -7.8864795    778.81069  0.017703462  0.017020236            4 
 3667000   0.66681862   -7.8781966    779.04753  0.017704016  0.017014912            3 
 3668000   0.66462174   -7.8886981    777.69308  0.017668418  0.017009599            6 
 3669000   0.65120828   -7.8787636    779.94309  0.017714706  0.017004281            3 
 3670000   0.66061426   -7.8910268     778.7134  0.017681957  0.016998963            5 
 3671000   0.65795533   -7.8837284    778.92689  0.017681987  0.016993653            9 
 3672000   0.66115177   -7.8547705     780.1453  0.017704822  0.016988352            4 
 3673000   0.64310979   -7.8779928    778.89049  0.017671533  0.016983068            6 
 3674000   0.67764273   -7.8762611    778.98046  0.017668764  0.016977773            5 
 3675000   0.67681268   -7.8839583    779.90397  0.017684897  0.016972481            4 
 3676000   0.65039043   -7.8593773     779.3657  0.017667884  0.016967185            3 
 3677000   0.68242313   -7.8634418    779.00208  0.017654838  0.016961892            7 
 3678000   0.66662098     -7.85869    779.17401  0.017653934  0.016956598            9 
 3679000   0.66927884   -7.8583598    780.50031  0.017679177  0.016951298            3 
 3680000   0.65013897   -7.8439002    779.52808  0.017652357  0.016946005            3 
 3681000   0.64381652   -7.8685764    777.68348  0.017605802  0.016940722            3 
 3682000   0.67537869   -7.8474479    778.07739  0.017609935  0.016935431           10 
 3683000     0.670428   -7.8548182    779.41343  0.017635384  0.016930138            7 
 3684000   0.65653146   -7.8578379    778.10047  0.017600897  0.016924849            5 
 3685000   0.66985346   -7.8872165    780.55832  0.017651703  0.016919554            3 
 3686000   0.67073482   -7.8919743      779.354  0.017619687  0.016914259            5 
 3687000    0.6554989   -7.8866486      778.799  0.017602364  0.016908971            4 
 3688000   0.65204782    -7.869705    779.91972  0.017622915  0.016903674            5 
 3689000   0.65301982   -7.8683003     778.1718  0.017578653  0.016898374            3 
 3690000   0.68292357   -7.8555387    779.87345  0.017612318  0.016893081            4 
 3691000   0.66802722   -7.8720019    778.33868  0.017572895   0.01688779            3 
 3692000   0.66586135   -7.8716366    777.25569  0.017543691  0.016882501            3 
 3693000   0.66317316   -7.8761324    778.61835  0.017569689  0.016877205            5 
 3694000   0.66587798   -7.8613051    778.15218  0.017554417  0.016871907            4 
 3695000   0.67070287   -7.8910321    777.78321  0.017541344  0.016866609            5 
 3696000    0.6471369   -7.8671445    779.23212  0.017569267  0.016861327            3 
 3697000   0.65950865   -7.8930606    778.05367  0.017537951  0.016856032            4 
 3698000   0.65628082   -7.8732834    777.93375  0.017530506  0.016850731            5 
 3699000   0.65658115   -7.8681643    777.67699  0.017519983  0.016845445           10 
 3700000   0.65272816   -7.8780693    780.61374  0.017581391  0.016840166            6 
 3701000   0.65243878   -7.8541837    779.22015  0.017545261  0.016834883            5 
 3702000   0.65679495   -7.8999905    780.90096  0.017578358    0.0168296            7 
 3703000   0.65638439   -7.8772662    778.27853  0.017514595  0.016824317           10 
 3704000    0.6567237   -7.8792293    779.54251  0.017538303  0.016819034            5 
 3705000   0.66240318   -7.8681097    778.24642  0.017504418   0.01681375            7 
 3706000   0.66544376    -7.864079    779.85255   0.01753581  0.016808473            6 
 3707000   0.67235513   -7.8677376    780.07146  0.017536001  0.016803199           13 
 3708000   0.66222281   -7.8578463    780.53115  0.017541603  0.016797929           12 
 3709000   0.65086256   -7.8735815    778.22682    0.0174851  0.016792654            8 
 3710000   0.66036121   -7.8756342    778.32305  0.017482548  0.016787379            4 
 3711000   0.64747869   -7.8913016    777.71217  0.017464119  0.016782117            5 
 3712000   0.66794543    -7.894455    777.91548  0.017463979  0.016776845           12 
 3713000   0.66327086   -7.8989385      777.541  0.017450871  0.016771578           10 
 3714000    0.6502284   -7.8889113    778.12486  0.017459273  0.016766314            6 
 3715000   0.66294857   -7.8826447    779.42406  0.017483716  0.016761052            6 
 3716000   0.62754188   -7.8859393    778.53986  0.017459182  0.016755787            7 
 3717000   0.65694522   -7.8468204    779.75297  0.017481683  0.016750531            9 
 3718000   0.65287109   -7.8713757    779.33289  0.017467565  0.016745286            4 
 3719000   0.65533134   -7.8884595    779.66263  0.017470257  0.016740032            4 
 3720000   0.66830135   -7.8814041     778.2996  0.017435027  0.016734776           13 
 3721000    0.6649111   -7.8654627     779.2113  0.017450759  0.016729529            6 
 3722000   0.65057438   -7.8765885    780.18713  0.017467919  0.016724279            6 
 3723000   0.65975687   -7.8698121    780.46668  0.017469484  0.016719043           15 
 3724000    0.6464045   -7.8479564    780.20475  0.017458932  0.016713813           10 
 3725000   0.65694264    -7.835645    778.32569  0.017412208  0.016708593            8 
 3726000   0.64623454   -7.8911478    779.17004  0.017426419  0.016703369           22 
 3727000   0.64925078   -7.8867548    778.72062  0.017411694  0.016698152            5 
 3728000   0.65185753   -7.8640708    779.37363  0.017421621  0.016692925            8 
 3729000   0.66357517   -7.9050991    778.24986  0.017391836  0.016687688           10 
 3730000   0.65795027   -7.8773835    779.65789   0.01741863   0.01668245           12 
 3731000   0.66894862     -7.85295    780.05385  0.017422805  0.016677215            4 
 3732000   0.65929661   -7.8779984    779.15148  0.017397988  0.016671971           19 
 3733000   0.64775911    -7.891336    779.35696  0.017397914  0.016666731           10 
 3734000   0.66160971   -7.8588435    778.57047  0.017375702    0.0166615           11 
 3735000   0.66245059   -7.8679539    779.70455  0.017396353  0.016656273            5 
 3736000   0.65182793   -7.8963026    778.37738  0.017362093  0.016651035            2 
 3737000   0.64396173   -7.8705147    780.15651  0.017397121  0.016645797           10 
 3738000   0.65524785    -7.908901    779.33763  0.017374211  0.016640565           11 
 3739000   0.64922945   -7.8880826    778.31942  0.017346871  0.016635333           13 
 3740000   0.67369026   -7.9004083    776.86604  0.017309849    0.0166301            7 
 3741000   0.65524526    -7.889024    778.21692  0.017335314  0.016624871            5 
 3742000   0.65721633   -7.9003263    778.21003  0.017330528  0.016619647            2 
 3743000   0.65718469   -7.8797223    778.27443  0.017327332  0.016614415            4 
 3744000   0.63542487   -7.8988585    778.83932  0.017335277  0.016609186            4 
 3745000   0.65507296   -7.8941813    779.45838  0.017344423  0.016603946            6 
 3746000   0.64831008   -7.9115121    776.01211  0.017263127  0.016598705            3 
 3747000    0.6545232   -7.8831791    778.12786  0.017305575  0.016593475            9 
 3748000    0.6397501   -7.8496817     779.0171  0.017320729  0.016588238            6 
 3749000   0.65972442   -7.8932671    779.60364  0.017329146  0.016583002            3 
 3750000   0.64668775   -7.8834123    776.82086  0.017262686  0.016577762            4 
 3751000   0.66982002   -7.8919898      777.652  0.017276549  0.016572516            8 
 3752000   0.65466856   -7.8934093    778.09248  0.017281727  0.016567272            3 
 3753000   0.64336039   -7.9123105    777.96407  0.017274271  0.016562027            2 
 3754000   0.65365674   -7.8884683     778.9293  0.017291096  0.016556795            3 
 3755000   0.64712721   -7.9156082    778.31238    0.0172728  0.016551546            4 
 3756000   0.64106293   -7.8862595    776.90471   0.01723697  0.016546298            7 
 3757000   0.64150997   -7.8796917    777.73277  0.017250749   0.01654107            4 
 3758000   0.64152104    -7.886051    779.96904  0.017295748  0.016535847            3 
 3759000   0.66718714   -7.9001178    777.42056  0.017234649  0.016530633            5 
 3760000    0.6632106   -7.8833404    777.31676  0.017227765  0.016525419            5 
 3761000   0.64531994   -7.9009161    777.88741  0.017235828  0.016520203            3 
 3762000   0.66511266   -7.8952431    779.47243  0.017266357  0.016514974            3 
 3763000   0.64441389   -7.8857366    777.54856  0.017219164  0.016509751            8 
 3764000   0.66102328   -7.8830279    778.65781  0.017239147  0.016504543            6 
 3765000   0.65911956   -7.8881247    778.52141   0.01723155  0.016499339            8 
 3766000   0.63578647   -7.8810299    779.24469  0.017242979  0.016494139            6 
 3767000   0.65096644   -7.8799936    778.62137  0.017224612  0.016488932            5 
 3768000   0.66032335   -7.8784814    778.99327  0.017228266  0.016483722            3 
 3769000   0.65193837   -7.8955968    778.91244  0.017221908  0.016478536           11 
 3770000   0.66062567   -7.8795776    779.94504  0.017240164  0.016473358            6 
 3771000   0.64611801   -7.8971582    779.53725  0.017226581  0.016468179            9 
 3772000   0.64846284   -7.8950139    778.85424  0.017206925  0.016462991            7 
 3773000   0.65682376   -7.8943387    780.14534   0.01723088  0.016457796            3 
 3774000   0.65815678   -7.8827228    779.96059  0.017222235  0.016452611            3 
 3775000   0.64653928   -7.9126798    779.16171  0.017200038  0.016447427            4 
 3776000   0.63581052   -7.8954946    779.10907  0.017194321   0.01644225            5 
 3777000   0.64676816   -7.8932082     777.3172  0.017150234  0.016437073            3 
 3778000   0.62936258   -7.9082455    781.06199  0.017228295  0.016431897            3 
 3779000   0.63796637   -7.9016758    778.27169  0.017162205  0.016426725            5 
 3780000   0.63498676   -7.8887633    780.38598  0.017204276  0.016421556            5 
 3781000   0.63754813   -7.8855277    780.28676  0.017197539  0.016416396            7 
 3782000   0.65156652   -7.8970962    779.37521  0.017172907  0.016411221            4 
 3783000   0.64254049   -7.8994083    776.63243  0.017107949  0.016406049            4 
 3784000   0.65092398   -7.8809549    779.16541   0.01715921  0.016400884            8 
 3785000   0.63942912   -7.9141635    778.75903  0.017145729  0.016395705            6 
 3786000   0.63941095   -7.9025719     779.8141  0.017164424  0.016390531            4 
 3787000   0.65374334   -7.9068781     778.2457  0.017125379  0.016385351            6 
 3788000   0.64437798   -7.9043954    778.59059  0.017128445  0.016380179            3 
 3789000   0.64171125   -7.9110379     777.3395  0.017096408  0.016375002            6 
 3790000   0.64821031   -7.9459222     777.8525  0.017103177  0.016369819            4 
 3791000   0.63528335   -7.9152067    778.44895  0.017111777   0.01636464            6 
 3792000    0.6371688   -7.9296506    778.17942  0.017101341  0.016359458            7 
 3793000   0.63142117   -7.9160924    777.74529  0.017087294  0.016354267            4 
 3794000   0.63973107    -7.933351    778.27899  0.017094513  0.016349082            4 
 3795000   0.64537462   -7.9090536    779.06251  0.017107214   0.01634391            3 
 3796000   0.62817408   -7.8997322    779.10425  0.017103623  0.016338758            6 
 3797000   0.65120947   -7.9138726    778.79556  0.017092344  0.016333587            8 
 3798000   0.65015599    -7.921512    778.73284  0.017086467   0.01632844            6 
 3799000   0.63610826   -7.9106168    777.82573  0.017062072  0.016323281            4 
 3800000   0.64941543   -7.9074052    779.45986  0.017093418  0.016318116            4 
 3801000   0.65009107   -7.8993024    778.54497  0.017068863  0.016312973            6 
 3802000   0.65290292    -7.908548    779.92994   0.01709473  0.016307825            4 
 3803000   0.64547207   -7.8998562    779.76982  0.017086726  0.016302678            2 
 3804000   0.64188052   -7.8910538    778.23937  0.017048707  0.016297539            4 
 3805000    0.6546714   -7.9242025    779.64259  0.017074958  0.016292407            3 
 3806000   0.66211127   -7.8931739     779.0969  0.017058524  0.016287268            2 
 3807000   0.63877208   -7.9181595    778.07404  0.017031653  0.016282143            5 
 3808000   0.63283826   -7.9048764    779.13699  0.017050442  0.016277023            3 
 3809000   0.63173496   -7.9104237    780.06905  0.017066357  0.016271891            5 
 3810000   0.63998576   -7.9060074    779.83763  0.017056816  0.016266754            3 
 3811000   0.64029058   -7.9220963    778.48825  0.017022834  0.016261613            4 
 3812000   0.63465878   -7.9283084    777.30884  0.016992586  0.016256476            6 
 3813000   0.65127239   -7.9336378    779.01094  0.017025329  0.016251328            6 
 3814000   0.64529055   -7.9042718    778.37589  0.017006989  0.016246187            3 
 3815000     0.644749   -7.9114946    777.76318  0.016989148  0.016241051            4 
 3816000   0.64848894   -7.9103531    778.14023   0.01699293  0.016235909           11 
 3817000   0.64266447   -7.9211429    777.77693  0.016980546  0.016230772            4 
 3818000   0.64504137    -7.905578     779.0193  0.017003215  0.016225636            4 
 3819000   0.64253265    -7.905861     778.3945  0.016985129  0.016220517            2 
 3820000    0.6325146   -7.8943788    779.74063  0.017010049  0.016215388            4 
 3821000   0.65127617   -7.9210675    779.16729  0.016993093   0.01621026            9 
 3822000   0.64434677   -7.8969122    779.55976  0.016997204  0.016205139            2 
 3823000   0.63381844   -7.9322877     777.7377  0.016953041  0.016200018            7 
 3824000   0.65134979    -7.917909    777.85591  0.016951184  0.016194892            5 
 3825000   0.64740847   -7.9191352       776.41  0.016915251  0.016189761            6 
 3826000   0.64593335   -7.8900828    778.33729  0.016952807  0.016184631            5 
 3827000   0.64704446   -7.8883798    777.94462  0.016939827  0.016179511            4 
 3828000   0.62832354   -7.8922142    779.49577  0.016969169  0.016174399            4 
 3829000   0.64872548   -7.9102601    780.40987  0.016984632  0.016169287            4 
 3830000   0.63883754   -7.9080866    780.21575  0.016975974  0.016164167            4 
 3831000   0.65107273   -7.8932204    779.04232  0.016946017  0.016159054           15 
 3832000   0.63007731   -7.9102798    778.46523  0.016929046  0.016153944            8 
 3833000   0.63934761   -7.9140977     780.0739  0.016959603  0.016148833            6 
 3834000   0.62857406   -7.9230339     778.7222    0.0169258  0.016143722            6 
 3835000   0.64185295   -7.9157423    778.68733  0.016920629  0.016138621            5 
 3836000   0.64712294   -7.9382949     779.7029   0.01693828  0.016133515            3 
 3837000   0.65149923   -7.9151917    779.43518  0.016928051  0.016128417            7 
 3838000   0.63730381   -7.9148068    779.42224  0.016923359  0.016123325            3 
 3839000   0.62104959   -7.9029994     779.7363  0.016925769   0.01611825            7 
 3840000    0.6445146   -7.9100691    778.60801  0.016896875  0.016113164            6 
 3841000   0.63038238   -7.9198691    778.12432  0.016881982  0.016108076            3 
 3842000   0.63283031     -7.89297    780.73871  0.016934294  0.016102988            2 
 3843000   0.63444738   -7.9174214    779.87701  0.016911202  0.016097914            4 
 3844000   0.63621615   -7.9174931    779.65574  0.016902006  0.016092837            4 
 3845000   0.63254058   -7.9291664    779.60936  0.016896605  0.016087751            2 
 3846000   0.62804535   -7.9181189    779.71264   0.01689445  0.016082655            7 
 3847000    0.6376373   -7.9156738       779.06  0.016875921  0.016077571            4 
 3848000   0.63096617   -7.9001052    779.35336  0.016877888  0.016072495            5 
 3849000   0.64295695   -7.9223486    778.31507  0.016851023  0.016067409            5 
 3850000   0.63274957   -7.9222152    779.30308  0.016868032  0.016062323            3 
 3851000   0.63192993   -7.9058911    778.95434  0.016856105  0.016057245            6 
 3852000    0.6336798   -7.9350326    778.61452  0.016844378  0.016052167            4 
 3853000   0.63639242   -7.9233349    777.66555  0.016819482   0.01604708            5 
 3854000   0.65625655   -7.9190227    779.26968  0.016849803  0.016042002            5 
 3855000   0.62891384   -7.9148632    778.49332  0.016828649  0.016036915            5 
 3856000   0.63124334   -7.9456456    778.21448  0.016818259  0.016031831            3 
 3857000   0.63983203   -7.9414158    778.74259  0.016825309  0.016026765            8 
 3858000   0.63506713    -7.941677    779.98857  0.016847861  0.016021685            3 
 3859000   0.63339034   -7.9082509    777.75465  0.016795255    0.0160166            8 
 3860000   0.62220434   -7.9332977    779.80058  0.016835073  0.016011533            3 
 3861000   0.62111577   -7.9320137    779.56109  0.016825544  0.016006453            4 
 3862000   0.63155933   -7.9551249    779.71718  0.016824555  0.016001377           11 
 3863000     0.645159   -7.9075982    777.90929    0.0167812  0.015996302            4 
 3864000    0.6366049   -7.9149223    780.04039  0.016822817  0.015991237            4 
 3865000   0.62789927   -7.9370629    777.47749  0.016763206  0.015986165            4 
 3866000    0.6461816   -7.9378174    777.47285   0.01675877  0.015981099            3 
 3867000   0.63985809   -7.9288387    778.36728  0.016773711  0.015976015            3 
 3868000   0.63595989   -7.9234381    779.75628  0.016799299  0.015970938            4 
 3869000   0.64164232   -7.9391379    776.94255  0.016734353  0.015965855            3 
 3870000   0.63707346   -7.9375361    777.86358  0.016749862  0.015960777            4 
 3871000   0.61883391   -7.9441581     778.1173  0.016750997  0.015955697            4 
 3872000   0.63398568   -7.9408625    777.32518  0.016729623  0.015950613            3 
 3873000   0.63128096   -7.9480648    777.35309  0.016725904  0.015945516            2 
 3874000   0.62490798   -7.9323594    776.03912  0.016693321   0.01594043            8 
 3875000   0.63961054    -7.933713    777.77944   0.01672644  0.015935346            9 
 3876000   0.64742812   -7.9351432    777.25062  0.016710755  0.015930276            8 
 3877000   0.63519369   -7.9249371    778.28527  0.016728684  0.015925212            3 
 3878000   0.63206713   -7.9384178    778.48741  0.016728713  0.015920135            6 
 3879000     0.637799   -7.9415965     779.2729  0.016741276  0.015915066            3 
 3880000   0.62225389    -7.945402    777.58124  0.016700628  0.015909997            6 
 3881000   0.62733654     -7.92383    778.81837  0.016722889  0.015904934            5 
 3882000   0.64113621    -7.932853    779.62224  0.016735837  0.015899876           10 
 3883000    0.6277284   -7.9235297    777.45858  0.016685093  0.015894822            5 
 3884000   0.61384815    -7.919976    779.75516  0.016730071  0.015889756            5 
 3885000   0.62430705   -7.9311474    778.09664   0.01669019  0.015884706            3 
 3886000   0.61199606   -7.9369522    776.86197  0.016659418  0.015879645            6 
 3887000   0.63485271   -7.9351583    777.21152  0.016662626  0.015874582            2 
 3888000    0.6339535   -7.9425835    777.99644  0.016675164  0.015869531            3 
 3889000   0.62462685   -7.9291657    778.38437  0.016679189  0.015864479            5 
 3890000   0.63516703   -7.9544404    778.47516  0.016676846  0.015859425            2 
 3891000   0.63355464   -7.9140172    777.94095  0.016661119   0.01585437            3 
 3892000   0.63516348   -7.9251447    779.11552  0.016681987  0.015849325            4 
 3893000   0.63577432   -7.9299004    778.01231  0.016654087  0.015844278            4 
 3894000   0.64053994   -7.9343866    778.89667  0.016668735  0.015839237            5 
 3895000   0.62686553   -7.9530523    778.37782  0.016653355  0.015834183            3 
 3896000   0.63574716   -7.9595497     777.0268  0.016620183  0.015829129            3 
 3897000   0.62312974   -7.9449883    777.93978  0.016635441   0.01582409            5 
 3898000   0.62683778   -7.9511914    779.23395  0.016658841  0.015819057            3 
 3899000   0.61406384   -7.9362788     777.6011   0.01661967  0.015814031            6 
 3900000   0.62198478   -7.9469009    778.79812  0.016640985   0.01580901            4 
 3901000   0.62618954   -7.9314953    779.45706  0.016650796  0.015803989            3 
 3902000   0.63020743   -7.9345318    778.34582  0.016622796  0.015798983            5 
 3903000   0.62069538   -7.9342754    780.33233  0.016660952  0.015793977            8 
 3904000   0.63777773   -7.9465075    777.58231  0.016597983  0.015788956            4 
 3905000   0.63358001   -7.9303065    779.14095  0.016626994  0.015783946            4 
 3906000   0.62944664   -7.9173675    778.15663  0.016601737  0.015778946            7 
 3907000   0.62491384    -7.929051    779.44153  0.016624894  0.015773952            5 
 3908000   0.61877979   -7.9109808    779.20282   0.01661555  0.015768945            4 
 3909000   0.63360452   -7.9287588    779.62586  0.016620318  0.015763948            4 
 3910000   0.61721976   -7.9499095    777.88906  0.016579051  0.015758944           14 
 3911000   0.62234788   -7.9205898    778.37551  0.016585177   0.01575393           12 
 3912000   0.61989681   -7.9445787    779.38197  0.016602377  0.015748919            6 
 3913000   0.61763463   -7.9391369    777.92757   0.01656716  0.015743906            5 
 3914000   0.62006155   -7.9525485    776.73122  0.016537456  0.015738878            5 
 3915000   0.62882162   -7.9250922    777.17704  0.016542721   0.01573386            5 
 3916000   0.62794736   -7.9473146    777.96207  0.016555202  0.015728845            7 
 3917000   0.62053368   -7.9385541    777.80996   0.01654774  0.015723826            4 
 3918000   0.63105105   -7.9485189    777.35672  0.016533876  0.015718815            6 
 3919000   0.62640249   -7.9411077    778.42252   0.01655232  0.015713803           10 
 3920000    0.6283805   -7.9454812    777.28382  0.016523891  0.015708789            5 
 3921000   0.62168367     -7.96279    777.08833  0.016515522  0.015703776            5 
 3922000   0.63452879   -7.9666063    777.93998  0.016529406  0.015698771            8 
 3923000   0.61567348   -7.9380816    776.94956  0.016504154  0.015693768            4 
 3924000   0.62740184   -7.9506746    778.82256  0.016539725  0.015688767            3 
 3925000   0.62284005   -7.9595232    776.55483  0.016487364  0.015683774            5 
 3926000   0.62900941   -7.9555727    777.29211  0.016498814  0.015678766            3 
 3927000   0.62180219   -7.9555964    777.86729  0.016506818  0.015673752            4 
 3928000   0.60708152   -7.9450085    777.67955  0.016498633   0.01566875            7 
 3929000   0.62089523   -7.9668629    777.19843  0.016484229  0.015663742           10 
 3930000     0.638072   -7.9501689    775.97606  0.016454115  0.015658736            5 
 3931000   0.62234694   -7.9576567    777.34858  0.016479025   0.01565374            7 
 3932000   0.63427166    -7.968866    776.61654   0.01645932   0.01564874            5 
 3933000   0.62267463   -7.9382081     777.4776  0.016473379  0.015643739            9 
 3934000   0.61474876   -7.9615727    777.06203  0.016460389  0.015638735           11 
 3935000   0.62587095   -7.9453626      777.056  0.016456078  0.015633721            8 
 3936000    0.6359159   -7.9467925     778.1543   0.01647515  0.015628718            7 
 3937000   0.61828503   -7.9822025     778.2538  0.016473072  0.015623704            7 
 3938000   0.60827229   -7.9852742    776.19902  0.016425407  0.015618682            5 
 3939000   0.60606318   -7.9662777     778.8578  0.016477486  0.015613665            6 
 3940000   0.62598944   -7.9806064    777.93723  0.016453833  0.015608647            6 
 3941000   0.63189569   -7.9803112    777.17253  0.016433488  0.015603636            7 
 3942000   0.60665632   -7.9827021    777.92189  0.016445161  0.015598627            7 
 3943000   0.62234632   -7.9810176    777.15207   0.01642472  0.015593618            4 
 3944000    0.6151197   -7.9718369    777.74719   0.01643313  0.015588623            4 
 3945000   0.64228192    -7.990533    777.27965  0.016419089  0.015583621            6 
 3946000   0.62487667   -7.9750257    777.69991  0.016423803  0.015578613            2 
 3947000   0.61299988   -7.9833711    777.69781  0.016419597  0.015573609            5 
 3948000   0.62661609   -7.9581764    776.08618  0.016381421    0.0155686            3 
 3949000   0.61949483   -7.9577167    776.94052  0.016395301  0.015563594            9 
 3950000   0.62648107   -7.9618951    777.60664  0.016405203    0.0155586            4 
 3951000   0.61795208   -7.9729701    776.82501  0.016384565  0.015553603            9 
 3952000   0.61852379   -7.9794534    774.99911  0.016341918  0.015548603           12 
 3953000    0.6220639   -7.9872937    775.39276  0.016346082  0.015543604            4 
 3954000   0.60091406   -7.9689595    777.86648  0.016394084  0.015538604            3 
 3955000   0.62678416   -7.9752426    777.33854  0.016378815   0.01553361           11 
 3956000   0.62491505   -7.9838155    777.99912   0.01638859   0.01552862            4 
 3957000   0.62336593   -7.9769221    775.99192  0.016342177  0.015523628            4 
 3958000   0.61749214   -7.9781881     776.7662   0.01635435  0.015518634            5 
 3959000   0.61510084   -7.9787586    777.50649  0.016365801  0.015513647            4 
 3960000   0.62284251   -7.9812692    775.87283   0.01632729  0.015508662            4 
 3961000   0.62597794   -7.9738733    777.30662  0.016353333  0.015503666            2 
 3962000   0.62116321   -7.9656188    777.57005  0.016354746  0.015498675            5 
 3963000   0.61399438   -7.9928633    777.09822  0.016340698  0.015493686            5 
 3964000   0.62509659   -7.9987752    777.75841  0.016350454  0.015488707            5 
 3965000   0.62908859    -7.975274    776.49149  0.016319703  0.015483717            5 
 3966000   0.61632542   -7.9848967    776.62572  0.016318409  0.015478738            5 
 3967000    0.6028931   -7.9833819    776.30001  0.016307453  0.015473756            6 
 3968000   0.61760445   -8.0027943    777.65718  0.016331846  0.015468781            4 
 3969000   0.61332173   -7.9971315    775.18897  0.016275909  0.015463809            3 
 3970000   0.62185574   -7.9853753    776.48499  0.016299013  0.015458836           12 
 3971000   0.60942986   -7.9866138    776.24484  0.016289869  0.015453864           16 
 3972000    0.6250404   -7.9543346    776.71155   0.01629556  0.015448905            4 
 3973000   0.61815752   -7.9906871    777.12843  0.016300202  0.015443949            7 
 3974000   0.61164791   -7.9682697    777.80677  0.016310325  0.015438997            3 
 3975000   0.61108174   -7.9614711    777.26578   0.01629488  0.015434054            5 
 3976000   0.61959767    -7.995846    776.74555  0.016279878  0.015429106            5 
 3977000    0.6159547   -7.9593871    777.23711  0.016286085  0.015424158            5 
 3978000   0.62136984   -7.9779837    778.50482  0.016308547  0.015419213            9 
 3979000   0.60879786   -7.9814992     777.1268  0.016275589  0.015414258            6 
 3980000   0.61145472   -7.9904496    777.29397  0.016274999  0.015409323            4 
 3981000   0.59171754   -7.9806927    776.76966  0.016259936  0.015404374            4 
 3982000   0.61898806   -8.0005783    776.07801  0.016241378  0.015399419            6 
 3983000   0.60913886   -7.9798232      777.308  0.016263034  0.015394471            6 
 3984000   0.62577717   -7.9815778    776.50479  0.016242152  0.015389524            9 
 3985000   0.61615904   -7.9768821    776.95475  0.016247485  0.015384595            3 
 3986000   0.63244453   -7.9827181    775.74351  0.016218087   0.01537967            3 
 3987000   0.62497378   -7.9838592    777.50101  0.016250753  0.015374727            6 
 3988000   0.60952154   -7.9866923    776.13141  0.016218059  0.015369783            3 
 3989000    0.6088811   -7.9918797    775.02626  0.016190905  0.015364839            2 
 3990000   0.63196211    -7.985964    775.34829  0.016193573  0.015359894            4 
 3991000   0.60422187   -7.9722178    777.52067  0.016234876  0.015354944            7 
 3992000   0.61676736   -7.9821234    776.61809  0.016211967  0.015350008            6 
 3993000   0.59888828   -8.0089146    776.27803   0.01620081  0.015345073           10 
 3994000   0.60206356   -7.9910691    778.80342  0.016249445  0.015340138            5 
 3995000   0.62442169   -7.9765479     776.6596  0.016200659   0.01533521           10 
 3996000   0.61363626    -7.987073    777.03236  0.016204378  0.015330279           12 
 3997000   0.60503706   -7.9753551     777.2788  0.016205462  0.015325356            3 
 3998000   0.60927535    -8.001706    776.63655  0.016188022  0.015320438            5 
 3999000   0.61962411   -8.0044526    775.92628  0.016169173  0.015315517            6 
 4000000   0.61542863    -7.999796    776.56575  0.016178453  0.015310608            8 
 4001000   0.61365607    -7.982816    778.09309  0.016206221  0.015305699            8 
 4002000   0.61155547   -7.9938376    776.74407  0.016174081  0.015300801            5 
 4003000   0.62430751   -7.9977234    776.98869  0.016175133  0.015295902           10 
 4004000   0.60766716   -7.9849864    776.42539   0.01615937  0.015290999           10 
 4005000   0.60819477   -7.9657167    777.52197  0.016178152  0.015286105            4 
 4006000   0.60608275   -7.9915136    777.35788    0.0161707  0.015281196            5 
 4007000   0.59041752    -7.987662    777.58202  0.016171326  0.015276289            4 
 4008000   0.61071805   -7.9741252    776.15689   0.01613766  0.015271379            3 
 4009000   0.62231512   -7.9858348    776.46444  0.016140028  0.015266473            5 
 4010000   0.61297978   -8.0145543    777.91347  0.016166115  0.015261565            3 
 4011000   0.60012288   -8.0083321     777.3764  0.016150927   0.01525666            7 
 4012000   0.61245777   -7.9888348    776.73685  0.016133617  0.015251761           10 
 4013000   0.60728474   -7.9605667    777.85928  0.016152905  0.015246865            9 
 4014000   0.60883756   -7.9990889     777.9814  0.016151416  0.015241979            6 
 4015000   0.61565951   -7.9982585    776.96063  0.016126206  0.015237082            3 
 4016000   0.61001044   -8.0027385    777.04514  0.016123945  0.015232193            5 
 4017000   0.61181618    -7.980992    777.59831  0.016131406   0.01522731           13 
 4018000   0.61268381   -7.9914197    776.13942  0.016097134  0.015222429            6 
 4019000   0.60196471   -7.9945075    776.54838  0.016101609  0.015217547            3 
 4020000   0.61038775   -7.9887122    776.66746  0.016100072  0.015212672            4 
 4021000   0.59029546   -7.9963725    777.42072  0.016111679  0.015207801            3 
 4022000   0.61165584   -7.9831879    776.19692  0.016082316  0.015202925            5 
 4023000   0.60672027   -8.0043045    775.64717  0.016066931  0.015198044            3 
 4024000    0.6017702   -7.9954288    776.30452  0.016076552  0.015193162            2 
 4025000   0.60297634   -8.0103815    776.29547   0.01607237   0.01518828            4 
 4026000   0.61010209   -8.0057205    777.39137  0.016091062  0.015183405            7 
 4027000   0.60409228   -7.9882021    776.60926  0.016070881  0.015178529            6 
 4028000    0.6072754    -7.987102    777.76976    0.0160909  0.015173666            5 
 4029000    0.6246848   -8.0002543     777.7142  0.016085757  0.015168802            6 
 4030000   0.59898833   -7.9661058    776.64499  0.016059657  0.015163938            3 
 4031000   0.59932825   -7.9977317     776.4048  0.016050707  0.015159082           11 
 4032000   0.60146431   -7.9977373    776.72237   0.01605329   0.01515421            3 
 4033000   0.61111345   -7.9771711    777.20557  0.016059294  0.015149346            6 
 4034000   0.60189733   -7.9857048    777.03634  0.016051817  0.015144485            9 
 4035000   0.60237566   -7.9934778    778.94393  0.016087235  0.015139626            5 
 4036000   0.61354841   -7.9869982     777.5004  0.016053444  0.015134771            6 
 4037000   0.60731826    -7.993169    777.05608  0.016040296  0.015129921            4 
 4038000    0.5907384   -7.9860652    776.71271  0.016029237  0.015125064            5 
 4039000   0.61017277   -7.9899236    777.22447  0.016035827  0.015120218            7 
 4040000   0.60333184   -7.9869493    777.33989  0.016034239  0.015115372            4 
 4041000   0.59965029   -7.9967107    778.00622  0.016044012  0.015110526            4 
 4042000   0.60415543   -8.0078599    776.96282  0.016018531  0.015105683            5 
 4043000   0.61691501    -7.981608    776.76797  0.016010553  0.015100835            5 
 4044000   0.59594398   -7.9967932    777.28188  0.016017184  0.015095997            4 
 4045000   0.60708831   -7.9896981    777.81244  0.016024154  0.015091159            7 
 4046000   0.61470478   -8.0032615    776.99952   0.01600345  0.015086319            4 
 4047000   0.62211146   -7.9842683    777.77068  0.016015375   0.01508148            4 
 4048000   0.60741101   -7.9990624    776.76007  0.015990614  0.015076646            7 
 4049000   0.59634779   -7.9970806    775.83534  0.015967633  0.015071812           10 
 4050000   0.60837472   -7.9853296    776.97432  0.015987126  0.015066969            3 
 4051000    0.6038364   -8.0134899    776.40499  0.015971468  0.015062127            9 
 4052000   0.60130318   -8.0045672     777.0395  0.015980576  0.015057289            6 
 4053000   0.61110542   -8.0092839    777.79077  0.015992079   0.01505244            7 
 4054000   0.59667998   -8.0148962    777.04272  0.015972758  0.015047595            5 
 4055000   0.59969284   -8.0016991    777.27374  0.015973566  0.015042753            5 
 4056000   0.61530405   -8.0291823    775.49198  0.015933021  0.015037913            9 
 4057000   0.59222427   -8.0030228    776.64714  0.015952821  0.015033071            8 
 4058000   0.60828907   -8.0116875    776.23762   0.01594048  0.015028237            3 
 4059000   0.61524626   -8.0039076    775.68211  0.015925148  0.015023403            8 
 4060000   0.61234529   -7.9957346    776.16575  0.015931153  0.015018569            5 
 4061000   0.59337917   -8.0160066    776.95685  0.015943463  0.015013733            3 
 4062000   0.61488004   -8.0084294    776.85937  0.015937538  0.015008898            4 
 4063000   0.60156777   -8.0256372    776.26125  0.015921348  0.015004069            4 
 4064000   0.59770781   -8.0075739    775.96323   0.01591132  0.014999246            6 
 4065000   0.58942403   -8.0125496    777.48391  0.015938579  0.014994423            8 
 4066000   0.60576306    -8.014685    776.86502  0.015921975  0.014989594            5 
 4067000   0.60630775   -8.0060935    775.27636  0.015885509  0.014984774            3 
 4068000   0.59519186   -8.0018846    776.57095  0.015908123  0.014979955            8 
 4069000   0.59589928   -8.0253497    776.95719  0.015912124  0.014975126            5 
 4070000   0.59404834   -8.0031578    776.21299  0.015892977  0.014970298           11 
 4071000   0.60504588   -7.9960841    776.32035  0.015891271  0.014965469            8 
 4072000   0.60521244   -8.0150622    777.60124  0.015913581  0.014960658            4 
 4073000   0.59548747   -8.0252963    776.31334  0.015883324  0.014955835            8 
 4074000   0.61051969   -8.0286245    775.85315  0.015870012   0.01495102            5 
 4075000   0.59813608    -8.013111    775.63156  0.015861586  0.014946202            7 
 4076000   0.60415806   -8.0301066     776.3415  0.015872209  0.014941372            7 
 4077000    0.5962452   -8.0039981    778.09252  0.015904107  0.014936559            6 
 4078000    0.6069221   -8.0107489    775.20447   0.01584119  0.014931745            4 
 4079000   0.60404358   -7.9861284    777.97086  0.015893823  0.014926935            5 
 4080000   0.60046636   -8.0392331    775.11147  0.015831525  0.014922125            6 
 4081000   0.59660857   -8.0144306    775.66909  0.015839032  0.014917306            5 
 4082000   0.59717986   -8.0211644     775.5919  0.015833576  0.014912496            4 
 4083000    0.6015801   -7.9985813    774.82713   0.01581409  0.014907684            6 
 4084000    0.5967076   -8.0206395    775.10173   0.01581582  0.014902874            8 
 4085000   0.59678883   -8.0253858    776.67193  0.015843981  0.014898074            8 
 4086000   0.58165201   -8.0326168    776.08396  0.015828111  0.014893277            3 
 4087000   0.59877129   -8.0071979    776.23131  0.015827243  0.014888473            5 
 4088000    0.5994515   -8.0422482     776.5263  0.015829385  0.014883673            9 
 4089000    0.6029185   -8.0174289    776.14136  0.015817669  0.014878877            9 
 4090000   0.57666088   -8.0473788    774.44936  0.015779327  0.014874076            5 
 4091000   0.60557444   -8.0091628    775.80705  0.015803126  0.014869276            6 
 4092000    0.5982215   -8.0283796    777.36802  0.015831053   0.01486447            6 
 4093000   0.60563562   -8.0210914    775.64066  0.015792016  0.014859678            4 
 4094000   0.59588986    -8.010471    776.08323  0.015797167  0.014854874            8 
 4095000   0.58963074   -8.0297897    776.30805  0.015797885  0.014850079            6 
 4096000   0.60026597   -8.0329143    774.44529   0.01575613  0.014845282           10 
 4097000   0.57897281   -8.0126633    774.79516    0.0157594  0.014840488            9 
 4098000   0.59689552   -8.0317815    774.15734  0.015742585    0.0148357            8 
 4099000   0.58962517   -8.0115779    775.19473  0.015759834  0.014830905            9 
 4100000   0.58691133   -8.0182974    775.02861  0.015752614   0.01482612            3 
 4101000   0.59961262   -8.0105825    776.71401  0.015783021  0.014821334            5 
 4102000   0.58946281    -8.040356    776.29544   0.01577067  0.014816549            6 
 4103000   0.59089613   -8.0301612     774.5603  0.015731585  0.014811766            6 
 4104000   0.59840075   -8.0234564    776.53231  0.015767794  0.014806986           10 
 4105000   0.59757655   -8.0200239    774.25661  0.015717755  0.014802206            7 
 4106000   0.59287124    -8.020297    774.40381  0.015716914  0.014797432           11 
 4107000   0.58598306   -8.0448281    776.15483  0.015748617  0.014792657            9 
 4108000   0.58657185   -8.0263904    775.84468  0.015738492  0.014787879            5 
 4109000   0.59282019   -8.0380408     775.7941  0.015733636   0.01478311            8 
 4110000   0.59447054   -8.0167972    775.99652  0.015733912  0.014778336            5 
 4111000   0.60174182   -8.0226016     777.5025  0.015760612  0.014773573            8 
 4112000   0.58019952   -8.0467874    775.27167  0.015711569  0.014768808            4 
 4113000   0.59626604   -8.0267489    776.33488  0.015729291  0.014764032            6 
 4114000   0.58685213   -8.0054842    775.38024   0.01570613  0.014759267            3 
 4115000   0.60360168   -8.0441763     775.7398  0.015709595  0.014754499            4 
 4116000   0.58348249    -8.022895    774.82764  0.015687311   0.01474973            5 
 4117000   0.59521158   -8.0229758    774.89393  0.015684842  0.014744966            4 
 4118000   0.59397741   -8.0205384    775.62881  0.015695904  0.014740194            7 
 4119000   0.58725667   -8.0305538    775.97021  0.015699001  0.014735426            5 
 4120000   0.59386322   -8.0467853    774.58557  0.015667184  0.014730668            5 
 4121000   0.60257456   -8.0442532    774.71976  0.015666096  0.014725905            6 
 4122000   0.59732733   -8.0201949     775.7896  0.015683924  0.014721151            5 
 4123000   0.60523528   -8.0278143    775.99114  0.015684193  0.014716401            8 
 4124000   0.59659188   -8.0342683    775.19221  0.015664246  0.014711654            4 
 4125000   0.58873971   -8.0319147    776.21455  0.015681102  0.014706912            3 
 4126000   0.56719916   -8.0166087    775.58715   0.01566463  0.014702165            4 
 4127000   0.57798169    -8.041853    775.74053  0.015663931  0.014697418            4 
 4128000   0.57462505    -8.025765    776.60515  0.015677591  0.014692675            3 
 4129000   0.58357622   -8.0373654    775.78539  0.015657249  0.014687937            8 
 4130000   0.58481113   -8.0197174    774.71068  0.015631773  0.014683201            5 
 4131000   0.58006249   -8.0112648    776.68752  0.015667867   0.01467846            5 
 4132000   0.57654408   -8.0282353    774.61181  0.015622213   0.01467373            5 
 4133000   0.59075632   -8.0443219    776.19178   0.01565029  0.014668991            5 
 4134000   0.59410951   -8.0263976    775.47471  0.015632049  0.014664258            5 
 4135000   0.59138602   -8.0238552    776.02439  0.015639347  0.014659527            8 
 4136000   0.58319691   -8.0202513    776.41816  0.015643499  0.014654806            5 
 4137000   0.59026937   -8.0245127    775.56739  0.015622581  0.014650078            5 
 4138000   0.58663661   -8.0216527    776.59173  0.015639434  0.014645354            4 
 4139000   0.58129368   -8.0392984     775.7241  0.015618187  0.014640628            5 
 4140000   0.58560625   -8.0149391    775.94012  0.015618762  0.014635908            5 
 4141000   0.61434957   -8.0358179    775.75124   0.01561119   0.01463119            9 
 4142000   0.57833579   -8.0372131    777.13506  0.015635262  0.014626475            5 
 4143000   0.59573901   -8.0453071    775.35307  0.015595645  0.014621758            8 
 4144000    0.5921056   -8.0415094    776.93616  0.015623716  0.014617043            7 
 4145000   0.59371776   -8.0384747    776.56257  0.015612436  0.014612323           12 
 4146000   0.58069139   -8.0022683    775.46097  0.015586529  0.014607611            3 
 4147000   0.59105298    -8.020075    776.00423  0.015593687  0.014602905            8 
 4148000   0.58949647   -8.0411078    775.48062  0.015579408  0.014598198            5 
 4149000   0.60153927    -8.038635    775.29454  0.015571916  0.014593488            8 
 4150000   0.58173614    -8.027533    776.28309  0.015588014  0.014588778            4 
 4151000   0.59033071   -8.0385911    777.01498  0.015598952  0.014584074            5 
 4152000   0.60109221     -8.02933    774.28294  0.015540361  0.014579373            5 
 4153000   0.59403646   -8.0410322     775.2453  0.015555929  0.014574672            6 
 4154000   0.58945967    -8.044679    775.04893  0.015548245  0.014569968            3 
 4155000    0.5857504    -8.046561    775.76039  0.015558772   0.01456527            3 
 4156000   0.59642692   -8.0313227    777.30471  0.015585994  0.014560577            6 
 4157000   0.57677929   -8.0438039    776.04049  0.015556902  0.014555884            8 
 4158000   0.59002603   -8.0465163    777.18854  0.015576169  0.014551193            3 
 4159000   0.59433803    -8.042066    774.61937  0.015520946  0.014546509            4 
 4160000   0.58480866   -8.0429687    775.55818  0.015536021  0.014541828            5 
 4161000    0.5868282   -8.0246649    774.97742  0.015520657  0.014537142            3 
 4162000   0.59798149   -8.0277727    776.20725  0.015541551  0.014532458            7 
 4163000   0.58740581   -8.0305188    774.37193   0.01550108  0.014527782            4 
 4164000   0.60062941    -8.044217    776.08394  0.015531619  0.014523107            3 
 4165000   0.58212623   -8.0180938    775.39462  0.015514098   0.01451844            5 
 4166000    0.5856334   -8.0407537    775.51613  0.015512805  0.014513765            9 
 4167000   0.58637753   -8.0248886    775.90691  0.015516897  0.014509097            5 
 4168000   0.58395291   -8.0346897    774.86863  0.015492415   0.01450443            6 
 4169000   0.58336698   -8.0147554    775.51082  0.015501535  0.014499761            7 
 4170000   0.58040628   -8.0289024    776.34146  0.015514418   0.01449509            4 
 4171000   0.57939444    -8.027589    775.35111  0.015490912  0.014490422            8 
 4172000   0.58137438   -8.0360164    775.63519  0.015492873  0.014485755            5 
 4173000    0.5855432   -8.0278935    775.17614  0.015479993  0.014481091            6 
 4174000   0.58730679   -8.0597766    776.66479  0.015506005  0.014476428            6 
 4175000   0.56878669   -8.0171195    776.44004  0.015497805  0.014471771            3 
 4176000   0.58262686   -8.0467515    776.02312  0.015485774   0.01446711            5 
 4177000    0.5757546   -8.0304292    775.86497  0.015478912  0.014462454            5 
 4178000     0.583867   -8.0467539    774.71247  0.015452219  0.014457791            8 
 4179000   0.58136287   -8.0521842    775.07534  0.015455758  0.014453132            4 
 4180000   0.58095542   -8.0327688    774.65486  0.015443678  0.014448478            7 
 4181000   0.57148695   -8.0653818    775.40262  0.015454888  0.014443817            7 
 4182000    0.5623495    -8.044371     775.5331  0.015453792  0.014439161            5 
 4183000   0.58570617   -8.0611048    774.71675  0.015433834  0.014434503            8 
 4184000   0.58221828   -8.0814922    774.78397  0.015431484  0.014429855            4 
 4185000   0.58936875   -8.0536644    777.14157  0.015474743  0.014425207            4 
 4186000   0.57263064   -8.0482364    775.00977  0.015428607  0.014420561            5 
 4187000   0.57880143    -8.045821    776.27223  0.015450048   0.01441592            6 
 4188000   0.59335955   -8.0365914    776.90293  0.015458909  0.014411276            2 
 4189000   0.57430487   -8.0448511     775.1683  0.015420711  0.014406637            6 
 4190000   0.57433559   -8.0508798     775.2204  0.015418067  0.014401996            6 
 4191000   0.58779769   -8.0356267    775.96945  0.015429282  0.014397354            5 
 4192000   0.58352062   -8.0713728    775.19788  0.015410263   0.01439271            7 
 4193000   0.58026519   -8.0379693     775.9706  0.015421945  0.014388076            3 
 4194000   0.57103073   -8.0426417    776.98762  0.015438476  0.014383436            5 
 4195000   0.57310944   -8.0442227     775.4886  0.015405018  0.014378802            4 
 4196000   0.58465909   -8.0405648    775.91354  0.015409786   0.01437417            3 
 4197000   0.57768054   -8.0416681    775.31369  0.015394204  0.014369535           12 
 4198000   0.57523826   -8.0733458    775.29269   0.01539012  0.014364892            5 
 4199000   0.58857478   -8.0747015    775.61886  0.015392928   0.01436025            3 
 4200000   0.58101215   -8.0641892    774.53533  0.015367765  0.014355603            3 
 4201000   0.58488875   -8.0507632    775.17612  0.015376817  0.014350963            3 
 4202000   0.57561673   -8.0682037    775.19688   0.01537357  0.014346322            3 
 4203000   0.57688841   -8.0773806    774.98946  0.015365799  0.014341681            5 
 4204000   0.58992369   -8.0464278    775.52159  0.015372692  0.014337044            3 
 4205000   0.57877766   -8.0611536    775.49096   0.01536843  0.014332409            6 
 4206000   0.59250455   -8.0555799    775.11359  0.015357299  0.014327777            3 
 4207000   0.58726836   -8.0505256    775.09192  0.015353219  0.014323147            3 
 4208000   0.57940021   -8.0711877    775.40115  0.015355695  0.014318517            6 
 4209000    0.5849612   -8.0748023     774.3585  0.015331403  0.014313884            9 
 4210000   0.58320314   -8.0675411      775.141   0.01534325  0.014309257            5 
 4211000   0.57385331   -8.0388841    775.60251   0.01534874  0.014304628            6 
 4212000   0.57314931   -8.0503742    774.57221  0.015324711  0.014300003            4 
 4213000   0.58911438   -8.0713425    775.20852   0.01533366  0.014295377            2 
 4214000   0.58088282   -8.0660692    775.44249  0.015334648  0.014290751            3 
 4215000   0.57528903   -8.0508959    775.78421  0.015337766  0.014286128            9 
 4216000   0.56683644   -8.0722544    775.00407  0.015318708  0.014281508            4 
 4217000   0.56498984   -8.0692872    776.12636  0.015337253  0.014276893            4 
 4218000   0.57750018   -8.0681622    775.68686  0.015324934  0.014272272           10 
 4219000   0.56367073   -8.0613457     773.9433  0.015286863  0.014267659           10 
 4220000   0.56561966   -8.0532326    773.22825   0.01526912  0.014263046            7 
 4221000   0.56228891   -8.0683235    775.95036  0.015319244  0.014258433            7 
 4222000   0.59506222    -8.050643    775.66258  0.015309936  0.014253822            9 
 4223000   0.58412811   -8.0635373    775.46715  0.015302454   0.01424922           12 
 4224000   0.57575095   -8.0661399    774.42554  0.015278282  0.014244611            9 
 4225000   0.56728759   -8.0653227    772.94197  0.015245404  0.014240006            7 
 4226000   0.57750921   -8.0391008    774.82763   0.01527898  0.014235394           23 
 4227000   0.58008433   -8.0546534     774.9552   0.01527788  0.014230789            8 
 4228000     0.581919   -8.0417901    773.05513  0.015236817  0.014226184            5 
 4229000   0.56567618   -8.0528625    774.36599  0.015259044  0.014221585           12 
 4230000   0.58495557   -8.0501537    775.89106  0.015285482   0.01421699            4 
 4231000   0.57033531   -8.0621937    775.51615  0.015274485  0.014212399            8 
 4232000   0.57948131   -8.0588246    776.47064  0.015289671  0.014207813            3 
 4233000   0.57693298   -8.0699112     773.6567  0.015230662  0.014203227            5 
 4234000   0.58289571   -8.0772514    774.76346  0.015248848  0.014198639            6 
 4235000   0.58971468   -8.0732568    774.84549  0.015246861   0.01419405            5 
 4236000    0.5669115   -8.0598108    774.88828  0.015244104  0.014189468            6 
 4237000   0.57172952   -8.0491046    774.51123   0.01523309  0.014184885           11 
 4238000   0.56996524   -8.0852525    775.08072  0.015240694  0.014180306            6 
 4239000   0.57827567   -8.0440674    775.81534   0.01525154  0.014175729            8 
 4240000   0.56465923   -8.0392331    775.50807  0.015241904  0.014171154           11 
 4241000   0.57347843   -8.0586335    774.54223  0.015219332   0.01416658            5 
 4242000   0.58232567   -8.0554444    774.64578  0.015217778  0.014162006            6 
 4243000   0.57154587   -8.0819815    774.06917  0.015202867  0.014157427            6 
 4244000   0.56262697   -8.0643429    774.15919  0.015201052  0.014152851           16 
 4245000   0.57188841   -8.0643178     775.8806  0.015231264  0.014148286            9 
 4246000   0.57424267   -8.0730182    773.95755  0.015189935  0.014143713            7 
 4247000   0.58642812   -8.0867717    773.84129  0.015184077  0.014139143            9 
 4248000   0.57465249   -8.0611631    774.46637  0.015192765  0.014134572            5 
 4249000   0.59712064   -8.0721882    773.02769  0.015160973  0.014130005           12 
 4250000   0.56606596    -8.068777    774.71169  0.015190425  0.014125434            9 
 4251000   0.56573997   -8.0847041     774.0758  0.015174386  0.014120861           20 
 4252000     0.573147     -8.06718    774.91184  0.015187203  0.014116297           11 
 4253000   0.57233554   -8.0746186    774.42807  0.015174153  0.014111735           16 
 4254000   0.57148537   -8.0698082    774.36163  0.015169284  0.014107166           12 
 4255000   0.57898275   -8.0689932    775.84095  0.015194692  0.014102611           15 
 4256000   0.56364811   -8.0617883    774.70357  0.015168851  0.014098055            7 
 4257000   0.57444449   -8.0940718    774.57882  0.015162846  0.014093504            6 
 4258000   0.57861209   -8.0654043    774.52456  0.015158223  0.014088947            7 
 4259000    0.5552469   -8.0979314    774.68098  0.015157724  0.014084397            8 
 4260000    0.5763196   -8.0685919    774.72336  0.015154995  0.014079841            6 
 4261000   0.57587843   -8.0636532    776.27077  0.015181702  0.014075291            7 
 4262000   0.56730681   -8.0677003    774.33098  0.015140212  0.014070739            7 
 4263000   0.57664571    -8.073557    775.75795  0.015164555  0.014066189            6 
 4264000   0.57299403   -8.0728619    773.21085  0.015111219  0.014061639            7 
 4265000   0.57367086   -8.0741067     774.5105   0.01513307  0.014057093            8 
 4266000   0.56827121   -8.0707866    774.14945  0.015122469  0.014052549           12 
 4267000    0.5699397   -8.0824711    774.19548  0.015119824  0.014048004            5 
 4268000   0.57068595   -8.0786337    774.11263  0.015114664  0.014043462            7 
 4269000   0.57293985   -8.0936226    775.10799  0.015130553  0.014038915            8 
 4270000   0.56776954   -8.0836708    772.81763  0.015082311  0.014034371            6 
 4271000    0.5691516   -8.0678593    774.24182  0.015106568  0.014029829            6 
 4272000   0.57129163   -8.0643066    773.38723  0.015086361  0.014025289            6 
 4273000    0.5597062   -8.0839357    773.59318  0.015086847  0.014020745            7 
 4274000   0.56718581   -8.0863019    775.00576  0.015110859  0.014016202           12 
 4275000   0.58467584   -8.0832064    773.63603  0.015080624  0.014011662            7 
 4276000   0.55601603   -8.0845234     773.3753  0.015072016  0.014007122            8 
 4277000   0.57063522   -8.0819829    774.22056  0.015084961  0.014002581            5 
 4278000   0.57017677   -8.0721558    773.10508  0.015059706   0.01399804            8 
 4279000   0.57516474   -8.0780337    773.91446  0.015071949  0.013993507            8 
 4280000     0.568721   -8.0840574    773.80658  0.015066327  0.013988974            3 
 4281000    0.5646846   -8.0671812    774.78427   0.01508184  0.013984442            9 
 4282000   0.57030145    -8.087826    775.10433  0.015084546  0.013979915            8 
 4283000   0.56782313   -8.0935429    772.86887  0.015037529  0.013975397           20 
 4284000   0.55344863   -8.0928575    773.26738  0.015041771  0.013970879            7 
 4285000    0.5636825   -8.0808379    773.91251  0.015050807  0.013966357            9 
 4286000   0.55266677   -8.0788205    774.90885  0.015066668  0.013961839            5 
 4287000   0.56465401   -8.0775081     775.0653  0.015066194  0.013957329            5 
 4288000   0.55772013   -8.0735492    774.80642   0.01505765  0.013952815            5 
 4289000    0.5546657   -8.1025487    772.94952   0.01501806   0.01394831            5 
 4290000   0.57016949   -8.0733897    774.23179  0.015039468  0.013943801            5 
 4291000   0.55347345   -8.0671812    774.39763  0.015039183  0.013939288            6 
 4292000   0.55667249   -8.0950384    774.63862  0.015040358  0.013934778            4 
 4293000   0.57240748    -8.092271    774.74533  0.015038926  0.013930268           11 
 4294000   0.57055457   -8.0813943    774.41334  0.015028981  0.013925761            5 
 4295000   0.55470494    -8.106124    774.74805  0.015031976  0.013921261            4 
 4296000   0.55079146    -8.086915    773.04301  0.014995403  0.013916759            5 
 4297000   0.55782967   -8.0750651    774.15473  0.015013473  0.013912262            9 
 4298000   0.57061157   -8.0748196    773.34454  0.014994271  0.013907768           11 
 4299000   0.56463587   -8.0674736    775.18548  0.015026469  0.013903275            6 
 4300000   0.53968642   -8.0809654    774.30407  0.015005893  0.013898783            5 
 4301000   0.56478228   -8.0904712    773.08205  0.014978727  0.013894294            4 
 4302000   0.56987216   -8.0823553    773.55029  0.014984315  0.013889799            7 
 4303000   0.56129397   -8.0823981    774.23509  0.014994095   0.01388532            5 
 4304000   0.56941392   -8.0765043    773.86724  0.014983489  0.013880831            6 
 4305000    0.5526862    -8.093589    774.04145  0.014983381  0.013876341            6 
 4306000   0.55964538    -8.083822    774.39305  0.014986706  0.013871855            6 
 4307000   0.56896593   -8.0986174    774.15573  0.014978634  0.013867368            4 
 4308000    0.5662186   -8.0858257    774.07239  0.014973545  0.013862883            7 
 4309000   0.56415937   -8.0884852     774.1221  0.014971031  0.013858397            6 
 4310000   0.56160028   -8.0799325    772.69558  0.014939976   0.01385392            6 
 4311000   0.57246908   -8.0822897    774.26395  0.014966828  0.013849447            5 
 4312000   0.55356917   -8.0875985    775.54573  0.014988129  0.013844974            3 
 4313000   0.57423579   -8.0789108    773.21948  0.014939707  0.013840506            5 
 4314000   0.56791797   -8.0823078    775.58963  0.014982028  0.013836038            5 
 4315000    0.5599038   -8.0709473    774.00128  0.014947881  0.013831573            4 
 4316000   0.56914589    -8.087572     773.5874  0.014936426  0.013827113            7 
 4317000   0.57869882   -8.0962336     774.2925  0.014946578  0.013822653           11 
 4318000   0.55808756    -8.088495    772.99337  0.014918044  0.013818199           10 
 4319000   0.56223338   -8.0957541     774.7043  0.014947602  0.013813742            5 
 4320000   0.57275198   -8.0885422    774.57693  0.014941685  0.013809283            5 
 4321000   0.55753763   -8.0974523    773.26695  0.014912963  0.013804826            7 
 4322000   0.55845365   -8.0812978    774.28458  0.014929133  0.013800368            9 
 4323000   0.56149824   -8.0967608    773.85203  0.014917342   0.01379591            9 
 4324000   0.56507079    -8.087182    774.25093   0.01492158  0.013791456            9 
 4325000   0.55674051   -8.0937657    774.06116  0.014914473  0.013786999            7 
 4326000    0.5753982   -8.0818392    772.74941  0.014885757   0.01378254            5 
 4327000   0.56381322   -8.0778811    773.61566     0.014899  0.013778091            4 
 4328000   0.56591872     -8.08484    773.17278   0.01488703  0.013773635            7 
 4329000   0.56310216   -8.0726061    772.92356  0.014878793  0.013769184            3 
 4330000   0.55976256   -8.0894763     773.3962  0.014884453  0.013764738            3 
 4331000    0.5494843   -8.0930951    774.20606  0.014896599  0.013760296            6 
 4332000   0.55352096   -8.0978266    773.50895  0.014879751  0.013755846            5 
 4333000   0.56235371   -8.0829384    774.09888  0.014887662  0.013751403           10 
 4334000   0.55498846   -8.0932561     773.8773  0.014879966   0.01374696            6 
 4335000   0.56210645   -8.1142972    773.58648  0.014870944  0.013742518            7 
 4336000   0.54958717   -8.1057977    772.92895  0.014854877  0.013738077           10 
 4337000    0.5547065   -8.1040924    772.71699  0.014847379  0.013733641           14 
 4338000   0.54667052   -8.0933015    773.70057  0.014862851  0.013729205            9 
 4339000   0.54786556    -8.103669    774.01761  0.014865514  0.013724777            8 
 4340000   0.54533841   -8.1170169    772.39051  0.014830847  0.013720348            6 
 4341000   0.54836289   -8.0954158    772.92341  0.014837661  0.013715918            7 
 4342000   0.54727978   -8.1033128     773.7337  0.014849795  0.013711493           15 
 4343000    0.5534064   -8.0836824    773.94908  0.014850508  0.013707067           12 
 4344000   0.56003732   -8.1131475    772.35424  0.014816495  0.013702647            9 
 4345000   0.55615805   -8.0931536    773.13478  0.014828055  0.013698228           12 
 4346000   0.56116165   -8.0821738     774.5994  0.014852727  0.013693815            5 
 4347000   0.56198007   -8.0814677    773.46666  0.014827595  0.013689401            6 
 4348000    0.5497116   -8.0853972    774.10299  0.014836381  0.013684991            7 
 4349000    0.5663117   -8.1007662    773.40917  0.014819675  0.013680579            6 
 4350000   0.55462486   -8.1083506    774.10021  0.014829506  0.013676175            4 
 4351000   0.54977834    -8.107511    773.52013  0.014814988  0.013671765            9 
 4352000   0.56278601   -8.0951068    774.91416  0.014838277  0.013667354            9 
 4353000   0.56170269   -8.0777279    774.14843  0.014820209   0.01366295            8 
 4354000   0.56313812   -8.0716317    773.68486  0.014807932   0.01365855            6 
 4355000    0.5523015   -8.0835427    773.46312  0.014800289  0.013654152            5 
 4356000   0.55050063   -8.0984779    773.02831  0.014788573  0.013649754            4 
 4357000   0.56205695   -8.1066381    773.91189  0.014802079  0.013645353            6 
 4358000   0.54925252   -8.1100147    774.42861  0.014808563   0.01364096            4 
 4359000    0.5540279   -8.0840776    774.63986  0.014809204  0.013636567            5 
 4360000   0.55873526   -8.0908127    774.19573  0.014797319  0.013632179            5 
 4361000   0.55416531   -8.0865048     774.2367  0.014794709  0.013627791           13 
 4362000   0.55860858   -8.1023415    774.31521  0.014792817   0.01362341            9 
 4363000   0.54349143   -8.0917182    775.03856  0.014803242  0.013619029            9 
 4364000   0.55483996   -8.1108957    774.96563  0.014798458  0.013614646            9 
 4365000   0.54634317   -8.0943276    773.56793  0.014768384  0.013610273            5 
 4366000   0.55048708   -8.1081075    774.10158  0.014775187  0.013605889           10 
 4367000   0.55404784    -8.120908    775.17504  0.014792288  0.013601509            9 
 4368000   0.55295077   -8.1026691    773.95755  0.014765674  0.013597131           10 
 4369000   0.56295521   -8.1018871    775.09381  0.014783967   0.01359275            9 
 4370000    0.5682408    -8.096314    774.68548  0.014772797  0.013588374            5 
 4371000   0.55253253   -8.1073183    773.76553  0.014751878  0.013583993           10 
 4372000   0.55279694   -8.1017142    772.51162  0.014724604   0.01357961            9 
 4373000   0.55173207   -8.0987923    773.99283  0.014749463  0.013575232            6 
 4374000   0.55417351   -8.1135651    774.42473   0.01475432  0.013570855            6 
 4375000   0.53755485   -8.1139723    773.76318  0.014738346  0.013566478            4 
 4376000    0.5587066   -8.1140161    774.37756  0.014746678  0.013562099            4 
 4377000   0.54899817   -8.1159241    772.95266   0.01471618  0.013557727            8 
 4378000   0.55574068   -8.1096517    773.60855  0.014725304  0.013553358            5 
 4379000   0.54297172    -8.106801    773.17898  0.014713766  0.013548986            6 
 4380000   0.55660516    -8.125766    773.07558  0.014708439  0.013544618            7 
 4381000   0.55650174    -8.113972    774.34566  0.014729241   0.01354025           13 
 4382000   0.53769064   -8.1213804    773.58838  0.014711478  0.013535886            5 
 4383000   0.54978735   -8.1055398    772.59233  0.014689184  0.013531516           10 
 4384000   0.54743805   -8.1165285    773.15673  0.014696562  0.013527154            4 
 4385000   0.54797465    -8.103619    773.70197  0.014703572  0.013522786            8 
 4386000   0.56739167   -8.0978381    773.51273  0.014696624  0.013518422           15 
 4387000   0.55226673   -8.1022783    772.29714  0.014670183  0.013514066           11 
 4388000   0.54885836   -8.1132839    772.99783  0.014680147  0.013509702           12 
 4389000    0.5419691     -8.09443    773.76905  0.014691446  0.013505342           16 
 4390000   0.53564271   -8.0927838    773.21407  0.014677564  0.013500986            8 
 4391000   0.54729356   -8.1235299    775.01943  0.014708484  0.013496625           13 
 4392000   0.53993949   -8.1094532    772.81907  0.014663385  0.013492267            8 
 4393000   0.54385311   -8.1069232    774.30567  0.014688248  0.013487913            7 
 4394000   0.53823527   -8.1043615    773.20545  0.014664039  0.013483557            9 
 4395000   0.55205059   -8.1156463    772.90374  0.014654982  0.013479207           10 
 4396000   0.55300173   -8.1039794    773.16874  0.014656672  0.013474853           10 
 4397000   0.55678523     -8.12576    773.52084  0.014660011    0.0134705           11 
 4398000   0.54576052   -8.1206715    773.14343  0.014649527  0.013466146           16 
 4399000   0.55184799   -8.1051881     773.4195  0.014651426  0.013461801           11 
 4400000   0.54005572   -8.0964782    773.33072  0.014646415  0.013457457            9 
 4401000   0.54599064   -8.1019627    773.21294  0.014640857  0.013453112           11 
 4402000   0.54187919   -8.0982176    772.87827  0.014631195  0.013448772           12 
 4403000   0.54707234   -8.1113579    774.00915  0.014649276  0.013444427           17 
 4404000   0.54970592   -8.1192255    772.26196  0.014612889  0.013440089            9 
 4405000   0.56698352   -8.1150575    772.51838  0.014614423   0.01343575            6 
 4406000   0.55187986   -8.1083027     773.7154  0.014633746  0.013431418            7 
 4407000   0.53199363   -8.1267468    773.43967  0.014625211  0.013427084           11 
 4408000   0.54591842   -8.1080343    773.11446  0.014615745  0.013422751            4 
 4409000   0.54678827   -8.1275724    772.32196  0.014597451  0.013418417            7 
 4410000   0.55235984   -8.1127519    772.84053  0.014603941  0.013414087            6 
 4411000   0.54669723   -8.1121725     772.0909  0.014586468  0.013409757            8 
 4412000   0.54085047   -8.1121261    772.02381  0.014581894  0.013405428            9 
 4413000    0.5360802   -8.0943152    773.03625  0.014597709  0.013401103            5 
 4414000   0.54429681    -8.107918    773.28118  0.014599025  0.013396785            5 
 4415000   0.54744197   -8.0844427    773.92786  0.014607925  0.013392463            9 
 4416000   0.55426477   -8.1200749    773.51252  0.014596779  0.013388144           13 
 4417000   0.53654089   -8.1053556    773.92752  0.014601304  0.013383824           10 
 4418000    0.5557714   -8.1058454    772.62469  0.014573425  0.013379505            6 
 4419000   0.54382821   -8.1292904    771.87279  0.014555948  0.013375186           15 
 4420000   0.54793745   -8.1021317    772.10411  0.014557016  0.013370876            8 
 4421000   0.53734854   -8.1027378    772.19176  0.014555375  0.013366559            9 
 4422000   0.54350171     -8.11851    771.71004  0.014543005  0.013362248           16 
 4423000   0.53758791   -8.1121971    773.92132   0.01458138  0.013357929           13 
 4424000   0.54028514   -8.1054042     772.3702  0.014548866  0.013353614           13 
 4425000    0.5471141    -8.112579    773.45518  0.014566011    0.0133493            9 
 4426000   0.54349508   -8.1162495    772.59586   0.01454654  0.013344989           10 
 4427000   0.53299907   -8.1126437    772.04964  0.014532973  0.013340674           11 
 4428000   0.53867022    -8.136913    772.23194  0.014533121  0.013336362           11 
 4429000   0.53959046   -8.1306263    772.20031  0.014529245  0.013332053           13 
 4430000   0.54327269   -8.1186224    771.26097  0.014508295  0.013327749           11 
 4431000   0.54870296   -8.1185143     772.4288  0.014526984  0.013323444           11 
 4432000   0.54959328   -8.1353612    771.49134   0.01450608  0.013319137            9 
 4433000   0.54246807   -8.1165768    772.54522  0.014522619  0.013314835           10 
 4434000   0.54415109   -8.1306485    771.01178  0.014490524  0.013310535           14 
 4435000   0.54710391   -8.1294173    772.13167  0.014508299  0.013306234           10 
 4436000   0.53712034   -8.1376025    771.93611  0.014501355  0.013301939            8 
 4437000   0.53994589   -8.1366501    773.74507  0.014532061  0.013297643            6 
 4438000    0.5413417   -8.1225358    772.19816   0.01449974  0.013293348           14 
 4439000   0.53833739   -8.1121315    771.70855  0.014487282  0.013289056            4 
 4440000   0.53480855   -8.1161612    772.16341  0.014492556  0.013284766           11 
 4441000   0.54879757   -8.1366806     772.2581   0.01449107  0.013280483           13 
 4442000   0.54206698   -8.1073682    773.70494  0.014514951  0.013276195            5 
 4443000     0.558184   -8.1299182    772.27184  0.014484805  0.013271911            5 
 4444000   0.54583804   -8.1334234    773.62263  0.014506875  0.013267628            5 
 4445000   0.53474666   -8.1235912    772.67059  0.014485763  0.013263342           16 
 4446000   0.55354358    -8.115889    772.04299  0.014470741  0.013259064            3 
 4447000   0.54383948   -8.1234529    772.11126  0.014468767  0.013254783            8 
 4448000   0.53834571   -8.1335444     770.8627  0.014442122  0.013250503            6 
 4449000   0.54454497   -8.1230363    773.12058  0.014481168  0.013246229            4 
 4450000   0.54464123   -8.1216345    771.72711  0.014451819  0.013241952            5 
 4451000   0.53091577   -8.1265119    772.76975  0.014468092  0.013237685            5 
 4452000   0.53547162   -8.1512263    772.25845  0.014455272  0.013233411           10 
 4453000   0.53176222   -8.1309857    771.43046  0.014436531  0.013229142            6 
 4454000    0.5402796   -8.1492551    771.50382  0.014434662  0.013224875            7 
 4455000   0.53945188   -8.1238286    772.40857  0.014448346   0.01322061           11 
 4456000   0.52751368   -8.1418142     774.1024   0.01447678  0.013216348            5 
 4457000    0.5412124   -8.1327289    773.24427  0.014457488  0.013212086            4 
 4458000   0.53648904   -8.1529243    772.07819  0.014432447  0.013207827            6 
 4459000   0.52871108   -8.1228917    772.66425  0.014440163  0.013203571            8 
 4460000   0.53929317   -8.1356814    773.52012  0.014452917  0.013199314            6 
 4461000   0.54406308     -8.14644    772.21309  0.014425261   0.01319506           16 
 4462000   0.53347328   -8.1448857    772.71947  0.014431486  0.013190813           12 
 4463000   0.53774188   -8.1337895    771.54345  0.014406293  0.013186566            5 
 4464000    0.5419497   -8.1296005     772.5576  0.014421998  0.013182317            4 
 4465000   0.53441683   -8.1277072    772.66178  0.014420713  0.013178074           13 
 4466000    0.5484084   -8.1218424    773.88625  0.014440332  0.013173835           14 
 4467000   0.53102426   -8.1274199     772.7604  0.014416096  0.013169596           12 
 4468000   0.53165068   -8.1164151    772.61299   0.01441012  0.013165356           23 
 4469000   0.53741685   -8.1402177    771.81079  0.014391937  0.013161123           12 
 4470000   0.54496698    -8.120026    773.42966  0.014418898  0.013156892            6 
 4471000   0.53227557   -8.1139322    772.54962   0.01439927  0.013152664            5 
 4472000   0.53501495   -8.1096956    771.05979  0.014368288   0.01314843            6 
 4473000   0.53557772   -8.1437773    771.25924  0.014368791  0.013144195            6 
 4474000   0.53458407   -8.1172941    771.98248  0.014379051  0.013139962            3 
 4475000   0.53351565   -8.1263502    772.21325  0.014380135  0.013135734           14 
 4476000   0.53166923    -8.143366    770.87349  0.014351979  0.013131507            6 
 4477000   0.53221679   -8.1449372    771.17174  0.014354325  0.013127278            3 
 4478000   0.53213023   -8.1314379    773.28643  0.014390473  0.013123048           10 
 4479000    0.5292793   -8.1339219    772.04557  0.014364173  0.013118823            6 
 4480000   0.52843083   -8.1275817    771.81811  0.014356736  0.013114599            3 
 4481000   0.54660981   -8.1315369    771.89771  0.014355012  0.013110376            5 
 4482000   0.53451007   -8.1395102    771.94193  0.014352631  0.013106154            8 
 4483000   0.54620699   -8.1260634    772.31449  0.014356355  0.013101941            7 
 4484000   0.51970314    -8.142557    771.86869  0.014344869  0.013097719            4 
 4485000   0.54115821    -8.154624    773.32975  0.014368817    0.0130935            8 
 4486000   0.52824119   -8.1469736    773.68608  0.014372234  0.013089281            8 
 4487000   0.54723648   -8.1358942     772.2543  0.014342439  0.013085066            5 
 4488000   0.52432765     -8.14072    770.99003  0.014315769  0.013080853           15 
 4489000   0.53250163   -8.1310393    772.54648  0.014341473  0.013076642            9 
 4490000   0.54107591   -8.1478736    773.44881  0.014355026  0.013072428            9 
 4491000   0.53007715   -8.1586069    773.37719  0.014350501  0.013068215           12 
 4492000   0.55507579   -8.1423953    772.49813  0.014330998  0.013064008           16 
 4493000   0.53228354   -8.1578399    771.96234  0.014317871  0.013059803           13 
 4494000   0.51718885   -8.1584851     772.0874  0.014317004  0.013055595           10 
 4495000   0.54705059   -8.1402168     772.8176  0.014327356  0.013051392           12 
 4496000   0.52948556    -8.138089    773.00853  0.014327709  0.013047188            4 
 4497000    0.5345006    -8.128852    772.48911  0.014314897  0.013042986            5 
 4498000   0.52548748   -8.1312363    773.44724  0.014329466  0.013038788           13 
 4499000   0.53555635   -8.1286156    773.47649  0.014326823  0.013034591           11 
 4500000    0.5279465   -8.1241566     771.9162  0.014294744  0.013030399           20 
 4501000   0.54950619   -8.1381438    773.19575  0.014315259  0.013026204           12 
 4502000    0.5199889   -8.1406491    771.37972  0.014278464  0.013022016            3 
 4503000    0.5272806   -8.1538974    770.74956  0.014263631  0.013017825           11 
 4504000   0.52774931    -8.151282    772.01262  0.014283833  0.013013638            5 
 4505000   0.53873521   -8.1535089    771.95082  0.014279519  0.013009453            5 
 4506000   0.52948766   -8.1543339    771.76528  0.014272919  0.013005272            6 
 4507000   0.52806519   -8.1331189    771.46332  0.014264169  0.013001088           10 
 4508000   0.53040817   -8.1344752    772.10497  0.014272866  0.012996906            4 
 4509000   0.52812425   -8.1348545    772.23558  0.014272115  0.012992728           10 
 4510000   0.53105659   -8.1357771    771.50069  0.014255371  0.012988549           16 
 4511000   0.52932349   -8.1527356    771.70759  0.014256033  0.012984373           10 
 4512000   0.53084707   -8.1483215    771.25118  0.014244444  0.012980202            5 
 4513000   0.52074541   -8.1349191    772.83729  0.014270576  0.012976032            7 
 4514000   0.52448735   -8.1462478    771.22475  0.014237645  0.012971863            4 
 4515000   0.52787844   -8.1544192    771.61786  0.014241747  0.012967697            6 
 4516000   0.52985788    -8.140767      771.746  0.014240958  0.012963535            6 
 4517000   0.52656536   -8.1419292    772.46643  0.014251096  0.012959371            7 
 4518000    0.5298507   -8.1389524    772.86189  0.014255236  0.012955208            9 
 4519000   0.52216535   -8.1377853    771.76282  0.014231814  0.012951048            8 
 4520000   0.53675517   -8.1465017    771.81673   0.01422966  0.012946882            4 
 4521000   0.52821027    -8.150915    771.78257  0.014225882  0.012942714            5 
 4522000   0.52928762   -8.1536645    770.60907  0.014201111  0.012938549            7 
 4523000   0.52534394   -8.1490573    772.40339   0.01423103   0.01293439            3 
 4524000   0.53759752   -8.1619135    772.62134  0.014231899   0.01293023            8 
 4525000   0.51684847   -8.1561018    771.74836  0.014212677  0.012926067            4 
 4526000   0.53014059    -8.143707    771.31773  0.014201608  0.012921909            6 
 4527000   0.52266922   -8.1717623    770.90048   0.01419079  0.012917747            8 
 4528000   0.54891681    -8.146357    772.02988  0.014208442   0.01291359            7 
 4529000   0.53778845   -8.1321489    770.80889  0.014182838  0.012909436            5 
 4530000    0.5267427   -8.1636894    771.34191  0.014189513  0.012905287            7 
 4531000   0.52732312   -8.1497944    771.33209    0.0141862  0.012901141            6 
 4532000    0.5234336   -8.1420802    770.81161    0.0141735  0.012896998            5 
 4533000   0.51958288   -8.1514539    772.85611  0.014207958  0.012892858            5 
 4534000   0.51445225   -8.1455631    770.37562  0.014159234  0.012888716            5 
 4535000   0.52680222   -8.1410326    772.56591   0.01419636  0.012884575           10 
 4536000   0.52247773   -8.1583736    772.83105  0.014198101  0.012880432            5 
 4537000   0.52354694    -8.143525     770.8876  0.014159276   0.01287629            6 
 4538000   0.53866136   -8.1566318    771.69871   0.01417105  0.012872151            5 
 4539000    0.5337602   -8.1579604    770.56446  0.014147104  0.012868011            9 
 4540000   0.52651709    -8.159732    772.15516  0.014173186  0.012863873           18 
 4541000   0.52503583   -8.1434686    772.31587  0.014173014  0.012859735            6 
 4542000   0.52748952   -8.1572318    771.79589  0.014160353  0.012855598            8 
 4543000   0.52353116   -8.1565007    771.35272  0.014149107  0.012851463            6 
 4544000   0.51682065   -8.1694098    772.22696  0.014162026  0.012847327            7 
 4545000   0.52789214   -8.1605685    770.75324  0.014131889  0.012843194            4 
 4546000   0.52463752    -8.161801     771.3307  0.014139366   0.01283906            6 
 4547000   0.51815866   -8.1665703    769.85837  0.014109273   0.01283493            7 
 4548000   0.51125781   -8.1452285    771.28259  0.014132267  0.012830803            5 
 4549000   0.53830923   -8.1601436    772.50969  0.014151639  0.012826682            5 
 4550000   0.52203359   -8.1454574    771.49942  0.014130026   0.01282256            4 
 4551000   0.51692606   -8.1772651    771.93664  0.014134927  0.012818434            8 
 4552000   0.51702101   -8.1539787    772.63118  0.014144537   0.01281431            5 
 4553000   0.52753004   -8.1496187     771.3249  0.014117521  0.012810192            4 
 4554000   0.52630179      -8.1547    771.95097  0.014125878  0.012806074            8 
 4555000   0.53763454   -8.1705786    772.57393  0.014134174  0.012801959            8 
 4556000   0.52229119   -8.1517536    772.26042  0.014125337  0.012797847            7 
 4557000   0.51915287   -8.1753078    771.46296  0.014107654  0.012793732            8 
 4558000   0.53341338   -8.1699788    770.81856  0.014092778  0.012789616            9 
 4559000   0.52768408   -8.1773911    770.87866  0.014090785  0.012785506            8 
 4560000   0.52351231   -8.1530086    771.20406  0.014093641  0.012781402            5 
 4561000   0.51681492   -8.1590284    772.12171  0.014107318  0.012777296           11 
 4562000   0.52425429   -8.1515799    771.04939  0.014084637   0.01277319            7 
 4563000   0.51793847   -8.1755942    771.34983  0.014087038  0.012769084            5 
 4564000   0.52659779   -8.1572941     770.9476  0.014076607   0.01276498            7 
 4565000    0.5194419   -8.1608764    770.29583  0.014061625  0.012760879            4 
 4566000   0.52330456   -8.1743157    770.80957  0.014067922  0.012756779            8 
 4567000   0.51070311   -8.1829766    770.38706  0.014057132  0.012752677            6 
 4568000   0.52069983   -8.1647062    770.94204  0.014064179  0.012748576            4 
 4569000   0.52024331    -8.157449    771.21107  0.014066008  0.012744478            4 
 4570000    0.5179984    -8.175498    771.34437   0.01406536   0.01274038           10 
 4571000   0.52278513   -8.1724913    771.64705  0.014067801  0.012736285            6 
 4572000   0.51510931   -8.1440174     771.8425  0.014068287   0.01273219            7 
 4573000    0.5142263   -8.1633065    772.28686  0.014073308  0.012728102            5 
 4574000   0.51664285   -8.1607985    770.99508  0.014046696  0.012724014            6 
 4575000   0.52941189    -8.175299    770.73614   0.01403891  0.012719927           11 
 4576000    0.5205893   -8.1787013    771.11366  0.014042717  0.012715836            7 
 4577000   0.51617879   -8.1803123      771.625  0.014048958  0.012711755            8 
 4578000    0.5266158   -8.1500087    770.83984  0.014031597  0.012707675            8 
 4579000   0.53048002   -8.1828519    770.67343  0.014025505  0.012703595            6 
 4580000   0.52339763   -8.1682115    770.89424   0.01402646  0.012699512            8 
 4581000     0.521335   -8.1900089    772.26501  0.014048334  0.012695435            7 
 4582000   0.51539478   -8.1731421    769.92478  0.014002706  0.012691352            7 
 4583000   0.52093042   -8.1707621    769.94274  0.013999977  0.012687274            8 
 4584000   0.51975761   -8.1744363    769.78948  0.013994137  0.012683196            9 
 4585000   0.52230429   -8.1695313    770.17623  0.013998114  0.012679118           11 
 4586000   0.52767448   -8.1655192    770.47036  0.014000406  0.012675047            7 
 4587000     0.513619    -8.168806     770.9565  0.014006186  0.012670971            7 
 4588000    0.5111101   -8.1779515    771.84744  0.014019316  0.012666901            9 
 4589000   0.50801422   -8.1696169    769.88379  0.013980602   0.01266283           13 
 4590000   0.51545939   -8.1707517    770.35959  0.013986195  0.012658759           15 
 4591000   0.51019119   -8.1834588     771.6827  0.014007164   0.01265469            9 
 4592000   0.52476528   -8.1787323    772.42882  0.014017654  0.012650623           10 
 4593000   0.51440106   -8.1749473     770.0155  0.013970816  0.012646558            8 
 4594000   0.51094806   -8.2045112    770.74995  0.013981098  0.012642496           12 
 4595000   0.51039737   -8.1788119    771.33359   0.01398864  0.012638435            9 
 4596000   0.52170975   -8.2000083     770.8886  0.013977528  0.012634371           12 
 4597000   0.51167405   -8.1719149     770.9183  0.013975025  0.012630313           12 
 4598000   0.50900764   -8.1732668    772.56443   0.01400182  0.012626256            7 
 4599000    0.5156287   -8.1654995    770.49192  0.013961222  0.012622198           11 
 4600000   0.50670193    -8.187499    771.53938  0.013977163  0.012618143           15 
 4601000   0.51067931   -8.1765165    770.48528  0.013955033   0.01261409            9 
 4602000   0.51149745   -8.1980485    770.75322  0.013956852   0.01261004            7 
 4603000   0.50710388   -8.1967458    770.04313  0.013940965  0.012605987            8 
 4604000   0.50974716   -8.1805243    771.00109  0.013955276  0.012601941            7 
 4605000   0.52231775   -8.1747607    770.69366  0.013946682  0.012597891            7 
 4606000    0.5149707   -8.1911031    770.22339  0.013935146  0.012593845            7 
 4607000   0.50748845   -8.1790683    770.04646  0.013928921  0.012589801            7 
 4608000   0.50994043   -8.1903311    770.95462  0.013942322   0.01258576            5 
 4609000   0.50305264   -8.1863203    770.93041  0.013938859  0.012581723            4 
 4610000    0.5220462   -8.1742889    770.57677  0.013929443  0.012577686            6 
 4611000   0.51688153   -8.1803181    770.46394  0.013924383  0.012573652           10 
 4612000   0.50817907   -8.1778031     770.4823  0.013921695  0.012569622            6 
 4613000   0.51587487   -8.1906507    770.76617  0.013923805  0.012565585            5 
 4614000   0.50997725   -8.1693182    770.89372  0.013923091  0.012561552            9 
 4615000   0.52055828   -8.1743686    769.45397  0.013894077  0.012557519           10 
 4616000   0.50972652   -8.1834389    770.28563  0.013906081  0.012553487            8 
 4617000   0.51088807   -8.1830136     770.4858  0.013906682  0.012549455            6 
 4618000   0.50462942    -8.189671    771.10136  0.013914778  0.012545425           11 
 4619000   0.51763371    -8.202618    770.38047   0.01389876  0.012541397            7 
 4620000   0.52473576   -8.1867886    771.71374    0.0139198  0.012537368            9 
 4621000    0.5115364   -8.1807987    771.20271  0.013907572  0.012533346            8 
 4622000   0.50908241   -8.2071478    770.79057  0.013897133  0.012529323            8 
 4623000   0.51354889   -8.1763991    771.39296  0.013904985  0.012525301            7 
 4624000   0.50503006   -8.1637247    771.71807  0.013907837  0.012521284            6 
 4625000   0.51587696   -8.1651613    771.03718  0.013892562  0.012517268            7 
 4626000    0.5115649   -8.1714853     769.4294  0.013860596  0.012513255            5 
 4627000   0.51437745   -8.1982648    771.26443   0.01389065  0.012509246            6 
 4628000   0.50356311    -8.192952    769.95986  0.013864158  0.012505231            6 
 4629000   0.50667787   -8.1922623     770.3966  0.013869025  0.012501221            6 
 4630000   0.51600683   -8.1719983     772.1152  0.013896962  0.012497211            6 
 4631000   0.50514309   -8.1719839    770.25302  0.013860452  0.012493206            7 
 4632000   0.51261111   -8.1857723    770.66364  0.013864847  0.012489199            9 
 4633000    0.5184791   -8.1876921    769.39504  0.013839036  0.012485196            6 
 4634000   0.50959433   -8.1931358    770.80391  0.013861385  0.012481191           10 
 4635000   0.50813523   -8.1888982    769.37013  0.013832617  0.012477188            7 
 4636000   0.51100109   -8.1833071    771.61449  0.013869976  0.012473184            6 
 4637000   0.50993965   -8.1910233    770.76501  0.013851718  0.012469181            5 
 4638000   0.52250187   -8.1907208    770.45835  0.013843222  0.012465183            8 
 4639000   0.51671536   -8.1873899    768.97461  0.013813584  0.012461186            7 
 4640000   0.50685209   -8.2026558    769.37133  0.013817732  0.012457189           11 
 4641000   0.51660233   -8.1798882    769.69322  0.013820535  0.012453196            9 
 4642000   0.52420279   -8.2004559    769.65665  0.013816901    0.0124492            6 
 4643000   0.50230842   -8.2124393    769.97589  0.013819655  0.012445205            6 
 4644000   0.49990007   -8.1955569    771.05205   0.01383599   0.01244121            7 
 4645000   0.51336684   -8.2060466    770.28446   0.01381924  0.012437222            7 
 4646000   0.50890894   -8.1946118    769.65663  0.013805005  0.012433236           10 
 4647000   0.51559859   -8.1858714    770.11139  0.013810189  0.012429251            7 
 4648000   0.50797203    -8.177623    769.53705  0.013796921  0.012425266            6 
 4649000   0.49789875   -8.1940786    769.93193  0.013801031  0.012421282            5 
 4650000   0.50803156   -8.1903499     769.9943  0.013799181  0.012417301            6 
 4651000   0.52002327   -8.1992303     769.5358  0.013787999  0.012413316           12 
 4652000   0.50420902   -8.1960679     770.3036  0.013798789  0.012409339           15 
 4653000   0.49678607   -8.1960724    770.40708  0.013797677   0.01240536           13 
 4654000   0.51377634   -8.1923874    770.51729  0.013796685  0.012401383           13 
 4655000   0.49740908   -8.1940665    770.29016  0.013789656  0.012397406            8 
 4656000   0.50658978   -8.1935677    769.05555  0.013764597   0.01239343            9 
 4657000    0.4880726   -8.1953669    770.23305  0.013782712  0.012389455            8 
 4658000   0.50430894    -8.164059    769.78502  0.013771737  0.012385483           13 
 4659000   0.51403109   -8.1818491    770.86684  0.013788131  0.012381515           14 
 4660000   0.49811334   -8.1973313    769.68435  0.013764026  0.012377547            6 
 4661000   0.51128253   -8.1899192     770.0872  0.013768276  0.012373575            5 
 4662000   0.50534919   -8.1816399    769.94053  0.013762701  0.012369608            4 
 4663000   0.50414501   -8.2007451    769.94194  0.013759774  0.012365645            9 
 4664000   0.50692783   -8.2006418    769.99619  0.013757794  0.012361682            7 
 4665000   0.51488448   -8.1840566    770.46378  0.013763197  0.012357718           10 
 4666000   0.51038221   -8.1822508    769.82354  0.013748813  0.012353757            7 
 4667000   0.51771568    -8.205435    770.46935  0.013757398  0.012349795            6 
 4668000   0.49695406   -8.1946198    769.72227  0.013741114  0.012345835            5 
 4669000    0.5117224    -8.199912    770.54929  0.013752932  0.012341876            6 
 4670000   0.49780171   -8.1998597    769.25204  0.013726839  0.012337921            5 
 4671000   0.50180662   -8.1907424    769.83375  0.013734278  0.012333964           11 
 4672000   0.51323795   -8.1790545    769.21505  0.013720303  0.012330009            6 
 4673000   0.49370917   -8.1987922    769.90659  0.013729699  0.012326056            6 
 4674000   0.49747389   -8.1921858     770.2423  0.013732747  0.012322106            4 
 4675000   0.50709618   -8.2092089    771.43465  0.013751063  0.012318157            7 
 4676000   0.50554342   -8.1782738    771.60158  0.013751097  0.012314215            4 
 4677000   0.50870108   -8.2000341    769.91097  0.013718035  0.012310272            4 
 4678000   0.49956912   -8.1970534    769.60578  0.013709665   0.01230633            5 
 4679000   0.49512034   -8.1978387    770.10307  0.013715592  0.012302391            7 
 4680000    0.5025897   -8.1993204    770.31736  0.013716477  0.012298454            5 
 4681000    0.5024849   -8.2138036    770.69779   0.01372032  0.012294517           10 
 4682000   0.50023225   -8.2031335    769.62719  0.013698334  0.012290583            9 
 4683000   0.49845649    -8.200361    769.96968  0.013701503  0.012286645            9 
 4684000   0.50790407   -8.2169845    769.81899  0.013695897  0.012282711            3 
 4685000   0.50212219   -8.2035828    769.48579  0.013687047  0.012278775            4 
 4686000   0.50818083   -8.2093307    768.12401  0.013659909  0.012274842            5 
 4687000    0.4941161    -8.194059    770.59566   0.01370094  0.012270911            5 
 4688000   0.49031413    -8.201627    770.20798  0.013691126  0.012266981            4 
 4689000   0.49718593   -8.2034031    769.75861   0.01368022  0.012263054            6 
 4690000   0.50221552   -8.2010298    770.73289  0.013694614   0.01225913            7 
 4691000   0.49404604    -8.208121    770.27055  0.013683482  0.012255209            4 
 4692000   0.49903208   -8.2036421    769.50245  0.013666923  0.012251283            4 
 4693000   0.50455713   -8.2011924    769.31986  0.013660769  0.012247363            5 
 4694000   0.50121451   -8.1900358    768.79843  0.013648602  0.012243445            4 
 4695000   0.49380796   -8.1970783    769.33928  0.013655294  0.012239526            6 
 4696000   0.50863324   -8.2077889     770.4274  0.013671696  0.012235611            7 
 4697000   0.49138355   -8.2142909    769.22353  0.013647426  0.012231693            5 
 4698000   0.51301776    -8.189579    770.40271  0.013665438   0.01222778            6 
 4699000   0.50287396   -8.2034501    769.61637  0.013648584  0.012223868            7 
 4700000   0.50328042   -8.1963881    768.41697  0.013624414  0.012219955            7 
 4701000   0.50219764   -8.2141213    768.91006  0.013630257  0.012216044            7 
 4702000   0.51288711   -8.2036223    770.23532  0.013650846  0.012212132            7 
 4703000    0.4965275   -8.1987791    770.18858  0.013647115  0.012208225            6 
 4704000   0.50049076   -8.2065164    769.78012  0.013636978  0.012204318            6 
 4705000   0.50235915   -8.2083634    768.77848  0.013616339  0.012200415            6 
 4706000   0.51209317   -8.2032357    769.81855  0.013631863  0.012196511            8 
 4707000   0.50320202   -8.2260808    769.09205  0.013616105  0.012192611            8 
 4708000    0.5007023   -8.2175913    769.84376  0.013626518  0.012188706            8 
 4709000   0.49592898   -8.2008551    768.87661  0.013606509  0.012184808            5 
 4710000   0.48556788   -8.2206144    769.34043  0.013611827   0.01218091            5 
 4711000   0.50233752   -8.1995352    769.57092  0.013613014  0.012177013            9 
 4712000   0.50553748   -8.2049919    769.88627  0.013615702  0.012173114            7 
 4713000   0.50413023   -8.2125343    769.31418  0.013602698  0.012169221            6 
 4714000   0.50114244   -8.1984615    770.25851  0.013616506  0.012165328           14 
 4715000   0.48925518   -8.2154402    769.75282   0.01360468  0.012161436            9 
 4716000    0.5032408    -8.217183    769.08935  0.013590072  0.012157546            9 
 4717000   0.48951679   -8.2001953    769.03505  0.013586231  0.012153658            7 
 4718000    0.4988763   -8.2107858    769.48836  0.013591359  0.012149772           13 
 4719000   0.49836238   -8.1887139    770.34717  0.013603644  0.012145888            7 
 4720000    0.4962577   -8.2286879    768.62631   0.01357038  0.012142002           11 
 4721000   0.50885716   -8.2109824    769.53495  0.013583544  0.012138117           10 
 4722000     0.498714   -8.2119235    768.81865  0.013568026  0.012134233            8 
 4723000   0.50043187   -8.2081481    769.55816  0.013578202  0.012130352            6 
 4724000   0.49468227   -8.2109596    769.14796  0.013568091  0.012126473           10 
 4725000   0.49476685    -8.222028    770.23558  0.013584402    0.0121226            6 
 4726000   0.48585977   -8.2147142    769.37842  0.013566413  0.012118725            6 
 4727000   0.49572903   -8.1954824    768.92285  0.013555512  0.012114853            9 
 4728000   0.49426534   -8.2159472    768.77838  0.013550098  0.012110979           15 
 4729000   0.48927485   -8.2250446     767.4959  0.013524634  0.012107108            6 
 4730000    0.4965081   -8.1923111    769.24644  0.013552615  0.012103237            6 
 4731000   0.48329495   -8.2009628    770.51213  0.013572045  0.012099368            7 
 4732000   0.49321073   -8.2090939    770.09005  0.013561744  0.012095504            5 
 4733000   0.48970274   -8.2175504    769.26285  0.013544314   0.01209164            7 
 4734000   0.48956351    -8.202419    770.24803  0.013558795  0.012087777            8 
 4735000   0.49714541   -8.2022401    769.83341  0.013548634  0.012083914           10 
 4736000   0.50429438   -8.2076308    768.43425  0.013521154  0.012080051            8 
 4737000    0.4944374   -8.2154128    770.60095  0.013556417   0.01207619            9 
 4738000   0.49284567   -8.2294905    769.23602  0.013529549  0.012072335           11 
 4739000   0.49167941   -8.2040469    769.84195  0.013537349  0.012068478            6 
 4740000   0.48408969      -8.2226    769.72138  0.013532373  0.012064624            8 
 4741000   0.49538961   -8.2156916    768.61758  0.013510117  0.012060774            7 
 4742000   0.49948012   -8.2135968    769.62759  0.013525017  0.012056925            9 
 4743000   0.48348033   -8.1997906    770.34778  0.013534819  0.012053078            5 
 4744000   0.50016361   -8.2185729    769.51351  0.013517312  0.012049232            8 
 4745000   0.49015191   -8.1985769    769.96027  0.013522309  0.012045385            7 
 4746000   0.48848116   -8.2041121    769.46944  0.013510841  0.012041537            9 
 4747000   0.48667423   -8.2062349    769.39647  0.013506714  0.012037694            8 
 4748000   0.49245614   -8.2076416    770.89846  0.013530231  0.012033854            6 
 4749000   0.50204975   -8.2160654    768.55915  0.013486333  0.012030019            7 
 4750000   0.49505963    -8.220912    768.21908  0.013477528   0.01202618           10 
 4751000   0.49971598   -8.2044632    769.84303  0.013503175  0.012022344            8 
 4752000   0.49180765   -8.2149992    769.09016  0.013487131  0.012018511            9 
 4753000   0.48191072   -8.2087403    769.18926  0.013486031  0.012014673            8 
 4754000    0.4790091   -8.2084532    769.20252  0.013483427   0.01201084            9 
 4755000   0.48589474   -8.2209514    769.12184  0.013479177  0.012007008            9 
 4756000   0.47511905   -8.2101854    769.91475  0.013490236  0.012003176            9 
 4757000   0.48430133   -8.2134236    768.32969  0.013459633  0.011999348            7 
 4758000   0.48465482   -8.2131567    768.95915  0.013467829  0.011995523           10 
 4759000   0.49073298   -8.2141821      769.073  0.013466992  0.011991694            9 
 4760000   0.48590023   -8.2129412    770.16663  0.013483309  0.011987871           12 
 4761000   0.48669501   -8.1985429    769.43638  0.013467696  0.011984047            8 
 4762000   0.49019223    -8.222322    769.12737   0.01345946  0.011980228            4 
 4763000   0.48888214   -8.2056351    768.63261  0.013447978  0.011976407            7 
 4764000   0.48576183   -8.1927604    768.66797  0.013445773   0.01197259            7 
 4765000   0.49442041   -8.2201472    768.40023  0.013438269  0.011968778            5 
 4766000   0.48969846    -8.214019    769.09786  0.013447648  0.011964965            9 
 4767000   0.49923792    -8.214383    769.13217  0.013445426  0.011961155           10 
 4768000   0.48828329   -8.2309501    768.90555  0.013438646  0.011957349            7 
 4769000   0.49431013   -8.2227623    768.89662  0.013435672  0.011953539            7 
 4770000   0.49135043   -8.2290661    769.57487  0.013444704   0.01194973            9 
 4771000   0.47836633   -8.2148132    768.22162   0.01341825  0.011945921            9 
 4772000   0.49026401   -8.2131806    768.96979  0.013428503  0.011942115           11 
 4773000   0.49697224   -8.2100473    768.84844  0.013423571  0.011938312           11 
 4774000   0.48652082   -8.2365673     769.8309  0.013437908  0.011934508            7 
 4775000   0.49376274   -8.2403446     768.6086  0.013413763  0.011930707            9 
 4776000   0.47790506   -8.2188179     769.8875  0.013433269  0.011926906           18 
 4777000   0.47711372   -8.2350857    769.11555   0.01341699  0.011923106            7 
 4778000   0.48368199    -8.221565    769.40752  0.013419274  0.011919308            6 
 4779000   0.48264301   -8.2255443    769.26969  0.013414063  0.011915513           15 
 4780000   0.48520091   -8.2281628     768.8151  0.013403332  0.011911719            7 
 4781000   0.48344985   -8.2325028    769.25721  0.013408234  0.011907925            5 
 4782000   0.47996908    -8.220528    769.16016  0.013403739  0.011904137           13 
 4783000    0.4819087   -8.2346933    768.96006   0.01339745  0.011900344           10 
 4784000   0.48734325   -8.2159415    767.96071  0.013377242  0.011896553            6 
 4785000   0.49708415   -8.2338833    769.78539  0.013406224  0.011892763            8 
 4786000   0.48792414    -8.223465    768.35873  0.013378582  0.011888977            7 
 4787000   0.48117374     -8.21018    769.34636   0.01339298  0.011885195            7 
 4788000   0.49349109    -8.206565    770.40337   0.01340858  0.011881414            9 
 4789000   0.49324005   -8.2289646    768.95303  0.013380543  0.011877633           11 
 4790000   0.48470697    -8.217064    768.90082  0.013376841  0.011873853            7 
 4791000   0.49532509   -8.2314358    770.18232  0.013396339  0.011870076            6 
 4792000   0.49343945   -8.2197275    768.85174  0.013370404  0.011866298           12 
 4793000   0.48193017   -8.2169992    769.22814  0.013374159  0.011862524           10 
 4794000   0.48814527    -8.216312    769.71548  0.013379841  0.011858755           12 
 4795000   0.48612316   -8.2212226       769.31  0.013370003  0.011854982           10 
 4796000   0.48909326   -8.2415003    769.81923  0.013376064  0.011851211           10 
 4797000   0.47262948   -8.2093813    768.90635  0.013357417  0.011847443           10 
 4798000   0.49084688   -8.2208111    768.42084    0.0133462  0.011843674            8 
 4799000   0.48606546   -8.2146211     769.4722  0.013361676  0.011839911           12 
 4800000   0.47463471   -8.2343432     768.6606  0.013344802   0.01183615            6 
 4801000   0.49136845   -8.2271093    768.74796  0.013343539  0.011832384            5 
 4802000   0.48453408    -8.233864    768.69468  0.013339835   0.01182862           13 
 4803000   0.49387347    -8.222063    769.03553  0.013342972  0.011824858           12 
 4804000   0.48182688   -8.2305439    770.33081  0.013362663  0.011821096            8 
 4805000   0.48251632    -8.217242    768.54866  0.013328974  0.011817334            8 
 4806000   0.47858759   -8.2315945     769.0169   0.01333432  0.011813575            9 
 4807000   0.49021713   -8.2450829    767.31556  0.013302052  0.011809817            8 
 4808000   0.49274684   -8.2231499    769.41022   0.01333559  0.011806062           13 
 4809000   0.49492516   -8.2376098    768.69113  0.013320356  0.011802309            7 
 4810000   0.47773641   -8.2283935     767.9143  0.013304128  0.011798555           12 
 4811000   0.48492015   -8.2114685    767.46138  0.013293518  0.011794802            9 
 4812000   0.47380596   -8.2282727    768.30292  0.013305329  0.011791053            8 
 4813000   0.49053641   -8.2304308     770.2665  0.013336563  0.011787305            7 
 4814000   0.48926853   -8.2290412    768.15842    0.0132973  0.011783562            9 
 4815000   0.47510852    -8.222043    769.02932  0.013309611  0.011779817            7 
 4816000   0.49985316    -8.234124    769.43929  0.013313941  0.011776076            7 
 4817000   0.48246058     -8.22475    768.20736  0.013289865  0.011772333            5 
 4818000   0.48742732   -8.2223688    767.91427  0.013282037  0.011768595            6 
 4819000   0.48633157   -8.2255527    768.11457  0.013282745  0.011764856            7 
 4820000   0.47164418   -8.2219529    767.98609  0.013277768  0.011761117           12 
 4821000   0.47696313   -8.2198981    768.05687  0.013276237   0.01175738           13 
 4822000   0.48160266   -8.2386926    769.01073  0.013289968  0.011753647           10 
 4823000   0.47247255   -8.2301747    768.48804  0.013278182   0.01174991           11 
 4824000   0.48160995   -8.2385497     767.9722  0.013266518  0.011746178            8 
 4825000   0.48674248   -8.2302763    767.32812  0.013252645  0.011742446            5 
 4826000   0.48921091   -8.2406063    768.44745  0.013269227  0.011738716           10 
 4827000    0.4902059   -8.2453678    768.53858  0.013268051  0.011734985            8 
 4828000   0.48451238   -8.2262683    768.23014  0.013259979  0.011731256            8 
 4829000   0.48645195   -8.2480952    768.50141  0.013261914  0.011727526            9 
 4830000   0.48750252    -8.252232    768.07753  0.013251855  0.011723803           13 
 4831000   0.47804134   -8.2279385    768.97308   0.01326456  0.011720079            8 
 4832000   0.48983794   -8.2260327    767.35835  0.013233967  0.011716354            8 
 4833000   0.48851025   -8.2329716    768.41391  0.013249429  0.011712632            7 
 4834000   0.47846163   -8.2317031    768.11566  0.013241547  0.011708913            9 
 4835000   0.47204656   -8.2359864    769.48646  0.013262435  0.011705196            6 
 4836000   0.47471467   -8.2331342    768.41101   0.01324116  0.011701485            7 
 4837000   0.46689214   -8.2225996    767.97137  0.013230848  0.011697773            5 
 4838000   0.46933915   -8.2344358    768.64098  0.013239648  0.011694061            8 
 4839000   0.47375803   -8.2505917    768.65577  0.013237166   0.01169035            8 
 4840000   0.48167066    -8.253149    768.84062  0.013237614  0.011686639            8 
 4841000   0.48072952   -8.2389856    766.77998  0.013199408  0.011682932           10 
 4842000   0.47804168   -8.2350976    769.95586   0.01325134  0.011679225            7 
 4843000   0.47487851   -8.2523271    768.23249   0.01321895  0.011675519           11 
 4844000   0.48250383   -8.2414554    768.06162  0.013213281  0.011671815            9 
 4845000   0.48269998   -8.2196302      768.032  0.013210045  0.011668109            8 
 4846000   0.47005459   -8.2407764    768.08073  0.013208157  0.011664407            6 
 4847000   0.46258082    -8.226733    767.67868  0.013198519  0.011660706            9 
 4848000   0.46849188   -8.2342045     768.6603   0.01321267  0.011657008            8 
 4849000   0.48570853   -8.2405772    768.54591  0.013207979  0.011653313           11 
 4850000    0.4694699   -8.2305663    767.37943  0.013185214  0.011649616            7 
 4851000   0.47437326   -8.2410951    769.07892   0.01321169  0.011645918           12 
 4852000   0.48010533   -8.2438374    767.31708  0.013178708  0.011642223           10 
 4853000   0.47657683   -8.2192795    767.24265  0.013174714  0.011638531           12 
 4854000   0.46791164   -8.2492071    767.45463  0.013175639  0.011634837            8 
 4855000   0.47453375   -8.2250655    767.09002  0.013166667  0.011631147            9 
 4856000   0.47125505   -8.2569181    767.44981   0.01317013  0.011627457           14 
 4857000   0.47180626   -8.2591054    768.52508  0.013185867  0.011623766            6 
 4858000   0.46839163    -8.241875    767.45598  0.013164814  0.011620078            7 
 4859000    0.4792328   -8.2588583    768.44452  0.013179058   0.01161639            8 
 4860000   0.46783825   -8.2468996    768.21687  0.013172443  0.011612706            6 
 4861000   0.48832825   -8.2460907    767.23067  0.013152826  0.011609023           10 
 4862000   0.47580408   -8.2463372     767.5279  0.013155216  0.011605343            8 
 4863000   0.47244435   -8.2489966    768.19322  0.013163911  0.011601666            7 
 4864000   0.48433874   -8.2563759    769.30246  0.013180209   0.01159799           10 
 4865000   0.47318684   -8.2451529    768.41479  0.013162295  0.011594314            7 
 4866000   0.47685833   -8.2498494    769.03489   0.01317021  0.011590639           10 
 4867000   0.47284955   -8.2429246    767.49034  0.013141058  0.011586966            9 
 4868000   0.47503915   -8.2511939    768.36079  0.013153259  0.011583293           14 
 4869000   0.46987231   -8.2434776    766.88531  0.013125305  0.011579623           10 
 4870000   0.46688929   -8.2409901    767.98452  0.013141419  0.011575955           14 
 4871000   0.46142297   -8.2572252    767.32875  0.013127502  0.011572286            8 
 4872000   0.46739379   -8.2605119    768.76077  0.013149302  0.011568616           10 
 4873000   0.47616676   -8.2458368    768.29336   0.01313861  0.011564951            6 
 4874000   0.46329694   -8.2377212     768.0936  0.013132499  0.011561288           10 
 4875000   0.47001729   -8.2465213    767.55645  0.013120623  0.011557627            8 
 4876000   0.47113886   -8.2415632    768.23606  0.013129547  0.011553964            8 
 4877000   0.46553855   -8.2327059    767.94176  0.013121826  0.011550301            9 
 4878000   0.47018418   -8.2369002    767.64949  0.013114143  0.011546641           12 
 4879000   0.47671079   -8.2317081    767.37537  0.013106773  0.011542982            8 
 4880000   0.47135769   -8.2377586    768.73355  0.013127281  0.011539327            9 
 4881000   0.45954211   -8.2389802    767.52413  0.013103943  0.011535673            6 
 4882000   0.47187873   -8.2458344    767.04128  0.013093017  0.011532022            8 
 4883000   0.47755602   -8.2462989    768.17286  0.013109647  0.011528372            8 
 4884000   0.46696437   -8.2423244    768.74769  0.013116771  0.011524724            8 
 4885000   0.47966497    -8.263652    769.06838  0.013119556  0.011521075           10 
 4886000   0.46426591   -8.2468922    767.99289  0.013098528  0.011517428            9 
 4887000   0.47403486   -8.2568359    767.91538  0.013094526  0.011513781           11 
 4888000   0.46905425   -8.2495869    767.98143  0.013092973  0.011510138           10 
 4889000   0.47394156   -8.2658914    766.58332  0.013066464  0.011506493           10 
 4890000   0.47256561   -8.2439023    767.86633  0.013085657  0.011502851           10 
 4891000   0.46657156   -8.2473962    768.72161  0.013097554   0.01149921            7 
 4892000   0.46538438   -8.2612313    769.35772  0.013105712  0.011495569            9 
 4893000   0.47212759    -8.236755    767.78898  0.013076316  0.011491931            7 
 4894000   0.47760385    -8.251743    767.43899  0.013067685  0.011488296            7 
 4895000    0.4627243   -8.2467591    767.52702  0.013066514  0.011484662            7 
 4896000   0.46802979   -8.2453511     767.3439  0.013060728  0.011481029            9 
 4897000   0.46532363   -8.2673094    766.57372  0.013044955  0.011477398           10 
 4898000   0.47045048   -8.2455677     768.1012   0.01306828  0.011473768            8 
 4899000    0.4722476   -8.2881734    768.24802  0.013068109  0.011470135            7 
 4900000   0.47117638   -8.2624299    768.54488  0.013070491  0.011466505           10 
 4901000   0.46186114   -8.2633752    768.99647  0.013075503  0.011462877           19 
 4902000   0.47822157    -8.259764    767.33597  0.013044607  0.011459251            9 
 4903000   0.47318644   -8.2660007    768.16142  0.013055976  0.011455628           17 
 4904000   0.46336395   -8.2729125    768.15184  0.013053151  0.011452006           12 
 4905000   0.46547952   -8.2603036    767.91094  0.013046397  0.011448384            8 
 4906000   0.47047004   -8.2571024    765.52913   0.01300328  0.011444764           12 
 4907000   0.45711641   -8.2542942    767.59645  0.013035739  0.011441147           13 
 4908000   0.47091309   -8.2601495    767.46799  0.013030902  0.011437529           11 
 4909000   0.46155782   -8.2498539    768.20397  0.013040741  0.011433913            8 
 4910000   0.46977884   -8.2588832    768.37046  0.013040911  0.011430299            9 
 4911000   0.46354238   -8.2620697    766.62935  0.013008711  0.011426684           11 
 4912000   0.46173435   -8.2603405    767.43715  0.013019767  0.011423071           12 
 4913000   0.46670053   -8.2732002    768.07561  0.013027946  0.011419461            8 
 4914000   0.46694265   -8.2613838    768.68672  0.013035659  0.011415852           11 
 4915000   0.46015599   -8.2540664    766.95782  0.013003693  0.011412243            8 
 4916000   0.46316556   -8.2543476    766.78277  0.012998081  0.011408635           13 
 4917000   0.47235157    -8.271137    767.59941  0.013009277  0.011405029            9 
 4918000   0.46169062   -8.2565844    766.29718  0.012984567  0.011401422           14 
 4919000   0.45938273   -8.2645076    768.40613  0.013017655  0.011397819            7 
 4920000   0.46074605   -8.2502058    768.22523  0.013011945  0.011394218            9 
 4921000   0.45834526   -8.2561829    767.98246   0.01300519  0.011390617           10 
 4922000    0.4683802   -8.2637205    767.77613  0.012999054  0.011387021           12 
 4923000   0.47208525   -8.2729598     766.8877  0.012981375  0.011383427            8 
 4924000    0.4538713   -8.2587662    767.43471  0.012987996   0.01137983           13 
 4925000   0.45684595   -8.2584424    768.59002  0.013004907  0.011376239            7 
 4926000   0.45589944   -8.2634977    766.85321  0.012972886  0.011372648           14 
 4927000   0.47124443   -8.2496787    766.75886  0.012968657  0.011369055           10 
 4928000   0.46620466   -8.2545934    766.77096   0.01296623  0.011365465            9 
 4929000   0.45674152   -8.2592133    767.58536  0.012977368  0.011361881            8 
 4930000   0.46961546   -8.2708458    766.80134  0.012961483  0.011358298            6 
 4931000   0.46222548   -8.2631389    767.27827  0.012966915  0.011354712           11 
 4932000   0.46008733   -8.2625423    766.91995  0.012958231  0.011351129            9 
 4933000   0.46670974    -8.277512     766.4566  0.012947777  0.011347546            7 
 4934000   0.46852394   -8.2756076    768.10986  0.012973076  0.011343964            6 
 4935000   0.46774707   -8.2700414    767.18136  0.012954768  0.011340383            9 
 4936000   0.46899758   -8.2522311    766.66937    0.0129435  0.011336806           10 
 4937000   0.45782564     -8.26906    767.94418  0.012962396   0.01133323            5 
 4938000   0.47588095   -8.2576843    765.76639  0.012923019  0.011329653            7 
 4939000   0.46475778   -8.2734693    767.13165  0.012943437  0.011326078            8 
 4940000   0.45923498   -8.2580061     767.8244  0.012952503  0.011322501            6 
 4941000   0.45772096   -8.2725545    768.14349  0.012955264   0.01131893            9 
 4942000   0.46065819   -8.2431381    767.35157  0.012939288  0.011315361           10 
 4943000    0.4673472   -8.2707145    767.42239  0.012937865   0.01131179            9 
 4944000   0.46156128   -8.2595691    766.77735  0.012924376  0.011308221            7 
 4945000   0.45758343   -8.2608941    767.14949  0.012928033  0.011304656            8 
 4946000   0.46759172   -8.2571802    767.24082  0.012926958  0.011301094           12 
 4947000   0.46107606    -8.269619    767.12123  0.012922331  0.011297532            9 
 4948000   0.46391393   -8.2626845    767.00923  0.012917833   0.01129397            6 
 4949000    0.4583979   -8.2725546    766.54392  0.012907387  0.011290408            9 
 4950000   0.45428089   -8.2574864    767.34298  0.012918232   0.01128685            7 
 4951000   0.46233644   -8.2577665    766.66329  0.012904183  0.011283292            4 
 4952000    0.4674246   -8.2692518    767.38029  0.012913642  0.011279735            5 
 4953000   0.45237282   -8.2738754    766.27475  0.012892435  0.011276177           13 
 4954000   0.45485044   -8.2704925    766.99056  0.012901873  0.011272624           11 
 4955000   0.47061708   -8.2532629    766.66394  0.012893776   0.01126907            5 
 4956000   0.45874538   -8.2531555    767.59797   0.01290688  0.011265522           11 
 4957000   0.45794357   -8.2745691    767.41974   0.01290128  0.011261973            7 
 4958000   0.46215655   -8.2735127     767.5368  0.012900645  0.011258428            6 
 4959000   0.46438716   -8.2566608    767.54415  0.012898167  0.011254881            8 
 4960000   0.46312315    -8.279323    767.70508  0.012898271  0.011251335            9 
 4961000   0.45824557   -8.2749713    767.84952  0.012898097  0.011247791           10 
 4962000   0.46102614   -8.2601208    768.61907  0.012908422  0.011244246            8 
 4963000   0.45543873   -8.2624435    767.75512  0.012891314  0.011240704            8 
 4964000   0.45660907   -8.2773188    767.31144  0.012881269   0.01123716            7 
 4965000   0.44833027   -8.2702805      767.465  0.012881252   0.01123362            8 
 4966000   0.45775492   -8.2848519    766.93842  0.012869822  0.011230083           10 
 4967000   0.46247101   -8.2895771    767.79366  0.012881579  0.011226542            8 
 4968000   0.45808688   -8.2764132    767.11473  0.012867598  0.011223005            9 
 4969000   0.45967235   -8.2548343    765.43308  0.012836806  0.011219472           10 
 4970000   0.45726347   -8.2693745    766.23312  0.012847638  0.011215938           15 
 4971000   0.45473356   -8.2770182    767.58017  0.012867635  0.011212406            7 
 4972000   0.45149078   -8.2801107    767.30349   0.01286041  0.011208876            4 
 4973000   0.46074414   -8.2570116    765.40469  0.012826005  0.011205346           12 
 4974000   0.45898774   -8.2642917    766.37492  0.012839682  0.011201817            9 
 4975000   0.44872072   -8.2702015    767.93899    0.0128633  0.011198291            5 
 4976000   0.45621204   -8.2604653    767.81613  0.012858657  0.011194765           14 
 4977000   0.45432483   -8.2557046    766.52094  0.012834387  0.011191243            6 
 4978000    0.4572515   -8.2750202       769.08  0.012874649  0.011187718            3 
 4979000   0.45384263   -8.2741839    766.81758  0.012834197  0.011184197           10 
 4980000   0.45364242   -8.2700055    766.64193   0.01282868  0.011180677            9 
 4981000   0.45676656   -8.2819739    766.99397  0.012831994  0.011177159            9 
 4982000   0.45763714   -8.2740674    765.98078  0.012812471   0.01117364           10 
 4983000   0.44654523    -8.280834    767.20039  0.012830296  0.011170122           11 
 4984000    0.4425022   -8.2508186    766.58045  0.012817356  0.011166608           10 
 4985000   0.45111641   -8.2778761    768.32666  0.012843976  0.011163094            6 
 4986000   0.46156822   -8.2699828    767.57745  0.012828878   0.01115958            8 
 4987000   0.45481526   -8.2717982    766.47245  0.012807841  0.011156068            7 
 4988000    0.4533854   -8.2647998    766.26842  0.012801865  0.011152556            6 
 4989000   0.45335627   -8.2870729    767.34475  0.012817277  0.011149047            7 
 4990000   0.45012531   -8.2897415    766.95823  0.012808254   0.01114554            7 
 4991000   0.46104778   -8.2933909    766.72153  0.012801735  0.011142034            6 
 4992000   0.46550134   -8.2742713    767.36692  0.012809945  0.011138529            6 
 4993000   0.45237305   -8.2732848    766.02096  0.012784915  0.011135029           13 
 4994000   0.45105632   -8.2799504    766.58251  0.012791725  0.011131527            6 
 4995000   0.45967033   -8.2817339    766.87126  0.012793982   0.01112803            7 
 4996000   0.45690719   -8.2985207    767.20502  0.012796988  0.011124531           10 
 4997000   0.45962687   -8.2790523    767.36362  0.012797072  0.011121035            6 
 4998000   0.44946563   -8.2877552    767.25312  0.012792669  0.011117541            8 
 4999000   0.45063878   -8.2751848     766.8702  0.012783727  0.011114047            6 
 5000000    0.4397607   -8.2920091    766.35448  0.012772575  0.011110553            9 
 5001000   0.45254264   -8.2776044    766.58511  0.012773864  0.011107059            7 
 5002000   0.44357272   -8.2826113    766.16856   0.01276437  0.011103567           10 
 5003000   0.45322961   -8.2747423    767.10112  0.012777352  0.011100078            8 
 5004000   0.45883089   -8.2779206    765.57226  0.012749338  0.011096587            8 
 5005000   0.45313074   -8.2816427    766.97856  0.012770206  0.011093098            7 
 5006000   0.44888438   -8.2903223    766.76346  0.012764074  0.011089611            7 
 5007000   0.44230659   -8.2864818    765.90828  0.012747292  0.011086124           10 
 5008000   0.45347446   -8.2842707    766.23585  0.012750197   0.01108264            5 
 5009000   0.44103992   -8.2767874    766.87173  0.012758231   0.01107916            9 
 5010000   0.45589301   -8.2980023    766.82273  0.012754869  0.011075678            6 
 5011000   0.44508497    -8.281267    766.31048  0.012743805    0.0110722            8 
 5012000   0.45219975    -8.289629    767.15035  0.012755227   0.01106872            8 
Loop time of 11611.2 on 48 procs for 5000000 steps with 4000 atoms

Performance: 74410.930 tau/day, 430.619 timesteps/s
99.4% CPU use with 48 MPI tasks x no OpenMP threads

MPI task timing breakdown:
Section |  min time  |  avg time  |  max time  |%varavg| %total
---------------------------------------------------------------
Pair    | 717.99     | 771.89     | 813.21     |  81.7 |  6.65
Neigh   | 73.854     | 77.298     | 80.563     |  18.5 |  0.67
Comm    | 695.35     | 744.25     | 805.45     |  98.4 |  6.41
Output  | 29.338     | 29.342     | 29.415     |   0.2 |  0.25
Modify  | 9864.9     | 9881.6     | 9910.1     |  10.2 | 85.10
Other   |            | 106.8      |            |       |  0.92

Nlocal:        83.3333 ave          92 max          77 min
Histogram: 8 1 3 4 14 6 9 1 1 1
Nghost:        1936.85 ave        1951 max        1924 min
Histogram: 1 3 5 11 11 6 2 4 3 2
Neighs:        12313.5 ave       14458 max       10456 min
Histogram: 2 4 6 4 8 10 12 1 0 1
FullNghs:      24626.9 ave       27833 max       22443 min
Histogram: 8 2 4 7 11 8 6 1 0 1

Total # of neighbors = 1182091
Ave neighs/atom = 295.52275
Neighbor list builds = 268387
Dangerous builds = 0

#clear
#
#next RN
#
#jump SELF
Total wall time: 3:13:34
