
units lj                  # Use reduced LJ style units
atom_style atomic         # Uncharged point particles
atom_modify map hash      # Needed for indexing of clusters etc
                          # Used to be able to find where atoms are in relation to each other.

lattice fcc 1.0 spacing 1 1 1
Lattice spacing in x,y,z = 1.5874011 1.5874011 1.5874011
region box block 0 10 0 10 0 10 units lattice
create_box 2 box
Created orthogonal box = (0.0000000 0.0000000 0.0000000) to (15.874011 15.874011 15.874011)
  3 by 4 by 4 MPI processor grid
create_atoms 1 box
Created 4000 atoms
  using lattice units in orthogonal box = (0.0000000 0.0000000 0.0000000) to (15.874011 15.874011 15.874011)
  create_atoms CPU = 0.015 seconds
set type 1 type/fraction 2 0.67 78393
Setting atom values ...
  2693 settings made for type/fraction
mass 1 1.0
mass 2 1.0
pair_style lj/cut  3.5
pair_modify tail  yes
pair_coeff 1  1  1.0  1.0   # Intearaction between 1 and 1 set with epsilon = 1 and sigma = 1
pair_coeff 1  2  1.5  0.8
pair_coeff 2  2  0.5  0.88

write_data data.0
System init for write_data ...
Neighbor list info ...
  update every 1 steps, delay 10 steps, check yes
  max neighbors/atom: 2000, page size: 100000
  master list distance cutoff = 3.8
  ghost atom cutoff = 3.8
  binsize = 1.9, bins = 9 9 9
  1 neighbor lists, perpetual/occasional/extra = 1 0 0
  (1) pair lj/cut, perpetual
      attributes: half, newton on
      pair build: half/bin/atomonly/newton
      stencil: half/bin/3d
      bin: standard
WARNING: Not all mixed pair coeffs generated from mixing. Use write_data with 'pair ij' option to store all pair coeffs. (../write_data.cpp:312)


#############################
#   M E L T   S Y S T E M   #
#############################

velocity all create 2.4 6229865 mom yes dist gaussian # Assign velocities
                                                    # Temperature 2.4, random number seed, zero linear momentum
                                                                                # Gaussian distribution

timestep 0.002   # simulation timestep
thermo 1000       # output thermodynamic data every 1000 steps bf 100

# Define a fix  in this case with index 1 applied to all
# particles in the simulation. This fix is for simulations
# in the anisotropic NPT ensemble. Note that we use the MTK
# correction.
fix 1 all npt temp 2.4 2.4 0.1 iso 5.68 5.68 0.5 mtk yes tchain 5 pchain 5 # Use NPT ensemble
                                                                         # Set temperature and pressure and damping
                                                                         # Numbers of thermostats in chain and in barostat
run 10000          # run for 10000 steps
Per MPI rank memory allocation (min/avg/max) = 3.642 | 3.644 | 3.648 Mbytes
Step Temp E_pair E_mol TotEng Press Volume 
       0          2.4   -4.3445498            0  -0.74544977   -3.8717164         4000 
    1000    2.4366784   -4.1205173            0  -0.46641345    5.4063264    3600.8637 
    2000    2.3770764    -3.972827            0  -0.40810389    5.4729125    3665.7669 
    3000    2.3880016   -4.0127981            0   -0.4316912    5.6873962    3636.2514 
    4000    2.4372912     -3.98124            0  -0.32621728    6.3106055    3595.1594 
    5000    2.3654642   -4.0126917            0  -0.46538245    5.3713156    3659.2213 
    6000    2.3933793   -4.0755961            0  -0.48642459    5.8151792    3594.6096 
    7000    2.4255372    -3.976564            0  -0.33916775    5.9055209    3633.9963 
    8000     2.354699   -4.0495433            0  -0.51837777    5.3109346    3643.0752 
    9000     2.375104   -4.0440619            0  -0.48229659    5.4519119    3636.3205 
   10000    2.4166331   -4.0273807            0  -0.40333726    5.9563679    3606.5731 
Loop time of 2.67996 on 48 procs for 10000 steps with 4000 atoms

Performance: 644786.640 tau/day, 3731.404 timesteps/s
99.6% CPU use with 48 MPI tasks x no OpenMP threads

MPI task timing breakdown:
Section |  min time  |  avg time  |  max time  |%varavg| %total
---------------------------------------------------------------
Pair    | 1.1953     | 1.2671     | 1.4265     |   4.3 | 47.28
Neigh   | 0.21529    | 0.22485    | 0.25355    |   1.5 |  8.39
Comm    | 0.75764    | 0.9162     | 1.0046     |   5.7 | 34.19
Output  | 0.00024474 | 0.00024914 | 0.00031703 |   0.0 |  0.01
Modify  | 0.19494    | 0.25628    | 0.33854    |   8.1 |  9.56
Other   |            | 0.01529    |            |       |  0.57

Nlocal:        83.3333 ave          93 max          71 min
Histogram: 2 1 0 6 8 15 6 1 5 4
Nghost:        1756.85 ave        1801 max        1720 min
Histogram: 4 4 7 5 10 5 3 5 2 3
Neighs:        10600.1 ave       12161 max        8639 min
Histogram: 2 1 3 5 5 9 13 4 3 3

Total # of neighbors = 508807
Ave neighs/atom = 127.20175
Neighbor list builds = 910
Dangerous builds = 228

# Equilibrate just above the melting temperature to avoid step fn in T

fix 1 all npt temp 1.25 1.25 0.1 iso 5.68 5.68 0.5 mtk yes tchain 5 pchain 5
run 2000
Per MPI rank memory allocation (min/avg/max) = 3.644 | 3.646 | 3.649 Mbytes
Step Temp E_pair E_mol TotEng Press Volume 
   10000    2.4166331   -4.0273807            0  -0.40333726    5.9563679    3606.5731 
   11000    1.2622062   -5.9285487            0   -4.0357127    5.5354965    2779.2845 
   12000    1.2699056   -5.9468261            0   -4.0424439    5.2909881    2779.9959 
Loop time of 0.666266 on 48 procs for 2000 steps with 4000 atoms

Performance: 518711.970 tau/day, 3001.805 timesteps/s
99.7% CPU use with 48 MPI tasks x no OpenMP threads

MPI task timing breakdown:
Section |  min time  |  avg time  |  max time  |%varavg| %total
---------------------------------------------------------------
Pair    | 0.29503    | 0.32189    | 0.38871    |   3.0 | 48.31
Neigh   | 0.040843   | 0.043511   | 0.051502   |   0.9 |  6.53
Comm    | 0.18288    | 0.25359    | 0.2856     |   3.8 | 38.06
Output  | 6.4647e-05 | 6.5593e-05 | 7.9965e-05 |   0.0 |  0.01
Modify  | 0.035935   | 0.042489   | 0.049461   |   2.1 |  6.38
Other   |            | 0.004726   |            |       |  0.71

Nlocal:        83.3333 ave          91 max          76 min
Histogram: 1 2 9 2 11 6 9 3 2 3
Nghost:        2101.38 ave        2118 max        2085 min
Histogram: 1 2 5 9 8 9 7 3 2 2
Neighs:        13745.3 ave       15359 max       12581 min
Histogram: 6 8 4 7 4 3 6 5 4 1

Total # of neighbors = 659774
Ave neighs/atom = 164.94350
Neighbor list builds = 143
Dangerous builds = 10

#############################
# L I N E A R  Q U E N C H  #
#############################

# Define solid atoms. This closely follows ten Wolde  Ruiz-Montero and Frenkel  Faraday Discuss  1996  104  93-110
# Compute components of the per-atom q6 vector
compute q6 all orientorder/atom degrees 1 6 components 6 nnn NULL cutoff 1.3 # compute the Q6 parameter.
                                                                             # Use all neighbours within 1.3 unit cell.

# get number of connections
compute coord_number all coord/atom orientorder q6 0.5

# An atom is solid if it has 8 or more connections (of a possible 14)
variable is_solid atom c_coord_number>=8
group solid dynamic all var is_solid    # Must be dynamic to update
dynamic group solid defined

# do clustering
compute cluster solid cluster/atom 1.3 # Create a cluster where all atoms within are solid and max 1.3 units from another member

# define chunks one chunk per cluster
compute clus_chunks solid chunk/atom c_cluster nchunk every compress yes  # Says which atoms are in which chunk

# count the size of each chunk
compute size_chunks solid property/chunk clus_chunks count


# Find the maximum entry in the vector of chunk sizes
variable max_n equal max(c_size_chunks)


# Thermo style which includes this variable
# thermo_style custom step temp pe vol v_max_n

thermo ${N}  # Print the thermo information every 100 steps
thermo 1000  

# Reset the npt fix at a lower temperature (below freezing)
fix 1  all npt temp  ${temp} ${temp}  0.1  iso  5.68  5.68  0.5  mtk yes tchain  5  pchain  5
fix 1  all npt temp  0.45 ${temp}  0.1  iso  5.68  5.68  0.5  mtk yes tchain  5  pchain  5
fix 1  all npt temp  0.45 0.45  0.1  iso  5.68  5.68  0.5  mtk yes tchain  5  pchain  5

dump dmp2 all dcd ${N} traj.dcd
dump dmp2 all dcd 1000 traj.dcd


compute msd all msd com yes
variable twopoint equal c_msd[4]/6/(step*dt+1.0e-6)
fix 9 all vector 10 c_msd[4]
variable fit equal slope(f_9)/6/(10*dt)
thermo_style custom step temp pe c_msd[4] v_twopoint v_fit v_max_n

fix 1 all npt temp 1.25 ${temp} 0.1 iso 5.68 5.68 0.5 mtk yes tchain 5 pchain 5
fix 1 all npt temp 1.25 0.45 0.1 iso 5.68 5.68 0.5 mtk yes tchain 5 pchain 5
run 500000 # 5000000  # Run for this many steps
Neighbor list info ...
  update every 1 steps, delay 10 steps, check yes
  max neighbors/atom: 2000, page size: 100000
  master list distance cutoff = 3.8
  ghost atom cutoff = 3.8
  binsize = 1.9, bins = 8 8 8
  4 neighbor lists, perpetual/occasional/extra = 1 3 0
  (1) pair lj/cut, perpetual
      attributes: half, newton on
      pair build: half/bin/atomonly/newton
      stencil: half/bin/3d
      bin: standard
  (2) compute orientorder/atom, occasional
      attributes: full, newton on
      pair build: full/bin/atomonly
      stencil: full/bin/3d
      bin: standard
  (3) compute coord/atom, occasional
      attributes: full, newton on
      pair build: full/bin/atomonly
      stencil: full/bin/3d
      bin: standard
  (4) compute cluster/atom, occasional
      attributes: full, newton on
      pair build: full/bin/atomonly
      stencil: full/bin/3d
      bin: standard
Per MPI rank memory allocation (min/avg/max) = 9.845 | 9.849 | 9.853 Mbytes
Step Temp PotEng c_msd[4] v_twopoint v_fit v_max_n 
   12000    1.2699056   -5.9468261 2.1251913e-30 1.4758272e-32 8.3333333e+20            2 
   13000     1.244171   -5.9965168   0.56981586 0.0036526656  0.047081109            1 
   14000    1.2509975    -5.997834    1.0663376 0.0063472473  0.044349037            1 
   15000    1.2566543   -6.0010603    1.6032942 0.0089071896  0.043498812            2 
   16000     1.226973   -5.9864502    2.1251222  0.011068344   0.04341741            3 
   17000    1.2503349   -6.0046646    2.6939998  0.013205881  0.043890873            2 
   18000    1.2534059   -5.9562362    3.2716875  0.015146701  0.044586679            3 
   19000    1.2312248   -6.0329116    3.8059141  0.016692605  0.045011082            2 
   20000    1.2543338   -5.9960558    4.3172891  0.017988704  0.045269743            2 
   21000    1.2551932   -6.0710495    4.7973321  0.019037032   0.04505616            6 
   22000    1.2071546   -6.0284697    5.3357165  0.020211047  0.044872403            3 
   23000     1.213773   -6.0289588    5.8684919  0.021262651  0.044593318            2 
   24000    1.2260898   -6.0433547    6.4887025  0.022530216  0.044652731            2 
   25000    1.2158515   -6.0496735     7.011011  0.023370036  0.044827661            4 
   26000    1.2370148   -6.0544953    7.4656266   0.02392829  0.044771747            2 
   27000    1.2290631   -6.0731498    7.9995146  0.024689859     0.044638            2 
   28000    1.2781592   -6.0278891    8.5527661  0.025454661  0.044554285            1 
   29000    1.2094616   -6.0471361    9.0063977  0.025880453  0.044446612            2 
   30000    1.1964041   -6.0751608    9.5136324  0.026426756  0.044327007            4 
   31000    1.2181808   -6.0808532    10.044764  0.027002053  0.044230088            1 
   32000    1.2031472    -6.088663    10.529679  0.027421039  0.044111769            4 
   33000    1.2199822   -6.1125809     11.10324  0.028038484  0.044048122            2 
   34000    1.2373105   -6.0877958    11.755077  0.028811463  0.044095561       -1e+20 
   35000    1.2374346   -6.0951509    12.289077  0.029259706   0.04418222            3 
   36000    1.2035807   -6.0604349    12.687593  0.029369427  0.044141442            3 
   37000    1.2120275    -6.100555    13.070058  0.029437067  0.044012842            6 
   38000    1.2146087   -6.0153285    13.610268  0.029847078  0.043843724            7 
   39000    1.2105023   -6.1082691    14.104279  0.030137347  0.043729015            2 
   40000    1.2066315   -6.1226318    14.596081  0.030408501  0.043602247            2 
   41000     1.187149   -6.1003685    15.148002  0.030788621  0.043522126            4 
   42000    1.2098602   -6.1051273     15.69683  0.031144503   0.04347635            2 
   43000    1.1990692   -6.1160792    16.308905  0.031606406  0.043460161            2 
   44000    1.2067777   -6.0904449    16.869565  0.031949934  0.043467754            3 
   45000    1.1843769   -6.0652458    17.389211  0.032202242  0.043489569            2 
   46000    1.1976386   -6.1192625    17.828019  0.032297135  0.043491853            4 
   47000    1.1840135   -6.0975739     18.27334   0.03239954  0.043454942            2 
   48000      1.19534   -6.1236697    18.775278  0.032595969  0.043420736            3 
   49000    1.2017437   -6.1327753    19.127305  0.032529431  0.043338742            3 
   50000    1.2066499   -6.1285296    19.536061  0.032560101  0.043224234            2 
   51000     1.168658   -6.1812985    19.983964  0.032653535  0.043106541            4 
   52000    1.1747379   -6.1577566    20.586209  0.032990719  0.043003096            5 
   53000    1.1780571   -6.1470847    21.123022  0.033212299  0.042930275            3 
   54000    1.2015354   -6.1787795    21.404355  0.033031411  0.042854266            2 
   55000    1.1461548   -6.1536229    21.813868  0.033051314  0.042729065            3 
   56000    1.2013218   -6.1986882     22.29385  0.033175372  0.042598344            7 
   57000    1.1909993   -6.1723865    22.763145  0.033279451  0.042482018            5 
   58000    1.1739067   -6.1857081    23.194863  0.033325953  0.042366785            3 
   59000    1.1875993     -6.13128    23.804276  0.033621859  0.042276975            2 
   60000     1.198865   -6.1758724    24.291951   0.03373882  0.042188397            4 
   61000    1.1809956   -6.1483507    24.838924  0.033932956  0.042118467            3 
   62000    1.1765965   -6.2052143    25.281607  0.033980655   0.04205322            2 
   63000    1.1519474   -6.1489101    26.042801  0.034448149  0.042021751            1 
   64000    1.1751422   -6.1935304    26.460974  0.034454393  0.042000884            5 
   65000    1.1565718   -6.1876086    26.976537  0.034585304   0.04197593            3 
   66000     1.162982   -6.1644314    27.323311   0.03449913  0.041952952            4 
   67000    1.1733209   -6.1914387    27.771206  0.034541301  0.041907066            4 
   68000    1.1689371   -6.2094627    28.065882  0.034394464  0.041842788            2 
   69000    1.1763368   -6.2018024    28.548387  0.034478728  0.041776471            6 
   70000    1.1493644    -6.204166    29.175459  0.034732689  0.041714244            7 
   71000    1.1655428   -6.1647684    29.719965  0.034882588  0.041675473            2 
   72000    1.1555376   -6.1759269    29.957081  0.034672547   0.04162563            3 
   73000     1.166139   -6.2032031    30.334937  0.034628923  0.041551364            7 
   74000    1.1307678   -6.2245935    30.586804  0.034444598  0.041451738            4 
   75000    1.1632891   -6.2299147    31.088794  0.034543105  0.041347577            3 
   76000    1.1463357   -6.2491965    31.355198    0.0343807  0.041241086            3 
   77000    1.1769531   -6.2241347    31.542456  0.034136857  0.041125596            2 
   78000    1.1485585   -6.2642747    31.922302  0.034105024  0.040997715            5 
   79000    1.1605098    -6.279911    32.443078  0.034222656  0.040873355            2 
   80000    1.1393139   -6.2218698    33.152861   0.03453423  0.040759687            2 
   81000     1.115148   -6.2532333    33.545859    0.0345122  0.040666465            2 
   82000    1.1253759    -6.209741    34.150354  0.034705645   0.04058638            6 
   83000    1.1545908   -6.2214224    34.563067  0.034701874  0.040518379            2 
   84000    1.1568942   -6.2671835    34.829432  0.034553008  0.040431372            4 
   85000    1.1332018   -6.2673689    35.144846  0.034455731  0.040352848            3 
   86000    1.1338696   -6.2962475    35.603427  0.034499445  0.040264683            2 
   87000    1.1407826   -6.2756776     36.06208  0.034542222  0.040173521            7 
   88000    1.1304674   -6.2564436    36.453273  0.034520145  0.040087997            3 
   89000    1.1609439   -6.3162085    36.670697  0.034335859  0.039995462            4 
   90000    1.1315515   -6.2823386    37.422743  0.034650688  0.039915964            3 
   91000    1.1419434    -6.291352    38.028406  0.034824548  0.039844798            1 
   92000    1.1130482   -6.3279123    38.055377   0.03447045  0.039776327            3 
   93000    1.1414368   -6.3056201     38.61922  0.034605036   0.03969777            6 
   94000    1.1122213   -6.2737256    39.058834  0.034626626  0.039622344            1 
   95000    1.1196187   -6.2580616    39.504321  0.034652913  0.039546484            3 
   96000    1.0916917   -6.3430666    39.868547  0.034608114  0.039475042            4 
   97000    1.0817269   -6.2803916    40.272956  0.034598759  0.039406675            2 
   98000    1.1363481   -6.2982904     40.59622  0.034520595  0.039336608            3 
   99000    1.1053986   -6.2740745    41.188078    0.0346701  0.039264554            6 
  100000    1.1148509   -6.2990264     41.28275  0.034402291  0.039186377            3 
  101000     1.111021   -6.3026392    41.639571  0.034356081   0.03909942            4 
  102000    1.1057714   -6.3677348     41.95275  0.034275123  0.039011235            4 
  103000    1.0991165     -6.37028    42.295454  0.034219623  0.038929861            3 
  104000    1.0853258   -6.3224202    42.718878   0.03422987  0.038841735            3 
  105000    1.1081396   -6.3578172    42.998313  0.034125645  0.038752395            5 
  106000    1.0936371   -6.3186302    43.612072   0.03428622  0.038662243            5 
  107000    1.1002122   -6.3505048    43.686399  0.034023675  0.038574237            6 
  108000    1.0777108   -6.3446238    44.250401  0.034143828  0.038491412            3 
  109000    1.1270214   -6.3509912    44.456725  0.033988322  0.038398522            3 
  110000    1.0999551   -6.3583678    44.678326  0.033847217  0.038300398            2 
  111000    1.1117225   -6.3395725    44.991428  0.033777348  0.038197447            4 
  112000     1.089278   -6.3884753    45.205702  0.033635195  0.038096656            3 
  113000    1.0868001   -6.3545199    45.616095  0.033640188  0.037990897            3 
  114000    1.0859685   -6.3813467    45.630172  0.033355389  0.037883143            5 
  115000    1.1104732   -6.4050025    45.798986  0.033187671  0.037768975            3 
  116000    1.0930133   -6.3931893    46.243436  0.033220859  0.037654982            3 
  117000     1.097017   -6.3902893    46.671778  0.033242007  0.037546437            3 
  118000    1.0683327   -6.3767343    47.122684  0.033278732   0.03744216            6 
  119000    1.0697916   -6.3939111    47.392009  0.033187681  0.037336711            3 
  120000    1.0731797   -6.4014444    47.812105   0.03320285  0.037227169            2 
  121000    1.0495274   -6.3879793    48.024908  0.033075005  0.037120204            2 
  122000    1.0905161   -6.3912707    48.597735  0.033195174  0.037022741            2 
  123000    1.0747754   -6.3915764    48.905785     0.033134   0.03693055            3 
  124000    1.0743982   -6.4431846    49.099103  0.032996709  0.036835338            7 
  125000    1.0672019   -6.4435747     49.28108  0.032854053  0.036729934            4 
  126000    1.0691171   -6.3962631    49.720277  0.032883781  0.036630532            3 
  127000    1.0816202   -6.4181302    49.964027  0.032784794  0.036529562            5 
  128000    1.0459695   -6.4193801    50.299465  0.032747047  0.036427606            4 
  129000    1.0398407   -6.4024379    50.551356  0.032655915   0.03632551            5 
  130000    1.0486504   -6.4126138    50.827564  0.032581772   0.03622182            3 
  131000    1.0652438    -6.431085    51.051457  0.032475482  0.036115422            4 
  132000    1.0533825   -6.4252989    51.551856  0.032545364  0.036018007            5 
  133000    1.0903873   -6.4769434    51.819892  0.032468604  0.035922425            3 
  134000    1.0658494   -6.4587919     51.86705  0.032255628  0.035825205            2 
  135000    1.0495111   -6.4325741    52.502219  0.032408777  0.035724304            4 
  136000    1.0416158   -6.4466632     52.83541  0.032374638  0.035631038            3 
  137000    1.0326741   -6.4557227    53.229357  0.032377954  0.035536336            4 
  138000    1.0391642    -6.470745    53.419019  0.032257862  0.035443478            4 
  139000    1.0195203   -6.4810062     53.64989  0.032164203  0.035347461            3 
  140000    1.0423643   -6.5078498    53.730263    0.0319823  0.035249944            7 
  141000    1.0799855   -6.4619933    54.091523  0.031968985  0.035151419            3 
  142000    1.0421844   -6.4551236    54.428658  0.031941701  0.035053427            3 
  143000    1.0378057   -6.4853386    54.532679   0.03177895  0.034955922           11 
  144000     1.051453   -6.4982227    54.885931  0.031762691  0.034859991            9 
  145000    1.0281788   -6.4753146    55.229625  0.031741164  0.034765149            2 
  146000    1.0476616   -6.5027837    55.514579  0.031686403  0.034672817            5 
  147000    1.0381779   -6.4757986    55.998205  0.031745014  0.034582995            5 
  148000    1.0366331   -6.5244777    56.339747  0.031722831  0.034493329            2 
  149000    1.0131252   -6.5034122    56.528515    0.0316155  0.034404396            3 
  150000    1.0320597   -6.5053632    56.923524   0.03162418  0.034314207            6 
  151000    1.0330873   -6.5173947    57.151382  0.031540498   0.03422566            3 
  152000    1.0284238   -6.5290457    57.470214  0.031507793  0.034139643            4 
  153000    1.0157529   -6.5360357    57.673943  0.031412823  0.034053962            6 
  154000    1.0024608   -6.5253019     57.82802  0.031292219  0.033967502            3 
  155000    1.0181656   -6.5280279    58.210458  0.031295945  0.033878921            6 
  156000     1.032149   -6.5234285    58.464184  0.031230867   0.03379317            4 
  157000    0.9933039   -6.5698533    58.568167  0.031087137   0.03370704            4 
  158000    1.0281411   -6.5414838    59.033856     0.031136  0.033621983            2 
  159000    0.9959714   -6.5527616     59.45347  0.031160099  0.033537353            2 
  160000    1.0250557     -6.57754    59.539283  0.031010043  0.033453631            4 
  161000   0.99572374   -6.5888988    59.810867  0.030958006  0.033368379            2 
  162000    1.0093263   -6.5456971    60.057143  0.030893592  0.033282574            7 
  163000    1.0251521    -6.559339     60.25493  0.030805179  0.033197287            5 
  164000   0.99123126   -6.5466686    60.560109  0.030772413  0.033109794            4 
  165000    1.0055908   -6.5532198    60.684623  0.030648799    0.0330254           10 
  166000    1.0020253   -6.6095948    60.997805  0.030621388  0.032940561            4 
  167000   0.98852946    -6.550777    61.290717   0.03058419  0.032856001            3 
  168000    1.0083943   -6.5821634    61.436613   0.03047451  0.032771793            4 
  169000   0.98141484   -6.5933974    61.617876  0.030383568  0.032683954            3 
  170000   0.99511233     -6.58984    61.813295  0.030300635  0.032594993            2 
  171000   0.98163652   -6.5877842    61.980044    0.0302047   0.03250512            2 
  172000    0.9866799   -6.6534877    61.794186  0.029939044   0.03241487            4 
  173000   0.98976742   -6.6107052    62.466601  0.030089885  0.032323103           10 
  174000   0.97439489    -6.669511    62.495805  0.029930941  0.032232591            2 
  175000   0.98832987     -6.60732    62.782445  0.029896402  0.032141705           14 
  176000   0.98467766   -6.6283488    63.008215  0.029833435  0.032050082            6 
  177000    1.0040075   -6.6271492     63.02036  0.029670603  0.031957769            3 
  178000   0.98651553   -6.6645817    63.033287  0.029509966  0.031863015            3 
  179000   0.98644559   -6.6664123    63.244773  0.029443563  0.031767361            7 
  180000   0.97434245   -6.6426687    63.703379  0.029492305  0.031672489            2 
  181000    0.9727118   -6.6612579    63.691979  0.029324115  0.031579793            5 
  182000   0.98389803   -6.6575863    63.848103  0.029234479  0.031483834            3 
  183000   0.97247957   -6.6262492     64.01243  0.029149558  0.031386717            3 
  184000   0.98016067   -6.6542748    64.237726  0.029093173  0.031289952            6 
  185000   0.97945119   -6.6885791    64.304054   0.02896579  0.031192528           10 
  186000   0.97148295   -6.6531634    64.564432  0.028926717  0.031097116            9 
  187000   0.96550477   -6.6570165    64.605826  0.028790475  0.031001103            4 
  188000   0.98093527   -6.6898229    64.871803  0.028755232  0.030904168            6 
  189000   0.97197509   -6.6893117    65.170565  0.028734817  0.030810311            4 
  190000   0.95815178   -6.6672064    65.280945  0.028631993  0.030718423            5 
  191000    0.9751372   -6.7195271    65.551796   0.02860026  0.030625805            4 
  192000   0.96047018   -6.7262945    65.628012   0.02848438  0.030532996            7 
  193000   0.95828906   -6.7244746    65.809298  0.028415068  0.030438505            5 
  194000   0.96297315   -6.7155954    66.098474  0.028392815  0.030345477            5 
  195000   0.92953343   -6.6948146    66.280108  0.028324832  0.030255147            4 
  196000   0.95466257   -6.7170823    66.692552  0.028355677  0.030166172            4 
  197000   0.94582884   -6.7236277    67.181272  0.028418474  0.030080142            4 
  198000   0.94117248   -6.7058277    67.060767  0.028224229  0.029993712            4 
  199000   0.95933952    -6.734533    67.123721  0.028108761  0.029905869            7 
  200000   0.93343342   -6.7121465    67.366355  0.028069315  0.029817236            2 
  201000    0.9500353   -6.7444858    67.447515  0.027963314  0.029728349            4 
  202000   0.94244999   -6.7546378    67.585053  0.027881622  0.029639695            5 
  203000   0.92655977   -6.7446627    67.760939  0.027816478  0.029551816            4 
  204000   0.94400545   -6.7347927    68.075846   0.02780876  0.029464299            6 
  205000   0.95987449   -6.7589383    67.996194  0.027640729  0.029377219            9 
  206000   0.93826133   -6.7387763    68.321951  0.027638329  0.029288272            4 
  207000   0.93011822   -6.7426137    68.447261  0.027555258  0.029200791            6 
  208000   0.93479646   -6.7696142    68.616413   0.02749055   0.02911306            6 
  209000   0.94104891   -6.7675832     68.54518  0.027330614  0.029024919            5 
  210000   0.93739718   -6.7833344    68.917294  0.027348132  0.028936379            3 
  211000   0.92362409   -6.7800609    69.191837   0.02732695  0.028848801            6 
  212000   0.93564036   -6.7735261    69.513249   0.02732439  0.028763136            6 
  213000   0.92987602   -6.8049964    69.435483  0.027165682  0.028678308            7 
  214000    0.9299688   -6.7935022    69.764954  0.027167038    0.0285942            4 
  215000   0.94399167   -6.8180444     69.88981  0.027089073  0.028510662            4 
  216000   0.93862385   -6.7886304    70.213751  0.027088639  0.028428401            7 
  217000   0.90822219   -6.8447262     70.38082  0.027027965   0.02834615            5 
  218000   0.92664294   -6.8223517    70.543949  0.026966341  0.028265196            2 
  219000   0.92227393   -6.8236975    70.659942  0.026887344  0.028182857            5 
  220000   0.92361237   -6.8349371    70.756423  0.026801675  0.028100969            5 
  221000   0.93189878   -6.8096267     71.07057  0.026798858  0.028019771            4 
  222000   0.91000119   -6.8072653    70.918433  0.026621034  0.027938616            3 
  223000   0.89881014   -6.7938527    71.219509  0.026614166  0.027856652            7 
  224000   0.88789152   -6.8226501    71.204339  0.026489709  0.027774299            4 
  225000   0.90640148    -6.882008    71.245958  0.026387392  0.027692291            5 
  226000   0.90698484   -6.8399799    71.513075  0.026369128  0.027610234            8 
  227000   0.91066836   -6.8525614    71.590592  0.026281421  0.027527976            4 
  228000   0.88616566    -6.886155    71.579895  0.026162242  0.027446229            6 
  229000    0.9031013    -6.880988    71.655937  0.026075668  0.027363669           12 
  230000   0.90679908    -6.875765     71.79473  0.026012583  0.027280696            6 
  231000   0.90246323   -6.9000655    72.094736  0.026008202  0.027198407            8 
  232000   0.90037685   -6.8891977    72.526502  0.026051186  0.027117874            7 
  233000   0.89777738   -6.8845372    72.659417  0.025986916  0.027038418            9 
  234000   0.89132082   -6.8979216    72.608889  0.025857866  0.026958182            5 
  235000    0.8900443   -6.8933729    72.844897  0.025831524  0.026878802            5 
  236000   0.89753367   -6.8853276    72.986414  0.025772039  0.026801338            9 
  237000   0.89142545   -6.8642081    73.308384  0.025776506  0.026723632            4 
  238000    0.8907806   -6.9133991    73.240367  0.025644386  0.026646073            6 
  239000   0.88661193   -6.8864197    73.604573  0.025664077   0.02656981            5 
  240000   0.86765343   -6.9206453    73.330589   0.02546201  0.026492878            6 
  241000   0.88804771   -6.9432736     73.67704  0.025476155  0.026415907            7 
  242000   0.87119775   -6.8973271    73.898071  0.025446994  0.026339333            7 
  243000   0.88168533   -6.9064575    74.163145  0.025433177  0.026263852           10 
  244000   0.88759775   -6.8921201    74.252411   0.02535943  0.026188209            5 
  245000    0.8730021   -6.9283696    74.298225  0.025271505  0.026112624            8 
  246000   0.89192746   -6.9015217    74.321858  0.025176781  0.026036262           15 
  247000   0.87355806    -6.948903    74.562883  0.025156168  0.025961281            9 
  248000   0.87282035   -6.9504207    74.453921  0.025018119  0.025884961            3 
  249000   0.87547036   -6.9301537    74.559965  0.024953134  0.025809789            8 
  250000   0.87976532   -6.9603949    74.402974  0.024800991  0.025734084            5 
  251000   0.88446497   -6.9797105    74.704231  0.024802201  0.025657695            8 
  252000   0.86062331   -6.9505804    75.011388  0.024805353  0.025581404           12 
  253000   0.85121764    -6.929737    75.108322  0.024739236  0.025506324            5 
  254000   0.86559728   -6.9685141    74.865382  0.024562133  0.025430411            6 
  255000   0.85744361   -6.9606405     75.17994  0.024568608  0.025355006            6 
  256000   0.84425692   -6.9844882     75.18265  0.024473519  0.025279862           15 
  257000    0.8564816   -6.9829082    75.363804  0.024437031  0.025205189           10 
  258000   0.85513493   -7.0187095    75.348445  0.024337353  0.025129973            7 
  259000   0.85908082   -7.0133733    75.543503  0.024306146  0.025055184            4 
  260000   0.82919936   -7.0295347    75.606128  0.024232733  0.024979748            5 
  261000   0.84338598   -7.0301222    75.700846  0.024170129  0.024904289           13 
  262000   0.85032907   -7.0253292    75.603225  0.024046827  0.024828899           15 
  263000   0.86360864   -7.0102997    75.772825  0.024009133  0.024754056            8 
  264000   0.86403771   -7.0442926     75.87572  0.023950669  0.024679436            6 
  265000   0.86290382   -7.0179581    76.245693  0.023976633  0.024605774            6 
  266000   0.84385433   -7.0043006     76.30338  0.023904568  0.024531984            8 
  267000   0.82717738   -7.0255405    76.333443   0.02382442  0.024458639            9 
  268000   0.84062163   -7.0284344    76.572742  0.023809932  0.024385136           12 
  269000   0.84463703   -7.0725558    76.491858  0.023696362  0.024312457           14 
  270000   0.83435893   -7.0468315     76.76941  0.023694262  0.024239681            7 
  271000   0.84159554   -7.0446232    76.437785  0.023504854   0.02416736           13 
  272000   0.82557864   -7.0560435    76.612787  0.023472055   0.02409455           18 
  273000   0.84608912   -7.0413276    76.950656  0.023489211  0.024022619            5 
  274000   0.82610967   -7.0668802    76.996911  0.023417552  0.023951341            8 
  275000   0.81804932   -7.0517126    77.141723   0.02337628  0.023880253            8 
  276000   0.83472266   -7.0603413    77.249316  0.023324069  0.023809305            8 
  277000   0.83046538   -7.0581937    77.229905  0.023234027  0.023738035           15 
  278000   0.81716442   -7.0812247    77.252139  0.023157116  0.023666382            4 
  279000   0.81788252   -7.1058433    77.222395  0.023065231  0.023594506            8 
  280000   0.81816083     -7.08241     77.15631  0.022963187  0.023522454           13 
  281000   0.82284075   -7.1047177     77.38605    0.0229496  0.023450929           11 
  282000    0.8247333   -7.1128287    77.347575  0.022856848  0.023379233           16 
  283000   0.82299192   -7.0745426    77.490929  0.022818295  0.023308103            9 
  284000   0.80467911   -7.0955682    77.587127  0.022766176  0.023236737            3 
  285000   0.80857798   -7.1106311    77.841597  0.022760701  0.023165672            9 
  286000   0.79891567   -7.1199465    77.982793  0.022722259  0.023094843           17 
  287000   0.82178403   -7.1252754    77.899916  0.022619023  0.023024045           29 
  288000   0.82808874   -7.1111259    77.767533   0.02250218  0.022953559            7 
  289000   0.79291971   -7.1384395    77.894927  0.022461052  0.022883184            9 
  290000   0.80363409   -7.1334505    78.179608  0.022465405    0.0228127            8 
  291000   0.79509062   -7.1824629    78.099767   0.02236534  0.022742813            9 
  292000   0.81296849   -7.1487731    78.121375  0.022294913  0.022673231           13 
  293000    0.7982414   -7.1298172    78.445735  0.022311074  0.022604571            6 
  294000    0.8022008   -7.1675794    78.556483  0.022266577  0.022535968            8 
  295000   0.79281377    -7.151411     78.52376  0.022181853  0.022467159            9 
  296000   0.78459876   -7.1914972    78.402059  0.022072652  0.022398413            9 
  297000   0.81104424   -7.1746966    78.401736  0.021998242  0.022329579           11 
  298000   0.78082288   -7.1814095    78.320054  0.021901581  0.022260058           10 
  299000   0.79681679   -7.1826927    78.519013  0.021883783  0.022191125            8 
  300000   0.77935454   -7.1699945    78.768022  0.021880006  0.022122798            9 
  301000   0.78045224   -7.1589847    78.930543   0.02185231  0.022054692            9 
  302000   0.78289601   -7.2011576    78.672149   0.02170865  0.021986781           19 
  303000   0.77079592   -7.2179986     78.56529  0.021607615  0.021918549           14 
  304000    0.7790629     -7.20985    78.988462  0.021652539  0.021850571            8 
  305000   0.77862622   -7.2052771    78.867152  0.021548402  0.021782953           10 
  306000   0.79114204   -7.2026469    79.319199  0.021601089  0.021715762           19 
  307000   0.78378496   -7.2248964    78.957872  0.021432647  0.021648737           29 
  308000   0.78012813   -7.2124302    79.121281  0.021407273  0.021580776           17 
  309000   0.78584462   -7.1954861    79.006945  0.021307159  0.021512656            8 
  310000    0.7627081   -7.2379502    78.983795  0.021232203   0.02144462           18 
  311000   0.75530693   -7.2485061    78.753485   0.02110222  0.021376389           28 
  312000   0.77107381   -7.2569121    79.011023  0.021103371  0.021307822           21 
  313000   0.78454053   -7.2810985    78.886723  0.021002855  0.021239592            9 
  314000   0.76485286    -7.241282    78.980182   0.02096077   0.02117151           15 
  315000    0.7668101   -7.2757598    79.020982  0.020905022  0.021103157           20 
  316000   0.75060975   -7.2459639     79.21104  0.020888987  0.021034914            8 
  317000   0.76956191   -7.2672275    78.965975  0.020758668  0.020966697           15 
  318000   0.75447168   -7.3323255     78.83316  0.020658585  0.020898014           17 
  319000   0.76605275   -7.2811307    79.025824  0.020644155   0.02082975           38 
  320000   0.75701702   -7.3093364    79.034578  0.020581921  0.020761436           24 
  321000   0.74880066   -7.2873394    78.954979  0.020497139  0.020693258           21 
  322000   0.76329221   -7.3359357    78.982771  0.020440676  0.020625084           33 
  323000   0.75944915   -7.3100773    79.033344   0.02039044  0.020557401           29 
  324000   0.77105859   -7.3247562    79.052488   0.02033243  0.020489504           32 
  325000   0.75753073   -7.3051707    79.311963  0.020336401  0.020421745           47 
  326000   0.73863749   -7.3139652    79.092304  0.020217869  0.020353924           23 
  327000   0.77679099   -7.3662984    78.939109     0.020117  0.020286161           46 
  328000   0.75354422    -7.361801    79.132904  0.020104904  0.020218557           17 
  329000   0.75412245   -7.3622887     79.06258  0.020025983  0.020150956           29 
  330000   0.73755381   -7.3791122    78.932941  0.019932561  0.020083336           44 
  331000    0.7396389   -7.3704117    79.010193  0.019891791  0.020015653           36 
  332000   0.74569565   -7.3760023    79.062742  0.019845066  0.019948212           26 
  333000   0.74557151   -7.3699048    79.109231  0.019797105  0.019881023           40 
  334000   0.73542941   -7.3553286    79.177897  0.019754964  0.019814049           25 
  335000   0.74940381   -7.3844273    79.043413   0.01966254  0.019747241           36 
  336000   0.72074239   -7.3646866     79.06222  0.019608686  0.019680644           36 
  337000   0.73286233   -7.3941091    79.162082  0.019575193  0.019613998           43 
  338000    0.7278841   -7.4089131    79.066942  0.019493822  0.019547143           51 
  339000   0.71710378   -7.3846589    79.088601  0.019441642  0.019480741           28 
  340000   0.72297503   -7.4044915    78.938714  0.019347724  0.019414183           30 
  341000   0.72267185   -7.3671277    79.064326  0.019321683  0.019347644           50 
  342000   0.71350574   -7.3904718    78.868183  0.019217394  0.019281113           48 
  343000    0.7184406   -7.4266627      79.0122  0.019196356  0.019214619           36 
  344000   0.73597564   -7.4073164    78.764201  0.019080475  0.019148584           21 
  345000   0.72122306   -7.4098966    79.075257  0.019100304  0.019082384           58 
  346000   0.71903139   -7.4355366    78.859389  0.018993109  0.019016527           39 
  347000   0.71662367   -7.4178977    78.864746   0.01893966  0.018950513            9 
  348000   0.72482327   -7.4555268    78.836051  0.018878365  0.018884796           32 
  349000   0.71322139   -7.4166237    79.045454  0.018874273  0.018819272           56 
  350000   0.71828302   -7.4306343    78.953797  0.018798523  0.018753879           22 
  351000   0.71598658   -7.4340544    78.901642  0.018732584  0.018688436           34 
  352000   0.69832232   -7.4396191    78.849109  0.018666929  0.018623175           37 
  353000   0.71943223   -7.4641323    78.961993  0.018640697  0.018557856           31 
  354000    0.7211435   -7.4364615    78.958243  0.018587157  0.018493116           52 
  355000   0.70694769    -7.462942    79.030092  0.018551665  0.018428698           19 
  356000   0.70016563    -7.460704    78.593335  0.018397316  0.018363829           19 
  357000   0.69894793    -7.479521    78.652571   0.01835961  0.018299035           19 
  358000   0.68837961    -7.472929     78.73073   0.01832652  0.018234195           26 
  359000   0.70065784   -7.4620845    78.891392  0.018312765  0.018169993           57 
  360000   0.69884201   -7.4828365    78.758725  0.018231186  0.018105923           47 
  361000   0.69205264   -7.5075173    78.652002  0.018156049  0.018041844           21 
  362000   0.69711319   -7.5180444    78.742664  0.018126764  0.017978032           29 
  363000   0.68227619   -7.4877628    78.749136  0.018078314  0.017914358           39 
  364000   0.69515931   -7.5278518    78.686095  0.018014216  0.017850597           49 
  365000   0.68104626   -7.5085494    78.649286  0.017956458  0.017787047           28 
  366000   0.69113534   -7.5148122    78.767842   0.01793439  0.017723867           51 
  367000    0.6883096   -7.4995495    78.660454  0.017861139  0.017661028           47 
  368000   0.70086786   -7.5170302     78.71916  0.017825897  0.017598378           30 
  369000   0.69176024   -7.5195822    78.775177  0.017790239  0.017536192           41 
  370000   0.66539011   -7.5043514    78.856795  0.017760539  0.017473941           45 
  371000   0.69251016    -7.529441    78.763162  0.017691636  0.017412037           38 
  372000   0.69176526   -7.5277858    78.953954  0.017686818  0.017350525           44 
  373000   0.65866974   -7.5505369    78.838174  0.017613533  0.017289215           26 
  374000   0.65869311   -7.5280303    78.755861  0.017548097  0.017228246           36 
  375000   0.67495853   -7.5214923    78.743485  0.017498552  0.017167362           34 
  376000   0.65990593   -7.5642757    78.681188  0.017438207  0.017106697           29 
  377000   0.67095661   -7.5862716    78.740548  0.017405072  0.017046238           23 
  378000   0.66033819    -7.558359    78.777276  0.017367124  0.016985931           81 
  379000   0.66799787   -7.5784451    78.674183  0.017298633  0.016925775           72 
  380000   0.66679707   -7.5708556      78.6612  0.017250263  0.016865765           48 
  381000   0.65747175   -7.5918306    78.605997  0.017192913  0.016805881           45 
  382000   0.65774108   -7.5804884    78.749298  0.017179166  0.016746063           31 
  383000   0.64842406   -7.5971798     78.53556  0.017087807  0.016686555           42 
  384000   0.66768808   -7.5763455    78.773219  0.017094882  0.016627286           13 
  385000   0.65818675   -7.5988808    78.665629  0.017027192  0.016568026           55 
  386000   0.65056937   -7.5906988    78.642557  0.016978099    0.0165091           35 
  387000   0.65536616   -7.6045655    78.613598  0.016927993  0.016450438           80 
  388000    0.6599244   -7.5968117    78.635463   0.01688906  0.016392168           51 
  389000   0.64586041   -7.6172409    78.566334  0.016830834  0.016334037           63 
  390000   0.64270259   -7.6083697    78.789626   0.01683539  0.016276222           29 
  391000   0.64496371   -7.6206135    78.551794  0.016741644  0.016218484           55 
  392000   0.63722819   -7.6117272    78.538994  0.016696215  0.016161025           33 
  393000   0.64693756   -7.6285505    78.605233  0.016667776   0.01610375           89 
  394000   0.64570878   -7.6225871    78.579129  0.016619951  0.016046665           63 
  395000   0.64241098    -7.632269    78.574158  0.016576826  0.015989765          145 
  396000   0.64328593   -7.6190957     78.71907  0.016565461   0.01593314          128 
  397000   0.63907661   -7.6299122    78.501012  0.016477962  0.015876712           82 
  398000   0.62114284   -7.6510473    78.552521  0.016447345  0.015820499           47 
  399000   0.62946777   -7.6619572    78.477593  0.016390475  0.015764411           48 
  400000   0.64165649   -7.6359583    78.611043  0.016377301  0.015708893           35 
  401000   0.63336046   -7.6579778    78.687801  0.016352411  0.015653626           32 
  402000   0.62515156   -7.6407011    78.608028  0.016295196  0.015598494           63 
  403000    0.6312328   -7.6644411    78.555757  0.016243953  0.015543609           67 
  404000   0.61803171   -7.6549536     78.52767  0.016197952  0.015488741           67 
  405000   0.63781245   -7.6860882    78.439381   0.01613979  0.015433935           15 
  406000   0.62128257    -7.682346    78.394924  0.016090912  0.015379438           36 
  407000    0.6178295   -7.6621972    78.613736  0.016096179  0.015325151           57 
  408000   0.61450248   -7.6603364    78.613111    0.0160566   0.01527131           51 
  409000   0.60320027   -7.6836845    78.662869  0.016027479  0.015217583           63 
  410000   0.61935983   -7.6819798    78.546312  0.015964698  0.015164253           85 
  411000   0.62038949    -7.691886    78.448357  0.015905993  0.015110926           99 
  412000   0.60951791   -7.6683089    78.652639  0.015908705  0.015057852           94 
  413000   0.61633295   -7.6894725    78.590778  0.015857703  0.015004881           50 
  414000   0.60721629   -7.6976177     78.39394  0.015779779  0.014952193           51 
  415000    0.5943182   -7.6869569    78.550603  0.015773213  0.014899661           81 
  416000   0.61475662   -7.6873227    78.501472  0.015725455  0.014847351           51 
  417000   0.59885556   -7.6874456    78.488676  0.015685187  0.014795313           33 
  418000   0.59361382   -7.6750483    78.458876  0.015641722  0.014743477          120 
  419000    0.5937159   -7.6872121    78.629363  0.015638298  0.014691786           73 
  420000   0.60870533   -7.7059832    78.410248  0.015557589  0.014640212          113 
  421000   0.60219389   -7.7116202     78.43123  0.015524788  0.014588877           60 
  422000   0.58650295   -7.7230908    78.374716   0.01547684  0.014537712          106 
  423000   0.58502037   -7.7273601    78.359738  0.015437301  0.014486596          186 
  424000   0.57523295   -7.7328453    78.408035  0.015410384  0.014435661          148 
  425000   0.59080525   -7.7431852    78.234022  0.015340004  0.014384919           42 
  426000   0.60191189   -7.7353152    78.254338  0.015307969  0.014334341          298 
  427000   0.58261572   -7.7174868    78.285082  0.015278119  0.014283932           86 
  428000   0.58066826   -7.7527231    78.406973  0.015266155  0.014233734          190 
  429000   0.58853047   -7.7496779    78.083686  0.015167771  0.014183634          200 
  430000   0.58003756   -7.7469322    78.257325  0.015166148  0.014133842          156 
  431000   0.57746726   -7.7403229    78.197485   0.01511939  0.014084131          134 
  432000   0.57604543   -7.7708948    78.139978  0.015073298  0.014034669           49 
  433000   0.58072583    -7.759392    78.188653  0.015047855  0.013985441          127 
  434000   0.57610477   -7.7457209    78.294276  0.015033463  0.013936515          100 
  435000   0.56531918   -7.7509283     78.20746  0.014982272  0.013887705          142 
  436000   0.58618774   -7.7699903    78.167014  0.014940179  0.013839057          117 
  437000   0.55674616   -7.7858365    78.072398  0.014887948  0.013790586          105 
  438000    0.5603758   -7.7684778    78.171155  0.014872746  0.013742317          243 
  439000   0.56503615   -7.7723798    78.042924  0.014814526  0.013694132          180 
  440000    0.5604498    -7.776053    78.133572  0.014798025  0.013646246          131 
  441000   0.55339668   -7.7764025    78.268883  0.014790038  0.013598662          279 
  442000   0.54399561   -7.8024327    78.111738  0.014726949  0.013551266          149 
  443000   0.56187947   -7.7809848     78.11342  0.014694022  0.013504006          160 
  444000   0.56841296    -7.792537     78.08414  0.014655432  0.013456976          143 
  445000   0.55331784   -7.7885826    78.149365  0.014634713   0.01341014          262 
  446000   0.55958217   -7.8012705    78.041019  0.014581655  0.013363436          232 
  447000   0.56178733   -7.8130268    78.081877  0.014556651  0.013316924          112 
  448000   0.56235625   -7.8031717    77.998101  0.014508575  0.013270632          127 
  449000    0.5447354   -7.8124364    78.051655  0.014486202  0.013224412          150 
  450000   0.54903232   -7.8143644    77.984732  0.014441617  0.013178459          171 
  451000   0.56472927   -7.7981979    77.895123  0.014393038  0.013132658          171 
  452000   0.55031426   -7.8131496    78.079794  0.014395242  0.013086982          101 
  453000   0.53351065   -7.8477099    77.981343  0.014345354  0.013041532           98 
  454000   0.53865743   -7.8089253    77.930099   0.01430435  0.012996265          183 
  455000   0.54549262   -7.8238834    77.821154  0.014252959  0.012951177          168 
  456000   0.54421738   -7.8269211    77.969554  0.014248822   0.01290635           97 
  457000   0.53912383   -7.8411554    77.900814  0.014205108  0.012861768          177 
  458000   0.54075596   -7.8305248    78.047171  0.014200723  0.012817275          140 
  459000   0.52470897   -7.8351439    77.883281  0.014140029     0.012773          125 
  460000   0.53601444   -7.8417237    77.948532  0.014121111   0.01272884          142 
  461000   0.53284426   -7.8315281    77.894212   0.01408066  0.012684875          108 
  462000   0.52663829   -7.8399379    77.857174  0.014043502  0.012641143          140 
  463000   0.52990899   -7.8450528    77.811178  0.014004892  0.012597622           62 
  464000   0.52069824   -7.8487596    77.948707  0.013999409  0.012554331          182 
  465000   0.53372054   -7.8350599    77.847495  0.013951164  0.012511204          121 
  466000    0.5148265   -7.8569327    77.841918  0.013920229   0.01246815          177 
  467000   0.52174189   -7.8436642    77.867219  0.013894936  0.012425301          121 
  468000   0.51587278   -7.8659999    77.651355  0.013826808  0.012382661          120 
  469000   0.51947904   -7.8644842    77.806857  0.013824957   0.01234017          103 
  470000   0.51426508   -7.8536361    77.716348  0.013779494  0.012297836          109 
  471000   0.50759155   -7.8789839    77.901852  0.013783059  0.012255783          245 
  472000   0.52166678     -7.89023    77.889858   0.01375174  0.012213804           91 
  473000   0.51047059   -7.8960613     77.77471   0.01370238  0.012171991          130 
  474000   0.50305317   -7.8862641     77.75777  0.013670494  0.012130403          104 
  475000   0.50725438   -7.8799951    77.820443  0.013652709   0.01208891          117 
  476000    0.5031607   -7.8950078    77.663812  0.013596606  0.012047597           97 
  477000   0.51300353   -7.8934145     77.64951  0.013565603  0.012006424          150 
  478000    0.4981786   -7.8907152    77.692733  0.013544758  0.011965355          101 
  479000   0.49773251   -7.8891795    77.684267  0.013515008  0.011924506           93 
  480000   0.50042386   -7.8910271    77.722231  0.013493443  0.011883851          107 
  481000   0.49003281   -7.8987616    77.644202  0.013451871   0.01184342          273 
  482000   0.50084561   -7.9090187    77.636387  0.013422612  0.011803133          196 
  483000   0.50707374   -7.9210225    77.661347  0.013399128  0.011762981          299 
  484000   0.49143079   -7.9132475     77.63631  0.013367133  0.011722995          345 
  485000   0.47688258     -7.91406    77.658014  0.013343301   0.01168322          114 
  486000   0.48895697   -7.8988056    77.569003  0.013300584  0.011643594          134 
  487000   0.48873074   -7.9239907    77.591596  0.013277138  0.011604165          101 
  488000   0.48730526   -7.9235881    77.551888   0.01324315  0.011564923          278 
  489000   0.48473716   -7.9287199    77.658413  0.013234222  0.011525862          106 
  490000   0.48500799   -7.9257783    77.737287  0.013220627     0.011487          289 
  491000   0.49456863   -7.9414495    77.641696  0.013177477  0.011448264          304 
  492000   0.47874731   -7.9329188    77.510109  0.013128406  0.011409698          122 
  493000   0.47926649   -7.9475464    77.641268  0.013123947  0.011371249          184 
  494000   0.48561361   -7.9327925    77.638727  0.013096951  0.011332962          202 
  495000   0.47239559   -7.9376562    77.519912   0.01305049  0.011294865          347 
  496000   0.48362958   -7.9361077    77.531177  0.013026071  0.011256878          111 
  497000   0.47513854   -7.9390405    77.577468  0.013007624  0.011219073          248 
  498000   0.47168726   -7.9441672    77.524458  0.012972634  0.011181405          158 
  499000    0.4704249   -7.9462975    77.477671  0.012938823  0.011143877          256 
  500000   0.46500966   -7.9662335    77.521542  0.012920257  0.011106561          182 
  501000   0.46138184   -7.9599427    77.591934  0.012906177  0.011069323          165 
  502000   0.46393622   -7.9777237    77.467758  0.012859854  0.011032315          132 
  503000   0.46890759   -7.9689925    77.455546  0.012832264  0.010995431          154 
  504000   0.44512898   -7.9699472    77.400097  0.012797635  0.010958686          188 
  505000    0.4698559   -7.9729833    77.358614  0.012765448  0.010922061          279 
  506000   0.46003069   -7.9511438     77.44648   0.01275469  0.010885607          172 
  507000   0.46437746   -7.9884309    77.326055  0.012709739  0.010849324          134 
  508000    0.4527625   -7.9626222    77.435148  0.012702616  0.010813178          124 
  509000   0.45701209   -7.9744064    77.412276  0.012673916  0.010777238          318 
  510000   0.45444106   -7.9859406    77.300478  0.012630797  0.010741448          229 
  511000   0.44349405    -7.987901    77.271104  0.012601289  0.010705805          121 
  512000   0.44955618    -7.985649     77.41597  0.012600256  0.010670281          128 
Loop time of 1317.53 on 48 procs for 500000 steps with 4000 atoms

Performance: 65577.443 tau/day, 379.499 timesteps/s
99.4% CPU use with 48 MPI tasks x no OpenMP threads

MPI task timing breakdown:
Section |  min time  |  avg time  |  max time  |%varavg| %total
---------------------------------------------------------------
Pair    | 93.232     | 102.28     | 113.93     |  51.5 |  7.76
Neigh   | 9.218      | 9.5277     | 9.8769     |   6.0 |  0.72
Comm    | 86.55      | 95.669     | 105.03     |  49.6 |  7.26
Output  | 0.99928    | 1.0005     | 1.0416     |   0.6 |  0.08
Modify  | 1090.4     | 1095.7     | 1100.3     |   6.3 | 83.16
Other   |            | 13.37      |            |       |  1.01

Nlocal:        83.3333 ave          93 max          78 min
Histogram: 5 4 12 8 8 4 3 2 1 1
Nghost:        2415.58 ave        2432 max        2401 min
Histogram: 3 5 4 9 3 7 10 3 2 2
Neighs:        16753.0 ave       18398 max       14498 min
Histogram: 3 2 5 7 3 3 4 7 4 10
FullNghs:      33506.6 ave       37474 max       31251 min
Histogram: 5 5 11 10 5 5 3 2 1 1

Total # of neighbors = 1608315
Ave neighs/atom = 402.07875
Neighbor list builds = 26679
Dangerous builds = 0

#clear
#
#next RN
#
#jump SELF
Total wall time: 0:22:01
