
units lj                  # Use reduced LJ style units
atom_style atomic         # Uncharged point particles
atom_modify map hash      # Needed for indexing of clusters etc
                          # Used to be able to find where atoms are in relation to each other.

lattice fcc 1.0 spacing 1 1 1
Lattice spacing in x,y,z = 1.5874011 1.5874011 1.5874011
region box block 0 10 0 10 0 10 units lattice
create_box 2 box
Created orthogonal box = (0.0000000 0.0000000 0.0000000) to (15.874011 15.874011 15.874011)
  3 by 4 by 4 MPI processor grid
create_atoms 1 box
Created 4000 atoms
  using lattice units in orthogonal box = (0.0000000 0.0000000 0.0000000) to (15.874011 15.874011 15.874011)
  create_atoms CPU = 0.003 seconds
set type 1 type/fraction 2 0.02 78393
Setting atom values ...
  77 settings made for type/fraction
mass 1 1.0
mass 2 1.0
pair_style lj/cut  3.5
pair_modify tail  yes
pair_coeff 1  1  1.0  1.0   # Intearaction between 1 and 1 set with epsilon = 1 and sigma = 1
pair_coeff 1  2  1.5  0.8
pair_coeff 2  2  0.5  0.88

write_data data.0
System init for write_data ...
Neighbor list info ...
  update every 1 steps, delay 10 steps, check yes
  max neighbors/atom: 2000, page size: 100000
  master list distance cutoff = 3.8
  ghost atom cutoff = 3.8
  binsize = 1.9, bins = 9 9 9
  1 neighbor lists, perpetual/occasional/extra = 1 0 0
  (1) pair lj/cut, perpetual
      attributes: half, newton on
      pair build: half/bin/atomonly/newton
      stencil: half/bin/3d
      bin: standard
WARNING: Not all mixed pair coeffs generated from mixing. Use write_data with 'pair ij' option to store all pair coeffs. (../write_data.cpp:312)


#############################
#   M E L T   S Y S T E M   #
#############################

velocity all create 2.4 9580093 mom yes dist gaussian # Assign velocities
                                                    # Temperature 2.4, random number seed, zero linear momentum
                                                                                # Gaussian distribution

timestep 0.002   # simulation timestep
thermo 1000       # output thermodynamic data every 1000 steps bf 100

# Define a fix  in this case with index 1 applied to all
# particles in the simulation. This fix is for simulations
# in the anisotropic NPT ensemble. Note that we use the MTK
# correction.
fix 1 all npt temp 2.4 2.4 0.1 iso 5.68 5.68 0.5 mtk yes tchain 5 pchain 5 # Use NPT ensemble
                                                                         # Set temperature and pressure and damping
                                                                         # Numbers of thermostats in chain and in barostat
run 10000          # run for 10000 steps
Per MPI rank memory allocation (min/avg/max) = 3.642 | 3.644 | 3.648 Mbytes
Step Temp E_pair E_mol TotEng Press Volume 
       0          2.4   -8.2581388            0   -4.6590388   -2.3989133         4000 
    1000    2.3775631   -4.4412744            0  -0.87582135    5.8895326    5096.9179 
    2000    2.4386978   -4.4257272            0   -0.7685951    5.7578856    5141.2404 
    3000    2.4206716   -4.3449275            0  -0.71482778    5.9444199    5161.9374 
    4000    2.4219221   -4.3605047            0  -0.72852967    5.7544939    5177.8972 
    5000    2.4569957   -4.3355296            0  -0.65095745    5.7677679    5195.2289 
    6000    2.3975052   -4.4549892            0   -0.8596304    5.3832076    5165.7675 
    7000    2.4051535   -4.4153341            0  -0.80850575    5.7288995    5145.7976 
    8000    2.4437797   -4.3895919            0  -0.72483879    5.9296678    5131.1541 
    9000    2.3813005   -4.3803282            0  -0.80927039    5.4639102    5213.6858 
   10000    2.4060082     -4.39103            0  -0.78292005     5.396251    5211.8442 
Loop time of 2.04477 on 48 procs for 10000 steps with 4000 atoms

Performance: 845081.408 tau/day, 4890.517 timesteps/s
99.6% CPU use with 48 MPI tasks x no OpenMP threads

MPI task timing breakdown:
Section |  min time  |  avg time  |  max time  |%varavg| %total
---------------------------------------------------------------
Pair    | 0.84511    | 0.91314    | 0.9891     |   3.1 | 44.66
Neigh   | 0.16591    | 0.17289    | 0.18778    |   1.2 |  8.45
Comm    | 0.60447    | 0.71365    | 0.79267    |   5.2 | 34.90
Output  | 0.00023588 | 0.00024203 | 0.00030002 |   0.0 |  0.01
Modify  | 0.19737    | 0.23075    | 0.26843    |   4.3 | 11.28
Other   |            | 0.01411    |            |       |  0.69

Nlocal:        83.3333 ave          92 max          76 min
Histogram: 3 3 3 14 3 9 6 4 2 1
Nghost:        1381.06 ave        1407 max        1353 min
Histogram: 2 0 6 3 7 18 6 2 2 2
Neighs:        7303.77 ave        8391 max        6508 min
Histogram: 4 3 9 8 7 6 4 4 2 1

Total # of neighbors = 350581
Ave neighs/atom = 87.645250
Neighbor list builds = 903
Dangerous builds = 222

# Equilibrate just above the melting temperature to avoid step fn in T

fix 1 all npt temp 1.25 1.25 0.1 iso 5.68 5.68 0.5 mtk yes tchain 5 pchain 5
run 2000
Per MPI rank memory allocation (min/avg/max) = 3.642 | 3.644 | 3.648 Mbytes
Step Temp E_pair E_mol TotEng Press Volume 
   10000    2.4060082     -4.39103            0  -0.78292005     5.396251    5211.8442 
   11000    1.2749909   -5.9035205            0   -3.9915123    5.5683682    4287.9714 
   12000    1.2480892    -5.890995            0   -4.0193292    5.7047632     4280.918 
Loop time of 0.451379 on 48 procs for 2000 steps with 4000 atoms

Performance: 765654.151 tau/day, 4430.869 timesteps/s
99.6% CPU use with 48 MPI tasks x no OpenMP threads

MPI task timing breakdown:
Section |  min time  |  avg time  |  max time  |%varavg| %total
---------------------------------------------------------------
Pair    | 0.19563    | 0.20821    | 0.23765    |   1.3 | 46.13
Neigh   | 0.030363   | 0.0317     | 0.036244   |   0.5 |  7.02
Comm    | 0.12825    | 0.15727    | 0.1801     |   2.5 | 34.84
Output  | 4.9113e-05 | 5.0391e-05 | 6.1375e-05 |   0.0 |  0.01
Modify  | 0.040179   | 0.049827   | 0.060934   |   3.4 | 11.04
Other   |            | 0.00432    |            |       |  0.96

Nlocal:        83.3333 ave          94 max          73 min
Histogram: 1 2 8 4 7 12 9 2 2 1
Nghost:        1566.31 ave        1579 max        1555 min
Histogram: 5 3 5 6 7 8 3 4 3 4
Neighs:        8886.35 ave       10152 max        7723 min
Histogram: 1 2 6 8 8 9 8 4 1 1

Total # of neighbors = 426545
Ave neighs/atom = 106.63625
Neighbor list builds = 142
Dangerous builds = 7

#############################
# L I N E A R  Q U E N C H  #
#############################

# Define solid atoms. This closely follows ten Wolde  Ruiz-Montero and Frenkel  Faraday Discuss  1996  104  93-110
# Compute components of the per-atom q6 vector
compute q6 all orientorder/atom degrees 1 6 components 6 nnn NULL cutoff 1.3 # compute the Q6 parameter.
                                                                             # Use all neighbours within 1.3 unit cell.

# get number of connections
compute coord_number all coord/atom orientorder q6 0.5

# An atom is solid if it has 8 or more connections (of a possible 14)
variable is_solid atom c_coord_number>=8
group solid dynamic all var is_solid    # Must be dynamic to update
dynamic group solid defined

# do clustering
compute cluster solid cluster/atom 1.3 # Create a cluster where all atoms within are solid and max 1.3 units from another member

# define chunks one chunk per cluster
compute clus_chunks solid chunk/atom c_cluster nchunk every compress yes  # Says which atoms are in which chunk

# count the size of each chunk
compute size_chunks solid property/chunk clus_chunks count


# Find the maximum entry in the vector of chunk sizes
variable max_n equal max(c_size_chunks)


# Thermo style which includes this variable
# thermo_style custom step temp pe vol v_max_n

thermo ${N}  # Print the thermo information every 100 steps
thermo 1000  

# Reset the npt fix at a lower temperature (below freezing)
fix 1  all npt temp  ${temp} ${temp}  0.1  iso  5.68  5.68  0.5  mtk yes tchain  5  pchain  5
fix 1  all npt temp  0.45 ${temp}  0.1  iso  5.68  5.68  0.5  mtk yes tchain  5  pchain  5
fix 1  all npt temp  0.45 0.45  0.1  iso  5.68  5.68  0.5  mtk yes tchain  5  pchain  5

dump dmp2 all dcd ${N} traj.dcd
dump dmp2 all dcd 1000 traj.dcd


compute msd all msd com yes
variable twopoint equal c_msd[4]/6/(step*dt+1.0e-6)
fix 9 all vector 10 c_msd[4]
variable fit equal slope(f_9)/6/(10*dt)
thermo_style custom step temp pe c_msd[4] v_twopoint v_fit v_max_n

fix 1 all npt temp 1.25 ${temp} 0.1 iso 5.68 5.68 0.5 mtk yes tchain 5 pchain 5
fix 1 all npt temp 1.25 0.45 0.1 iso 5.68 5.68 0.5 mtk yes tchain 5 pchain 5
run 500000 # 5000000  # Run for this many steps
Neighbor list info ...
  update every 1 steps, delay 10 steps, check yes
  max neighbors/atom: 2000, page size: 100000
  master list distance cutoff = 3.8
  ghost atom cutoff = 3.8
  binsize = 1.9, bins = 9 9 9
  4 neighbor lists, perpetual/occasional/extra = 1 3 0
  (1) pair lj/cut, perpetual
      attributes: half, newton on
      pair build: half/bin/atomonly/newton
      stencil: half/bin/3d
      bin: standard
  (2) compute orientorder/atom, occasional
      attributes: full, newton on
      pair build: full/bin/atomonly
      stencil: full/bin/3d
      bin: standard
  (3) compute coord/atom, occasional
      attributes: full, newton on
      pair build: full/bin/atomonly
      stencil: full/bin/3d
      bin: standard
  (4) compute cluster/atom, occasional
      attributes: full, newton on
      pair build: full/bin/atomonly
      stencil: full/bin/3d
      bin: standard
Per MPI rank memory allocation (min/avg/max) = 9.731 | 9.736 | 9.740 Mbytes
Step Temp PotEng c_msd[4] v_twopoint v_fit v_max_n 
   12000    1.2480892    -5.890995 1.0663427e-30 7.4051575e-33 8.3333333e+20            3 
   13000    1.2310326   -5.9170261   0.55905173 0.0035836648  0.045909997            4 
   14000    1.2768103   -5.9208308    1.1005186 0.0065507056  0.044984808            4 
   15000    1.2227416    -5.880269    1.6411143 0.0091173016  0.045051094            5 
   16000     1.263469   -5.9202792    2.2210176    0.0115678  0.045538401            2 
   17000    1.2521596   -5.9498423    2.7404518  0.013433587  0.045851838            1 
   18000    1.2429595    -5.918741    3.2674995  0.015127312  0.045511084            7 
   19000     1.224098   -5.9128598    3.8159534  0.016736637  0.045425173            3 
   20000    1.2549912   -5.9502275    4.3356207  0.018065086   0.04518771           10 
   21000    1.2502752   -5.9311009    4.8249506  0.019146629  0.044949467            2 
   22000    1.2398502   -5.9320788    5.3781555    0.0203718  0.044691495            6 
   23000    1.2192852   -5.9331849    5.8748218  0.021285586  0.044542682            4 
   24000    1.2291559    -5.932346    6.3525199   0.02205736  0.044244901            2 
   25000    1.2195908   -5.8938799    6.8409899  0.022803299  0.043972218            2 
   26000    1.2549226   -5.9557155    7.3774851  0.023645785  0.043838706            3 
   27000    1.2321684    -5.966252    7.8995344  0.024381279  0.043688893            2 
   28000    1.1989727   -5.9616984    8.4307716  0.025091582  0.043682739            2 
   29000     1.246403    -5.919806    8.9191293  0.025629681   0.04360308            8 
   30000    1.2232007   -5.9517202    9.3192067  0.025886685  0.043439775            3 
   31000    1.1955999   -5.9898944    9.7518344  0.026214608  0.043129672            5 
   32000    1.2424909   -5.9547543    10.239158  0.026664474  0.042867686            4 
   33000    1.2377215    -5.977307    10.680414  0.026970742   0.04262008            6 
   34000    1.2118198   -5.9529877    11.190058  0.027426611  0.042410228            2 
   35000    1.2172073    -5.951565    11.695858   0.02784728  0.042257682            5 
   36000    1.2028662   -5.9688058    12.200986  0.028243023  0.042124887            3 
   37000    1.1957502   -5.9307551    12.673582  0.028544104  0.042001878            5 
   38000    1.2161833   -5.9791549    13.221042  0.028993512  0.041919146            3 
   39000    1.1962881   -5.9907454    13.718255   0.02931251  0.041861968            5 
   40000    1.1986258   -5.9746107    14.198013  0.029579194  0.041802081            2 
   41000    1.2166537   -6.0311495    14.602288  0.029679447  0.041725678            3 
   42000     1.209653   -6.0070022     14.96062  0.029683769  0.041616783            5 
   43000    1.1963144    -5.998754    15.416335  0.029876618  0.041462791            6 
   44000    1.1878882   -5.9776399    15.958092  0.030223659  0.041322771            3 
   45000    1.1833408   -5.9795067    16.319786  0.030221825  0.041187699            3 
   46000    1.1970942   -6.0240701    16.684909  0.030226285  0.041028625            7 
   47000     1.207376   -6.0008127    17.191206  0.030480861  0.040883849            5 
   48000    1.1864428   -6.0050674    17.810744   0.03092143  0.040762351            4 
   49000    1.1937398   -6.0286581    18.225095  0.030995059  0.040695929            3 
   50000    1.1861956   -5.9924156    18.845707  0.031409512  0.040649323            4 
   51000    1.1837737   -6.0053172    19.230451  0.031422305  0.040598075            2 
   52000    1.2163098     -6.03461    19.816889  0.031757835  0.040565507            5 
   53000    1.1899353   -6.0224527    20.329601   0.03196478  0.040557865            5 
   54000    1.1949457   -6.0170042    20.852739  0.032180153  0.040549529            4 
   55000    1.1773135   -6.0100299    21.355103  0.032356216  0.040552173           14 
   56000    1.1779376   -6.0164683    21.745901  0.032359972  0.040544324            4 
   57000    1.1875785   -6.0728051    22.058761   0.03224965  0.040493319            3 
   58000    1.1866818   -6.0395792    22.542385  0.032388485  0.040446571            5 
   59000    1.1712517   -6.0172739    22.987293  0.032467927  0.040398663            4 
   60000    1.2227559   -6.0551582    23.476856  0.032606744  0.040354485            4 
   61000    1.1878179   -6.0409135    23.952709   0.03272228  0.040308833            3 
   62000    1.1465756   -6.0822113    24.487459   0.03291325  0.040267738            4 
   63000    1.1627499   -6.0601098    24.922089  0.032965726  0.040230844            4 
   64000    1.1832934   -6.0664635    25.330464  0.032982375   0.04020598            7 
   65000    1.1627126   -6.0548331       25.903  0.033208974   0.04017223            4 
   66000    1.1537015   -6.0581083    26.247812  0.033141177  0.040137598            5 
   67000      1.15312     -6.04236     26.78373  0.033313097  0.040097081            5 
   68000    1.1368293   -6.0619784    27.074228  0.033179201  0.040044844            3 
   69000     1.147329   -6.0748738    27.458315  0.033162216   0.03999175            4 
   70000    1.1523168   -6.0952403    27.846569  0.033150677  0.039931609            2 
   71000    1.1605519   -6.0531313     28.29788  0.033213474  0.039869484            3 
   72000    1.1682713   -6.0929339    28.670873  0.033183881  0.039803807            5 
   73000    1.1457361   -6.1168429    29.131312  0.033254922  0.039732558            4 
   74000    1.1597624   -6.0950117    29.680191  0.033423638  0.039663871            2 
   75000    1.1501859   -6.0827256    30.023688  0.033359653  0.039594851            3 
   76000    1.1342248   -6.1030418    30.373045  0.033303777  0.039522661            3 
   77000    1.1597536    -6.126498    30.805741  0.033339546  0.039455651            4 
   78000    1.1278431   -6.0626828    31.466431  0.033617981  0.039393943            2 
   79000    1.1447226    -6.063822    31.912445  0.033662916  0.039342866            2 
   80000    1.1597268   -6.0705946     32.24311  0.033586573  0.039288087            4 
   81000    1.1611398    -6.101269    32.632679  0.033572715   0.03923056            3 
   82000    1.1677553   -6.1225132    33.203607  0.033743503  0.039179436            6 
   83000    1.1165081   -6.1169308    33.536856  0.033671542  0.039128541            3 
   84000    1.1150105   -6.0885949    33.952102  0.033682641  0.039080529            7 
   85000    1.1375218     -6.12318    34.686766  0.034006633  0.039038146            2 
   86000    1.1167826   -6.0790702    35.180856  0.034089977  0.039005034            2 
   87000      1.14614   -6.1148458    35.538705  0.034040905  0.038977915            6 
   88000    1.1377288   -6.1042405    35.752802   0.03385682   0.03894002            4 
   89000    1.1304651   -6.1184937    36.029557   0.03373554  0.038890881            3 
   90000    1.1317049   -6.1255605    36.438973   0.03373979  0.038831318            6 
   91000      1.10853   -6.1031268    36.886628  0.033778963  0.038776643            7 
   92000    1.1335122   -6.1153396    37.334127  0.033817144  0.038725069           11 
   93000    1.1162633   -6.1462787    37.809894  0.033879833  0.038668085            5 
   94000    1.1040136   -6.1465355    38.098232  0.033775028  0.038612796            9 
   95000     1.099124   -6.1197833    38.591759   0.03385242  0.038559426            2 
   96000    1.1281715   -6.1369625    38.831549  0.033707942  0.038502942            7 
   97000    1.1163086   -6.0986628    39.375746   0.03382796  0.038442034            3 
   98000    1.1213658    -6.105751     39.70124  0.033759558  0.038376686            3 
   99000    1.0954855   -6.1309457    39.985654  0.033657958  0.038309742            4 
  100000    1.1068938   -6.1246421    40.218846  0.033515705  0.038237816           10 
  101000    1.1001355   -6.1042125    40.782483  0.033648914  0.038169094            4 
  102000    1.1317995    -6.153581    40.940267   0.03344793  0.038092924           11 
  103000    1.0962294   -6.1592948    41.155158  0.033297054  0.038010404            4 
  104000    1.0978522    -6.158716    41.594434  0.033328873  0.037924572            4 
  105000    1.0869717   -6.1636067    41.830226  0.033198592  0.037834286            3 
  106000    1.0916779   -6.1939429    41.990218  0.033011178  0.037741011            4 
  107000    1.0905385   -6.1799797    42.355106  0.032986843  0.037645263            3 
  108000    1.0985957   -6.1630316    42.767556  0.032999658  0.037556045           11 
  109000     1.106215   -6.1683409      43.1348  0.032977676  0.037466914            3 
  110000    1.0992092    -6.168756    43.612621  0.033039864   0.03737768            5 
  111000    1.0405225   -6.1586926    44.060114  0.033078164  0.037288999            5 
  112000     1.113106   -6.1563618    44.478114  0.033093835  0.037200044            3 
  113000    1.1015434   -6.2230534    44.597975  0.032889362  0.037112246            7 
  114000    1.1008799   -6.1896844    45.041133  0.032924805  0.037023381            5 
  115000    1.0806631   -6.2060878    45.256149  0.032794311   0.03693449            3 
  116000    1.0857129   -6.1671563    45.740501  0.032859555  0.036845887            8 
  117000    1.0832429   -6.1750637    45.965317   0.03273883  0.036760675            9 
  118000    1.0729973   -6.1668388    46.319376  0.032711423  0.036673259            4 
  119000    1.0927177   -6.2041461    46.508692  0.032569112  0.036582621            3 
  120000    1.0876631   -6.2137764    46.863641  0.032544195  0.036490374            3 
  121000    1.0922536   -6.2365601    47.205196  0.032510466  0.036398567            7 
  122000    1.0767459    -6.223326    47.667254    0.0325596  0.036306303            5 
  123000    1.0936798   -6.2230422    47.826493  0.032402773  0.036218348            3 
  124000     1.092228   -6.2198591    48.100769  0.032325785  0.036130099            5 
  125000    1.0770898   -6.2313456    48.564323  0.032376215  0.036038977           10 
  126000    1.0648019   -6.2303821    48.831629  0.032296051  0.035950686            3 
  127000    1.0861567   -6.2381461    48.914191  0.032095926   0.03585531            9 
  128000    1.0558885   -6.2351068     49.08369  0.031955527  0.035754711            4 
  129000    1.0489928    -6.225875    49.317682  0.031858968  0.035655115            4 
  130000    1.1042476   -6.2270707    49.776682  0.031908129  0.035553432            4 
  131000    1.0549893   -6.2435727    50.206806  0.031938172  0.035457038            6 
  132000    1.0592941   -6.2459559    50.317325  0.031765988  0.035359966            4 
  133000    1.0440249   -6.2561145    50.529131  0.031659856   0.03526016            9 
  134000    1.0579112     -6.25307    51.030252  0.031735231  0.035163324            7 
  135000    1.0671612   -6.2459864    51.238238  0.031628542  0.035068789            2 
  136000    1.0422232   -6.2509011    51.502844  0.031558115  0.034975647            5 
  137000    1.0482319   -6.2465276    51.885351  0.031560432  0.034882199            4 
  138000    1.0508492   -6.2659357    52.117754  0.031472074  0.034788066            5 
  139000    1.0232381   -6.2549288    52.347801  0.031383573  0.034690258            5 
  140000    1.0538748   -6.2227029    52.772879  0.031412428  0.034594985            7 
  141000    1.0251171   -6.2697665    53.022528  0.031337191  0.034501298            4 
  142000    1.0526734   -6.2628526    53.275903  0.031265201  0.034409295            5 
  143000    1.0289357   -6.2663243    53.567119   0.03121627  0.034319116            5 
  144000    1.0168207   -6.2395099    53.918069  0.031202586  0.034226847            5 
  145000    1.0347323   -6.2371868    54.243069  0.031174178  0.034137284            3 
  146000    1.0326735   -6.3200467    54.378888  0.031038178  0.034046844            6 
  147000    1.0396786   -6.3274158    54.540709  0.030918769  0.033955457            8 
  148000    1.0322871   -6.2939875    54.769403  0.030838628   0.03386477           15 
  149000    1.0345356   -6.2985654    55.202578  0.030873925  0.033774484            8 
  150000    1.0430772   -6.2790517    55.515385   0.03084188  0.033684517            5 
  151000    1.0296126   -6.3216734    55.802844  0.030796272  0.033598336            5 
  152000    1.0540785   -6.3323032    55.999579  0.030701523  0.033510961            5 
  153000    1.0177045   -6.2643628    56.362707  0.030698642  0.033422883            3 
  154000    1.0299397   -6.3167795    56.605798  0.030630843  0.033334808            4 
  155000    1.0262915   -6.3215374    56.723199  0.030496343   0.03324547            3 
  156000    1.0038546   -6.2985222    57.028584  0.030463987  0.033158594            7 
  157000    1.0185652   -6.3530655    57.121753  0.030319402  0.033070599            4 
  158000    1.0300397    -6.313802     57.46121  0.030306545  0.032982495            6 
  159000    1.0311313   -6.3102727    57.882859  0.030336928  0.032896174            6 
  160000     1.009517   -6.3131319    58.353013  0.030392194  0.032814285            4 
  161000    1.0223492   -6.3050671    58.737748  0.030402561  0.032735813            5 
  162000    1.0102439   -6.3104924    59.079418  0.030390647  0.032662098            7 
  163000    1.0194357   -6.3424784    59.332983  0.030333836  0.032588077            6 
  164000    1.0184252   -6.3337109    59.685641  0.030328069  0.032515783            6 
  165000    1.0025248   -6.3291958    60.119019  0.030363141  0.032444954            7 
  166000   0.99895096   -6.3616152    60.409796  0.030326203  0.032376087            3 
  167000    1.0029728   -6.3447409    60.823367  0.030350981  0.032308507            8 
  168000   0.99780609   -6.3380092    61.004638  0.030260237  0.032242411           20 
  169000    1.0036642   -6.3338828    61.424437  0.030288184  0.032175974            6 
  170000   0.99002339   -6.3729719    61.528411  0.030160986  0.032109418            6 
  171000   0.99459242   -6.3089429    61.918707  0.030174808  0.032042395            9 
  172000    1.0049354   -6.3773297    62.093516  0.030084068  0.031975837            5 
  173000    1.0233334   -6.3520118    62.251832  0.029986431  0.031907997            6 
  174000   0.97205151   -6.3518975    62.468775  0.029917996  0.031839057            5 
  175000   0.99893302   -6.3778971     62.84362  0.029925533   0.03177155            5 
  176000    1.0008379   -6.3662774    62.823386  0.029745921  0.031700656            7 
  177000   0.97444642   -6.3756624     63.17556  0.029743672  0.031630327            9 
  178000   0.98622532   -6.3992615    63.233806  0.029603842  0.031560353           14 
  179000   0.96108622   -6.3798424    63.376458  0.029504868  0.031487653           10 
  180000   0.97030937   -6.3928948    63.595318  0.029442277  0.031413747            4 
  181000   0.98156792   -6.3804323    64.002257  0.029466969  0.031342319            7 
  182000   0.96981539   -6.3777807    64.264367  0.029425077  0.031271572           10 
  183000   0.98353428   -6.4074973     64.39185  0.029322336  0.031201659            3 
  184000   0.99812327   -6.3974578    64.680242  0.029293588  0.031130013            5 
  185000   0.97762752   -6.4185342    64.812296  0.029194728  0.031058709           12 
  186000   0.99519854   -6.4055232     65.15936  0.029193261  0.030988492            5 
  187000   0.95484187   -6.3871612    65.329757  0.029113082  0.030917507            6 
  188000   0.96737624   -6.4024096    65.701015   0.02912279  0.030847201            5 
  189000   0.94306587   -6.3723217    65.827415  0.029024433  0.030776671            7 
  190000   0.99711215    -6.403018     66.36156  0.029105947  0.030706419            8 
  191000   0.96665589   -6.3923888    66.365088  0.028955099  0.030635483            9 
  192000   0.96538641     -6.42081    66.715495  0.028956378  0.030564533            6 
  193000   0.95561685   -6.4049104    66.737144  0.028815692  0.030494704            5 
  194000   0.96202866   -6.4031964    67.027381   0.02879183  0.030424137            4 
  195000   0.95740425   -6.4005482    67.152565  0.028697677  0.030354386            6 
  196000   0.94872405   -6.4012414    67.735632  0.028799163  0.030286692            4 
  197000   0.96026845   -6.4407706    67.847321   0.02870022  0.030220194            6 
  198000   0.99124287   -6.4375208    67.955165  0.028600659  0.030153868           12 
  199000   0.95045366    -6.445353    68.349526  0.028622079   0.03008709            7 
  200000   0.96692554   -6.4367734     68.52122  0.028550508  0.030020551            4 
  201000   0.95909697    -6.440858    68.479592  0.028391207   0.02995225            4 
  202000    0.9511341   -6.4862904     68.35224  0.028198119   0.02987962            8 
  203000   0.93470966   -6.4214407    68.507607  0.028122991  0.029805294            7 
  204000   0.96852518   -6.4282882    68.817845  0.028111865  0.029731142            7 
  205000   0.95192431   -6.4147004    68.916244  0.028014733  0.029657323            7 
  206000   0.91870257   -6.4793196     69.02972  0.027924644  0.029583168           13 
  207000   0.93654815   -6.4491637    69.150002  0.027838165  0.029508798            6 
  208000   0.93626604   -6.4628345    69.385775  0.027798788  0.029434357            8 
  209000   0.94528667   -6.4571992    69.665742  0.027777409   0.02936005            9 
  210000    0.9332441   -6.4645824    69.762055  0.027683355  0.029285225            9 
  211000   0.91540461   -6.4896361    70.067626  0.027672838  0.029210365            4 
  212000   0.93505923   -6.4465059     70.32331   0.02764281   0.02913674            6 
  213000   0.92652722    -6.496229    70.326772  0.027514386  0.029064174           11 
  214000   0.93125704   -6.4967578    70.709439  0.027534828  0.028991108            6 
  215000   0.94495744   -6.4920772    70.797763  0.027440993  0.028918802           11 
  216000    0.9266713   -6.4896957    71.156942  0.027452524  0.028846634            8 
  217000   0.91779464   -6.4992672    71.094994  0.027302225  0.028774817           11 
  218000   0.93238036   -6.4972196     71.41875  0.027300745  0.028703398            9 
  219000   0.92481736   -6.4998229    71.901198  0.027359664   0.02863254           11 
  220000     0.910414   -6.5133069    71.923401  0.027243713  0.028563353            6 
  221000   0.91014971   -6.5041408    71.933042  0.027124073  0.028493179            7 
  222000   0.92148722    -6.506219    71.965297     0.027014  0.028421088           14 
  223000   0.91277119   -6.5237866    72.532287  0.027104741  0.028351149            7 
  224000   0.93278633   -6.5087967    72.426363  0.026944331  0.028281195           14 
  225000   0.88979902   -6.5062211     72.70013  0.026925974  0.028211849           15 
  226000   0.88160414   -6.5251722    72.951938  0.026899682  0.028142865            6 
  227000   0.89667952   -6.5276605    73.040351  0.026813638  0.028075093           18 
  228000   0.89636777    -6.512711    73.506403  0.026866375  0.028008662           10 
  229000   0.90767754    -6.532651    73.929362   0.02690297  0.027942954           10 
  230000   0.89278845   -6.5206735     73.74301  0.026718482  0.027876728            9 
  231000   0.90714224   -6.5387426    74.315096  0.026809197  0.027811415           11 
  232000   0.87898068   -6.5260599    74.353357  0.026707384  0.027745907            4 
  233000   0.90570493   -6.5388508    74.591506  0.026677935  0.027680832            5 
  234000   0.88250005    -6.562201    74.596731  0.026565787  0.027616166           16 
  235000   0.88690584   -6.5728775    74.768476  0.026513644  0.027551631           12 
  236000   0.87955003   -6.5452629    75.163279  0.026540706  0.027487325           21 
  237000    0.8921372   -6.5538101    75.317436  0.026482924  0.027424472           17 
  238000   0.90460871   -6.5689613    75.272437  0.026355895  0.027360782           13 
  239000   0.90365631   -6.5615215    75.381063  0.026283495  0.027297659           16 
  240000   0.87874436    -6.569669    75.888268  0.026350093  0.027235378           10 
  241000   0.90643588   -6.5878964    76.012925  0.026283861  0.027174002            3 
  242000   0.88838629   -6.5408699    76.263878  0.026261666  0.027112453            9 
  243000   0.87363644   -6.5799392     76.34493  0.026181389  0.027050689           19 
  244000   0.87770919   -6.5741922    76.106459  0.025992643  0.026987031           22 
  245000   0.88737118   -6.5648354    76.314679  0.025957374  0.026923189           15 
  246000    0.8810583   -6.5470297    76.584999  0.025943428  0.026859359            4 
  247000   0.87511797   -6.5667802    76.629952   0.02585356  0.026795218           12 
  248000   0.85963111   -6.5635164    76.834955  0.025818197  0.026731562           14 
  249000   0.85393937   -6.5749625    76.902108  0.025736984   0.02666811            9 
  250000   0.87916463   -6.5756318    77.104614  0.025701538   0.02660346           31 
  251000   0.86010262   -6.5660938    77.366627  0.025686131  0.026539223           19 
  252000   0.86442379   -6.6031662    77.216948  0.025534705  0.026474835           15 
  253000   0.86397257   -6.5988892    77.295595  0.025459682  0.026410084           10 
  254000   0.86257839   -6.6265926     77.39879  0.025393304  0.026344689           14 
  255000   0.87397133   -6.6091442    77.894774  0.025455808  0.026280787           15 
  256000   0.85734808   -6.6493024    78.060574  0.025410343  0.026217975           16 
  257000   0.85839454   -6.6314181    77.982867  0.025286273  0.026154916           11 
  258000   0.83516233   -6.5985624    78.366067  0.025312037  0.026091576            8 
  259000   0.85314974   -6.5750332    78.312099  0.025196943  0.026029109            6 
  260000   0.86293656   -6.6519296    78.430935   0.02513812  0.025966326           23 
  261000   0.85354146   -6.6171378    78.507028  0.025066101  0.025902908           20 
  262000   0.87756817   -6.6180175    78.475933  0.024960538  0.025839025           10 
  263000   0.84026126   -6.6365218    78.754019  0.024953745  0.025775076            9 
  264000   0.83859678   -6.6265243    78.811325  0.024877312  0.025711156           18 
  265000   0.84458834   -6.6385343    79.024447  0.024850455  0.025646862            8 
  266000   0.82279527   -6.6557051    79.116894  0.024785994  0.025582718           14 
  267000   0.85433661   -6.6505336    79.101342  0.024688309   0.02551786           14 
  268000   0.87750723   -6.6358217    79.796971  0.024812491  0.025455001            9 
  269000     0.833047   -6.6358086    79.711104  0.024693651  0.025392727           31 
  270000   0.82345448   -6.6446715    79.969264  0.024681872  0.025330844           13 
  271000   0.84574379   -6.6770811    79.868727  0.024559879  0.025269129           10 
  272000   0.84721833   -6.6702848    80.134342  0.024550963  0.025207207           33 
  273000   0.83529906   -6.6333109    80.340868  0.024524074  0.025145646           13 
  274000   0.82045561   -6.6511999    80.426151  0.024460508  0.025084852           10 
  275000   0.81866627   -6.6497583    80.388405  0.024360123  0.025023163           30 
  276000   0.81917738   -6.6798269    80.386487  0.024271282  0.024961962           16 
  277000   0.83030641   -6.6518998    80.592442   0.02424562  0.024900016           14 
  278000   0.83314998   -6.6692602    80.758186  0.024208089  0.024838881            7 
  279000   0.82501826    -6.684282    80.806691   0.02413581  0.024778052           10 
  280000   0.82647499   -6.7078648     80.68006  0.024011923  0.024716007           11 
  281000   0.82867848    -6.670039    80.947199  0.024005694  0.024653989           14 
  282000   0.81179613   -6.6730053    81.160898  0.023983717  0.024592657           10 
  283000   0.83566755   -6.7191989    81.109349  0.023883789  0.024531244           17 
  284000   0.80502852   -6.7057455    81.289053  0.023852422  0.024469748            7 
  285000   0.81309757   -6.6871647    81.381364   0.02379572  0.024408718            9 
  286000   0.81856872   -6.6788637    81.608338  0.023778653  0.024347138            9 
  287000   0.80672714   -6.6869076    81.771644  0.023743218  0.024286338           13 
  288000   0.80021006   -6.7056196    81.702739  0.023640839  0.024225811           10 
  289000    0.7982865   -6.6977962    81.780481  0.023581454  0.024164782           14 
  290000   0.79310226   -6.7016714    82.040334  0.023574809  0.024103363            9 
  291000   0.78895349   -6.7404753    81.954854  0.023469317  0.024042212           10 
  292000   0.82272254   -6.7235808    82.157618  0.023446809  0.023981314            7 
  293000   0.80728147   -6.7125443    82.199026  0.023378562  0.023920383            7 
  294000    0.7984911   -6.6997109    82.244604  0.023311962  0.023859613           12 
  295000   0.80847158   -6.7137886    82.325123  0.023255684   0.02379905           18 
  296000   0.81380693   -6.7356613    82.491921  0.023224077  0.023738528            7 
  297000   0.80848952    -6.746276    82.590293  0.023173483  0.023678169           15 
  298000   0.79248989   -6.7491237    82.680423  0.023120924  0.023617545           15 
  299000   0.79197781   -6.7448323    82.592143  0.023018992   0.02355716           27 
  300000   0.77520008   -6.7389619    82.893963  0.023026101  0.023497154           18 
  301000   0.77858348   -6.7261796        82.93  0.022959579  0.023436615           11 
  302000   0.78770484    -6.730378    82.999851  0.022902829  0.023376141           14 
  303000   0.77293151    -6.760217    83.181976  0.022877331   0.02331608           24 
  304000   0.79765288   -6.7502411    83.252988  0.022821543  0.023256435           11 
  305000    0.7736698   -6.7862316    83.287931  0.022756265  0.023196667            9 
  306000   0.77833765   -6.7792005    83.236804  0.022667975  0.023136642           24 
  307000    0.7911197   -6.7569294    83.373913  0.022631355   0.02307681           37 
  308000   0.76620886   -6.7769249    83.657752  0.022634673  0.023016747           33 
  309000   0.78470735   -6.7884497      83.5338  0.022527993  0.022956995           50 
  310000   0.77303761   -6.7676928    83.532783  0.022455049  0.022897297           35 
  311000   0.77755847   -6.7958594    83.816279   0.02245881  0.022838093           25 
  312000   0.77303953   -6.8007725    83.903907  0.022410231  0.022779037           66 
  313000     0.792573   -6.8174043    83.887616  0.022334296  0.022719963           27 
  314000   0.76719963   -6.7726904    84.022216   0.02229889  0.022661844           23 
  315000   0.75959521    -6.818857    84.440297  0.022338703  0.022604197           21 
  316000   0.76977157   -6.7906867     84.54123  0.022294628  0.022546975           22 
  317000   0.76286012   -6.8104786    84.622972  0.022245787   0.02249022           37 
  318000   0.77126194   -6.8053679    84.746208  0.022208126  0.022433707           45 
  319000   0.76096204   -6.7834991    84.713365  0.022129928  0.022377083           31 
  320000   0.73948127    -6.793825     84.92661  0.022116305  0.022321218           28 
  321000   0.75607835   -6.7681804    84.883954  0.022036333  0.022265611           21 
  322000   0.76441636    -6.793775    84.944719  0.021983623  0.022209354           21 
  323000       0.7439   -6.8166207    84.684877  0.021848524  0.022152598           77 
  324000   0.74045248   -6.8313808     84.77239  0.021803598  0.022096281           23 
  325000   0.73993484   -6.7913821    85.134654  0.021829399  0.022040222           24 
  326000   0.75181893    -6.781098    85.368332  0.021822171  0.021984245           12 
  327000   0.75634714   -6.8179419    85.195292  0.021711338  0.021928345           22 
  328000   0.76809228    -6.805943    85.415499  0.021701092  0.021872223           14 
  329000   0.74401931   -6.8554101    85.178443  0.021575087  0.021815702           18 
  330000    0.7594724    -6.839602    85.316293  0.021544518  0.021759046           75 
  331000   0.73019092   -6.8432758    85.576986  0.021545062   0.02170312           21 
  332000   0.73081861    -6.861155    85.589889  0.021483406  0.021646852           46 
  333000   0.73796875   -6.8410863    85.500184  0.021396442  0.021590109           33 
  334000   0.71846192   -6.8262043    85.368236   0.02129946  0.021533571           57 
  335000   0.74339572   -6.8388406    85.588699  0.021290721  0.021476946           43 
  336000   0.73027935   -6.8382646     85.61212  0.021233165   0.02142023           29 
  337000   0.71623741   -6.8497574    85.571378  0.021160084  0.021363527           81 
  338000    0.7302524   -6.8439311    85.817386  0.021158133  0.021306801           70 
  339000   0.72899835   -6.8596539    85.842511  0.021101895  0.021250522           48 
  340000   0.72004114   -6.8668781    85.797107  0.021028703  0.021194626           51 
  341000   0.72809452   -6.8698875    86.101951  0.021041533  0.021138715           63 
  342000   0.70133102   -6.8534285    86.096555  0.020978693  0.021083315           39 
  343000   0.71761472   -6.8907471    85.888296  0.020866933  0.021026958           92 
  344000    0.7173016   -6.8844286    86.043966  0.020843984  0.020970585          100 
  345000   0.70515316    -6.873577    86.017097  0.020777077  0.020914067           98 
  346000   0.71654957   -6.8812935    85.885042  0.020685222  0.020857617          110 
  347000   0.71888957   -6.8977337    86.052189  0.020665751  0.020801183          157 
  348000   0.71522652   -6.8926445    85.926072  0.020576167  0.020745146          110 
  349000   0.70609834   -6.8958481    86.227876  0.020589273  0.020689161           99 
  350000   0.71106906   -6.8937475    86.154601     0.020513   0.02063321           87 
  351000   0.70546376   -6.9219841    86.260299  0.020479653  0.020577318          113 
  352000   0.70696487   -6.9192345    86.474774  0.020472248  0.020521945           50 
  353000   0.69717553   -6.9252247    86.144819  0.020336359  0.020466512           59 
  354000   0.71828925   -6.9601684    86.169673  0.020284763  0.020411222           65 
  355000   0.69691829   -6.9180881     86.42541  0.020287655  0.020356142           98 
  356000   0.69690694   -6.9309095    86.499839   0.02024809  0.020301102          164 
  357000   0.69340352   -6.9199591    86.621802  0.020219842  0.020246309           97 
  358000   0.72334699   -6.9117694    86.452744  0.020124009  0.020191595          250 
  359000   0.69060284   -6.9523813    86.483335  0.020075055  0.020136649           92 
  360000   0.67799659   -6.9624233    86.509882  0.020025436  0.020081499          168 
  361000   0.70082715   -6.9685215    86.625225  0.019996589  0.020026664          224 
  362000   0.71403693   -6.9464058    86.720041  0.019963177  0.019972035          338 
  363000   0.69594061   -6.9805065     86.72048  0.019908283  0.019917782          362 
  364000    0.6889949   -6.9605668    86.883911  0.019891005  0.019864073          239 
  365000   0.68112872   -6.9679935    86.697396  0.019793926  0.019810079          471 
  366000   0.67123097   -6.9698807    86.877821  0.019780925  0.019755648          402 
  367000   0.70125269   -6.9885585    86.697202  0.019686013   0.01970142          283 
  368000   0.68908223   -6.9576114    86.839937  0.019664841    0.0196477          408 
  369000   0.67701896   -6.9730317    86.721055  0.019584701  0.019593795          307 
  370000   0.69214814   -6.9765386    86.745644  0.019537307  0.019539504          530 
  371000   0.66960156   -6.9788141    86.834766  0.019504664  0.019485134          615 
  372000   0.66137432   -6.9979593    86.694182   0.01942074  0.019430831          633 
  373000   0.68290354   -7.0071001    86.791906  0.019390506  0.019376706          724 
  374000   0.66832753   -7.0180323    86.675556  0.019312735  0.019322506          797 
  375000   0.67764058   -7.0309398    86.613381  0.019247418  0.019268143          829 
  376000    0.6789661   -7.0315585    86.760872  0.019228917  0.019213496          800 
  377000   0.66981775   -7.0376438    86.421793   0.01910296  0.019158482          872 
  378000   0.66866329   -7.0221891    86.737866  0.019122105  0.019103501          870 
  379000   0.66546705   -7.0226545    86.614909  0.019044615   0.01904855          822 
  380000   0.66126358   -7.0544952    86.513654  0.018972293  0.018993925          864 
  381000   0.65315064    -7.053409    86.874602  0.019001444   0.01893954          929 
  382000   0.65076333   -7.0438255    86.762728  0.018927297  0.018885403         1024 
  383000   0.65165816   -7.0735381     86.55409  0.018832482  0.018831096          993 
  384000   0.64662967   -7.0844786    86.789586  0.018834546  0.018776687         1086 
  385000   0.65571086   -7.0775496    86.617896  0.018748462  0.018722507         1126 
  386000   0.65639828   -7.0882787    86.511104  0.018676836  0.018668077         1306 
  387000   0.65073231   -7.0853641    86.553519  0.018637709   0.01861387         1240 
  388000   0.65572197   -7.0966867    86.740783  0.018629893  0.018559811         1292 
  389000   0.63582637    -7.115787    86.629918  0.018558251  0.018505486         1344 
  390000   0.63974013   -7.1256954     86.42874   0.01846768  0.018450957         1425 
  391000   0.64056817    -7.128005     86.47653  0.018430633  0.018396474         1442 
  392000   0.65122358   -7.1497435    86.368172  0.018360581  0.018341723         1604 
  393000   0.63803193    -7.137188    86.420393  0.018324935  0.018287015         1568 
  394000   0.63956443   -7.1227691    86.316984  0.018256553  0.018232571         1640 
  395000   0.63005595   -7.1341206    86.404142  0.018228722  0.018178149         1711 
  396000   0.63720377   -7.1484007    86.341168  0.018169438  0.018123916         1753 
  397000    0.6316263   -7.1541546    86.263688  0.018107407  0.018069728         1891 
  398000   0.62666289   -7.1774517    86.253522  0.018059783   0.01801551         1947 
  399000   0.61841778   -7.1947053    86.307066  0.018025703  0.017961251         1973 
  400000   0.62102407   -7.1880952    86.295829  0.017978298  0.017907029         2006 
  401000   0.62571273   -7.1644132    86.160919  0.017905428  0.017852867         2059 
  402000   0.63709405   -7.1818617    86.299324  0.017889578  0.017798533         2203 
  403000   0.62802681   -7.2126229    86.159318  0.017816236  0.017744318         2313 
  404000   0.62972223   -7.2291054    86.013684  0.017742097  0.017689855         2487 
  405000   0.61755554   -7.2471958    85.890012  0.017672842  0.017635367         2562 
  406000   0.62862885   -7.2434786    85.808302  0.017612541  0.017581012         2647 
  407000   0.61249767   -7.2502133    85.888401  0.017585668  0.017526769         2580 
  408000   0.61448928    -7.253989    85.799038  0.017524313  0.017472452         2681 
  409000   0.61214768   -7.2769474    85.740637  0.017469567  0.017418103         2775 
  410000   0.61533586   -7.2654282    85.934599  0.017466382   0.01736396         2799 
  411000   0.61602322   -7.2948885     85.79064  0.017394696  0.017309654         2898 
  412000   0.61206225   -7.2937599    85.826252  0.017359679   0.01725543         2993 
  413000   0.60913041   -7.3250649    85.659567  0.017284013  0.017201362         3026 
  414000   0.61422057   -7.3131557    85.650471  0.017240433  0.017147391         3118 
  415000   0.59803844   -7.3232214    85.607343   0.01719023  0.017093607         3120 
  416000   0.61479186    -7.342512    85.638331  0.017155114  0.017039749         3185 
  417000   0.61544793   -7.3466437    85.381325  0.017062615  0.016986026         3253 
  418000   0.60792145   -7.3697908    85.537568  0.017052944  0.016932285         3300 
  419000   0.59191462   -7.3838778    85.504137  0.017005596  0.016878626         3322 
  420000   0.59174371   -7.3831522    85.436664  0.016951719  0.016825075         3318 
  421000   0.59062759   -7.3785256     85.22758  0.016870067   0.01677153         3357 
  422000   0.59593027   -7.3756798    85.529253  0.016889663  0.016718388         3364 
  423000   0.59878136   -7.3830739    85.587372  0.016861184  0.016665378         3344 
  424000   0.59370114   -7.4117221    85.397475  0.016784095  0.016612555         3469 
  425000   0.59075266   -7.3975934    85.616733  0.016787595  0.016559884         3389 
  426000   0.58216375    -7.405285       85.325  0.016691119  0.016507352         3474 
  427000   0.58665989    -7.410305    85.438762  0.016674232  0.016454782         3490 
  428000   0.58548198   -7.4044253    85.421218  0.016631857  0.016402326         3488 
  429000   0.57800861   -7.4219568    85.211621  0.016552374  0.016350144         3528 
  430000   0.58981982   -7.4201616    85.338436  0.016538457  0.016297998         3534 
  431000   0.58372565   -7.4103196    85.319947  0.016496509  0.016246087         3547 
  432000    0.5720893   -7.4217386    85.253075  0.016445423  0.016194365         3563 
  433000   0.57375947   -7.4277112    85.422203  0.016439993  0.016142927         3518 
  434000   0.56410741   -7.4347438    85.485709  0.016414307  0.016091596         3584 
  435000   0.56755309   -7.4539336    85.477785  0.016375055  0.016040421         3614 
  436000   0.57518257   -7.4585613    85.307665  0.016304982  0.015989408         3669 
  437000   0.56729405   -7.4532883    85.371577  0.016279858  0.015938584         3631 
  438000    0.5774095   -7.4641335    85.291945  0.016227539  0.015888093         3658 
  439000   0.56893054   -7.4781055    85.363681  0.016204191  0.015837578         3690 
  440000    0.5691605   -7.4970585    85.254006  0.016146592  0.015787155         3674 
  441000   0.56425077   -7.4884522    85.050699  0.016071561  0.015736762         3707 
  442000   0.56011479   -7.5046939    85.168194  0.016057352  0.015686465         3718 
  443000   0.55598244   -7.5288231    85.058007  0.016000377   0.01563636         3747 
  444000   0.56042873   -7.5133382     85.11867  0.015975726  0.015586283         3736 
  445000   0.55264133   -7.5073346    84.970324  0.015912046  0.015536467         3749 
  446000   0.55823919   -7.5052817    85.115581  0.015903509  0.015486751         3765 
  447000   0.57011584   -7.5312066    85.175515  0.015879104  0.015437218         3766 
  448000   0.55805401   -7.5286362    85.163538  0.015841432  0.015387867         3729 
  449000   0.54681798    -7.540378    84.851792  0.015748291  0.015338621         3744 
  450000   0.55189045   -7.5410848    85.098443  0.015758971  0.015289496         3772 
  451000   0.54622754   -7.5411251    85.002804  0.015706357   0.01524057         3793 
  452000   0.54712005   -7.5453975    84.906761  0.015653901  0.015191731         3765 
  453000   0.54174749   -7.5666074    85.115277  0.015657704  0.015143068         3779 
  454000   0.53861096   -7.5520798    85.073055  0.015615465  0.015094654         3810 
  455000   0.54897215   -7.5631646    85.013677   0.01557027   0.01504635         3793 
  456000   0.53825338   -7.5561794    84.889296  0.015513395   0.01499816         3802 
  457000   0.54983566   -7.5598956    84.947884  0.015490132   0.01495019         3811 
  458000   0.54306683    -7.581255    84.941426  0.015455136  0.014902249         3813 
  459000   0.53059133   -7.5732054    84.913457  0.015416387  0.014854476         3822 
  460000   0.52395771    -7.587522    84.929244  0.015385733  0.014806926         3807 
  461000   0.52241219   -7.6018085    85.014658  0.015367798  0.014759611         3785 
  462000   0.53246624   -7.5878003    84.883129   0.01531081  0.014712485         3805 
  463000   0.53334722   -7.6056769    84.954056  0.015290507  0.014665534         3852 
  464000   0.53313743   -7.6108435    84.756532  0.015222078   0.01461873         3848 
  465000   0.52882755   -7.6223185     84.77817   0.01519322  0.014572034         3833 
  466000   0.51465117   -7.6194396     84.73976  0.015153748  0.014525487         3838 
  467000   0.51644861   -7.6139549    84.780271  0.015128528  0.014479067         3805 
  468000   0.51255909   -7.6196024    84.832237  0.015105455  0.014432832         3782 
  469000   0.52709853   -7.6394625    84.917683   0.01508843  0.014386726         3804 
  470000   0.50395075   -7.6255322    84.726106  0.015022359  0.014340858         3820 
  471000   0.52423358   -7.6475504    84.714551   0.01498842  0.014295107         3807 
  472000   0.51241445   -7.6359118    84.688946  0.014952144  0.014249571         3850 
  473000   0.49597141   -7.6566564    84.796781  0.014939532  0.014204063         3795 
  474000   0.51777328   -7.6562093    84.669424  0.014885623  0.014158773         3814 
  475000   0.50046028   -7.6440243    84.725964  0.014864204  0.014113601         3837 
  476000    0.5089388   -7.6418617    84.869126   0.01485804  0.014068647         3826 
  477000   0.50829135   -7.6474122    84.833559  0.014820678  0.014023829         3816 
  478000   0.50404208   -7.6706366    84.716437  0.014769253  0.013979214         3820 
  479000   0.50796382   -7.6605891    84.638561  0.014724871  0.013934644         3844 
  480000   0.49738193   -7.6528107    84.622697   0.01469144  0.013890342         3835 
  481000    0.4903573   -7.6512993     84.68669  0.014671984  0.013846126         3840 
  482000   0.49993437   -7.6471825    84.748154   0.01465217  0.013802077         3846 
  483000   0.50612548   -7.6646278    84.558535  0.014589119  0.013758239         3866 
  484000   0.50592951   -7.6601056     84.48339  0.014546038  0.013714505         3832 
  485000   0.49021969   -7.6767952    84.579618   0.01453258  0.013670963         3846 
  486000   0.47986112   -7.6875628    84.652653  0.014515201  0.013627592         3864 
  487000   0.49302996   -7.6745851    84.436338  0.014448381  0.013584361         3848 
  488000   0.48361972   -7.6972194    84.599186  0.014446582  0.013541283         3863 
  489000   0.48222347    -7.691868    84.655555  0.014426645  0.013498335         3878 
  490000   0.48709617   -7.6796188    84.435222  0.014359732  0.013455618         3850 
  491000   0.47980726   -7.6770508    84.547926  0.014349614  0.013412993         3861 
  492000   0.47556488   -7.7003403    84.415904  0.014298087  0.013370547         3850 
  493000    0.4795787   -7.6879342    84.464232  0.014277254  0.013328303         3845 
  494000   0.46674129   -7.6906689    84.421391  0.014241125  0.013286223         3865 
  495000    0.4684008    -7.712644    84.453734    0.0142178  0.013244221         3837 
  496000   0.48440824   -7.6929581    84.389604  0.014178361  0.013202391         3836 
  497000   0.47467747   -7.6899624    84.399081  0.014151422  0.013160788         3839 
  498000    0.4713565   -7.7006605    84.565079  0.014150783  0.013119334         3847 
  499000    0.4744575   -7.7068153    84.441513  0.014101789  0.013078034         3882 
  500000   0.47623113   -7.7009227    84.449756  0.014074959  0.013036854         3857 
  501000   0.46355854     -7.70828    84.430895  0.014043728  0.012995808         3875 
  502000   0.46320357   -7.6878171    84.281963   0.01399103  0.012954905         3878 
  503000    0.4671113   -7.7068759    84.429984  0.013987738  0.012914219         3849 
  504000   0.46680177   -7.7118471    84.545331  0.013979056  0.012873671         3877 
  505000   0.47375253     -7.71273    84.416031  0.013930038  0.012833289         3848 
  506000   0.45998357   -7.7194959    84.380382  0.013896637  0.012793068         3859 
  507000   0.45642007   -7.7316264    84.254387  0.013848519   0.01275295         3879 
  508000   0.45617826   -7.7189316    84.305603  0.013829659  0.012713057         3851 
  509000   0.45385037   -7.7217962    84.352072  0.013810097  0.012673245         3878 
  510000   0.44998683   -7.7216336    84.301899   0.01377482  0.012633653         3879 
  511000   0.45269176    -7.712269    84.330554  0.013752537  0.012594194         3863 
  512000   0.44422643   -7.7342003    84.381219  0.013733922  0.012554898         3848 
Loop time of 1050.61 on 48 procs for 500000 steps with 4000 atoms

Performance: 82238.287 tau/day, 475.916 timesteps/s
99.4% CPU use with 48 MPI tasks x no OpenMP threads

MPI task timing breakdown:
Section |  min time  |  avg time  |  max time  |%varavg| %total
---------------------------------------------------------------
Pair    | 64.531     | 67.73      | 70.314     |  15.0 |  6.45
Neigh   | 6.6748     | 6.7913     | 7.4502     |   4.2 |  0.65
Comm    | 56.387     | 60.407     | 65.147     |  24.1 |  5.75
Output  | 0.92544    | 0.92592    | 0.93608    |   0.2 |  0.09
Modify  | 896.71     | 903.23     | 908.19     |   9.2 | 85.97
Other   |            | 11.52      |            |       |  1.10

Nlocal:        83.3333 ave          90 max          77 min
Histogram: 4 2 3 9 8 5 7 8 1 1
Nghost:        1751.35 ave        1767 max        1730 min
Histogram: 3 2 1 3 9 4 10 7 7 2
Neighs:        10515.3 ave       11389 max        9587 min
Histogram: 5 1 2 2 11 11 5 7 2 2
FullNghs:      21074.2 ave       22908 max       19396 min
Histogram: 1 4 6 9 7 4 8 6 1 2

Total # of neighbors = 1011564
Ave neighs/atom = 252.89100
Neighbor list builds = 27012
Dangerous builds = 1

#clear
#
#next RN
#
#jump SELF
Total wall time: 0:17:33
