
units lj                  # Use reduced LJ style units
atom_style atomic         # Uncharged point particles
atom_modify map hash      # Needed for indexing of clusters etc
                          # Used to be able to find where atoms are in relation to each other.

lattice fcc 1.0 spacing 1 1 1
Lattice spacing in x,y,z = 1.5874011 1.5874011 1.5874011
region box block 0 10 0 10 0 10 units lattice
create_box 2 box
Created orthogonal box = (0.0000000 0.0000000 0.0000000) to (15.874011 15.874011 15.874011)
  3 by 4 by 4 MPI processor grid
create_atoms 1 box
Created 4000 atoms
  using lattice units in orthogonal box = (0.0000000 0.0000000 0.0000000) to (15.874011 15.874011 15.874011)
  create_atoms CPU = 0.003 seconds
set type 1 type/fraction 2 0.63 78393
Setting atom values ...
  2531 settings made for type/fraction
mass 1 1.0
mass 2 1.0
pair_style lj/cut  3.5
pair_modify tail  yes
pair_coeff 1  1  1.0  1.0   # Intearaction between 1 and 1 set with epsilon = 1 and sigma = 1
pair_coeff 1  2  1.5  0.8
pair_coeff 2  2  0.5  0.88

write_data data.0
System init for write_data ...
Neighbor list info ...
  update every 1 steps, delay 10 steps, check yes
  max neighbors/atom: 2000, page size: 100000
  master list distance cutoff = 3.8
  ghost atom cutoff = 3.8
  binsize = 1.9, bins = 9 9 9
  1 neighbor lists, perpetual/occasional/extra = 1 0 0
  (1) pair lj/cut, perpetual
      attributes: half, newton on
      pair build: half/bin/atomonly/newton
      stencil: half/bin/3d
      bin: standard
WARNING: Not all mixed pair coeffs generated from mixing. Use write_data with 'pair ij' option to store all pair coeffs. (../write_data.cpp:312)


#############################
#   M E L T   S Y S T E M   #
#############################

velocity all create 2.4 8172548 mom yes dist gaussian # Assign velocities
                                                    # Temperature 2.4, random number seed, zero linear momentum
                                                                                # Gaussian distribution

timestep 0.002   # simulation timestep
thermo 1000       # output thermodynamic data every 1000 steps bf 100

# Define a fix  in this case with index 1 applied to all
# particles in the simulation. This fix is for simulations
# in the anisotropic NPT ensemble. Note that we use the MTK
# correction.
fix 1 all npt temp 2.4 2.4 0.1 iso 5.68 5.68 0.5 mtk yes tchain 5 pchain 5 # Use NPT ensemble
                                                                         # Set temperature and pressure and damping
                                                                         # Numbers of thermostats in chain and in barostat
run 10000          # run for 10000 steps
Per MPI rank memory allocation (min/avg/max) = 3.642 | 3.644 | 3.648 Mbytes
Step Temp E_pair E_mol TotEng Press Volume 
       0          2.4    -4.562992            0  -0.96389204   -3.9987934         4000 
    1000    2.3650121    -4.293868            0  -0.74723664    5.7958232    3605.4492 
    2000    2.4044644   -4.3455626            0  -0.73976763    5.4392297     3608.061 
    3000    2.4333707   -4.3057926            0  -0.65664904    5.4511451    3628.2908 
    4000    2.3764534   -4.2718888            0  -0.70809987    5.7282695    3622.4949 
    5000    2.3569193   -4.3277568            0  -0.79326167    5.7803215    3579.3994 
    6000    2.4306288   -4.3222779            0  -0.67724617    5.4570089    3612.8035 
    7000    2.4466724   -4.3268263            0  -0.65773511    5.8574677    3584.8289 
    8000    2.3984936   -4.2513516            0  -0.65451074    5.9027903    3619.9461 
    9000    2.3492485   -4.3196266            0  -0.79663487    5.7562172    3594.8715 
   10000    2.4345759   -4.2982614            0  -0.64731057    5.5617731    3627.3622 
Loop time of 2.69731 on 48 procs for 10000 steps with 4000 atoms

Performance: 640638.148 tau/day, 3707.397 timesteps/s
99.6% CPU use with 48 MPI tasks x no OpenMP threads

MPI task timing breakdown:
Section |  min time  |  avg time  |  max time  |%varavg| %total
---------------------------------------------------------------
Pair    | 1.2169     | 1.286      | 1.4086     |   2.8 | 47.68
Neigh   | 0.2217     | 0.22699    | 0.24142    |   0.8 |  8.42
Comm    | 0.79568    | 0.90374    | 0.99004    |   4.1 | 33.51
Output  | 0.00025837 | 0.00026312 | 0.000329   |   0.0 |  0.01
Modify  | 0.22875    | 0.26438    | 0.29405    |   3.7 |  9.80
Other   |            | 0.01592    |            |       |  0.59

Nlocal:        83.3333 ave          99 max          78 min
Histogram: 14 12 6 5 7 2 1 0 0 1
Nghost:        1753.60 ave        1783 max        1716 min
Histogram: 2 2 0 7 5 6 16 6 1 3
Neighs:        10523.8 ave       12918 max        9521 min
Histogram: 6 9 11 8 8 4 1 0 0 1

Total # of neighbors = 505142
Ave neighs/atom = 126.28550
Neighbor list builds = 906
Dangerous builds = 202

# Equilibrate just above the melting temperature to avoid step fn in T

fix 1 all npt temp 1.25 1.25 0.1 iso 5.68 5.68 0.5 mtk yes tchain 5 pchain 5
run 2000
Per MPI rank memory allocation (min/avg/max) = 3.644 | 3.646 | 3.650 Mbytes
Step Temp E_pair E_mol TotEng Press Volume 
   10000    2.4345759   -4.2982614            0  -0.64731057    5.5617731    3627.3622 
   11000    1.2684256   -6.3017414            0   -4.3995786    5.9390648    2756.5589 
   12000    1.2216477   -6.3891291            0   -4.5571156    5.5865194    2742.4092 
Loop time of 0.676298 on 48 procs for 2000 steps with 4000 atoms

Performance: 511017.084 tau/day, 2957.275 timesteps/s
99.6% CPU use with 48 MPI tasks x no OpenMP threads

MPI task timing breakdown:
Section |  min time  |  avg time  |  max time  |%varavg| %total
---------------------------------------------------------------
Pair    | 0.30611    | 0.3318     | 0.37505    |   2.6 | 49.06
Neigh   | 0.042578   | 0.045301   | 0.051411   |   0.8 |  6.70
Comm    | 0.201      | 0.24782    | 0.27641    |   3.3 | 36.64
Output  | 5.2979e-05 | 5.4261e-05 | 7.1068e-05 |   0.0 |  0.01
Modify  | 0.042526   | 0.046283   | 0.050596   |   1.1 |  6.84
Other   |            | 0.005045   |            |       |  0.75

Nlocal:        83.3333 ave          89 max          75 min
Histogram: 1 0 5 7 3 6 4 12 5 5
Nghost:        2120.35 ave        2144 max        2100 min
Histogram: 1 1 6 11 11 10 1 3 3 1
Neighs:        13923.8 ave       15197 max       12387 min
Histogram: 2 3 5 4 8 3 7 9 3 4

Total # of neighbors = 668342
Ave neighs/atom = 167.08550
Neighbor list builds = 144
Dangerous builds = 10

#############################
# L I N E A R  Q U E N C H  #
#############################

# Define solid atoms. This closely follows ten Wolde  Ruiz-Montero and Frenkel  Faraday Discuss  1996  104  93-110
# Compute components of the per-atom q6 vector
compute q6 all orientorder/atom degrees 1 6 components 6 nnn NULL cutoff 1.3 # compute the Q6 parameter.
                                                                             # Use all neighbours within 1.3 unit cell.

# get number of connections
compute coord_number all coord/atom orientorder q6 0.5

# An atom is solid if it has 8 or more connections (of a possible 14)
variable is_solid atom c_coord_number>=8
group solid dynamic all var is_solid    # Must be dynamic to update
dynamic group solid defined

# do clustering
compute cluster solid cluster/atom 1.3 # Create a cluster where all atoms within are solid and max 1.3 units from another member

# define chunks one chunk per cluster
compute clus_chunks solid chunk/atom c_cluster nchunk every compress yes  # Says which atoms are in which chunk

# count the size of each chunk
compute size_chunks solid property/chunk clus_chunks count


# Find the maximum entry in the vector of chunk sizes
variable max_n equal max(c_size_chunks)


# Thermo style which includes this variable
# thermo_style custom step temp pe vol v_max_n

thermo ${N}  # Print the thermo information every 100 steps
thermo 1000  

# Reset the npt fix at a lower temperature (below freezing)
fix 1  all npt temp  ${temp} ${temp}  0.1  iso  5.68  5.68  0.5  mtk yes tchain  5  pchain  5
fix 1  all npt temp  0.45 ${temp}  0.1  iso  5.68  5.68  0.5  mtk yes tchain  5  pchain  5
fix 1  all npt temp  0.45 0.45  0.1  iso  5.68  5.68  0.5  mtk yes tchain  5  pchain  5

dump dmp2 all dcd ${N} traj.dcd
dump dmp2 all dcd 1000 traj.dcd


compute msd all msd com yes
variable twopoint equal c_msd[4]/6/(step*dt+1.0e-6)
fix 9 all vector 10 c_msd[4]
variable fit equal slope(f_9)/6/(10*dt)
thermo_style custom step temp pe c_msd[4] v_twopoint v_fit v_max_n

fix 1 all npt temp 1.25 ${temp} 0.1 iso 5.68 5.68 0.5 mtk yes tchain 5 pchain 5
fix 1 all npt temp 1.25 0.45 0.1 iso 5.68 5.68 0.5 mtk yes tchain 5 pchain 5
run 5000000 # 5000000  # Run for this many steps
Neighbor list info ...
  update every 1 steps, delay 10 steps, check yes
  max neighbors/atom: 2000, page size: 100000
  master list distance cutoff = 3.8
  ghost atom cutoff = 3.8
  binsize = 1.9, bins = 8 8 8
  4 neighbor lists, perpetual/occasional/extra = 1 3 0
  (1) pair lj/cut, perpetual
      attributes: half, newton on
      pair build: half/bin/atomonly/newton
      stencil: half/bin/3d
      bin: standard
  (2) compute orientorder/atom, occasional
      attributes: full, newton on
      pair build: full/bin/atomonly
      stencil: full/bin/3d
      bin: standard
  (3) compute coord/atom, occasional
      attributes: full, newton on
      pair build: full/bin/atomonly
      stencil: full/bin/3d
      bin: standard
  (4) compute cluster/atom, occasional
      attributes: full, newton on
      pair build: full/bin/atomonly
      stencil: full/bin/3d
      bin: standard
Per MPI rank memory allocation (min/avg/max) = 9.847 | 9.852 | 9.854 Mbytes
Step Temp PotEng c_msd[4] v_twopoint v_fit v_max_n 
   12000    1.2216477   -6.3891291 1.7976168e-30 1.2483449e-32 8.3333333e+20            2 
   13000     1.238384   -6.3780258   0.52201745 0.0033462656   0.04359702            2 
   14000    1.2730975    -6.352644   0.95904575 0.0057086055  0.038984801            2 
   15000    1.2590006   -6.4445473     1.399221 0.0077734499  0.037854892            2 
   16000    1.2399411   -6.4216349    1.8895365 0.0098413355  0.038168533            2 
   17000    1.2270191    -6.380668    2.4059906  0.011794071  0.038774939            2 
   18000    1.2404537   -6.3645273    2.9190192  0.013513978  0.039498871            3 
   19000    1.2421331   -6.4182886    3.3992123  0.014908825  0.040172043            2 
   20000    1.2398932   -6.3884348    3.9370564  0.016404401  0.040443261            3 
   21000    1.2270375   -6.3896152    4.3912635  0.017425648   0.04062294            4 
   22000    1.2485681   -6.4053909    4.8100187  0.018219768  0.040629645            2 
   23000    1.2326424   -6.3703563    5.2489962  0.019018102  0.040388003            3 
   24000    1.2516843   -6.3887978    5.7064281  0.019813986  0.040070994            2 
   25000    1.2231743   -6.3715521    6.1509783  0.020503261  0.039841978            1 
   26000    1.2757881   -6.3836821    6.5859242  0.021108731  0.039562366            4 
   27000     1.234788   -6.3947641     7.092676  0.021890975  0.039316861            2 
   28000    1.2643768   -6.4000367    7.4766952  0.022252069  0.039153416            4 
   29000    1.2615795    -6.379004    8.0285812  0.023070635  0.039070296            2 
   30000    1.2558574   -6.4197485    8.4642997  0.023511943  0.038993893            2 
   31000    1.2534525   -6.3816037    8.9091355  0.023949289    0.0389452            1 
   32000    1.2586058   -6.3905854    9.3727531  0.024408211  0.038868238            2 
   33000    1.2366608    -6.386981    9.7311454  0.024573599  0.038757245            2 
   34000    1.2356459   -6.4298753    10.097813  0.024749541  0.038559229            2 
   35000    1.2255158   -6.3728234     10.60683  0.025254356  0.038416024            2 
   36000    1.2701126   -6.4440775    11.023742   0.02551792  0.038299195            5 
   37000    1.2469631   -6.3533229    11.580197  0.026081524  0.038235437            2 
   38000    1.2665102   -6.4275473    12.031144  0.026384088  0.038180856            3 
   39000     1.235394   -6.3711514    12.553386  0.026823474  0.038201474            3 
   40000    1.2246151   -6.4217534    12.908748  0.026893225  0.038182518            2 
   41000    1.2352235   -6.3881037    13.457934  0.027353524  0.038158507            1 
   42000    1.2697311   -6.3834629    13.751973   0.02728566  0.038106908            4 
   43000    1.2420184   -6.3698779    14.352907  0.027815711  0.038095144            3 
   44000    1.2367151   -6.3966232    14.612939   0.02767602  0.038041875            4 
   45000    1.2739117   -6.3616496    15.180433  0.028111914  0.038012086            3 
   46000    1.2495894   -6.3568793    15.784448  0.028595013  0.038025734            2 
   47000    1.2513861   -6.3588437    16.167464  0.028665716  0.038030523            2 
   48000    1.2165277   -6.4216562    16.587878  0.028798399   0.03803667            3 
   49000    1.2438937   -6.3931795    17.143658   0.02915588   0.03804926            5 
   50000    1.2360592   -6.4666944    17.538396   0.02923066  0.038086891            3 
   51000    1.2325283   -6.3626915    18.207827  0.029751351  0.038128584            3 
   52000    1.2395018   -6.3808617    18.719145   0.02999863  0.038210673            4 
   53000    1.2274152   -6.3477262    19.182263  0.030160791  0.038289717            3 
   54000    1.2518258   -6.4402638    19.551606  0.030172232  0.038326957            5 
   55000    1.2636839   -6.4231512    19.983252  0.030277654  0.038361327            5 
   56000    1.2517874   -6.3892267    20.456404  0.030441077  0.038393985            4 
   57000    1.2403299   -6.4111564    20.846198  0.030476897  0.038413208            3 
   58000    1.2375423   -6.4226547    21.319068  0.030630845   0.03842162            3 
   59000    1.2272571   -6.4026991    21.715629  0.030671793   0.03841487            2 
   60000    1.2594518   -6.3864199    22.186421  0.030814473  0.038405739            4 
   61000    1.2460284   -6.4144266    22.691598  0.030999451  0.038399475            4 
   62000    1.2392036   -6.4107612    23.223984  0.031215032  0.038410172            4 
   63000    1.2708066   -6.4230375    23.757442  0.031425188  0.038436632            6 
   64000    1.2364495   -6.4263593    24.132961  0.031423126  0.038454838            3 
   65000    1.2405521    -6.439857    24.740163  0.031718158  0.038474317            3 
   66000    1.2222134   -6.3970498    25.159625  0.031767203  0.038493632            3 
   67000     1.232251   -6.3826787    25.821948  0.032116851  0.038531818            3 
   68000    1.2430288   -6.4338847    26.256834  0.032177492  0.038572778            2 
   69000    1.2398841   -6.3969742    26.842097  0.032417991  0.038614321            2 
   70000    1.2444407   -6.4289736    27.408794  0.032629516  0.038674954            2 
   71000      1.26108   -6.4329002    27.709782  0.032523218  0.038724713            2 
   72000    1.2371564     -6.40227    28.378552  0.032845546  0.038769504            2 
   73000     1.270285   -6.3873616     28.71485  0.032779509  0.038805294            4 
   74000    1.2255168   -6.4233114     29.10316  0.032773828   0.03883639            2 
   75000    1.2186714   -6.4526065    29.680202  0.032978002  0.038872034            3 
   76000    1.2150704   -6.4230386    30.138062  0.033046121  0.038910117            4 
   77000    1.2358913   -6.4274367    30.476206  0.032982907  0.038938133            3 
   78000    1.2516721    -6.387125    31.030308  0.033152038  0.038954789            2 
   79000    1.2361892   -6.4419133    31.582905  0.033315301  0.038980488            1 
   80000    1.2241377   -6.3987679    32.042056  0.033377141  0.039005035            3 
   81000    1.2682115    -6.397243    32.535719  0.033472962  0.039033901            2 
   82000    1.2375993     -6.45352    32.831463  0.033365308  0.039053937            4 
   83000    1.2313713   -6.4321283    33.444119  0.033578433  0.039074391            1 
   84000     1.248569   -6.4407116    34.107842  0.033837145  0.039106616            4 
   85000     1.224805   -6.4118728    34.423947  0.033748967  0.039136828            2 
   86000    1.2365453   -6.3792157    35.129737  0.034040442  0.039165171            2 
   87000    1.2363907   -6.3790616    35.668083   0.03416483   0.03919262            2 
   88000    1.2511055    -6.438556    35.845684  0.033944776  0.039215362            5 
   89000    1.2431822   -6.4401639    36.168499  0.033865636  0.039225364            3 
   90000    1.2284922   -6.4878378    36.381901  0.033686945  0.039223461            3 
   91000     1.241389   -6.4452487    36.967151  0.033852702  0.039211161            2 
   92000    1.2302767   -6.4305082    37.183567  0.033680767  0.039190666            2 
   93000    1.2608029   -6.4245482    37.782336   0.03385514  0.039169325            3 
   94000    1.2367746   -6.4087682    38.237331  0.033898343  0.039154154            3 
   95000    1.2177204   -6.4032666    38.739192  0.033981747  0.039140656            2 
   96000    1.2378176   -6.3897503    39.052523   0.03389976  0.039124366            2 
   97000    1.2282777   -6.4185251    39.567956  0.033993089  0.039106869            4 
   98000    1.2118531   -6.4094981    40.331127  0.034295176   0.03909724            3 
   99000    1.2538486   -6.4160256    40.542073  0.034126324  0.039094343            3 
  100000    1.2401701   -6.3809945    41.115995  0.034263329  0.039085411            1 
  101000    1.2217211   -6.4155754    41.626236  0.034345079  0.039079477            2 
  102000    1.2183151   -6.4355464    41.995055  0.034309686  0.039075817            2 
  103000    1.2525965   -6.4242934    42.407757  0.034310483  0.039065401            1 
  104000    1.2330489   -6.4148122    43.101265   0.03453627  0.039056819            1 
  105000    1.2254341   -6.4275312    43.540062  0.034555605  0.039051688            2 
  106000    1.2496848   -6.4110788    43.935605   0.03454057   0.03905539            2 
  107000    1.2191896   -6.4298743    44.578449  0.034718418   0.03905835            2 
  108000    1.2294944   -6.4493277     45.02585  0.034742168   0.03906691            2 
  109000    1.2243748   -6.4232829     45.34952  0.034670887  0.039069249            2 
  110000    1.2223713   -6.4104146    45.782295  0.034683556  0.039068223            3 
  111000    1.2069582   -6.3498875    46.294055  0.034755296  0.039064827            1 
  112000    1.2174088   -6.4468577    46.859333  0.034865575  0.039063822            1 
  113000    1.2495063   -6.4843245     46.80604  0.034517728  0.039053357            2 
  114000    1.2210297   -6.4429946     47.49422  0.034717997  0.039037702            3 
  115000    1.1945635     -6.45078    47.847737  0.034672273  0.039019462            2 
  116000    1.2069116   -6.4207145    48.261721  0.034670777  0.038996827            2 
  117000    1.2270142   -6.4288686    48.601459  0.034616423  0.038977025            3 
  118000    1.2447137   -6.4463131    48.864909  0.034509116  0.038952811            4 
  119000    1.2245585   -6.4179918    49.386329  0.034584264  0.038929572            7 
  120000    1.2207018   -6.4102446    50.189018  0.034853485  0.038908589            4 
  121000    1.2146367   -6.4702576    50.292474   0.03463669  0.038889194            4 
  122000    1.2470747   -6.4500806    50.912049   0.03477599  0.038869956            1 
  123000    1.2026873   -6.4506279    51.273245  0.034737971  0.038851653            1 
  124000    1.2348742   -6.4532265    51.733292  0.034766997  0.038835263            4 
  125000    1.2236443   -6.4576036    52.270448  0.034846965  0.038814621            4 
  126000    1.2214437   -6.4195326    52.780462  0.034907713  0.038792119            3 
  127000    1.2268132   -6.4003021    53.347607  0.035004992  0.038778255            4 
  128000    1.2308657   -6.4145676     53.99094  0.035150351  0.038770893            2 
  129000    1.2404867   -6.4291151    54.279222  0.035064097  0.038761723            3 
  130000     1.221905   -6.4389064    54.393067  0.034867351  0.038745104            4 
  131000    1.2383991   -6.4468045    54.882714  0.034912668  0.038728912            5 
  132000    1.2472745   -6.4592398     55.39923  0.034974261  0.038710604            5 
  133000    1.2305375   -6.4184057    55.822746  0.034976658  0.038697342            4 
  134000    1.2330759   -6.4109728    56.490577  0.035130955  0.038679378            4 
  135000    1.2355889   -6.4141769    56.762736  0.035038726   0.03866484            5 
  136000    1.2277594   -6.4292245      57.3004  0.035110539  0.038653275            5 
  137000    1.2354883   -6.4331341    57.421049  0.034927645  0.038639676            5 
  138000    1.2223693   -6.4400416    58.008918  0.035029539  0.038623962            2 
  139000    1.2295501   -6.4446981    58.691613  0.035186818  0.038608199            3 
  140000    1.2151587    -6.417133    58.908565  0.035064622  0.038594305            3 
  141000    1.2507316    -6.427223    59.555022  0.035198003  0.038582339            2 
  142000    1.2261003   -6.4547556    59.844198  0.035119834  0.038572237            2 
  143000    1.2302108   -6.4263576    60.746861  0.035400269   0.03856529            3 
  144000    1.2238137   -6.4267818    61.172989  0.035401035  0.038563368            1 
  145000    1.2262107   -6.4613018    61.341229   0.03525358  0.038558835            2 
  146000      1.23861   -6.4915635    61.784066  0.035264878  0.038552236            3 
  147000    1.2028221    -6.428791    62.385469  0.035365912  0.038544243            2 
  148000    1.2043159   -6.4140379    62.905479  0.035419752  0.038537981            2 
  149000    1.2466451   -6.4915636    63.345813  0.035428307  0.038535522            1 
  150000    1.2076735   -6.4696117     63.64933  0.035360739  0.038530518            1 
  151000    1.2169776   -6.4391623    64.430669  0.035557764  0.038527743            3 
  152000    1.2056602   -6.4648567    64.769361  0.035509518  0.038528034            5 
  153000    1.2176038   -6.4783878    65.098519  0.035456709  0.038523141            3 
  154000    1.2169165   -6.4506905    65.803509  0.035607959  0.038519683            2 
  155000    1.1900191   -6.4514248    66.242043  0.035614002  0.038519366            5 
  156000    1.2216272   -6.4597187    66.627023  0.035591358  0.038517162            5 
  157000    1.2522434   -6.4847258    67.198452  0.035667968   0.03851728            2 
  158000    1.2590204   -6.4505181    67.752011  0.035734183  0.038522394            4 
  159000    1.2271096   -6.4391088    68.465343  0.035883303  0.038526898            1 
  160000     1.237649   -6.4516105    68.732221  0.035798031  0.038523423            3 
  161000    1.1997542   -6.4423371     69.01971  0.035724488  0.038527459            3 
  162000    1.2225371   -6.4337088    69.505251   0.03575373  0.038526755            1 
  163000    1.2012164   -6.4639007    70.279703  0.035930319  0.038527227            3 
  164000    1.2339744   -6.4805303    70.673436  0.035911299  0.038533206            3 
  165000    1.2499218   -6.4304818    71.564065  0.036143467  0.038539705            3 
  166000    1.2194872   -6.4289936    72.080794  0.036185138  0.038545104            2 
  167000    1.2413263   -6.4084103    72.209671   0.03603277  0.038550875            2 
  168000    1.2270576   -6.4158579    72.944201  0.036182639   0.03856053            2 
  169000    1.2389724   -6.4537453    72.954389  0.035973564  0.038567679            2 
  170000    1.1974302   -6.4336651    73.554567   0.03605616  0.038572763            2 
  171000    1.2056394    -6.439368    73.862072  0.035995161  0.038576485            4 
  172000    1.2295887   -6.4618436    74.395901  0.036044526  0.038580734            2 
  173000    1.2419052   -6.4316526    74.862165  0.036060773  0.038582333            1 
  174000    1.2117606   -6.4662027    75.175121   0.03600341   0.03858363            2 
  175000    1.2229981   -6.4646071     75.64905  0.036023357   0.03858589            4 
  176000    1.2352869   -6.4147069     75.93199  0.035952647  0.038583311            2 
  177000    1.2006653   -6.4485988    76.489602  0.036012053  0.038578139            1 
  178000     1.228671   -6.4350923    77.090735  0.036091168  0.038575469            1 
  179000    1.2327152   -6.4364011    77.707773  0.036176803  0.038574469            3 
  180000    1.2120811   -6.4900353    77.672972  0.035959709  0.038573536            5 
  181000    1.2329094   -6.4455159    78.087508  0.035951891  0.038570205            6 
  182000    1.2277639   -6.4257616    78.976146  0.036161239  0.038567041            3 
  183000    1.2185609   -6.4322253    79.504941  0.036204436  0.038565509            4 
  184000    1.2379333   -6.4324138    79.757791  0.036122188  0.038563827            4 
  185000    1.2219084   -6.4615662    79.996992  0.036034681  0.038562058            3 
  186000    1.2122993   -6.4688953    80.176849  0.035921527  0.038556525            3 
  187000    1.2269026   -6.4463157    80.664565  0.035946776  0.038547857            2 
  188000    1.2495525   -6.4505564    80.741376  0.035789617  0.038536357            7 
  189000    1.2047189   -6.4790593    81.017781  0.035722125  0.038523251            4 
  190000    1.2069264   -6.3844818    81.829929   0.03589032  0.038511112            2 
  191000    1.2243247    -6.482732     81.79622  0.035687705  0.038496175            3 
  192000    1.2192163   -6.4650352    82.496064  0.035805583  0.038483261            2 
  193000    1.2367135   -6.4486256    82.975028  0.035826869  0.038469649            3 
  194000    1.2309051   -6.4679986    83.587451  0.035905263  0.038458589            3 
  195000    1.2121237   -6.4706128    83.698321  0.035768513   0.03844428            4 
  196000    1.2024462   -6.4628565    84.277285  0.035832179   0.03842846            6 
  197000    1.2346516   -6.5444505    83.705525  0.035408429   0.03840925            1 
  198000    1.2243985   -6.4125836    85.062252  0.035800611  0.038389927            3 
  199000    1.2009793   -6.4760483     85.16232  0.035662613   0.03837455            3 
  200000     1.234134   -6.4368985    85.838543  0.035766059  0.038356758            1 
  201000    1.2035908   -6.4544283    86.523994  0.035872303  0.038339952            2 
  202000    1.2186295   -6.4580068    86.908673  0.035853413  0.038328129            1 
  203000    1.2005036   -6.4410752    87.554296  0.035941829  0.038315862            3 
  204000    1.2172448   -6.4699506    87.696797  0.035823855  0.038304417            1 
  205000    1.2065936   -6.4801885    87.862819  0.035716593  0.038290522            4 
  206000    1.2099825   -6.4275063    88.627226  0.035852438  0.038275849            4 
  207000    1.2162416   -6.4856269    88.450894   0.03560825  0.038261243            3 
  208000     1.211133   -6.4369205    89.191627  0.035733825  0.038244304            2 
  209000    1.2333651   -6.5240625    89.492513   0.03568282  0.038226204            4 
  210000    1.2120942   -6.4556888     90.16083  0.035778107  0.038212054            2 
  211000    1.2045775   -6.4344283    90.612767  0.035787033  0.038197909            2 
  212000    1.2223377    -6.439377      90.9733  0.035759945  0.038182562            1 
  213000    1.2339302    -6.452353    91.459021  0.035782089  0.038167039            1 
  214000    1.2067142   -6.4263283    91.783014  0.035741049  0.038150479            2 
  215000    1.2057137   -6.4644272    92.267948   0.03576277  0.038133716            4 
  216000    1.2056618   -6.4348767    92.557382  0.035708866   0.03811823            3 
  217000    1.2358359   -6.4848828    92.558229  0.035544635  0.038101471            1 
  218000    1.2401693   -6.4525619    93.226024  0.035636859   0.03808211            2 
  219000    1.2096267   -6.4272051    93.677825  0.035646052  0.038063203            2 
  220000    1.2087761   -6.4384716     94.00318  0.035607265  0.038044072            2 
  221000    1.1966595   -6.4824389    94.590123  0.035667467  0.038026817            3 
  222000    1.2114967   -6.5072252    94.602249  0.035511354  0.038007634            2 
  223000    1.2313803   -6.4733213    95.440653  0.035665416  0.037991175            2 
  224000    1.2097788   -6.5039162    95.898475  0.035676516  0.037976866            2 
  225000    1.2307113    -6.449361    96.133476  0.035604991  0.037962219            3 
  226000    1.2206173   -6.4622405    96.699515  0.035656163  0.037946714            4 
  227000     1.220187   -6.4357879    97.521569  0.035800869   0.03793481            1 
  228000    1.2321928   -6.4485225    98.067022   0.03584321  0.037924324            2 
  229000     1.217795   -6.4470717    98.927808   0.03599993  0.037916586            1 
  230000    1.2064725   -6.4404699    98.820572  0.035804555  0.037907497            2 
  231000    1.2211899    -6.463164    99.416656  0.035864594   0.03789784            2 
  232000    1.2406381   -6.4731319    99.619472  0.035782856  0.037885346            5 
  233000    1.2182548   -6.5152395    99.957991  0.035750354  0.037872485            2 
  234000    1.2029516    -6.476962    100.40902  0.035758199  0.037862489            5 
  235000    1.1967462   -6.4871706    100.85904  0.035765617  0.037851594            2 
  236000    1.1821933   -6.4827097    101.37701  0.035796965  0.037842155            4 
  237000    1.2158156   -6.4385427    102.38148  0.035999115  0.037834414            4 
  238000    1.1849598   -6.5328332    101.83476   0.03565643  0.037825761            5 
  239000    1.2161065   -6.4395755    102.85639  0.035863454  0.037816645            3 
  240000    1.2394008   -6.4622847    103.29613   0.03586671  0.037807787            1 
  241000    1.1910471   -6.4639509    103.42423  0.035762183  0.037797213            2 
  242000    1.2071492   -6.4637924    103.87133  0.035768364  0.037786907            1 
  243000    1.2001999   -6.4902487    104.52986  0.035847004  0.037776234            2 
  244000    1.2411941    -6.487454    104.61964  0.035730751  0.037766082            2 
  245000     1.206713   -6.4782802    104.97569  0.035706015  0.037752692            3 
  246000    1.2215566   -6.4912734    105.20457  0.035638405  0.037739226            4 
  247000    1.1990492    -6.507297    105.63772  0.035640255  0.037725109            3 
  248000    1.2111973   -6.4875546    105.72721  0.035526617  0.037711249            2 
  249000    1.2055994   -6.5558532    106.19121  0.035539228   0.03769708            2 
  250000    1.2260619   -6.4527481    107.24092  0.035746972  0.037683673            4 
  251000    1.2456195   -6.5098651    107.30906  0.035627176  0.037670757            3 
  252000    1.2181931   -6.4747809     107.8801  0.035674635  0.037657991            2 
  253000    1.1897521   -6.4958882    108.69753  0.035802875  0.037647453            2 
  254000    1.1842801   -6.5020231      109.082  0.035788057  0.037636682            2 
  255000    1.2204929   -6.4380027    109.69779  0.035848952  0.037625999            2 
  256000    1.1973595   -6.4856128    109.86451  0.035763187  0.037615298            1 
  257000    1.1870773   -6.4656792    110.20963  0.035735935  0.037604807            2 
  258000    1.2043405    -6.471642    110.87844  0.035813451  0.037594789            4 
  259000    1.2019725   -6.4727974    111.44556  0.035857645  0.037584261            3 
  260000    1.1897676   -6.4468243    111.48589  0.035732657  0.037573762            5 
  261000    1.2172916    -6.448482    112.56079   0.03593895  0.037564654            3 
  262000    1.1961404   -6.4683484    112.55541  0.035800066  0.037555077            3 
  263000    1.2116912   -6.4522943    112.88223    0.0357675  0.037543861            1 
  264000     1.187024   -6.4634638    113.47818  0.035820134  0.037534547            2 
  265000    1.2154446   -6.5148533     113.4127   0.03566437  0.037523919            3 
  266000    1.2179316   -6.4974594    113.98559  0.035709772  0.037513444            4 
  267000     1.207333   -6.5071738    114.68993  0.035795857  0.037505344            1 
  268000      1.22317   -6.4686287    115.21865  0.035826693  0.037496861            3 
  269000    1.2323051   -6.5340735    115.44189  0.035762668  0.037486877            2 
  270000    1.1874638    -6.469732    115.64986  0.035694401  0.037476923            3 
  271000    1.2028617   -6.5469718    115.70635  0.035580057  0.037466673            4 
  272000    1.2232726    -6.484913    116.86273  0.035803533  0.037454579            2 
  273000    1.1846555   -6.4573149    117.35924  0.035823944  0.037446043            3 
  274000    1.2088269   -6.4938644    117.44226  0.035718449  0.037437278            1 
  275000    1.1964683   -6.4787839    118.01461  0.035762002  0.037426497            2 
  276000    1.2008579   -6.4885554    118.57508  0.035801653  0.037416566            4 
  277000    1.2198081   -6.4709947    118.80948  0.035742926  0.037406916            3 
  278000    1.2111593   -6.5265307    119.16467  0.035720825  0.037395589            5 
  279000     1.217792   -6.4971555    119.29555  0.035631885  0.037384413            3 
  280000    1.2134445    -6.496141    120.21943  0.035779593  0.037372899            4 
  281000    1.2082032   -6.4676241    120.36304  0.035694851  0.037361984            2 
  282000    1.2138907   -6.4754949    120.59343  0.035636356  0.037350305            2 
  283000      1.19564    -6.507961    121.26247   0.03570744  0.037340742            2 
  284000    1.2022913     -6.52856    121.57272  0.035672747  0.037330505            3 
  285000    1.2319267   -6.4985149    122.26176  0.035749052  0.037320976            2 
  286000      1.22954   -6.4989937    122.41291  0.035668098   0.03731154            2 
  287000    1.2150535   -6.5210889    122.73754  0.035638078  0.037301161            3 
  288000    1.2009574   -6.4796284    123.57516    0.0357567  0.037290834            3 
  289000    1.2060667   -6.4655785    123.53269  0.035620731  0.037279378            1 
  290000     1.224396   -6.4659751    124.08179  0.035655687  0.037269894            2 
  291000    1.1881304   -6.5115807    124.58842  0.035678241  0.037259988            5 
  292000    1.2114109   -6.4772887    124.66762  0.035578658  0.037249783            4 
  293000    1.2057655   -6.4852712    125.15849  0.035596841  0.037238802            3 
  294000    1.2141736   -6.4923683    125.48679  0.035568817  0.037228595            4 
  295000     1.170996   -6.5052083    126.33165  0.035686907  0.037218444            2 
  296000    1.2270962   -6.4945944    126.50368  0.035614776  0.037208596            1 
  297000    1.1968247   -6.4974037    126.57264  0.035514209  0.037197401            5 
  298000     1.218858   -6.5014125    127.31364  0.035602248  0.037185125            6 
  299000    1.2031344   -6.4871999    127.90879   0.03564905  0.037172498            1 
  300000    1.2054402   -6.5286231    127.47186  0.035408849  0.037160466            4 
  301000    1.1928846   -6.5249025    128.32048  0.035526157  0.037148671            4 
  302000      1.19113   -6.5153206    128.53223  0.035466951  0.037137768            4 
  303000    1.1923713   -6.4932045    129.78221  0.035693677  0.037127926            2 
  304000    1.1971301   -6.5448182    129.55708  0.035514551  0.037117849            2 
  305000    1.1897738   -6.5027097    130.36074  0.035617688  0.037107318            2 
  306000    1.2291125   -6.4802158    130.41819  0.035516937  0.037096203            2 
  307000    1.1863894   -6.4943368    131.44906  0.035681069  0.037085948            4 
  308000    1.2101899    -6.499481    131.81529   0.03566431  0.037076953            5 
  309000     1.205649   -6.5068531    131.91521  0.035575838  0.037066406            2 
  310000    1.1952164   -6.5167558    132.37289   0.03558411  0.037056423            3 
  311000    1.2008223    -6.547539    132.67403  0.035550384  0.037047438            1 
  312000    1.2179286   -6.5074819    133.34974  0.035616919  0.037038754            2 
  313000    1.1941565   -6.4813482    133.65334  0.035583956   0.03703048            5 
  314000    1.1952236   -6.5296573    134.12452   0.03559568  0.037020383            1 
  315000    1.2025823   -6.5341985    134.35434  0.035543476  0.037009391            1 
  316000     1.214433   -6.5097391    135.14836   0.03564039  0.037000132            5 
  317000    1.2020387   -6.4883728    135.48673   0.03561691  0.036991095            2 
  318000    1.1920576   -6.4746646    136.42592  0.035751027  0.036983524            3 
  319000    1.1893287   -6.5704727    136.06267  0.035544063  0.036976414            2 
  320000    1.1883581   -6.4851508    137.07693  0.035697118  0.036968329            2 
  321000    1.2180948   -6.5236293    137.51683  0.035700112  0.036961766            4 
  322000    1.1856544   -6.4489545    138.10428  0.035741274  0.036955497            4 
  323000    1.2048397   -6.5005781    137.88787  0.035574785  0.036948788            3 
  324000    1.2099271   -6.5221548    138.21199  0.035548351  0.036942394            4 
  325000     1.217724   -6.5438887    139.01453  0.035644751  0.036935433            6 
  326000    1.1788371   -6.5258554    139.28863  0.035605478  0.036928518            2 
  327000    1.2464177   -6.5083084     140.4878   0.03580219  0.036923186            1 
  328000    1.1963091   -6.5276555    140.31337  0.035648723  0.036917864            3 
  329000    1.2265438   -6.5155728    141.21958  0.035769904  0.036912781            5 
  330000    1.2013755   -6.5040478    141.55096  0.035745192  0.036907289            4 
  331000      1.17317   -6.5221618    141.47194  0.035617306  0.036901728            2 
  332000    1.1758209   -6.5480075    142.02477  0.035648788  0.036895319            3 
  333000    1.2100191   -6.5069891    142.58602  0.035682187  0.036887239            5 
  334000     1.193162   -6.5603617    141.99783    0.0354286   0.03687787            2 
  335000    1.2022535    -6.526494    142.73962  0.035507368  0.036868966            3 
  336000    1.1790817   -6.4942872     143.4824  0.035585912  0.036860238            1 
  337000    1.1864502   -6.5316021    143.53076  0.035492276  0.036851195            3 
  338000    1.1846167   -6.5497809     143.8231  0.035459344  0.036840612            2 
  339000    1.1903195   -6.4788205    144.11996  0.035427718  0.036828823            4 
  340000    1.1819363   -6.5005773     144.5447  0.035427621  0.036817465            3 
  341000    1.1782309   -6.5275021    144.31985   0.03526878  0.036804591            3 
  342000    1.1863485    -6.542952    144.72575   0.03526456  0.036790278            2 
  343000    1.2160236   -6.5196876    145.34867  0.035313088  0.036775982            2 
  344000    1.1761154   -6.5568421    145.56091  0.035261849  0.036762942            2 
  345000    1.1993814   -6.5167609    146.02614  0.035272015   0.03674943            3 
  346000    1.1990703   -6.5855759    145.81668  0.035119624  0.036737036            5 
  347000    1.2029158   -6.5341381    146.68123  0.035226039  0.036724222            3 
  348000    1.2007576   -6.4811584    146.97729  0.035195712  0.036711808            3 
  349000     1.177111   -6.5240281    147.66231  0.035258431  0.036700422            2 
  350000    1.2025056   -6.5573459    147.68459  0.035162997  0.036688129            1 
  351000    1.1741544   -6.5032304    148.30864  0.035210979  0.036675138            5 
  352000    1.1818034   -6.5168937    148.57934  0.035175034  0.036662206            5 
  353000    1.2090032   -6.4988414    149.41848  0.035273485  0.036648874            3 
  354000    1.2043419   -6.5205348    149.56758   0.03520894  0.036636118            1 
  355000    1.1791774   -6.5003732    150.13955  0.035244027  0.036624608            2 
  356000    1.1901108    -6.429946    151.40598  0.035441474   0.03661376            4 
  357000    1.1954472   -6.5026257    150.78895  0.035198167  0.036601795            2 
  358000    1.1998798   -6.5198497    151.22251  0.035200771  0.036588674            4 
  359000    1.1919384   -6.4912077    151.85597  0.035249762  0.036577303            4 
  360000    1.1947336   -6.5634024    152.64732  0.035335027  0.036566555            3 
  361000    1.2032575   -6.5073276    153.09515  0.035340524  0.036557034            3 
  362000    1.1667955   -6.4685688    153.56746  0.035351626  0.036546977            2 
  363000     1.203223   -6.5677142    154.30571  0.035423717  0.036537174            3 
  364000    1.1906789   -6.5231225    154.14625  0.035289893  0.036527463            2 
  365000    1.2010754   -6.5339281    154.16212  0.035196832  0.036518289            4 
  366000    1.2107589   -6.5302737     154.6172  0.035204281  0.036508037            4 
  367000    1.1873446   -6.5472854    154.48896  0.035079237  0.036496513            2 
  368000    1.1813965   -6.4959423     155.4345   0.03519803  0.036484928            1 
  369000    1.2163399   -6.5499066    155.30209   0.03507274  0.036473288            3 
  370000    1.2073381   -6.5320084    155.84217  0.035099588  0.036461062            2 
  371000    1.1940864   -6.5024325    156.41336  0.035133279  0.036449567            4 
  372000    1.2066905   -6.4911073    157.26417  0.035229429  0.036437499            1 
  373000    1.1709478   -6.5554965    157.12408  0.035103683  0.036426873            2 
  374000    1.2029306   -6.4585177    158.69073  0.035358897  0.036416434            3 
  375000    1.1706893   -6.5437021    157.85576  0.035079059  0.036404624            3 
  376000    1.1615822   -6.5560551    158.29558   0.03508324  0.036392873            3 
  377000     1.188236    -6.534002    158.57596  0.035052157  0.036381822            5 
  378000     1.200529   -6.5420432    159.06324  0.035066851  0.036370555            2 
  379000    1.1752958   -6.5283224    160.19101  0.035222298  0.036360498            2 
  380000    1.1794049   -6.5229981    161.14576  0.035338983  0.036351247            3 
  381000     1.190137   -6.5251147    161.25047  0.035269132  0.036342546            3 
  382000    1.2083392   -6.5278346    161.86107  0.035310006   0.03633345            2 
  383000    1.1804305   -6.5539964    162.00244  0.035248572  0.036323271            2 
  384000    1.2059214   -6.5531743    162.32114  0.035225943  0.036315242            3 
  385000    1.1996144   -6.5208887    163.28518  0.035343112  0.036307527            3 
  386000    1.1894865   -6.5214026    163.30679  0.035256215  0.036299862            2 
  387000    1.2097723   -6.5098464    163.48033  0.035202483  0.036292284            2 
  388000    1.1711019   -6.5633406    164.08577   0.03524179  0.036283778            2 
  389000     1.168531   -6.5281671    164.48265  0.035236214  0.036274881            2 
  390000    1.1868794   -6.5467524    164.73185  0.035199114  0.036267638            2 
  391000    1.1870044    -6.545345    164.96264  0.035158278  0.036259633            2 
  392000    1.1852275   -6.5117366    166.30212  0.035353342   0.03625181            2 
  393000    1.1882747   -6.4995679    166.01716   0.03520296  0.036244422            3 
  394000     1.207043   -6.5189402    166.91574  0.035303668  0.036237009            2 
  395000    1.1654637   -6.5025182    166.79962  0.035189793  0.036228215            1 
  396000    1.2039213   -6.5311375    167.02596  0.035148561  0.036219162            2 
  397000    1.1793608   -6.5355989    167.67564  0.035196397  0.036210344            2 
  398000    1.1945601   -6.5033847    167.92836   0.03516088  0.036200587            2 
  399000    1.1866956   -6.5309807     167.3112  0.034943859  0.036189661            4 
  400000    1.1820631   -6.5295832    167.85226   0.03496922  0.036179589            3 
  401000    1.1930743   -6.5402514    168.88446   0.03509652  0.036169182            4 
  402000    1.2103183   -6.5055702    168.50791  0.034931158  0.036158784            2 
  403000    1.1849369   -6.5230672     168.9871  0.034943568  0.036147767            3 
  404000    1.1892763   -6.5359229    169.57243  0.034977812  0.036137724            4 
  405000    1.1793586   -6.5279162    170.03188  0.034985984  0.036128012            3 
  406000    1.1904618   -6.4873215    170.94679  0.035087601  0.036118279            3 
  407000    1.2018281    -6.511074    171.40249  0.035094694  0.036107731            3 
  408000    1.1581824   -6.5347974    170.92186  0.034910511  0.036097198            2 
  409000    1.1857433   -6.5414376    171.48207  0.034939296  0.036086323            2 
  410000    1.1963407   -6.6023879    170.69904  0.034694928  0.036075709            2 
  411000      1.20727   -6.5541929    171.67132  0.034807648   0.03606358            1 
  412000    1.2252411   -6.5202945    171.71564  0.034732129   0.03605244            4 
  413000    1.1749656   -6.5680005    172.15808  0.034737304  0.036040029            3 
  414000    1.2089172   -6.5605498     172.8375  0.034790156  0.036027746            4 
  415000    1.1911854   -6.5616131    173.07998  0.034755017  0.036015152            2 
  416000    1.1902679   -6.5116159    174.09004  0.034873807  0.036003986            3 
  417000    1.1592892   -6.5767174    173.76111  0.034724442  0.035992326            3 
  418000    1.1717271   -6.5545438    174.23163  0.034735174  0.035981076            2 
  419000    1.1796959    -6.550397    175.09062  0.034823115  0.035970254            3 
  420000     1.175261   -6.5631314    175.67329  0.034855812  0.035959354            4 
  421000    1.1842394   -6.4917262    176.70803  0.034977836  0.035948098            3 
  422000    1.1918304   -6.5214591    176.91193  0.034935214  0.035937537            1 
  423000     1.218825   -6.5144368    177.07659  0.034885066  0.035927406            2 
  424000    1.1759877   -6.5662807    177.45515  0.034877192  0.035917506            4 
  425000    1.2006665   -6.5521517    178.00047  0.034902053  0.035907639            1 
  426000    1.1730202   -6.6062602    177.58467  0.034738786  0.035897733            2 
  427000    1.2163303   -6.5595912    178.31559  0.034800076  0.035887459            2 
  428000    1.1721129   -6.4832953    179.47427  0.034944366  0.035877018            2 
  429000     1.161778   -6.6177894    178.20742  0.034616825  0.035866202            3 
  430000    1.1743367   -6.5613487    179.74999  0.034835269  0.035855797            2 
  431000    1.1869055   -6.5133495     180.3407  0.034868659  0.035845691            4 
  432000    1.1746804   -6.5484638    180.51843  0.034822228  0.035835945            4 
  433000    1.1895586   -6.5550524    181.08408   0.03485067  0.035826653            2 
  434000    1.1764427   -6.5509371    181.39097  0.034829294  0.035817116            4 
  435000    1.1825914   -6.5206933    181.32259  0.034736128  0.035806567            3 
  436000    1.1826537   -6.5608958    181.94212   0.03477487   0.03579654            3 
  437000    1.1594747   -6.5733093    181.91523  0.034690166   0.03578573            2 
  438000    1.2004686   -6.5404339    182.86316  0.034791317   0.03577539            2 
  439000    1.1817572   -6.5607049    183.10397  0.034757776  0.035765682            3 
  440000    1.1854968   -6.5656886    183.35352  0.034726045   0.03575547            4 
  441000    1.2043825   -6.5442151    183.62944  0.034699441  0.035745571            3 
  442000    1.1998368   -6.5754849    183.90971  0.034673776  0.035734763            4 
  443000    1.1728819   -6.5257112    184.64864  0.034734507   0.03572447            4 
  444000     1.195614   -6.5598382    184.27704  0.034586531  0.035713911            3 
  445000    1.1636461    -6.551284    185.00137  0.034644451  0.035704149            2 
  446000    1.1510903   -6.5440202    186.81583  0.034905798  0.035694943            3 
  447000    1.1624958   -6.5334438    186.79499  0.034823823  0.035685757            2 
  448000     1.191809   -6.5642301    187.65432  0.034905937   0.03567753            3 
  449000    1.2016199   -6.5344651    187.30252  0.034762902  0.035669361            1 
  450000    1.1858771   -6.5403958    187.92901  0.034801668  0.035660382            7 
  451000    1.1992766    -6.587281    187.16829  0.034583942  0.035651493            2 
  452000    1.1675755   -6.4918288    189.13164  0.034869402  0.035642488            4 
  453000    1.1640711   -6.5582342    188.74383  0.034721087  0.035633865            2 
  454000     1.166801   -6.6084989    188.57388  0.034613414  0.035624575            2 
  455000    1.1865017   -6.5190509    190.38461  0.034868976  0.035615277            1 
  456000    1.1652046    -6.523674    189.20298  0.034576567  0.035606374            3 
  457000     1.170035    -6.559738    190.61465  0.034758324  0.035597444            2 
  458000    1.2017602   -6.5554478     191.1317   0.03477651  0.035588849            4 
  459000    1.1555784   -6.5123911    192.02225  0.034862427  0.035581415            1 
  460000    1.1742336   -6.5568702    192.04805  0.034791314  0.035573688            4 
  461000     1.179196   -6.5617436    192.46159  0.034790599  0.035565799            2 
  462000     1.199657   -6.5541106    192.45813   0.03471467  0.035557977            3 
  463000     1.159779   -6.5980294    192.53922  0.034654288  0.035549681            3 
  464000    1.1945175   -6.5652695    193.32267  0.034720308   0.03554179            3 
  465000    1.1716136   -6.6106071    194.23431  0.034809016  0.035535007            4 
  466000    1.2128774   -6.5962228    194.50178   0.03478215  0.035528811            2 
  467000    1.1824788   -6.5742597     195.2032  0.034832833  0.035523698            3 
  468000    1.1975099    -6.580545    195.61318  0.034831407   0.03551855            2 
  469000    1.1681044    -6.568373    195.95583  0.034818023  0.035512861            2 
  470000    1.1789873   -6.5449418    197.35078  0.034991273  0.035507888            3 
  471000    1.1631747   -6.5586053    197.58154   0.03495781  0.035503042            2 
  472000    1.2045755    -6.575751    197.73263  0.034910422   0.03549808            2 
  473000    1.1569291   -6.5471993     198.2272  0.034923749  0.035492913            4 
  474000    1.1511109   -6.5279993     199.4675  0.035068126  0.035487842            2 
  475000    1.1287449   -6.5612811    198.81744  0.034880252  0.035483065            2 
  476000    1.1479569   -6.5747878    200.08118  0.035028217  0.035478799            4 
  477000    1.1458713   -6.5976416    199.99359  0.034939482  0.035474733            4 
  478000    1.1737699   -6.5352163    200.57117  0.034967081  0.035470877            3 
  479000    1.1684921   -6.6091128    200.33546  0.034853072  0.035467464            4 
  480000    1.1533183   -6.6076715    200.22031  0.034760471  0.035462958            2 
  481000    1.1536919   -6.5562731    200.81228  0.034790763  0.035457024            2 
  482000    1.1856053   -6.5523721    202.34276  0.034983188   0.03545176            1 
  483000    1.1731308   -6.6093374    201.70722  0.034801108  0.035446698            2 
  484000    1.1896221   -6.6023414    202.00336  0.034780192  0.035440846            4 
  485000    1.1899212   -6.5746564    202.43003  0.034781793  0.035436189            3 
  486000     1.177664   -6.5856615    202.91443  0.034793283  0.035431444            4 
  487000    1.1791484   -6.5736453    204.45635  0.034985686  0.035426279            2 
  488000    1.1969859   -6.5699441    204.73764  0.034962029  0.035421652            3 
  489000    1.1672047    -6.623654    204.24788  0.034807069  0.035417188            5 
  490000    1.1495121    -6.589004    204.06474  0.034704888  0.035411122            3 
  491000    1.1636385   -6.5811865    204.34475   0.03468173  0.035405429            3 
  492000    1.1835937    -6.554304    205.61774  0.034826853  0.035399519            2 
  493000    1.2040897   -6.5238406    206.76519  0.034950168  0.035394907            3 
  494000    1.1546705    -6.538443     207.4773  0.034999544   0.03539068            2 
  495000    1.1771121   -6.5572242    207.22571  0.034886483  0.035386232            3 
  496000    1.1723091   -6.6056015    207.46106  0.034855689  0.035380572            4 
  497000    1.2196079   -6.5528305    208.51523  0.034962312  0.035375202            6 
  498000    1.1755564   -6.5974309    208.55708   0.03489911  0.035370504            4 
  499000    1.1685491   -6.5259619    209.50337  0.034987203  0.035365994            4 
  500000    1.1785308   -6.6157487    208.48847  0.034748079  0.035361341            1 
  501000    1.1737013   -6.5750895    209.09035  0.034778834  0.035356496            3 
  502000    1.1719831   -6.5818536    209.95061  0.034852358  0.035352228            5 
  503000    1.1653133   -6.5828884    210.30782   0.03484225  0.035348207            2 
  504000    1.1704048   -6.6473164    210.11636  0.034741462  0.035343744            4 
  505000    1.1648943   -6.5366362    212.16163  0.035010171  0.035339904            1 
  506000    1.1693839   -6.5503578     211.8491   0.03488951   0.03533598            3 
  507000    1.1666576   -6.5739449    211.72186   0.03479978  0.035331461            2 
  508000    1.1810383   -6.5918824    212.35349   0.03483489  0.035327215            2 
  509000    1.1726278   -6.5905227    212.09501  0.034724133  0.035322655            2 
  510000    1.1708485   -6.5704674    212.99851  0.034803678  0.035317437            4 
  511000    1.1439378   -6.6013545    212.93672  0.034725492  0.035312411            5 
  512000    1.1681107   -6.5535597    213.57326  0.034761273  0.035307044            3 
  513000    1.1805955   -6.5952854    214.05549  0.034771847  0.035302677            6 
  514000    1.1933676   -6.5676017     214.8529  0.034833479  0.035297384            2 
  515000    1.1819903   -6.5951084    214.47205  0.034704216  0.035291775            4 
  516000    1.1912246   -6.5910573    214.01893  0.034563781  0.035286137            2 
  517000    1.1715502   -6.5748805    215.36679  0.034714183  0.035280367            3 
  518000    1.1720034    -6.595485    215.38813  0.034650601  0.035274077            3 
  519000    1.1457531   -6.6020873    215.65857  0.034627258  0.035267862            3 
  520000    1.1628963   -6.5683169    216.49382  0.034694522  0.035262421            2 
  521000    1.1401762   -6.5755825    217.10612  0.034725867  0.035256712            4 
  522000    1.1554844   -6.5536373    217.70309  0.034754644  0.035250654            4 
  523000    1.1604506   -6.6106096    217.90937   0.03472106  0.035245332            2 
  524000    1.1752114   -6.5825452    218.80307  0.034796925  0.035240939            2 
  525000    1.1649737   -6.5589409    219.65059  0.034865173  0.035236633            4 
  526000    1.1655848    -6.545961     219.4828  0.034772307  0.035232525            3 
  527000    1.1677714   -6.6007955    219.41715  0.034695944  0.035227318            2 
  528000    1.1910489   -6.5568897    219.46818  0.034638286  0.035222438            2 
  529000     1.172222   -6.5957463    219.76709  0.034619895  0.035217571            2 
  530000    1.1822595   -6.5366827    220.87685  0.034729065  0.035213008            1 
  531000    1.1490385   -6.5915332    220.86269  0.034661439  0.035208148            2 
  532000    1.1726893   -6.5999459    222.09824  0.034789824  0.035203033            3 
  533000    1.1582878   -6.5651067    221.97115  0.034704682  0.035198454            2 
  534000     1.162366   -6.5698856    222.10353  0.034660352  0.035193543            4 
  535000    1.1560017    -6.590314     222.4631  0.034651573  0.035187797            3 
  536000    1.1740926   -6.5862053    222.64686  0.034615494  0.035181682            4 
  537000     1.164142   -6.5775003    223.11195  0.034623208  0.035176072            2 
  538000    1.1616348   -6.5835594    222.91861  0.034528905  0.035170431            7 
  539000     1.146677   -6.5922805    223.36477  0.034533823   0.03516409            1 
  540000    1.1767896   -6.5976473    224.61233  0.034662396  0.035158178            2 
  541000    1.1678018   -6.6014396    223.79712  0.034472755  0.035152089            3 
  542000     1.153965   -6.5494308    225.70599  0.034702643  0.035146215            2 
  543000     1.173996   -6.5648461    225.46016  0.034601007  0.035140682            3 
  544000    1.1757483   -6.6140044    225.94032  0.034610956  0.035136167            2 
  545000    1.1678244    -6.532734    226.48993  0.034631488  0.035130199            2 
  546000    1.1566785   -6.5628413    226.25142  0.034531657  0.035123891            2 
  547000    1.1518093   -6.6081374    226.02358  0.034433817  0.035116843            3 
  548000    1.1858955   -6.5776431    227.84393    0.0346478  0.035111066            9 
  549000    1.1908051   -6.5696027    227.84855   0.03458539  0.035105234            2 
  550000    1.1978429   -6.5978297    228.35802    0.0345997  0.035099502            2 
  551000     1.172269   -6.5581212    228.91785  0.034621574  0.035093796            2 
  552000    1.1609753   -6.6053993    228.13109  0.034440081  0.035088476            3 
  553000    1.1504628   -6.6135834    227.68959  0.034311271   0.03508254            3 
  554000    1.1526845   -6.6111877    229.22685  0.034480573  0.035075615            1 
  555000    1.1547967   -6.5933866    229.89642  0.034518981  0.035068954            2 
  556000    1.1528811   -6.6174483    229.48148  0.034394706  0.035062416            4 
  557000    1.1509131   -6.5775294    230.31141  0.034457124  0.035055565            1 
  558000    1.1431467   -6.5949842     230.4131  0.034410558  0.035048618            3 
  559000    1.1715486   -6.6545108    230.12721  0.034306382  0.035041836            4 
  560000    1.1758948   -6.6063129     231.4981  0.034449121  0.035034855            2 
  561000    1.1620355   -6.5908704    232.10657  0.034478099  0.035028302            4 
  562000    1.1540401   -6.5959139    231.05057  0.034260168  0.035021536            1 
  563000    1.1733301   -6.6064801    231.45516    0.0342592  0.035013828            9 
  564000    1.1490722   -6.5948012     232.5354  0.034358067  0.035006263            6 
  565000    1.1616993   -6.5696367    233.37928  0.034421723  0.034999301            1 
  566000    1.1893323   -6.5965665    233.22666  0.034338437   0.03499148            3 
  567000    1.1340382   -6.6252403    233.01599  0.034246912   0.03498385            6 
  568000    1.1529266   -6.6150925    234.09236  0.034344536   0.03497679            3 
  569000     1.148937    -6.629194    234.46836  0.034339244  0.034969771            1 
  570000    1.1407211   -6.5819162    234.56507   0.03429314  0.034962699            3 
  571000    1.1797827   -6.5407981     236.5991  0.034529933  0.034956184            2 
  572000    1.1691367   -6.6293247    235.87333  0.034363831  0.034949253            3 
  573000    1.1580851    -6.597905    236.64689   0.03441636  0.034942399            4 
  574000    1.1406534   -6.5876076    236.58927  0.034348036   0.03493563            5 
  575000    1.1532376   -6.5953301    236.63122  0.034294379  0.034929272            2 
  576000    1.1472284   -6.6179629    237.31752  0.034334132  0.034921812            2 
  577000    1.1634136   -6.5846199    237.46786   0.03429634  0.034914426            2 
  578000    1.1458869   -6.6023714    237.16657  0.034193565  0.034907543            3 
  579000    1.1578769   -6.6104614    238.52941  0.034330657  0.034900548            4 
  580000    1.1426559   -6.6647032    237.04458   0.03405813  0.034893092            2 
  581000    1.1754725   -6.6405004     238.0574   0.03414478  0.034885186            2 
  582000    1.1683427   -6.6342556    238.02757   0.03408184  0.034877216            2 
  583000    1.1731271   -6.6731183    238.35556  0.034070262  0.034868823            3 
  584000    1.1512842   -6.6261872    239.27987  0.034143817  0.034860338            3 
  585000    1.1615923   -6.5933795    238.76889  0.034012663  0.034851715            3 
  586000     1.163007   -6.5741302    240.06333  0.034138699  0.034843191            3 
  587000    1.1575394   -6.6289391    239.21756  0.033960471  0.034833856            1 
  588000    1.1734918   -6.6323793    239.09613  0.033885506  0.034824977            4 
  589000    1.1480484   -6.5887654    241.18025  0.034122843  0.034816245            2 
  590000    1.1542975   -6.6272988    240.49049  0.033967583  0.034807325            4 
  591000    1.1522671   -6.6122929     241.6086  0.034067766  0.034798651            2 
  592000    1.1409413   -6.5805385    241.31589  0.033969016  0.034790174            2 
  593000    1.1703342    -6.625164    241.13212  0.033885907  0.034780916            3 
  594000    1.1670223   -6.5724805    242.06586  0.033959856  0.034771534            2 
  595000    1.1293284   -6.6166984    242.14705  0.033914152   0.03476238            4 
  596000    1.1588313   -6.6016488    242.52901  0.033910655  0.034753062            2 
  597000    1.1493981   -6.6117123    243.24564  0.033953887  0.034743805            2 
  598000     1.149929   -6.6323354    242.54126  0.033798949  0.034733912            2 
  599000    1.1640176   -6.6177461     243.5928  0.033888814  0.034724274            4 
  600000    1.1535913   -6.5998866    244.07172   0.03389885  0.034714935            2 
  601000    1.1494219   -6.6141859    243.74431  0.033797049  0.034705693            1 
  602000    1.1249478   -6.6618564    243.88514  0.033760401  0.034695968            2 
  603000     1.169003   -6.6268381    243.97612  0.033716988  0.034686373            6 
  604000    1.1322485   -6.6290478    245.61853  0.033887766   0.03467622            4 
  605000    1.1662675   -6.5970996    244.84917  0.033725781  0.034666206            1 
  606000    1.1569025    -6.668096    245.06496  0.033699802  0.034655823            6 
  607000    1.1417081   -6.6213566    246.88314  0.033893897  0.034645509            2 
  608000    1.1658449   -6.6182218    245.82582  0.033693231  0.034634971            3 
  609000    1.1581766   -6.6499133    246.15286  0.033682657  0.034624459            6 
  610000    1.1488875   -6.5667416    247.50495  0.033812152  0.034613852            4 
  611000    1.1637036   -6.6743409    247.34001  0.033734317  0.034603959            1 
  612000    1.1240186   -6.6437288    247.95194  0.033762519  0.034594112           12 
  613000    1.1675386   -6.6014076    246.98667  0.033576219  0.034584917            1 
  614000    1.1453995   -6.6398761    248.88441  0.033779101   0.03457531            3 
  615000     1.164239   -6.6329795    249.30919  0.033781734   0.03456527            2 
  616000    1.1901927   -6.6692129    249.07221  0.033694834  0.034555568            2 
  617000    1.1849943   -6.6675839    249.49765  0.033697684  0.034545516            3 
  618000     1.162277   -6.6522939    249.97874  0.033708028  0.034535743            3 
  619000    1.1655625   -6.6267982    250.96738   0.03378667  0.034525929            5 
  620000    1.1358945   -6.5998741    251.24874  0.033769992  0.034516821            2 
  621000    1.1567618   -6.6542172    251.15375  0.033702865  0.034507296            2 
  622000    1.1776332    -6.603042    251.96978  0.033758009  0.034498703            7 
  623000    1.1393589   -6.6300687    252.31408  0.033749877  0.034489766            3 
  624000     1.155001   -6.6221678    252.33344  0.033698377  0.034480764            8 
  625000    1.1371605   -6.6146922    253.54676  0.033806235  0.034471607            1 
  626000    1.1353479   -6.5863972     254.2151    0.0338412  0.034462522            9 
  627000    1.1692452   -6.6383111    253.59934  0.033705388  0.034453196            4 
  628000    1.1433834   -6.5716637    254.18707  0.033729707  0.034444112            2 
  629000      1.16427   -6.6046271    254.96112  0.033778632  0.034435102            3 
  630000    1.1685965   -6.6306931    254.85383  0.033710823  0.034426215            5 
  631000    1.1449042   -6.6071062    254.36164  0.033592399  0.034416832            1 
  632000    1.1643804     -6.64739    254.59053  0.033569427  0.034407391            3 
  633000     1.155377   -6.6617516    255.38256  0.033620663  0.034397209            5 
  634000    1.1645121   -6.6419024    255.39692  0.033569522   0.03438778            8 
  635000    1.1460626   -6.6789957    255.42443  0.033520266  0.034377971           11 
  636000    1.1638256   -6.6028403    256.53583  0.033613185  0.034368287            2 
  637000    1.1398206   -6.6655985    255.53098  0.033428961  0.034357556            6 
  638000    1.1437512   -6.6491516    257.00272  0.033568799  0.034347355            3 
  639000    1.1164915   -6.6263748    257.88732  0.033631627   0.03433754            2 
  640000    1.1449093   -6.6141904    257.74572  0.033560641  0.034328046            3 
  641000    1.1498247   -6.6033328    258.42154  0.033596143  0.034318673            3 
  642000    1.1329436   -6.6094704    258.89297  0.033605006  0.034309491            4 
  643000    1.1421408   -6.6568084    258.66431   0.03352311   0.03430002            3 
  644000    1.1486161   -6.6463493    258.34685  0.033429976  0.034290597            4 
  645000    1.1726079   -6.6366622    260.05994  0.033599475  0.034281363            3 
  646000    1.1313966   -6.6053406    259.64745  0.033494253  0.034272456            2 
  647000    1.1572626    -6.611952    259.90401   0.03347553  0.034263274            2 
  648000    1.1141445   -6.6483761    260.06048  0.033443992  0.034254277            4 
  649000    1.1545665   -6.6164714    261.72418  0.033606084  0.034245233            3 
  650000    1.1419066   -6.6254371    262.53108   0.03365783  0.034236611            5 
  651000    1.1609619   -6.6523469    261.70998  0.033501021  0.034227635            3 
  652000    1.1433604   -6.6301114    262.55646   0.03355783  0.034218862            3 
  653000    1.1668764   -6.6321063    262.44932  0.033492767  0.034209877            4 
  654000    1.1274715   -6.6540901    262.39263  0.033434331  0.034201057            4 
  655000    1.1556281    -6.642604    263.38666  0.033509753   0.03419203            2 
  656000    1.1327674   -6.6602231    264.35689  0.033581922  0.034182715            4 
  657000    1.1429448   -6.6878479    263.17131   0.03338043  0.034173501            5 
  658000    1.1374191   -6.6463955    263.97004  0.033430856  0.034164379            2 
  659000    1.1272417   -6.6095342    265.03427  0.033514703  0.034155202            5 
  660000    1.1363893   -6.6382012    264.56754  0.033404992  0.034145495            2 
  661000    1.1169154   -6.6040733     264.9794  0.033406379  0.034136126            3 
  662000    1.1147854   -6.6083786    266.04714  0.033490325  0.034127122            3 
  663000    1.1171832    -6.683091    265.12593  0.033324023   0.03411819            4 
  664000    1.1215051   -6.6062615    266.93048  0.033500311  0.034109024            3 
  665000    1.1324756   -6.6175091    267.25142  0.033490152  0.034099937            3 
  666000    1.1501902   -6.6708393    266.82352  0.033386326  0.034090866            2 
  667000    1.1368703   -6.6286091    267.72872  0.033449366  0.034081675            3 
  668000    1.1352449    -6.653336    267.18278  0.033331186   0.03407261            4 
  669000    1.1510259   -6.6530665    268.99128  0.033506637  0.034063992            3 
  670000    1.1597248   -6.6410822    269.31709  0.033497151  0.034055285            4 
  671000    1.1227781   -6.6604575    268.89179  0.033394409  0.034046309            2 
  672000    1.1488233   -6.6334811    269.42341  0.033410641   0.03403742            2 
  673000    1.1679414   -6.6693851    269.72189  0.033397955  0.034028769            4 
  674000    1.1484007   -6.6651297    270.28863  0.033418476  0.034019602           10 
  675000    1.1320166   -6.6506165    270.40574  0.033383425  0.034011311            5 
  676000    1.1378401   -6.6386098    271.00984   0.03340851  0.034003191            4 
  677000    1.1588504   -6.6202477    271.57987  0.033429329  0.033994541            4 
  678000    1.1461598   -6.6521372    271.41571  0.033359846  0.033985478            3 
  679000    1.1384651    -6.651785    271.74369  0.033350969  0.033976344            4 
  680000    1.1398132    -6.644789     271.6324  0.033288285  0.033966822            5 
  681000     1.138827   -6.6258263    271.77318  0.033256629  0.033957499            1 
  682000    1.1371927   -6.6256094    272.13366  0.033251913  0.033948116            3 
  683000    1.1337629   -6.6356368    272.54675   0.03325363  0.033938752            1 
  684000    1.1233997   -6.6938788    272.78353  0.033233861  0.033929337            1 
  685000    1.1533023   -6.6459724    272.95181  0.033205816  0.033919477            3 
  686000    1.1565916   -6.6108989    273.75101  0.033254496  0.033909877            2 
  687000    1.1210861   -6.6431512    273.56943  0.033184064  0.033900172            5 
  688000    1.1374037    -6.673187    273.05916  0.033074026  0.033890577            3 
  689000    1.1369984   -6.6680944    274.28487  0.033174271  0.033880553            2 
  690000    1.1529665   -6.6913936     273.4708  0.033027874  0.033871007            4 
  691000    1.1403849   -6.6403313     274.9632  0.033160058  0.033861073            4 
  692000    1.1372851   -6.6213132    275.55419  0.033183308  0.033851489            2 
  693000    1.0972266   -6.6698221    275.15199   0.03308706  0.033841458            6 
  694000    1.1221544   -6.6726339      275.668  0.033101344  0.033831496            3 
  695000    1.1160718   -6.6474182    276.67194  0.033174094   0.03382158            3 
  696000    1.1304512   -6.6898814     275.0503  0.032932267  0.033811408            4 
  697000    1.1237377   -6.6584001    275.96664  0.032994577  0.033801149            3 
  698000    1.1715257   -6.6606991    277.39045  0.033117294  0.033791555            1 
  699000    1.1372504     -6.63109    278.17163  0.033163046  0.033781744            2 
  700000    1.1430732   -6.6690955    277.61551  0.033049466   0.03377221            4 
  701000    1.1145633   -6.6661508    278.09796  0.033059671  0.033762788            3 
  702000     1.157779    -6.634895    279.50296  0.033179364  0.033753312            3 
  703000    1.1236256   -6.6735114     278.3212  0.032992081   0.03374422            2 
  704000    1.1311647    -6.665898    279.03807  0.033030074   0.03373496            3 
  705000    1.1439718    -6.644552    278.84763  0.032960713  0.033724948            3 
  706000    1.1317305    -6.707601    278.13241  0.032829604  0.033714721            4 
  707000    1.1468605   -6.6567468    279.28138  0.032918598  0.033704398            6 
  708000    1.1347519   -6.6537415    279.74139  0.032926247  0.033694119            5 
  709000    1.1541845    -6.661839    279.70236  0.032875219  0.033683661            4 
  710000    1.1272582   -6.6889595    279.32931   0.03278513  0.033673214            1 
  711000    1.1434103   -6.6588932    280.98536  0.032933118  0.033663034            4 
  712000    1.1253986    -6.713557    281.37753  0.032932764  0.033653168            5 
  713000    1.1149619   -6.7191601    280.80524  0.032819686  0.033643228            3 
  714000    1.1504826   -6.6686091    282.51357  0.032973106  0.033633544            4 
  715000     1.153205   -6.6738381    281.77965  0.032841451  0.033624026            4 
  716000    1.1411732   -6.6827746    282.71923  0.032904939  0.033614544            5 
  717000    1.1442812   -6.6386528    284.58322  0.033075688  0.033605395            8 
  718000    1.1205223   -6.6968073    283.24138  0.032873884   0.03359608            3 
  719000    1.1348685   -6.6357097    285.69613  0.033112671  0.033586924            3 
  720000    1.1533641   -6.6764907    284.50905  0.032929288  0.033577692            4 
  721000    1.1271835   -6.6961911    285.22749  0.032966654  0.033568768            5 
  722000     1.159924   -6.6685666    285.72621  0.032978556  0.033559773            4 
  723000    1.1513124    -6.683539    285.62024  0.032920728  0.033550534            2 
  724000    1.1554577   -6.6514688    285.59164  0.032871965  0.033541467            2 
  725000    1.1243969   -6.7069015    286.10505  0.032885638   0.03353271            5 
  726000    1.1344533   -6.6942939    287.02731  0.032946202  0.033524361            2 
  727000    1.1303324   -6.6999076    287.77738  0.032986862   0.03351564            4 
  728000    1.1234138   -6.6779654     288.9512  0.033075916  0.033507262            3 
  729000    1.1290716   -6.6288395    288.27353  0.032953079  0.033498691            3 
  730000    1.1340957   -6.6796656    287.64175  0.032835816  0.033489987            3 
  731000    1.1319288   -6.6819752    288.05203  0.032837669  0.033481035            3 
  732000     1.166521   -6.6967386    287.92899  0.032778801  0.033471879            3 
  733000    1.1303054   -6.6969674    288.05219  0.032748089  0.033463147            2 
  734000    1.1476563   -6.6921518    289.70761  0.032891418  0.033454648            8 
  735000    1.1095839     -6.67727    289.80145  0.032857307  0.033445802            4 
  736000    1.1177606   -6.6795985    290.57167  0.032899872  0.033437236            5 
  737000    1.1422152   -6.6613625    291.50047  0.032960252  0.033428564            2 
  738000    1.1269994   -6.6753338    291.56643  0.032923039  0.033420326            2 
  739000    1.1448115   -6.6874087    291.11469  0.032827548  0.033412155            2 
  740000    1.1080105   -6.7310973    291.20475  0.032793327  0.033403826            3 
  741000    1.1310844   -6.7108997    291.52757  0.032785376  0.033395716            2 
  742000    1.1381533   -6.6351693    293.66879   0.03298167  0.033387796            3 
  743000     1.140257   -6.6556326    293.13554  0.032877472   0.03337994            2 
  744000    1.1121329   -6.6725486    294.25542  0.032958716  0.033371861            3 
  745000     1.140321   -6.6921664    292.70308  0.032740836  0.033363714            4 
  746000    1.1299534   -6.6901984      294.537   0.03290181   0.03335584            3 
  747000     1.148803   -6.6932833    294.47342  0.032850672  0.033347797            3 
  748000    1.1171998   -6.6765664    296.15429  0.032994017  0.033339868            2 
  749000    1.1332512   -6.6233671    296.15044  0.032949538  0.033332533            2 
  750000     1.124794   -6.6767541    296.04014  0.032893349  0.033325173            2 
  751000    1.1107134   -6.7016752    296.19065  0.032866251  0.033317593            4 
  752000    1.1407583   -6.6611089    296.58922  0.032866713  0.033309741            3 
  753000    1.1216495   -6.7014296    296.15042  0.032774504  0.033301498            5 
  754000    1.1349902     -6.74475     296.8177  0.032804786  0.033293199            6 
  755000    1.1318251   -6.6800548    296.93128  0.032773872  0.033284424            6 
  756000    1.1328103   -6.6761801    297.19412  0.032759493  0.033275708            3 
  757000    1.1270609   -6.7108122    296.75589  0.032667976  0.033266825            2 
  758000    1.1284243   -6.6708033    298.06902  0.032769242  0.033258315            3 
  759000    1.1237498   -6.6951395    298.84178  0.032810911  0.033249726            3 
  760000     1.147264    -6.690548    299.14278  0.032800743   0.03324133            2 
  761000     1.112406   -6.6277274    300.61678  0.032919052  0.033234014            4 
  762000     1.133205   -6.7001166    299.97524  0.032805691  0.033225895            4 
  763000    1.1387332   -6.6819794    300.50886  0.032820976  0.033218262            3 
  764000    1.1222164    -6.656403    300.74268   0.03280352  0.033210812            4 
  765000    1.1334329   -6.6856741    300.69369  0.032755304   0.03320304            2 
  766000     1.125441   -6.7211996    300.92647  0.032737866  0.033195569            2 
  767000    1.1480518   -6.7185398    300.90796  0.032693173  0.033187793            6 
  768000    1.0980722   -6.7127389    301.33372  0.032696801   0.03317971            4 
  769000    1.1023074   -6.6877956    301.88607  0.032714138  0.033171299            2 
  770000     1.119452   -6.7112634    301.70479  0.032652033  0.033162993            6 
  771000    1.1282372   -6.7336031    301.49911  0.032587453  0.033154111            4 
  772000    1.1301279   -6.6763756    302.00486  0.032599834  0.033145601            2 
  773000    1.1431763   -6.7264429    302.03737  0.032561165   0.03313714            2 
  774000    1.1219701   -6.6716256    302.98414  0.032621031  0.033128585            2 
  775000    1.1229602   -6.6400207    304.82292  0.032776658  0.033120559            3 
  776000    1.1392741   -6.6712772    303.86964  0.032632049  0.033112273            3 
  777000    1.1611745   -6.6821554    305.32385  0.032746016  0.033104721            4 
  778000    1.1593799     -6.69247     304.7727  0.032644891  0.033097084            2 
  779000    1.1297621   -6.7107712    305.37081  0.032666968  0.033089494            4 
  780000    1.1459809   -6.6334005    306.81139  0.032778995  0.033082192            2 
  781000    1.1249419   -6.6499487    306.32062  0.032684659  0.033075012            2 
  782000    1.1261211   -6.7098313    306.72639  0.032686103  0.033067396            2 
  783000    1.1258987   -6.7331575    307.15391  0.032689859  0.033059983            2 
  784000    1.1248438   -6.7240821    305.98029  0.032523415  0.033052392            2 
  785000    1.1286661   -6.6489086    308.48308  0.032747673  0.033044885            3 
  786000    1.1031086   -6.6973502    308.85537  0.032745481  0.033037452            3 
  787000     1.104008   -6.6798482    308.58881  0.032675647  0.033030123            4 
  788000    1.1095994   -6.6897727    307.36123   0.03250436   0.03302256            2 
  789000    1.1155269   -6.7233853    308.16286  0.032547831  0.033014776            3 
  790000    1.1386495    -6.701396    309.31276  0.032627928  0.033007386            3 
  791000    1.1107759   -6.7267522    309.04212  0.032558167  0.032999945            2 
  792000    1.1141534   -6.6776971    309.75113  0.032591659  0.032992078            5 
  793000    1.1174491   -6.6902525    310.03795  0.032580701  0.032984345            2 
  794000    1.1097488   -6.7171966    310.51734  0.032589981  0.032976667            9 
  795000    1.1399784   -6.7413223     310.0089  0.032495692  0.032968944            2 
  796000    1.1157727   -6.6896133    311.29334  0.032589336  0.032961242            4 
  797000    1.1084746   -6.7287082    310.86858  0.032504034  0.032953079            3 
  798000    1.1263979   -6.7132729    310.55588  0.032430647  0.032945181            2 
  799000    1.1023017    -6.703342    310.09709  0.032342208  0.032936685            5 
  800000     1.130901    -6.691565    310.96434  0.032392118  0.032928172            2 
  801000    1.1585853   -6.7518084    310.80078  0.032334663  0.032919618            4 
  802000    1.1443599   -6.7133036     310.7006  0.032283936  0.032910669            2 
  803000    1.1108214   -6.7082013    311.83815  0.032361784  0.032901853            4 
  804000    1.1482859    -6.692559    311.22072  0.032257537  0.032892853            3 
  805000    1.1345033   -6.7301325    311.97254  0.032295294  0.032884126            1 
  806000    1.0951015   -6.6885021    312.14133  0.032272677  0.032874955            5 
  807000    1.1172488   -6.7389116    312.17527  0.032236191  0.032865809            5 
  808000    1.0993475     -6.72221    312.14548  0.032193222  0.032856406            3 
  809000    1.1309696    -6.662298    314.26247  0.032371495  0.032847559            2 
  810000    1.1206874   -6.7439894    313.45776  0.032248741  0.032838698            2 
  811000    1.0975403   -6.7012963    314.44395  0.032310311  0.032829979            3 
  812000    1.1271078   -6.7156346    314.18175  0.032243612  0.032820768            2 
  813000    1.1120531   -6.6848949    315.94193  0.032384372  0.032811732            3 
  814000     1.117366   -6.6946926    315.69688    0.0323195  0.032803058            4 
  815000    1.1147811   -6.7299659    314.68497  0.032176377   0.03279438           13 
  816000    1.1320661   -6.7105062    316.10629  0.032282097  0.032785539            1 
  817000    1.1293284   -6.6866047    315.96374  0.032228044  0.032776842            3 
  818000    1.1224429   -6.6973242    315.74933  0.032166803  0.032768406            2 
  819000    1.1060714   -6.6959618    317.03178  0.032258016  0.032759901            5 
  820000    1.1323961   -6.7081715    317.68051  0.032284605   0.03275165            2 
  821000    1.1244386     -6.68684    319.00033  0.032379246  0.032743406            5 
  822000    1.1020807    -6.700529    319.00404  0.032340232  0.032735399            6 
  823000    1.1164674   -6.6843165    319.16336  0.032317067  0.032727345            7 
  824000    1.1096168   -6.7776282    318.68966  0.032229941  0.032718703            2 
  825000    1.1065778   -6.7266877    317.19104  0.032039499  0.032710189            6 
  826000    1.1027697   -6.6743709    319.36632  0.032220169  0.032701696            1 
  827000    1.1274683    -6.719181    320.06526  0.032251639   0.03269304            6 
  828000    1.1091037   -6.7107727    318.95161  0.032100604  0.032684753            5 
  829000    1.1032848   -6.7198134    319.98457  0.032165719  0.032676267            3 
  830000    1.1192538   -6.7113994    320.78088  0.032206915  0.032667707            5 
  831000    1.1167208   -6.6686906    320.75455  0.032165519  0.032659641            4 
  832000    1.1113348   -6.7287323    321.42259  0.032193769  0.032651536            4 
  833000    1.1128383   -6.7587267    322.17695  0.032230587   0.03264338            2 
  834000    1.0931085   -6.7317803    322.72339  0.032246542  0.032635329            1 
  835000    1.1073044   -6.7096146    323.25975  0.032261452  0.032627132            2 
  836000    1.1212247   -6.6902908    322.82395  0.032179421  0.032619199            4 
  837000    1.1205908   -6.7083156     323.9436  0.032252449  0.032610834            2 
  838000    1.1230319   -6.7434899    324.47226  0.032266533  0.032602671            2 
  839000    1.1162567   -6.7421334    323.26687   0.03210835   0.03259438            5 
  840000     1.129014   -6.7316939    323.53725   0.03209695  0.032586342            4 
  841000    1.0994896   -6.6894882    325.17783  0.032221347  0.032578555            1 
  842000    1.0981821   -6.7046667    325.29073  0.032194253  0.032570731            4 
  843000     1.118238   -6.7206026    325.25446  0.032152477  0.032562804            2 
  844000    1.1394811    -6.738438     325.2431   0.03211326  0.032554771            2 
  845000    1.1361201    -6.727519    326.60069  0.032209141  0.032546782            3 
  846000    1.1079343   -6.7076441    325.94785  0.032106763  0.032538887            4 
  847000    1.1429679   -6.7048357    327.10043  0.032182254  0.032531239            5 
  848000    1.1020891    -6.671369     327.1957  0.032153665  0.032523518            1 
  849000    1.1022086   -6.7529244    325.95728  0.031994236   0.03251517            4 
  850000    1.0976761   -6.6842147    327.83291  0.032140482  0.032507229            4 
  851000    1.1353604   -6.6798708    328.59587  0.032177426  0.032499321            2 
  852000    1.1258357   -6.7217509    327.64639   0.03204679  0.032491317            2 
  853000    1.1168824   -6.6945329    328.39587  0.032082441  0.032482768            5 
  854000    1.1386754   -6.7061806    328.20469  0.032026219  0.032474164            3 
  855000    1.0963047   -6.7246825    328.53531  0.032020986  0.032466036            4 
  856000    1.1057445   -6.7367559    328.19357  0.031950309   0.03245724            1 
  857000    1.1085111   -6.7364668    328.53138  0.031945875  0.032448598            3 
  858000    1.0888124   -6.7513853    328.16788  0.031873337  0.032439955            2 
  859000    1.1168192   -6.7136914    329.70761  0.031985605  0.032431058            4 
  860000    1.1241172   -6.7234032    329.42083  0.031920623  0.032422462            4 
  861000    1.0852497   -6.6783967    330.54873  0.031992715  0.032414197            4 
  862000    1.1215638   -6.6702524    331.11607  0.032010448  0.032405909            2 
  863000    1.1196754   -6.7518605     330.2854  0.031893144  0.032397288            1 
  864000    1.1191792    -6.690002    329.96974  0.031825785  0.032388095            2 
  865000    1.1306151   -6.7131222    330.83714  0.031872557  0.032379318            2 
  866000    1.1056029   -6.7472125    329.94084  0.031749503  0.032370377            3 
  867000    1.1110336   -6.7072481    332.15423  0.031925628  0.032361815            3 
  868000    1.1132504   -6.7044426    332.95411   0.03196564  0.032353493            4 
  869000    1.1101927   -6.7347644    333.13244  0.031945957  0.032345192            2 
  870000    1.0917286   -6.6900623    334.04996  0.031997123  0.032336792            2 
  871000     1.102298   -6.7690793    333.67471  0.031924485  0.032328019            5 
  872000    1.1268244   -6.6883737    332.78009  0.031802378  0.032319243            5 
  873000    1.1143169   -6.7669432    333.03621  0.031790398  0.032310398            4 
  874000      1.12694   -6.7370878    333.51835  0.031799995  0.032301539            4 
  875000    1.1062199   -6.7600862     333.3459  0.031747229  0.032292743            2 
  876000    1.1058532   -6.7138475    334.30806  0.031802517  0.032284048            2 
  877000    1.1145332   -6.7218285     334.6929  0.031802822  0.032275196            5 
  878000    1.1147728   -6.7623448    335.39934   0.03183365  0.032266459            2 
  879000    1.1214945   -6.7016106    335.11622  0.031770593  0.032257818            6 
  880000    1.0785615   -6.7565244    334.91691  0.031715616  0.032248908            3 
  881000    1.1199699   -6.7484929    334.64977  0.031654348  0.032239969            3 
  882000    1.1090673   -6.7497857    335.16102  0.031666763  0.032231252            3 
  883000    1.0891967   -6.7613693    335.76471  0.031687874  0.032222216            4 
  884000    1.1327985   -6.7623078    337.12936  0.031780671  0.032213543            3 
  885000    1.1240514   -6.7407214    336.70089  0.031704415  0.032204585            2 
  886000    1.0998135   -6.7343055    336.99477  0.031696273  0.032195525            4 
  887000    1.0838211   -6.7669611    337.25012  0.031684528  0.032186418            3 
  888000    1.1159815   -6.7464123    337.85305  0.031705429  0.032177765            2 
  889000    1.1132202   -6.7710364     338.2195  0.031704115  0.032169175            3 
  890000    1.0871846   -6.7649263     338.5327  0.031697819  0.032160659            2 
  891000    1.1053796   -6.7756372      339.079  0.031713337  0.032152225            2 
  892000    1.0840853   -6.7480574    339.09135  0.031678938  0.032143684            4 
  893000    1.1003216   -6.7499617    339.72541  0.031702633  0.032135688            2 
  894000    1.0939405   -6.7574811    340.98933  0.031784986  0.032127595            2 
  895000    1.1056741   -6.7596989     341.2901  0.031777477  0.032119362            4 
  896000    1.1016576   -6.7214866    340.98618  0.031713744  0.032111069            2 
  897000    1.1390244   -6.7225573    341.99839  0.031772426  0.032103193            3 
  898000    1.1093141   -6.7599624    342.01039  0.031738158  0.032095029            4 
  899000    1.1098965   -6.7522307    342.56376  0.031754149  0.032086712            2 
  900000    1.1003566   -6.7604337    341.94161   0.03166126  0.032078422            4 
  901000    1.1019878   -6.7331297    342.75065  0.031700948  0.032069931            3 
  902000    1.1025442   -6.7677906    342.19866  0.031614806  0.032061606            3 
  903000    1.0816153   -6.7482369    343.26301  0.031678019  0.032053178            4 
  904000    1.1072254   -6.8071909    342.60117  0.031581967  0.032045027            3 
  905000    1.1048246   -6.7793349    342.93192  0.031577525  0.032036983            6 
  906000    1.1009219   -6.7937159    343.33783  0.031580007   0.03202886            7 
  907000    1.0967924   -6.7626396    344.16459  0.031621149  0.032021012            2 
  908000    1.0967391   -6.7131137    345.31563  0.031691963  0.032013111            2 
  909000    1.0888546   -6.7449946    345.01436  0.031629479  0.032005354            2 
  910000    1.1153846   -6.7581999    345.80974  0.031667559  0.031997299            3 
  911000    1.1116531    -6.742608    346.30359  0.031677972  0.031989496            8 
  912000    1.1004625   -6.7579405     345.4814   0.03156811  0.031981561            5 
  913000    1.0935354   -6.7601247    346.33261  0.031611228  0.031973536            2 
  914000    1.0932418    -6.755582    347.58996   0.03169128  0.031966033            3 
  915000    1.1063136    -6.764051    347.43205  0.031642263  0.031958517            3 
  916000    1.1351276   -6.7187587    348.29501  0.031686228  0.031950839            4 
  917000    1.1081705    -6.746507    348.32209  0.031654134  0.031943409            3 
  918000     1.105685   -6.7398383    348.65023   0.03164944  0.031936031            2 
  919000    1.1101781   -6.7433191    349.71464  0.031711519  0.031928705            1 
  920000     1.088232   -6.7510913    349.39271  0.031647891   0.03192139            2 
  921000    1.1387536   -6.7554664    348.98292  0.031576449  0.031913667            4 
  922000    1.1035138   -6.7775306    349.20957  0.031562687  0.031905814            3 
  923000    1.1079707   -6.7470479     350.2523  0.031622634  0.031898103            3 
  924000    1.0940038   -6.7538568    349.79559  0.031547221  0.031890279            3 
  925000    1.0984852   -6.7620851    349.80065  0.031513572  0.031882465            2 
  926000    1.1215955   -6.7939909    350.10852  0.031507247   0.03187446            3 
  927000     1.111239   -6.7915198    350.26083  0.031486949  0.031866444            6 
  928000      1.10411   -6.7596603    351.90458  0.031600627  0.031858568            6 
  929000    1.1171138   -6.7467998      352.455  0.031615985  0.031850903            5 
  930000    1.1054051   -6.7880393    351.77979  0.031521487  0.031843295            3 
  931000    1.1017586   -6.7352389    352.82133  0.031580857  0.031835348            4 
  932000    1.1029169   -6.7473334    352.86047  0.031550471  0.031827791            5 
  933000    1.1032302   -6.7737624    352.28912  0.031465623  0.031819841            6 
  934000    1.0994429   -6.7501351    352.92889  0.031489016  0.031812074            4 
  935000    1.0929259    -6.761204     353.1416  0.031474296  0.031803924            2 
  936000    1.0979433   -6.7690865    353.26829  0.031451949  0.031796018            2 
  937000    1.1200503   -6.7590554    353.80746  0.031466334  0.031788195            4 
  938000    1.0851085   -6.7813041    353.63805  0.031417737  0.031780794            3 
  939000    1.0935151   -6.7453244    355.48368  0.031548072  0.031772996            5 
  940000    1.0921073   -6.7525771    354.66263  0.031441722  0.031765289            2 
  941000    1.1073776   -6.7540349    356.44001  0.031565711  0.031757844            2 
  942000    1.0985973   -6.7119877    357.04603  0.031585813  0.031750215            2 
  943000    1.0861683   -6.7817632    355.27738  0.031396021  0.031742693            4 
  944000     1.094878   -6.7588541    355.73027  0.031402743  0.031734858            4 
  945000    1.1059714   -6.7726123    356.38238  0.031427018  0.031726712            4 
  946000    1.0994693   -6.7804062    355.04409  0.031275907  0.031718781            9 
  947000    1.0769248   -6.7652997    356.38319  0.031360718  0.031710987            2 
  948000      1.12093   -6.7940945    356.09403  0.031302218  0.031703266            4 
  949000     1.097437   -6.7854202    357.55361  0.031397402  0.031695386            4 
  950000    1.1094913   -6.7258744    358.68481   0.03146358   0.03168783            4 
  951000    1.1101156   -6.7726793    357.41317  0.031319065  0.031680615            3 
  952000    1.1129499   -6.8104119    357.84964  0.031324373  0.031673211            7 
  953000    1.0928087   -6.7639691    358.92424   0.03138547  0.031665691            1 
  954000    1.1051306   -6.7830578    358.89923  0.031350387  0.031658666            8 
  955000    1.0903328   -6.7898675    359.52193  0.031371896  0.031651498            3 
  956000    1.1024274   -6.8042543    359.77822  0.031361421  0.031644229            4 
  957000    1.0842408   -6.7391231    360.93551  0.031429424  0.031636714            2 
  958000    1.1286921    -6.723067    361.75671   0.03146805   0.03162919            8 
  959000    1.0988114   -6.7798683    360.26759  0.031305839   0.03162157            4 
  960000    1.1015244   -6.7759726    361.39259  0.031370884  0.031614132            2 
  961000    1.0886253   -6.8139756    359.96137  0.031214132  0.031606305            5 
  962000    1.1068948   -6.7794068    361.36532  0.031303303  0.031598633            4 
  963000    1.1162641   -6.7612066    361.79709  0.031308159  0.031591119            4 
  964000    1.0846213   -6.7591847    362.35471  0.031323885    0.0315837            3 
  965000    1.0666496   -6.8053887    361.80698  0.031244126  0.031576157            3 
  966000    1.0971029   -6.7585074    363.12606  0.031325574  0.031568836            5 
  967000    1.1180377   -6.7558605    363.29843  0.031308034  0.031561328            3 
  968000    1.1071534   -6.7671136    364.08731  0.031343605  0.031553406            5 
  969000    1.1200258     -6.75469    364.74442  0.031367769  0.031545609            3 
  970000     1.078931   -6.7884036    363.67747  0.031243769  0.031537752            4 
  971000    1.1149202   -6.7833391    363.24236   0.03117425  0.031529788            6 
  972000    1.1016466   -6.7508891    363.80108  0.031190079  0.031521665            3 
  973000    1.0888851   -6.7710025     364.4686  0.031215194  0.031513847            4 
  974000    1.0974031   -6.7641923    365.08739  0.031236088  0.031505882            2 
  975000    1.0892387   -6.7914833     364.0182  0.031112666  0.031498131            6 
  976000    1.1213176   -6.8172064    365.01059  0.031165522  0.031489838            3 
  977000    1.0698844   -6.7724126    366.21867  0.031236666  0.031481674            7 
  978000      1.10057   -6.7574793    365.96532  0.031183139  0.031473776            3 
  979000    1.0996398   -6.7858731    366.87952  0.031229105  0.031466208            3 
  980000    1.1094857   -6.7617421    366.63705  0.031176619  0.031458668            8 
  981000    1.0698979   -6.7986621    367.68908  0.031234207  0.031450987            7 
  982000    1.0885135   -6.7601118    368.29881  0.031254142  0.031443565            2 
  983000    1.0841608   -6.7958759    366.76789  0.031092565  0.031436242            5 
  984000    1.0882405   -6.8279882    366.89719  0.031071916  0.031428429            5 
  985000    1.1050025   -6.8150689    367.93388  0.031128078  0.031420521            3 
  986000    1.0797768   -6.7850832    367.26824  0.031040251  0.031412344            2 
  987000    1.1303661   -6.8085444    367.59268  0.031036194  0.031404322            3 
  988000    1.1063316   -6.7880252    368.40987  0.031073707  0.031396426            3 
  989000    1.1003661   -6.8174752    368.03922  0.031011056   0.03138837            4 
  990000    1.1022872   -6.7868928    367.91955  0.030969659  0.031380072            2 
  991000    1.0774576   -6.7607369    368.69219   0.03100338  0.031372186            4 
  992000    1.0765825   -6.7828196     368.4749  0.030953873  0.031364287            6 
  993000    1.0679451   -6.7431291    371.00186  0.031134765  0.031356789            3 
  994000    1.0836188    -6.703351    371.92935  0.031181199  0.031349016            2 
  995000    1.0964104   -6.8038273    370.62271  0.031040428  0.031341273            5 
  996000    1.0847579   -6.7675578    371.28869  0.031064984   0.03133327            3 
  997000    1.1148967   -6.7674005    371.35487  0.031039357  0.031325267            6 
  998000    1.0929547   -6.7627107    372.60167  0.031112364  0.031317549            2 
  999000    1.0808984   -6.7939555    371.60877  0.030998396  0.031309623            7 
 1000000    1.0794894   -6.7913628    372.14919  0.031012432  0.031301622            6 
 1001000    1.1009627   -6.8003616    372.39869  0.031002222  0.031293578            2 
 1002000    1.1047675   -6.8490133    371.34285  0.030883471  0.031285673            3 
 1003000    1.0731286   -6.8257343    372.10517  0.030916016  0.031277579            3 
 1004000    1.1047801   -6.7909664     373.5414  0.031004432   0.03126922            3 
 1005000    1.0934955   -6.8142574    372.95597  0.030925039   0.03126114            7 
 1006000    1.0750751   -6.7559695    374.11648  0.030990431  0.031252915            5 
 1007000    1.1009772   -6.7933631    373.08414  0.030874225   0.03124467            4 
 1008000    1.1076812    -6.810065    373.52799   0.03088029  0.031236204            7 
 1009000    1.0973952   -6.7768264    374.58901  0.030937315  0.031227947            5 
 1010000    1.0773247   -6.8128089    374.47412  0.030897205   0.03121994            5 
 1011000    1.0969886    -6.828345    374.74651  0.030889096  0.031211701            5 
 1012000    1.0855771   -6.8110282     374.1802   0.03081194  0.031203486            2 
 1013000    1.1000694   -6.7426576    376.50345  0.030972643  0.031195641            2 
 1014000    1.0922362   -6.7959977    376.27826  0.030923591  0.031187667            1 
 1015000    1.0788992   -6.7830464    376.79128  0.030935245  0.031179727            2 
 1016000    1.0840466   -6.7734254    376.67963  0.030895639  0.031171979            3 
 1017000    1.0865218   -6.8020499    375.99091  0.030808826  0.031164039            3 
 1018000    1.0953572   -6.7838173    376.34783  0.030807779  0.031155645            4 
 1019000    1.0817618   -6.8227274    376.59415   0.03079769  0.031147473            4 
 1020000    1.0942259   -6.8071529    376.74269  0.030779631  0.031139163            3 
 1021000    1.0966113   -6.8079471    377.09892   0.03077856  0.031131035            2 
 1022000    1.0824419   -6.7901983    377.13919  0.030751728  0.031122989            5 
 1023000    1.1164794   -6.8203855    376.25407  0.030649566     0.031115            4 
 1024000    1.0934767   -6.8441391    376.47771  0.030637835  0.031106564            6 
 1025000    1.0871312   -6.8051945    377.22295  0.030668532  0.031097981            3 
 1026000    1.0913205   -6.7687935    379.23587  0.030802134  0.031089486            5 
 1027000    1.0919897   -6.8121791    377.21492  0.030608157  0.031081069            2 
 1028000    1.0955503   -6.8168683    379.08906  0.030730307  0.031072778            4 
 1029000    1.0735211   -6.8081048    379.22809  0.030711701  0.031064478            2 
 1030000    1.0853538    -6.781755    378.72806  0.030641429  0.031056294            4 
 1031000    1.0955905   -6.7995663    379.89769  0.030706247  0.031048018            3 
 1032000    1.0919768   -6.8039792    380.41767  0.030718481  0.031039981            4 
 1033000    1.1019402   -6.7567285    382.26447  0.030837727  0.031031989            1 
 1034000    1.0971556   -6.8118576    379.33319  0.030571662  0.031024075            3 
 1035000    1.0760291   -6.7486443    382.56806  0.030802581  0.031015881            2 
 1036000    1.0903883   -6.8328019    379.89031  0.030557458  0.031007659            2 
 1037000    1.1029787   -6.8217974    380.69086  0.030592323  0.030998945            3 
 1038000    1.0698517   -6.7836868    381.33471   0.03061454  0.030990446            4 
 1039000    1.0737638   -6.7953214    381.68615  0.030613262  0.030981911            5 
 1040000    1.0851241   -6.8001371    380.41501  0.030481972  0.030973512            5 
 1041000    1.1083704   -6.8375315    380.49022  0.030458711  0.030964684            2 
 1042000    1.0981704   -6.8292422    381.49913  0.030510167  0.030955987            5 
 1043000    1.0733557   -6.8094888    381.64178  0.030492312  0.030947242            4 
 1044000    1.0797649   -6.8235179    380.99571  0.030411535  0.030938381            3 
 1045000    1.1056189   -6.8078653    381.72022  0.030440209  0.030929684            3 
 1046000    1.0750429   -6.8257878     382.1715   0.03044706  0.030921209            3 
 1047000    1.0862955   -6.8281308    382.48521  0.030442949  0.030912606            3 
 1048000    1.0723065    -6.814669    381.82352  0.030361285  0.030903583            7 
 1049000    1.0981601   -6.7909178    382.91136  0.030418761  0.030894491            5 
 1050000    1.0908244   -6.8045338    383.97251  0.030474008   0.03088552            5 
 1051000    1.0846694   -6.7950585    383.69937  0.030423356  0.030876501            4 
 1052000     1.072767   -6.8345091    383.23176  0.030357395  0.030867789            4 
 1053000     1.086339   -6.8143096    385.01831  0.030469952  0.030858963            3 
 1054000    1.1020762   -6.8104693    385.09421  0.030447044  0.030850192            4 
 1055000    1.0782816   -6.8138031    385.07408  0.030416594  0.030841372            3 
 1056000    1.0911429    -6.789401    385.73627  0.030440046  0.030832583            3 
 1057000    1.0656228   -6.8281955    385.35209  0.030380959  0.030823956            4 
 1058000    1.0866149   -6.8315486    386.02956  0.030405605  0.030815182            5 
 1059000    1.0847853   -6.8673252    385.49947   0.03033518  0.030806424            2 
 1060000    1.0743516   -6.7985071    387.20209  0.030440416  0.030797709            5 
 1061000    1.0623746   -6.8607091    385.85425  0.030305863  0.030788777            4 
 1062000    1.0773198   -6.8631823    386.45794  0.030324697  0.030779966            2 
 1063000    1.0810686   -6.8296678    386.53636  0.030302317  0.030771164            7 
 1064000    1.1029986   -6.8531422    386.72001  0.030288222  0.030762606            3 
 1065000     1.060323   -6.8228976    387.69187  0.030335827  0.030754073            4 
 1066000    1.0538364   -6.8093018    389.31258  0.030434067  0.030745465            2 
 1067000    1.0721301   -6.8220851    388.36544  0.030331572  0.030736976            2 
 1068000    1.0632116   -6.8730278    387.51831  0.030237072  0.030728485            9 
 1069000    1.0666219   -6.8067517     389.7346  0.030381556  0.030719846            6 
 1070000    1.0815814   -6.7969004    389.86236  0.030363112  0.030711539            3 
 1071000    1.0642485   -6.8484472    389.62469  0.030316269  0.030703222            6 
 1072000    1.0806216   -6.8071634    389.35556  0.030267068  0.030694638            1 
 1073000     1.077068   -6.8366832    390.23422    0.0303071  0.030686077            4 
 1074000    1.0808043   -6.7984854    390.83074  0.030325166  0.030677441            3 
 1075000    1.1044444   -6.7920453    391.88041  0.030378327  0.030669049            3 
 1076000    1.0728798   -6.8182918    391.09515  0.030289277  0.030660555            4 
 1077000    1.0945568   -6.8226559    389.96197  0.030173474  0.030652116            2 
 1078000    1.0891025   -6.8064596    392.35524  0.030330491  0.030643552            5 
 1079000     1.077921   -6.8611089    390.78964  0.030181468  0.030634918            8 
 1080000    1.0818539   -6.8388561     392.0756  0.030252747  0.030626201            2 
 1081000    1.1097904   -6.7705923    390.97326  0.030139782  0.030617472            4 
 1082000    1.0696907   -6.7807618    391.77026   0.03017331  0.030608689            2 
 1083000    1.0975774   -6.8542978    393.06574  0.030245132  0.030599775            2 
 1084000    1.0884533   -6.8379438    392.31812  0.030159757  0.030591026            3 
 1085000    1.0886754   -6.8037263    393.36122  0.030212075  0.030582151            3 
 1086000    1.1011719   -6.8076022    394.74807  0.030290674  0.030573544            3 
 1087000    1.1157971   -6.8047433    394.40654  0.030236625   0.03056516            3 
 1088000      1.07745   -6.7956966    393.53769  0.030142286  0.030556729            2 
 1089000    1.0636833   -6.8629097    393.86562  0.030139701  0.030548198            6 
 1090000     1.042168   -6.8453992    394.54914  0.030164307  0.030539515            3 
 1091000    1.1055991   -6.7901798    394.70672  0.030148695  0.030530733            5 
 1092000    1.0733262   -6.8064506     394.9275  0.030137935  0.030522266            5 
 1093000     1.091591   -6.8760267     394.6448  0.030088807   0.03051371            2 
 1094000    1.0714805   -6.8660683    395.36632  0.030116265  0.030505128            2 
 1095000    1.0775367   -6.8207503    396.13157  0.030146999  0.030496772            5 
 1096000    1.0759649   -6.8275854    395.57769  0.030077379  0.030488472            6 
 1097000    1.0583748   -6.8202255    395.84648   0.03007038  0.030480067            3 
 1098000    1.0849368    -6.866176    395.80829  0.030040095  0.030471754            4 
 1099000    1.0598147   -6.8065409    397.79687  0.030163548  0.030463351            4 
 1100000    1.0879442    -6.813537    397.71949  0.030130265  0.030455226            4 
 1101000     1.088467   -6.7574024    399.27861  0.030220906   0.03044703            3 
 1102000    1.0890459   -6.8516662    397.07038  0.030026495  0.030438972            8 
 1103000    1.0805753   -6.8385629    398.19448  0.030084201  0.030430791            5 
 1104000    1.0859173   -6.8514357    398.19101  0.030056688  0.030422568            1 
 1105000    1.0845411   -6.8370798    399.41733   0.03012197  0.030414496            4 
 1106000     1.060274   -6.8151498    401.04539  0.030217405  0.030406493            2 
 1107000     1.065625   -6.8141806    399.85375  0.030100403  0.030398385            3 
 1108000    1.0759786   -6.8648321    399.89769  0.030076541  0.030390138            4 
 1109000     1.061976   -6.8461882     400.5955  0.030101856   0.03038199           10 
 1110000    1.0864375   -6.8357638    400.98363  0.030103876   0.03037391            5 
 1111000    1.0943996   -6.7998925    401.41945   0.03010947  0.030365926            7 
 1112000    1.0737109   -6.8272475    402.01655  0.030127139  0.030358049            2 
 1113000    1.0856137   -6.8190189    402.75289  0.030155203  0.030350258            4 
 1114000    1.0585963   -6.8371032    400.69056   0.02997386  0.030342255            2 
 1115000    1.0622763   -6.8550887    402.03327  0.030047329  0.030334258            4 
 1116000    1.1120066   -6.7992565    403.05377  0.030096608  0.030326338            4 
 1117000    1.0747389   -6.7983334    403.32039  0.030089555  0.030318598            3 
 1118000    1.0635252   -6.8206492    402.70872  0.030017048  0.030310775            5 
 1119000    1.0623622   -6.8277642    403.05459  0.030015981  0.030302677            7 
 1120000    1.0778778   -6.8336537    403.15433  0.029996602  0.030294604            2 
 1121000    1.0624182   -6.8089137    404.11591  0.030041326  0.030286637            4 
 1122000    1.0683796   -6.8589811    404.40963  0.030036366  0.030278574            6 
 1123000    1.0946509   -6.8379572      403.728  0.029959038  0.030270158            4 
 1124000    1.0548833   -6.8320282    404.25356  0.029971349  0.030261865            3 
 1125000    1.0731534   -6.8267538    405.19983  0.030014802  0.030253849            3 
 1126000    1.0521524   -6.8428075    404.28824  0.029920681  0.030245686            4 
 1127000    1.0930989   -6.8639121    405.40281  0.029976546   0.03023725            3 
 1128000    1.0741991   -6.8527942    404.97522  0.029918382  0.030229094            3 
 1129000    1.0657313   -6.8341526    405.90083  0.029960203  0.030221207            4 
 1130000    1.0556052   -6.7976202    405.78737  0.029925322  0.030213214            5 
 1131000    1.0639046   -6.8746359    405.39976  0.029870304  0.030205171            7 
 1132000    1.0858837   -6.8566826    406.66848  0.029937314  0.030196842            4 
 1133000    1.0729623   -6.8607149    406.84227  0.029923674   0.03018849            3 
 1134000    1.0720708   -6.8556283    405.36964  0.029789068      0.03018            2 
 1135000    1.0726717    -6.819287     407.6578  0.029930822  0.030171825            3 
 1136000    1.0627934   -6.8513838    406.54207  0.029822628   0.03016338            2 
 1137000    1.0520252   -6.8549118    406.78279  0.029814042  0.030155149            3 
 1138000    1.0778929   -6.8568548    406.92233  0.029798062  0.030146761            4 
 1139000    1.0471569   -6.8483493    407.24176  0.029795271  0.030138071            3 
 1140000    1.0906688   -6.8531772    406.53058  0.029717147  0.030129435            5 
 1141000    1.0634636   -6.8327208    407.20541  0.029740389  0.030120903            3 
 1142000    1.0671931   -6.8738039    408.01658  0.029773539  0.030112317            2 
 1143000    1.0670181   -6.8212833    408.81678  0.029805831  0.030103877            6 
 1144000    1.0480874   -6.8487954    409.40628  0.029822718  0.030095552            6 
 1145000     1.047093   -6.8745421    409.14701  0.029777803  0.030086945            2 
 1146000    1.0668134   -6.8402769    409.73636  0.029794674  0.030078581            2 
 1147000    1.0716999   -6.9030726    408.51247  0.029679778  0.030070165            6 
 1148000    1.0897049   -6.8202348    409.57001  0.029730692  0.030061531            5 
 1149000    1.0613239   -6.8212438    410.76892   0.02979177  0.030053423            3 
 1150000    1.0678941   -6.8491643    410.50087   0.02974644  0.030045058            2 
 1151000    1.0558994   -6.8370218    409.99309  0.029683832  0.030036555            7 
 1152000    1.0554687   -6.8556187     410.8489  0.029719972   0.03002801            3 
 1153000    1.0532558   -6.9031747    409.91604  0.029626774  0.030019202            3 
 1154000    1.0595849   -6.9054971    409.35625  0.029560676   0.03001041            3 
 1155000      1.06717   -6.8303985    410.39467  0.029610005   0.03000165            6 
 1156000    1.0692313   -6.8760451    411.33628  0.029652269    0.0299929            4 
 1157000    1.0518221   -6.8689045    410.26938  0.029549797  0.029984205            2 
 1158000    1.0815397   -6.8710556    410.97383  0.029574973  0.029975466            4 
 1159000    1.0670855   -6.8458356    412.79633  0.029680495  0.029966854            9 
 1160000    1.0675216   -6.8632279    412.04924  0.029601238  0.029958201            3 
 1161000    1.0686234   -6.8154916     412.1574  0.029583505  0.029949779            1 
 1162000     1.044286   -6.8653149    411.16867  0.029487139  0.029941184            4 
 1163000    1.0758357   -6.8348445    412.55729  0.029561285  0.029932369            4 
 1164000     1.037648   -6.8371949    411.85311  0.029485475  0.029923569            4 
 1165000    1.0501619   -6.8221796    414.40431  0.029642654  0.029914998            3 
 1166000    1.0695104   -6.8216948    412.37726   0.02947236  0.029906408            8 
 1167000    1.0484479   -6.8441678    413.37843  0.029518597  0.029897748            4 
 1168000    1.0625775   -6.8287734    413.15997  0.029477738  0.029888932            2 
 1169000    1.0833543    -6.893321    412.40203  0.029398491  0.029880044            8 
 1170000    1.0762836   -6.8178775    414.64346   0.02953301  0.029871287            3 
 1171000    1.0587936   -6.8338312    414.07406  0.029467269  0.029862741            6 
 1172000    1.0721793   -6.8683707    413.41802  0.029395479  0.029853883            3 
 1173000    1.0644227   -6.8399882    415.19535  0.029496686  0.029844833            5 
 1174000    1.0776417   -6.8885502    414.26352  0.029405417  0.029835842            4 
 1175000    1.0620741    -6.886113    414.03337  0.029364069   0.02982696            4 
 1176000    1.0486106   -6.8325076    416.61623  0.029522125  0.029818023            4 
 1177000    1.0607221   -6.8990528    414.63035   0.02935644  0.029809196            2 
 1178000    1.0398794   -6.8364561    416.13106  0.029437681  0.029800443            4 
 1179000    1.0705005   -6.8841932    414.20469  0.029276554  0.029791531            5 
 1180000    1.0385321    -6.879056    415.60512  0.029350644  0.029782313            3 
 1181000    1.0797314   -6.8091808    414.27929  0.029232239  0.029773019            4 
 1182000    1.0345213   -6.8445113    415.29917  0.029279411  0.029763854            3 
 1183000    1.0533622   -6.8755711    414.76432  0.029216985  0.029754559            7 
 1184000     1.035684   -6.9100983    415.02656  0.029210766  0.029745231            5 
 1185000    1.0645242   -6.8826778    414.41764  0.029143294  0.029735915            3 
 1186000    1.0562254   -6.8710361    416.03776  0.029232558   0.02972658            3 
 1187000    1.0499262   -6.8553868    415.23796   0.02915178  0.029717265            3 
 1188000    1.0728938   -6.9117056    415.64846  0.029156037  0.029707823            3 
 1189000    1.0618156   -6.9040269    414.91361  0.029080012  0.029698206            4 
 1190000    1.0531933   -6.8792839    416.14452  0.029141773  0.029688819            4 
 1191000    1.0650485   -6.8766789    416.95871  0.029174273  0.029679299            2 
 1192000     1.042087   -6.8535361    417.27534  0.029171934   0.02966987            2 
 1193000    1.0790878   -6.8403716    419.74149  0.029319746  0.029660624            2 
 1194000    1.0274199   -6.8864617    416.74626  0.029086143  0.029651174            4 
 1195000    1.0615234   -6.8549172    418.35771  0.029174178  0.029641923            4 
 1196000    1.0694291   -6.8666036     417.7767  0.029109302  0.029632486            5 
 1197000    1.0984072   -6.9185836    418.05314  0.029104229  0.029623031            3 
 1198000    1.0475674   -6.8980831    417.60264  0.029048598  0.029613471            4 
 1199000    1.0742093   -6.8906693    418.41773  0.029081021  0.029603879            4 
 1200000    1.0576668   -6.8941797    418.76763  0.029081085  0.029594432            3 
 1201000    1.0846469   -6.8924736    418.68034  0.029050815  0.029584925           10 
 1202000     1.076189   -6.9150909    419.57456  0.029088641  0.029575386            2 
 1203000    1.0658968    -6.842541    421.75023  0.029215173  0.029565749            6 
 1204000    1.0361119   -6.8938685     419.2092  0.029015033  0.029556302            3 
 1205000    1.0802279   -6.8889116    419.61721  0.029019171  0.029546825            2 
 1206000    1.0521293   -6.9116005    419.71167  0.029001635  0.029537188            4 
 1207000    1.0551419   -6.8869223    418.91667  0.028922719  0.029527534            5 
 1208000    1.0375221   -6.8586657    420.90615   0.02903602  0.029517767            3 
 1209000    1.0496936   -6.8443253     420.9229  0.029013159  0.029508317            8 
 1210000    1.0675979   -6.9257387    420.26316  0.028943744  0.029498715            4 
 1211000    1.0607159   -6.9132766    419.92402  0.028896506  0.029489153            7 
 1212000    1.0653952    -6.907584    421.07867  0.028952054   0.02947971            5 
 1213000    1.0501654   -6.8740296    422.87533  0.029051617  0.029470128            8 
 1214000     1.042903   -6.8973994    421.84397  0.028956889  0.029460549            3 
 1215000    1.0440585   -6.8775327    422.82648  0.029000445   0.02945106            3 
 1216000    1.0574503   -6.8899202    421.94808  0.028916398  0.029441559            3 
 1217000    1.0762681   -6.8838549    421.64362   0.02887179   0.02943194            5 
 1218000    1.0500868   -6.9032122    422.44366  0.028902823  0.029422178            6 
 1219000    1.0395622   -6.8946539    423.64265  0.028961078  0.029412465            3 
 1220000    1.0577619   -6.8811278    423.13925  0.028902954  0.029403024            3 
 1221000    1.0756391   -6.8767761    423.93794  0.028933794  0.029393664            6 
 1222000    1.0739716   -6.8704035    424.38299  0.028940466  0.029384177            5 
 1223000    1.0618642   -6.9027464    423.00913   0.02882319  0.029374646            5 
 1224000    1.0540921   -6.8943269    424.00047  0.028867134  0.029365306            6 
 1225000    1.0751395   -6.8671456    424.00806  0.028844085   0.02935594            3 
 1226000    1.0502348   -6.8860796    423.30135  0.028772522  0.029346269            3 
 1227000    1.0541565    -6.920523    424.28188  0.028815667    0.0293367            2 
 1228000    1.0448595   -6.8603855    426.63795  0.028952087  0.029327452            2 
 1229000    1.0260616   -6.8841488    427.50693  0.028987451  0.029318158            8 
 1230000    1.0399294   -6.8765641    426.23029  0.028877391  0.029308883            8 
 1231000    1.0417547   -6.8909151     426.2506  0.028855307  0.029299547            5 
 1232000    1.0771522   -6.8804079    425.91508  0.028809191  0.029290418            6 
 1233000    1.0658044   -6.9095713    425.38142  0.028749758  0.029281144            5 
 1234000    1.0640888   -6.8722306    427.63423  0.028878595  0.029271799            3 
 1235000    1.0519318   -6.8592526    426.82068  0.028800316  0.029262303            4 
 1236000    1.0603473   -6.8796916    427.28346  0.028808216  0.029252871            6 
 1237000     1.085936   -6.9003433    426.69284  0.028745139   0.02924339            4 
 1238000    1.0559521   -6.8604195    426.33261  0.028697671  0.029233754            3 
 1239000    1.0435333   -6.9005467    425.94259  0.028648278  0.029224028            3 
 1240000    1.0299678    -6.880669    427.45711  0.028726956  0.029214274            4 
 1241000    1.0600937   -6.9004328    426.39947  0.028632788  0.029204405            4 
 1242000    1.0621755    -6.929769    426.05909  0.028586895  0.029194622            5 
 1243000    1.0646421   -6.8429805    428.41141  0.028721602  0.029184881            4 
 1244000     1.034074   -6.8945324    427.36319  0.028628295  0.029175385            3 
 1245000    1.0387748    -6.933508    426.45003  0.028544179  0.029165801            5 
 1246000    1.0668569    -6.891598    428.82324  0.028679992  0.029156083            3 
 1247000    1.0384652   -6.8822769    427.44169  0.028564668  0.029146333            2 
 1248000    1.0343148   -6.9160989    427.84249  0.028568543  0.029136565            4 
 1249000     1.053067   -6.9165977    429.36894  0.028647514  0.029126814            4 
 1250000    1.0545644   -6.9192122     427.9197   0.02852798  0.029117165            3 
 1251000    1.0610312   -6.9389037     427.7665  0.028494971   0.02910738            5 
 1252000    1.0635637   -6.8881912    430.30328   0.02864106  0.029097578            5 
 1253000    1.0565285   -6.8521462    429.29458  0.028551116  0.029087953            4 
 1254000    1.0610116   -6.8808485    430.23298  0.028590708  0.029078261            5 
 1255000    1.0468024   -6.9245796    429.95204  0.028549272  0.029068649            4 
 1256000    1.0514198   -6.8876058    431.16124   0.02860677  0.029058855            7 
 1257000    1.0705532   -6.8992624    430.94579  0.028569729  0.029048895            3 
 1258000    1.0499816   -6.9096162      429.338  0.028440514  0.029039124            3 
 1259000    1.0724223   -6.9074456    430.03936  0.028464347   0.02902927            4 
 1260000    1.0590351   -6.8867973    429.81624     0.028427  0.029019536            2 
 1261000    1.0638775   -6.9258093    430.54923  0.028452896  0.029009724            5 
 1262000     1.047929    -6.902332    431.93982  0.028522175  0.028999956            4 
 1263000    1.0379094   -6.8790802    431.73037  0.028485772  0.028990087            3 
 1264000    1.0458924   -6.8980519    431.47858  0.028446636  0.028980369            3 
 1265000    1.0560779    -6.895005    431.65034  0.028435464  0.028970503            4 
 1266000     1.051619   -6.8992119    431.40158  0.028396628  0.028960645            1 
 1267000    1.0408448   -6.9069777    432.40898  0.028440475  0.028951007            6 
 1268000    1.0501034   -6.9094746    432.29226  0.028410374  0.028941374            4 
 1269000     1.048157     -6.88841    432.63863  0.028410732  0.028931594            3 
 1270000     1.031767   -6.9198749    432.89754  0.028405351  0.028921926           10 
 1271000    1.0571997   -6.9089998    431.87958  0.028316259  0.028911935            4 
 1272000    1.0272276   -6.9026877    433.61546  0.028407722  0.028902239            3 
 1273000    1.0353227   -6.8902041    433.47549  0.028376243  0.028892498            3 
 1274000    1.0432514   -6.8957778    431.46898  0.028222723  0.028882675            5 
 1275000    1.0696334   -6.8859427     432.7837  0.028286516  0.028872812            8 
 1276000    1.0381643   -6.8585277    434.95945  0.028406443  0.028862962            3 
 1277000    1.0605368   -6.8806434    433.73282  0.028304151  0.028853099            4 
 1278000    1.0426031   -6.8600484    433.61801  0.028274518  0.028843342            3 
 1279000      1.05793   -6.8987013    433.28102  0.028230455  0.028833228            2 
 1280000    1.0599232    -6.871715     434.1042  0.028261992  0.028823304            3 
 1281000    1.0688126   -6.9088561      433.751  0.028216953   0.02881325            3 
 1282000    1.0434581     -6.91194    434.81864  0.028264342  0.028803203            2 
 1283000    1.0551129   -6.8929038    434.15187  0.028199004  0.028793055            5 
 1284000     1.051934   -6.8679789    433.96618  0.028164991  0.028782926            3 
 1285000    1.0353169   -6.9450137    433.19184  0.028092856  0.028772699            4 
 1286000    1.0406457   -6.9248909    434.92556  0.028183357   0.02876237            3 
 1287000    1.0502415   -6.8942415    435.18209  0.028178069  0.028751951            2 
 1288000    1.0339596    -6.922901    435.22693  0.028159092  0.028741675            3 
 1289000    1.0246456   -6.8919488    435.66003  0.028165246  0.028731549            5 
 1290000     1.038205   -6.9768905    434.06358  0.028040283  0.028721331            9 
 1291000     1.031367   -6.8947721    435.96821  0.028141506  0.028711104            4 
 1292000    1.0409481   -6.8834157    436.82314  0.028174867  0.028701049            8 
 1293000    1.0598564   -6.8468049    436.21059  0.028113598  0.028690859            3 
 1294000    1.0365653   -6.9172421    435.55739  0.028049806  0.028680663            6 
 1295000    1.0227249   -6.9068372    436.69293  0.028101218  0.028670414           10 
 1296000    1.0361091   -6.9201713    435.97145  0.028033143  0.028659885            4 
 1297000    1.0269287   -6.9486962    435.61744  0.027988784  0.028649506            4 
 1298000    1.0441211    -6.887043    436.20685  0.028005063  0.028639053            7 
 1299000    1.0316922   -6.8837238    435.23976  0.027921463  0.028628707            2 
 1300000    1.0478863   -6.8819183     436.3369  0.027970314  0.028618444            3 
 1301000    1.0363776   -6.8878123    435.68539  0.027907084  0.028608128            5 
 1302000    1.0664107   -6.9015266    435.74021  0.027889158  0.028597573            5 
 1303000    1.0377517   -6.8847541    437.84065  0.028002088  0.028587258            5 
 1304000    1.0604092   -6.9294566    436.44966  0.027891722  0.028576983            4 
 1305000    1.0122249    -6.930916    436.29008  0.027860159  0.028566444            3 
 1306000    1.0364348    -6.922556     438.0395  0.027950453   0.02855611            6 
 1307000    1.0512236   -6.9296516    439.05976  0.027994119  0.028545763            5 
 1308000    1.0223692   -6.9119355    437.99944  0.027905163  0.028535359            5 
 1309000     1.035556   -6.8787724    438.05792  0.027887568  0.028525022            5 
 1310000    1.0485566   -6.9313985    438.29414  0.027881306  0.028514785            5 
 1311000    1.0353764   -6.9386729    439.01444  0.027905825   0.02850452            2 
 1312000    1.0102578   -6.9233226    439.78813  0.027933697   0.02849432            3 
 1313000    1.0553938   -6.9612952    439.51675  0.027895199  0.028484163            3 
 1314000    1.0367939   -6.9010059    438.97182   0.02783941  0.028473945            3 
 1315000    1.0328609   -6.9211829    439.21005  0.027833337  0.028463858            2 
 1316000    1.0677673   -6.8779393    442.09865  0.027995102  0.028453788            7 
 1317000    1.0590738   -6.9506649    440.83395  0.027893821  0.028443856            4 
 1318000     1.036871   -6.9039918    442.02618  0.027948039  0.028433788            3 
 1319000    1.0517817      -6.8926    441.79628  0.027912325  0.028423996           10 
 1320000    1.0236769   -6.9561276    440.70423  0.027822237  0.028414055            2 
 1321000    1.0448545   -6.9065469    441.55312  0.027854726  0.028403989            2 
 1322000    1.0311301   -6.9133197    442.69124  0.027905398  0.028394017            4 
 1323000     1.026205   -6.9549718    441.44359  0.027805719  0.028384036            5 
 1324000    1.0338383   -6.9104529     442.2691  0.027836675  0.028374093            3 
 1325000    1.0544725   -6.9691828    441.98478  0.027797785  0.028364203            2 
 1326000    1.0164729   -6.9048615    444.09995   0.02790975  0.028354192            3 
 1327000    1.0327005    -6.938197    444.27421  0.027899661  0.028344417           14 
 1328000    1.0411356   -6.9291129    444.13556  0.027869952  0.028334512            5 
 1329000    1.0426774   -6.9568162    443.25278  0.027793628  0.028324848            3 
 1330000    1.0604462   -6.9393933    443.14622  0.027766054  0.028314861            4 
 1331000    1.0668203   -6.9000136    443.52138  0.027768681  0.028305065            7 
 1332000    1.0314527   -6.9302529    443.32375   0.02773547  0.028295329            4 
 1333000    1.0472359   -6.9367058    443.76902  0.027742499  0.028285574            5 
 1334000     1.031009   -6.9249574    445.03927  0.027801054   0.02827576            3 
 1335000    1.0540259   -6.9431848    443.55299  0.027687452  0.028265916            6 
 1336000    1.0483335   -6.9551973    445.20672   0.02776988  0.028256307            3 
 1337000    1.0388044   -6.9839633    443.58372  0.027647951  0.028246712           11 
 1338000    1.0522703   -6.9468529    445.02971  0.027717346  0.028236963            5 
 1339000    1.0607771   -6.9099461    445.29351  0.027713064  0.028227355            7 
 1340000    1.0230416   -6.9741248    447.14761  0.027807687  0.028217803            2 
 1341000    1.0282592   -6.9226423    446.74632  0.027762014  0.028208305            4 
 1342000    1.0382098   -6.9407656    447.15964  0.027766992  0.028198796            6 
 1343000    1.0214144   -6.9431689    447.11332  0.027743442  0.028189267            5 
 1344000    1.0450906   -6.9206916    448.17421  0.027788579  0.028179855            8 
 1345000    1.0530567   -6.9278675      448.551  0.027791264  0.028170608            7 
 1346000    1.0387979   -6.9179322    448.88878  0.027791529  0.028161298            4 
 1347000    1.0569475   -6.9569478    448.36234  0.027738328  0.028152113            5 
 1348000    1.0368497   -6.9218969    449.37375  0.027780277  0.028143019            3 
 1349000    1.0419326   -6.9355046     449.2751  0.027753589  0.028133759            6 
 1350000    1.0576962   -6.9274637    449.19283  0.027727953  0.028124333            8 
 1351000    1.0326608   -6.9750712    449.07648  0.027700252  0.028114787            3 
 1352000    1.0322014   -6.9425231    448.68279  0.027655497  0.028105091            4 
 1353000    1.0188447   -6.9352625    450.01006  0.027716806  0.028095775            5 
 1354000    1.0608846    -6.940903    449.45077  0.027661913  0.028086499            5 
 1355000    1.0362417   -6.9534949    449.68274  0.027655765  0.028077069           16 
 1356000    1.0227164   -6.9689188    449.95936   0.02765237  0.028067692            4 
 1357000    1.0213746   -6.9461016    451.89785  0.027751035   0.02805829            4 
 1358000    1.0278995    -6.916544    449.98171  0.027613016  0.028049003            5 
 1359000    1.0270997   -6.9736252    449.60562  0.027569636  0.028039522            4 
 1360000     1.046176   -6.9786644     450.7193  0.027617604  0.028030131            4 
 1361000    1.0355448    -6.921704    450.91726  0.027609433  0.028020854            2 
 1362000    1.0501131   -6.9645039     451.6346  0.027633052  0.028011646            3 
 1363000    1.0283877   -6.9527123    451.95437  0.027632329  0.028002572            5 
 1364000    1.0338489   -6.9838045    452.62204  0.027652862  0.027993531            5 
 1365000    1.0437876    -6.952342    452.57536  0.027629753  0.027984329            6 
 1366000    1.0216823   -6.9526593    452.81577  0.027624193  0.027975187            2 
 1367000    1.0375768   -6.9645807    453.17703  0.027626008  0.027966066            6 
 1368000    1.0227338   -6.9710353    454.63264  0.027694483   0.02795688            9 
 1369000    1.0366427   -6.9529326    452.50313  0.027544627  0.027947719            3 
 1370000    1.0489383   -7.0148169    451.74459  0.027478381  0.027938387            5 
 1371000    1.0123576   -6.9922351    453.46263  0.027562766  0.027929187            4 
 1372000    1.0188124   -6.9177734     456.5558  0.027730552  0.027920183            1 
 1373000    1.0313287   -6.9652131    454.60211  0.027591776  0.027911128            3 
 1374000    1.0179069   -6.9323768    454.98279  0.027594783  0.027902212            6 
 1375000     1.056885   -6.9480717     454.6798  0.027556351  0.027893231            2 
 1376000    1.0444243    -6.939711    455.22614  0.027569412  0.027884134            5 
 1377000     1.014263   -6.9866304    454.07499  0.027479726  0.027874956            5 
 1378000    1.0533498   -6.9535295     456.5657  0.027610408  0.027865947            3 
 1379000    1.0109895   -6.9269512    457.11162  0.027623375  0.027856953            2 
 1380000    1.0252738   -6.9264687    457.70617  0.027639261  0.027848072            5 
 1381000    1.0424494   -6.9771789    455.51306  0.027486909  0.027839097            5 
 1382000    1.0117795   -6.9532789     456.6119  0.027533279  0.027830103            3 
 1383000     1.046948   -6.9358982    457.20618  0.027549179  0.027821191            3 
 1384000    1.0294375   -6.9416408    457.79773  0.027564892  0.027812235            4 
 1385000    1.0423035   -6.8922398     459.8086  0.027665981  0.027803509           11 
 1386000     1.042545   -6.9629387    457.20607  0.027489543  0.027794849            4 
 1387000    1.0486825   -6.9436068     456.2335  0.027411289  0.027785954            5 
 1388000    1.0402594   -7.0022203    457.44777  0.027464443   0.02777706            7 
 1389000    1.0137751   -6.9551143    458.76455  0.027523671  0.027768057            3 
 1390000    1.0116103   -6.9849829    458.48417  0.027487061  0.027759148            4 
 1391000    1.0262379   -6.9786048    458.40906    0.0274628  0.027750321            3 
 1392000    1.0226435   -6.9546151    459.07369   0.02748286  0.027741409            5 
 1393000     1.031702   -6.9553727     459.2335  0.027472691  0.027732441            6 
 1394000    1.0339312   -6.9546848    459.48536  0.027468039  0.027723658            4 
 1395000    1.0234021   -6.9186655    460.68239  0.027519856  0.027714879            5 
 1396000    1.0315949   -6.9395745    459.78641  0.027446658  0.027706069            6 
 1397000    1.0338218   -6.9212055    461.15006  0.027508355  0.027697269            4 
 1398000     1.012687   -6.9363297    459.80518  0.027408511  0.027688488            3 
 1399000    1.0532483   -6.9420347    459.82449   0.02739007  0.027679664            3 
 1400000    1.0323328    -6.938916    459.66356  0.027360926  0.027670947            4 
 1401000    1.0370532   -6.9329357    461.56328  0.027454395  0.027662265            9 
 1402000     1.031306   -6.9508713    461.82607  0.027450432  0.027653554           11 
 1403000    1.0303315   -6.9584357    461.17037   0.02739192  0.027644719            7 
 1404000    1.0296187   -6.9400532    460.77276  0.027348811  0.027635661            4 
 1405000    1.0526497   -6.9456138    462.48741  0.027431044  0.027626689            2 
 1406000    1.0158416   -6.9588558    460.55967  0.027297278   0.02761775            7 
 1407000    1.0117514   -6.9774178      460.175  0.027255093  0.027608719            4 
 1408000    1.0353301   -6.9645846    462.03981  0.027346106  0.027599803            4 
 1409000    1.0300896   -6.9381587    462.44359  0.027350579   0.02759087            4 
 1410000    1.0297671   -6.9695368     460.4829  0.027215301  0.027581925            2 
 1411000    1.0229747   -6.9438353    462.78441   0.02733194  0.027572966            5 
 1412000    1.0123347   -6.9365377    462.71701  0.027308605  0.027564014            4 
 1413000    1.0171339   -6.9629925    463.54178   0.02733792  0.027555186            2 
 1414000    1.0127593   -6.9507312    462.55732  0.027260568   0.02754638            6 
 1415000    1.0328773   -6.9717433    463.35494  0.027288277  0.027537557            7 
 1416000    1.0165775   -6.9871804    461.79855   0.02717741  0.027528672            2 
 1417000    1.0447242    -7.011481    462.23303  0.027183782  0.027519755            9 
 1418000    1.0252215   -6.9600282    464.91309  0.027322114   0.02751083            3 
 1419000    1.0196663   -6.9532899    464.67267   0.02728874  0.027501964            2 
 1420000    1.0232256   -6.9663333    463.75167  0.027215474  0.027493247            2 
 1421000    1.0253014   -7.0027811    462.82536  0.027141999  0.027484372            5 
 1422000    1.0534047   -6.9774925    463.59461  0.027167992  0.027475468            2 
 1423000    1.0289312   -6.9666201    464.56646  0.027205813  0.027466706            3 
 1424000    1.0414911    -6.970093    465.86381  0.027262629  0.027457863            3 
 1425000    1.0352854   -6.9829113    465.28143   0.02720944  0.027448997            4 
 1426000    1.0160672   -6.9658496    464.67976  0.027155199  0.027440227            5 
 1427000    1.0252476   -6.9725103    465.22947  0.027168271  0.027431477            5 
 1428000    1.0225613   -6.9481855    467.01235  0.027253288   0.02742287            3 
 1429000    1.0189046   -7.0236275    464.95674  0.027114342  0.027414108            4 
 1430000    1.0167922   -6.9548851    465.49739  0.027126887  0.027405661            7 
 1431000    1.0274466    -7.008001    467.00859  0.027195934  0.027396986            2 
 1432000    1.0084775   -6.9727712    468.06125  0.027238201  0.027388366            3 
 1433000    1.0004942   -6.9713516    467.57226  0.027190757  0.027379643            9 
 1434000    1.0125501   -7.0179281    466.15855  0.027089641  0.027370876            4 
 1435000    1.0294946   -6.9414503    466.58915  0.027095769     0.027362            7 
 1436000    1.0171178   -6.9747297    468.24524  0.027173006  0.027353152            4 
 1437000    1.0123416   -6.9919205    467.06378  0.027085582  0.027344309            6 
 1438000    1.0185226    -6.993976    467.00479  0.027063328  0.027335416            5 
 1439000    1.0228506   -6.9834789    467.58693  0.027078233  0.027326522            3 
 1440000    1.0270668   -7.0013289    467.16214  0.027034846  0.027317854            4 
 1441000    1.0414601   -6.9988409    468.21194  0.027076795  0.027309196            6 
 1442000    1.0174229   -6.9741464    467.36643  0.027009155  0.027300387            3 
 1443000    1.0244755   -6.9736674     468.4217   0.02705138  0.027291617            3 
 1444000    1.0056713    -7.005454    468.47098   0.02703549  0.027282894            6 
 1445000    1.0115513   -6.9524058     469.2303  0.027060571  0.027274156            3 
 1446000    1.0089671   -6.9719248    468.02248   0.02697225   0.02726546            5 
 1447000    1.0167452   -7.0000739    467.69963  0.026935017   0.02725677            8 
 1448000    1.0247392   -6.9578697    469.91706   0.02704403  0.027248218            3 
 1449000    1.0347103   -7.0072106    469.44413  0.026998167  0.027239599            6 
 1450000    1.0107361   -6.9790903     469.7645   0.02699796  0.027230991            2 
 1451000   0.99585055    -6.987781    469.42697  0.026959968  0.027222181            4 
 1452000   0.99792956   -6.9601861    471.06723  0.027035539  0.027213361            4 
 1453000     1.028092    -6.983216    469.39769   0.02692118   0.02720444            2 
 1454000    1.0227899   -7.0279956    469.39466  0.026902491  0.027195654            2 
 1455000    1.0013306   -6.9809719    471.16227  0.026985239  0.027186853            6 
 1456000    1.0277205   -6.9570205    470.93634  0.026953774  0.027178018            4 
 1457000    1.0168718   -6.9754874    472.84465  0.027044421  0.027169384            3 
 1458000    1.0500287   -6.9826976    471.90366  0.026972089  0.027160685            7 
 1459000   0.98999688   -6.9548089    471.93733  0.026955525  0.027152021            8 
 1460000    1.0273659   -6.9682061     472.9426  0.026994441  0.027143353            3 
 1461000    1.0219969   -7.0211986    470.60387  0.026842566  0.027134616            6 
 1462000    1.0115494   -7.0108313    472.49457  0.026931975  0.027125765            2 
 1463000   0.99929287   -6.9690127     473.3581  0.026962753  0.027117138            2 
 1464000    1.0187938   -6.9991066    472.30751  0.026884535  0.027108575            5 
 1465000   0.99718176    -6.968888    474.46172  0.026988721  0.027099959            3 
 1466000    1.0142911   -6.9456882    472.75796  0.026873463  0.027091436            2 
 1467000    1.0301393   -7.0348349    472.92237  0.026864484  0.027082884            3 
 1468000    1.0253856   -7.0104257    474.10773  0.026913472  0.027074371            3 
 1469000     1.018106   -6.9865243    475.13781  0.026953586  0.027065992            4 
 1470000    1.0262795   -6.9493697    475.48138  0.026954727  0.027057672            4 
 1471000    1.0332855    -7.036213    475.01416  0.026909934  0.027049262            4 
 1472000    1.0093642    -7.000785     474.7997  0.026879512  0.027040917            5 
 1473000    1.0282389   -6.9831022    474.96732  0.026870747  0.027032327            7 
 1474000    1.0122756   -7.0109427    473.19012  0.026752042  0.027023748            6 
 1475000    1.0207997   -7.0279726    472.63784  0.026702703  0.027014979            4 
 1476000    1.0302489   -7.0088274    474.32366  0.026779791  0.027006249            2 
 1477000    1.0209315   -7.0277156    474.35458  0.026763405  0.026997465            3 
 1478000    1.0316672   -7.0381766    474.70289  0.026764935   0.02698871            4 
 1479000    1.0092054   -7.0251148     473.4207  0.026674595  0.026980058            5 
 1480000    1.0042162   -7.0437192    474.25703  0.026703661  0.026971287            2 
 1481000    1.0068632   -7.0143699    474.41719  0.026694643  0.026962502            6 
 1482000    1.0274975   -7.0083674    474.18549  0.026663602  0.026953794            2 
 1483000     1.012626   -6.9652207    477.54655  0.026834488   0.02694511            3 
 1484000   0.99744144   -7.0123857    475.41668  0.026696804  0.026936581            4 
 1485000    1.0181513   -6.9904254    476.77325  0.026754952  0.026928009            2 
 1486000     1.006014   -6.9642844    476.79406  0.026738115   0.02691935            4 
 1487000    1.0225164   -6.9859138    476.55923  0.026706973  0.026910789            7 
 1488000    1.0191462   -7.0226064    476.46377  0.026683679  0.026902276            5 
 1489000   0.99814007   -6.9973168    476.00184  0.026639906  0.026893735            3 
 1490000    1.0249829   -7.0366706    475.32069  0.026583931  0.026885129            5 
 1491000    1.0110472   -7.0230069    474.19345  0.026503099  0.026876196            8 
 1492000    1.0254136    -7.009064    476.33368  0.026604875  0.026867547            6 
 1493000     1.022778   -6.9799451    477.68904  0.026662706  0.026858938            5 
 1494000   0.99285454   -6.9966457    475.92244  0.026546321  0.026850247            6 
 1495000    1.0251487   -6.9972801    478.12377  0.026651269  0.026841516            1 
 1496000    1.0352103   -7.0425327    477.86068  0.026618799  0.026832936            6 
 1497000    1.0278964   -7.0027729    479.02846  0.026666025  0.026824226            1 
 1498000    1.0211832   -7.0262264    477.43472  0.026559564  0.026815547            2 
 1499000     1.010231   -7.0160345    478.31197  0.026590614  0.026806878            4 
 1500000   0.99589736   -7.0216529    478.71941  0.026595523  0.026798232            7 
 1501000    1.0043356    -7.017503    478.77191  0.026580719  0.026789561            5 
 1502000    1.0205731   -7.0001032     479.7612  0.026617909  0.026781042            3 
 1503000    1.0160078   -7.0425233    478.92005  0.026553562  0.026772526            6 
 1504000    1.0332231   -7.0151954    481.04775  0.026653798  0.026763739            2 
 1505000    1.0010879   -7.0224921     479.5306  0.026552082  0.026755232            4 
 1506000    1.0391462   -6.9335046    483.31856  0.026744055  0.026746827            6 
 1507000    1.0166221   -7.0004545    479.91246  0.026537959  0.026738408            5 
 1508000    1.0168401    -7.017764     479.9129  0.026520385  0.026729817            6 
 1509000    1.0255757   -7.0165835    480.19586  0.026518437  0.026721265            5 
 1510000    1.0288316   -7.0462874    479.01802  0.026435873  0.026712691            8 
 1511000   0.99678296   -7.0291539    480.50711  0.026500502  0.026703946            3 
 1512000   0.98774111   -6.9807305     481.5828  0.026542262  0.026695349            5 
 1513000   0.99121796   -6.9773969    482.19422  0.026558395   0.02668664            4 
 1514000    1.0320882   -7.0126527    480.73264  0.026460405  0.026678079            6 
 1515000    1.0123713   -7.0022818    480.95791   0.02645533  0.026669502            6 
 1516000    1.0066542   -7.0039462    482.41718  0.026518095  0.026661036            5 
 1517000    1.0279725   -7.0113796    482.46696  0.026503348  0.026652573            7 
 1518000    1.0053446   -6.9827893    482.61245  0.026493876   0.02664409            3 
 1519000   0.99566003   -7.0351923    481.56959  0.026419223  0.026635603            5 
 1520000    1.0467767   -6.9970404    483.38756  0.026501511  0.026627128            4 
 1521000   0.99167928   -7.0160639    482.96999  0.026461209  0.026618605            3 
 1522000    1.0190473   -7.0221662    482.46041  0.026415923  0.026610065            2 
 1523000    1.0262276   -7.0304754    482.73549  0.026413629  0.026601471            9 
 1524000    1.0188736   -7.0557794    481.63632  0.026336194  0.026592952            4 
 1525000    1.0209429    -7.047593    482.85285  0.026385402  0.026584316            3 
 1526000   0.99291386   -7.0273083    482.89661  0.026370501  0.026575706            5 
 1527000    1.0158343   -7.0369555    484.67769   0.02645043  0.026567022            6 
 1528000    0.9965202   -7.0324275    484.51241  0.026424106  0.026558415            5 
 1529000    1.0268179   -7.0230392    485.28857  0.026449126  0.026549918            5 
 1530000   0.98637542   -7.0600211     484.2573   0.02637567  0.026541492           13 
 1531000    1.0011159   -7.0446125    485.30323  0.026415373  0.026533148            6 
 1532000   0.99512661   -7.0327318    484.73452  0.026367195  0.026524698            3 
 1533000    1.0172608   -7.0290073    485.56016  0.026394877  0.026516257            4 
 1534000    1.0158193   -7.0150644    487.08576  0.026460548  0.026507769            3 
 1535000    1.0115417   -6.9893603    486.76536  0.026425915   0.02649943            8 
 1536000    1.0041818   -7.0198012     485.3573  0.026332319   0.02649105            2 
 1537000     1.007344   -6.9953393    484.80155  0.026285055  0.026482609            5 
 1538000   0.97213724   -7.0533759    484.17044  0.026233769  0.026474037            3 
 1539000   0.99994272   -7.0141149     486.2543  0.026329559  0.026465403            7 
 1540000   0.98878991   -7.0076079    486.63981  0.026333323  0.026457079            4 
 1541000   0.97691619   -7.0110314    486.29952  0.026297832  0.026448678            4 
 1542000    1.0163844   -7.0531724    485.74268  0.026250685  0.026440199           11 
 1543000    1.0039151   -7.0413422    486.21748  0.026259315  0.026431573            4 
 1544000    1.0201581   -7.0374508    487.23316  0.026297127  0.026423134            3 
 1545000    1.0001159   -6.9888277    488.71444  0.026360002  0.026414761            4 
 1546000    1.0123737   -7.0264283    487.29572  0.026266479  0.026406358            8 
 1547000    1.0048581   -7.0418132    486.52217  0.026207831  0.026397934            6 
 1548000    1.0031957   -7.0256537    487.94084  0.026267272  0.026389539            4 
 1549000    1.0058765   -7.0340409     486.0681  0.026149564  0.026381106            4 
 1550000   0.99175093   -7.0212391    488.83426  0.026281412  0.026372813            3 
 1551000     1.013006   -7.0268651    489.04032  0.026275539  0.026364459            3 
 1552000    1.0248314   -7.0582175    488.28013  0.026217791  0.026356075            3 
 1553000    1.0103072   -7.0659805    488.14949  0.026193899  0.026347624            2 
 1554000    1.0041293   -7.0567651    488.69544  0.026206319  0.026339233            2 
 1555000   0.98449519   -7.0039034    488.27707  0.026167045  0.026330894            3 
 1556000    1.0098476   -7.0181199     490.2254  0.026254574   0.02632264            4 
 1557000    1.0312306   -7.0809242    488.22341  0.026130561  0.026314311           13 
 1558000    1.0123161   -7.0368673    489.08304  0.026159769  0.026305951            5 
 1559000    1.0139591   -7.0229718    490.37985  0.026212308  0.026297701            3 
 1560000   0.99382454   -7.0033848    490.99388  0.026228306  0.026289416            5 
 1561000   0.99198071   -7.0461172    490.70637  0.026196155  0.026281152            3 
 1562000    1.0333524   -7.0877715    488.57184  0.026065506  0.026272915            7 
 1563000   0.99273239   -6.9970779    493.67872  0.026321109  0.026264617            2 
 1564000    1.0084209   -7.0505402    491.91354  0.026210227  0.026256532            8 
 1565000   0.98571654   -7.0269357    492.83723  0.026242664  0.026248371            5 
 1566000    1.0059093   -7.0769577    490.96238  0.026126137  0.026240157            5 
 1567000   0.99338863   -7.0932218    491.60494  0.026143636  0.026231909            6 
 1568000   0.99643202   -7.0322082    491.94443  0.026145006  0.026223822            2 
 1569000   0.98332811   -7.0280618    492.44496  0.026154926  0.026215727            4 
 1570000      1.00692   -7.0207061    493.40483  0.026189216  0.026207718            6 
 1571000    1.0182846   -7.0368254     493.1065  0.026156721  0.026199715            5 
 1572000    0.9862694   -7.0467675    492.53257  0.026109657  0.026191604            4 
 1573000    1.0144478   -7.0482536    493.30772  0.026134124  0.026183511            4 
 1574000    1.0067464   -7.0386843    494.35697  0.026173071  0.026175397            4 
 1575000    1.0093921   -7.0697223    494.30501  0.026153704  0.026167354            2 
 1576000   0.99805001   -7.0791597    493.28822  0.026083345  0.026159279            4 
 1577000    1.0109462   -7.0380038    493.01413  0.026052321  0.026151194            4 
 1578000    1.0171177   -7.0491226    494.66233  0.026122852  0.026143235            2 
 1579000     1.011346   -7.0704704    494.72001  0.026109352  0.026135179            5 
 1580000    1.0050396   -7.0401904    494.72563  0.026093124  0.026127052            3 
 1581000    1.0012023   -7.0681783    493.52924  0.026013559  0.026119006            5 
 1582000    0.9721443   -7.1127618    492.86365  0.025962055   0.02611085            7 
 1583000    1.0050434   -7.0582775      494.168  0.026014319   0.02610252            5 
 1584000    0.9841462   -7.0163269    496.07664  0.026098308  0.026094473            3 
 1585000   0.99493012   -7.0417861    497.53173  0.026158345  0.026086492            2 
 1586000    1.0087825   -7.0702775     493.2368  0.025916183  0.026078394            2 
 1587000   0.99330607   -7.0650944    494.03889   0.02594197  0.026070179            8 
 1588000   0.99763132   -7.0316848    495.19143  0.025986116  0.026061963            3 
 1589000   0.99203514   -7.0171559    495.44464  0.025983042  0.026053905            2 
 1590000    1.0063338    -7.024246    495.44586  0.025966764  0.026045963            2 
 1591000    1.0193732   -7.0054785     497.3943  0.026052499     0.026038            7 
 1592000   0.99599043   -7.0262359     496.3977  0.025983967  0.026030067            4 
 1593000    1.0024242   -7.0661816    495.66143  0.025929139  0.026021889            4 
 1594000   0.99590904   -7.0454026    496.24773  0.025943524  0.026013764            8 
 1595000    1.0244244   -7.0248867    497.82786  0.026009815  0.026005777           11 
 1596000   0.99309846   -7.0244757    497.64146  0.025983785  0.025997832           13 
 1597000   0.98697974   -7.0618316    496.26906  0.025895901  0.025989845            3 
 1598000   0.98826762    -7.030689    499.45117  0.026045639  0.025981956            4 
 1599000     1.011097   -7.0633101    497.57618  0.025931633  0.025974013            9 
 1600000   0.99705867   -7.0278088    498.83107  0.025980785  0.025966034            4 
 1601000   0.98746113   -7.0579871    500.37758  0.026045054  0.025958004            4 
 1602000   0.99141567   -7.0456091    499.41902  0.025978934  0.025949979            5 
 1603000   0.99799363     -7.05923    499.04755  0.025943416  0.025941928           11 
 1604000    1.0218097   -7.0398203    497.90004  0.025867625  0.025933801            3 
 1605000   0.96810975   -7.0803301    498.66473  0.025891211  0.025925736            6 
 1606000   0.99986706   -7.0775524     497.4453  0.025811815  0.025917609            6 
 1607000   0.99841774   -7.0311276    499.67698   0.02591148  0.025909468            5 
 1608000    1.0051601   -7.0376341    500.30682  0.025928007  0.025901495            6 
 1609000   0.99098181   -7.0419472    499.53392  0.025871862  0.025893504            5 
 1610000    0.9759792   -7.0519024    499.16347  0.025836619  0.025885387            6 
 1611000    0.9877275   -7.0687202    499.61405  0.025843888  0.025877466            2 
 1612000   0.97402979   -7.0435621     500.1842   0.02585733  0.025869521            3 
 1613000   0.98867581   -7.0379591    500.71162  0.025868548   0.02586166            8 
 1614000   0.99742349   -7.0397067    500.59028  0.025846256  0.025853818            7 
 1615000   0.98776648   -7.0517016    501.51121  0.025877771  0.025845915            4 
 1616000   0.98317642     -7.03365    502.57671  0.025916703  0.025838021            2 
 1617000    1.0166915   -7.0914691    500.86743  0.025812586  0.025830067            2 
 1618000   0.99518389   -7.0088189    503.08232  0.025910708  0.025822207            6 
 1619000   0.98866453    -7.056901    501.11278  0.025793328  0.025814469            6 
 1620000   0.98981419   -7.0324698    503.27297  0.025888527  0.025806796            7 
 1621000   0.99913143     -7.09847    501.14951  0.025763393  0.025798941            5 
 1622000    1.0004418   -7.0822205    500.80031  0.025729568  0.025790968            4 
 1623000   0.99089305   -7.0569654     501.3545   0.02574217  0.025783129            5 
 1624000    1.0170631   -7.0833456    501.60503  0.025739174  0.025775331           15 
 1625000   0.98866028    -7.049559    503.32933  0.025811761   0.02576761            9 
 1626000   0.99143549    -7.067807     503.3545  0.025797176  0.025759959            6 
 1627000    1.0124236   -7.0386983    505.17135  0.025874378  0.025752237            3 
 1628000   0.99729817   -7.0637447    504.35682  0.025816791  0.025744567            5 
 1629000   0.97327395   -7.0188457    505.97728  0.025883838  0.025736914            6 
 1630000   0.98709385   -7.0359063     505.4501  0.025841007   0.02572931           10 
 1631000   0.98706957   -7.0542591    505.97971  0.025852223   0.02572147            4 
 1632000    1.0002246   -7.0483133    506.74616  0.025875519  0.025713721            6 
 1633000    1.0062441   -7.0671651    503.21399  0.025679424  0.025705946            6 
 1634000   0.98193444   -7.0824558    504.61038  0.025734923  0.025698153           15 
 1635000   0.98596848   -7.0819186    504.60093  0.025718702  0.025690467            6 
 1636000   0.99195118   -7.0473269    505.39155  0.025743253  0.025682703            4 
 1637000   0.98539789   -7.0497231    505.78248  0.025747428   0.02567494            5 
 1638000   0.97376165   -7.0645003    506.53067  0.025769773  0.025667275            7 
 1639000   0.97093684   -7.0522402    505.73052  0.025713368  0.025659708            4 
 1640000   0.98659272   -7.0214167     509.3914  0.025883709  0.025652093            4 
 1641000   0.97631618   -7.0654989    505.75317  0.025683179  0.025644579            4 
 1642000   0.98929677   -7.0116793    508.16177  0.025789777  0.025637106            6 
 1643000   0.97996656   -7.0765416    506.31155  0.025680237  0.025629628           10 
 1644000   0.99780823   -7.0560181    508.28511  0.025764655  0.025622078            6 
 1645000   0.97109852   -7.0698119    506.92527  0.025680105  0.025614518            4 
 1646000   0.98664501   -7.0606849    506.30145  0.025632921  0.025606949            9 
 1647000   0.98023637   -7.0643445    506.30845  0.025617711  0.025599266            4 
 1648000   0.96028815   -7.0670737    506.16869    0.0255951  0.025591489            3 
 1649000   0.98787258   -7.0792312    506.97357  0.025620253  0.025583719            5 
 1650000    0.9887941   -7.0713406    506.98468  0.025605287  0.025575926            4 
 1651000   0.98998481   -7.0782941    507.17404  0.025599336  0.025568158            4 
 1652000    1.0150051   -7.1084755    507.09155  0.025579679  0.025560362            2 
 1653000   0.99248142   -7.0727264     508.5812  0.025639302  0.025552685            5 
 1654000    1.0068196    -7.055658    510.39837  0.025715355   0.02554512            3 
 1655000   0.97588807   -7.0926956    508.16155  0.025587188  0.025537498            4 
 1656000   0.99920155   -7.0848686    508.23097   0.02557523  0.025529756           10 
 1657000    1.0013529   -7.1315914    508.38433  0.025567508  0.025522041            6 
 1658000   0.96236403   -7.1003478    507.48606  0.025506939  0.025514163            5 
 1659000    1.0008944   -7.0798791    508.87664  0.025561414  0.025506273            9 
 1660000    0.9924411   -7.0695445    510.07727  0.025606289  0.025498455            7 
 1661000    1.0074027   -7.0815054    508.78484  0.025526031  0.025490699            2 
 1662000   0.98765753   -7.0915705    508.58503  0.025500653  0.025482944            6 
 1663000   0.97110337   -7.0676301    509.09835  0.025511042  0.025475185            3 
 1664000   0.98234582   -7.0645327    510.62352  0.025572092  0.025467525            3 
 1665000   0.98792031   -7.0447869    511.00509  0.025575831  0.025459936            3 
 1666000   0.97290363   -7.0676788     512.1025  0.025615371  0.025452359            3 
 1667000   0.99364427   -7.0557796    511.44106   0.02556694  0.025444688            4 
 1668000   0.98408393   -7.1019771    510.30962  0.025495085  0.025436988            4 
 1669000    0.9743712   -7.1275276    509.67526  0.025448136  0.025429236            5 
 1670000   0.98877863   -7.0599401     510.3267  0.025465404  0.025421483            3 
 1671000   0.99898187    -7.072053    510.67667  0.025467618  0.025413711            4 
 1672000   0.97477755    -7.072041    510.34024  0.025435618  0.025406027           10 
 1673000    0.9584472   -7.0697183    509.95271  0.025401111  0.025398144            4 
 1674000    0.9868574   -7.0360053    511.57047  0.025466471  0.025390404           10 
 1675000   0.97572099   -7.0675446    510.15232  0.025380712  0.025382613            5 
 1676000   0.99088382   -7.0658492    510.37506  0.025376644  0.025374871            3 
 1677000   0.98685852   -7.1330042    509.31611   0.02530889   0.02536712            6 
 1678000   0.99757603   -7.1200762    510.29206  0.025342276  0.025359265            4 
 1679000   0.98562061   -7.0903473    511.79518  0.025401786  0.025351453           15 
 1680000   0.98761113   -7.1309549    510.03716  0.025299462  0.025343442            4 
 1681000   0.98960256   -7.1089341    510.64326  0.025314458  0.025335491            4 
 1682000   0.97603147   -7.0840026    512.15607   0.02537436   0.02532763            2 
 1683000   0.99179896   -7.1161123     509.5301  0.025229258  0.025319706            5 
 1684000    1.0024396   -7.1457504    511.14885  0.025294381  0.025311761            4 
 1685000   0.98234151   -7.1511134    510.47712  0.025246148  0.025303879            6 
 1686000   0.96924423   -7.0583281     512.4359   0.02532799  0.025296023            8 
 1687000   0.97541532   -7.0954929    512.87518  0.025334676  0.025288219            4 
 1688000    1.0135245   -7.0598148    514.19057  0.025384606  0.025280417            6 
 1689000   0.95844749    -7.098254    513.13277  0.025317386   0.02527259            8 
 1690000   0.97830586   -7.1140288     512.8832  0.025290099  0.025264788            7 
 1691000   0.99145257   -7.0899807    514.39942  0.025349863  0.025257005            5 
 1692000   0.97642198   -7.0508807    513.62834  0.025296904  0.025249128            7 
 1693000   0.97086083   -7.1006536    513.13901  0.025257876  0.025241249            7 
 1694000   0.99707346   -7.1128726    512.38855  0.025206048  0.025233338            5 
 1695000   0.98121577   -7.0822108    514.11107  0.025275864  0.025225567            3 
 1696000    0.9884185   -7.0864965    513.95631  0.025253357  0.025217872            6 
 1697000    0.9740699   -7.1042762    513.46852  0.025214522  0.025209984            6 
 1698000   0.97953371   -7.0881396    513.99352  0.025225438  0.025202095            4 
 1699000   0.99039553   -7.1276401    513.59782  0.025191182  0.025194276            5 
 1700000   0.97625814   -7.0760645      515.028  0.025246471  0.025186551            7 
 1701000   0.97852549   -7.0994169    514.61984  0.025211633  0.025178861            5 
 1702000   0.97921713   -7.1106117    514.70827  0.025201149  0.025171182            2 
 1703000   0.97717942   -7.0684047    516.70472  0.025284044  0.025163522            6 
 1704000   0.97282549   -7.1414009    513.95371  0.025134669  0.025155711            3 
 1705000   0.98370763   -7.1062032    515.58184  0.025199504  0.025147981            8 
 1706000    1.0008248   -7.1094299     515.1411  0.025163204  0.025140224            6 
 1707000    0.9617451   -7.1095154    516.71655  0.025225373  0.025132407            6 
 1708000   0.96546944   -7.1233558      516.299  0.025190232   0.02512466            5 
 1709000   0.98848048   -7.0871511    517.37453  0.025227937  0.025116905           14 
 1710000   0.97087946   -7.1053369    514.91719   0.02509343  0.025109098            4 
 1711000   0.99218417   -7.1201075    516.94208  0.025177385  0.025101347            5 
 1712000    0.9732893   -7.0629312    517.58191  0.025193824  0.025093652            3 
 1713000   0.97683177   -7.0995913    516.73874  0.025138098  0.025085963            4 
 1714000   0.96470593   -7.0670639    518.70852  0.025219201  0.025078214            5 
 1715000   0.98920296    -7.128618    516.44253  0.025094389  0.025070437            6 
 1716000   0.99867183   -7.0852006     516.8786  0.025100942  0.025062713            7 
 1717000   0.98036545   -7.1028202     517.5615  0.025119467  0.025055076            6 
 1718000   0.98254763   -7.0933146    517.14264  0.025084529  0.025047297            6 
 1719000   0.96462952   -7.0864247    517.41342  0.025083063   0.02503961            5 
 1720000    0.9629284   -7.0916607    517.12468   0.02505449  0.025031861            3 
 1721000   0.96919969   -7.1082909    517.59223  0.025062572  0.025024112            9 
 1722000   0.97833299    -7.123872    516.77819  0.025008623  0.025016313            7 
 1723000   0.99339377   -7.1290189    516.21426  0.024966834  0.025008361            6 
 1724000   0.97327134   -7.1087251    518.22142  0.025049373  0.025000421            5 
 1725000   0.98355659   -7.0639313    518.61267  0.025053752  0.024992651            2 
 1726000   0.98335109   -7.0581789    519.22394   0.02506875  0.024984904            4 
 1727000   0.99531991   -7.1131012    516.52945  0.024924216  0.024977105            3 
 1728000   0.96521803   -7.1219061    518.66469  0.025012765  0.024969223            7 
 1729000   0.97667972    -7.128172    517.78605   0.02495595  0.024961213            6 
 1730000   0.97234915   -7.1443538    517.01191  0.024904234    0.0249532            5 
 1731000   0.98581113   -7.1330488    518.05491  0.024940059  0.024945252           10 
 1732000    0.9777325     -7.10767    517.78586  0.024912714  0.024937346           10 
 1733000    1.0001367   -7.1406483    519.06163  0.024959686  0.024929479            3 
 1734000   0.97699237   -7.0983112    518.14474  0.024901227    0.0249215            6 
 1735000   0.98601633   -7.1062198    519.54867  0.024954307  0.024913529            5 
 1736000   0.95979946   -7.1037594     519.9915  0.024961189  0.024905675            5 
 1737000   0.99069166   -7.0830242    520.03761  0.024949031    0.0248978            3 
 1738000    0.9630584   -7.1429709    520.14387  0.024939771  0.024889971            4 
 1739000    0.9652016   -7.1528348    518.26038  0.024835173  0.024882017           15 
 1740000   0.98207811   -7.1461979    518.98816  0.024855755  0.024874063            6 
 1741000   0.97977299   -7.1224894    519.51215  0.024866559  0.024866132            3 
 1742000   0.97397873   -7.1338716    519.34079  0.024844087  0.024858209            9 
 1743000   0.96941376   -7.1432013    518.87664  0.024807642  0.024850403            3 
 1744000   0.97664061   -7.1347824    519.66696  0.024831181  0.024842458           12 
 1745000   0.96471321   -7.1453888    519.97143  0.024831491  0.024834497            3 
 1746000   0.96188794   -7.1252252    519.54024   0.02479669  0.024826527           10 
 1747000   0.98861111    -7.136588    520.91358  0.024848005  0.024818661            5 
 1748000   0.96351713   -7.1251957    520.41513  0.024810027  0.024810679            2 
 1749000   0.96017147   -7.1425376     520.2535  0.024788141   0.02480267            3 
 1750000   0.96059986   -7.1213173     519.8554  0.024755019  0.024794692            7 
 1751000   0.95935863   -7.1108184    520.23215  0.024758812  0.024786673            4 
 1752000   0.98671775   -7.1011658    522.04805  0.024831052  0.024778756            4 
 1753000   0.96216679   -7.0466016    522.89836  0.024857309  0.024770975            3 
 1754000   0.97532526   -7.1218091    521.04918  0.024755282  0.024763122            9 
 1755000   0.99180367   -7.1214854    521.12647  0.024744847  0.024755196            6 
 1756000   0.95691472   -7.1395924    522.80747  0.024810529   0.02474726            3 
 1757000   0.95052654   -7.1358946    521.50135   0.02473446  0.024739341            2 
 1758000   0.96900321   -7.1335008    521.07843  0.024700343  0.024731367            5 
 1759000   0.97794354   -7.1290473    522.85194  0.024770321  0.024723439            6 
 1760000   0.95921345   -7.1437326    522.12268  0.024721718  0.024715436            5 
 1761000   0.98659658   -7.1030355    522.61817  0.024731127  0.024707513            3 
 1762000   0.97712088    -7.097156    523.13769  0.024741662  0.024699639            4 
 1763000   0.96563086   -7.1264235     522.7314  0.024708423  0.024691724            7 
 1764000    0.9757047   -7.1297976    522.07194  0.024663263   0.02468379            3 
 1765000   0.96714684    -7.120092    522.33226   0.02466158  0.024675921            4 
 1766000   0.98054427   -7.1371272    522.52369  0.024656648   0.02466796            5 
 1767000   0.96413345   -7.1271163    524.54428  0.024737987  0.024659986            1 
 1768000   0.94979831   -7.1806635    522.78638  0.024641138  0.024652031            4 
 1769000   0.97497529   -7.1920124      522.926  0.024633786   0.02464411            5 
 1770000   0.96920108   -7.1122274    524.39329   0.02468895  0.024636188            8 
 1771000   0.95648308   -7.1029435    524.94253  0.024700853  0.024628361            2 
 1772000   0.96856331   -7.0968947    526.05189  0.024739084  0.024620596            2 
 1773000   0.97202514   -7.1436722    524.26528  0.024641158  0.024612786            3 
 1774000   0.97441486   -7.1244289    522.68074  0.024552834  0.024604883            3 
 1775000   0.95738742   -7.1251313    524.91437  0.024643867  0.024596998            6 
 1776000   0.97054064   -7.1158937    526.58063  0.024708175  0.024589136            7 
 1777000   0.94960038   -7.1477892    524.28566  0.024586647   0.02458128            4 
 1778000   0.96700515   -7.1438443    525.23634  0.024617376  0.024573344            9 
 1779000   0.96007938    -7.111232    525.69269  0.024624915  0.024565404            8 
 1780000   0.99451362   -7.1062028    524.71162  0.024565151  0.024557602            4 
 1781000   0.96467251   -7.1446322     525.1233   0.02457062  0.024549753            4 
 1782000   0.94272727   -7.1045648    524.87284   0.02454512  0.024541981            3 
 1783000   0.98736971    -7.156092    524.31748  0.024505397  0.024534168            4 
 1784000   0.95342431   -7.1458607    524.33843  0.024492639  0.024526262            4 
 1785000   0.96502759   -7.1474692    525.02894  0.024511155  0.024518364            6 
 1786000   0.97678335   -7.1465113    525.47879  0.024518421  0.024510558            6 
 1787000   0.98006111   -7.1445116     525.8639  0.024522659  0.024502693           21 
 1788000   0.94735848   -7.1133816    527.20722  0.024571552   0.02449487            6 
 1789000   0.95570473   -7.1672072    524.52919  0.024433072   0.02448706            3 
 1790000   0.96310069   -7.1415664    526.62963  0.024517208  0.024479169            9 
 1791000   0.96352399   -7.1084369    527.50434  0.024544218  0.024471356            4 
 1792000   0.95468773   -7.1124813    527.40319  0.024525818  0.024463492            5 
 1793000   0.95827016   -7.1665878    525.65006  0.024430659   0.02445568            7 
 1794000   0.96357415   -7.1430105    527.62411  0.024508738  0.024447897            5 
 1795000   0.96412203    -7.144042    528.06802  0.024515693  0.024440036            4 
 1796000   0.97193869   -7.0881555    527.94485  0.024496327  0.024432175            4 
 1797000   0.98089963   -7.1152371     526.7143  0.024425631  0.024424351            5 
 1798000   0.96306208   -7.1003003    528.34107  0.024487443  0.024416502            4 
 1799000   0.96639729   -7.1384295    526.91574  0.024407807  0.024408662            4 
 1800000   0.96613092   -7.1325136    525.85384  0.024345085  0.024400777            6 
 1801000   0.95355132   -7.1274528     528.0613  0.024433708  0.024392833            5 
 1802000   0.96110707   -7.0979978    526.55212  0.024350357  0.024384914            5 
 1803000   0.95828689   -7.1460742    526.11853  0.024316811  0.024376937            7 
 1804000   0.95984559   -7.1354426    526.63643  0.024327256  0.024368956            3 
 1805000   0.95716776   -7.1617275    528.46675   0.02439828   0.02436099            8 
 1806000   0.94364612    -7.092817    528.48914  0.024385804  0.024353198            4 
 1807000   0.97411609   -7.1740673    526.43694  0.024277668  0.024345263            5 
 1808000   0.94732408   -7.1693376    526.69051  0.024275927  0.024337141            5 
 1809000   0.97712365   -7.1362429    527.53858  0.024301575  0.024329094            8 
 1810000    0.9979973   -7.1356263    528.73865    0.0243434  0.024321168           11 
 1811000   0.95226607   -7.1738093    527.87599  0.024290263  0.024313125            4 
 1812000   0.97588722   -7.1444734    529.23061  0.024339156  0.024305212            2 
 1813000    0.9513077   -7.1160691     529.7389  0.024349094  0.024297301            3 
 1814000   0.94666906   -7.1311153    530.50769  0.024370989  0.024289463            5 
 1815000   0.95161154   -7.1322738    529.76952   0.02432367  0.024281535            9 
 1816000   0.96661975   -7.1547536    529.16362  0.024282471  0.024273652            4 
 1817000   0.93914357   -7.1200049    530.34501   0.02432329  0.024265761            5 
 1818000   0.96031464   -7.1427004    530.06999  0.024297304   0.02425789            5 
 1819000   0.97077877   -7.1515833    529.35575  0.024251225   0.02425009            7 
 1820000   0.95978713   -7.1658798     530.0031  0.024267541  0.024242245            4 
 1821000     0.963601   -7.1576451    530.57225   0.02428026  0.024234395            9 
 1822000   0.96522318   -7.1578242    531.29781  0.024300119   0.02422655            4 
 1823000   0.97798271   -7.0963271    531.80055  0.024309771   0.02421879            2 
 1824000   0.95553959   -7.1605082    529.01146  0.024169018  0.024210945            9 
 1825000   0.93528562   -7.1365283    531.62423  0.024275079  0.024203053            7 
 1826000    0.9794273   -7.1303909    531.80064  0.024269836   0.02419526            7 
 1827000    0.9509682   -7.1736962    530.50749  0.024197568  0.024187438            5 
 1828000   0.95012533   -7.1545072    532.29764  0.024265939  0.024179601            3 
 1829000   0.95304328   -7.1731166    531.59416   0.02422062  0.024171779            4 
 1830000   0.96753823   -7.2017682    530.38595  0.024152366  0.024163911           10 
 1831000   0.95903579   -7.1704163    531.85938  0.024206234  0.024156108            4 
 1832000   0.96141515    -7.157778    531.52912  0.024177998  0.024148381           18 
 1833000   0.95722391   -7.2025202    531.25177  0.024152199  0.024140613            4 
 1834000   0.98070382   -7.1742533    530.70036  0.024113975  0.024132741           15 
 1835000   0.96745701     -7.16987    531.60654  0.024141986   0.02412491            3 
 1836000    0.9564096   -7.1774451    531.98361  0.024145952  0.024116999            4 
 1837000   0.95717293   -7.1462575    533.04797  0.024181091  0.024109142            6 
 1838000   0.96740854   -7.1876832    531.64454  0.024104304  0.024101277            3 
 1839000   0.95681404   -7.1610886    532.50168  0.024130038  0.024093377            5 
 1840000   0.97539742   -7.1726521    532.65542  0.024123887  0.024085499            4 
 1841000   0.95599097   -7.2081193     530.7445  0.024024285  0.024077548            7 
 1842000    0.9696935   -7.1928683    531.66787  0.024053016  0.024069646            7 
 1843000   0.94254745   -7.1166486     534.4219  0.024164492  0.024061826            7 
 1844000   0.95628436    -7.106356    533.01484    0.0240878  0.024054069            6 
 1845000   0.94678735   -7.1125214    535.99178  0.024209204  0.024046313            4 
 1846000   0.95837989   -7.1442603     532.3173  0.024030214  0.024038519            4 
 1847000   0.96721559   -7.1618547    533.61996  0.024075977  0.024030694            5 
 1848000   0.93617863    -7.156462    533.58185  0.024061231  0.024022844            6 
 1849000   0.93879044   -7.1627036    535.47102  0.024133361  0.024014967            8 
 1850000   0.95245915    -7.160265    532.61034  0.023991457  0.024007015            9 
 1851000   0.96323017   -7.1558418    533.44234  0.024015953  0.023999236            5 
 1852000   0.94956885   -7.1646325    533.95422  0.024026018  0.023991349            5 
 1853000   0.94649504   -7.1620582    533.50152  0.023992693  0.023983568            2 
 1854000   0.96384164    -7.166695    533.82893  0.023994468  0.023975708            3 
 1855000   0.93457058   -7.1537151    534.54068  0.024013508  0.023967886            3 
 1856000    0.9417246   -7.1348211    535.86284  0.024059933   0.02396007            4 
 1857000    0.9585318   -7.1444507    535.25299   0.02401961  0.023952324            4 
 1858000   0.94863054   -7.1684424    534.71518  0.023982561  0.023944542            5 
 1859000   0.94094112   -7.1575804    536.14507  0.024033758  0.023936727            3 
 1860000   0.95182735   -7.1341205    535.95796  0.024012453  0.023928961            5 
 1861000   0.95262884   -7.1566805    536.65354  0.024030698  0.023921283            9 
 1862000   0.94986134   -7.1640685    535.12385  0.023949331  0.023913575            4 
 1863000   0.95293274    -7.181235    535.28544  0.023943704  0.023905833            4 
 1864000   0.96037699   -7.1492962    536.61879  0.023990468  0.023898118            4 
 1865000   0.96240461   -7.1918123     537.0025   0.02399475  0.023890397            5 
 1866000   0.96840117   -7.1800707    536.03715  0.023938779  0.023882719            6 
 1867000    0.9311719   -7.1991752    535.34159  0.023894911  0.023874996            4 
 1868000   0.95898969   -7.2137263    535.08939  0.023870869  0.023867148            9 
 1869000   0.95703071   -7.2331449    535.29904  0.023867444  0.023859283            9 
 1870000   0.95456648   -7.2035156    536.83111  0.023922955  0.023851326            3 
 1871000   0.92941939   -7.1925524    534.47685  0.023805311  0.023843345            4 
 1872000   0.95608161   -7.2005724    535.74356  0.023848983  0.023835408            6 
 1873000   0.94759903   -7.1919943    535.18011  0.023811181  0.023827545            4 
 1874000   0.94088155   -7.1698217    537.09092  0.023883445  0.023819713            7 
 1875000   0.95460627   -7.2013296    536.75278  0.023855679  0.023812015            4 
 1876000   0.94863627   -7.1523712    537.82886  0.023890763  0.023804296            8 
 1877000   0.94459873   -7.1830295    537.75484  0.023874749  0.023796589           10 
 1878000   0.94923016    -7.179898    537.85124  0.023866314  0.023788824            4 
 1879000   0.94768488   -7.1690089    538.43345  0.023879433  0.023781226            5 
 1880000   0.93283369    -7.161192    538.33452  0.023862346  0.023773488            8 
 1881000   0.94189393   -7.1889923    536.63854  0.023774523  0.023765771            9 
 1882000   0.96915329   -7.1547222    539.27131  0.023878468  0.023758168           13 
 1883000   0.93764838   -7.1583006    538.34294  0.023824701  0.023750556            5 
 1884000   0.97041373   -7.2301837    537.54772  0.023776881  0.023742767            3 
 1885000   0.95574231    -7.181079    538.79827  0.023819552   0.02373501            4 
 1886000   0.96128534   -7.1792055    538.80727   0.02380732  0.023727328           10 
 1887000   0.95965909   -7.1799123     539.5932  0.023829412  0.023719655            6 
 1888000   0.93623531   -7.1527887    538.60173  0.023773028  0.023712048            5 
 1889000   0.96247432   -7.1617171    539.87236  0.023816497  0.023704327            2 
 1890000   0.94968778   -7.2205645    538.06627  0.023724263  0.023696527            4 
 1891000   0.95334124   -7.1787772    539.21992  0.023762556  0.023688661            6 
 1892000   0.96253773   -7.1590189    540.87805  0.023823029  0.023680847            4 
 1893000   0.95148126   -7.1743384    541.18687  0.023824039   0.02367315            3 
 1894000   0.96206542   -7.1793001     538.9131  0.023711417  0.023665463            4 
 1895000   0.95300975   -7.1594517     539.4003   0.02372033  0.023657781            6 
 1896000   0.96310494   -7.1106492    541.96913  0.023820725  0.023650113            4 
 1897000    0.9758338   -7.1422854    541.02574  0.023766726  0.023642506            4 
 1898000   0.93916063   -7.1774552    540.73509  0.023741442  0.023634887            3 
 1899000   0.95631412   -7.1776792    540.24006  0.023707217  0.023627283            6 
 1900000   0.96679987   -7.1976876    540.92717  0.023724876  0.023619576            5 
 1901000     0.953638   -7.1624208    540.96985  0.023714267  0.023611903            2 
 1902000    0.9534148   -7.2024653    541.68617  0.023733183  0.023604237            3 
 1903000   0.95483925   -7.1750035    541.12758  0.023696251  0.023596615            3 
 1904000   0.95933461   -7.1714238    541.01165  0.023678731  0.023588938            9 
 1905000   0.92334524   -7.1896523    541.65248  0.023694334  0.023581242            3 
 1906000   0.93544549   -7.1693936    539.56862  0.023590793  0.023573616            4 
 1907000   0.92641118   -7.1506388    542.25835   0.02369596  0.023565994            7 
 1908000   0.95308831   -7.2123737    541.19528   0.02363711  0.023558345            4 
 1909000   0.95232228   -7.1859088     541.5779  0.023641431  0.023550654            4 
 1910000   0.93688568   -7.1558777    543.00963   0.02369152  0.023543053            7 
 1911000   0.92354862   -7.1887726    542.33375  0.023649649  0.023535411            7 
 1912000   0.94405453   -7.2042105    542.78229  0.023656829  0.023527719           11 
 1913000   0.93464309   -7.1737272    542.82814   0.02364646  0.023520066            3 
 1914000   0.93697923   -7.2310025    541.44407  0.023573845   0.02351244            6 
 1915000   0.93888152   -7.2292993    542.67884  0.023615267  0.023504781            6 
 1916000   0.95102994    -7.193371    542.12007  0.023578639  0.023497097            4 
 1917000   0.94330118   -7.1980064    543.25924   0.02361586  0.023489404            8 
 1918000    0.9405807   -7.1548157    544.45121  0.023655336  0.023481854            2 
 1919000   0.95176381   -7.1873765    543.38936  0.023596898  0.023474244            8 
 1920000   0.96016514   -7.1990288    540.97742  0.023479923  0.023466584            8 
 1921000   0.93435758   -7.2377904    541.46786  0.023488975  0.023458955            5 
 1922000   0.95388391   -7.1988204    544.59797  0.023612468  0.023451375           10 
 1923000   0.93722647   -7.1842917    544.38281  0.023590865  0.023443869            6 
 1924000   0.94309223   -7.1947842    544.46616  0.023582214  0.023436355            7 
 1925000   0.92672311    -7.200893    545.37615  0.023609357  0.023428713            3 
 1926000    0.9231759   -7.1720307    545.16721  0.023588059  0.023421109            5 
 1927000   0.93591468   -7.2267776    544.78889  0.023559457  0.023413656            7 
 1928000   0.93734875   -7.2217662    543.16144  0.023476895  0.023406044            6 
 1929000   0.93719025   -7.1964761    543.42061  0.023475921  0.023398459            4 
 1930000   0.94047658   -7.2113454    544.91746  0.023528388  0.023390918            5 
 1931000   0.95745778    -7.237517    542.92664  0.023430288  0.023383302           10 
 1932000   0.94699501    -7.164172    545.70736  0.023538102  0.023375768            7 
 1933000   0.94949453   -7.1886696     544.7164  0.023483204  0.023368221            9 
 1934000   0.93914883   -7.2423983    544.48431  0.023461061  0.023360608            4 
 1935000   0.94423572   -7.1948924    545.12651  0.023476594  0.023353083            5 
 1936000   0.97114935   -7.1667576    545.94756  0.023499809  0.023345583            4 
 1937000   0.94305479   -7.1934589    545.99025  0.023489513  0.023337982            3 
 1938000   0.95623276   -7.1869828    546.72113   0.02350882  0.023330451            7 
 1939000   0.93453069   -7.2445303    543.84554  0.023373111  0.023322854            7 
 1940000   0.94550335   -7.2249376    545.56661  0.023434992  0.023315239           10 
 1941000   0.94186957   -7.2167544    545.67343  0.023427504  0.023307613            6 
 1942000   0.94541948   -7.2107488    546.30698  0.023442627  0.023300054            5 
 1943000   0.92391271   -7.1893819    547.03582  0.023461821  0.023292499            6 
 1944000   0.94611316   -7.1883148    545.96961  0.023404047  0.023284972            3 
 1945000   0.94929091   -7.1895842    546.55441   0.02341707  0.023277474            7 
 1946000   0.95062999   -7.2043562     546.9929  0.023423814  0.023269984            6 
 1947000   0.93780614   -7.2096182    547.47501  0.023432418  0.023262442            7 
 1948000   0.93509907   -7.2142367     546.4161   0.02337509  0.023254877           13 
 1949000   0.95315006   -7.2447777    545.34116  0.023317135  0.023247319            2 
 1950000   0.93369545   -7.2527677    545.98092  0.023332518  0.023239698            8 
 1951000   0.95206378   -7.2157599     545.5793  0.023303404  0.023232101            3 
 1952000   0.91950359   -7.2257938    545.76572  0.023299425  0.023224485            7 
 1953000   0.94399838   -7.2277641    545.05374  0.023257115  0.023216799            4 
 1954000   0.94728338   -7.2234829    547.44633   0.02334725  0.023209166           13 
 1955000    0.9174962   -7.2184653    546.06374  0.023276374  0.023201553            6 
 1956000   0.94031619   -7.2450532     544.8951  0.023214686  0.023193838            6 
 1957000   0.94225124   -7.2222365    545.51359   0.02322916   0.02318616            7 
 1958000   0.93105006   -7.2289085    546.50797  0.023259617  0.023178371            7 
 1959000   0.92584531   -7.2170655    546.67653  0.023254914  0.023170702            5 
 1960000   0.92654201   -7.1930945    548.68868    0.0233286  0.023163036            7 
 1961000   0.92664574   -7.2290003    546.11379  0.023207283  0.023155416            2 
 1962000   0.94389992   -7.2240409    547.01684  0.023233811  0.023147698           12 
 1963000   0.93275777   -7.2418885    547.10301  0.023225633  0.023140037            5 
 1964000   0.94892397   -7.2088869    547.26998  0.023220892   0.02313233           11 
 1965000   0.93764509   -7.2123366    547.73797  0.023228922  0.023124653            4 
 1966000    0.9520751   -7.2225969    547.69763  0.023215396  0.023116979            6 
 1967000    0.9553831   -7.2114825    547.58838  0.023198966  0.023109389            5 
 1968000   0.93747179   -7.2392699    546.40387   0.02313702  0.023101657            4 
 1969000   0.94336579   -7.2296796    548.30363  0.023205673  0.023093975            6 
 1970000   0.94836777   -7.2464028    547.10169  0.023143049  0.023086355            7 
 1971000   0.93486041   -7.2656955    546.22583  0.023094276  0.023078677            4 
 1972000   0.95413333   -7.2517783    546.74908  0.023104677  0.023071011            5 
 1973000   0.93500961   -7.2655877     547.4939  0.023124425  0.023063377            4 
 1974000   0.92609861     -7.25612    547.42423   0.02310977  0.023055767            5 
 1975000   0.94257155   -7.2307761    548.17704  0.023129833   0.02304819            5 
 1976000   0.93038427    -7.243559    548.60934  0.023136359  0.023040608           10 
 1977000   0.92523864    -7.247633    547.50594  0.023078146  0.023032935            6 
 1978000   0.92729615   -7.2386548    548.76778   0.02311964  0.023025326            3 
 1979000   0.93033895   -7.2248542    549.33361  0.023131784  0.023017787            8 
 1980000   0.93123114    -7.217869    550.30681  0.023161061  0.023010203           13 
 1981000   0.94669531   -7.2355592     549.6912  0.023123473   0.02300257            9 
 1982000   0.92712028   -7.2343654    549.00952  0.023083145   0.02299499            6 
 1983000   0.93866383   -7.2465252    549.71522  0.023101161  0.022987394            8 
 1984000   0.91986849   -7.2431062    550.18143  0.023109099    0.0229798            6 
 1985000   0.94299425   -7.2192752    551.61582  0.023157675  0.022972286            6 
 1986000   0.92692758   -7.2461044    550.83751  0.023113356  0.022964703            7 
 1987000   0.92542632   -7.2189859    549.93847  0.023064019  0.022957119            5 
 1988000   0.93549173   -7.2372438    550.09921  0.023059155  0.022949533            8 
 1989000   0.93093988   -7.2097537    550.29256  0.023055663  0.022941993            4 
 1990000   0.92492563   -7.2577651    551.52542  0.023095704  0.022934504            8 
 1991000   0.93539063   -7.1954872    552.59456  0.023128853  0.022926984            3 
 1992000   0.94117241   -7.2289208    550.25897  0.023019535  0.022919515            9 
 1993000   0.93496017   -7.2347715    550.63319  0.023023632  0.022911998           12 
 1994000   0.94966326   -7.2231704    552.30032  0.023081759  0.022904491            6 
 1995000    0.9493534   -7.2398313    552.00594  0.023057892   0.02289708            9 
 1996000   0.95718577   -7.2349247    552.22772    0.0230556    0.0228896            7 
 1997000   0.93472432   -7.2371264    551.03242  0.022994176  0.022882141            4 
 1998000   0.91038121   -7.2502853    552.16743  0.023030006   0.02287466            5 
 1999000   0.94882884   -7.2303881    552.86061  0.023047383  0.022867268            6 
 2000000   0.94122874   -7.2479995    552.94696  0.023039457  0.022859889            3 
 2001000   0.92836162   -7.2509547    550.80285  0.022938649  0.022852494            4 
 2002000   0.90234417   -7.2280753    553.69277  0.023047485   0.02284509            7 
 2003000   0.92456993   -7.2461137    552.49699  0.022986229  0.022837746            8 
 2004000   0.92602944    -7.269105    551.70497  0.022941823  0.022830349            3 
 2005000   0.91331765   -7.2596154    552.44503   0.02296114   0.02282288            6 
 2006000   0.92048268   -7.2289028    553.94698  0.023012088  0.022815449           11 
 2007000    0.9211173   -7.2468704    553.18833  0.022969122   0.02280801            6 
 2008000   0.93100213   -7.2394317     552.6628  0.022935873  0.022800549            4 
 2009000   0.92451573   -7.2469824    552.89327  0.022934016  0.022793142            4 
 2010000   0.93004588   -7.2261147    553.01568  0.022927682  0.022785711            5 
 2011000   0.94487953    -7.227846    554.02782  0.022958222  0.022778347            5 
 2012000   0.91894513   -7.2587471    552.87886  0.022899224  0.022770937            5 
 2013000   0.92374968   -7.2259916    554.29402  0.022946432  0.022763484            5 
 2014000   0.93200255   -7.2758101    554.43088  0.022940702   0.02275612            3 
 2015000   0.92193585   -7.2217718    554.32664  0.022925006   0.02274881            8 
 2016000   0.93201417   -7.2314478     555.4231  0.022958958  0.022741474            5 
 2017000    0.9296357   -7.2443832    555.65764  0.022957265  0.022734166            6 
 2018000   0.92560946    -7.253482    553.89901  0.022873266  0.022726814            8 
 2019000   0.91990934    -7.275287    554.50894  0.022887111  0.022719411            4 
 2020000   0.93466283   -7.3105894    553.65682  0.022840628   0.02271201           11 
 2021000   0.94219233   -7.3112422    553.45816  0.022821135  0.022704573            5 
 2022000   0.93135435   -7.2537088    554.73669  0.022862541  0.022697193            7 
 2023000   0.93253686   -7.2450681    555.94227  0.022900901  0.022689831            4 
 2024000   0.95026633   -7.2351888    556.83534  0.022926356    0.0226826            2 
 2025000   0.92137435   -7.2621647    556.15369  0.022886983  0.022675263            5 
 2026000   0.93292122   -7.2418553    557.04946  0.022912531  0.022667994            6 
 2027000   0.93453046   -7.2666507    556.65065  0.022884832  0.022660674            3 
 2028000   0.94126779   -7.2459693    555.32779  0.022819189  0.022653347            3 
 2029000   0.90815219   -7.2544445    556.24141  0.022845466  0.022645947            2 
 2030000    0.9455075   -7.2385577    557.06428  0.022867992  0.022638616           11 
 2031000   0.92584495   -7.2721885    555.66624   0.02279937  0.022631301           10 
 2032000    0.9323448   -7.2462726    556.96121  0.022841257  0.022624011            6 
 2033000   0.91231271   -7.2418884    557.41506  0.022848625  0.022616722            8 
 2034000   0.94548179   -7.2879958    556.01721  0.022780122  0.022609455            5 
 2035000   0.91937966   -7.2914547    556.13141  0.022773604  0.022602077            6 
 2036000   0.93077114   -7.2774501    557.30622  0.022810503  0.022594799            8 
 2037000    0.9349933   -7.2790128    555.49584  0.022725243  0.022587478            7 
 2038000   0.93258363   -7.2645002    557.62411  0.022801117  0.022580131            4 
 2039000   0.92839878   -7.2720684    556.94029  0.022761987  0.022572839            5 
 2040000   0.93759273   -7.2299742    557.81025  0.022786367  0.022565543            4 
 2041000     0.924042   -7.2521382    557.83082  0.022776042  0.022558308            3 
 2042000   0.90843514   -7.2969147    556.24241  0.022700066  0.022550987            6 
 2043000   0.93369953   -7.2717956    556.06801  0.022681841  0.022543639           13 
 2044000   0.92669598   -7.2710131    557.16581  0.022715501  0.022536288            6 
 2045000   0.92984455   -7.2632215    557.13195  0.022703014  0.022528934            4 
 2046000   0.93789066   -7.2550147     558.3491  0.022741492  0.022521574           11 
 2047000   0.88049797   -7.2640681    558.47147  0.022735364  0.022514233            6 
 2048000   0.93140084   -7.2452807    558.17459  0.022712182  0.022506927           10 
 2049000   0.91994531   -7.2799656     557.5496  0.022675679  0.022499575           26 
 2050000   0.94640037   -7.3014994    556.73567  0.022631531  0.022492277            5 
 2051000   0.91206495   -7.3059755    557.90865  0.022668156  0.022484867            6 
 2052000   0.92075131   -7.2786945    558.15604  0.022667156  0.022477431            7 
 2053000   0.92181169   -7.2882138    558.24977  0.022659919  0.022470067            5 
 2054000   0.93103207   -7.2783733    558.18535  0.022646273  0.022462745            7 
 2055000   0.91618994   -7.2277726    559.48831  0.022688091  0.022455516            9 
 2056000   0.92663089   -7.2380199    559.99593   0.02269763  0.022448324           20 
 2057000   0.89847779   -7.2731049    558.73683  0.022635587   0.02244103           19 
 2058000   0.92352339   -7.2489353    559.41676   0.02265212  0.022433749            8 
 2059000   0.92638938   -7.2873343    557.79672  0.022575551  0.022426371            6 
 2060000   0.91786617    -7.272234    560.22031  0.022662634  0.022418963           15 
 2061000   0.92444281   -7.2914748    558.57956  0.022585297  0.022411578            5 
 2062000   0.91427708   -7.2837299    560.86787  0.022666823  0.022404294            6 
 2063000   0.93916721    -7.263959    559.41175  0.022597017  0.022397045            5 
 2064000   0.91404581   -7.2685291    559.05405  0.022571627  0.022389807            4 
 2065000    0.9157686   -7.2868532     559.6339  0.022584096   0.02238254            8 
 2066000   0.92054625   -7.2546047    559.47723  0.022566846  0.022375246            6 
 2067000   0.93120835   -7.3042011    559.10553  0.022540942  0.022367944            7 
 2068000   0.91080767   -7.2952635    559.18743  0.022533343  0.022360608            3 
 2069000   0.92276385   -7.2841502    560.22299  0.022564161   0.02235329            8 
 2070000   0.93262419   -7.2844873    558.96418  0.022502584  0.022345961            5 
 2071000   0.92774762   -7.2854883    560.31581  0.022546106    0.0223386            4 
 2072000   0.93398901   -7.2904323     561.1908  0.022570415  0.022331346            5 
 2073000    0.9203881   -7.2907634    559.06491  0.022474068  0.022324098            9 
 2074000   0.89538577   -7.2622494    560.89848  0.022536904  0.022316776            6 
 2075000   0.92415188   -7.2520875    560.56443  0.022512628  0.022309531            5 
 2076000    0.9070815   -7.2413536     562.4414  0.022577127  0.022302371           11 
 2077000   0.92067566   -7.2675331    561.43555  0.022525901  0.022295177            5 
 2078000    0.9302265   -7.2646725     561.6037  0.022521804  0.022287982            3 
 2079000   0.89585521   -7.2464204    561.43047  0.022504027  0.022280753            2 
 2080000   0.92586154   -7.2829565    560.17808  0.022443032  0.022273551            9 
 2081000   0.91200482   -7.2910059    562.05455   0.02250739  0.022266262            5 
 2082000   0.90857189   -7.2309777    563.03324  0.022535752  0.022259021            7 
 2083000   0.92020004   -7.2574917    560.27791  0.022414703  0.022251821            6 
 2084000   0.92366653   -7.2506229    562.21941  0.022481582  0.022244642            9 
 2085000   0.91377594   -7.2519584    563.07274  0.022504906  0.022237453            4 
 2086000   0.91683705   -7.2568025    562.30243  0.022463344  0.022230179            5 
 2087000   0.92754722   -7.3037749    560.63767  0.022386107  0.022222894            6 
 2088000   0.92366003   -7.2718997    562.18589  0.022437176  0.022215625           10 
 2089000   0.92776741    -7.296174    560.89051  0.022374761   0.02220836            9 
 2090000   0.92617625   -7.2867955    562.44177  0.022425908  0.022201105            4 
 2091000   0.91736102   -7.3163996    561.45156   0.02237572  0.022193799            4 
 2092000   0.91211898   -7.2864332    561.23638  0.022356452  0.022186482           11 
 2093000    0.9090316   -7.2241162    563.35508  0.022430127  0.022179215            5 
 2094000   0.91226985   -7.3084793    562.41555  0.022382026  0.022171998            3 
 2095000   0.92888536   -7.2959414    562.11922  0.022359555  0.022164691            5 
 2096000      0.90367   -7.2487622    563.44702  0.022401678  0.022157346            5 
 2097000   0.92432294   -7.3259477    563.39895  0.022389085  0.022150053            5 
 2098000   0.90679903   -7.2679389    562.06584  0.022325462  0.022142802            4 
 2099000   0.93226729   -7.2556021    563.23425  0.022361214  0.022135536            6 
 2100000   0.92451551   -7.2984208    562.98697  0.022340753   0.02212825            5 
 2101000   0.91301205   -7.3182144    561.00591  0.022251543  0.022120897            5 
 2102000    0.9213807   -7.2985294    563.13113  0.022325211  0.022113517            4 
 2103000   0.92610843   -7.3097073    561.28896  0.022241598  0.022106189           18 
 2104000   0.91459314   -7.3137556    562.28828  0.022270607  0.022098771           19 
 2105000    0.9227106   -7.2682413     564.5124  0.022348076  0.022091382            4 
 2106000   0.90891235   -7.2825101     564.3376  0.022330548   0.02208409           10 
 2107000   0.90601757    -7.277676    563.12248   0.02227189  0.022076753           11 
 2108000   0.89821775   -7.3150455    562.17083  0.022223705  0.022069413            4 
 2109000   0.91927958   -7.3283152    560.77573  0.022158042  0.022062033            6 
 2110000   0.90349935   -7.2644454    562.26488  0.022206354  0.022054629           12 
 2111000   0.91154352   -7.2561609    565.01291  0.022304315   0.02204734            3 
 2112000   0.91890261   -7.2763696    563.86342  0.022248399  0.022040097           14 
 2113000   0.93423319   -7.2367593    564.13081  0.022248415  0.022032782           11 
 2114000   0.92159302   -7.2699202    562.75722  0.022183744  0.022025417            7 
 2115000   0.91774609   -7.3005825    563.82295  0.022215246  0.022017993            7 
 2116000   0.91974136   -7.3000462     562.4689  0.022151422  0.022010636            9 
 2117000   0.92231114   -7.2755721    563.52746  0.022182627  0.022003267            8 
 2118000   0.91825048    -7.297456    561.87327  0.022107069  0.021995944            7 
 2119000   0.92216055   -7.3216027    562.05993  0.022103977  0.021988506           14 
 2120000   0.92819676    -7.305817    563.37438  0.022145219  0.021981138            6 
 2121000   0.91404408   -7.3026631    563.92613  0.022156456  0.021973855            6 
 2122000   0.91633896   -7.2933879    563.86527  0.022143625  0.021966453           11 
 2123000   0.91238207   -7.3133939    563.55925  0.022121183  0.021959101            9 
 2124000   0.92317652   -7.3213244    563.74396  0.022118015   0.02195175            3 
 2125000   0.90771712   -7.2877546    563.23333  0.022087581   0.02194437            8 
 2126000   0.92137899   -7.3011371    564.53903  0.022128372  0.021937001            5 
 2127000   0.88246622    -7.301025    564.42813  0.022113624  0.021929679            4 
 2128000   0.90628012   -7.3106763    565.00751  0.022125921  0.021922365           10 
 2129000   0.91561017   -7.2840041    565.24811  0.022124945   0.02191507           10 
 2130000   0.93195738   -7.2935302    566.29542  0.022155533  0.021907815            4 
 2131000   0.91025656    -7.260116    566.15017  0.022139456  0.021900589            4 
 2132000   0.92265092   -7.2840327     566.4904   0.02214237  0.021893527            5 
 2133000   0.90365829   -7.2707535     566.6956  0.022140006  0.021886388            3 
 2134000   0.90436954   -7.2578892    566.24156  0.022111901  0.021879187            5 
 2135000   0.90944135   -7.2926697    566.48778  0.022111155  0.021872041            3 
 2136000   0.91837353   -7.3215554    565.26522  0.022053106  0.021864881           14 
 2137000   0.90007702   -7.3041717    566.89953  0.022106517  0.021857676            9 
 2138000   0.91047977     -7.30253     565.9545  0.022059343  0.021850422           13 
 2139000   0.88660668   -7.2770299    567.67685  0.022116131   0.02184324            4 
 2140000   0.89125343   -7.3431953    564.85031  0.021995729  0.021836029            5 
 2141000   0.91943723   -7.2939434     567.9097  0.022104535  0.021828759            5 
 2142000   0.91172074   -7.3271545    565.94304  0.022017703  0.021821544            6 
 2143000   0.92125407   -7.3182105    565.88809  0.022005292  0.021814296            6 
 2144000   0.92405345   -7.3063288    565.75413  0.021989822  0.021807007            5 
 2145000   0.91009421    -7.302693    564.65036  0.021936688  0.021799747            5 
 2146000   0.91104398   -7.2913125    566.62564   0.02200317    0.0217925            4 
 2147000   0.92257465   -7.3175293    567.63576  0.022032129   0.02178528            9 
 2148000   0.91778272   -7.3118974    566.14474  0.021964026  0.021778003            6 
 2149000   0.91989481   -7.3024366    567.52339  0.022007266  0.021770809            5 
 2150000   0.89444944   -7.3175893    567.79364  0.022007505  0.021763596            7 
 2151000   0.90484833   -7.3209307    567.23536  0.021975645  0.021756411            5 
 2152000    0.9192916   -7.3097256    568.51977  0.022015171  0.021749216            3 
 2153000   0.90254227   -7.2880401    568.52801  0.022005265  0.021742128           10 
 2154000   0.91522712   -7.2983031    567.95711  0.021972961  0.021734981            5 
 2155000   0.90999204   -7.3184355    566.75797  0.021916395  0.021727801           16 
 2156000   0.90076946   -7.3245155     568.0107   0.02195465  0.021720613            6 
 2157000   0.90825624   -7.2930363    567.44433   0.02192259  0.021713412            3 
 2158000   0.91061161   -7.3133349     566.5463  0.021877753  0.021706187            5 
 2159000   0.91704501   -7.2966896    568.99517  0.021962142  0.021698995           10 
 2160000   0.90444317   -7.3318566    567.28013  0.021885807  0.021691743           11 
 2161000    0.9091247   -7.3105087    567.95431  0.021901678  0.021684523           12 
 2162000   0.91445911   -7.2815894    569.04052  0.021933415  0.021677281           10 
 2163000   0.91268556   -7.2530347     570.3509  0.021973759  0.021670153            8 
 2164000   0.90846225   -7.2491817    570.23376  0.021959094  0.021663097            4 
 2165000   0.92273944   -7.2834434    569.74318  0.021930068  0.021655992            5 
 2166000   0.92537443   -7.2639396    569.82118  0.021922945   0.02164889            6 
 2167000   0.90360826   -7.2958708    568.55321  0.021864067  0.021641664            5 
 2168000   0.89888523   -7.3228995    567.19331  0.021801711  0.021634425            8 
 2169000   0.90229224   -7.3814671    565.86167  0.021740497  0.021627058            7 
 2170000   0.88493861   -7.3092313    567.02384  0.021775109  0.021619686           13 
 2171000    0.8811877   -7.3052707    567.99324  0.021802289   0.02161244            5 
 2172000   0.88781185   -7.2894925    567.81312  0.021785341  0.021605193            7 
 2173000   0.89413603   -7.3026438    569.29164  0.021832016  0.021597949            5 
 2174000   0.90126332   -7.3670205    567.63608  0.021758513  0.021590623            7 
 2175000   0.87357065   -7.3480095    567.41024  0.021739856  0.021583263            6 
 2176000   0.88538862   -7.3331389    567.33382  0.021726938  0.021575941           11 
 2177000   0.89907656   -7.3377323    567.44687  0.021721286  0.021568608            6 
 2178000   0.89653544   -7.3891015    568.45205  0.021749772  0.021561276           12 
 2179000   0.90723938   -7.3913006    567.66537  0.021709705  0.021553845           14 
 2180000   0.91348785   -7.4036669    566.33696  0.021648966   0.02154643           13 
 2181000   0.90351748   -7.3515633    567.99177  0.021702268  0.021539037            8 
 2182000   0.91343092   -7.3523182    569.45715  0.021748287  0.021531671           13 
 2183000   0.90896147   -7.3415669    567.01562  0.021645122  0.021524295            7 
 2184000   0.88616024   -7.3589265     566.5941  0.021619128  0.021516905            5 
 2185000    0.8999247    -7.297523     570.1954  0.021746583  0.021509579            5 
 2186000   0.90943991   -7.3306431    569.22413  0.021699609  0.021502303            5 
 2187000   0.89852638   -7.3115051    568.58347  0.021665275  0.021495016           14 
 2188000   0.91048866   -7.3198222    570.05175  0.021711295  0.021487719            6 
 2189000   0.88873133   -7.3378249    568.96382   0.02165996  0.021480449            7 
 2190000   0.91334314   -7.3227861    569.06301  0.021653844  0.021473121            8 
 2191000   0.90810222   -7.3249166    569.89921  0.021675765  0.021465805            7 
 2192000   0.89495149   -7.3321885    569.67161  0.021657224  0.021458503           12 
 2193000   0.92418347    -7.374389    569.06099  0.021624145  0.021451179            7 
 2194000   0.88283593   -7.3289254    570.48249  0.021668281    0.0214439            6 
 2195000    0.8963864   -7.3046422     568.8643  0.021596974  0.021436592            6 
 2196000   0.91218302   -7.3032105    572.23908  0.021715205  0.021429338            5 
 2197000    0.9178481   -7.3067555    570.26558  0.021630465  0.021422099            8 
 2198000   0.89285394   -7.2822159    570.42377  0.021626622  0.021414874            5 
 2199000   0.91333596   -7.3455419    569.72668   0.02159037  0.021407569            9 
 2200000   0.90173942   -7.3799558    569.41015  0.021568566  0.021400223            3 
 2201000   0.88883545   -7.3678178    569.36349     0.021557  0.021392827            4 
 2202000   0.89584064   -7.3749223    568.44974   0.02151263  0.021385438            3 
 2203000   0.90567681   -7.3320549    570.84267  0.021593383   0.02137813           12 
 2204000   0.91110222   -7.3746098     569.2252  0.021522429  0.021370806            4 
 2205000   0.91190604   -7.3317842    570.64609  0.021566368  0.021363454           15 
 2206000   0.91227031   -7.3339896     570.6969  0.021558511  0.021356249            7 
 2207000   0.88394483   -7.3118485    570.57712   0.02154422  0.021348955            5 
 2208000   0.90542993   -7.2741575    573.08252   0.02162902  0.021341694            4 
 2209000   0.89179914   -7.3285292    571.53995  0.021561036  0.021334488            6 
 2210000   0.88412458   -7.3257839    570.19981  0.021500747  0.021327234            5 
 2211000   0.92146948   -7.3257821    571.06002  0.021523444  0.021320005            5 
 2212000   0.89506553   -7.3483951    571.88358   0.02154474  0.021312738            7 
 2213000   0.89794521   -7.3533822    570.72198  0.021491263  0.021305455            4 
 2214000   0.89285429   -7.3701486    570.33819   0.02146711  0.021298176           17 
 2215000   0.90440968   -7.3163831    573.08481  0.021560753  0.021290933            6 
 2216000   0.88451838   -7.3272819    574.23433  0.021594251   0.02128376           11 
 2217000   0.88807536     -7.35529     571.0963  0.021466558  0.021276459            5 
 2218000   0.87794156   -7.3742121    572.36689  0.021504617  0.021269195           10 
 2219000   0.88381765   -7.3295895    573.23636  0.021527578  0.021262009            7 
 2220000   0.90647542   -7.3527873    573.31328  0.021520769  0.021254803            9 
 2221000    0.8907253    -7.366201    571.56116  0.021445338  0.021247531           14 
 2222000   0.89532653   -7.3403574     572.7747  0.021481199  0.021240279           15 
 2223000   0.88172656   -7.3237479    572.85462  0.021474532  0.021233069            8 
 2224000   0.89850091   -7.3338373    572.84824  0.021464637  0.021225945            3 
 2225000    0.8962259    -7.335602    573.83571  0.021491974  0.021218819            6 
 2226000   0.90391427   -7.3463132    571.56372  0.021397264  0.021211699            9 
 2227000   0.91488299   -7.3575513    573.17159  0.021447822  0.021204502            5 
 2228000   0.90836071   -7.3433868    573.21321  0.021439752  0.021197289            3 
 2229000   0.88447717   -7.3228805    572.76678  0.021413443  0.021190089            3 
 2230000   0.90657681   -7.3600188    571.64073  0.021361761  0.021182919            5 
 2231000   0.87085442   -7.3428623     572.1427  0.021370936  0.021175744            5 
 2232000   0.88548976   -7.3618404    572.99657  0.021393241  0.021168498            3 
 2233000   0.87776884   -7.3335942    574.12678  0.021425839   0.02116124            7 
 2234000   0.89904921   -7.3700098    572.83094   0.02136791  0.021154026            9 
 2235000   0.90193647    -7.345417    573.56499  0.021385719  0.021146798            8 
 2236000   0.88359809   -7.2995608    574.82668  0.021423177  0.021139601            7 
 2237000    0.8862047   -7.3605162    574.30158  0.021394039  0.021132412            7 
 2238000   0.88057638   -7.3761111     572.6743  0.021323886  0.021125091           11 
 2239000   0.89069494   -7.3701197    572.77084  0.021317956  0.021117716            6 
 2240000   0.88566654   -7.3558671    574.65055  0.021378369  0.021110419            6 
 2241000   0.88538561   -7.3351242    573.53947  0.021327513  0.021103134            7 
 2242000   0.89345356   -7.3711238    571.39428  0.021238265  0.021095929           11 
 2243000   0.89094479   -7.3525376    572.90248   0.02128483  0.021088679           11 
 2244000   0.88793622   -7.3931186    574.03784  0.021317507  0.021081421            6 
 2245000   0.91421358   -7.3826688    572.14962  0.021237922  0.021074179            9 
 2246000   0.90433235   -7.3203877    574.35137  0.021310158  0.021066964            7 
 2247000   0.90498312   -7.3514764    575.04267  0.021326312  0.021059768            8 
 2248000   0.89546078   -7.3984032    573.13613   0.02124615  0.021052525           12 
 2249000   0.89007731   -7.3215383    574.21119  0.021276537  0.021045273            5 
 2250000   0.90407693   -7.3793615    573.80321  0.021251971   0.02103806            6 
 2251000   0.89440032   -7.3562961    574.74492  0.021277392  0.021030833            9 
 2252000   0.86215304   -7.3713837    574.85324  0.021271953  0.021023607            5 
 2253000    0.8803418   -7.3279275    575.77391  0.021296564  0.021016425            6 
 2254000   0.90281927   -7.3771241    572.62327  0.021170633  0.021009169            5 
 2255000   0.88841099   -7.3443089    575.51076  0.021267951  0.021001964            4 
 2256000   0.91013487   -7.3731288    575.21128  0.021247462  0.020994782            6 
 2257000   0.89138591   -7.3507341    575.95385  0.021265465  0.020987601           13 
 2258000   0.88905693   -7.3687006     574.7306  0.021210902  0.020980406            5 
 2259000   0.88526709   -7.3857081    574.81727   0.02120471  0.020973207            9 
 2260000   0.88034204   -7.3869888    575.53917  0.021221946  0.020965969            4 
 2261000   0.87397094    -7.362857    574.49489  0.021174071   0.02095873            9 
 2262000   0.87353291   -7.3368938    575.54048   0.02120323  0.020951526           10 
 2263000     0.886843   -7.3597369     577.0555   0.02124965  0.020944339            8 
 2264000   0.90360354   -7.3898965    572.82341  0.021084489   0.02093713            7 
 2265000   0.89655947   -7.3732659    575.42859   0.02117103  0.020929899           11 
 2266000   0.87058056   -7.3688026    575.10683  0.021149854  0.020922685            6 
 2267000   0.88492864   -7.3867225    575.29789  0.021147548   0.02091541            9 
 2268000   0.88454663   -7.3733847    573.08131  0.021056779  0.020908182            9 
 2269000   0.89445095   -7.3840867    575.20902  0.021125643  0.020900945            4 
 2270000   0.89236089    -7.396471    574.27036  0.021081878   0.02089371            6 
 2271000   0.90062938    -7.350404    574.41888  0.021078045  0.020886461            5 
 2272000    0.8993304   -7.3911423    574.36373  0.021066745  0.020879227            4 
 2273000   0.89378693   -7.3837361    575.42601  0.021096422  0.020871978            4 
 2274000     0.909532   -7.3841307    574.90333  0.021067991  0.020864758            4 
 2275000   0.87156751    -7.391369    574.60842  0.021047928  0.020857495            5 
 2276000   0.87406193   -7.4450015    573.46611  0.020996855  0.020850156            7 
 2277000    0.8992422   -7.3982915    575.12888  0.021048488  0.020842864            7 
 2278000   0.88398559   -7.3589122    576.15887  0.021076927  0.020835616           18 
 2279000   0.90082794   -7.3573276    576.83826  0.021092521  0.020828421            7 
 2280000   0.87519727   -7.3560631    576.92949  0.021086604  0.020821215            5 
 2281000   0.88725649     -7.39784    574.77186  0.020998533  0.020814045            8 
 2282000   0.86801723   -7.3274107    576.90851  0.021067357  0.020806912            4 
 2283000   0.87852227   -7.3447462    577.03828  0.021062866  0.020799785            9 
 2284000   0.88778666   -7.3995219    576.25126  0.021024929  0.020792635            7 
 2285000   0.89614181   -7.3506929     576.9179   0.02104004  0.020785428            8 
 2286000   0.88451199   -7.3921835    575.57826  0.020982001  0.020778228           11 
 2287000   0.90686665   -7.4217793    573.53276  0.020898293  0.020770924            6 
 2288000   0.90065889   -7.3772042    576.29557  0.020989786  0.020763644           18 
 2289000   0.87791188   -7.4024562    577.37562  0.021019936  0.020756437            7 
 2290000   0.86851172   -7.3714281    576.32098  0.020972379  0.020749274           10 
 2291000   0.89685052    -7.386127     577.3518   0.02100072   0.02074213            8 
 2292000   0.88275628   -7.3931513    576.35819  0.020955431   0.02073496            7 
 2293000   0.88416545   -7.3400174    578.98066    0.0210416  0.020727807            4 
 2294000   0.87822549   -7.3718317     576.1041  0.020927932   0.02072064           11 
 2295000   0.89807487   -7.4083207    575.99747  0.020914941  0.020713432           16 
 2296000   0.87202934   -7.3890737    576.76189  0.020933576  0.020706242            8 
 2297000   0.89881252     -7.44228     574.0759  0.020827017   0.02069898            6 
 2298000   0.87608486   -7.3640327    578.07773  0.020963074  0.020691779            5 
 2299000   0.87688904   -7.3685832    576.30007   0.02088952  0.020684609           14 
 2300000   0.87571583   -7.3902009     576.9752  0.020904899  0.020677379            7 
 2301000   0.86671789    -7.387671    577.23638  0.020905272  0.020670181            9 
 2302000   0.86732703   -7.3856846    577.05023  0.020889452  0.020663062            8 
 2303000   0.89924618   -7.3743857    578.32129  0.020926375  0.020655904            8 
 2304000   0.87129282   -7.4053966    576.89702  0.020865778  0.020648787            6 
 2305000    0.8639982    -7.374207    577.58603  0.020881635  0.020641653            8 
 2306000   0.88417266   -7.4014437    575.69392  0.020804203  0.020634482            4 
 2307000   0.88210104   -7.4202592    577.60943  0.020864378  0.020627282           10 
 2308000    0.8954906   -7.4094165    577.22735  0.020841542  0.020620039            6 
 2309000   0.88119113   -7.4103096    577.14065  0.020829387  0.020612822            7 
 2310000   0.87908068    -7.413111    577.04793  0.020817025  0.020605592            5 
 2311000   0.89078269   -7.4025532      577.275  0.020816205  0.020598383            4 
 2312000   0.87328996     -7.39978    578.25654   0.02084258  0.020591183           12 
 2313000   0.86355577   -7.3918659    579.24565  0.020869205  0.020584003            8 
 2314000   0.89919768    -7.419184    576.30085  0.020754136  0.020576763           11 
 2315000   0.87412636   -7.3940914    577.41739  0.020785363  0.020569552            9 
 2316000   0.86246297   -7.4085033     576.6535  0.020748902  0.020562367            6 
 2317000    0.8760955   -7.3986501    577.52256  0.020771204  0.020555247            4 
 2318000   0.88582006   -7.4106487    577.94824  0.020777547  0.020548093           10 
 2319000   0.87098417   -7.4344204     577.4026   0.02074898  0.020540846            7 
 2320000   0.87806443   -7.3721803    578.72109  0.020787395  0.020533604           11 
 2321000   0.87266765   -7.4287712    577.15374  0.020722165  0.020526407            8 
 2322000   0.86312245   -7.3947849    578.41693  0.020758575  0.020519215            6 
 2323000   0.86793127   -7.3828942    578.58527  0.020755678  0.020512042            4 
 2324000   0.89466257   -7.3779699    578.58321  0.020746673  0.020504891            8 
 2325000   0.86989476   -7.4110826    578.27106  0.020726561  0.020497715            5 
 2326000   0.86706355   -7.4110881    578.45222  0.020724141  0.020490541            9 
 2327000   0.86766447   -7.4064476    578.06471  0.020701358  0.020483348            6 
 2328000     0.882603   -7.4336725    577.52732  0.020673229  0.020476179           10 
 2329000   0.87958683   -7.4311681    577.98459  0.020680714  0.020468982            7 
 2330000   0.87376759   -7.4338442    578.94322  0.020706124  0.020461767            5 
 2331000   0.87779121   -7.4369616    578.24763  0.020672373  0.020454547            7 
 2332000   0.85967813    -7.442155    577.96909  0.020653555  0.020447324           11 
 2333000   0.88254154   -7.4165997    578.43075  0.020661193  0.020440144            5 
 2334000   0.86622506   -7.3851639    579.28772  0.020682938  0.020432975           11 
 2335000   0.88357736   -7.4222001    578.29219  0.020638551  0.020425767           11 
 2336000   0.88343956   -7.3817969    580.55053  0.020710279  0.020418589            8 
 2337000     0.888532   -7.4160927    579.49335   0.02066372  0.020411412            5 
 2338000   0.87066873   -7.4103398    579.15983  0.020642994  0.020404243            6 
 2339000   0.88302958   -7.4289206    579.21476  0.020636125  0.020397051            6 
 2340000   0.87806592   -7.4301549    579.61471   0.02064155  0.020389839            9 
 2341000   0.88672904   -7.4122759     579.5418  0.020630137  0.020382678            3 
 2342000   0.90442261   -7.3776553    579.61958  0.020624095  0.020375557            6 
 2343000    0.8852462   -7.4043466    579.78237  0.020621083   0.02036849            9 
 2344000   0.87223716   -7.4132799    580.15217  0.020625433  0.020361382            9 
 2345000   0.87342038   -7.3803548    579.44709  0.020591581  0.020354264            5 
 2346000   0.86573303   -7.4069529    580.01812  0.020603088  0.020347159            4 
 2347000   0.87995814    -7.419572    580.01488  0.020594194  0.020340041           12 
 2348000    0.8836487   -7.4256135    579.56822   0.02056957  0.020332876            5 
 2349000   0.88491788   -7.3562556    584.03852  0.020719403  0.020325773            4 
 2350000   0.86200038   -7.4139818     581.5907  0.020623784  0.020318692            7 
 2351000   0.88604498     -7.44286    579.26927  0.020532726  0.020311586            5 
 2352000   0.87572011   -7.4220348    579.55456  0.020534104  0.020304462            7 
 2353000    0.8737169   -7.4141511     582.2421  0.020620559  0.020297386            7 
 2354000   0.86980067   -7.4308995    579.62186  0.020519041  0.020290295            7 
 2355000   0.87186444   -7.4171385    581.08658  0.020562158  0.020283178            7 
 2356000    0.8901471   -7.4213848    580.71139   0.02054016  0.020276065            6 
 2357000   0.88891392   -7.3870631    581.73673  0.020567697  0.020268957            6 
 2358000   0.87590363    -7.419212    579.52182  0.020480698  0.020261867            8 
 2359000   0.88249038   -7.4269759    581.06789  0.020526632  0.020254789            6 
 2360000   0.86831851     -7.40772     581.4569   0.02053167  0.020247656            8 
 2361000   0.87863877   -7.4248134    579.68314  0.020460368  0.020240485            9 
 2362000   0.90093248   -7.4153418    581.03135  0.020499271  0.020233365            7 
 2363000   0.88314387   -7.4484717    581.93198  0.020522358  0.020226257            7 
 2364000    0.8781722   -7.4360765     581.2809  0.020490725  0.020219163            9 
 2365000   0.87051537   -7.4387329    579.39793  0.020415713  0.020212036           13 
 2366000   0.85763802    -7.419267    581.85754  0.020493714  0.020204926            5 
 2367000   0.88531215   -7.4308192     580.9798  0.020454154  0.020197802           15 
 2368000   0.84755814   -7.4052079    580.83221  0.020440323  0.020190649            7 
 2369000   0.86772964   -7.4411089     580.6608  0.020425665  0.020183552            9 
 2370000   0.87005763   -7.4414531    581.61893  0.020450736  0.020176461           18 
 2371000   0.85720233   -7.4363703    581.54526  0.020439521  0.020169369            5 
 2372000   0.88593291     -7.39221    583.62546  0.020503986  0.020162343            7 
 2373000   0.85168481   -7.4193968    582.44066  0.020453739   0.02015534            5 
 2374000   0.87301122   -7.4033219    583.63297  0.020486976  0.020148349            5 
 2375000   0.86565537   -7.4190835    581.08731  0.020389028  0.020141303           11 
 2376000   0.86396991    -7.394636    582.93826  0.020445366   0.02013426           11 
 2377000   0.88419055   -7.4175831    580.51978  0.020351977  0.020127211            5 
 2378000   0.89261121   -7.4226575    582.18449  0.020401755  0.020120163            8 
 2379000   0.86872069   -7.4068448    582.22909  0.020394742  0.020113109           21 
 2380000    0.8871601   -7.4417414    582.22244   0.02038594  0.020106106           19 
 2381000   0.86846181   -7.4578304    582.27963   0.02037938  0.020099076           35 
 2382000   0.86728659   -7.4414695    582.11271  0.020364984  0.020091994           23 
 2383000    0.8720325   -7.3996451    583.41847  0.020402101  0.020084925            5 
 2384000   0.90192112   -7.4407461    582.07463  0.020346568  0.020077832            9 
 2385000   0.87884946   -7.4377597     581.6362  0.020322718  0.020070761            9 
 2386000   0.86302108   -7.4529359     581.9465  0.020325039  0.020063691           12 
 2387000   0.88669453   -7.4251148    581.58757  0.020303993  0.020056659            7 
 2388000   0.87399009   -7.4280144    582.86638  0.020340117  0.020049623            8 
 2389000   0.86732516   -7.4052903    583.29211  0.020346453  0.020042565            7 
 2390000   0.88879638   -7.4377929    580.80537  0.020251233  0.020035539            5 
 2391000   0.85872586   -7.4249094    581.83331   0.02027859  0.020028515            8 
 2392000   0.86257763   -7.4280005    582.15097  0.020281179  0.020021478           18 
 2393000   0.87156955   -7.4244849    583.54726  0.020321328  0.020014466            9 
 2394000   0.86606593   -7.4220377    582.50485  0.020276554  0.020007421           14 
 2395000   0.87082781   -7.4337921    581.52232  0.020233901  0.020000348           15 
 2396000   0.87950385   -7.4050372      582.529  0.020260469   0.01999334            7 
 2397000   0.86143672   -7.4371047    583.66041  0.020291351  0.019986295           11 
 2398000   0.86584038   -7.4395634    582.58692  0.020245584  0.019979217           13 
 2399000   0.87856831   -7.4562394    583.20358  0.020258565  0.019972153            9 
 2400000   0.86241731   -7.4610172    582.42618  0.020223131  0.019965062           10 
 2401000   0.87877154   -7.4321482    582.99199  0.020234346  0.019957942            4 
 2402000   0.85434574   -7.4697412    582.42539  0.020206265  0.019950857            9 
 2403000   0.86301139   -7.4713698    581.52332  0.020166574  0.019943766           14 
 2404000   0.86894793   -7.4173648    584.38352  0.020257332  0.019936699            8 
 2405000   0.87083456   -7.4236446    583.14986  0.020206163  0.019929623            7 
 2406000   0.87983695   -7.4627561    582.55095  0.020177021  0.019922567           11 
 2407000   0.89199966   -7.4335778    582.61295  0.020170785  0.019915506           20 
 2408000   0.86710881   -7.4424794    582.74276  0.020166901  0.019908445            4 
 2409000   0.84547847   -7.4658779    583.23309  0.020175491  0.019901356           10 
 2410000   0.87115828   -7.4620344    583.59914  0.020179777  0.019894251            4 
 2411000   0.86839093    -7.434584    583.89067  0.020181483  0.019887225            4 
 2412000   0.87385053   -7.4446785    582.93604  0.020140134  0.019880208            9 
 2413000   0.86999423   -7.4201338    582.68102   0.02012298  0.019873157           16 
 2414000   0.85360881   -7.4482588    582.77651  0.020117941   0.01986612           12 
 2415000   0.87359514     -7.40473    584.69411   0.02017578  0.019859096            5 
 2416000   0.87453446   -7.4179457    582.75766  0.020100637  0.019852071           12 
 2417000    0.8576883   -7.4330061    583.44249  0.020115932  0.019845017            4 
 2418000   0.86686024   -7.4134209    585.18942  0.020167819  0.019837956            6 
 2419000   0.85255043     -7.45262    584.30476  0.020129005  0.019830944           11 
 2420000   0.87054835   -7.4420096    583.89675  0.020106638   0.01982392           13 
 2421000   0.84505018   -7.4553734    582.76182  0.020059267  0.019816908            7 
 2422000   0.84003935   -7.4493304    584.65187  0.020116015  0.019809915           12 
 2423000    0.8471725    -7.416516    586.07626  0.020156702  0.019802918           10 
 2424000   0.86316054   -7.4217558    583.90957  0.020073899   0.01979597           14 
 2425000   0.86810702   -7.4491244    583.38529  0.020047605  0.019788964           15 
 2426000   0.85679368   -7.4594535    583.18643   0.02003251  0.019781991            8 
 2427000   0.86729311   -7.4747662    584.57848  0.020072053  0.019774995            4 
 2428000     0.860773   -7.4430772    584.33744  0.020055514  0.019767977           15 
 2429000   0.85594926   -7.4443155    584.91865  0.020067197  0.019760954            6 
 2430000   0.87136171   -7.4560598    582.80094  0.019986315  0.019753919           21 
 2431000   0.86752436    -7.426446    584.15745  0.020024594  0.019746873            7 
 2432000   0.86000157   -7.4537046    583.11202  0.019980538  0.019739825            7 
 2433000   0.86037627   -7.4954145    583.82551  0.019996764  0.019732801            3 
 2434000   0.83133862   -7.4710076    584.39224  0.020007951  0.019725761           13 
 2435000   0.85030588   -7.4293777    584.79577  0.020013545  0.019718789            8 
 2436000    0.8661146    -7.462105    584.90769  0.020009157  0.019711783            9 
 2437000   0.85192451   -7.4710458    583.36474  0.019948186  0.019704727            6 
 2438000   0.85763054   -7.4676191    583.40782  0.019941476   0.01969769           20 
 2439000   0.86877112   -7.4519537    583.76449  0.019945486  0.019690663            8 
 2440000   0.86408525   -7.3984139    585.70341  0.020003532  0.019683762            7 
 2441000   0.84058478   -7.4495951    586.31458  0.020016202  0.019676831            5 
 2442000   0.85380347   -7.4719539    584.81202   0.01995673  0.019669851            9 
 2443000   0.86324523   -7.4760085    585.65185  0.019977209  0.019662848           12 
 2444000   0.84644087   -7.4890654    583.46131  0.019894344  0.019655801           11 
 2445000   0.85437213   -7.4824439    584.60849  0.019925306  0.019648781            7 
 2446000   0.85948217   -7.4787038    583.91967  0.019893693  0.019641739           10 
 2447000   0.84831564   -7.4626398     584.5389  0.019906651  0.019634742            7 
 2448000   0.85777085   -7.5129604    583.93989  0.019878128  0.019627732           13 
 2449000   0.85327835   -7.4885419    584.64717  0.019894078  0.019620722           10 
 2450000   0.85188492   -7.4814519    586.37428  0.019944703  0.019613675            4 
 2451000   0.86645683    -7.518583    583.33074  0.019833087  0.019606584            7 
 2452000   0.84533851   -7.4932063    584.49587  0.019864596  0.019599513           13 
 2453000   0.86055064   -7.4979654    583.44207  0.019820698  0.019592479            6 
 2454000   0.86141666   -7.4899733    582.54673  0.019782217  0.019585396            7 
 2455000    0.8498124   -7.4825407    584.59662  0.019843741  0.019578291            9 
 2456000   0.86114413   -7.4805889    585.39245  0.019862664  0.019571216           11 
 2457000   0.85586451   -7.4739645    584.82189  0.019835229  0.019564161           12 
 2458000   0.84383086   -7.4791828    583.84899  0.019794175  0.019557097            7 
 2459000   0.86601626   -7.4574185     584.9822  0.019824529  0.019550068            5 
 2460000   0.87240665   -7.4774434    585.81999  0.019844851   0.01954304            6 
 2461000   0.83258113   -7.5142861    584.70915  0.019799172  0.019535947           10 
 2462000   0.84600616   -7.4886458    584.22461   0.01977473   0.01952885            8 
 2463000   0.85239046   -7.5199544    583.54478  0.019743699  0.019521764           14 
 2464000   0.86331127   -7.5047866     583.7469  0.019742522  0.019514651           11 
 2465000   0.86938041   -7.4793375    586.75098  0.019836071  0.019507594            9 
 2466000   0.85668094    -7.534221    584.22504  0.019742668  0.019500569            9 
 2467000   0.86141379   -7.4947054    584.00766  0.019727323  0.019493497            7 
 2468000   0.86182069   -7.5076366    584.42929  0.019733566  0.019486447           10 
 2469000   0.85593479   -7.4530793    586.22788  0.019786279  0.019479422           12 
 2470000   0.85593343   -7.4671441     585.6023  0.019757163  0.019472395            9 
 2471000   0.86664516   -7.4708564    586.14261  0.019767389  0.019465366            8 
 2472000   0.85020064   -7.4969997     585.7123  0.019744886  0.019458379            7 
 2473000      0.86424   -7.4275645    586.59083  0.019766506  0.019451417           12 
 2474000   0.85022824   -7.5078953     585.0045  0.019705083   0.01944442            7 
 2475000    0.8543888   -7.4436854    587.47653  0.019780355  0.019437409            6 
 2476000   0.85391441   -7.4847395    585.13866  0.019693681  0.019430414            9 
 2477000   0.86245792   -7.4880922    584.70709  0.019671211   0.01942337           10 
 2478000   0.87105355   -7.4803013    585.90783  0.019703653  0.019416341           21 
 2479000   0.87725554   -7.4849585    583.56203  0.019616849  0.019409272            5 
 2480000   0.86430001   -7.4994584    586.72552  0.019715239  0.019402224           19 
 2481000   0.85445787   -7.4797204    586.12476  0.019687114  0.019395189           13 
 2482000   0.84810541   -7.4910036    585.96121  0.019673691  0.019388151           39 
 2483000   0.85147021   -7.4775332    585.44724  0.019648518  0.019381111           22 
 2484000   0.84545073   -7.5132155    585.57639  0.019644941  0.019374098           25 
 2485000   0.86412991   -7.5007931    587.06177  0.019686847   0.01936704           34 
 2486000   0.83450337    -7.505616    584.35779  0.019588287  0.019359995           21 
 2487000   0.85325181   -7.4854277    585.47159  0.019617732  0.019352919           36 
 2488000   0.85810895   -7.5442571    584.33724  0.019571853  0.019345862           19 
 2489000   0.86596394   -7.5057152    586.79599   0.01964631  0.019338792           39 
 2490000   0.84168634   -7.4857749    586.83646  0.019639774  0.019331747           21 
 2491000    0.8476258   -7.4780772    586.47572  0.019619822  0.019324724           21 
 2492000   0.85167494   -7.4664014     587.6393  0.019650859  0.019317743           22 
 2493000    0.8402987   -7.4586198     587.2616  0.019630352  0.019310781            6 
 2494000   0.84900629    -7.505468    586.48992  0.019596696   0.01930373           18 
 2495000   0.87121203    -7.473751    586.40252  0.019585923  0.019296722            6 
 2496000    0.8748189   -7.4969751    587.20948  0.019605017  0.019289739            9 
 2497000   0.86382435   -7.4867481    585.01312  0.019523866  0.019282763            8 
 2498000   0.86599486   -7.5031695    584.56206  0.019501003  0.019275755            6 
 2499000   0.84964108   -7.5072091     587.3925  0.019587585    0.0192687            9 
 2500000    0.8563369   -7.4960499     585.0236  0.019500787  0.019261661           13 
 2501000   0.86560816   -7.5050005    585.96568   0.01952438  0.019254625           13 
 2502000   0.85745409   -7.5394175    585.40376   0.01949786  0.019247556            7 
 2503000   0.84499219   -7.4656491    587.07448  0.019545695  0.019240531            4 
 2504000   0.85980445   -7.4983485    584.34289  0.019446981  0.019233529            4 
 2505000   0.84898966   -7.4602397    587.35379  0.019539381  0.019226551            3 
 2506000   0.85519614   -7.4769406    588.99015  0.019585999  0.019219611           10 
 2507000   0.85484972   -7.5263262     585.5854  0.019465011  0.019212618           14 
 2508000   0.85226056   -7.5098818    586.13516  0.019475517  0.019205602            9 
 2509000   0.85725355   -7.4912916    586.42425  0.019477357  0.019198646           13 
 2510000   0.86876222   -7.5231483     585.9899  0.019455176  0.019191657           12 
 2511000   0.86236878   -7.4895168    587.61786  0.019501455  0.019184636            6 
 2512000   0.85601109   -7.5082487    587.56698  0.019492004  0.019177688            6 
 2513000   0.82958243   -7.4847435    587.72455  0.019489473  0.019170745            8 
 2514000   0.84430439   -7.4258631    588.13645  0.019495374  0.019163837            7 
 2515000   0.85166784   -7.5200348    588.30899   0.01949334  0.019156888           24 
 2516000    0.8576285   -7.5392781     587.2578  0.019450775  0.019149943           32 
 2517000     0.854043   -7.5156833    588.83122   0.01949514  0.019142974            8 
 2518000   0.84996733    -7.469639    588.54922  0.019478065  0.019136049           18 
 2519000   0.84298196   -7.5026654    587.89296  0.019448623  0.019129066           13 
 2520000     0.871489   -7.5412951    585.90051  0.019375017  0.019122042            6 
 2521000   0.84525279    -7.493717    587.88837  0.019433041   0.01911509           10 
 2522000   0.83595335   -7.5206895    589.23483  0.019469826  0.019108122           18 
 2523000    0.8512614   -7.5265715    585.97202  0.019354341  0.019101149            7 
 2524000   0.83800112   -7.4775477    587.67262   0.01940282  0.019094185           10 
 2525000   0.85963692   -7.5065354    587.39166  0.019385863  0.019087216           13 
 2526000   0.84999059   -7.4909398    589.52506   0.01944857  0.019080287            8 
 2527000   0.85274785   -7.4981622    587.15971  0.019362871  0.019073385            9 
 2528000   0.85257062   -7.5090217    587.97576  0.019382112  0.019066472            6 
 2529000   0.81862223   -7.5048865     587.5607  0.019360772  0.019059547           21 
 2530000   0.85733926      -7.5027    586.57294  0.019320584  0.019052615           14 
 2531000   0.85622364   -7.5229274    587.57669  0.019345999  0.019045662            9 
 2532000   0.87191764   -7.5173014    586.14577  0.019291264  0.019038698           14 
 2533000   0.83780457   -7.5127209    587.67941  0.019334104  0.019031734           12 
 2534000   0.86817286   -7.4939224    589.13894  0.019374472  0.019024785            8 
 2535000   0.83634132   -7.4899486    588.16833  0.019334922  0.019017872            8 
 2536000   0.82389139   -7.4716146    587.66961   0.01931091  0.019010934            9 
 2537000   0.84695426   -7.5288488    587.94392  0.019312308  0.019003964            9 
 2538000   0.85583257   -7.5133516    588.09871  0.019309782  0.018997021            6 
 2539000   0.83631644   -7.5181708    586.19074  0.019239554  0.018990049            7 
 2540000    0.8573618   -7.5148182    586.29183  0.019235296   0.01898309            8 
 2541000   0.84256052   -7.5409644    585.66054  0.019207023  0.018976065            5 
 2542000   0.84815769   -7.5365476    585.74016  0.019202077  0.018969042           16 
 2543000   0.86205595   -7.5093049    588.50329  0.019285073  0.018962059            8 
 2544000   0.86520956   -7.5534398    587.74078  0.019252515  0.018955021           14 
 2545000   0.85574456   -7.4990187    588.84169  0.019280998  0.018948055            5 
 2546000   0.84935835   -7.5436082    587.10003  0.019216419  0.018941046           11 
 2547000   0.86035179   -7.5092722    586.96292  0.019204388  0.018934057            8 
 2548000   0.84943391   -7.5320874    588.47563  0.019246325  0.018927087           15 
 2549000   0.86455946   -7.4805671    589.04754  0.019257472  0.018920158           10 
 2550000   0.85826429   -7.4859966    588.34726  0.019227035  0.018913251            7 
 2551000   0.84210049   -7.5019974    588.19559  0.019214543  0.018906275            5 
 2552000   0.83791796   -7.5364163    587.34849  0.019179352  0.018899297           13 
 2553000   0.85486098   -7.5283674    586.77151  0.019153006  0.018892319           16 
 2554000   0.84816071   -7.5079919     589.0836  0.019220947  0.018885373           11 
 2555000   0.84217127   -7.5033314     588.3252  0.019188689  0.018878443           10 
 2556000   0.86019011   -7.4972137     589.5102  0.019219816   0.01887152            5 
 2557000   0.84963473   -7.5073041    587.79782  0.019156493  0.018864608           15 
 2558000   0.83983055    -7.499585    588.58177  0.019174543   0.01885769           15 
 2559000   0.84122933   -7.4912713    588.05887  0.019150022  0.018850717            8 
 2560000   0.85044651   -7.5055267    588.20489  0.019147295  0.018843746            5 
 2561000   0.84112036    -7.517762    588.92301  0.019163185  0.018836784           13 
 2562000   0.81917624   -7.5436129    587.52406  0.019110202  0.018829811            6 
 2563000   0.84216201   -7.5140719    587.69956  0.019108452  0.018822824            9 
 2564000   0.83373394   -7.4940896     587.6735  0.019100153  0.018815857           18 
 2565000   0.81534085   -7.4765224    589.00182  0.019135862  0.018808897           19 
 2566000   0.83024929   -7.5217391    589.25254  0.019136546  0.018801938            9 
 2567000   0.85835212    -7.512931    587.68251  0.019078123  0.018795005            4 
 2568000   0.84873468   -7.4737573    587.39686  0.019061425  0.018788091           28 
 2569000   0.83842787   -7.5019168    590.01964  0.019139082  0.018781216            7 
 2570000   0.85364008   -7.5024166    589.36795  0.019110504  0.018774299            7 
 2571000   0.85354668   -7.5380745    589.18223  0.019097052  0.018767425            8 
 2572000   0.86017676   -7.5159151    588.14608  0.019056055  0.018760494           10 
 2573000   0.84511094    -7.527047    589.83769  0.019103436  0.018753567            6 
 2574000   0.84539881     -7.53731    589.67702  0.019090813  0.018746657           15 
 2575000   0.85342549    -7.533632    588.63666   0.01904973   0.01873975           26 
 2576000   0.82452567   -7.5362635    588.61915  0.019041769  0.018732849           10 
 2577000   0.84395419   -7.5114906    590.43099  0.019092969  0.018725944            7 
 2578000   0.83796251   -7.5156529    590.06466  0.019073722   0.01871906           14 
 2579000   0.83749591   -7.5252148    588.36793  0.019011501  0.018712165           15 
 2580000   0.84915446    -7.515503    589.83558  0.019051537  0.018705273            6 
 2581000   0.83926371   -7.5516667    587.88094  0.018981046  0.018698384            5 
 2582000   0.83267652   -7.5461046    589.22504  0.019017075  0.018691471           18 
 2583000   0.83766233   -7.5204838    588.66906  0.018991775  0.018684558           13 
 2584000   0.85133618    -7.540025    588.59036  0.018981887  0.018677624           14 
 2585000   0.83568467   -7.5368164    589.80399  0.019013668  0.018670692            9 
 2586000   0.84734348   -7.5423613    588.93646   0.01897836  0.018663779           12 
 2587000   0.83463251   -7.5525081     588.5821  0.018959609  0.018656865           15 
 2588000   0.86537333    -7.576917    589.05426  0.018967486  0.018649938           11 
 2589000   0.82395285   -7.5853101    587.56656  0.018912275  0.018643019           10 
 2590000   0.83047825   -7.5629054    588.68275  0.018940887  0.018636103            8 
 2591000   0.84324333   -7.5537107    589.10109  0.018947031  0.018629207            9 
 2592000   0.85220461   -7.5500747    588.83769  0.018931253  0.018622334            5 
 2593000   0.84092474   -7.5252271    589.55909  0.018947136  0.018615475            9 
 2594000   0.82163406   -7.5353618    589.48054  0.018937308  0.018608609            7 
 2595000   0.83438281   -7.5473976    590.43064  0.018960521  0.018601729           14 
 2596000   0.84253347   -7.5380758     589.1552  0.018912275  0.018594832           18 
 2597000   0.82439468   -7.5610621     589.0038  0.018900135  0.018587942            5 
 2598000   0.83392531    -7.527425    589.85038  0.018920015  0.018581041            9 
 2599000   0.83799023   -7.5585709    589.72239  0.018908631  0.018574173            8 
 2600000   0.82623382    -7.547218    591.48095  0.018957723  0.018567273           10 
 2601000   0.84662773   -7.5262501    589.78115  0.018895974  0.018560383            9 
 2602000   0.82976712   -7.5473089    589.44652  0.018877995  0.018553553           20 
 2603000    0.8260717   -7.5269678    590.47924  0.018903804  0.018546734           12 
 2604000   0.84707885   -7.5449554    590.30719  0.018891039  0.018539899           12 
 2605000   0.82338568   -7.5701717    590.97777  0.018905239  0.018533081           21 
 2606000   0.83850427    -7.566247    590.60038  0.018885916  0.018526215           14 
 2607000   0.84020091   -7.5685103    588.94287  0.018825689   0.01851935           20 
 2608000   0.83608136   -7.5542962    591.04437   0.01888562  0.018512522           12 
 2609000   0.82740514   -7.5562439     590.0243    0.0188458  0.018505731            9 
 2610000   0.80854816   -7.5365947      591.443  0.018883876  0.018498969           18 
 2611000   0.83220105    -7.535076    591.26709  0.018871029  0.018492213           16 
 2612000   0.81551945   -7.5532007    590.48795  0.018838947  0.018485455            7 
 2613000   0.82698955   -7.5290973    592.93362  0.018909734  0.018478677           19 
 2614000   0.82273758   -7.5823117    590.88554  0.018837208  0.018471909            7 
 2615000   0.81555867   -7.5695761    591.22668  0.018840876  0.018465137            7 
 2616000   0.82143363   -7.5312836    592.93997  0.018888251  0.018458393           10 
 2617000   0.82808977   -7.5943286    590.96825  0.018818248  0.018451644            8 
 2618000   0.82269878   -7.5491724    591.14948  0.018816828  0.018444886            8 
 2619000   0.82607066   -7.5328458    593.16282  0.018873706  0.018438189            8 
 2620000   0.81851405   -7.5446777     591.7569  0.018821784  0.018431477           14 
 2621000   0.82664051   -7.5688085    591.58593  0.018809167  0.018424709           10 
 2622000   0.83790554   -7.5592701    591.40652  0.018796292  0.018417937           26 
 2623000   0.84368742   -7.5418968    591.02258  0.018776928  0.018411175           16 
 2624000   0.82373514   -7.5553044    592.04659  0.018802293  0.018404429           19 
 2625000   0.83537983   -7.5750633    591.11813  0.018765655  0.018397671           39 
 2626000   0.82666254   -7.5695803    590.91716  0.018752131  0.018390866           16 
 2627000   0.84308664   -7.5476372    591.54022  0.018764758  0.018384097           13 
 2628000   0.82843893   -7.5517787    591.46179   0.01875513  0.018377361           16 
 2629000   0.81745825   -7.5352864    590.18528  0.018707534  0.018370614           10 
 2630000   0.82004487   -7.5350001    592.51735  0.018774314  0.018363872           11 
 2631000   0.84377235   -7.5577921    592.51408  0.018767075   0.01835717           14 
 2632000   0.83119393    -7.529368    592.52771  0.018760376  0.018350445            8 
 2633000   0.82268513   -7.5613152    593.24234  0.018775868  0.018343718           25 
 2634000    0.8119886   -7.5343097    594.90137  0.018821228  0.018336985           25 
 2635000   0.83398796   -7.5901178    591.78788  0.018715619  0.018330263           18 
 2636000   0.82085128   -7.5664217    591.00481  0.018683764  0.018323516           31 
 2637000   0.82844002   -7.5524289     592.4694  0.018722962  0.018316804           12 
 2638000   0.83425353   -7.5732555    591.01943   0.01867006  0.018310087           35 
 2639000   0.83077905   -7.5824784    592.50674  0.018709951  0.018303344           13 
 2640000   0.82925654   -7.5869055    591.09026  0.018658152  0.018296629           18 
 2641000   0.84598709   -7.5474308     592.3808  0.018691809  0.018289902           13 
 2642000   0.83432839   -7.5651163    591.92079  0.018670224  0.018283221           14 
 2643000   0.84390437   -7.5726137    593.47394  0.018712131  0.018276552           11 
 2644000   0.84773665   -7.5792725    592.41342  0.018671628  0.018269886           17 
 2645000    0.8293614   -7.5647614    593.09786  0.018686133  0.018263221           18 
 2646000    0.8437264   -7.5484657    592.87367   0.01867201  0.018256543            7 
 2647000   0.81731037    -7.585909    591.73608  0.018629142  0.018249885           10 
 2648000    0.8306414   -7.5879317    591.53843  0.018615887  0.018243182            7 
 2649000   0.81992236    -7.574318    592.63139  0.018643242  0.018236477            6 
 2650000   0.82090623   -7.5284572    593.92004  0.018676731  0.018229797           10 
 2651000   0.82511322   -7.5520788    593.48229  0.018655925   0.01822316            5 
 2652000   0.83022211    -7.525302    595.12427  0.018700486  0.018216543            6 
 2653000   0.81664682   -7.5555432    593.48572  0.018641969  0.018209932           20 
 2654000   0.81710615   -7.5652716    593.44064  0.018633529  0.018203323            6 
 2655000   0.81981846   -7.5411003     593.9102  0.018641249  0.018196674            8 
 2656000   0.81407673   -7.5777425    592.06311  0.018576277  0.018190028            7 
 2657000   0.82893035   -7.5826225    593.02012  0.018599301  0.018183389           12 
 2658000   0.83022853   -7.5743693    593.54666  0.018608812  0.018176766            6 
 2659000   0.83847689   -7.6005014    591.84037  0.018548338  0.018170112           13 
 2660000   0.82209725   -7.5496049    592.93891  0.018575781  0.018163489           50 
 2661000   0.81887966   -7.5637063    593.81146  0.018596125  0.018156871           21 
 2662000   0.81706788   -7.5516366    594.88394  0.018622713   0.01815028           16 
 2663000   0.82719012    -7.604142    593.50364  0.018572526  0.018143682           41 
 2664000   0.84595111   -7.5783245    593.11487  0.018553393  0.018137057            9 
 2665000    0.8319979   -7.5672682     594.1756    0.0185796  0.018130447           12 
 2666000   0.82448804   -7.6011408    594.76362  0.018591011  0.018123796           10 
 2667000   0.83569975   -7.5726792    593.08431  0.018531568  0.018117169           34 
 2668000   0.83387723   -7.5594893    594.26751  0.018561579  0.018110567           15 
 2669000   0.83322159   -7.5682513    595.14896  0.018582146  0.018103959           23 
 2670000   0.82051967     -7.56199    594.81975  0.018564911  0.018097383           34 
 2671000   0.82020985   -7.5479713    595.69026   0.01858512  0.018090801           12 
 2672000   0.82986767   -7.5855395    593.25527  0.018502223  0.018084188           11 
 2673000    0.8392845   -7.5651988    595.14201  0.018554122  0.018077614           16 
 2674000   0.82598751   -7.5406777    595.34364  0.018553467  0.018071045           11 
 2675000   0.80009547   -7.5612778    593.92612  0.018502371  0.018064483            8 
 2676000   0.81885645    -7.563421    596.36287   0.01857134   0.01805792           13 
 2677000   0.83782776   -7.5700263     595.1168  0.018525613  0.018051392            9 
 2678000   0.80711326    -7.588625    594.11384  0.018487486  0.018044827           15 
 2679000   0.82052958   -7.5685699    595.14688  0.018512719  0.018038228           13 
 2680000   0.81934576   -7.6057821    593.21143  0.018445629  0.018031663           23 
 2681000   0.82440788    -7.586304    594.69138   0.01848475  0.018025103           13 
 2682000   0.81939348   -7.5885017    595.29607  0.018496647  0.018018588           18 
 2683000   0.81235252   -7.5742074    594.71882  0.018471823  0.018012075           16 
 2684000   0.80409761    -7.592305    595.82134  0.018499172  0.018005541           10 
 2685000     0.822143   -7.6014973    594.10528  0.018439022  0.017999014           22 
 2686000   0.80669518   -7.5737832    595.61047  0.018478855  0.017992449            8 
 2687000    0.8481436   -7.6162795    594.89407   0.01844976   0.01798591            9 
 2688000   0.83487772   -7.5898602    595.61251   0.01846517  0.017979367           16 
 2689000   0.83233595   -7.6113523    595.01255   0.01843971  0.017972824           20 
 2690000   0.84162719   -7.5929486      594.889  0.018429027  0.017966296            8 
 2691000   0.82465991   -7.5834014    594.93281  0.018423535  0.017959745           18 
 2692000    0.7958309   -7.6477993    595.69039  0.018440143  0.017953186            7 
 2693000   0.80788293   -7.5568395    595.15177  0.018416629  0.017946627           19 
 2694000   0.83218417   -7.6267492    594.06331  0.018376123  0.017940029            6 
 2695000   0.83846918   -7.6161616    595.12452  0.018402119  0.017933485            9 
 2696000   0.80885134   -7.5895094    595.58007  0.018409374  0.017926971            8 
 2697000   0.81610102   -7.6030395     595.8033  0.018409446  0.017920437           16 
 2698000   0.81496717   -7.5720165    594.46263  0.018361213  0.017913931            6 
 2699000   0.81400682    -7.581715    595.37689  0.018382638  0.017907436           10 
 2700000   0.83790752   -7.5866988    595.19104  0.018370094  0.017900913           10 
 2701000   0.80463312   -7.5812184     596.9432  0.018417352  0.017894409           10 
 2702000    0.8257063   -7.5928044    594.58286  0.018337739   0.01788788           20 
 2703000   0.81075373   -7.5763646    595.76416  0.018367375  0.017881368           17 
 2704000   0.81978248   -7.6314674    595.13706  0.018341255  0.017874868            7 
 2705000   0.81472993   -7.6196243    594.73288  0.018322023  0.017868367            9 
 2706000   0.81342832   -7.5976355    595.72585  0.018345832  0.017861859            7 
 2707000   0.82508833   -7.5840124    595.64203  0.018336474  0.017855343           13 
 2708000   0.82634066   -7.6184811    595.74813  0.018332968  0.017848844            7 
 2709000   0.81169393    -7.601178    595.63693   0.01832278  0.017842353           17 
 2710000   0.82226929    -7.609805    595.10615  0.018299697  0.017835906           10 
 2711000   0.80806536    -7.546603    597.43049  0.018364395  0.017829427            7 
 2712000   0.81789924   -7.6042886    596.06354   0.01831562  0.017822943           21 
 2713000   0.83065401   -7.6154961     594.8227  0.018270755  0.017816435           16 
 2714000   0.82144273   -7.6330939    594.45588   0.01825276  0.017809951           37 
 2715000   0.82783182   -7.5871068    596.56962  0.018310915  0.017803447           14 
 2716000   0.80069422   -7.5961718    595.33109  0.018266173  0.017797005           17 
 2717000   0.80142492     -7.59222    596.61775  0.018298913   0.01779054           16 
 2718000   0.82704176   -7.5991482    596.02265  0.018273935  0.017784095            9 
 2719000   0.81429444   -7.6172239    596.19749  0.018272572  0.017777642           10 
 2720000   0.81843363   -7.6214182     595.3441  0.018239709  0.017771124            7 
 2721000   0.81688306   -7.6050348    596.40512    0.0182655  0.017764596            8 
 2722000   0.82110159   -7.6139686    594.75096  0.018208148  0.017758084            8 
 2723000   0.81760645    -7.634977    594.71723  0.018200429  0.017751556           12 
 2724000    0.8072414   -7.6242062    595.64351  0.018222085  0.017745015           15 
 2725000   0.81660205   -7.6438343    594.63079  0.018184428   0.01773848           11 
 2726000   0.81052412   -7.6356696    596.60767   0.01823819  0.017731958           13 
 2727000   0.80776636   -7.6372444    596.03388  0.018213968  0.017725436           12 
 2728000   0.80926907   -7.6567165    595.46355  0.018189869  0.017718915           18 
 2729000   0.80354746   -7.6612522    595.99182  0.018199335  0.017712379           19 
 2730000   0.80871511   -7.6247436    595.14075   0.01816669  0.017705861           11 
 2731000   0.82641399   -7.6355564    596.89757  0.018213645  0.017699406           13 
 2732000   0.83865983    -7.627137    597.02742  0.018210939  0.017692925           11 
 2733000   0.82664788    -7.645627    596.40374  0.018185258  0.017686456            4 
 2734000   0.80498158   -7.6510071    595.89834  0.018163202  0.017679987           13 
 2735000    0.8078101   -7.6390485    595.39952  0.018141363   0.01767349            8 
 2736000   0.80378185   -7.6087512    597.81506  0.018208305  0.017667035            8 
 2737000    0.8146181   -7.6100533    596.33749  0.018156665  0.017660573            4 
 2738000   0.82456892   -7.6442018    594.78072  0.018102652  0.017654127            9 
 2739000   0.79828234    -7.626945    596.90227   0.01816059  0.017647686            6 
 2740000   0.81104981   -7.6345383    597.57186  0.018174327  0.017641238           26 
 2741000   0.82939382   -7.6061399    595.97745  0.018119222  0.017634801           10 
 2742000   0.80094343   -7.6183936    597.11926  0.018147315  0.017628396            8 
 2743000   0.81042874    -7.581654    596.92728  0.018134867  0.017621976           12 
 2744000   0.80733413    -7.602903      597.503  0.018145742  0.017615565           10 
 2745000   0.81331625   -7.6084687    597.00701  0.018124075  0.017609146           12 
 2746000   0.83291936   -7.6225591    597.22218  0.018124004  0.017602723           10 
 2747000   0.79744308   -7.6497842    597.72486  0.018132656  0.017596325            9 
 2748000   0.80729028   -7.6266834    597.25158  0.018111705  0.017589916           12 
 2749000   0.82287066   -7.6280275    596.54945  0.018083832  0.017583468            6 
 2750000   0.79967012   -7.6041661    598.12321  0.018124946  0.017577081           15 
 2751000   0.83286955   -7.6101081    598.15204  0.018119231  0.017570661            6 
 2752000   0.79780767   -7.6222695    594.54721  0.018003489  0.017564224            7 
 2753000   0.81361545   -7.6313632    596.06412  0.018042866  0.017557764            5 
 2754000   0.81637561   -7.6590675    594.95554   0.01800277   0.01755128           16 
 2755000    0.8253607   -7.6350506    597.12482  0.018061852  0.017544816           11 
 2756000   0.81856296   -7.6224851    597.12227  0.018055221  0.017538341           18 
 2757000   0.82855416   -7.6127716    597.03283  0.018045969  0.017531888           12 
 2758000   0.81538816   -7.6157704    596.21044  0.018014577  0.017525446           27 
 2759000   0.79350537   -7.6365709    597.84798  0.018057508  0.017518993           19 
 2760000   0.81092584   -7.6195388    596.83975  0.018020524  0.017512538           19 
 2761000   0.81471616   -7.6197226    596.19459  0.017994525  0.017506098           18 
 2762000   0.81978857   -7.5996989    597.82336  0.018037152  0.017499711           16 
 2763000   0.80892596   -7.6459674    595.47381   0.01795976  0.017493283           31 
 2764000   0.80675243    -7.606759     596.9392  0.017997443  0.017486834           20 
 2765000   0.80461016   -7.6423388    596.96725   0.01799178  0.017480384           11 
 2766000   0.80242755   -7.6750594    594.93092  0.017923925  0.017473902           14 
 2767000   0.79122241   -7.6346319    596.16009  0.017954466  0.017467429           18 
 2768000   0.79470131   -7.6686138    595.97505  0.017942409  0.017460951           11 
 2769000   0.79900549   -7.6433082    594.87473  0.017902815  0.017454462           13 
 2770000    0.8146025    -7.681686    595.90726  0.017927415  0.017447969           15 
 2771000    0.7994087   -7.6661899    594.91945  0.017891238  0.017441461            9 
 2772000   0.81494486   -7.6774798    595.36563  0.017898197  0.017434954           18 
 2773000   0.80490514   -7.6492363    596.24305  0.017918111  0.017428478            6 
 2774000   0.81288641   -7.6710184    595.43339  0.017887328  0.017422018            6 
 2775000   0.80492977   -7.6558506    595.98971  0.017897589  0.017415545           12 
 2776000   0.79605428   -7.6452066    597.49012  0.017936183  0.017409077            7 
 2777000   0.81069162   -7.6630473    596.21598  0.017891489  0.017402628           11 
 2778000   0.79302248   -7.6639616    594.49228  0.017833342  0.017396179           16 
 2779000   0.80698327   -7.6691457    596.07059  0.017874253  0.017389722           14 
 2780000   0.81251994   -7.6700776    596.46309  0.017879589  0.017383269           16 
 2781000   0.82609201   -7.6712961    595.94844  0.017857738   0.01737682           22 
 2782000    0.8108594   -7.6347684    596.42203  0.017865505  0.017370402           18 
 2783000   0.80101346   -7.6535416    596.85711  0.017872114  0.017364009           32 
 2784000   0.81747346   -7.6491066    596.34599  0.017850395  0.017357605           18 
 2785000   0.80034612   -7.6594664    597.82193  0.017888149  0.017351193           33 
 2786000   0.82880707   -7.6415506    597.30728  0.017866334  0.017344751           16 
 2787000    0.8123787   -7.6901969     595.9898   0.01782053  0.017338312           17 
 2788000   0.81484767   -7.6788194    595.01103  0.017784883  0.017331881           22 
 2789000    0.8092465   -7.6533667     597.0902   0.01784063  0.017325445           24 
 2790000   0.80812051    -7.632745    597.61877  0.017850023  0.017319035           12 
 2791000   0.79429118    -7.649274     596.3563  0.017805933  0.017312657           23 
 2792000   0.80499932   -7.6505207    598.05125  0.017850145  0.017306277           20 
 2793000   0.82017628   -7.6446013    598.89149  0.017868823  0.017299905            8 
 2794000   0.82143762    -7.660305    596.33324  0.017786126  0.017293531           14 
 2795000   0.80649282   -7.6600095    596.52318  0.017785426  0.017287156           25 
 2796000   0.80305219   -7.6637786    599.05773  0.017854606  0.017280808           11 
 2797000   0.80121067   -7.6523613    597.37611   0.01779812  0.017274467           19 
 2798000   0.81823339   -7.6684445     597.9004  0.017807374   0.01726811           21 
 2799000   0.79398817   -7.6452213    599.18964  0.017839396  0.017261767           33 
 2800000   0.80634357   -7.6439237    598.41839  0.017810071  0.017255433           19 
 2801000    0.7942819   -7.6504609    597.70293  0.017782427  0.017249106           30 
 2802000   0.81986512   -7.6443139    598.33593  0.017794906  0.017242798           13 
 2803000   0.79370783   -7.6788097    596.74554  0.017741276  0.017236447           20 
 2804000   0.79320477     -7.63471    599.48278  0.017816298  0.017230119           18 
 2805000   0.78954284   -7.6635032    598.38098  0.017777213  0.017223781           62 
 2806000    0.8037338   -7.6535161    599.75128  0.017811573  0.017217432           34 
 2807000   0.80627083   -7.6712221      598.857  0.017778678  0.017211091           26 
 2808000   0.80336205   -7.6717313    599.08917  0.017779237  0.017204766           14 
 2809000   0.79155301   -7.6635021    597.17593  0.017716148   0.01719848            8 
 2810000   0.79100558   -7.6470425    597.00321  0.017704721  0.017192141           20 
 2811000    0.8078087   -7.6454385    598.31752  0.017737386  0.017185831           35 
 2812000   0.80369574   -7.6760846    598.28458  0.017730102  0.017179525           18 
 2813000    0.8112288     -7.67158    598.61449  0.017733573   0.01717323           38 
 2814000   0.80484666    -7.681875    598.39681  0.017720825    0.0171669           35 
 2815000   0.78755273   -7.6854861     598.0637  0.017704668  0.017160572           30 
 2816000   0.78274199   -7.6572653    597.98055  0.017695921  0.017154249           73 
 2817000   0.80562113   -7.6857071    598.49707  0.017704919  0.017147945           64 
 2818000   0.81765088   -7.6927501    598.88387  0.017710074  0.017141632           54 
 2819000   0.79871597   -7.6967347    598.51564  0.017692906  0.017135298           73 
 2820000   0.80277655   -7.6447269    598.70307  0.017692171  0.017128998           41 
 2821000   0.80575539   -7.6681006    598.55696  0.017681583  0.017122696           74 
 2822000   0.79665674    -7.671874    600.24381   0.01772513  0.017116387           68 
 2823000   0.79530618   -7.6834877    597.42255  0.017635569  0.017110085           49 
 2824000   0.77918772   -7.6770193    597.59198  0.017634324  0.017103799           35 
 2825000   0.79590157   -7.7027423     598.1491  0.017644516  0.017097473           33 
 2826000    0.7941673   -7.6805792    598.89777  0.017660349  0.017091141           30 
 2827000   0.80563835   -7.6968634    597.36377  0.017608884  0.017084841           44 
 2828000    0.7815496   -7.7111715    597.93705   0.01761955  0.017078555           29 
 2829000   0.79671652   -7.7055244    597.49079  0.017600176  0.017072242           26 
 2830000   0.81079605   -7.7137857     598.3692  0.017619823   0.01706593           22 
 2831000   0.79102755   -7.7019544    597.57317  0.017590168  0.017059602           55 
 2832000   0.81815926   -7.6996828    597.40471  0.017578999  0.017053309           27 
 2833000   0.80424097   -7.6825634    599.31798  0.017629073  0.017047018           21 
 2834000   0.80420776    -7.688941    599.65359  0.017632721  0.017040746           48 
 2835000   0.80326013   -7.6879539    598.59944  0.017595516  0.017034457           42 
 2836000   0.79946241   -7.7138153    598.45855  0.017585171  0.017028151           26 
 2837000   0.81421766   -7.6754402    598.56471  0.017582091  0.017021849           49 
 2838000   0.79574915   -7.7218687    598.67176  0.017579039  0.017015537           23 
 2839000   0.80580544   -7.7130327    598.41369  0.017565272  0.017009224           14 
 2840000   0.79645086   -7.7160509     598.1764  0.017552125  0.017002921           31 
 2841000    0.7893544    -7.680292    597.65037  0.017530517  0.016996629           15 
 2842000   0.80680434   -7.6943342    598.42883  0.017547174   0.01699035           63 
 2843000    0.7952342   -7.6889744    598.40544  0.017540317  0.016984079           19 
 2844000   0.78916523   -7.6742904    600.65374  0.017600028    0.0169778           96 
 2845000   0.79755389   -7.6816196    598.86852   0.01754155  0.016971543           57 
 2846000   0.79555969   -7.6930253    598.71463   0.01753088  0.016965265           36 
 2847000   0.79992051    -7.696611    597.88809   0.01750053  0.016959001           51 
 2848000   0.80418968   -7.6788477    598.27314  0.017505651  0.016952712           19 
 2849000   0.79882943   -7.6928565    598.05205   0.01749304  0.016946426           28 
 2850000   0.78993934   -7.6656874     599.3776  0.017525661   0.01694018           22 
 2851000   0.81926093   -7.6325356    601.36561  0.017577622   0.01693394           40 
 2852000   0.79648283   -7.7021645    599.99913  0.017531531  0.016927727           34 
 2853000   0.79701727   -7.6424728    600.14995  0.017529792  0.016921493           39 
 2854000   0.80689334   -7.6806501    598.85233  0.017485761  0.016915268           15 
 2855000   0.80994547    -7.701686    597.75556  0.017447623  0.016909007           34 
 2856000    0.7761946   -7.6980607    598.72765  0.017469878  0.016902768           14 
 2857000   0.78403327   -7.6375106    601.08522  0.017532529  0.016896546           40 
 2858000   0.79752786   -7.6801517    599.78997  0.017488627  0.016890302           26 
 2859000   0.79214323    -7.655546    599.01949  0.017460053  0.016884086           29 
 2860000   0.80548491   -7.6554378     600.7315  0.017503831  0.016877897           48 
 2861000   0.77310537   -7.6959141    600.13648  0.017480382  0.016871679           43 
 2862000   0.78073416   -7.6699508    598.76029  0.017434204  0.016865469           24 
 2863000   0.79357694   -7.7146184    599.20962  0.017441193  0.016859255           56 
 2864000   0.81512128   -7.7288327    599.04184  0.017430221  0.016852988           46 
 2865000   0.79600487   -7.7103763    599.50971  0.017437746  0.016846722           29 
 2866000   0.79408373   -7.6759528    600.35301  0.017456182  0.016840479           41 
 2867000   0.79503412   -7.6691334    598.41643  0.017393804  0.016834234           22 
 2868000   0.79578713   -7.6910311     599.1263  0.017408365  0.016827995           45 
 2869000   0.81501926   -7.6931598    598.85985  0.017394558  0.016821755           32 
 2870000   0.80258642   -7.7298842    598.38789  0.017374794   0.01681551           52 
 2871000   0.78271907   -7.7127089    598.02607   0.01735824  0.016809284           39 
 2872000   0.77870576    -7.702933    599.31764  0.017389672  0.016803052           50 
 2873000   0.78799076   -7.7211237     598.9969  0.017374315  0.016796819           49 
 2874000   0.79300882   -7.6842027    600.33903  0.017407186  0.016790607           30 
 2875000   0.78206039   -7.7176288    598.98539  0.017361895  0.016784402           31 
 2876000   0.79659488   -7.7074468    599.91377  0.017382759  0.016778176           21 
 2877000   0.80922528   -7.7089932     599.2243  0.017356746  0.016771955           44 
 2878000   0.78968314   -7.6661871    599.35006  0.017354357  0.016765777           42 
 2879000   0.77705482   -7.6832553     599.8821  0.017363729    0.0167596           22 
 2880000   0.79033355   -7.6935036       599.08  0.017334491  0.016753411           38 
 2881000   0.78601573   -7.6839495    599.51715  0.017341118   0.01674724           19 
 2882000   0.77340065   -7.7137791    599.23297  0.017326884   0.01674106           16 
 2883000   0.77468635   -7.7138115    597.93332  0.017283308  0.016734855           24 
 2884000   0.77630707    -7.703914    598.88394  0.017304783  0.016728647           51 
 2885000   0.77789725   -7.7169577     599.2419  0.017309125  0.016722428           22 
 2886000    0.7994768    -7.718947    599.52185  0.017311211  0.016716226           20 
 2887000   0.79547315   -7.6997906    600.09994  0.017321901  0.016710047           23 
 2888000   0.78979149   -7.6980913    599.89897  0.017310104  0.016703887           13 
 2889000   0.77452471   -7.7202766    598.15139  0.017253703  0.016697711           16 
 2890000   0.78792013   -7.6823019    600.62118   0.01731895  0.016691516           21 
 2891000    0.7948313   -7.7235887    599.48096  0.017280092  0.016685335           17 
 2892000   0.76981621    -7.728452    598.92171  0.017258002  0.016679134           59 
 2893000   0.78515935   -7.6929607    599.47768  0.017268052  0.016672928           27 
 2894000   0.78329107   -7.7315182    599.69236  0.017268266  0.016666732           35 
 2895000   0.79203516   -7.7211854    599.19594  0.017248012  0.016660528           39 
 2896000   0.79877111   -7.6983374    599.89158  0.017262074  0.016654365           57 
 2897000    0.7773242   -7.7103251    599.81939  0.017254038  0.016648208           40 
 2898000   0.79717246   -7.7171896    600.81822  0.017276807  0.016642041           44 
 2899000   0.77826739    -7.711412    598.77142   0.01721201  0.016635861           28 
 2900000   0.78699561    -7.708125    600.49136  0.017255499  0.016629699           50 
 2901000    0.7918008   -7.7016052    600.54838  0.017251189   0.01662352           24 
 2902000    0.7911483   -7.7043569    599.93197  0.017227543  0.016617352           29 
 2903000   0.77780544   -7.6990628     600.0475  0.017224925  0.016611186           31 
 2904000   0.80152346   -7.6912676    600.18173  0.017222846  0.016605012           50 
 2905000   0.77603933   -7.7286636    597.65194  0.017144347  0.016598832           51 
 2906000   0.78862817   -7.7125975    599.71402   0.01719758  0.016592656           45 
 2907000   0.76594493   -7.7029071    599.87819   0.01719637  0.016586468           44 
 2908000   0.78073072   -7.7499957    598.23959  0.017143501   0.01658028           91 
 2909000   0.79116935   -7.7078661    601.34704  0.017226626  0.016574106           54 
 2910000   0.78828685   -7.7314959    599.33353  0.017163045  0.016567914           86 
 2911000   0.79661554   -7.7512849    599.20574  0.017153491  0.016561756          113 
 2912000   0.79599001   -7.6964368    598.13677  0.017117009  0.016555582          120 
 2913000   0.78614068   -7.7079859    600.01968  0.017164998  0.016549408          123 
 2914000    0.7821492    -7.753563    598.80941  0.017124497  0.016543245           99 
 2915000   0.80966862   -7.7478101    598.38546  0.017106502  0.016537057           50 
 2916000   0.79125083   -7.7209018    600.73126  0.017167674  0.016530895           38 
 2917000   0.77181423   -7.6952928    599.71658  0.017132801  0.016524727           34 
 2918000   0.77373639   -7.7175937    599.18936  0.017111873  0.016518552           36 
 2919000    0.7833044   -7.7253819    599.52134  0.017115489  0.016512388           40 
 2920000    0.7794715   -7.7446016    598.99496  0.017094605  0.016506215           34 
 2921000   0.77694406   -7.7354588    598.88078  0.017085495  0.016500041           46 
 2922000   0.78038403   -7.7534986    598.51105  0.017069104  0.016493854           45 
 2923000   0.77581176   -7.7558557    598.94301  0.017075579  0.016487678           41 
 2924000   0.79485809    -7.707649    599.89745   0.01709694  0.016481513           32 
 2925000   0.78751401   -7.7304878    599.78821  0.017087983  0.016475361           32 
 2926000   0.78778689   -7.7468844    599.05279  0.017061198  0.016469225           27 
 2927000    0.7894389   -7.7253619    598.22219  0.017031722  0.016463088           38 
 2928000   0.77596522   -7.7575331     598.8833  0.017044721  0.016456955           33 
 2929000   0.78403548   -7.7432002    599.42345  0.017054269    0.0164508           36 
 2930000   0.76610088     -7.76791    599.67034   0.01705547  0.016444641           64 
 2931000   0.78573104   -7.7488878    599.53275   0.01704574  0.016438483           83 
 2932000   0.78126912   -7.7127291    599.41688  0.017036633  0.016432354           62 
 2933000   0.76389224   -7.7259529    600.04711   0.01704873   0.01642622           69 
 2934000   0.76425687   -7.7397559    600.03513  0.017042579  0.016420108           39 
 2935000   0.78397503   -7.7661156    600.28863   0.01704397  0.016413998           54 
 2936000   0.79186762    -7.726894     600.6048  0.017047139  0.016407885           66 
 2937000   0.79606902   -7.7398058    600.34261  0.017033895  0.016401753           57 
 2938000   0.79800834   -7.7464654    600.01199   0.01701872  0.016395633           49 
 2939000   0.78930011   -7.7310835    600.29352  0.017020912  0.016389505           72 
 2940000    0.7631024   -7.7689488    600.25086  0.017013913  0.016383387           50 
 2941000   0.77738063   -7.7594672    600.21407  0.017007086  0.016377258           65 
 2942000   0.76488267   -7.7532378    598.80788  0.016961474  0.016371113           55 
 2943000   0.79061905   -7.7619121    599.21354  0.016967197  0.016364977           16 
 2944000   0.78777378   -7.7479479    599.93168  0.016981762  0.016358842          117 
 2945000   0.77991441   -7.7710818    600.45856  0.016990904  0.016352698           86 
 2946000   0.78759559   -7.7092629     600.2908  0.016980391  0.016346585           75 
 2947000   0.78365012   -7.7342601    600.85836  0.016990679  0.016340488           90 
 2948000   0.76133487   -7.7720728    599.09279  0.016935007  0.016334374           97 
 2949000   0.78083086   -7.7727174    598.90115  0.016923848  0.016328263           69 
 2950000   0.79182135   -7.7388213    599.94675  0.016947648  0.016322153           94 
 2951000    0.7670873   -7.7449154    599.05597  0.016916751  0.016316055           82 
 2952000    0.7583912   -7.7383577    600.07126  0.016939681  0.016309969           77 
 2953000   0.76298236   -7.7752205    600.63134   0.01694975  0.016303875          131 
 2954000   0.78422524   -7.7268874    602.44806  0.016995262  0.016297773          120 
 2955000   0.77210007   -7.7351056    599.50897  0.016906626  0.016291694           87 
 2956000   0.76500562   -7.7926062    599.62295   0.01690412  0.016285606          122 
 2957000   0.77996847   -7.7440137    600.73948  0.016929869  0.016279475          102 
 2958000   0.75408129   -7.7512428    599.25256  0.016882256  0.016273391          137 
 2959000   0.76737436    -7.732893    598.94131  0.016867785  0.016267303          151 
 2960000   0.78191236    -7.779938    599.47515  0.016877116  0.016261201          164 
 2961000   0.76518322   -7.7926272    598.34262  0.016839542  0.016255069          167 
 2962000   0.75580022   -7.7762119    599.66232  0.016870986  0.016248947          122 
 2963000   0.76307292    -7.759225    599.94287  0.016873182  0.016242841          129 
 2964000   0.78551841   -7.7662491    600.65242  0.016887439  0.016236733          164 
 2965000   0.77624284   -7.8018243    599.95081  0.016862024  0.016230621          162 
 2966000   0.76161593   -7.7660028     600.0646  0.016859536   0.01622453           96 
 2967000   0.77759742   -7.7859656    599.20703  0.016829767  0.016218422          115 
 2968000   0.77844683   -7.7643636    600.54209  0.016861582  0.016212322           97 
 2969000   0.78476688   -7.7971796    599.63292  0.016830384  0.016206211           90 
 2970000   0.76908441   -7.7711522    600.56031  0.016850738  0.016200117          107 
 2971000   0.75970176   -7.7866446    599.42112  0.016813114  0.016194005          114 
 2972000   0.77510675    -7.808063    599.11266  0.016798807  0.016187898          138 
 2973000   0.76563501   -7.8119164    599.71917  0.016810157  0.016181794          202 
 2974000   0.79868604   -7.8140934    598.95084  0.016782976  0.016175656          178 
 2975000   0.75896533   -7.7858754    598.88861  0.016775591  0.016169535          169 
 2976000   0.77175559   -7.7835512    599.79962  0.016795464  0.016163412          194 
 2977000   0.76760639   -7.7891559    598.79675   0.01676175  0.016157293          210 
 2978000   0.76921821   -7.8025331    599.41914  0.016773538  0.016151182          200 
 2979000   0.78687711    -7.796521    599.85486  0.016780096  0.016145062          211 
 2980000   0.76593171   -7.7976912    598.34393  0.016732213  0.016138968          180 
 2981000   0.77052437   -7.7859072    598.67412   0.01673583  0.016132878          158 
 2982000   0.77195955   -7.7901889    598.54121  0.016726504  0.016126782          153 
 2983000   0.75808833   -7.7788538    599.49617  0.016747574  0.016120661          175 
 2984000   0.79362254   -7.7919929    599.19574  0.016733572  0.016114544          187 
 2985000   0.75281977   -7.7923132    598.10099  0.016697403  0.016108423          190 
 2986000   0.77645058   -7.7971719    598.56295  0.016704704  0.016102306          202 
 2987000    0.7959322    -7.780545    600.46699  0.016752232  0.016096227          213 
 2988000   0.78164692   -7.8161709    598.64197  0.016695727  0.016090131          217 
 2989000   0.76952942   -7.7933387    598.94183  0.016698501  0.016084022          266 
 2990000   0.76466164   -7.8022963      599.871  0.016718813  0.016077922          276 
 2991000   0.78902814   -7.7776228    601.62509  0.016762094  0.016071831          226 
 2992000   0.77033119   -7.8167016    598.43033  0.016667511  0.016065732          258 
 2993000   0.78212542    -7.826872    597.39884  0.016633223  0.016059604          212 
 2994000   0.76825124   -7.7858334    598.91141  0.016669768  0.016053487          247 
 2995000   0.76248005   -7.8020371     598.3104  0.016647479  0.016047366          216 
 2996000   0.77347065   -7.7795753    597.68924  0.016624645  0.016041269          219 
 2997000   0.77142119   -7.8141485    599.96949  0.016682502  0.016035184          283 
 2998000   0.77250874   -7.8186173    598.83125  0.016645298   0.01602911          263 
 2999000   0.77661329    -7.827951    599.05114  0.016645858  0.016023023          242 
 3000000   0.77733411   -7.8249317    598.89737  0.016636038  0.016016923          229 
 3001000   0.77550979   -7.7815267      599.088  0.016635788  0.016010818          224 
 3002000   0.77464724   -7.7724992     599.5435  0.016642891  0.016004746          250 
 3003000    0.7902564   -7.8144988    599.28871  0.016630278  0.015998658          254 
 3004000   0.76067148   -7.8217863    598.89706  0.016613878  0.015992556          302 
 3005000   0.77841261   -7.8357029    598.05854  0.016585095  0.015986452          270 
 3006000   0.79073341    -7.823004    598.54236  0.016592991  0.015980343          296 
 3007000   0.76665118   -7.8298147    598.17658  0.016577336  0.015974222          272 
 3008000   0.76389302   -7.7963228    599.56059  0.016610167  0.015968111          261 
 3009000   0.77281429   -7.8271006    597.49645  0.016547481  0.015961992          276 
 3010000   0.78062151   -7.8249216      598.083  0.016558223  0.015955878          252 
 3011000    0.7793393   -7.7984289    599.16944  0.016582792   0.01594978          330 
 3012000   0.77926299    -7.802198    598.81936  0.016567601  0.015943669          250 
 3013000   0.78693748   -7.8113693    598.40284  0.016550582   0.01593757          238 
 3014000   0.77275627   -7.8359199    599.34627  0.016571175  0.015931454          321 
 3015000   0.76873307   -7.8289319    600.13869  0.016587581  0.015925351          238 
 3016000   0.77159064   -7.8423178    598.99263  0.016550415  0.015919246          211 
 3017000   0.77670755   -7.8354797    598.54312  0.016532513  0.015913148          375 
 3018000   0.77467405   -7.8172049    598.22305  0.016518198  0.015907048          304 
 3019000   0.76363838   -7.8431833    597.62647  0.016496259   0.01590094          212 
 3020000   0.78436657   -7.8418695    598.91815  0.016526439  0.015894838          226 
 3021000    0.7703051   -7.8394689    597.26614  0.016475398  0.015888733          312 
 3022000   0.77018417   -7.8491704    597.95658  0.016488986   0.01588262          260 
 3023000   0.76389361   -7.8439155    598.15828  0.016489091  0.015876503          257 
 3024000   0.78074429   -7.8311615    599.66233  0.016525086  0.015870392          236 
 3025000   0.76876753   -7.8465254     597.5643  0.016461827  0.015864301          276 
 3026000   0.75544978   -7.8445035    599.55075  0.016511091  0.015858202          272 
 3027000   0.77768538   -7.8585808    597.66729  0.016453785  0.015852098          252 
 3028000   0.77244618   -7.8475966    598.45027    0.0164699  0.015845988          311 
 3029000   0.77790569   -7.8793781    598.39307  0.016462888  0.015839876          260 
 3030000   0.76639607   -7.8702161     598.6036  0.016463245  0.015833777          270 
 3031000   0.78300457   -7.8631251    598.03555  0.016442196  0.015827669          366 
 3032000   0.75605124   -7.8363083    599.21841  0.016469283  0.015821578          280 
 3033000   0.75831772   -7.8302425    598.41772  0.016441854  0.015815491          281 
 3034000   0.76804441   -7.8322636    598.18551  0.016430057   0.01580941          273 
 3035000   0.74930183   -7.8463067    597.65016  0.016409944   0.01580333          292 
 3036000   0.76997323   -7.8383754    598.59162   0.01643038  0.015797235          251 
 3037000   0.76250948   -7.8523225    597.77845  0.016402658  0.015791161          263 
 3038000   0.75744069   -7.8445965    599.70321  0.016450055  0.015785091          258 
 3039000   0.75434401   -7.8395874    597.01225  0.016370853  0.015779021          245 
 3040000   0.77067387   -7.8242586    598.00336  0.016392636  0.015772954          358 
 3041000   0.77673451   -7.8545013    597.20087  0.016365255  0.015766878          257 
 3042000   0.75956907    -7.857927    599.23387  0.016415567  0.015760812          320 
 3043000   0.76993526   -7.8530554     597.7825  0.016370427  0.015754722          283 
 3044000   0.75743027   -7.8680016    596.97436  0.016342925  0.015748631          274 
 3045000   0.76245807   -7.8462493    597.95751  0.016364464  0.015742547          303 
 3046000   0.75481481   -7.8685279    597.86298  0.016356505   0.01573645          344 
 3047000   0.76479769   -7.8521776    598.88869   0.01637919  0.015730362          279 
 3048000   0.78716057   -7.8589867    598.92204  0.016374728  0.015724287          293 
 3049000    0.7512915   -7.8549505    598.79231  0.016365812  0.015718214          365 
 3050000   0.76998137   -7.8685695    597.83148  0.016334194  0.015712137          325 
 3051000   0.77035406   -7.8386809    599.18438  0.016365792  0.015706066          254 
 3052000   0.76236607   -7.8503595     598.9415  0.016353798  0.015699997          261 
 3053000   0.76586716   -7.8705505    597.72627  0.016315271  0.015693949          296 
 3054000   0.76376716   -7.8361906    599.24072  0.016351253  0.015687911          277 
 3055000   0.75656885   -7.8035609    599.41752  0.016350723  0.015681887          310 
 3056000   0.77319529   -7.8558161    597.38956  0.016290073  0.015675874          342 
 3057000    0.7694095   -7.8534298    599.02438  0.016329309  0.015669858          352 
 3058000   0.75476153   -7.8310315    598.86273  0.016319564  0.015663827          395 
 3059000   0.76604157   -7.8463542    598.06647  0.016292538  0.015657797          333 
 3060000   0.77600079   -7.8605723    598.15049  0.016289501  0.015651779          448 
 3061000   0.76256836   -7.8665014       598.96  0.016306218  0.015645762          352 
 3062000   0.76591579   -7.8577709    599.02162   0.01630257  0.015639744          364 
 3063000   0.75868716   -7.8538952    598.65416   0.01628725  0.015633721          407 
 3064000   0.75259469   -7.8438332     599.6491  0.016308994  0.015627708          476 
 3065000    0.7663791   -7.8476716     598.7749  0.016279905   0.01562169          417 
 3066000   0.75642336   -7.8628085    598.81451  0.016275672  0.015615677          413 
 3067000   0.76129895   -7.8614832    598.36203   0.01625807  0.015609665          483 
 3068000    0.7646397   -7.8703853    599.53622  0.016284665  0.015603664          442 
 3069000   0.76768917   -7.8596811    597.65601  0.016228305  0.015597665          514 
 3070000   0.76155068   -7.8544615    599.56631  0.016274873  0.015591669          441 
 3071000   0.78336705   -7.8840936    597.95034  0.016225723  0.015585677          400 
 3072000   0.76120705   -7.8770834    598.22151  0.016227797  0.015579661          515 
 3073000   0.75347349   -7.8734084    598.95638  0.016242444  0.015573638          397 
 3074000   0.76451927   -7.8445062    598.30485  0.016219498  0.015567609          337 
 3075000   0.76738294   -7.8847818    597.31897  0.016187506  0.015561601          410 
 3076000   0.74673046   -7.8574916    598.41748  0.016212004    0.0155556          456 
 3077000   0.76775288   -7.8665787    599.12153  0.016225802  0.015549595          417 
 3078000   0.75828242   -7.8627236    599.25386  0.016224114  0.015543572          394 
 3079000   0.76540136   -7.8704426    597.66573  0.016175862  0.015537561          335 
 3080000   0.76108756   -7.8659003    597.38205  0.016162934  0.015531532          344 
 3081000   0.74525586   -7.8722009    599.53111  0.016215815   0.01552553          401 
 3082000   0.75644008   -7.8383585    599.32279  0.016204921  0.015519543          441 
 3083000   0.76452346   -7.8700361     598.5629  0.016179125  0.015513536          453 
 3084000   0.74439626   -7.8895808    597.46364  0.016144175  0.015507538          360 
 3085000   0.75355507   -7.8746434    598.45304  0.016165668  0.015501526          332 
 3086000   0.75028387   -7.8749532    598.44593  0.016160238  0.015495526          390 
 3087000   0.76396103   -7.8838947    598.36644  0.016152857  0.015489518          453 
 3088000   0.75692766   -7.8439966    597.65741  0.016128492  0.015483541          433 
 3089000   0.76603114   -7.8666439    597.13488  0.016109174  0.015477555          368 
 3090000   0.76321749   -7.8920604    597.24352  0.016106891  0.015471577          405 
 3091000   0.76865833   -7.8759344    597.43006  0.016106709  0.015465583          458 
 3092000   0.74963232   -7.8573544    598.30357  0.016125042  0.015459568          401 
 3093000   0.75709449   -7.8761356    597.25597  0.016091604  0.015453549          420 
 3094000     0.747272     -7.88731    597.74294  0.016099519  0.015447527          405 
 3095000   0.75955456   -7.8713035    597.32149  0.016082969  0.015441497          413 
 3096000   0.76640808   -7.8789006    597.23587   0.01607547  0.015435484          422 
 3097000   0.76045587   -7.8908883    597.90036   0.01608816  0.015429463          403 
 3098000   0.74814049   -7.8920686    595.99054  0.016031594  0.015423445          349 
 3099000   0.75668921   -7.8694166     597.9189  0.016078275  0.015417429          489 
 3100000    0.7644588   -7.8867341    597.28163  0.016055958  0.015411439          378 
 3101000   0.75153386   -7.8691275    598.03955  0.016071148  0.015405445          449 
 3102000   0.77310852   -7.8451835    596.93582  0.016036316   0.01539946          545 
 3103000   0.75628293   -7.8659666    598.94034  0.016084981  0.015393508          448 
 3104000    0.7645288    -7.894432    597.57554  0.016043158  0.015387536          395 
 3105000   0.74924786   -7.8877998    597.80012  0.016044018  0.015381574          415 
 3106000   0.75628884    -7.843665    599.38151  0.016081281  0.015375621          440 
 3107000   0.76418361   -7.8779428    596.99913  0.016012207  0.015369669          435 
 3108000   0.76448288   -7.8833684    598.10553   0.01603672  0.015363685          606 
 3109000   0.75702205     -7.86713    598.22839  0.016034856  0.015357712          573 
 3110000   0.74942255    -7.893175    597.21349  0.016002505  0.015351735          607 
 3111000    0.7498077   -7.9024768    598.35477  0.016027932  0.015345743          466 
 3112000   0.76834577   -7.9206189    597.12362  0.015989814  0.015339741          535 
 3113000   0.76413986   -7.8910874    596.13827    0.0159583  0.015333759          450 
 3114000    0.7385227   -7.8947242    597.35231  0.015985664  0.015327765          458 
 3115000   0.74523927   -7.8989485    596.41591  0.015955482  0.015321756          586 
 3116000   0.76465213   -7.8771605    597.84043  0.015988458  0.015315756          429 
 3117000    0.7526237   -7.8952275    596.90782  0.015958395  0.015309786          536 
 3118000   0.75880951    -7.865229    598.37244  0.015992421  0.015303805          500 
 3119000   0.76045172   -7.8821228    598.10602  0.015980176  0.015297827          382 
 3120000   0.75790681   -7.9096924    597.93282  0.015970428  0.015291855          458 
 3121000   0.76705428   -7.8979419    597.89507  0.015964303  0.015285871          521 
 3122000   0.74440514   -7.8951428    597.24904  0.015941945  0.015279893          621 
 3123000   0.76325737   -7.9212015    596.82924  0.015925639  0.015273913          484 
 3124000   0.74313313   -7.8961907    596.86633   0.01592153   0.01526794          523 
 3125000   0.77264894   -7.9213299    597.77689  0.015940717  0.015261989          495 
 3126000    0.7570538   -7.8998799    598.83343  0.015963783  0.015256026          506 
 3127000   0.74910296   -7.8912746    597.63068  0.015926625   0.01525005          609 
 3128000    0.7447057   -7.8947362    597.10104  0.015907423  0.015244074          567 
 3129000   0.75134876   -7.9195601    596.69707  0.015891581  0.015238101          450 
 3130000   0.75820468   -7.9224057     595.8237  0.015863251  0.015232129          430 
 3131000   0.74400346   -7.8862817    598.52983   0.01593021  0.015226167          447 
 3132000   0.75027328   -7.9097505    596.47398  0.015870423  0.015220197          479 
 3133000   0.74073796   -7.9077721    596.37825  0.015862811  0.015214242          410 
 3134000   0.75898373   -7.9278011    596.35526  0.015857138  0.015208281          464 
 3135000   0.74072053    -7.905272    597.14422  0.015873052  0.015202311          498 
 3136000   0.73460122   -7.9148836    597.29996  0.015872129  0.015196357          530 
 3137000   0.76068863   -7.9353644    596.62185  0.015849055  0.015190405          476 
 3138000   0.74293396   -7.8837749    598.58512  0.015896142  0.015184461          515 
 3139000   0.72533552   -7.9158031    596.25476  0.015829212  0.015178498          515 
 3140000   0.74707258   -7.9317063    596.69392  0.015835826  0.015172536          547 
 3141000   0.74955755   -7.9256463    595.71709  0.015804868  0.015166587          457 
 3142000   0.75590617   -7.9196289    596.63703  0.015824237  0.015160635          634 
 3143000   0.75220954   -7.9174398     597.6213  0.015845299  0.015154697          510 
 3144000   0.74299907   -7.9179842    596.89073  0.015820895   0.01514876          557 
 3145000   0.75145322   -7.9238247    596.61517  0.015808563  0.015142798          582 
 3146000     0.746012   -7.9091845    597.79863  0.015834886  0.015136871          518 
 3147000   0.74375971   -7.9237386    597.15825  0.015812897  0.015130955          613 
 3148000   0.75599117   -7.9393125     594.8909  0.015747853  0.015124991          515 
 3149000   0.74651506    -7.949158    596.63684  0.015789056  0.015119017          513 
 3150000   0.75298184   -7.9302767    595.19004  0.015745768  0.015113048          568 
 3151000   0.74245636   -7.9393762    596.46715  0.015774546  0.015107091          622 
 3152000   0.73660885    -7.912677    596.04039  0.015758259  0.015101117          499 
 3153000    0.7746536   -7.9353816      596.581   0.01576755  0.015095156          652 
 3154000    0.7328091    -7.941067    595.95896  0.015746115    0.0150892          644 
 3155000   0.76567445    -7.951454    596.40919  0.015753016   0.01508324          499 
 3156000   0.75746981    -7.942364    596.17743  0.015741905  0.015077297          568 
 3157000   0.73454312   -7.9627759     596.0692  0.015734062  0.015071341          591 
 3158000   0.74781966   -7.9452623    595.59362   0.01571653  0.015065393          588 
 3159000   0.73338919   -7.9139042    595.43516  0.015707375  0.015059437          633 
 3160000   0.73321317   -7.9126089    595.32627  0.015699532  0.015053501          720 
 3161000   0.75763439   -7.9377762    595.34748  0.015695125  0.015047557          640 
 3162000   0.73481674   -7.9343604    596.24492  0.015713813  0.015041601          652 
 3163000   0.73865739   -7.9209481    595.16757  0.015680461  0.015035639          577 
 3164000   0.75223042   -7.9177202    596.90947  0.015721383  0.015029691          605 
 3165000    0.7388838   -7.9659434    595.77725  0.015686605  0.015023748          732 
 3166000   0.74625469   -7.9534956    595.61151  0.015677288  0.015017775          644 
 3167000    0.7313476   -7.9619402    594.55236  0.015644468  0.015011797          804 
 3168000   0.75803292     -7.97267    595.85969  0.015673919  0.015005828          641 
 3169000   0.75790769   -7.9478495    594.82733  0.015641825  0.014999867          650 
 3170000   0.75881231   -7.9773856    594.98683  0.015641084  0.014993908          698 
 3171000   0.74483557   -7.9541374     596.6065  0.015678716  0.014987966          672 
 3172000    0.7409481   -7.9517377    595.78064  0.015652076  0.014982017          686 
 3173000   0.74063071   -7.9462251    596.22976  0.015658939  0.014976065          619 
 3174000    0.7454081   -7.9583415    595.37593  0.015631588  0.014970129          632 
 3175000    0.7308133   -7.9660874    596.07575  0.015645033  0.014964186          729 
 3176000   0.72582537   -7.9585449    594.80982  0.015606891  0.014958244          652 
 3177000    0.7380384   -7.9413802     595.4663  0.015619198  0.014952309          676 
 3178000   0.72207956   -7.9579776    595.03338  0.015602931  0.014946379          679 
 3179000     0.744384   -7.9345037    597.41014  0.015660327  0.014940454          671 
 3180000   0.74484737   -7.9549462    595.23395  0.015598374  0.014934539          818 
 3181000   0.76135421   -7.9589641    595.55812  0.015601963  0.014928605          616 
 3182000   0.75613282   -7.9301489    597.07686  0.015636834  0.014922682          673 
 3183000   0.75240126   -7.9375975    594.82239  0.015572898  0.014916771          612 
 3184000   0.74638781    -7.968003    595.82902  0.015594353  0.014910842          847 
 3185000    0.7345227   -7.9445947    596.41251  0.015604723  0.014904929          766 
 3186000    0.7562304   -7.9349787    596.35519  0.015598326  0.014899013          633 
 3187000   0.73388456   -7.9712562    596.02236  0.015584729  0.014893093          912 
 3188000   0.74166681   -7.9534662    594.40528   0.01553757  0.014887174          715 
 3189000    0.7362999   -7.9713217    594.81452  0.015543392   0.01488127          865 
 3190000   0.74170184   -7.9652393    596.17058  0.015573944  0.014875347          885 
 3191000   0.75107039   -7.9605883    596.28988  0.015572179   0.01486942          889 
 3192000   0.73831939   -7.9803712    594.01309  0.015507861  0.014863509          932 
 3193000   0.74208763   -7.9639444    595.11439  0.015531746  0.014857579          894 
 3194000   0.74859065   -7.9608109    595.98571  0.015549617  0.014851654          959 
 3195000   0.73741495    -7.965002    594.88987  0.015516168  0.014845726          790 
 3196000   0.74187027   -7.9732035    593.78268  0.015482444  0.014839796          807 
 3197000    0.7344266   -7.9611951    594.83962  0.015505151  0.014833875         1000 
 3198000   0.72397989   -7.9842616    593.89316   0.01547564   0.01482794         1090 
 3199000   0.74930106   -8.0021437     594.3502  0.015482708     0.014822          855 
 3200000    0.7451789   -7.9868216    596.12355  0.015524051  0.014816072          865 
 3201000   0.73561082   -7.9816571    593.48001   0.01545038   0.01481015         1007 
 3202000   0.73944601    -7.989214    594.64417  0.015475853  0.014804214         1043 
 3203000   0.73589276   -7.9917611     594.5675  0.015469026  0.014798288          982 
 3204000   0.72673221   -7.9797047    594.51505  0.015462834  0.014792338         1028 
 3205000   0.73666746   -8.0026969    593.59159  0.015433999  0.014786397         1149 
 3206000   0.73544757   -8.0130756    594.69452  0.015457853  0.014780455         1010 
 3207000   0.72145046   -8.0100899    594.12078  0.015438125  0.014774518          990 
 3208000   0.73773105     -7.98339    594.01937  0.015430678  0.014768572          948 
 3209000   0.74323088   -7.9900242    593.03785   0.01540038  0.014762628         1166 
 3210000   0.73488492    -7.995846    594.21066   0.01542603  0.014756677         1179 
 3211000   0.74527187   -8.0093688    593.70314  0.015408054  0.014750727         1112 
 3212000    0.7430693   -7.9859842    593.79965  0.015405761   0.01474478         1171 
 3213000   0.71231873   -7.9979758    593.50609  0.015393352  0.014738834         1176 
 3214000    0.7508784   -8.0023014    593.21721  0.015381073  0.014732876         1196 
 3215000    0.7421854   -8.0017995    593.09844   0.01537321  0.014726927         1035 
 3216000    0.7399915   -8.0041371    595.08654  0.015419946   0.01472099         1274 
 3217000   0.73176006   -7.9678726    594.24584  0.015393375  0.014715068         1217 
 3218000   0.73235345   -7.9966368    594.04398  0.015383364   0.01470916         1210 
 3219000   0.72246124   -7.9772365    595.38711  0.015413356  0.014703246          981 
 3220000   0.73229761   -7.9993575    593.46826  0.015358909  0.014697332         1335 
 3221000   0.72106442   -7.9994332    593.41838  0.015352851  0.014691416         1267 
 3222000   0.73266403   -7.9803884    593.24362  0.015343566  0.014685497         1223 
 3223000   0.75555478   -7.9822148    594.10622  0.015361108  0.014679584         1224 
 3224000   0.74220267   -8.0060226    593.00913  0.015327986   0.01467368         1280 
 3225000   0.73359689   -8.0238598    593.16502  0.015327261  0.014667754         1246 
 3226000   0.74234692    -7.984345    593.24331  0.015324533  0.014661858         1253 
 3227000    0.7350432    -7.999693    594.29259   0.01534688  0.014655946         1254 
 3228000   0.72970197   -8.0187232    592.24604  0.015289293  0.014650029         1245 
 3229000   0.72658159   -8.0160366     593.2203  0.015309701  0.014644101         1304 
 3230000   0.73278551   -8.0069626    594.38932  0.015335122  0.014638186         1284 
 3231000   0.73054071   -8.0133766    592.69705  0.015286729  0.014632277         1302 
 3232000   0.72138463   -8.0439436     592.2042  0.015269291  0.014626371         1324 
 3233000   0.71881037   -8.0311947    593.47228  0.015297254  0.014620474         1316 
 3234000    0.7258737   -8.0131783    592.93347   0.01527864  0.014614569         1343 
 3235000   0.73284852   -8.0125506    592.80624   0.01527064   0.01460866         1386 
 3236000   0.74478493   -8.0439224     592.8653  0.015267442  0.014602742         1410 
 3237000   0.72959178   -8.0099798    592.88453   0.01526322  0.014596836         1427 
 3238000    0.7417985    -8.016228    593.28068  0.015268702   0.01459092         1398 
 3239000   0.71582482   -8.0136455    591.80434  0.015226004  0.014585002         1313 
 3240000   0.72010917   -8.0269251    591.79753   0.01522113  0.014579093         1433 
 3241000   0.73889679   -8.0381607    592.74298  0.015240743  0.014573189         1425 
 3242000    0.7280766   -8.0054187    593.00583  0.015242798  0.014567269         1413 
 3243000    0.7432212   -8.0028417    592.78001  0.015232296  0.014561363         1374 
 3244000    0.7356178   -8.0419467    592.03562  0.015208478   0.01455545         1386 
 3245000    0.7435317   -8.0378963    593.05502   0.01522997  0.014549541         1541 
 3246000   0.74818384   -8.0268735    592.66253  0.015215201  0.014543613         1470 
 3247000   0.72640996   -8.0541875    591.44679  0.015179314  0.014537692         1476 
 3248000   0.71554163   -8.0512127    593.70476  0.015232573  0.014531765         1535 
 3249000   0.73162047   -8.0453861    591.50249  0.015171399   0.01452584         1638 
 3250000   0.72486458   -8.0298142    592.91192   0.01520287  0.014519904         1504 
 3251000     0.733258   -8.0452345    592.17385  0.015179274  0.014513986         1578 
 3252000   0.73449619    -8.058742    592.10291  0.015172789  0.014508069         1615 
 3253000   0.73039004   -8.0502364     591.8267  0.015161049  0.014502159         1574 
 3254000   0.72972761   -8.0658135    592.58496  0.015175808  0.014496227         1652 
 3255000    0.7221192   -8.0682404    590.74032   0.01512392  0.014490305         1734 
 3256000   0.74317445   -8.0599318    591.77352  0.015145719  0.014484374         1648 
 3257000   0.74333922   -8.0663298    593.45617  0.015184121  0.014478444         1684 
 3258000   0.73554163   -8.0205879     592.6559  0.015158991  0.014472539         1686 
 3259000   0.72837077   -8.0557313    592.08401  0.015139716  0.014466616         1684 
 3260000   0.73578365   -8.0406839    591.80396  0.015127913  0.014460701         1649 
 3261000   0.72424448   -8.0440453    592.18609  0.015133039  0.014454785         1611 
 3262000   0.73216486   -8.0741784    591.48593  0.015110513  0.014448882         1662 
 3263000   0.71739085   -8.0922449    592.26143  0.015125688  0.014442968         1778 
 3264000   0.73319108   -8.0630615    592.59285  0.015129515  0.014437062         1724 
 3265000   0.73388748   -8.0727651    591.56935  0.015098758  0.014431151         1775 
 3266000   0.73340197   -8.0560985    591.82045  0.015100542  0.014425239         1794 
 3267000   0.73333136   -8.0643146    591.76837  0.015094592   0.01441932         1839 
 3268000   0.71962401   -8.0695468    591.05195  0.015071704  0.014413416         1821 
 3269000   0.72142508   -8.0812568    590.31843  0.015048395  0.014407504         1730 
 3270000   0.72533594   -8.0725613    591.09991  0.015063708  0.014401598         1773 
 3271000   0.72788489   -8.0765107    591.32931  0.015064947  0.014395697         1811 
 3272000    0.7194373   -8.0546003    590.98552  0.015051587  0.014389793         1780 
 3273000   0.72394854   -8.0728224    592.31665   0.01508088  0.014383895         1737 
 3274000   0.74048122   -8.0867325     590.0604  0.015018846   0.01437799         1723 
 3275000   0.72743971   -8.0658269    590.94752  0.015036833  0.014372097         1668 
 3276000    0.7178207   -8.0610869     591.3578  0.015042679  0.014366202         1661 
 3277000   0.73203599   -8.0592911    591.00405  0.015029093  0.014360308         1641 
 3278000    0.7129418   -8.0585489    592.42825  0.015060714   0.01435442         1621 
 3279000   0.72863292   -8.0829227    591.09572  0.015022256  0.014348552         1733 
 3280000   0.72866272   -8.0616397    592.18989  0.015045475  0.014342681         1712 
 3281000    0.7334069   -8.0762208    590.18059  0.014989855  0.014336797         1717 
 3282000   0.72322516   -8.0949796    589.88138  0.014977691  0.014330901         1505 
 3283000   0.72839637   -8.0801179    591.95354  0.015025727  0.014325008         1514 
 3284000   0.74286753   -8.1029396    590.78422  0.014991479  0.014319118         1825 
 3285000   0.70998189    -8.072568    591.16509  0.014996578  0.014313223         1746 
 3286000   0.71060459   -8.1049597    590.08197  0.014964546  0.014307331         1771 
 3287000   0.73486421   -8.0916046    591.67386  0.015000351  0.014301434         1782 
 3288000   0.73516369   -8.0812469     590.7331  0.014971946  0.014295554         1731 
 3289000   0.71895319   -8.0697291    591.65676  0.014990797  0.014289667         1580 
 3290000    0.7321398   -8.0976197    591.53486  0.014983152  0.014283776         1829 
 3291000   0.72558493   -8.0676999     590.5825  0.014954485  0.014277891         1858 
 3292000   0.72885436   -8.0735365    592.85925  0.015007575  0.014272017         1722 
 3293000   0.74455571   -8.0885506    591.34505  0.014964699  0.014266147         1807 
 3294000   0.73504288   -8.0941143    590.58678  0.014940973  0.014260286         1804 
 3295000   0.71804567   -8.0930751    589.73023  0.014914776  0.014254422         1826 
 3296000   0.72834369   -8.1163332    589.95241  0.014915868  0.014248546         1904 
 3297000   0.72585938   -8.0935794    590.76635  0.014931917   0.01424267         1854 
 3298000   0.73076085   -8.1036479    590.33136  0.014916398  0.014236789         1826 
 3299000   0.72035591   -8.0930169    589.90857  0.014901197  0.014230907         2043 
 3300000   0.72502781    -8.084436     591.9756  0.014948879   0.01422503         1853 
 3301000   0.72385327   -8.1337054    589.28504  0.014876427  0.014219154         2042 
 3302000   0.72629475   -8.1135075      589.211  0.014870053  0.014213283         1987 
 3303000   0.72338009   -8.1015992    590.55228  0.014899392  0.014207406         1917 
 3304000   0.72516937   -8.1001903    589.91378  0.014878778  0.014201539         1961 
 3305000   0.71765135   -8.1211762    590.36712  0.014885707  0.014195684         2103 
 3306000   0.70307498   -8.1404636    588.64506  0.014837796  0.014189817         2071 
 3307000   0.71831271   -8.1184509    589.74642  0.014861063  0.014183951         2016 
 3308000   0.71445223   -8.1187556    590.29264  0.014870331   0.01417808         2027 
 3309000   0.71175955   -8.1178106    590.78821  0.014878317   0.01417222         2017 
 3310000   0.73941807   -8.1235237    590.47841  0.014866023  0.014166349         2017 
 3311000   0.72848495   -8.1146308    590.93185  0.014872945  0.014160488         2073 
 3312000   0.71921712   -8.1172277    590.45692  0.014856505   0.01415463         1956 
 3313000   0.72019678   -8.1127869    589.69308  0.014832807  0.014148777         2067 
 3314000    0.7240101   -8.1344804    589.50651   0.01482364  0.014142929         2070 
 3315000   0.71282372   -8.1072476     590.5477  0.014845342  0.014137077         2012 
 3316000   0.72807709   -8.1388142    589.63874  0.014818022  0.014131225         2052 
 3317000   0.70364874   -8.1115651    590.06212  0.014824192  0.014125383         2159 
 3318000   0.72415759   -8.1294902    589.67527  0.014810008  0.014119544         1963 
 3319000   0.71836199   -8.1142196    591.12073  0.014841838  0.014113704         2046 
 3320000   0.72886361   -8.1223225    589.67548  0.014801091   0.01410787         1997 
 3321000   0.71980797   -8.1297311    590.83087  0.014825626  0.014102025         2116 
 3322000   0.70488116   -8.1117601    589.99975  0.014800315   0.01409619         2057 
 3323000   0.72987289   -8.1217552    589.11132  0.014773581  0.014090349         2105 
 3324000   0.70050955   -8.1301485    588.40272  0.014751372  0.014084505         2146 
 3325000   0.71420256   -8.1487349    588.67317  0.014753714  0.014078664         2172 
 3326000   0.73415318   -8.1459197    589.62283  0.014773071   0.01407283         1891 
 3327000   0.73112647   -8.1314248    589.66688  0.014769735  0.014066987         2109 
 3328000   0.73201995    -8.115939    589.54197  0.014762169  0.014061148         2206 
 3329000   0.72776685   -8.1455626    587.70896  0.014711849  0.014055309         2311 
 3330000   0.72466595    -8.133006    588.77197  0.014734033  0.014049465         2179 
 3331000   0.73069688   -8.1049474    590.28771   0.01476753  0.014043634         2106 
 3332000    0.7111443   -8.1449789    589.18851  0.014735607  0.014037811         2163 
 3333000   0.71890526   -8.1196415    588.53913   0.01471495  0.014031973         2210 
 3334000   0.71573476   -8.1328318    589.27788  0.014729001  0.014026144         2185 
 3335000   0.71874789   -8.1346468    591.00308  0.014767693  0.014020311         2117 
 3336000   0.73127835    -8.155442    588.00831  0.014688457  0.014014481         2135 
 3337000   0.71291911   -8.1484321    590.56893     0.014748  0.014008652         2256 
 3338000   0.72926883   -8.1626449    588.34316  0.014688016  0.014002811         2234 
 3339000   0.71781651   -8.1179517    590.85169  0.014746224  0.013996989         2240 
 3340000   0.71565641   -8.1575342    588.62822  0.014686333   0.01399116         2152 
 3341000   0.71476162   -8.1422604    588.79305  0.014686048  0.013985353         2218 
 3342000   0.71459755   -8.1543388    589.20482  0.014691922  0.013979534         2270 
 3343000   0.72767116   -8.1655486    587.60713    0.0146477   0.01397372         2241 
 3344000    0.7247335   -8.1373536    589.72599  0.014696122  0.013967918         2134 
 3345000   0.70977424    -8.169301    588.28507  0.014655831  0.013962099         2192 
 3346000   0.71578935   -8.1617343     587.7058  0.014637024  0.013956276         2328 
 3347000   0.71449921   -8.1633357    587.62316  0.014630594  0.013950463         2313 
 3348000   0.71833211   -8.1648251    589.59983  0.014675424  0.013944654         2213 
 3349000   0.72621782   -8.1522285     589.4149   0.01466644  0.013938855         2329 
 3350000   0.71771449   -8.1246186    587.81553  0.014622277  0.013933049         2240 
 3351000   0.70472569    -8.160528     588.4695  0.014634176  0.013927238         2290 
 3352000   0.72051463   -8.1393546    588.24038  0.014624114  0.013921432         2282 
 3353000   0.71834059   -8.1728748    586.32303    0.0145721  0.013915621         2349 
 3354000   0.73746075   -8.1786605    588.70206  0.014626865   0.01390981         2327 
 3355000   0.70761339   -8.1676787    588.54153  0.014618518     0.013904         2295 
 3356000   0.71858569    -8.158791    588.98433  0.014625157  0.013898197         2249 
 3357000   0.71163679   -8.1718539    588.59663  0.014611176  0.013892406         2310 
 3358000   0.71731599   -8.1501456    587.85338   0.01458838  0.013886607         2261 
 3359000   0.73597868   -8.1656493    588.27733  0.014594555  0.013880811         2342 
 3360000   0.71804148   -8.1691567     588.5075   0.01459592  0.013875023         2340 
 3361000   0.71455332   -8.1768469     588.5308  0.014592155  0.013869226         2320 
 3362000   0.73416766   -8.1979354    587.81015  0.014569952  0.013863443         2348 
 3363000   0.71030441   -8.1686774    587.49135   0.01455772   0.01385766         2294 
 3364000    0.7084317   -8.1686854    587.91168  0.014563805  0.013851878         2346 
 3365000   0.69833428   -8.1484641    587.35731  0.014545748  0.013846094         2362 
 3366000   0.70774028   -8.1712452    589.33934  0.014590497  0.013840315         2480 
 3367000   0.71793557   -8.1784388     587.9168  0.014550955  0.013834535         2341 
 3368000   0.72066725   -8.1732212    589.28784  0.014580558  0.013828766         2353 
 3369000   0.71995948   -8.1619637     589.1105  0.014571844  0.013822992         2302 
 3370000   0.71460735   -8.1817881    588.14664  0.014543685  0.013817225         2352 
 3371000   0.71229963   -8.1721772    588.99788  0.014560414  0.013811465         2390 
 3372000   0.70276423   -8.1689853    587.72405  0.014524616  0.013805695         2452 
 3373000   0.71364431   -8.1464723    587.14941  0.014506112  0.013799937         2264 
 3374000   0.73236942   -8.1769251    588.23762   0.01452869  0.013794176         2405 
 3375000   0.68926254   -8.1713607    588.51169  0.014531153  0.013788425         2402 
 3376000   0.72537156   -8.1593973    587.85216  0.014510569  0.013782671         2323 
 3377000     0.713797   -8.1720359     589.0734  0.014536408  0.013776911         2359 
 3378000   0.73105657   -8.1749274    587.85841  0.014502132  0.013771163         2381 
 3379000   0.70214307   -8.1637478    588.97133  0.014525287  0.013765413         2412 
 3380000   0.70590576   -8.1736642    588.25625  0.014503359  0.013759666         2429 
 3381000   0.69366113   -8.1898716     587.1176  0.014471005  0.013753915         2364 
 3382000   0.70299269   -8.1737888    588.11153  0.014491217  0.013748168         2494 
 3383000   0.70874808   -8.1750117    587.13206  0.014462806   0.01374243         2375 
 3384000   0.71098072   -8.1749192    588.39004   0.01448951  0.013736691         2330 
 3385000   0.71587637   -8.1731247    587.25118  0.014457193  0.013730961         2375 
 3386000    0.7181346   -8.1740963    587.85509  0.014467786  0.013725238         2371 
 3387000   0.69830917   -8.1594426    588.18055  0.014471522  0.013719519         2423 
 3388000    0.7201234   -8.1684202    586.92578  0.014436388  0.013713807         2446 
 3389000   0.71066295   -8.1646619    589.34768  0.014491681  0.013708094         2449 
 3390000   0.71338873   -8.1818383     587.6365  0.014445342  0.013702386         2464 
 3391000   0.71131703     -8.16002    589.01909  0.014475059   0.01369668         2492 
 3392000   0.68840467   -8.1900205    588.79272   0.01446523  0.013690962         2438 
 3393000   0.70278309   -8.1700539    589.18322  0.014470558  0.013685243         2552 
 3394000   0.70428919   -8.1631546    588.86223  0.014458413  0.013679529         2526 
 3395000   0.71631372   -8.1965895    587.53872  0.014421667   0.01367381         2641 
 3396000   0.70796097   -8.1818268    588.65026  0.014444696  0.013668104         2484 
 3397000   0.71582698   -8.1758235    588.15839  0.014428378  0.013662397         2529 
 3398000   0.70443056   -8.1987883    586.65832  0.014387344  0.013656696         2587 
 3399000   0.71140219   -8.1877717     587.7527  0.014409942  0.013650986         2474 
 3400000    0.7223341   -8.1853757    587.36919  0.014396304  0.013645291         2693 
 3401000   0.69819146   -8.1800347    588.29413  0.014414734  0.013639585         2600 
 3402000   0.70226286   -8.1854318    587.91498   0.01440121  0.013633879         2700 
 3403000   0.69327352   -8.1959637    587.96293  0.014398152   0.01362818         2688 
 3404000    0.7232458   -8.1915833    587.59227  0.014384848  0.013622479         2597 
 3405000   0.70572593    -8.197559    586.79655  0.014361149  0.013616779         2695 
 3406000   0.71266357   -8.1981325     587.3326  0.014370048  0.013611082         2670 
 3407000   0.70130446   -8.1981907    588.64644  0.014397966  0.013605393         2685 
 3408000   0.71366687   -8.1811732    587.18093  0.014357906  0.013599703         2656 
 3409000   0.69949505   -8.2082055    586.06937  0.014326522  0.013594011         2546 
 3410000    0.7115618   -8.2124678    586.66397  0.014336852  0.013588327         2528 
 3411000   0.70333589   -8.2031202    587.28687  0.014347866  0.013582644         2651 
 3412000   0.68119408   -8.2082775    588.17395  0.014365327  0.013576962         2702 
 3413000   0.69973422   -8.1942855    586.84265  0.014328612  0.013571285         2637 
 3414000   0.70996013   -8.1938869    586.32064  0.014311674  0.013565612         2642 
 3415000   0.70346992   -8.2122715    587.09758  0.014326442  0.013559937         2647 
 3416000   0.71149644   -8.2178959    585.49443  0.014283139  0.013554264         2679 
 3417000   0.70928895   -8.2114529     586.9109  0.014313504  0.013548588         2601 
 3418000   0.70751765   -8.1979869    587.25702  0.014317754   0.01354292         2658 
 3419000   0.69863842   -8.2121473    586.18093  0.014287339  0.013537246         2630 
 3420000   0.71256959   -8.2113314     587.2371  0.014308896  0.013531589         2716 
 3421000   0.71354825   -8.2261982    587.45026  0.014309906  0.013525924         2580 
 3422000   0.70193837   -8.2004064    587.19987  0.014299627  0.013520273         2618 
 3423000   0.70068449   -8.1940094    586.08692  0.014268354  0.013514614         2586 
 3424000   0.70513794   -8.2047607    586.34825  0.014270547  0.013508953         2690 
 3425000   0.69409542   -8.1931214    587.38648  0.014291642  0.013503292         2646 
 3426000    0.7083878   -8.2073284    586.44934  0.014264676  0.013497636         2698 
 3427000   0.70027644   -8.2128587    587.58281  0.014288075  0.013491981         2644 
 3428000   0.68183574   -8.2112901     588.6019  0.014308681  0.013486336         2638 
 3429000   0.71584179   -8.2061373    587.19329  0.014270275  0.013480687         2604 
 3430000   0.69251084   -8.2064324    587.24562  0.014267386  0.013475047         2737 
 3431000   0.71561272   -8.2127496    586.53699  0.014246016  0.013469393         2679 
 3432000   0.68282722   -8.1973509    586.52866  0.014241663  0.013463752         2616 
 3433000   0.70846814   -8.2122126    587.55262  0.014262371  0.013458116         2677 
 3434000   0.69528809   -8.2048076    585.92227  0.014218653  0.013452477         2697 
 3435000   0.71369081   -8.2159044    586.60955  0.014231188   0.01344684         2683 
 3436000   0.69678326   -8.2209497    585.80056  0.014207425  0.013441202         2687 
 3437000   0.71015948   -8.2318669    585.88584  0.014205359  0.013435554         2788 
 3438000   0.69987709    -8.217145     587.4028  0.014237997  0.013429906         2829 
 3439000   0.69970336   -8.2082947    586.68038  0.014216351  0.013424263         2643 
 3440000   0.70030741   -8.2306418    585.63075  0.014186791  0.013418628         2753 
 3441000   0.69573644    -8.214344     586.2575  0.014197847  0.013413002         2744 
 3442000   0.72452802   -8.2182982     586.0983  0.014189868  0.013407373         2680 
 3443000   0.70722371   -8.2165703    586.03225  0.014184148  0.013401755         2711 
 3444000   0.71748259   -8.2508256     585.3584  0.014163724  0.013396124         2773 
 3445000   0.69384402   -8.2268485    586.38987  0.014184564  0.013390497         2732 
 3446000   0.68116251   -8.2298077    584.93566  0.014145281  0.013384874         2793 
 3447000   0.68934903   -8.2141602    586.83892   0.01418719  0.013379252         2688 
 3448000   0.68936867   -8.2288034    585.50968  0.014150949  0.013373626         2710 
 3449000   0.70053675   -8.2105077     586.9926  0.014182676  0.013368006         2752 
 3450000   0.69283533   -8.2074445     587.3353  0.014186843  0.013362394         2678 
 3451000   0.70567087     -8.21207    585.32935  0.014134293  0.013356792         2745 
 3452000   0.70246919   -8.2308179    585.37369  0.014131269  0.013351174         2810 
 3453000   0.69281212   -8.2122327    587.06208  0.014167924  0.013345572         2668 
 3454000   0.70199933   -8.2369696    585.70685  0.014131124   0.01333997         2785 
 3455000   0.70451764   -8.2234627    586.22632  0.014139564  0.013334367         2777 
 3456000   0.68447822    -8.248312    586.30438  0.014137355  0.013328771         2704 
 3457000   0.70227337   -8.2576884    585.57183  0.014115607  0.013323168         2674 
 3458000   0.71445053   -8.2237595    586.20119  0.014126691  0.013317583         2656 
 3459000   0.70130881   -8.2095193     586.1684  0.014121817  0.013311997         2766 
 3460000   0.71387389   -8.2432502    586.07117  0.014115394  0.013306417         2801 
 3461000   0.70077835   -8.2512006    587.08053  0.014135619  0.013300826         2792 
 3462000   0.69533697   -8.2558701    585.43502  0.014091927  0.013295241         2754 
 3463000   0.70108808   -8.2264148    586.47863  0.014112971  0.013289661         2708 
 3464000   0.69250231   -8.2354435    586.54707  0.014110543  0.013284089         2788 
 3465000   0.71127042   -8.2446754    586.27695  0.014099975  0.013278506         2806 
 3466000   0.69678553   -8.2561777    585.72534  0.014082644  0.013272935         2764 
 3467000   0.69069959   -8.2476339    585.33454  0.014069189  0.013267357         2747 
 3468000   0.67665949   -8.2573706    585.55862  0.014070517  0.013261783         2835 
 3469000   0.68868427   -8.2326035    586.96239  0.014100182  0.013256214         2832 
 3470000   0.72399743   -8.2321467     586.5094   0.01408524  0.013250647         2828 
 3471000   0.69530246   -8.2142612    586.41251  0.014078856  0.013245085         2800 
 3472000   0.67917182   -8.2393215    586.30284  0.014072169  0.013239526         2781 
 3473000   0.68539109   -8.2467933    585.23021   0.01404238  0.013233969         2844 
 3474000   0.68465856   -8.2369486    585.46357  0.014043935   0.01322841         2832 
 3475000   0.69268719   -8.2339112    584.92562  0.014026993  0.013222855         2859 
 3476000   0.69817696    -8.251704    585.95782  0.014047704  0.013217297         2825 
 3477000   0.68898597   -8.2456133    586.02886  0.014045366  0.013211751         2792 
 3478000   0.69183292   -8.2604308    585.40717  0.014026432  0.013206207         2811 
 3479000   0.69409501   -8.2212885    587.76031  0.014078766  0.013200656         2835 
 3480000   0.67932969   -8.2630103    586.02164  0.014033085  0.013195111         2843 
 3481000    0.6983909   -8.2342287     585.9331  0.014026934  0.013189568         2828 
 3482000   0.70241311   -8.2383386    584.65554  0.013992331  0.013184028         2830 
 3483000   0.68772387   -8.2276211    586.95372  0.014043299  0.013178486         2788 
 3484000   0.70370145   -8.2582941    585.94851  0.014015224  0.013172954         2879 
 3485000   0.70057008   -8.2538985    584.85149  0.013984971  0.013167424         2850 
 3486000   0.68494903   -8.2329277    585.95249  0.014007279  0.013161885         2829 
 3487000   0.69828147   -8.2570666    586.41552  0.014014327   0.01315635         2846 
 3488000   0.68821394    -8.240127    585.96635  0.013999578  0.013150813         2917 
 3489000   0.69360646    -8.251121    585.60069  0.013986832   0.01314528         2902 
 3490000   0.68932655   -8.2712116    584.49915  0.013956522  0.013139755         2906 
 3491000   0.70680889   -8.2478652    585.81045  0.013983826  0.013134225         2763 
 3492000   0.70443304   -8.2509057    585.02173     0.013961    0.0131287         2784 
 3493000   0.70105538   -8.2694783     584.9561  0.013955437  0.013123181         2775 
 3494000   0.70257439   -8.2632313    584.93658  0.013950977  0.013117662         2849 
 3495000   0.69515639   -8.2605929    584.83433  0.013944548  0.013112156         2875 
 3496000   0.67314884   -8.2564232    584.59984   0.01393497  0.013106644         2854 
 3497000   0.69221533   -8.2457926    584.99475  0.013940395  0.013101132         2762 
 3498000   0.69226154     -8.23261    585.41888  0.013946514  0.013095621         2884 
 3499000   0.69167673    -8.265167    584.97548  0.013931968  0.013090118         2807 
 3500000   0.69729615   -8.2696165    584.66713  0.013920646  0.013084622         2823 
 3501000   0.68371122   -8.2518886    586.15342  0.013952047  0.013079124         2871 
 3502000   0.68463913   -8.2788017    583.68185   0.01388925  0.013073622         2859 
 3503000   0.68917549   -8.2681588     585.5847  0.013930552  0.013068134         2788 
 3504000   0.68607296   -8.2585456    586.68709  0.013952794  0.013062643         2870 
 3505000    0.6966413   -8.2324427    586.37434  0.013941378  0.013057157         2877 
 3506000   0.66731943   -8.2518909    586.04125  0.013929484  0.013051674         2876 
 3507000   0.67675112    -8.246029    584.35921  0.013885543  0.013046188         2825 
 3508000   0.67498847   -8.2453614    584.69289  0.013889512   0.01304071         2825 
 3509000   0.69204687   -8.2706878    584.81776  0.013888519  0.013035241         2839 
 3510000   0.69588905   -8.2586116    585.87891  0.013909756  0.013029764         2849 
 3511000   0.68012273   -8.2344136    586.12517  0.013911639    0.0130243         2818 
 3512000   0.68273758   -8.2549876    585.84994  0.013901147  0.013018832         2854 
 3513000   0.68647363   -8.2743368    584.82293  0.013872828  0.013013369         2847 
 3514000   0.67855332    -8.281828    584.46485  0.013860388  0.013007913         2812 
 3515000   0.68880644    -8.267438    586.09175  0.013895015  0.013002458         2701 
 3516000   0.69063471    -8.247945    585.58899  0.013879147  0.012997008         2868 
 3517000   0.68058445   -8.2499125    585.63919  0.013876391  0.012991558         2794 
 3518000   0.69181348    -8.260263    585.03849  0.013858217  0.012986104         2857 
 3519000   0.68141217   -8.2538517    585.37567  0.013862264  0.012980652         2896 
 3520000   0.69060905   -8.2651473    584.33214  0.013833621   0.01297521         2825 
 3521000   0.67983486   -8.2525745    584.30364  0.013829017  0.012969769         2778 
 3522000   0.69207873   -8.2419185    586.66734  0.013881018  0.012964343         2852 
 3523000   0.69014335   -8.2659794    585.49301    0.0138493  0.012958916         2849 
 3524000   0.68017265   -8.2516031    586.04309  0.013858378  0.012953483         2785 
 3525000   0.68664553   -8.2734753    583.99141  0.013805943  0.012948057         2850 
 3526000   0.69937613   -8.2802972    584.99025  0.013825635  0.012942625         2706 
 3527000   0.68568651    -8.256805    586.21346  0.013850616  0.012937212         2699 
 3528000   0.67808366   -8.2492586    584.93596  0.013816514  0.012931796         2721 
 3529000   0.68378227   -8.2469831    585.57993  0.013827806  0.012926389         2716 
 3530000   0.69676314   -8.2367225    585.63754  0.013825249  0.012920973         2705 
 3531000   0.68468139   -8.2610819    586.16798  0.013833852  0.012915565         2753 
 3532000   0.69534818   -8.2649463    584.90137  0.013800051  0.012910153         2844 
 3533000    0.6851275   -8.2275797    585.35048  0.013806738  0.012904762         2732 
 3534000   0.69321083     -8.25778    585.76292  0.013812557   0.01289936         2793 
 3535000    0.6866645   -8.2365524    585.64786  0.013805937  0.012893963         2739 
 3536000   0.67887302   -8.2567435    585.13947  0.013790052  0.012888564         2759 
 3537000   0.66830087   -8.2717141    585.55928  0.013796044  0.012883176         2858 
 3538000   0.67176167     -8.24093    585.41529  0.013788753  0.012877789         2758 
 3539000   0.68522402   -8.2639033    585.06459  0.013776599    0.0128724         2804 
 3540000   0.68605738   -8.2617573    585.34139  0.013779223  0.012867009         2832 
 3541000    0.6882191   -8.2664933    585.32248  0.013774887   0.01286163         2833 
 3542000   0.67811045   -8.2431221    585.65086  0.013778724  0.012856252         2781 
 3543000   0.68989907   -8.2757806    584.82956  0.013755517  0.012850876         2909 
 3544000   0.67491097    -8.255812    585.21742  0.013760756  0.012845497         2794 
 3545000   0.68797004   -8.2788126    585.55892  0.013764902  0.012840112         2932 
 3546000   0.66611034   -8.2630936    585.51284  0.013759937  0.012834739         2754 
 3547000   0.67635448   -8.2672163    584.51959  0.013732722  0.012829365         2842 
 3548000   0.68221247   -8.2479072    585.29693  0.013747109  0.012823999         2790 
 3549000    0.6896715   -8.2833631    585.21988  0.013741427  0.012818625         2826 
 3550000   0.69204521    -8.277412    584.67501  0.013724765  0.012813248         2883 
 3551000   0.68495522   -8.2755648    583.98529  0.013704714  0.012807884         2838 
 3552000   0.69081827   -8.2537587    585.69156  0.013740887  0.012802523         2818 
 3553000   0.68614767   -8.2741868    585.89618  0.013741819  0.012797164         2863 
 3554000   0.68228576   -8.2692882    584.99083  0.013716724  0.012791814         2883 
 3555000   0.67825724   -8.3007458    584.85775  0.013709746  0.012786456         2977 
 3556000   0.68754601   -8.2630796     585.4424  0.013719591  0.012781104         2885 
 3557000   0.68023516   -8.2730858    584.81533  0.013701043  0.012775758         2953 
 3558000    0.6709043    -8.288984    583.24894  0.013660506  0.012770406         2911 
 3559000   0.68270576   -8.2704619    585.32061  0.013705175  0.012765061         2872 
 3560000   0.69269317   -8.2728089    585.00125  0.013693849  0.012759721         2908 
 3561000   0.67837763   -8.2765993    584.45154   0.01367714  0.012754387         2936 
 3562000   0.68824709   -8.2604758    586.12535  0.013712459  0.012749054         2767 
 3563000   0.69166422   -8.2683662    584.81777  0.013678028  0.012743722         2850 
 3564000   0.69582894   -8.2700332    585.18172    0.0136827  0.012738398         2893 
 3565000   0.67638729   -8.2950513    584.77519  0.013669359  0.012733072         2797 
 3566000   0.67301671    -8.290978    585.89998  0.013691811   0.01272775         2918 
 3567000   0.67845182   -8.2757952    585.58258  0.013680557  0.012722416         2865 
 3568000   0.67662793   -8.2585506    585.11246  0.013665743  0.012717092         2777 
 3569000    0.6784434   -8.2793416    584.93242   0.01365771  0.012711777         2841 
 3570000   0.69011703   -8.2793145    585.56291  0.013668602  0.012706454         2945 
 3571000   0.70204828   -8.2941011    583.83873  0.013624539  0.012701134         2957 
 3572000    0.6677412   -8.2899559    583.52822   0.01361348  0.012695818         2992 
 3573000   0.66609659   -8.2774062    584.34965  0.013628828  0.012690499         2921 
 3574000   0.67022951   -8.2990324    584.20416  0.013621623  0.012685189         2868 
 3575000   0.68711704   -8.2878045     585.0947  0.013638571  0.012679877         2871 
 3576000   0.68406113   -8.2901147    583.98024  0.013608786  0.012674571         2905 
 3577000   0.69892322   -8.3049572    584.40158  0.013614798  0.012669267         2920 
 3578000   0.66472209   -8.2838871    584.93805  0.013623487  0.012663967         2886 
 3579000   0.68449281   -8.2739185     585.1457  0.013624516  0.012658671         2911 
 3580000    0.6735055   -8.2834492    584.59411   0.01360787  0.012653379         2855 
 3581000   0.68083469   -8.2913125    584.53305  0.013602649  0.012648088         2885 
 3582000   0.68521307    -8.293271    583.72995  0.013580168    0.0126428         2863 
 3583000   0.69161094   -8.2815324    584.38341  0.013591576  0.012637521         2896 
 3584000   0.69104679   -8.3017562    584.54619  0.013591569  0.012632247         2887 
 3585000   0.68033375   -8.2853968    585.17444  0.013602381  0.012626974         2913 
 3586000   0.67766028   -8.2914661    585.78225  0.013612713  0.012621702         2853 
 3587000   0.68365003   -8.2970025     583.9903  0.013567287  0.012616426         2965 
 3588000   0.67739061   -8.2828368    585.02989  0.013587651   0.01261115         2934 
 3589000   0.67835295   -8.2926933    585.19768  0.013587761  0.012605878         2851 
 3590000   0.68076053   -8.2635813    584.89974   0.01357706  0.012600608         2889 
 3591000   0.68656087   -8.2860359    584.03983  0.013553324  0.012595345         2871 
 3592000   0.66986526   -8.2954071    584.34628   0.01355666  0.012590086         2894 
 3593000   0.69439779   -8.2606398    584.17409  0.013548893  0.012584826         2846 
 3594000   0.68010152   -8.2746712    583.33273  0.013525615   0.01257957         2839 
 3595000   0.67990007    -8.282549    584.90789  0.013558366  0.012574315         2828 
 3596000   0.67844669   -8.2700481     585.5083  0.013568509  0.012569058         2871 
 3597000   0.68039776   -8.2805737    583.93078   0.01352819  0.012563816         2860 
 3598000   0.68599676    -8.290139    584.15471  0.013529616  0.012558571         2867 
 3599000   0.67570911   -8.2938244    584.14995  0.013525747  0.012553335         2897 
 3600000   0.68154099    -8.299602     584.7992  0.013537019  0.012548095         2941 
 3601000   0.67655708   -8.2905174    584.61739  0.013529052  0.012542862         2932 
 3602000   0.67491376   -8.2992353    583.24511  0.013493548  0.012537625         2821 
 3603000   0.68159247   -8.2880119    585.39964  0.013539635  0.012532397         2789 
 3604000   0.67922394   -8.2806395    585.14032  0.013529882  0.012527173         2855 
 3605000   0.68003873   -8.3024181    585.17158  0.013526851  0.012521946         2941 
 3606000   0.68246874   -8.2730686    584.16691  0.013499882  0.012516725         2874 
 3607000   0.67198952   -8.3110255    583.21521  0.013474152  0.012511502         2982 
 3608000   0.67788758   -8.3003824    584.01486  0.013488887  0.012506284         2855 
 3609000    0.6540698   -8.2697348    584.68753  0.013500682  0.012501062         2946 
 3610000   0.67213779    -8.263654    585.35196   0.01351228  0.012495851         2971 
 3611000   0.68229526   -8.2832616    585.28072  0.013506894  0.012490638         2872 
 3612000   0.68356847   -8.2681457    584.51816  0.013485561  0.012485437         2937 
 3613000   0.66705372    -8.293014     585.1073  0.013495417  0.012480227         2850 
 3614000   0.67400553   -8.2863894    584.55282  0.013478897  0.012475021         2922 
 3615000   0.67172289   -8.3066642    583.64488  0.013454239  0.012469818         2972 
 3616000   0.67373987   -8.2994334    585.28184  0.013488243  0.012464615         2867 
 3617000   0.67909713   -8.2930252    584.92568  0.013476308  0.012459415         2855 
 3618000   0.67669111   -8.3153645    582.77245  0.013422988   0.01245422         2902 
 3619000   0.68340012   -8.2885277    584.10151  0.013449883  0.012449026         2932 
 3620000   0.66254713    -8.288796     584.0255  0.013444418  0.012443839         2942 
 3621000   0.66434298   -8.2975761    584.77605  0.013457978   0.01243865         2897 
 3622000   0.67698464   -8.2979535     585.0062  0.013459557  0.012433466         2890 
 3623000   0.67414409   -8.3053674    585.03036  0.013456398  0.012428286         3014 
 3624000   0.66642728   -8.3034245    584.42384  0.013438738  0.012423097         2939 
 3625000   0.65343006    -8.272859    583.97835   0.01342479  0.012417917         2908 
 3626000   0.67316036   -8.2869133     585.0572  0.013445882  0.012412748         2918 
 3627000   0.67157542   -8.3261346    583.26791  0.013401064  0.012407578         2948 
 3628000   0.66622203   -8.2869111    584.39516  0.013423263  0.012402406         2881 
 3629000    0.6761623   -8.3081841    584.71821  0.013426982  0.012397245         2967 
 3630000   0.66528076    -8.297476    583.54047  0.013396246  0.012392086         2931 
 3631000   0.66652988   -8.3035775    583.34504  0.013388071  0.012386926         3002 
 3632000   0.66158564   -8.3014336    583.36461  0.013384834  0.012381771         2899 
 3633000   0.66598188   -8.3069633    584.03649  0.013396561  0.012376621         2874 
 3634000   0.65875199   -8.2984483    585.31496  0.013422192  0.012371462         2812 
 3635000   0.66661812   -8.3022838    583.42171  0.013375096  0.012366311         2950 
 3636000   0.66712878   -8.2952927    582.86808  0.013358729  0.012361168         2869 
 3637000   0.66219135   -8.2848413    583.93161  0.013379425  0.012356016         2869 
 3638000   0.66472615   -8.3257553    584.35011  0.013385333  0.012350867         2937 
 3639000   0.66975466   -8.3051531    583.55173  0.013363372  0.012345725         2927 
 3640000   0.67060219   -8.3058162    583.86104  0.013366782  0.012340581         2923 
 3641000   0.67291114   -8.3009855    584.14009  0.013369498  0.012335445         2908 
 3642000   0.65352022     -8.30277    584.55501  0.013375321  0.012330316         2992 
 3643000   0.66666714   -8.3017249    584.48559  0.013370061  0.012325184         2960 
 3644000    0.6635421   -8.2853262    583.64064  0.013347069  0.012320049         2896 
 3645000   0.66964351   -8.2918421    583.33991  0.013336532   0.01231492         2959 
 3646000   0.68180991    -8.307201    584.58543  0.013361342  0.012309793         2903 
 3647000   0.67156586   -8.3182922     583.2896  0.013328069  0.012304672         2966 
 3648000   0.66680769    -8.295217    583.79997  0.013336074  0.012299548         2920 
 3649000    0.6825002   -8.2945534     583.4396  0.013324189   0.01229443         2911 
 3650000   0.67184823    -8.306244     584.4178  0.013342872  0.012289315         2973 
 3651000   0.67450872   -8.3101274    583.38511  0.013315647  0.012284202         2944 
 3652000   0.66833402   -8.3180726    583.69902  0.013319163  0.012279089         2913 
 3653000   0.65894728   -8.2980016    584.77714  0.013340112  0.012273974         2901 
 3654000   0.67047203   -8.3066765     582.8608  0.013292757  0.012268872         3044 
 3655000   0.66652539    -8.300032    584.27436  0.013321349   0.01226377         2970 
 3656000   0.66411124   -8.3071531    583.94047  0.013310095  0.012258668         2967 
 3657000   0.66519233   -8.3130986    583.82772  0.013303886  0.012253566         2903 
 3658000   0.67223314   -8.3206944    583.55994  0.013294148  0.012248466         2944 
 3659000   0.66296705   -8.3193608    583.88034  0.013297812  0.012243363         3038 
 3660000   0.65674145   -8.3443557    584.18284  0.013301066  0.012238266         3028 
 3661000   0.67223776   -8.3448445    582.80668  0.013266109  0.012233166         2948 
 3662000   0.67771007   -8.3353257    584.45483  0.013299992  0.012228066         2921 
 3663000   0.65079758   -8.3415836    581.79341  0.013235813   0.01222297         2920 
 3664000   0.65823541   -8.3173706    584.64064  0.013296958  0.012217877         2972 
 3665000   0.66481188    -8.318855    583.37462  0.013264543  0.012212793         2956 
 3666000   0.66816779    -8.300563    583.44634  0.013262555   0.01220771         3039 
 3667000   0.66137552   -8.3303715    583.42231  0.013258393  0.012202623         2909 
 3668000   0.66517941   -8.3112049    583.38428  0.013253914  0.012197539         3026 
 3669000   0.66909111   -8.3345609    582.92423  0.013239853  0.012192464         2978 
 3670000   0.67261427   -8.3409605    582.83534  0.013234227  0.012187388         3005 
 3671000   0.67144301   -8.3275472    582.78654  0.013229514  0.012182316         3003 
 3672000   0.65910591   -8.3325515    583.52896   0.01324276  0.012177236         2940 
 3673000   0.67141341    -8.335524    582.66903  0.013219644  0.012172173         2983 
 3674000   0.66801428    -8.322497    583.35018  0.013231496  0.012167105         2996 
 3675000   0.67183857   -8.3378125    583.24703  0.013225556  0.012162043         3024 
 3676000    0.6615783   -8.3222044    584.20025  0.013243568  0.012156989         2895 
 3677000    0.6621899   -8.3225047     584.3738  0.013243899  0.012151939         3026 
 3678000   0.64865864    -8.321282    583.57706  0.013222246  0.012146884         3014 
 3679000   0.66249958   -8.3136202     584.1612  0.013231884  0.012141832         2942 
 3680000   0.64904661   -8.3147374     584.1607  0.013228277  0.012136784         3003 
 3681000   0.65599497   -8.3273929    583.19375  0.013202792  0.012131725         2933 
 3682000   0.66184995   -8.3204185    582.30738  0.013179146  0.012126678         2973 
 3683000   0.66584617   -8.3410315    584.05239  0.013215051  0.012121632         2965 
 3684000   0.67950955   -8.3105734    583.47546  0.013198414  0.012116594         3040 
 3685000   0.65415718   -8.3142751    582.37026  0.013169839  0.012111551         3061 
 3686000   0.66259247    -8.322317    583.08215   0.01318236  0.012106506         3030 
 3687000   0.66352584   -8.3274334    582.51442  0.013165953   0.01210147         2994 
 3688000   0.66599584   -8.3132092    583.46708  0.013183909  0.012096436         3079 
 3689000   0.65494538   -8.3120781     582.9934  0.013169635  0.012091403         3041 
 3690000   0.65189618   -8.3243919    583.16064  0.013169843  0.012086367         2916 
 3691000   0.66914348   -8.3415036    584.12035  0.013187943  0.012081341         3030 
 3692000   0.65159905   -8.3303828    582.73884  0.013153188  0.012076322         2979 
 3693000   0.65292229   -8.3184079     583.1716  0.013159392  0.012071302         3019 
 3694000   0.66377724   -8.3164729    583.79254  0.013169837  0.012066288         3112 
 3695000   0.64915952   -8.3261924    582.43068  0.013135559  0.012061272         3025 
 3696000    0.6686336   -8.3232918    582.74392  0.013139067  0.012056262         2958 
 3697000   0.66562073   -8.3209258    583.11584  0.013143897  0.012051253         3056 
 3698000   0.67342376    -8.330468    583.34758  0.013145565  0.012046246         3039 
 3699000   0.65003525   -8.3448216    583.79518  0.013152095  0.012041251         2938 
 3700000   0.67318794   -8.3221756    583.45306  0.013140835  0.012036246         2931 
 3701000   0.66046587   -8.3458501    582.58693  0.013117782  0.012031247         2957 
 3702000   0.66397032    -8.330013    583.73583  0.013140101  0.012026245         2940 
 3703000   0.66451527   -8.3272797    582.47576  0.013108195   0.01202125         2973 
 3704000   0.64515113   -8.3244214    583.36507  0.013124664  0.012016253         2977 
 3705000   0.66653155   -8.3457388    583.18808  0.013117141  0.012011263         3022 
 3706000   0.65777905   -8.3232808    583.82111  0.013127836  0.012006279         2914 
 3707000    0.6556475   -8.3247384    582.84644  0.013102384  0.012001298         2925 
 3708000   0.64063689   -8.3411072    582.98002  0.013101852  0.011996315         2926 
 3709000   0.66151612   -8.3209724    582.99805  0.013098725   0.01199133         3041 
 3710000    0.6572282   -8.3468181    582.49664  0.013083932  0.011986352         3026 
 3711000   0.66585237   -8.3509777    582.18114  0.013073321  0.011981378         2984 
 3712000   0.64873737   -8.3426864    583.25993  0.013094018  0.011976409         2938 
 3713000     0.663531   -8.3195368    583.56117  0.013097252   0.01197144         2943 
 3714000   0.64368971    -8.321103    582.34448  0.013066426  0.011966474         2954 
 3715000   0.64236783   -8.3324134    582.22584  0.013060248  0.011961511         2960 
 3716000   0.65158306    -8.326464    583.01502  0.013074431  0.011956549         2980 
 3717000    0.6640021   -8.3276454    583.30894  0.013077503   0.01195159         2944 
 3718000   0.66712991   -8.3374387    583.07008  0.013068632   0.01194664         2957 
 3719000   0.66312076   -8.3265118     582.8779  0.013060812  0.011941693         3031 
 3720000   0.66014358    -8.315818    583.17494  0.013063955  0.011936741         2991 
 3721000   0.65339629   -8.3497466    583.10927  0.013058973  0.011931789         2978 
 3722000   0.65536044   -8.3252712    584.31044  0.013082358  0.011926843         2989 
 3723000   0.66073371   -8.3347235    583.27833  0.013055742  0.011921892         3050 
 3724000   0.67483819   -8.3270876    582.84065  0.013042442  0.011916949         3038 
 3725000   0.65941123   -8.3411878    583.04037  0.013043409  0.011912008         3035 
 3726000   0.66331506    -8.356537    582.07636  0.013018348  0.011907062         3064 
 3727000   0.65229222   -8.3191992    583.46771  0.013045964  0.011902122         3013 
 3728000   0.64591246   -8.3313675    582.37288  0.013017992   0.01189719         3016 
 3729000   0.64613886   -8.3318623    582.83956   0.01302493  0.011892257         3055 
 3730000     0.657008   -8.3326519    583.01219  0.013025295  0.011887329         3078 
 3731000   0.65868647   -8.3434726    582.51933  0.013010795  0.011882406         3107 
 3732000   0.66271245   -8.3401563    582.28068   0.01300198  0.011877472         2996 
 3733000   0.65539857   -8.3602901    582.44849  0.013002243  0.011872551         3061 
 3734000   0.65313795   -8.3286839    582.40448  0.012997779  0.011867628         2969 
 3735000    0.6484078   -8.3481061    583.60905  0.013021175  0.011862719         3009 
 3736000   0.65294119   -8.3348348    582.18148  0.012985847    0.0118578         3019 
 3737000   0.66480321   -8.3496881    583.33241  0.013008037  0.011852884         2996 
 3738000   0.65096224   -8.3235425    584.74469  0.013036042  0.011847974         3037 
 3739000   0.65474462   -8.3324207    582.29196   0.01297789  0.011843065         3053 
 3740000   0.65688716   -8.3469146    581.30486  0.012952426  0.011838157         3044 
 3741000   0.65467886    -8.312441     582.7732  0.012981671  0.011833251         2987 
 3742000   0.65405397   -8.3433821    583.29636  0.012989853  0.011828357         3075 
 3743000   0.65937422   -8.3385074    583.58937  0.012992906  0.011823453         2971 
 3744000   0.65200227   -8.3344147    581.71455  0.012947706  0.011818561         2950 
 3745000   0.65587363   -8.3261066    582.20302  0.012955118  0.011813673         3016 
 3746000   0.64339312   -8.3364435    581.84356  0.012943663  0.011808789         3002 
 3747000   0.67142708   -8.3389665    583.63023  0.012979945  0.011803904         2970 
 3748000   0.64616282   -8.3458459    582.11359   0.01294276   0.01179902         2987 
 3749000   0.66231246   -8.3537114    583.57561  0.012971806  0.011794141         3047 
 3750000   0.66465163   -8.3399793    582.34223  0.012940938   0.01178926         3000 
 3751000   0.64638906   -8.3440962    582.20883  0.012934525  0.011784387         2999 
 3752000   0.66979928     -8.35721    582.92287  0.012946937  0.011779513         2916 
 3753000    0.6506706   -8.3427173    581.78867  0.012918302  0.011774644         2963 
 3754000   0.65526303   -8.3426027    582.26406  0.012925414  0.011769779         2986 
 3755000   0.65647801   -8.3584486    582.54587  0.012928226  0.011764915         3104 
 3756000   0.65359242    -8.361051    582.79669  0.012930349  0.011760045         3048 
 3757000   0.65563473   -8.3539721    583.26117   0.01293721  0.011755176         2992 
 3758000    0.6688986   -8.3460369    581.82235  0.012901862  0.011750318         3014 
 3759000   0.64363008   -8.3450975    580.87778  0.012877489  0.011745458         2983 
 3760000   0.64604972   -8.3298755    582.35807  0.012906872  0.011740603         3023 
 3761000   0.64657375   -8.3330126    583.15036  0.012920995  0.011735755         3037 
 3762000   0.64647594   -8.3431272    583.32232   0.01292137  0.011730907         3039 
 3763000   0.64881334   -8.3495888    582.58563  0.012901622  0.011726058         3029 
 3764000   0.66004484    -8.332826    582.42308  0.012894595  0.011721205         3030 
 3765000   0.64766013   -8.3528992    581.95763  0.012880868  0.011716363         3101 
 3766000   0.65275769   -8.3307784    582.30408  0.012885114  0.011711513         3086 
 3767000   0.64859697   -8.3281306    582.23401  0.012880144  0.011706668         3016 
 3768000   0.65769946   -8.3392301    582.76017  0.012888362  0.011701833         3049 
 3769000   0.65754108   -8.3566792    583.06444   0.01289167  0.011697002         2976 
 3770000   0.63959236   -8.3268784      582.964   0.01288603  0.011692178         3074 
 3771000   0.63475844   -8.3433081    581.99193  0.012861132  0.011687348         3063 
 3772000   0.64559671   -8.3548753     582.3572  0.012865792   0.01168252         3124 
 3773000   0.63637198   -8.3469744    582.07011  0.012856041  0.011677693         3064 
 3774000   0.64402934   -8.3441909    582.97542  0.012872625  0.011672873         3046 
 3775000   0.64465995   -8.3517786    582.29389   0.01285417  0.011668057         2992 
 3776000   0.64360939   -8.3874966    582.00142  0.012844311  0.011663233         3002 
 3777000   0.66387354    -8.339904      582.548   0.01285297  0.011658426         3028 
 3778000    0.6371639    -8.335499     581.6761  0.012830336  0.011653617         3053 
 3779000   0.66115007   -8.3485191    582.28656  0.012840402  0.011648807         3019 
 3780000   0.63812609   -8.3390873    582.56545  0.012843154  0.011643998         2981 
 3781000   0.65346019   -8.3517336    582.78696  0.012844639  0.011639196         3068 
 3782000   0.64207008   -8.3301884    582.85572  0.012842758  0.011634394         3054 
 3783000   0.64201617   -8.3592198    581.66622   0.01281316  0.011629596         3083 
 3784000   0.63974928   -8.3240661    581.15946  0.012798614    0.0116248         3060 
 3785000   0.63955293   -8.3429698    582.71164  0.012829406  0.011620004         3069 
 3786000   0.63157931   -8.3720543    581.73577  0.012804538  0.011615212         3041 
 3787000   0.63645766   -8.3457644     582.4205  0.012816224  0.011610418         2991 
 3788000   0.64356378   -8.3666408    582.31942  0.012810617  0.011605629         3026 
 3789000    0.6435974   -8.3495127    581.47607  0.012788688  0.011600845         3007 
 3790000   0.63988096   -8.3445662    582.18287  0.012800855  0.011596055         2932 
 3791000   0.63798822   -8.3323614    582.73941  0.012809712  0.011591276         3118 
 3792000   0.63789759   -8.3544936    583.35912  0.012819953  0.011586494         3008 
 3793000   0.64056515   -8.3310204    582.65556  0.012801115  0.011581718         3080 
 3794000   0.66092298    -8.353318    582.25586  0.012788962  0.011576941         3067 
 3795000   0.64621188   -8.3663458    581.57845  0.012770717  0.011572169         3038 
 3796000   0.64296967   -8.3382684    583.32222  0.012805634  0.011567398         3094 
 3797000   0.65581812   -8.3558863     582.2587   0.01277892  0.011562629         3052 
 3798000   0.64794185   -8.3390371    581.26928  0.012753846  0.011557866         3076 
 3799000   0.65459994    -8.356092    582.06756  0.012767999  0.011553107         3057 
 3800000   0.64853567    -8.361906    582.23749  0.012768366   0.01154835         3145 
 3801000   0.65335223   -8.3678132    581.92747   0.01275821  0.011543594         3085 
 3802000   0.64464045   -8.3713211    582.15335  0.012759805  0.011538848         3051 
 3803000    0.6485635   -8.3641457     581.4464  0.012740959  0.011534099         3079 
 3804000   0.63593072   -8.3412059    582.43341  0.012759232  0.011529351         3000 
 3805000   0.63378995   -8.3323807    582.10204  0.012748621  0.011524606         3091 
 3806000   0.66251706   -8.3973423    581.92577  0.012741412  0.011519861         3010 
 3807000    0.6504808    -8.379782    581.60653  0.012731077  0.011515117         3059 
 3808000   0.63397021   -8.3793415    581.09286  0.012716493  0.011510367         3035 
 3809000   0.63932946   -8.3457799    581.93878  0.012731661  0.011505627         2994 
 3810000   0.62163818   -8.3635877    582.93891  0.012750195  0.011500886         2979 
 3811000   0.63379315   -8.3655731    580.75475  0.012699089  0.011496142         3028 
 3812000   0.64139106   -8.3455243    582.01733  0.012723359  0.011491409         2949 
 3813000   0.63916647   -8.3648561    581.37837  0.012706058  0.011486679         2971 
 3814000   0.62973554   -8.3543447    581.02245   0.01269495  0.011481949         2992 
 3815000   0.63820484   -8.3552593    580.80823  0.012686943  0.011477224         3066 
 3816000   0.62639704   -8.3584994    581.11367  0.012690288  0.011472502         3027 
 3817000   0.64409581   -8.3510054    580.97134  0.012683856  0.011467779         2984 
 3818000   0.63655632   -8.3602805    581.02474  0.012681699  0.011463059         2978 
 3819000   0.64062151   -8.3604572    582.41644  0.012708747  0.011458335         3118 
 3820000   0.63739545    -8.343889    581.47479  0.012684878   0.01145362         3043 
 3821000   0.65599848   -8.3565689    581.79214  0.012688479  0.011448906         2999 
 3822000   0.65098649   -8.3791437    581.97059   0.01268905  0.011444191         3060 
 3823000   0.62519198   -8.3761035    581.89163   0.01268401   0.01143948         3104 
 3824000   0.65876294    -8.361646    582.14671  0.012686251  0.011434775         3067 
 3825000   0.64711107   -8.3521746    582.05808  0.012681004   0.01143008         2949 
 3826000   0.63995541   -8.3358354    582.80287  0.012693912  0.011425382         3035 
 3827000   0.63366666   -8.3592168    582.20045  0.012677477  0.011420686         3076 
 3828000   0.64541366   -8.3625131    582.74242  0.012685964  0.011415986         3048 
 3829000   0.63705017   -8.3608455    582.36021  0.012674332  0.011411299         3009 
 3830000   0.63609397   -8.3795035    581.24386  0.012646733  0.011406604         3025 
 3831000   0.64665668   -8.3656981    582.38394  0.012668231  0.011401915         3091 
 3832000   0.62865545   -8.3678714    580.64881  0.012627192  0.011397225         3039 
 3833000   0.63666624    -8.361151    581.44892  0.012641293  0.011392541         3004 
 3834000   0.64240565   -8.3436392     582.6962  0.012665106  0.011387864         3008 
 3835000   0.63914398   -8.3790124    582.04951  0.012647751  0.011383187         3038 
 3836000   0.64281058   -8.3646889    581.49922    0.0126325  0.011378518         3010 
 3837000   0.63881254   -8.3739824    581.08138  0.012620133  0.011373843         3079 
 3838000   0.64185644   -8.3607038    582.30656  0.012643446  0.011369169         3045 
 3839000   0.63823701   -8.3690696    582.67394  0.012648128  0.011364499         2963 
 3840000   0.62668366   -8.3482058    581.67636  0.012623185  0.011359834         3065 
 3841000   0.63356173   -8.3736714    582.64001  0.012640806  0.011355163         3104 
 3842000     0.634702   -8.3509302    582.55884  0.012635755  0.011350499         3002 
 3843000   0.64155921   -8.3648279    581.52815  0.012610117   0.01134584         3092 
 3844000   0.63036244   -8.3618034    580.47204  0.012583941  0.011341181         3004 
 3845000   0.63867132   -8.3629792    581.63391   0.01260585  0.011336529         3048 
 3846000   0.64694797   -8.3777316    580.45954  0.012577126   0.01133187         3032 
 3847000   0.63402239   -8.3856136    581.84237  0.012603812  0.011327217         3013 
 3848000   0.62336769   -8.3722969    582.55115  0.012615886  0.011322575         3040 
 3849000   0.63094702    -8.348514    582.05457  0.012601857  0.011317932         3098 
 3850000   0.64999887   -8.3795953    580.65964  0.012568391  0.011313287         3068 
 3851000   0.62875302   -8.3807509     581.9378  0.012592785  0.011308649         3019 
 3852000   0.62913287   -8.3724921    581.38539  0.012577566  0.011304006         3110 
 3853000   0.62981046   -8.3925854    581.91058   0.01258566  0.011299368         2986 
 3854000   0.63393273   -8.3838868    581.74033  0.012578713  0.011294731         3041 
 3855000   0.63082327   -8.3631575    582.75792  0.012597447  0.011290104         3096 
 3856000   0.62761566   -8.3801085    580.84409   0.01255282  0.011285476         3057 
 3857000   0.64542918   -8.3495083    581.40579  0.012561701  0.011280851         3032 
 3858000   0.62097465   -8.3691851    580.60948  0.012541245  0.011276225         3049 
 3859000    0.6407803    -8.387084    582.09125  0.012569993  0.011271603         3025 
 3860000   0.64345568   -8.3719649    581.51528  0.012554302  0.011266982         3051 
 3861000   0.62702569   -8.3826095    581.26838  0.012545722  0.011262363         2977 
 3862000    0.6320486   -8.3733729    582.40191  0.012566932  0.011257748         3100 
 3863000    0.6406268   -8.3633614    582.54077  0.012566675  0.011253137         3084 
 3864000   0.63433748   -8.3716869    581.03496  0.012530947  0.011248531         3003 
 3865000    0.6352635   -8.3741511    581.74094  0.012542927  0.011243923         3119 
 3866000   0.63276178   -8.3896167     580.9657  0.012522972  0.011239312         3063 
 3867000   0.64106323   -8.3959845    581.31035   0.01252716  0.011234703         3149 
 3868000   0.62790051   -8.3816639    581.84565  0.012535454  0.011230105         3075 
 3869000    0.6348215   -8.3748373    581.22958  0.012518945  0.011225504         3013 
 3870000   0.62376325   -8.3595984    582.03421  0.012533036  0.011220905         3094 
 3871000    0.6300277   -8.3695595    582.22785  0.012533967  0.011216311         2939 
 3872000   0.63797295   -8.3976552     581.8306  0.012522181  0.011211727         3068 
 3873000   0.61819705   -8.3616454    582.07517   0.01252421  0.011207134         3016 
 3874000   0.62514536   -8.3831978    580.63091   0.01248991  0.011202544         3051 
 3875000   0.63544773   -8.3799457    580.88073  0.012492059  0.011197963         3087 
 3876000   0.62080791   -8.3924208    580.27201  0.012475748  0.011193379         2997 
 3877000   0.62645629   -8.3754754    580.43896  0.012476119  0.011188801         3095 
 3878000   0.62708269   -8.3864717    582.52198  0.012517663  0.011184223         3046 
 3879000   0.63536066   -8.3886139    580.70232  0.012475344  0.011179649         3111 
 3880000   0.62537614   -8.3803073    580.59192  0.012469758  0.011175084         3088 
 3881000   0.65427064   -8.3841353    581.34334  0.012482679  0.011170518         3002 
 3882000   0.62031154   -8.3622374    582.09266  0.012495549  0.011165951         2966 
 3883000   0.64915517   -8.3683325    581.53712  0.012480409  0.011161385         2996 
 3884000   0.61683718   -8.3682237    581.05217   0.01246679  0.011156823         3038 
 3885000   0.62115037   -8.3609623    580.96627  0.012461739   0.01115226         2997 
 3886000   0.62104256   -8.4050628    581.19221  0.012463377  0.011147699         3045 
 3887000   0.62723177   -8.3701449     581.7392  0.012471898  0.011143145         3087 
 3888000   0.62340992   -8.3729585     581.3923  0.012461255  0.011138591         3079 
 3889000   0.61927636   -8.3770658    581.34158  0.012456964   0.01113404         3005 
 3890000   0.63355302   -8.3709607    582.31209  0.012474552  0.011129493         3069 
 3891000    0.6356211   -8.3822472    581.83606  0.012461151  0.011124943         3055 
 3892000   0.63078352   -8.3748301    581.74791  0.012456062  0.011120399         3053 
 3893000    0.6343628   -8.3644033    581.59583  0.012449607  0.011115855         3090 
 3894000   0.63003615    -8.377137    581.56386  0.012445726  0.011111317         3065 
 3895000   0.62361521   -8.3645374    581.24287  0.012435663  0.011106779         3033 
 3896000   0.62623293   -8.3468033    581.69084  0.012442053  0.011102245         3090 
 3897000     0.623609   -8.3848369    582.18517  0.012449431   0.01109771         3085 
 3898000   0.63985261   -8.3996014    582.48482  0.012452643  0.011093181         3098 
 3899000   0.62696147   -8.3866008    581.30802  0.012424297  0.011088661         3087 
 3900000   0.61505189   -8.3721025    582.63292  0.012449421  0.011084141         3100 
 3901000   0.62541664   -8.3950895    580.96316  0.012410561   0.01107962         3089 
 3902000   0.62737699   -8.3602382    581.96173  0.012428706  0.011075104         2991 
 3903000   0.63007648   -8.3929596    582.66527  0.012440543  0.011070586         3071 
 3904000   0.63600667    -8.371364    580.58535  0.012392959  0.011066069         3014 
 3905000   0.61360214   -8.3863882    580.84398  0.012395305  0.011061558         3163 
 3906000   0.61933792   -8.3626884    581.27694  0.012401368  0.011057045         3085 
 3907000   0.63277978   -8.3746599    580.54003  0.012382477  0.011052535         3048 
 3908000   0.61707238   -8.3764017    581.57385  0.012401353  0.011048023         2975 
 3909000   0.61989483   -8.3905768    580.94297  0.012384731  0.011043517         3092 
 3910000   0.63115019   -8.3912736    580.10354  0.012363673  0.011039017         3054 
 3911000   0.64340885   -8.3800447      580.865  0.012376737  0.011034521         2991 
 3912000   0.61886292   -8.3889308    581.67809  0.012390893  0.011030026         3052 
 3913000   0.63509345   -8.3749945    582.43856  0.012403922  0.011025536         3018 
 3914000   0.61864314   -8.3719233    579.94895  0.012347746  0.011021048         3122 
 3915000   0.63103277   -8.4055749    580.68691    0.0123603  0.011016561         3059 
 3916000   0.61773305   -8.3823132     581.1615  0.012367243  0.011012078         2990 
 3917000   0.62658359   -8.3762599     580.9053  0.012358635  0.011007596         3086 
 3918000   0.62387844   -8.3717931    581.13556  0.012360378   0.01100311         3068 
 3919000   0.63379579   -8.3912393     580.9985   0.01235431  0.010998629         3129 
 3920000   0.63590797   -8.3885458     580.9958  0.012351101  0.010994154         3112 
 3921000   0.62213208   -8.3861666    581.04731  0.012349046  0.010989677         3078 
 3922000   0.61643676   -8.3581136    581.68599  0.012359468  0.010985195         3140 
 3923000   0.62556908    -8.390031    581.15278  0.012344991  0.010980725         3074 
 3924000   0.64140783   -8.3737104    581.46427   0.01234846  0.010976254         3032 
 3925000   0.62553314   -8.3741831    581.65157   0.01234929  0.010971788         3077 
 3926000   0.61917947   -8.3886358     582.0213  0.012353993  0.010967318         3055 
 3927000   0.62690396    -8.388627    580.76183   0.01232412  0.010962858         3050 
 3928000   0.62401243   -8.3777935     580.6024    0.0123176  0.010958395         3054 
 3929000    0.6334813   -8.4022371    581.16864  0.012326475  0.010953937         3085 
 3930000   0.63751514   -8.3868005     581.2394  0.012324839  0.010949485         3068 
 3931000   0.63281639   -8.3702622    581.03461  0.012317362  0.010945027         3114 
 3932000   0.61442605   -8.3887525    580.20477  0.012296642  0.010940575         3005 
 3933000   0.62886741   -8.3873762    580.97558  0.012309848  0.010936128         2932 
 3934000   0.61055844   -8.3830307    580.71208  0.012301137  0.010931681         3073 
 3935000   0.61981185    -8.400266    580.46287  0.012292733   0.01092723         3070 
 3936000   0.60923062   -8.4038354    580.11552  0.012282256  0.010922784         3069 
 3937000   0.60864386   -8.3662357    581.78347  0.012314441  0.010918343         3046 
 3938000   0.62403824   -8.4052908    580.78681  0.012290224  0.010913903         3027 
 3939000    0.6263877   -8.3858478    580.81358   0.01228767  0.010909466         3034 
 3940000   0.61018075   -8.3825986    582.31992  0.012316411  0.010905033         3051 
 3941000   0.62298977    -8.387104    581.53031  0.012296589  0.010900603         3093 
 3942000   0.61380288   -8.3861261     581.1054  0.012284487  0.010896173         3083 
 3943000   0.62179342   -8.4052569    580.92903  0.012277645  0.010891746         3100 
 3944000   0.61581569   -8.3941813     581.6599  0.012289974   0.01088732         3029 
 3945000   0.62016325   -8.4049875    580.77717  0.012268212  0.010882901         3113 
 3946000   0.62129356   -8.3962737    581.49126  0.012280184  0.010878479         3063 
 3947000   0.61156715   -8.3960406    580.77452   0.01226194   0.01087406         3005 
 3948000   0.62208287   -8.4086491    581.42769  0.012272621  0.010869641         3092 
 3949000   0.62396405   -8.4057725    580.54027  0.012250786  0.010865224         3142 
 3950000   0.63523938   -8.3764757    580.69205  0.012250887  0.010860809         3110 
 3951000   0.62167049   -8.3922086    580.58949  0.012245623  0.010856396         3039 
 3952000   0.60570904   -8.3796633    580.26642  0.012235712  0.010851989         3025 
 3953000   0.61656414   -8.3969147    579.91586  0.012225227   0.01084758         3077 
 3954000   0.63313524   -8.3952308    580.95786  0.012244096  0.010843174         3051 
 3955000    0.6216876   -8.3934261    581.36728  0.012249627  0.010838771         3075 
 3956000   0.61884994    -8.381262    582.36903  0.012267632  0.010834367         3073 
 3957000    0.6047171   -8.3956121    580.98912  0.012235471  0.010829976         3050 
 3958000   0.61666707   -8.4026689    580.85155  0.012229483  0.010825585         3111 
 3959000   0.61341655    -8.402559    580.44967  0.012217935  0.010821194         3118 
 3960000   0.61658786   -8.3882754     581.3998  0.012234844  0.010816806         3072 
 3961000    0.6200483   -8.3980152    579.92369    0.0122007  0.010812423         3107 
 3962000   0.62861811   -8.3985518    580.78738  0.012215787  0.010808043         3029 
 3963000   0.59934739   -8.4045266    581.04873    0.0122182  0.010803655         3033 
 3964000    0.6268931   -8.3761816    579.94259  0.012191864  0.010799273         3026 
 3965000   0.62618631    -8.407921    580.07817  0.012191639  0.010794895         3087 
 3966000   0.61019334   -8.3745861    582.37432  0.012236811  0.010790517         3158 
 3967000   0.61773537   -8.4117411    582.20585  0.012230188  0.010786146         3096 
 3968000   0.64072529   -8.3970301    581.19828  0.012205945  0.010781773         3048 
 3969000   0.61909307   -8.3869695    580.92672  0.012197168  0.010777408         3070 
 3970000   0.60717239   -8.4067619    581.72261  0.012210802  0.010773037         3026 
 3971000   0.62803507   -8.3851229    580.21286  0.012176044  0.010768671         3045 
 3972000   0.60319065   -8.4067204    580.87587  0.012186889  0.010764306         3049 
 3973000   0.60913572   -8.4070664    580.10273  0.012167605  0.010759944         3075 
 3974000   0.61587957   -8.4199363    580.02092  0.012162828  0.010755584         3064 
 3975000   0.60933288   -8.3958399    581.10799  0.012182558  0.010751223         3062 
 3976000   0.60137127   -8.4133861    580.24545  0.012161415  0.010746866         3076 
 3977000   0.60760259   -8.4168732    581.08499  0.012175949  0.010742513         3101 
 3978000   0.60977848    -8.390144    581.32259  0.012177866  0.010738161         3046 
 3979000   0.62530427   -8.3905426    580.03915  0.012147926  0.010733814         3074 
 3980000   0.61456147   -8.4033533    580.57496  0.012156092  0.010729468         3123 
 3981000   0.60993936   -8.3940225    580.15699  0.012144289  0.010725129         3037 
 3982000   0.60487486   -8.4188864    580.95381  0.012157915  0.010720793         3012 
 3983000   0.61155081   -8.4014883    580.97216  0.012155246  0.010716455         3089 
 3984000   0.62385208   -8.3987292    579.47334  0.012120845  0.010712122         3072 
 3985000   0.60924444   -8.3992588     581.2572  0.012155107  0.010707792         3071 
 3986000   0.62046396   -8.4073852    581.49155  0.012156957  0.010703463         3107 
 3987000   0.61864355   -8.4209006    579.62378  0.012114869  0.010699137         3092 
 3988000   0.61858111   -8.3996609    580.32068  0.012126393  0.010694812         3034 
 3989000     0.617966    -8.406736    580.69839  0.012131244  0.010690489         3067 
 3990000   0.61009327   -8.3814347     581.4922  0.012144783  0.010686169         3091 
 3991000   0.62599826    -8.400993     579.8079  0.012106571  0.010681849         3021 
 3992000   0.61880937   -8.4061789    580.91245  0.012126596  0.010677535         3014 
 3993000   0.61860372   -8.3975087    581.00446  0.012125479  0.010673222         3113 
 3994000   0.62648839   -8.4202252    580.82286  0.012118654  0.010668907         3156 
 3995000   0.62089376   -8.4160567    579.73459   0.01209292  0.010664599         3107 
 3996000   0.60508212   -8.3918604    580.00702  0.012095575  0.010660288         3108 
 3997000   0.59988106   -8.4097098    580.34569   0.01209961  0.010655989         3053 
 3998000   0.61333871   -8.3948548    580.31477  0.012095939  0.010651694         3053 
 3999000   0.61075334   -8.4094559    580.66047  0.012100118    0.0106474         3022 
 4000000   0.62133566   -8.3911471    579.45429  0.012071964  0.010643103         3118 
 4001000   0.59881408    -8.417835    580.29395  0.012086436  0.010638809         3140 
 4002000    0.6058109   -8.4109327    581.06569  0.012099485   0.01063452         3025 
 4003000    0.6198976   -8.4129482    580.15088  0.012077419  0.010630232         3026 
 4004000   0.60238633   -8.4087208    581.04644  0.012093041  0.010625948         3058 
 4005000   0.61348418   -8.4242923    579.99128  0.012068067  0.010621663         3147 
 4006000   0.61011545   -8.4178779     580.0002   0.01206524  0.010617378         3047 
 4007000   0.60913013   -8.3948778    581.07713  0.012084625  0.010613095         3096 
 4008000    0.6145898   -8.3952151    581.14288  0.012082977  0.010608818         3055 
 4009000   0.61147819    -8.399843    581.90137   0.01209573  0.010604544         3126 
 4010000   0.61051822    -8.418238    580.31664   0.01205978   0.01060027         3033 
 4011000   0.60895497   -8.4148827    581.64577  0.012084388  0.010595995         3140 
 4012000   0.60241736   -8.4076249     579.4373  0.012035504  0.010591724         3116 
 4013000   0.61688936   -8.3927277    580.79864  0.012060774  0.010587458         3066 
 4014000   0.59445292   -8.4207717     579.4914   0.01203063  0.010583196         3082 
 4015000   0.60096753   -8.3928742    580.90194   0.01205691  0.010578935         3027 
 4016000   0.60899528   -8.4001543    580.28596  0.012041126  0.010574677         3064 
 4017000   0.61372306   -8.4093486    580.39765  0.012040446  0.010570413         3119 
 4018000   0.61039959   -8.4022406    579.94917  0.012028148  0.010566152         3087 
 4019000   0.61747861   -8.4426307    581.11266   0.01204928  0.010561901         3039 
 4020000   0.60141323   -8.4120864    580.39252  0.012031354  0.010557644         3049 
 4021000   0.61223513   -8.4058899    579.76013  0.012015256  0.010553391         3111 
 4022000   0.60799792    -8.404092    579.98192  0.012016864  0.010549142         3089 
 4023000   0.60823651   -8.3964906    580.34861  0.012021473  0.010544894         3005 
 4024000    0.6029147   -8.4013458    581.93974  0.012051436   0.01054065         3034 
 4025000   0.60780883   -8.4040113    580.29552    0.0120144  0.010536404         2994 
 4026000    0.6040446    -8.426176    579.91166   0.01200347  0.010532164         3044 
 4027000   0.61285337   -8.3929733    580.94754  0.012021926  0.010527927         2971 
 4028000   0.59948127   -8.4139096    579.86472  0.011996539  0.010523691         3042 
 4029000   0.59806501   -8.4137952    580.45656  0.012005803  0.010519459         3070 
 4030000   0.60599265   -8.4112362    579.87813  0.011990863  0.010515231         3053 
 4031000   0.60935803   -8.4036759     580.1489  0.011993486  0.010511003         3023 
 4032000   0.61521306   -8.4343707    579.67068  0.011980627  0.010506775         2973 
 4033000   0.60774836   -8.4025186    580.18735  0.011988333  0.010502548         3066 
 4034000   0.59798655   -8.4042219    580.05631  0.011982654  0.010498321         3006 
 4035000   0.61575609     -8.41578    580.51843  0.011989228  0.010494097         3044 
 4036000   0.59990081   -8.3919952    581.13309  0.011998949   0.01048988         3046 
 4037000   0.60540278   -8.4162593    581.07721  0.011994823  0.010485663         3049 
 4038000   0.60266251    -8.409841    579.64066  0.011962206  0.010481449         3036 
 4039000   0.59287421   -8.4015573    580.80971  0.011983364  0.010477236         3014 
 4040000   0.60606954   -8.4107554    580.71075  0.011978357  0.010473015         3084 
 4041000    0.6148235   -8.4210492    579.50346  0.011950496  0.010468804         3023 
 4042000   0.60574201    -8.406636    580.43901  0.011966828    0.0104646         2997 
 4043000   0.61269402   -8.4235056    580.49683   0.01196506  0.010460395         3012 
 4044000   0.61017716   -8.4136864    580.04342  0.011952758  0.010456195         3024 
 4045000   0.61583797   -8.3866322    581.02745  0.011970075  0.010451994         3018 
 4046000   0.60998265   -8.4165114    581.07186  0.011968031  0.010447795         3051 
 4047000   0.60037425   -8.4281658    579.81167  0.011939125  0.010443596         3064 
 4048000   0.59511547   -8.4175185    579.94339  0.011938887  0.010439401         3057 
 4049000   0.60147851   -8.4181455    579.94838  0.011936041  0.010435204         3082 
 4050000   0.59830284   -8.4148761     580.3925  0.011942232  0.010431012         3036 
 4051000   0.61033848   -8.4232661    580.12339  0.011933749  0.010426823         3059 
 4052000   0.60203356    -8.413036    579.90884  0.011926391  0.010422636         2986 
 4053000   0.60436748   -8.4183408    580.22354  0.011929919  0.010418453         3069 
 4054000   0.61082154   -8.4213976    580.14403  0.011925342  0.010414274         3025 
 4055000   0.59758834   -8.4071702    579.98118  0.011919054  0.010410099         3050 
 4056000   0.60686754    -8.426858    579.64033  0.011909113  0.010405918         3111 
 4057000   0.61497438   -8.4217262    579.75239  0.011908479  0.010401741         3024 
 4058000   0.60003431     -8.40335    579.71185  0.011904712   0.01039757         3098 
 4059000   0.59733353   -8.4208919    579.44738  0.011896349  0.010393395         3081 
 4060000   0.59737313   -8.4290581    580.17117  0.011908275  0.010389225         3086 
 4061000   0.58546593   -8.4270911    579.37656  0.011889037  0.010385058         3122 
 4062000   0.60798772   -8.4259261     580.0416  0.011899754  0.010380892         3100 
 4063000   0.60358455   -8.4087258    579.36451  0.011882938  0.010376732         3109 
 4064000   0.60082611     -8.42177     579.8185  0.011889323  0.010372568         3078 
 4065000   0.61149746   -8.4186584    580.91376  0.011908851  0.010368409         3062 
 4066000   0.61302763   -8.4220697    580.56154  0.011898703  0.010364252         3108 
 4067000   0.60028186    -8.425981     579.6434  0.011876965  0.010360099         3053 
 4068000   0.58834142   -8.4120534    579.16421  0.011864229  0.010355947         3087 
 4069000   0.58943171   -8.4269327    580.60017  0.011890722  0.010351794         3107 
 4070000   0.60093874   -8.4457737    579.75996  0.011870597  0.010347646         3146 
 4071000   0.59598572   -8.4263291    580.44528   0.01188171  0.010343496         3033 
 4072000   0.59016085   -8.4214885    580.19301  0.011873629  0.010339354         3057 
 4073000   0.61171161   -8.4262562    580.07758  0.011868352  0.010335209         3110 
 4074000   0.59677237    -8.406886    579.95813  0.011862996  0.010331068         3091 
 4075000   0.61124509   -8.4230464    579.01483  0.011840794  0.010326929         3101 
 4076000   0.61292278   -8.4403363     580.3347  0.011864874  0.010322793         3132 
 4077000   0.60977996   -8.4282318     580.5835  0.011867049  0.010318655         3085 
 4078000   0.60227257   -8.4013662    581.65625   0.01188606  0.010314526         3044 
 4079000    0.5901482   -8.4247436    579.29229  0.011834851  0.010310396         3125 
 4080000   0.59125089    -8.420223    581.16799  0.011870261  0.010306271         3011 
 4081000   0.59785577      -8.4281    579.39062  0.011831059  0.010302142         3045 
 4082000    0.5952821   -8.4333358    578.96995  0.011819573  0.010298018         3100 
 4083000   0.60797091   -8.4300895    579.56356  0.011828793  0.010293897         3072 
 4084000   0.60507158   -8.4424664    579.50368  0.011824675  0.010289777         3113 
 4085000   0.59658182   -8.4198433    579.66502  0.011825072  0.010285656         3053 
 4086000    0.6121811   -8.4224427    580.04705  0.011829969  0.010281535         3053 
 4087000   0.58792092   -8.4415063    579.74725  0.011820962   0.01027742         3078 
 4088000   0.58755764   -8.4306379    580.10019  0.011825265  0.010273307         3107 
 4089000   0.59068972   -8.4291148     580.2021   0.01182445  0.010269199         3083 
 4090000   0.59753296   -8.4320885    579.39987  0.011805213  0.010265091         3123 
 4091000   0.59014907     -8.42387    581.18785  0.011838749  0.010260991         3057 
 4092000   0.59329413   -8.4284089    579.94795  0.011810605  0.010256892         3031 
 4093000   0.59505246    -8.434282    579.55305  0.011799679  0.010252789         3136 
 4094000   0.59557576   -8.4168443    581.18754  0.011830067  0.010248693         3008 
 4095000   0.60174573   -8.4090444    580.13345  0.011805728  0.010244597         3111 
 4096000   0.60506141   -8.4218347    580.09701  0.011802104  0.010240505         3086 
 4097000   0.59597997   -8.4205242    579.68731   0.01179089  0.010236414         3044 
 4098000   0.59599697   -8.4135762    579.24059  0.011778928  0.010232322         3084 
 4099000   0.58752329   -8.4405264    578.88049  0.011768734  0.010228234         3001 
 4100000   0.58517202   -8.4326746    580.04345  0.011789501  0.010224147         3115 
 4101000   0.58584364   -8.4040195    580.20394  0.011789887  0.010220066         3048 
 4102000   0.57903895   -8.4405721    579.76021  0.011777999  0.010215987         3079 
 4103000   0.59126982   -8.4415784    579.43788  0.011768582  0.010211908         2998 
 4104000   0.58464711   -8.4344203    580.05979  0.011778342  0.010207835         3116 
 4105000   0.59482255   -8.4279249    579.23221  0.011758673  0.010203756         3104 
 4106000   0.61117808   -8.4253027    579.26333   0.01175644  0.010199683         3083 
 4107000   0.58702067   -8.4204707    580.72055  0.011783146   0.01019561         3032 
 4108000   0.58952695   -8.4434609    579.72653  0.011760113  0.010191543         3045 
 4109000   0.58315248   -8.4459691    580.24408  0.011767747  0.010187478         3092 
 4110000    0.5856127   -8.4449621    580.25954  0.011765198  0.010183416         3067 
 4111000   0.59199296   -8.4303087    580.06326  0.011758357  0.010179355         2989 
 4112000   0.59503212    -8.442036      580.892  0.011772292    0.0101753         3042 
 4113000   0.58857468   -8.4450539    578.76582  0.011726352  0.010171238         3014 
 4114000    0.6048475   -8.4082083    579.45155  0.011737392  0.010167175         2976 
 4115000   0.59935056   -8.4509461    580.33133  0.011752356  0.010163127         3083 
 4116000   0.58795746    -8.437041    580.02951   0.01174339  0.010159073         3066 
 4117000   0.58663608   -8.4456338    579.15365  0.011722809  0.010155021         3050 
 4118000    0.5986672   -8.4360088    578.82117  0.011713234   0.01015097         3088 
 4119000   0.58633464   -8.4302738    578.41596  0.011702192  0.010146921         3085 
 4120000   0.59587223   -8.4474452    579.29794  0.011717191  0.010142876         3127 
 4121000   0.58320338   -8.4377523    580.28897  0.011734388  0.010138834         3047 
 4122000   0.60417697   -8.4593537    579.01736  0.011705834  0.010134796         3093 
 4123000   0.59075496   -8.4324869    580.19305  0.011726758  0.010130756         3064 
 4124000   0.59931614   -8.4324635    579.22058  0.011704263  0.010126722         3115 
 4125000   0.59374682   -8.4296885    580.40094  0.011725272  0.010122686         3100 
 4126000   0.59335047   -8.4275999    579.49574  0.011704147  0.010118652         3112 
 4127000   0.60007889    -8.443306    579.35011  0.011698371  0.010114617         3033 
 4128000   0.59458082   -8.4429907    579.35213  0.011695578  0.010110587         3127 
 4129000   0.60077945    -8.445593    580.13007  0.011708446  0.010106559         3011 
 4130000   0.59403048   -8.4529805    580.22911  0.011707609  0.010102534         3017 
 4131000   0.59157417   -8.4469494    578.99847   0.01167995  0.010098514         3063 
 4132000   0.58535848   -8.4437397    579.43406  0.011685908  0.010094495         3133 
 4133000   0.59754614   -8.4313382    579.03914  0.011675118  0.010090478         3035 
 4134000   0.60133502   -8.4454785    579.40566  0.011679682  0.010086462         3050 
 4135000   0.59683358   -8.4386429    579.99323  0.011688699   0.01008245         3103 
 4136000   0.59818712   -8.4273003    579.52423  0.011676423  0.010078441         3091 
 4137000   0.59196313   -8.4458406    579.38671   0.01167083  0.010074432         3048 
 4138000   0.59099743   -8.4353302    579.47441  0.011669776  0.010070425         3094 
 4139000   0.58210019   -8.4347383    579.10212  0.011659461  0.010066421         3076 
 4140000   0.59099964   -8.4291909    580.33214  0.011681404  0.010062418         3081 
 4141000   0.57883452   -8.4372853    578.94994  0.011650768  0.010058419         3071 
 4142000   0.58557297   -8.4513322    579.89862  0.011667041  0.010054418         3067 
 4143000    0.5923712   -8.4254787    579.10078  0.011648177   0.01005042         3049 
 4144000   0.59702804   -8.4251684    579.48725  0.011653138  0.010046425         3032 
 4145000   0.59350259   -8.4316772    579.07207   0.01164198  0.010042431         3041 
 4146000   0.57503759   -8.4556247    578.43945  0.011626456  0.010038441         3182 
 4147000   0.58879026   -8.4403839    578.58876  0.011626653  0.010034447         3083 
 4148000   0.58939528   -8.4454581    578.91816  0.011630468  0.010030456         3097 
 4149000   0.59897169   -8.4540986    579.47512  0.011638851  0.010026468         3141 
 4150000   0.59628006    -8.428747    579.34663  0.011633466  0.010022488         3090 
 4151000    0.5880058   -8.4469054     577.7189  0.011597986  0.010018504         3170 
 4152000   0.59420921   -8.4420059    578.18807   0.01160461  0.010014524         3073 
 4153000   0.59823304   -8.4678653    578.57838  0.011609647  0.010010548         3076 
 4154000   0.58741928   -8.4586969    578.96195  0.011614547  0.010006574         3079 
 4155000   0.59408633   -8.4595285     579.8005   0.01162857  0.010002598         3096 
 4156000    0.5944697   -8.4567484    578.61687  0.011602039 0.0099986236         3022 
 4157000   0.60007961   -8.4593861    579.23443  0.011611628 0.0099946507         3109 
 4158000   0.57984194     -8.44322    578.92256  0.011602585 0.0099906846         3074 
 4159000   0.57860731   -8.4343773    578.96156  0.011600576 0.0099867219         3110 
 4160000   0.57261104    -8.434658    578.70338  0.011592616 0.0099827595         3082 
 4161000   0.57732413   -8.4369188    579.78797  0.011611551 0.0099787989         3100 
 4162000   0.59589463   -8.4340473    578.54685  0.011583911 0.0099748374         3125 
 4163000   0.59013502   -8.4534687    579.43612   0.01159893 0.0099708837         3079 
 4164000   0.58653537   -8.4436356    577.77776  0.011562956  0.009966926         3101 
 4165000   0.57948044   -8.4662713    578.77838    0.0115802   0.00996297         3034 
 4166000   0.58082947   -8.4531896    578.92789  0.011580411 0.0099590196         3021 
 4167000   0.58546758   -8.4329003    579.66122  0.011592297 0.0099550689         3118 
 4168000   0.58217473   -8.4450745    578.63838  0.011569065 0.0099511184         3100 
 4169000   0.58968236   -8.4566448    579.64622  0.011586436 0.0099471733         3062 
 4170000   0.57413285   -8.4553677    578.58523  0.011562455 0.0099432289         3082 
 4171000   0.58613889   -8.4522733    579.59248  0.011579807 0.0099392904         3126 
 4172000   0.59428093   -8.4578819    579.46985  0.011574582 0.0099353518         3122 
 4173000   0.59086548    -8.447022    579.58323  0.011574072 0.0099314177         3071 
 4174000   0.57766294   -8.4466946     579.3552  0.011566747 0.0099274811         3090 
 4175000   0.58348509   -8.4250602    579.36776  0.011564227 0.0099235486         3151 
 4176000   0.59338431   -8.4528338    579.99382  0.011573951 0.0099196157         3134 
 4177000   0.59078415   -8.4438966    578.61613  0.011543694 0.0099156881         3102 
 4178000   0.58926505   -8.4686893    578.89699  0.011546533 0.0099117619         3124 
 4179000   0.58071935   -8.4456758    579.90476  0.011563866 0.0099078388         3118 
 4180000   0.58167205   -8.4572279    579.84447  0.011559898 0.0099039164         3079 
 4181000   0.59674652   -8.4507961     578.2828  0.011526007  0.009899995         3050 
 4182000   0.58481691   -8.4611247    578.37868  0.011525161  0.009896076         3117 
 4183000   0.58616897   -8.4480351    579.99031  0.011554513 0.0098921628         3124 
 4184000   0.57928613   -8.4576267    579.02701  0.011532565 0.0098882495         3101 
 4185000   0.57388428   -8.4628403    578.94625  0.011528201 0.0098843388         3094 
 4186000   0.57705239   -8.4432215    578.70728   0.01152069 0.0098804287         3134 
 4187000   0.57870103   -8.4509195     579.1172  0.011526097 0.0098765207         3096 
 4188000    0.5836949   -8.4563921    578.45848  0.011510237 0.0098726136         3070 
 4189000   0.56992443   -8.4715628    578.54104  0.011509132  0.009868707         3154 
 4190000   0.58149393    -8.442648    578.79314  0.011511399 0.0098648017         3095 
 4191000    0.5756339   -8.4631469    577.90535     0.011491 0.0098609046         3023 
 4192000   0.59626187    -8.456943    579.52138  0.011520384 0.0098570073         3048 
 4193000   0.58592242   -8.4660476     578.7296    0.0115019 0.0098531129         3128 
 4194000   0.58079945   -8.4593746    578.85648  0.011501679 0.0098492215         3109 
 4195000   0.58361958   -8.4454238    578.70731  0.011495974 0.0098453309         3078 
 4196000   0.56139721   -8.4814553      578.298  0.011485105 0.0098414375         3084 
 4197000   0.58054903   -8.4725019    579.35329  0.011503322 0.0098375457         3126 
 4198000   0.57829538   -8.4586981    578.22567  0.011478197 0.0098336614         3037 
 4199000   0.58289726   -8.4581431    578.12798  0.011473525 0.0098297769         3075 
 4200000   0.57431666   -8.4494821    578.97525  0.011487604 0.0098258911         3050 
 4201000   0.59210924   -8.4501619    579.22336  0.011489791 0.0098220093         3027 
 4202000   0.57850963   -8.4578588    577.95517  0.011461906  0.009818131         3063 
 4203000   0.57748349   -8.4564479    579.17041  0.011483274 0.0098142558         3099 
 4204000   0.58590344   -8.4489421    579.34313  0.011483966 0.0098103807         3057 
 4205000   0.58108941   -8.4260089    579.72152  0.011488734 0.0098065094         3001 
 4206000    0.5820006   -8.4412454    579.43287  0.011480284 0.0098026395         3097 
 4207000   0.57167353   -8.4583542    578.42084  0.011457508 0.0097987695         3064 
 4208000   0.58740088   -8.4578744    578.60806  0.011458493 0.0097949034         3086 
 4209000   0.58062534   -8.4479392    579.31918   0.01146985 0.0097910403         3062 
 4210000   0.56424955    -8.433534    579.22846   0.01146533 0.0097871812         3073 
 4211000   0.58267684   -8.4577933    579.53656  0.011468704  0.009783319         3053 
 4212000   0.57944604   -8.4480351    579.25531  0.011460417  0.009779457         3076 
 4213000   0.58675352   -8.4457214    579.26329  0.011457854  0.009775602         3047 
 4214000   0.57416752   -8.4606588    579.86986  0.011467131  0.009771749         3066 
 4215000   0.57624885   -8.4784739    578.80007   0.01144326 0.0097678949         3114 
 4216000   0.57450531   -8.4484242    578.78335  0.011440215 0.0097640467         3095 
 4217000   0.58305645   -8.4640578    580.00354  0.011461615 0.0097601974         3054 
 4218000   0.58196565   -8.4665613    578.99251  0.011438923 0.0097563479         3034 
 4219000   0.56863641   -8.4577717     578.9094   0.01143457 0.0097525041         3002 
 4220000   0.58981334   -8.4566765    578.74118  0.011428538 0.0097486644         3018 
 4221000    0.5737222   -8.4793021    578.56812  0.011422414 0.0097448237         3055 
 4222000   0.56342461   -8.4647667    578.47913  0.011417952 0.0097409828         3022 
 4223000   0.56583319   -8.4614102    579.46767  0.011434756 0.0097371441         3070 
 4224000   0.57601809   -8.4713212    579.17955  0.011426364 0.0097333036         3045 
 4225000   0.57035303   -8.4444014    578.75623   0.01141531 0.0097294712         3095 
 4226000   0.57957028   -8.4703179    578.70824  0.011411663 0.0097256378         3080 
 4227000   0.57576846   -8.4659564    578.50236  0.011404904 0.0097218077         3054 
 4228000   0.58114583   -8.4873487    578.97036  0.011411431 0.0097179771         3074 
 4229000   0.58036601   -8.4595169     579.4766  0.011418708 0.0097141498         3075 
 4230000   0.57911995   -8.4917891    577.21553  0.011371464 0.0097103231         3129 
 4231000     0.564475   -8.4807987    578.92128  0.011402373 0.0097064984         3110 
 4232000   0.57899639   -8.4721151    579.33021  0.011407731 0.0097026757         3103 
 4233000   0.56762933   -8.4738754    578.05416  0.011379915 0.0096988536         3109 
 4234000   0.57981337    -8.480398     578.2401  0.011380887  0.009695037         3095 
 4235000    0.5744795   -8.4770709    578.73025  0.011387844 0.0096912231         3037 
 4236000   0.56594259   -8.4698917    578.65994  0.011383773 0.0096874112         3092 
 4237000   0.57489907   -8.4602821    579.15485   0.01139082 0.0096835999         3113 
 4238000   0.57567895   -8.4708686    577.95816  0.011364601 0.0096797915         3110 
 4239000   0.57986879   -8.4576485    579.16128  0.011385572 0.0096759844         3023 
 4240000   0.57591831   -8.4661218    578.45982    0.0113691 0.0096721801         3089 
 4241000   0.57931729   -8.4670793     578.4141  0.011365521  0.009668378         3118 
 4242000   0.56668824   -8.4561615    579.03093  0.011374959 0.0096645756         3057 
 4243000   0.57480385   -8.4889128    578.66542    0.0113651 0.0096607746         3134 
 4244000   0.56983186   -8.4627627    577.88901  0.011347177 0.0096569727         3074 
 4245000   0.57563913   -8.4637067    578.98523  0.011366023 0.0096531747         3107 
 4246000   0.57117505   -8.4694157    578.72794  0.011358297 0.0096493783         3098 
 4247000   0.57750489   -8.4591814    579.60467  0.011372825  0.009645586         3108 
 4248000   0.56615924   -8.4690503    578.29742  0.011344504 0.0096417945         3100 
 4249000   0.57309162   -8.4670271    578.19652  0.011339855 0.0096380045         3078 
 4250000    0.5733171   -8.4610938    577.50525  0.011323632 0.0096342154         3105 
 4251000   0.57114127   -8.4718761     578.9313  0.011348924 0.0096304288         3060 
 4252000   0.57905402   -8.4794001     578.7493  0.011342688 0.0096266446         3120 
 4253000   0.56622958   -8.4726081    577.34878  0.011312579 0.0096228632         3097 
 4254000   0.57583941   -8.4879774    580.14535  0.011364703 0.0096190856         3083 
 4255000   0.57684182    -8.457624    579.91216  0.011357465 0.0096153106         3052 
 4256000    0.5863916   -8.4787753    578.10793  0.011319469 0.0096115367         3089 
 4257000   0.57341461   -8.4612394    578.28875   0.01132035 0.0096077637         3069 
 4258000   0.58077746   -8.4570721    578.32395   0.01131838 0.0096039914         3010 
 4259000   0.57998937   -8.4527449    578.98761  0.011328708 0.0096002238         3090 
 4260000   0.57474031   -8.4722642    577.20293  0.011291137 0.0095964559         3087 
 4261000   0.56387368   -8.4791188    577.88624  0.011301851 0.0095926885         3161 
 4262000   0.57862027   -8.4603983    578.26019  0.011306511  0.009588923         3088 
 4263000   0.57041983    -8.468748    577.88089  0.011296444  0.009585163         3107 
 4264000   0.56711646    -8.470686    578.22452  0.011300511  0.009581403         3084 
 4265000   0.56239643   -8.4765182    578.31965   0.01129972 0.0095776442         3130 
 4266000    0.5676901   -8.4760661    578.33171  0.011297306 0.0095738888         3069 
 4267000   0.56934785   -8.4932337    578.64364  0.011300751 0.0095701363         3126 
 4268000   0.56697338   -8.4852506    579.59818   0.01131674 0.0095663839         3108 
 4269000   0.56019191   -8.4715372    579.38546  0.011309937 0.0095626352         3169 
 4270000   0.56396512   -8.4667114    577.74012  0.011275178  0.009558889         3153 
 4271000   0.57322884   -8.4485983    578.57497  0.011288827 0.0095551454         3073 
 4272000   0.57143279   -8.4846493    577.73603   0.01126982  0.009551401         3083 
 4273000   0.56227235   -8.4751546    578.95184  0.011290893 0.0095476607         3117 
 4274000   0.56763684   -8.4841875     578.2934  0.011275413 0.0095439199         3077 
 4275000   0.56984822   -8.4735704    577.84303  0.011263997 0.0095401793         3178 
 4276000    0.5753759   -8.4795369    577.59122  0.011256455 0.0095364461         3077 
 4277000   0.57203567   -8.4818736    577.88275  0.011259503 0.0095327119         3118 
 4278000   0.55995769   -8.4598766    577.67688  0.011252861 0.0095289796         3143 
 4279000   0.57216356   -8.4714514    578.68822  0.011269927 0.0095252468         3120 
 4280000   0.55600771   -8.4908581    578.16462  0.011257099 0.0095215185         3106 
 4281000   0.56004084   -8.4775489    578.82465  0.011267318 0.0095177916         3038 
 4282000   0.56006942   -8.4767496    578.32202  0.011254905 0.0095140642         3086 
 4283000   0.56844579   -8.4789803    578.08932  0.011247749 0.0095103401         3041 
 4284000   0.56152718   -8.4764817    578.95232  0.011261911 0.0095066193         3073 
 4285000   0.57857133   -8.4866997    578.20495  0.011244748  0.009502902         3070 
 4286000   0.56454241   -8.4992808    578.09741  0.011240034  0.009499187         3076 
 4287000   0.57749361   -8.4946192    578.84203  0.011251886 0.0094954697         3149 
 4288000     0.573916   -8.4860979    578.34855  0.011239672 0.0094917497         3116 
 4289000   0.56218852   -8.4765292    578.15974  0.011233383  0.009488039         3096 
 4290000   0.57190972   -8.4837627     577.3264  0.011214576 0.0094843297         3089 
 4291000   0.57921734    -8.481502    578.25744  0.011230044 0.0094806214         3156 
 4292000   0.55721925   -8.4889274    578.41024  0.011230395 0.0094769186         3129 
 4293000   0.57660093   -8.4885898    578.90975  0.011237475 0.0094732131         3019 
 4294000    0.5594844   -8.4726518    578.01984  0.011217587 0.0094695116         2996 
 4295000   0.56014081   -8.4734476    576.70358  0.011189437 0.0094658083         3117 
 4296000   0.55403205   -8.4910389     578.1519  0.011214927 0.0094621116         3040 
 4297000   0.55849591   -8.4706033    578.67909  0.011222541 0.0094584168         3032 
 4298000   0.56447464   -8.4943056    578.33642  0.011213286 0.0094547221         3071 
 4299000   0.56942669   -8.4954152    577.63756   0.01119713 0.0094510294         3090 
 4300000   0.56156427   -8.4732861    578.39061   0.01120912 0.0094473357         3091 
 4301000   0.55903691   -8.4749592    577.96636  0.011198294 0.0094436465         3055 
 4302000   0.56163601   -8.4734739    578.74853  0.011210842 0.0094399572         3005 
 4303000    0.5671812   -8.4823765    577.46547  0.011183389 0.0094362746         3045 
 4304000   0.55956939   -8.4844259    577.41502  0.011179814 0.0094325904         3098 
 4305000   0.56336387   -8.4862337    578.75313  0.011203119 0.0094289062         3041 
 4306000   0.56775233   -8.4737824    577.70441  0.011180222 0.0094252285         3066 
 4307000   0.56492779   -8.4854866    578.38119   0.01119072 0.0094215472         3102 
 4308000   0.58041027   -8.4669165    577.52637  0.011171587 0.0094178716         3086 
 4309000   0.55919446   -8.5069756    578.21626  0.011182337 0.0094141967         3094 
 4310000   0.55470138   -8.4958817    578.02308  0.011176007 0.0094105218         3115 
 4311000   0.55703831   -8.5066542    578.60259  0.011184617 0.0094068496         3093 
 4312000   0.55492025   -8.5012887    577.31685  0.011157175 0.0094031793         3102 
 4313000   0.56395411   -8.5102589    578.06385  0.011169021 0.0093995092         3088 
 4314000   0.54715718   -8.4808956    578.26374  0.011170293 0.0093958412         3043 
 4315000   0.55093511   -8.4828291    577.34665  0.011149993 0.0093921771         3027 
 4316000   0.56763096   -8.4905667    577.21018  0.011144775 0.0093885138         3160 
 4317000   0.56480254   -8.5071063    577.13295  0.011140702 0.0093848518         3096 
 4318000   0.55076331   -8.4902946    578.01793  0.011155202 0.0093811943         3086 
 4319000   0.55432012   -8.4889609    578.98425  0.011171264  0.009377536         3133 
 4320000   0.56228165   -8.4797836    578.38928  0.011157201 0.0093738822         3074 
 4321000   0.54845489   -8.4806679    577.63962  0.011140161 0.0093702311         3160 
 4322000   0.56962894   -8.4885291    576.92958  0.011123893 0.0093665826         3077 
 4323000   0.55051809   -8.4934407    577.63642  0.011134945 0.0093629366         2994 
 4324000   0.57101991   -8.4847977    578.34355  0.011145998 0.0093592938         3112 
 4325000   0.56176416   -8.4878322    577.40737  0.011125383 0.0093556512         3116 
 4326000   0.57152808   -8.4934966    577.98295  0.011133899 0.0093520113         3152 
 4327000    0.5567133   -8.4987221    578.21017  0.011135702 0.0093483702         3141 
 4328000   0.55744925    -8.479104    577.76361   0.01112453 0.0093447293         3073 
 4329000    0.5690581   -8.4970084    577.93476  0.011125255 0.0093410938         3130 
 4330000   0.55177999   -8.4956183    577.99719  0.011123887 0.0093374577         3140 
 4331000   0.56365254   -8.4888514    577.37717  0.011109389  0.009333825         3102 
 4332000   0.55770873   -8.4890616    578.28593  0.011124306 0.0093301916         3074 
 4333000   0.53487494   -8.4829005    577.81643  0.011112709 0.0093265607         3087 
 4334000   0.55772982   -8.5098423    577.62098  0.011106387 0.0093229308         3054 
 4335000    0.5479041   -8.4853352     577.8517   0.01110826 0.0093193082         3052 
 4336000   0.55714775   -8.4897569    577.47204  0.011098402 0.0093156823         3083 
 4337000   0.55822536   -8.4956765    576.97126   0.01108622 0.0093120632         3062 
 4338000   0.56616349   -8.4923437    578.23386   0.01110792 0.0093084435         3099 
 4339000   0.56334498   -8.5247711    578.17112  0.011104155 0.0093048258         3083 
 4340000   0.55476191   -8.4992154    577.53357  0.011089354  0.009301212         3060 
 4341000   0.55041818   -8.4984249    577.42196  0.011084657 0.0092975955         3087 
 4342000   0.55995323   -8.4791497    577.45643  0.011082766 0.0092939831         3071 
 4343000   0.54662155   -8.4943762    577.98036  0.011090267  0.009290373         3152 
 4344000   0.54927851   -8.5065907    577.40393  0.011076656  0.009286765         3078 
 4345000   0.55626686   -8.4879576    575.98702  0.011046932 0.0092831606         3061 
 4346000   0.54207838   -8.5110823    578.23542  0.011087502 0.0092795542         3120 
 4347000   0.56483065   -8.5109451    577.91374  0.011078785  0.009275949         3135 
 4348000   0.54759705   -8.5022209     577.1627  0.011061843   0.00927235         3162 
 4349000   0.54835324   -8.4976592    578.13413  0.011077913 0.0092687485         3121 
 4350000   0.56053278   -8.5007124    577.64918  0.011066076 0.0092651517         3140 
 4351000   0.55816876    -8.500866    577.21244  0.011055168 0.0092615527         3065 
 4352000    0.5508472   -8.5136079    577.74263   0.01106278 0.0092579589         3136 
 4353000   0.55679197   -8.4983418    577.22146  0.011050261  0.009254365         3051 
 4354000   0.53818208   -8.4926162    577.84189  0.011059598 0.0092507745         3089 
 4355000   0.54386219   -8.5052719    578.20713  0.011064048 0.0092471845         3075 
 4356000   0.55241922   -8.4812107    578.38764  0.011064961  0.009243598         3136 
 4357000   0.56510323   -8.4763628    578.11441  0.011057195 0.0092400137         3103 
 4358000   0.54480358   -8.4956582    577.95629  0.011051635 0.0092364338         3068 
 4359000   0.56095443   -8.5161746    578.18919  0.011053552 0.0092328505         3092 
 4360000   0.54565089   -8.4920778    577.99223  0.011047252 0.0092292724         3020 
 4361000   0.55416185   -8.5047889    577.67353  0.011038629 0.0092256936         3090 
 4362000   0.55965002    -8.514956    578.74341  0.011056538 0.0092221169         3078 
 4363000    0.5528094   -8.5154982    576.23949  0.011006179 0.0092185457         3069 
 4364000   0.55170799    -8.501151     577.9516   0.01103635 0.0092149679         3093 
 4365000    0.5647008   -8.5037183    578.37428  0.011041892 0.0092114017         3128 
 4366000   0.56068071   -8.4940521    577.48045  0.011022302 0.0092078297         3090 
 4367000   0.55046341   -8.5058894    577.50072  0.011020165 0.0092042595         3122 
 4368000    0.5462386   -8.5107229    577.33272  0.011014437 0.0092006891         3053 
 4369000   0.54484799   -8.4870565      577.469  0.011014515 0.0091971247         3058 
 4370000   0.54832995   -8.5014934    578.35527  0.011028895 0.0091935641         3098 
 4371000   0.55516605   -8.5023936    576.92265  0.010999059 0.0091900025         3070 
 4372000     0.551096   -8.5064137    578.21178  0.011021115 0.0091864392         3093 
 4373000   0.54403253   -8.4960535    577.80847  0.011010909 0.0091828819         3151 
 4374000   0.54497368    -8.495906    578.05849  0.011013155 0.0091793274         3128 
 4375000   0.54682842   -8.4929826    577.95106  0.011008592 0.0091757772         3126 
 4376000   0.55284979   -8.5027057    576.81064  0.010984359 0.0091722275         3083 
 4377000   0.53905194   -8.5035615    577.52149  0.010995383 0.0091686781         3082 
 4378000   0.54834451   -8.5037883    577.11805  0.010985192 0.0091651281         3048 
 4379000   0.53942738   -8.5150936    578.45532  0.011008132  0.009161582         3031 
 4380000    0.5526182   -8.5041721    576.86005  0.010975267 0.0091580392         3081 
 4381000   0.56229861   -8.5028818    576.77082  0.010971065 0.0091544931         3129 
 4382000   0.55232769   -8.5130105    576.42825  0.010962046 0.0091509514         3064 
 4383000   0.54660111   -8.5024123    577.99861  0.010989402 0.0091474108         3053 
 4384000   0.54542844   -8.5018279     576.9556   0.01096707 0.0091438706         3149 
 4385000   0.53544512    -8.511222    576.97908  0.010965015 0.0091403318         3155 
 4386000   0.54626012   -8.5081021    577.64403  0.010975149 0.0091367981         3051 
 4387000   0.56064726   -8.4967603    577.10064  0.010962325 0.0091332664         3105 
 4388000   0.54538504   -8.5083824    577.36632  0.010964872 0.0091297361         3088 
 4389000   0.55251275   -8.5047037    576.46097  0.010945184 0.0091262085         3081 
 4390000   0.54240892   -8.5016192    577.50712   0.01096255 0.0091226814         3057 
 4391000   0.54172479   -8.5064733    577.71122  0.010963927  0.009119159         3143 
 4392000   0.54567591   -8.4908516    577.22039  0.010952117  0.009115634         3069 
 4393000   0.53636858   -8.5118435    577.70238  0.010958767 0.0091121083         3099 
 4394000   0.55441757    -8.514477     577.6032  0.010954392 0.0091085871         3086 
 4395000   0.54479134   -8.5028141    578.34496  0.010965964 0.0091050687         3127 
 4396000    0.5460545   -8.5003461     577.5135  0.010947708 0.0091015497         3122 
 4397000   0.54563396    -8.494183    577.49336  0.010944837 0.0090980336         3025 
 4398000   0.54965708    -8.516094    576.84478  0.010930059 0.0090945233         3094 
 4399000   0.54154889    -8.505682     576.9212  0.010929022 0.0090910116         3126 
 4400000   0.55599959   -8.5141942    578.43413  0.010955192 0.0090875044         3037 
 4401000   0.54554568   -8.5031848    576.57088  0.010917422 0.0090839989         3182 
 4402000    0.5425568   -8.5154318    577.23726  0.010927557 0.0090804956         3075 
 4403000   0.53110048   -8.5313585    577.49539  0.010929961 0.0090769928         3060 
 4404000    0.5535671   -8.5285952    576.13235  0.010901687 0.0090734918         3163 
 4405000   0.54285125   -8.5095656    577.51713  0.010925409 0.0090699919         3107 
 4406000   0.54639698   -8.4998328    578.11233  0.010934187 0.0090664952         3050 
 4407000   0.54651087   -8.5159193    577.36266   0.01091753 0.0090630016         3111 
 4408000   0.54766302   -8.5094068    576.15416  0.010892207 0.0090595098         3078 
 4409000   0.53372493   -8.5174609    577.09552  0.010907528  0.009056014         3130 
 4410000   0.54110747   -8.5093635    578.73688  0.010936071  0.009052524         3120 
 4411000   0.53970012   -8.5029846     577.6426  0.010912918 0.0090490341         3057 
 4412000   0.54497241   -8.5115331    577.34062  0.010904741 0.0090455458         3069 
 4413000   0.54823424   -8.5195832    576.98685   0.01089559 0.0090420634         3056 
 4414000   0.55607766   -8.5113444    577.12208  0.010895674 0.0090385837         3170 
 4415000   0.53635028   -8.5114173     576.4564  0.010880642 0.0090350987         3207 
 4416000   0.54453978    -8.522453     576.3024  0.010875272 0.0090316175         3116 
 4417000   0.54625204   -8.4969233    577.59829  0.010897259 0.0090281389         3092 
 4418000   0.56270953   -8.5162609    577.20443  0.010887363  0.009024663         3159 
 4419000   0.53901277   -8.5176894    576.78385  0.010876968  0.009021192         3111 
 4420000   0.55077276   -8.5204491    576.56848  0.010870446 0.0090177197         3073 
 4421000    0.5498718   -8.5106597    576.65392  0.010869598  0.009014247         3096 
 4422000   0.55491783   -8.5325199     577.1444  0.010876383  0.009010776         3147 
 4423000    0.5584874   -8.5111958     576.9013  0.010869344 0.0090073098         3116 
 4424000   0.55250586   -8.5051528    577.78041  0.010883447 0.0090038454         3080 
 4425000   0.54312069   -8.5359842    576.66266  0.010859937 0.0090003792         3105 
 4426000   0.54249036   -8.5215186    577.21543  0.010867891 0.0089969174         3067 
 4427000   0.54093583   -8.5220825    577.26132    0.0108663 0.0089934576         3055 
 4428000   0.54193074    -8.521918    576.62128  0.010851801 0.0089900033         3034 
 4429000   0.55983053   -8.5335404    576.43502  0.010845846 0.0089865481         3095 
 4430000   0.54888869   -8.5217492    577.49412   0.01086332 0.0089830927         3101 
 4431000   0.54667394   -8.5084213    577.10734  0.010853595 0.0089796396         3155 
 4432000   0.53922061   -8.5293052    576.63588  0.010842281 0.0089761894         3170 
 4433000   0.54288229   -8.5262384    576.71671  0.010841355 0.0089727388         3128 
 4434000   0.53600378   -8.5210303    576.87035  0.010841797 0.0089692922         3109 
 4435000   0.53840748   -8.5231308     576.2116  0.010826975 0.0089658449         3152 
 4436000   0.54741906   -8.5092747     577.7286  0.010853032 0.0089624015         3133 
 4437000   0.55214198   -8.5186725    577.87962  0.010853422 0.0089589574         3061 
 4438000   0.53924761   -8.5082396    576.75883  0.010829931 0.0089555216         3030 
 4439000   0.53703926   -8.5266307    577.02004  0.010832395  0.008952082         3115 
 4440000    0.5330371   -8.5379828    577.35489  0.010836241 0.0089486453         3193 
 4441000   0.54892184   -8.5318014     577.7809  0.010841794 0.0089452087         3134 
 4442000   0.53415331   -8.5138812    576.57764   0.01081678  0.008941778         3136 
 4443000   0.54265685   -8.5054232    577.31102  0.010828101 0.0089383473         3063 
 4444000   0.53788998   -8.5339768    576.29747  0.010806658 0.0089349154         3122 
 4445000    0.5366808   -8.5115781    576.65945  0.010811013 0.0089314871         3155 
 4446000   0.53110917   -8.5038521    577.17348  0.010818216 0.0089280617         3113 
 4447000   0.54699994     -8.52501    576.44346  0.010802104 0.0089246345         3069 
 4448000   0.53552971   -8.5157115    576.10755  0.010793382 0.0089212099         3100 
 4449000   0.54406767   -8.5356066    577.07639  0.010809103 0.0089177847         3161 
 4450000   0.53776276    -8.535166    577.09744  0.010807068 0.0089143642         3037 
 4451000   0.53823959   -8.5299187    576.74871  0.010798111  0.008910946         3059 
 4452000   0.53478347   -8.5159057    576.91748  0.010798845 0.0089075285         3090 
 4453000   0.55013881   -8.5265726     576.6542  0.010791493 0.0089041122         3075 
 4454000   0.53793499   -8.5250554    576.44402  0.010785137 0.0089006985         3097 
 4455000   0.53144988   -8.5143357    576.62078  0.010786023 0.0088972866         3079 
 4456000   0.54797004   -8.5211647    577.11498  0.010792844 0.0088938774         3141 
 4457000   0.54417852   -8.5357171    576.00975  0.010769758  0.008890465         3085 
 4458000   0.54824014   -8.5221159     577.2065  0.010789713 0.0088870545         3133 
 4459000   0.55293882   -8.5271929    576.39158  0.010772064 0.0088836453         3077 
 4460000   0.52532191   -8.5251913    577.61137   0.01079244 0.0088802385         3046 
 4461000   0.53506257   -8.5267746     576.9119  0.010776954 0.0088768365         3075 
 4462000    0.5393202   -8.5128791    577.06276  0.010777356 0.0088734365         3139 
 4463000   0.53532221   -8.5358621    577.31704  0.010779689 0.0088700371         3090 
 4464000   0.53473731   -8.5140201    575.45962    0.0107426 0.0088666391         3125 
 4465000   0.54891211   -8.5271574    576.26849  0.010755291 0.0088632403         3100 
 4466000   0.53515738   -8.5332988    576.97031  0.010765978 0.0088598463         3211 
 4467000   0.54173642   -8.5342057    576.22872  0.010749734 0.0088564523         3157 
 4468000    0.5211379   -8.5225771    575.60723  0.010735736 0.0088530595         3156 
 4469000   0.54636004    -8.544326    577.00894  0.010759471  0.008849669         3175 
 4470000   0.53174995   -8.5212232    576.63701  0.010750131 0.0088462814         3164 
 4471000   0.53094396   -8.5357247    576.40795  0.010743457 0.0088428916         3146 
 4472000     0.529381   -8.5332859    576.41306   0.01074115 0.0088395052         3112 
 4473000   0.53240662    -8.513899    577.60093  0.010760879 0.0088361237         3093 
 4474000   0.54196888   -8.5390591    576.32677  0.010734741 0.0088327448         3188 
 4475000   0.53617877   -8.5200754    576.59211  0.010737283 0.0088293646         3115 
 4476000   0.53959409    -8.521968    576.33099  0.010730023 0.0088259863         3151 
 4477000   0.53830553   -8.5333948    576.90219  0.010738258 0.0088226088         3126 
 4478000   0.53179846   -8.5313697    576.64157   0.01073101 0.0088192355         3159 
 4479000    0.5292138   -8.5418915    576.83925  0.010732292 0.0088158607         3173 
 4480000   0.53903121   -8.5209895    576.66098  0.010726581 0.0088124892         3117 
 4481000   0.53707424   -8.5270979    577.38776  0.010737703  0.008809119         3098 
 4482000   0.53502918   -8.5204896    576.66397   0.01072185 0.0088057522         3136 
 4483000    0.5324316    -8.508929    577.70441  0.010738799 0.0088023869         3183 
 4484000   0.53656565    -8.528461    576.32865  0.010710836 0.0087990216         3101 
 4485000   0.54264016   -8.5326549    576.13941  0.010704931 0.0087956585         3116 
 4486000   0.54130379   -8.5345753    576.52064  0.010709627 0.0087922966         3113 
 4487000   0.52907158    -8.530395     576.0278  0.010698087 0.0087889371         3129 
 4488000   0.53994105   -8.5136494    576.83144  0.010710625 0.0087855786         3120 
 4489000   0.53773583    -8.518824    576.38533  0.010699958  0.008782227         3127 
 4490000   0.52969343    -8.536511     577.4876  0.010718033 0.0087788693         3171 
 4491000   0.52531399   -8.5440714    576.15635  0.010690944 0.0087755139         3096 
 4492000   0.52700546     -8.53202       575.83   0.01068251 0.0087721606         3084 
 4493000    0.5410962   -8.5362929    577.20323  0.010705602 0.0087688115         3077 
 4494000   0.53831588   -8.5339311    576.90368  0.010697665 0.0087654621         3158 
 4495000   0.53797335   -8.5355289    576.12051  0.010680766 0.0087621172         3128 
 4496000   0.52705572   -8.5191928    576.39667  0.010683509  0.008758775         3175 
 4497000   0.53814041   -8.5100935    577.93817  0.010709698 0.0087554329         3068 
 4498000    0.5355423   -8.5240179    577.21347  0.010693891 0.0087520943         3180 
 4499000   0.53649186   -8.5205481    576.17851  0.010672344 0.0087487552         3163 
 4500000   0.54646822    -8.535173    576.68333  0.010679321 0.0087454186         3142 
 4501000   0.52988438   -8.5396382    576.07293  0.010665647 0.0087420827         3143 
 4502000   0.53416284   -8.5269491    575.54256  0.010653461 0.0087387489         3173 
 4503000    0.5200264   -8.5494636    576.48578   0.01066855 0.0087354152         3131 
 4504000   0.53795066   -8.5425728    576.25791  0.010661965 0.0087320847         3119 
 4505000   0.52417105   -8.5474646    576.75296  0.010668756 0.0087287561         3116 
 4506000   0.51825351   -8.5416502    576.86003  0.010668369 0.0087254247         3127 
 4507000    0.5296851   -8.5340124    575.99945   0.01065009 0.0087220982         3100 
 4508000   0.54056908    -8.531209    576.68772   0.01066045 0.0087187734         3115 
 4509000    0.5285204   -8.5411656    576.37267  0.010652264  0.008715451         3094 
 4510000   0.53822578   -8.5405636    575.97743  0.010642598 0.0087121302         3115 
 4511000   0.53091011   -8.5358603    576.34348  0.010647001  0.008708811         3129 
 4512000   0.53080576   -8.5490994    575.78964  0.010634413  0.008705493         3152 
 4513000   0.52626981    -8.546072    576.22971  0.010640182 0.0087021764         3161 
 4514000   0.51976473   -8.5473323    576.78833  0.010648138 0.0086988595         3150 
 4515000   0.51823403   -8.5404111    575.95955  0.010630483 0.0086955468         3170 
 4516000   0.51834186   -8.5352577    577.29554  0.010652782 0.0086922338         3126 
 4517000   0.53172748   -8.5528057    577.09463  0.010646717 0.0086889243         3167 
 4518000   0.53646329   -8.5514432    576.92482  0.010641228 0.0086856157         3185 
 4519000   0.51090475     -8.52506     576.4027  0.010629245  0.008682308         3123 
 4520000   0.53076028    -8.531079    577.04245  0.010638688 0.0086790026         3127 
 4521000   0.52192204   -8.5402105    575.97745  0.010616704    0.0086757         3098 
 4522000   0.52277919   -8.5407363     575.8572  0.010612141 0.0086723979         3133 
 4523000   0.53596756   -8.5262386     576.3298  0.010618502 0.0086690972         3144 
 4524000   0.52856719   -8.5360784    576.49465  0.010619191 0.0086657976         3215 
 4525000   0.54168882   -8.5291953    577.04004  0.010626888  0.008662503         3009 
 4526000   0.52604069   -8.5266381    576.14651  0.010608089 0.0086592088         3156 
 4527000   0.53565707   -8.5371958    575.72146  0.010597921 0.0086559162         3119 
 4528000   0.53168142   -8.5343147    575.91786  0.010599195 0.0086526263         3171 
 4529000    0.5357955   -8.5224283    576.58422  0.010609116 0.0086493361         3177 
 4530000   0.52397109   -8.5383082    576.84546  0.010611579 0.0086460491         3124 
 4531000   0.52335169   -8.5312589    576.25541  0.010598385 0.0086427607         3123 
 4532000    0.5212398   -8.5413042    575.94151  0.010590275  0.008639476         3139 
 4533000   0.53185127   -8.5381449    576.22075  0.010593072 0.0086361928         3137 
 4534000   0.52769206   -8.5312616    575.64444  0.010580143 0.0086329136         3116 
 4535000   0.53280435   -8.5435722    575.82974  0.010581215 0.0086296363         3081 
 4536000   0.53009844   -8.5392065    576.43082  0.010589925 0.0086263596         3112 
 4537000   0.53060963    -8.543635    576.13503  0.010582158  0.008623081         3141 
 4538000   0.53248294   -8.5317404    577.13771  0.010598239 0.0086198071         3121 
 4539000   0.51131497   -8.5655348    576.42013   0.01058273 0.0086165323         3163 
 4540000   0.52225851   -8.5408852    576.06137  0.010573814 0.0086132604         3195 
 4541000      0.51859   -8.5495166    576.70795  0.010583351 0.0086099915         3142 
 4542000   0.52671677   -8.5251788     577.2217  0.010590447 0.0086067233         3100 
 4543000   0.52242161   -8.5376125     576.4997  0.010574872 0.0086034609         3127 
 4544000   0.51809446    -8.533424    577.59079  0.010592554 0.0086001969         3183 
 4545000   0.52117802   -8.5326234    576.41609  0.010568685 0.0085969312         3173 
 4546000   0.53562041   -8.5590074    576.20571  0.010562504 0.0085936695         3154 
 4547000    0.5172871   -8.5563993    576.77984  0.010570703 0.0085904116         3149 
 4548000   0.52771549   -8.5499712    576.60781  0.010565227 0.0085871537         3181 
 4549000   0.52061502   -8.5361976    575.59626  0.010544374 0.0085838969         3125 
 4550000   0.51754554   -8.5361353    575.46215    0.0105396  0.008580641         3211 
 4551000   0.51792928   -8.5536947    576.08994  0.010548779 0.0085773885         3189 
 4552000   0.52968298   -8.5491164     576.1143  0.010546908 0.0085741377         3093 
 4553000   0.52924184   -8.5393185    576.52679  0.010552141 0.0085708893         3144 
 4554000   0.52695277   -8.5343314    577.45391  0.010566789 0.0085676429         3111 
 4555000   0.52976983   -8.5402609     576.4986  0.010546992 0.0085643991         3163 
 4556000   0.52161345   -8.5282497    575.15116  0.010520032 0.0085611542         3161 
 4557000   0.51675421   -8.5455936    576.41093   0.01054076 0.0085579114         3070 
 4558000   0.52503473   -8.5444128    576.59558  0.010541824 0.0085546677         3157 
 4559000   0.52210571   -8.5472739     576.2494  0.010533183 0.0085514262         3175 
 4560000    0.5184902   -8.5608163    576.29575  0.010531721 0.0085481868         3149 
 4561000   0.52444497   -8.5372156    576.03267  0.010524605   0.00854495         3165 
 4562000   0.52425521   -8.5382564    576.19976   0.01052535 0.0085417158         3186 
 4563000   0.51749774   -8.5369573    577.20883  0.010541472  0.008538479         3161 
 4564000   0.51143436   -8.5563174    575.47599  0.010507522 0.0085352476         3158 
 4565000   0.52812589   -8.5490327    576.86533  0.010530583  0.008532014         3148 
 4566000   0.52402057   -8.5552872    574.96535    0.0104936 0.0085287847         3113 
 4567000   0.51796889   -8.5553098    576.22825  0.010514347 0.0085255575         3131 
 4568000   0.52099172   -8.5475464    576.39895  0.010515159 0.0085223311         3126 
 4569000   0.52479293   -8.5591733     576.0659  0.010506783 0.0085191059         3142 
 4570000   0.52538709   -8.5375283    577.29015  0.010526808 0.0085158824         3120 
 4571000   0.51588221   -8.5826386    575.46543  0.010491239 0.0085126618         3136 
 4572000     0.518537   -8.5519585    575.73052  0.010493776 0.0085094418         3084 
 4573000   0.51679112   -8.5498765    576.05456  0.010497386 0.0085062233         3134 
 4574000   0.52610271   -8.5427901    576.61671  0.010505333 0.0085030042         3140 
 4575000   0.51583056   -8.5682429    575.59591  0.010484443  0.008499789         3131 
 4576000   0.50767467   -8.5544436    575.28639  0.010476515 0.0084965748         3075 
 4577000   0.53296694   -8.5567823    575.20894  0.010472816 0.0084933624         3105 
 4578000   0.52659967    -8.554778     575.9118  0.010483322 0.0084901539         3136 
 4579000   0.52459803   -8.5590798    576.12209   0.01048486 0.0084869451         3077 
 4580000   0.51329792   -8.5708748    575.21966  0.010466151 0.0084837342         3159 
 4581000   0.51231824   -8.5833709    575.78148  0.010474086 0.0084805272         3111 
 4582000   0.51442001   -8.5339723    576.69242  0.010488368 0.0084773228         3117 
 4583000   0.52567186   -8.5537278    576.30579  0.010479049 0.0084741203         3119 
 4584000   0.53431827   -8.5759064    575.87173  0.010468872 0.0084709208         3188 
 4585000   0.50259821   -8.5499368    575.83725  0.010465962 0.0084677221         3105 
 4586000   0.51243271   -8.5564937    575.95051  0.010465738 0.0084645247         3125 
 4587000   0.52169503   -8.5537112     575.5397  0.010455993 0.0084613277         3199 
 4588000   0.52337802   -8.5494834     574.8731  0.010441607 0.0084581322         3119 
 4589000   0.51894897   -8.5496577    575.88272  0.010457665  0.008454941         3111 
 4590000   0.52236405   -8.5759199    575.18131  0.010442653 0.0084517477         3137 
 4591000   0.52354875   -8.5550871    575.45472  0.010445341 0.0084485598         3123 
 4592000   0.51436267   -8.5369508    575.77858  0.010448943 0.0084453715         3110 
 4593000   0.51397575   -8.5564157    575.19383  0.010436059 0.0084421873         3157 
 4594000   0.51350982   -8.5458053     576.1841   0.01045175 0.0084390021         3072 
 4595000   0.52178232   -8.5586712    577.21253  0.010468127 0.0084358204         3167 
 4596000   0.51991645   -8.5571869    575.39716  0.010432934 0.0084326363         3129 
 4597000   0.51775895   -8.5689018     575.0563  0.010424485 0.0084294555         3120 
 4598000   0.51944191   -8.5523511    575.79015  0.010435518 0.0084262763         3119 
 4599000   0.51390641    -8.576795    575.82347  0.010433853 0.0084230977         3150 
 4600000   0.51623648    -8.569427    576.11029  0.010436781 0.0084199252         3098 
 4601000    0.5112126   -8.5577198    575.84454  0.010429699 0.0084167507         3147 
 4602000   0.52213157   -8.5562948    575.74513  0.010425632 0.0084135822         3161 
 4603000   0.52509312   -8.5565278    576.01269  0.010428212 0.0084104115         3142 
 4604000   0.51142637   -8.5611884    575.95387  0.010424882  0.008407244         3138 
 4605000   0.51793834   -8.5605317    575.60988  0.010416393 0.0084040772         3108 
 4606000   0.51331269   -8.5581376    574.68145  0.010397334 0.0084009097         3121 
 4607000   0.50832952   -8.5540998    575.80157  0.010415338 0.0083977467         3149 
 4608000   0.50729227   -8.5579704    575.37263  0.010405321 0.0083945844         3142 
 4609000   0.51011079    -8.551594     576.1227  0.010416625 0.0083914257         3129 
 4610000   0.50702856   -8.5696152    575.47187  0.010402601 0.0083882652         3178 
 4611000   0.51915022   -8.5813295     575.8112  0.010406477  0.008385105         3148 
 4612000   0.52782166   -8.5694381    574.99733  0.010389515 0.0083819495         3095 
 4613000   0.52295002   -8.5554891    576.59696   0.01041616 0.0083787947         3139 
 4614000   0.50705703   -8.5697115    575.00482  0.010385147 0.0083756395         3146 
 4615000   0.50811289   -8.5577405    575.01442   0.01038307 0.0083724874         3210 
 4616000   0.51005408   -8.5572018    574.89124  0.010378597 0.0083693391         3179 
 4617000   0.51195224   -8.5505048    575.44144   0.01038628 0.0083661889         3182 
 4618000   0.52586222   -8.5619637    575.91287  0.010392538 0.0083630412         3117 
 4619000   0.51903696   -8.5648253    576.18874  0.010395265  0.008359894         3201 
 4620000   0.52737511   -8.5673433    575.38063  0.010378438 0.0083567473         3124 
 4621000   0.51519017   -8.5628669    575.66211  0.010381269 0.0083536049         3089 
 4622000    0.5048631   -8.5544848    575.00348  0.010367148 0.0083504633         3217 
 4623000   0.51329324    -8.546095    575.09003  0.010366465  0.008347324         3133 
 4624000   0.51470497   -8.5706517    575.25718  0.010367236 0.0083441855         3191 
 4625000   0.51009552   -8.5624815    574.75568  0.010355958 0.0083410496         3226 
 4626000   0.51512268   -8.5680208    574.95467  0.010357304  0.008337915         3197 
 4627000   0.51293537   -8.5556557    575.24272  0.010360254 0.0083347806         3138 
 4628000   0.51560407   -8.5672158    576.01131  0.010371855 0.0083316482         3162 
 4629000   0.53741944   -8.5810696      576.005    0.0103695   0.00832852         3141 
 4630000   0.51581279   -8.5607706    576.55282  0.010377121 0.0083253906         3196 
 4631000   0.52418819   -8.5723161    575.81213  0.010361551 0.0083222653         3130 
 4632000   0.51362965   -8.5474261    575.84788  0.010359957 0.0083191414         3115 
 4633000   0.50270491   -8.5673298    575.53131  0.010352027 0.0083160183         3123 
 4634000   0.52289544   -8.5627656    576.80256  0.010372654 0.0083128957         3078 
 4635000   0.49570285   -8.5718546    575.46288   0.01034633 0.0083097739         3136 
 4636000   0.51022111    -8.566519    576.11052   0.01035574 0.0083066535         3146 
 4637000    0.5058161   -8.5599234    575.62138  0.010344716 0.0083035359         3153 
 4638000    0.5004404   -8.5577453    575.52503  0.010340754 0.0083004204         3114 
 4639000   0.51530785   -8.5738223    575.55674  0.010339095 0.0082973054         3174 
 4640000   0.51284931   -8.5587439    576.30647  0.010350332 0.0082941936         3148 
 4641000   0.51166729   -8.5677912     575.6225   0.01033582 0.0082910848         3102 
 4642000    0.5089947    -8.555319    575.31893  0.010328144 0.0082879756         3184 
 4643000   0.51770075   -8.5846511    576.26464  0.010342893 0.0082848688         3163 
 4644000   0.50343065   -8.5580714    576.04082   0.01033665 0.0082817613         3151 
 4645000   0.51949208   -8.5749243    575.48682  0.010324485 0.0082786571         3146 
 4646000   0.50755226      -8.5724    576.63623   0.01034288 0.0082755561         3171 
 4647000   0.50602184   -8.5242701    576.28496  0.010334355 0.0082724587         3058 
 4648000   0.51760932   -8.5742333    574.70606  0.010303823 0.0082693617         3209 
 4649000   0.51653692   -8.5601494      575.649  0.010318509 0.0082662636         3179 
 4650000   0.50528059   -8.5653059    575.41321  0.010312065 0.0082631669         3214 
 4651000   0.50697927   -8.5661938    575.69693  0.010314931 0.0082600717         3153 
 4652000   0.50594966    -8.567221    574.59839  0.010293035  0.008256978         3229 
 4653000   0.50197432   -8.5654205    575.05322  0.010298969 0.0082538857         3246 
 4654000   0.49340877   -8.5759177    575.97867  0.010313327 0.0082507913         3165 
 4655000   0.50630729   -8.5774823    575.44022  0.010301472    0.0082477         3213 
 4656000   0.51109652   -8.5758306    575.94344  0.010308266 0.0082446128         3170 
 4657000   0.50921724      -8.5798    575.26131  0.010293846  0.008241524         3189 
 4658000   0.51591755   -8.5579473    575.49748  0.010295862 0.0082384384         3129 
 4659000   0.50188762   -8.5775883    576.01817  0.010302965 0.0082353496         3207 
 4660000   0.50409612   -8.5778804      575.762  0.010296173 0.0082322673         3207 
 4661000   0.51066442   -8.5623358    575.44966   0.01028838 0.0082291843         3150 
 4662000   0.50983843   -8.5790214     575.5542  0.010288042 0.0082261063         3118 
 4663000   0.49588105   -8.5783133    574.75685  0.010271586 0.0082230277         3208 
 4664000   0.50733088   -8.5638721    574.98852  0.010273523 0.0082199498         3165 
 4665000    0.5115008   -8.5883734    575.59862  0.010282219 0.0082168754         3209 
 4666000   0.50304025   -8.5843535    575.53926  0.010278955 0.0082138016         3102 
 4667000   0.50808689   -8.5683784    575.32866  0.010272992 0.0082107296         3152 
 4668000    0.5009434   -8.5723136    575.66057  0.010276717 0.0082076622         3222 
 4669000   0.50416073   -8.5662805    574.65097  0.010256496 0.0082045932         3191 
 4670000   0.50320284   -8.5720823    574.62718  0.010253875 0.0082015258         3157 
 4671000   0.49032181   -8.5799649    576.88309  0.010291927 0.0081984593         3158 
 4672000   0.49996056    -8.575199    576.26197  0.010278645 0.0081953944         3125 
 4673000   0.50679624   -8.5830544     575.2799  0.010258933  0.008192332         3099 
 4674000   0.51399175   -8.5604357    575.09079  0.010253366 0.0081892731         3129 
 4675000   0.49743179   -8.5797165    575.21197  0.010253333 0.0081862131         3211 
 4676000   0.51525274   -8.5799596    575.71347  0.010260078 0.0081831553         3152 
 4677000   0.51358104    -8.582268    576.82072  0.010277612 0.0081800999         3153 
 4678000   0.50029632   -8.5861622     574.7738  0.010238952 0.0081770453         3150 
 4679000   0.51054839   -8.5718865    574.73956  0.010236154 0.0081739914         3131 
 4680000   0.50264168   -8.5656999    575.50093  0.010247524 0.0081709397         3221 
 4681000    0.4990242   -8.5808447    575.75153  0.010249796 0.0081678906         3159 
 4682000   0.49822159   -8.5726874    575.15756  0.010237035  0.008164841         3191 
 4683000   0.50166537   -8.5674248    576.07771  0.010251223  0.008161793         3167 
 4684000   0.50660514   -8.5862143    574.49311  0.010220842 0.0081587464         3213 
 4685000   0.50000783   -8.5699448    575.24466  0.010232029 0.0081557028         3149 
 4686000   0.50398708   -8.5750951    575.04828  0.010226353 0.0081526611         3189 
 4687000   0.50623463   -8.5743497    576.05039  0.010241988 0.0081496169         3096 
 4688000    0.4925967   -8.5687649    576.17223  0.010241969 0.0081465781         3142 
 4689000   0.49750848   -8.5844581    575.08062  0.010220385  0.008143539         3135 
 4690000   0.50658129    -8.574605    575.13167  0.010219113 0.0081405017         3200 
 4691000   0.51063142   -8.5773434    574.84471  0.010211837 0.0081374663         3157 
 4692000   0.50432503   -8.5879549    574.87079  0.010210123 0.0081344322         3196 
 4693000   0.50214567   -8.5957123    574.22097  0.010196409 0.0081313992         3166 
 4694000   0.49972255    -8.591517    575.35225  0.010214321 0.0081283669         3175 
 4695000   0.49606925   -8.5894102    574.91523  0.010204388 0.0081253369         3159 
 4696000   0.50468472   -8.5696193    574.84868  0.010201034 0.0081223076         3148 
 4697000   0.51532727    -8.581335    575.47879  0.010210042 0.0081192809         3233 
 4698000   0.50805741    -8.593926     575.0491  0.010200247 0.0081162555         3174 
 4699000   0.50935654   -8.5851754    576.26106  0.010219569 0.0081132324         3187 
 4700000    0.4980172   -8.5796998    574.57303  0.010187465 0.0081102128         3211 
 4701000   0.50615472   -8.5922937    574.49298  0.010183879 0.0081071948         3119 
 4702000   0.51114982   -8.5813315    575.66179  0.010202428  0.008104177         3143 
 4703000   0.50740582   -8.5669215    575.47681  0.010196981 0.0081011615         3102 
 4704000   0.51098848   -8.5800606    574.43938  0.010176435 0.0080981466         3149 
 4705000   0.50129888   -8.5761774    575.18313  0.010187445 0.0080951345         3124 
 4706000   0.50263185   -8.5794625    573.97182   0.01016383 0.0080921237         3191 
 4707000   0.49743954   -8.5863751    574.08089  0.010163602  0.008089114         3173 
 4708000   0.51547092    -8.601506    574.67083  0.010171885 0.0080861017         3200 
 4709000   0.49060304   -8.5759042    575.39859  0.010182604 0.0080830942         3178 
 4710000   0.49754559   -8.5763236    574.74751  0.010168923 0.0080800857         3089 
 4711000   0.49449804   -8.5805106    575.32376  0.010176958 0.0080770795         3201 
 4712000    0.5081109   -8.5783094    575.34658  0.010175201 0.0080740746         3155 
 4713000   0.49926378   -8.5619621    575.30155  0.010172246 0.0080710721         3136 
 4714000   0.50685154   -8.5792569    575.60564  0.010175464 0.0080680723         3118 
 4715000    0.4956423   -8.5939182    574.78313  0.010158769 0.0080650718         3181 
 4716000   0.50025504   -8.5842849    574.59528  0.010153295 0.0080620728         3162 
 4717000   0.50606451   -8.5801117    575.57997  0.010168539 0.0080590766         3171 
 4718000   0.48934519    -8.596595    575.21287    0.0101599 0.0080560811         3205 
 4719000   0.48854334   -8.5912933     574.7704  0.010149933 0.0080530874         3130 
 4720000   0.49791657   -8.5875631    575.17462  0.010154919  0.008050094         3134 
 4721000   0.50136242   -8.5891607    574.16164  0.010134887    0.0080471         3160 
 4722000   0.48946166   -8.5938882    574.28843  0.010134979  0.008044109         3217 
 4723000   0.48900063   -8.5667449    575.97266   0.01016255 0.0080411228         3167 
 4724000   0.47942278   -8.5809645    574.98252  0.010142932 0.0080381352         3167 
 4725000    0.4922622   -8.5991578    575.31652  0.010146676 0.0080351496         3190 
 4726000   0.50408688    -8.587035    574.95822  0.010138211 0.0080321629         3167 
 4727000    0.4987512    -8.578889    574.13633  0.010121577 0.0080291793         3138 
 4728000   0.49643487   -8.5811416    574.33615  0.010122958 0.0080261994         3197 
 4729000   0.49763054   -8.5874025    575.22909  0.010136553 0.0080232214         3133 
 4730000   0.49317661   -8.5713653    575.31056  0.010135845 0.0080202433         3115 
 4731000    0.5006485   -8.5919746    574.80319  0.010124766 0.0080172684         3186 
 4732000   0.49528989   -8.5870191    575.29208  0.010131236 0.0080142963         3217 
 4733000   0.49202825   -8.5817473    575.45121  0.010131897 0.0080113196         3195 
 4734000   0.48975482   -8.5764143    574.33655  0.010110135 0.0080083478         3160 
 4735000   0.48704887   -8.5834648    574.87524   0.01011748 0.0080053767         3212 
 4736000   0.49647045   -8.5922413    576.30137  0.010140438 0.0080024035         3203 
 4737000   0.49364881   -8.5867218    574.30876  0.010103243 0.0079994352         3197 
 4738000   0.49591692   -8.6057737    574.44028  0.010103424 0.0079964697         3191 
 4739000   0.48757429    -8.596262    575.18395  0.010114369 0.0079935061         3208 
 4740000    0.5014912   -8.5896488    575.30441  0.010114353 0.0079905443         3230 
 4741000   0.47682205   -8.5745297    574.57933  0.010099475 0.0079875828         3243 
 4742000   0.50061422   -8.6014657    575.46945  0.010112988 0.0079846246         3258 
 4743000   0.48933562   -8.5900863    574.58252  0.010095272 0.0079816667         3199 
 4744000   0.49929292   -8.5925608    574.57378  0.010092991 0.0079787085         3112 
 4745000   0.48911382   -8.5940014    574.56972  0.010090792 0.0079757501         3197 
 4746000   0.49575414   -8.5925116    573.95253  0.010077829 0.0079727967         3214 
 4747000   0.49657348   -8.5781255    575.14228  0.010096592  0.007969844         3207 
 4748000    0.4940136   -8.5969715    574.21173  0.010078133 0.0079668918         3132 
 4749000   0.49290506   -8.6058893    573.83233  0.010069354 0.0079639418         3178 
 4750000   0.49258459   -8.5955264    574.32912   0.01007595 0.0079609947         3180 
 4751000   0.49118934    -8.591233    575.06568  0.010086748 0.0079580446         3129 
 4752000   0.48413702   -8.5864324    574.43123  0.010073499 0.0079550979         3195 
 4753000   0.49540315   -8.5818484     575.2114  0.010085058 0.0079521535         3204 
 4754000   0.48865532   -8.5952256    574.38342  0.010068423 0.0079492089         3105 
 4755000   0.50548708   -8.5872371     574.8572  0.010074609 0.0079462672         3141 
 4756000   0.49883574   -8.5927457    575.97635    0.0100921 0.0079433287         3224 
 4757000   0.49441656   -8.5827021    575.50253  0.010081678 0.0079403902         3150 
 4758000   0.48732185   -8.6016845    574.97332  0.010070291 0.0079374544         3144 
 4759000   0.49602935   -8.5944955    574.63673  0.010062281 0.0079345193         3155 
 4760000   0.49928904   -8.6087653    575.35293  0.010072705 0.0079315865         3223 
 4761000     0.491662   -8.6161062    575.20797  0.010068052 0.0079286524         3181 
 4762000   0.49578036   -8.5944447    575.60946  0.010072964   0.00792572         3171 
 4763000   0.49583504   -8.5859167    574.31495  0.010048201 0.0079227913         3199 
 4764000   0.49512233   -8.6012827    574.68958  0.010052644 0.0079198654         3206 
 4765000   0.49721101   -8.5855541     574.1835  0.010041684 0.0079169371         3137 
 4766000   0.49099068   -8.6025178    574.55645  0.010046098 0.0079140119         3145 
 4767000   0.48316499   -8.5958344    574.39483  0.010041165 0.0079110903         3143 
 4768000   0.48990703   -8.6094301    573.73015  0.010027443  0.007908167         3240 
 4769000   0.49617696   -8.5877441    574.91171  0.010045986  0.007905246         3217 
 4770000   0.48223903   -8.5967152    575.64605  0.010056709 0.0079023266         3185 
 4771000   0.49323101   -8.5979518    575.06569  0.010044465 0.0078994092         3213 
 4772000   0.49397372   -8.5923432    573.50025  0.010015022 0.0078964911         3216 
 4773000   0.47567955   -8.6067812    575.12533  0.010041297 0.0078935756         3193 
 4774000   0.48146894   -8.6151245    574.00664  0.010019666 0.0078906595         3149 
 4775000   0.48988335   -8.5981605    575.03052  0.010035437 0.0078877468         3168 
 4776000   0.50165886   -8.6086896    575.95284  0.010049428 0.0078848357         3175 
 4777000   0.48902699   -8.5952844    575.11834  0.010032767 0.0078819261         3156 
 4778000   0.48016782   -8.5990101    573.95118  0.010010311 0.0078790165         3185 
 4779000   0.48723542   -8.5974864      574.535  0.010018396 0.0078761081         3218 
 4780000   0.49136695   -8.5990843    574.94932  0.010023524 0.0078732001         3234 
 4781000   0.49048959   -8.6073113    575.70191  0.010034545 0.0078702947         3172 
 4782000   0.48147026   -8.5912909    574.10848  0.010004679 0.0078673897         3126 
 4783000   0.49011867   -8.5941292    574.08892  0.010002246 0.0078644865         3217 
 4784000   0.49479745   -8.6045264    575.25067  0.010020392 0.0078615874         3124 
 4785000   0.48277513   -8.6000158    574.09094 0.0099981006 0.0078586878         3180 
 4786000   0.48908313   -8.5965132    573.37554 0.0099835552 0.0078557909         3127 
 4787000    0.4911825   -8.6053426    574.26286 0.0099969163 0.0078528959         3178 
 4788000   0.48127174   -8.6112656    574.35514 0.0099964345 0.0078499999         3249 
 4789000    0.4848503   -8.6129617    574.80135  0.010002112 0.0078471083         3186 
 4790000   0.47670667   -8.5967282    574.37617 0.0099926264 0.0078442183         3185 
 4791000   0.48962775   -8.6066396    574.57228 0.0099939518 0.0078413267         3181 
 4792000   0.48590503   -8.6004078    574.27114 0.0099866295 0.0078384354         3229 
 4793000   0.49190764   -8.5984053    574.80764 0.0099938738 0.0078355454         3147 
 4794000   0.47950933   -8.5895154    574.50637 0.0099865522 0.0078326603         3231 
 4795000   0.48652788   -8.5961758    574.55035 0.0099852337  0.007829774         3207 
 4796000   0.48492551   -8.6042841    573.91862 0.0099721751 0.0078268924         3233 
 4797000   0.48031336   -8.5991177    573.52089 0.0099631869 0.0078240111         3176 
 4798000   0.48337679   -8.6105613    573.90303 0.0099677474 0.0078211315         3100 
 4799000   0.49288533   -8.6007785    574.48095 0.0099757059 0.0078182534         3156 
 4800000   0.48222156   -8.6042628    574.95121 0.0099817919  0.007815376         3202 
 4801000   0.48496882   -8.6034628    574.06812 0.0099643845 0.0078124988         3159 
 4802000   0.47695011    -8.599415    574.29748 0.0099662897 0.0078096227         3161 
 4803000    0.4930153   -8.5999845    573.77872 0.0099552141 0.0078067505         3155 
 4804000   0.47589571   -8.6050234     573.9473 0.0099560662  0.007803876         3200 
 4805000   0.47035506    -8.604738    573.95818 0.0099541828 0.0078010048         3176 
 4806000   0.47814816   -8.6171986     573.4883 0.0099439641 0.0077981347         3203 
 4807000   0.49111428   -8.6000208    573.83824  0.009947962 0.0077952651         3203 
 4808000   0.48492021   -8.5952994    573.83366 0.0099458135  0.007792399         3196 
 4809000   0.48330989   -8.6027429    574.87056 0.0099617135 0.0077895326         3179 
 4810000   0.48676807   -8.6122771    573.88299 0.0099425327 0.0077866686         3182 
 4811000   0.48717617   -8.6013031    574.15077 0.0099451044 0.0077838062         3102 
 4812000   0.47766661   -8.5995247    574.31906 0.0099459522 0.0077809434         3179 
 4813000   0.47423927   -8.5901591    573.81459 0.0099351511 0.0077780851         3183 
 4814000   0.48217487   -8.6116856    573.57793 0.0099289906 0.0077752279         3213 
 4815000   0.47415511   -8.6090136    573.73447 0.0099296378 0.0077723707         3230 
 4816000   0.47699257   -8.6052404    575.13129 0.0099517458 0.0077695156         3196 
 4817000    0.4781264   -8.6116994     574.5823 0.0099401823 0.0077666603         3227 
 4818000   0.48581504    -8.615549      574.563 0.0099377854 0.0077638106         3188 
 4819000   0.48329264    -8.632396    573.69056 0.0099206363 0.0077609572         3204 
 4820000   0.48282531   -8.6047304    574.43564   0.00993146 0.0077581068         3219 
 4821000   0.47659829   -8.6190758    573.91043 0.0099203213 0.0077552558         3187 
 4822000   0.47943572   -8.6202016     574.1584 0.0099225494 0.0077524072         3196 
 4823000   0.47759076   -8.6086485    573.80925 0.0099144594 0.0077495619         3231 
 4824000   0.48287631   -8.6176407    573.90177 0.0099140025 0.0077467196         3240 
 4825000   0.48230355   -8.6049651    574.34972 0.0099196842 0.0077438765         3177 
 4826000   0.48312222   -8.6098306    574.96005 0.0099281677  0.007741035         3157 
 4827000   0.48448323   -8.6024918    574.31948 0.0099150522 0.0077381957         3172 
 4828000   0.47617193   -8.6010105    574.46079 0.0099154375 0.0077353566         3217 
 4829000   0.48731156   -8.6142996    573.67007  0.009899739 0.0077325201         3151 
 4830000    0.4831844   -8.6017144    574.52588 0.0099124548 0.0077296868         3200 
 4831000   0.47006419   -8.6245727    574.28236 0.0099062024  0.007726853         3182 
 4832000   0.47335558   -8.6081338    574.57464 0.0099091929 0.0077240186         3165 
 4833000   0.47572811   -8.6078881    574.03369 0.0098978153 0.0077211841         3224 
 4834000   0.46881669    -8.619903    574.33035 0.0099008818 0.0077183536         3185 
 4835000    0.4817977   -8.6226506    575.17389 0.0099133729 0.0077155251         3223 
 4836000   0.48104639   -8.6258172    573.61179  0.009884405 0.0077126969         3230 
 4837000   0.47253795   -8.5962586     573.7266 0.0098843394 0.0077098686         3147 
 4838000   0.47160465   -8.6129854    574.11365 0.0098889632 0.0077070449         3244 
 4839000   0.48212195   -8.6220426    573.36338 0.0098739992 0.0077042187         3167 
 4840000   0.47143171   -8.6162171    572.79702 0.0098622076 0.0077013952         3184 
 4841000   0.46936795   -8.6058296    574.18493  0.009884062 0.0076985741         3153 
 4842000   0.47610998   -8.6203947    574.46213 0.0098867915 0.0076957534         3208 
 4843000   0.47702322   -8.6047193    574.68013 0.0098885011  0.007692935         3152 
 4844000   0.47373509   -8.6110681    573.80691 0.0098714373 0.0076901176         3210 
 4845000   0.48197862   -8.6128352    574.19249 0.0098760319 0.0076873009         3210 
 4846000   0.48702342   -8.6145932    574.27032 0.0098753323 0.0076844868         3146 
 4847000   0.48154047   -8.6112877    574.46285  0.009876605 0.0076816733         3204 
 4848000   0.48290276   -8.6160104    573.38206 0.0098559897  0.007678863         3191 
 4849000    0.4656965   -8.6319935    574.74604 0.0098773981 0.0076760535         3191 
 4850000   0.48306658   -8.6165459    573.72235 0.0098577723 0.0076732439         3186 
 4851000   0.47398366   -8.6172005    574.36322 0.0098667494 0.0076704344         3253 
 4852000   0.47200455   -8.6176979    574.20385 0.0098619788 0.0076676285         3242 
 4853000   0.47531371   -8.5950459    573.48433 0.0098475913  0.007664823         3179 
 4854000   0.46694007   -8.6193503    573.83959 0.0098516616 0.0076620193         3168 
 4855000   0.46772451   -8.6223441    573.64887 0.0098463589 0.0076592175         3183 
 4856000   0.48651233   -8.6225167    573.78677 0.0098466978 0.0076564194         3214 
 4857000      0.46908   -8.6128387    573.94012 0.0098473015 0.0076536182         3217 
 4858000   0.48269907   -8.6172977    573.90247 0.0098446287 0.0076508206         3172 
 4859000    0.4752804   -8.6223946    573.76916 0.0098403163 0.0076480258         3174 
 4860000   0.47638533    -8.620908    573.17441 0.0098280935   0.00764523         3221 
 4861000   0.46913275   -8.6099835    574.06642 0.0098413635 0.0076424375         3169 
 4862000   0.46886205   -8.6285352     574.0884 0.0098397162 0.0076396454         3174 
 4863000   0.47428601    -8.624347    573.32903 0.0098246801  0.007636853         3186 
 4864000   0.47585997   -8.6114751    573.00797 0.0098171596 0.0076340626         3184 
 4865000   0.47553045   -8.6211933    573.69018 0.0098268273 0.0076312728         3204 
 4866000   0.48805244   -8.6231659    572.59956 0.0098061302 0.0076284856         3187 
 4867000   0.46999918     -8.62158    573.87168 0.0098258968 0.0076256981         3228 
 4868000   0.47430157   -8.6057971    574.29614 0.0098311446 0.0076229141         3154 
 4869000   0.47629372    -8.622417    574.72397 0.0098364477 0.0076201315         3195 
 4870000   0.46242654   -8.6203414    573.23608 0.0098089678 0.0076173495         3210 
 4871000   0.47740687   -8.6195062    573.78094 0.0098162756 0.0076145672         3212 
 4872000   0.48058834   -8.6103826    573.92284 0.0098166878 0.0076117901         3172 
 4873000   0.47713542   -8.6259427    573.57241 0.0098086807 0.0076090144         3190 
 4874000   0.46814247   -8.6241203    573.80922 0.0098107171 0.0076062384         3158 
 4875000   0.47679786   -8.6166031    574.24613 0.0098161732 0.0076034657         3219 
 4876000   0.47480943   -8.6294495    572.75831 0.0097887324 0.0076006919         3240 
 4877000   0.46505288   -8.6250007    574.10338 0.0098097085 0.0075979178         3179 
 4878000    0.4675552   -8.6208874    574.44151  0.009813474  0.007595148         3175 
 4879000   0.46057697    -8.621287    573.46517 0.0097947866 0.0075923765         3143 
 4880000   0.47570884   -8.6209443    573.72059 0.0097971412 0.0075896067         3164 
 4881000   0.47620269   -8.6164246    573.84714 0.0097972947  0.007586839         3218 
 4882000   0.46591811   -8.6141427    574.47794 0.0098060552 0.0075840721         3163 
 4883000   0.47191984    -8.604632    574.26994 0.0098004973 0.0075813081         3179 
 4884000   0.47912197   -8.6396322    573.46355 0.0097847316 0.0075785439         3223 
 4885000   0.47510196   -8.6169881    573.28176 0.0097796275 0.0075757815         3219 
 4886000   0.47726602   -8.6270796    573.94941 0.0097890129 0.0075730226         3175 
 4887000   0.46913775   -8.6191263    572.67755 0.0097653221  0.007570262         3183 
 4888000   0.46833074   -8.6236846    573.05497 0.0097697588 0.0075675071         3180 
 4889000   0.46961895   -8.6333556    573.72438 0.0097791706 0.0075647496         3229 
 4890000   0.47199471   -8.6307379    573.20077 0.0097682477 0.0075619951         3232 
 4891000   0.46617033   -8.6128301    573.62114 0.0097734127 0.0075592404         3151 
 4892000   0.46554311   -8.6418181    572.73304 0.0097562865 0.0075564871         3241 
 4893000   0.46083716   -8.6294554     574.2851 0.0097807259 0.0075537373         3138 
 4894000   0.46054053   -8.6294519    573.31332 0.0097621802  0.007550986         3188 
 4895000   0.47132971   -8.6108492    573.84194 0.0097691852 0.0075482366         3223 
 4896000   0.46523845   -8.6281799    573.30477 0.0097580468 0.0075454904         3153 
 4897000   0.47622232   -8.6392197    573.93729 0.0097668179 0.0075427456         3190 
 4898000   0.46612577   -8.6146878    573.65828  0.009760077 0.0075400005         3206 
 4899000   0.46725356   -8.6222909    574.09974  0.009765594 0.0075372565         3147 
 4900000   0.46457196   -8.6287015    573.75411  0.009757723 0.0075345173         3247 
 4901000   0.48033658    -8.632989    573.81893 0.0097568341 0.0075317765         3204 
 4902000   0.47769194   -8.6152248    573.60749 0.0097512494 0.0075290394         3223 
 4903000   0.46579375   -8.6260686    573.66503 0.0097502384 0.0075263035         3183 
 4904000    0.4709046   -8.6332427    573.56465 0.0097465445 0.0075235685         3146 
 4905000   0.47031489   -8.6228066    573.08822 0.0097364631 0.0075208323         3154 
 4906000   0.47159603   -8.6239951     573.2733 0.0097376223 0.0075180993         3175 
 4907000   0.46544775   -8.6370407     573.0753 0.0097322753 0.0075153659         3174 
 4908000   0.46748359   -8.6398696    573.53057 0.0097380225 0.0075126346         3192 
 4909000   0.47237164   -8.6327173    573.13835 0.0097293806 0.0075099044         3192 
 4910000   0.47523179   -8.6245165    573.83918 0.0097392936 0.0075071748         3180 
 4911000   0.46083542   -8.6160946    574.32677 0.0097455842 0.0075044485         3157 
 4912000   0.45561218   -8.6134826    573.47525  0.009729154 0.0075017222         3172 
 4913000   0.46566817   -8.6381012    573.08842 0.0097206124 0.0074989961         3209 
 4914000   0.44908525   -8.6232656    572.59844 0.0097103249 0.0074962738         3231 
 4915000   0.45693657   -8.6230304    572.60993 0.0097085442 0.0074935498         3200 
 4916000   0.46489028   -8.6269752    573.51192 0.0097218592 0.0074908276         3195 
 4917000   0.46417045   -8.6450661    573.87004 0.0097259514 0.0074881088         3156 
 4918000   0.46615255   -8.6227688    574.36714 0.0097323971  0.007485391         3197 
 4919000   0.46212716   -8.6253202    573.12218 0.0097093275 0.0074826742         3169 
 4920000    0.4683807    -8.618832    573.06612 0.0097064044 0.0074799606         3162 
 4921000    0.4714411   -8.6310075    573.08047 0.0097046751 0.0074772459         3180 
 4922000   0.46503422    -8.621119    573.90926 0.0097167354 0.0074745351         3168 
 4923000   0.46355899   -8.6108694    573.63367 0.0097100967  0.007471822         3168 
 4924000    0.4653633   -8.6138374    573.34292  0.009703204 0.0074691117         3223 
 4925000   0.45471053   -8.6457534    573.87744 0.0097102781 0.0074664009         3181 
 4926000   0.46386525   -8.6372227    573.46885 0.0097013948 0.0074636935         3198 
 4927000   0.47244774   -8.6146554    573.36175 0.0096976143  0.007460987         3152 
 4928000    0.4583409   -8.6263377    573.41425 0.0096965343 0.0074582803         3196 
 4929000   0.46297488   -8.6239414    573.06046 0.0096885856  0.007455577         3188 
 4930000   0.46652069   -8.6353469    573.06631 0.0096867192 0.0074528737         3219 
 4931000   0.46647251   -8.6346159    573.43451 0.0096909774 0.0074501708         3164 
 4932000   0.46037739   -8.6527909    572.62749 0.0096753767 0.0074474695         3216 
 4933000   0.45070963   -8.6339423    573.44502 0.0096872259 0.0074447709         3212 
 4934000   0.46004522   -8.6347404    573.62997 0.0096883861 0.0074420723         3198 
 4935000   0.46981956   -8.6206222    573.70608 0.0096877081 0.0074393757         3186 
 4936000   0.47088148   -8.6491564    573.65929 0.0096849555 0.0074366807         3203 
 4937000   0.46379425   -8.6371024     574.2993 0.0096937969  0.007433986         3283 
 4938000   0.45724106   -8.6222454    573.39897 0.0096766399 0.0074312924         3251 
 4939000   0.46892087   -8.6462703    573.37824 0.0096743309 0.0074286021         3166 
 4940000   0.46762455   -8.6242713    573.36396 0.0096721315 0.0074259104         3210 
 4941000   0.45645977   -8.6351076    571.97715 0.0096467845 0.0074232214         3199 
 4942000   0.45289573   -8.6378692    573.67237 0.0096734178 0.0074205343         3173 
 4943000   0.47026618   -8.6371247    573.74069 0.0096726126 0.0074178469         3191 
 4944000   0.46530772   -8.6407181    573.08819  0.009659658 0.0074151638         3201 
 4945000   0.46070858    -8.639594    572.16361 0.0096421235  0.007412482         3228 
 4946000   0.46408579     -8.63942    573.83886 0.0096683997 0.0074098002         3201 
 4947000   0.45486332   -8.6230414    573.33418 0.0096579438  0.007407119         3242 
 4948000   0.46439799   -8.6390519    574.03177 0.0096677407 0.0074044397         3210 
 4949000   0.45410006   -8.6432408    573.29864 0.0096534425 0.0074017624         3173 
 4950000   0.46283332   -8.6480424    574.06843 0.0096644517  0.007399085         3173 
 4951000   0.45811037   -8.6436415     573.4069 0.0096513651 0.0073964095         3159 
 4952000    0.4660175   -8.6419891    572.99448 0.0096424758  0.007393734         3223 
 4953000   0.45768413   -8.6414246    572.83612 0.0096378645 0.0073910616         3218 
 4954000   0.46135667   -8.6409077    573.32439 0.0096441325 0.0073883911         3181 
 4955000   0.45636458   -8.6277968    573.49819 0.0096451091 0.0073857192         3211 
 4956000   0.46669731   -8.6318558     573.0294 0.0096352805 0.0073830488         3267 
 4957000   0.46723903   -8.6403307    572.97845 0.0096324802 0.0073803804         3232 
 4958000   0.46599781   -8.6497516    572.77513   0.00962712 0.0073777153         3184 
 4959000   0.46285787   -8.6484485    573.10999 0.0096308057  0.007375048         3205 
 4960000   0.45864634    -8.646681    572.71901 0.0096222952 0.0073723838         3213 
 4961000   0.45836549   -8.6353307    572.32576   0.00961375 0.0073697212         3254 
 4962000   0.44453159   -8.6639358    572.61927 0.0096167417 0.0073670593         3259 
 4963000   0.46233653   -8.6547778    572.02446 0.0096048167 0.0073643995         3214 
 4964000   0.45348959   -8.6405368    573.18798 0.0096224143 0.0073617408         3178 
 4965000   0.44726296    -8.642759    572.65073  0.009611459 0.0073590823         3204 
 4966000    0.4496916   -8.6427284    574.30666 0.0096373113 0.0073564248         3226 
 4967000   0.45609478   -8.6449459      573.795 0.0096267868 0.0073537723         3246 
 4968000   0.46713207   -8.6486407    573.41361 0.0096184516 0.0073511196         3246 
 4969000   0.46452498   -8.6542558     573.0676 0.0096107131 0.0073484675         3220 
 4970000   0.46474356   -8.6437693    573.11244 0.0096095313 0.0073458166         3227 
 4971000    0.4716978   -8.6418421    572.47961 0.0095969894 0.0073431679         3202 
 4972000   0.46472779   -8.6436716    573.31488 0.0096090588 0.0073405174         3219 
 4973000   0.45470397   -8.6332356    572.83607 0.0095991029 0.0073378707         3164 
 4974000   0.46128725   -8.6397352    572.73951 0.0095955553  0.007335223         3204 
 4975000    0.4527993   -8.6429911    572.87871 0.0095959583 0.0073325787         3196 
 4976000   0.45319891    -8.628892    573.14817 0.0095985426 0.0073299344         3214 
 4977000   0.45709626   -8.6598491    572.35278 0.0095832962 0.0073272919         3194 
 4978000   0.45349686   -8.6422166     572.1087 0.0095772851 0.0073246502         3225 
 4979000   0.45366845   -8.6448568    573.16348 0.0095930153 0.0073220094         3155 
 4980000   0.44861287   -8.6562129     573.2042 0.0095917704   0.00731937         3172 
 4981000    0.4543591   -8.6524411    572.86077 0.0095840991 0.0073167326         3175 
 4982000   0.45704102   -8.6439199    572.79971  0.009581154 0.0073140977         3160 
 4983000   0.45614835   -8.6447215    572.48472 0.0095739635 0.0073114635         3218 
 4984000   0.47005674   -8.6499575    572.77411 0.0095768812 0.0073088275         3191 
 4985000    0.4493734   -8.6429696    572.93117 0.0095775856 0.0073061939         3191 
 4986000   0.44070008   -8.6392453    572.83994   0.00957414 0.0073035641         3193 
 4987000   0.45276094   -8.6495995    573.08584  0.009576329 0.0073009342         3201 
 4988000   0.45779453   -8.6448087    572.90164 0.0095713319 0.0072983039         3240 
 4989000   0.45728753   -8.6488915     573.0979 0.0095726916 0.0072956759         3218 
 4990000   0.45746941   -8.6401474    573.67135 0.0095803499 0.0072930504         3206 
 4991000   0.43941097   -8.6463905     572.6066 0.0095606525 0.0072904243         3255 
 4992000   0.45609596   -8.6533957    572.59314 0.0095585127 0.0072877994         3285 
 4993000   0.45405439   -8.6516934    572.49742 0.0095550006 0.0072851778         3251 
 4994000   0.45287392   -8.6424911    572.25601  0.009549059 0.0072825571         3218 
 4995000   0.44740226     -8.64027    573.14666 0.0095620063 0.0072799377         3233 
 4996000   0.45288849    -8.655633     574.2688 0.0095788097 0.0072773206         3194 
 4997000   0.45813987   -8.6483953    573.50919 0.0095642251  0.007274704         3176 
 4998000   0.45541077   -8.6497801     573.7024  0.009565533 0.0072720883         3223 
 4999000   0.44963372   -8.6530053    573.08895 0.0095533932 0.0072694739         3200 
 5000000   0.44672322   -8.6487065    571.85298  0.009530883 0.0072668601         3218 
 5001000   0.45067636   -8.6367169    573.34954 0.0095539148  0.007264248         3195 
 5002000   0.46032776   -8.6502725    572.69683 0.0095411307 0.0072616373         3192 
 5003000   0.45074286   -8.6501649    571.94758 0.0095267435   0.00725903         3174 
 5004000   0.45313107   -8.6451232    572.90451 0.0095407759 0.0072564216         3240 
 5005000   0.45658715    -8.644785    572.59366  0.009533694 0.0072538144         3207 
 5006000   0.45234844   -8.6555677    572.50604 0.0095303309 0.0072512068         3238 
 5007000   0.45253542   -8.6661951    572.26888 0.0095244804 0.0072486027         3201 
 5008000   0.44836536     -8.64678    573.26437 0.0095391435 0.0072459998         3200 
 5009000   0.44633437   -8.6589756     572.8343 0.0095300842 0.0072433978         3213 
 5010000   0.45475249   -8.6579152    571.99673 0.0095142503 0.0072407966         3239 
 5011000   0.45004416   -8.6593671    572.50532 0.0095208095 0.0072381973         3195 
 5012000   0.45113602   -8.6570818    573.15163 0.0095296559 0.0072355999         3242 
Loop time of 13256.8 on 48 procs for 5000000 steps with 4000 atoms

Performance: 65174.228 tau/day, 377.166 timesteps/s
99.4% CPU use with 48 MPI tasks x no OpenMP threads

MPI task timing breakdown:
Section |  min time  |  avg time  |  max time  |%varavg| %total
---------------------------------------------------------------
Pair    | 1022.3     | 1100.1     | 1187       | 150.2 |  8.30
Neigh   | 93.47      | 96.914     | 100.86     |  19.5 |  0.73
Comm    | 834.4      | 936.23     | 1023.7     | 169.9 |  7.06
Output  | 18.46      | 18.464     | 18.57      |   0.4 |  0.14
Modify  | 10929      | 10977      | 11020      |  24.5 | 82.80
Other   |            | 127.9      |            |       |  0.96

Nlocal:        83.3333 ave          87 max          77 min
Histogram: 1 0 2 3 6 5 7 7 6 11
Nghost:        2444.90 ave        2463 max        2431 min
Histogram: 5 5 10 5 2 6 6 3 4 2
Neighs:        17025.0 ave       19306 max       14618 min
Histogram: 2 5 5 6 6 2 7 7 6 2
FullNghs:      34049.4 ave       35796 max       31269 min
Histogram: 1 0 4 5 5 5 10 8 5 5

Total # of neighbors = 1634372
Ave neighs/atom = 408.59300
Neighbor list builds = 266355
Dangerous builds = 1

#clear
#
#next RN
#
#jump SELF
Total wall time: 3:41:00
