
units lj                  # Use reduced LJ style units
atom_style atomic         # Uncharged point particles
atom_modify map hash      # Needed for indexing of clusters etc
                          # Used to be able to find where atoms are in relation to each other.

lattice fcc 1.0 spacing 1 1 1
Lattice spacing in x,y,z = 1.5874011 1.5874011 1.5874011
region box block 0 10 0 10 0 10 units lattice
create_box 2 box
Created orthogonal box = (0.0000000 0.0000000 0.0000000) to (15.874011 15.874011 15.874011)
  3 by 4 by 4 MPI processor grid
create_atoms 1 box
Created 4000 atoms
  using lattice units in orthogonal box = (0.0000000 0.0000000 0.0000000) to (15.874011 15.874011 15.874011)
  create_atoms CPU = 0.003 seconds
set type 1 type/fraction 2 0.31 78393
Setting atom values ...
  1268 settings made for type/fraction
mass 1 1.0
mass 2 1.0
pair_style lj/cut  3.5
pair_modify tail  yes
pair_coeff 1  1  1.0  1.0   # Intearaction between 1 and 1 set with epsilon = 1 and sigma = 1
pair_coeff 1  2  1.5  0.8
pair_coeff 2  2  0.5  0.88

write_data data.0
System init for write_data ...
Neighbor list info ...
  update every 1 steps, delay 10 steps, check yes
  max neighbors/atom: 2000, page size: 100000
  master list distance cutoff = 3.8
  ghost atom cutoff = 3.8
  binsize = 1.9, bins = 9 9 9
  1 neighbor lists, perpetual/occasional/extra = 1 0 0
  (1) pair lj/cut, perpetual
      attributes: half, newton on
      pair build: half/bin/atomonly/newton
      stencil: half/bin/3d
      bin: standard
WARNING: Not all mixed pair coeffs generated from mixing. Use write_data with 'pair ij' option to store all pair coeffs. (../write_data.cpp:312)


#############################
#   M E L T   S Y S T E M   #
#############################

velocity all create 2.4 3143649 mom yes dist gaussian # Assign velocities
                                                    # Temperature 2.4, random number seed, zero linear momentum
                                                                                # Gaussian distribution

timestep 0.002   # simulation timestep
thermo 1000       # output thermodynamic data every 1000 steps bf 100

# Define a fix  in this case with index 1 applied to all
# particles in the simulation. This fix is for simulations
# in the anisotropic NPT ensemble. Note that we use the MTK
# correction.
fix 1 all npt temp 2.4 2.4 0.1 iso 5.68 5.68 0.5 mtk yes tchain 5 pchain 5 # Use NPT ensemble
                                                                         # Set temperature and pressure and damping
                                                                         # Numbers of thermostats in chain and in barostat
run 10000          # run for 10000 steps
Per MPI rank memory allocation (min/avg/max) = 3.642 | 3.644 | 3.648 Mbytes
Step Temp E_pair E_mol TotEng Press Volume 
       0          2.4   -6.3727134            0   -2.7736134   -4.0086663         4000 
    1000    2.3762729   -5.0514073            0   -1.4878889    5.4080856    4118.1312 
    2000    2.4181095   -4.9711882            0   -1.3449308     5.807888    4121.1638 
    3000     2.411948   -5.0052207            0   -1.3882031    5.6617011     4117.338 
    4000     2.411752   -4.9944366            0   -1.3777129    5.2160937    4160.6275 
    5000    2.3577706   -5.0247787            0   -1.4890069    5.7519095    4112.4878 
    6000    2.4350179   -4.9726711            0   -1.3210573    5.4301631    4155.6717 
    7000    2.4191793   -4.9293593            0   -1.3014976    5.6929447     4163.811 
    8000    2.3902769    -4.951493            0   -1.3669739    5.5988338    4147.5659 
    9000    2.3447381   -4.9959488            0   -1.4797209    5.2152863    4158.7384 
   10000    2.3994287   -5.0098221            0   -1.4115788    5.8423754    4102.6866 
Loop time of 2.40276 on 48 procs for 10000 steps with 4000 atoms

Performance: 719173.471 tau/day, 4161.884 timesteps/s
99.7% CPU use with 48 MPI tasks x no OpenMP threads

MPI task timing breakdown:
Section |  min time  |  avg time  |  max time  |%varavg| %total
---------------------------------------------------------------
Pair    | 1.0228     | 1.1142     | 1.1902     |   3.4 | 46.37
Neigh   | 0.20246    | 0.21101    | 0.22664    |   1.2 |  8.78
Comm    | 0.74392    | 0.82621    | 0.92653    |   4.5 | 34.39
Output  | 0.00023831 | 0.00024425 | 0.00030527 |   0.0 |  0.01
Modify  | 0.20657    | 0.23599    | 0.25913    |   2.8 |  9.82
Other   |            | 0.01508    |            |       |  0.63

Nlocal:        83.3333 ave          93 max          71 min
Histogram: 1 1 2 6 6 14 4 8 5 1
Nghost:        1614.40 ave        1634 max        1592 min
Histogram: 2 0 6 8 6 7 5 7 5 2
Neighs:        9296.08 ave       10475 max        7773 min
Histogram: 1 0 4 6 11 7 5 6 5 3

Total # of neighbors = 446212
Ave neighs/atom = 111.55300
Neighbor list builds = 904
Dangerous builds = 187

# Equilibrate just above the melting temperature to avoid step fn in T

fix 1 all npt temp 1.25 1.25 0.1 iso 5.68 5.68 0.5 mtk yes tchain 5 pchain 5
run 2000
Per MPI rank memory allocation (min/avg/max) = 3.643 | 3.645 | 3.649 Mbytes
Step Temp E_pair E_mol TotEng Press Volume 
   10000    2.3994287   -5.0098221            0   -1.4115788    5.8423754    4102.6866 
   11000    1.2473186   -6.8538414            0   -4.9833312    5.5750649     3328.773 
   12000    1.2404919   -6.9216476            0    -5.061375    5.6258584    3308.7335 
Loop time of 0.599263 on 48 procs for 2000 steps with 4000 atoms

Performance: 576708.697 tau/day, 3337.435 timesteps/s
99.5% CPU use with 48 MPI tasks x no OpenMP threads

MPI task timing breakdown:
Section |  min time  |  avg time  |  max time  |%varavg| %total
---------------------------------------------------------------
Pair    | 0.24799    | 0.27111    | 0.28791    |   1.7 | 45.24
Neigh   | 0.037323   | 0.039206   | 0.041483   |   0.5 |  6.54
Comm    | 0.18429    | 0.20283    | 0.24113    |   2.5 | 33.85
Output  | 7.0252e-05 | 7.3909e-05 | 8.9285e-05 |   0.0 |  0.01
Modify  | 0.042661   | 0.081      | 0.085648   |   2.1 | 13.52
Other   |            | 0.005043   |            |       |  0.84

Nlocal:        83.3333 ave          92 max          73 min
Histogram: 1 2 4 6 6 10 7 8 3 1
Nghost:        1865.85 ave        1896 max        1840 min
Histogram: 2 4 7 9 4 8 5 4 4 1
Neighs:        11554.6 ave       12915 max        9998 min
Histogram: 1 0 6 8 6 11 4 5 3 4

Total # of neighbors = 554620
Ave neighs/atom = 138.65500
Neighbor list builds = 142
Dangerous builds = 11

#############################
# L I N E A R  Q U E N C H  #
#############################

# Define solid atoms. This closely follows ten Wolde  Ruiz-Montero and Frenkel  Faraday Discuss  1996  104  93-110
# Compute components of the per-atom q6 vector
compute q6 all orientorder/atom degrees 1 6 components 6 nnn NULL cutoff 1.3 # compute the Q6 parameter.
                                                                             # Use all neighbours within 1.3 unit cell.

# get number of connections
compute coord_number all coord/atom orientorder q6 0.5

# An atom is solid if it has 8 or more connections (of a possible 14)
variable is_solid atom c_coord_number>=8
group solid dynamic all var is_solid    # Must be dynamic to update
dynamic group solid defined

# do clustering
compute cluster solid cluster/atom 1.3 # Create a cluster where all atoms within are solid and max 1.3 units from another member

# define chunks one chunk per cluster
compute clus_chunks solid chunk/atom c_cluster nchunk every compress yes  # Says which atoms are in which chunk

# count the size of each chunk
compute size_chunks solid property/chunk clus_chunks count


# Find the maximum entry in the vector of chunk sizes
variable max_n equal max(c_size_chunks)


# Thermo style which includes this variable
# thermo_style custom step temp pe vol v_max_n

thermo ${N}  # Print the thermo information every 100 steps
thermo 1000  

# Reset the npt fix at a lower temperature (below freezing)
fix 1  all npt temp  ${temp} ${temp}  0.1  iso  5.68  5.68  0.5  mtk yes tchain  5  pchain  5
fix 1  all npt temp  0.45 ${temp}  0.1  iso  5.68  5.68  0.5  mtk yes tchain  5  pchain  5
fix 1  all npt temp  0.45 0.45  0.1  iso  5.68  5.68  0.5  mtk yes tchain  5  pchain  5

dump dmp2 all dcd ${N} traj.dcd
dump dmp2 all dcd 1000 traj.dcd


compute msd all msd com yes
variable twopoint equal c_msd[4]/6/(step*dt+1.0e-6)
fix 9 all vector 10 c_msd[4]
variable fit equal slope(f_9)/6/(10*dt)
thermo_style custom step temp pe c_msd[4] v_twopoint v_fit v_max_n

fix 1 all npt temp 1.25 ${temp} 0.1 iso 5.68 5.68 0.5 mtk yes tchain 5 pchain 5
fix 1 all npt temp 1.25 0.45 0.1 iso 5.68 5.68 0.5 mtk yes tchain 5 pchain 5
run 5000000 # 5000000  # Run for this many steps
Neighbor list info ...
  update every 1 steps, delay 10 steps, check yes
  max neighbors/atom: 2000, page size: 100000
  master list distance cutoff = 3.8
  ghost atom cutoff = 3.8
  binsize = 1.9, bins = 8 8 8
  4 neighbor lists, perpetual/occasional/extra = 1 3 0
  (1) pair lj/cut, perpetual
      attributes: half, newton on
      pair build: half/bin/atomonly/newton
      stencil: half/bin/3d
      bin: standard
  (2) compute orientorder/atom, occasional
      attributes: full, newton on
      pair build: full/bin/atomonly
      stencil: full/bin/3d
      bin: standard
  (3) compute coord/atom, occasional
      attributes: full, newton on
      pair build: full/bin/atomonly
      stencil: full/bin/3d
      bin: standard
  (4) compute cluster/atom, occasional
      attributes: full, newton on
      pair build: full/bin/atomonly
      stencil: full/bin/3d
      bin: standard
Per MPI rank memory allocation (min/avg/max) = 9.811 | 9.816 | 9.820 Mbytes
Step Temp PotEng c_msd[4] v_twopoint v_fit v_max_n 
   12000    1.2404919   -6.9216476 7.5415103e-31 5.2371597e-33 8.3333333e+20            2 
   13000    1.2563413   -6.8728725   0.50586869 0.0032427479  0.041271002            2 
   14000    1.2635894   -6.9480469   0.94896972 0.0056486291  0.038758417            1 
   15000    1.2602318   -6.9111988    1.4182466 0.0078791475   0.03843799            1 
   16000    1.2481255   -6.9433828    1.8547941 0.0096603857  0.038190003            3 
   17000    1.2612565    -6.911133    2.3025207  0.011286866  0.037956987            1 
   18000    1.2765435   -6.9323471    2.7814312  0.012876996  0.037850385            1 
   19000    1.2664714   -6.8979767    3.2120291  0.014087847  0.037773467            2 
   20000    1.2540313   -6.9358527     3.714987  0.015479112  0.037852419            1 
   21000    1.2562126   -6.9226508    4.1616725  0.016514573   0.03799672            1 
   22000    1.2566479   -6.9075856    4.6120737  0.017469976   0.03810583            1 
   23000    1.2426094   -6.9223181    5.1891201  0.018801159  0.038343195            2 
   24000    1.2447753   -6.9263886    5.6438588  0.019596731  0.038667476            1 
   25000    1.2316097   -6.8977889    6.1633894  0.020544631  0.038959373            3 
   26000    1.2674412   -6.8855335    6.6728029  0.021387188  0.039280445            1 
   27000     1.232529   -6.9130534    7.0985379  0.021909067  0.039442736            3 
   28000    1.2293754   -6.9499321    7.5624153  0.022507188  0.039495812            2 
   29000    1.2586731    -6.934115    8.0863334   0.02323659  0.039529397            1 
   30000     1.225941   -6.9211853    8.6548526  0.024041257  0.039672838            2 
   31000        1.244   -6.9195512    9.2059363   0.02474714  0.039886643            2 
   32000     1.253688   -6.9132798    9.6572869  0.025149184  0.040092126            2 
   33000    1.2262351   -6.9229123    10.041452  0.025357201   0.04017143            3 
   34000    1.2357089    -6.897706    10.508509   0.02575615  0.040225167            2 
   35000    1.2358019   -6.9587929    11.021106  0.026240728  0.040223213            1 
   36000    1.2271069   -6.8624859    11.577499  0.026799766  0.040288613            3 
   37000    1.2296932   -6.9098018    12.061458  0.027165445     0.040355            1 
   38000    1.2382402    -6.901121    12.549509  0.027520853   0.04040253            1 
   39000    1.2711873   -6.8882676    13.105251  0.028002672  0.040462589            3 
   40000    1.2490404   -6.9400699    13.646442  0.028430086  0.040573615            1 
   41000    1.2744493    -6.953348     14.13488   0.02872943  0.040678936            3 
   42000    1.2501859   -6.9065891    14.476432   0.02872308  0.040720724            1 
   43000    1.2359903   -6.9087172     15.11283  0.029288431  0.040751452            1 
   44000    1.2386207   -6.9252018    15.603183  0.029551483  0.040778949            1 
   45000    1.2200082   -6.8989145    16.042146  0.029707678  0.040821334            3 
   46000    1.2433693   -6.8412049    16.514687  0.029917911  0.040816835            2 
   47000    1.2582532    -6.887658    16.899071  0.029962892   0.04079405            2 
   48000    1.2458994    -6.938754    17.358235  0.030135825  0.040750279            2 
   49000    1.2446357   -6.9666409    17.732918  0.030158023   0.04069745            1 
   50000    1.2459172   -6.9476404    18.258174   0.03043029  0.040645217            1 
   51000    1.2677117   -6.9432497    18.685021   0.03053108  0.040579615            4 
   52000    1.2648518   -6.9409978     19.08126  0.030578943   0.04052103            3 
   53000    1.2309068   -6.8974097    19.769847  0.031084665  0.040484201            1 
   54000    1.2410127   -6.9152424    20.339393  0.031387952  0.040495833            1 
   55000    1.2224062   -6.9362906    21.004514   0.03182502  0.040528939            2 
   56000    1.2505157   -6.9133762    21.608767  0.032155903  0.040600017            1 
   57000    1.2302166   -6.9018211    22.191334  0.032443471  0.040681012            1 
   58000    1.2600885   -6.9222725    22.672079  0.032574826  0.040767228            1 
   59000    1.2335878   -6.9073937    23.133636  0.032674626  0.040838455            1 
   60000    1.2508993   -6.9310884    23.621067  0.032807037  0.040893841            1 
   61000    1.2326442   -6.9534872    24.246217  0.033123247  0.040952754            1 
   62000     1.261267    -6.916227      24.7294  0.033238441  0.041012933            2 
   63000    1.2459642   -6.9214921    24.980815  0.033043406  0.041051009            1 
   64000    1.2327754   -6.9344474    25.452657   0.03314148  0.041065647            1 
   65000    1.2197804   -6.9045266    25.865422  0.033160797  0.041069405            1 
   66000    1.2509347   -6.9244194    26.216309    0.0331014  0.041045107            1 
   67000    1.2458231   -6.9515145    26.895855  0.033452556  0.041036504            2 
   68000    1.2512194   -6.9663294    27.416367  0.033598489  0.041044626            3 
   69000    1.2292946    -6.944989    27.819963  0.033598989  0.041042798            1 
   70000    1.2216928   -6.9541539    28.321495  0.033716065  0.041040032            1 
   71000    1.2532173   -6.9293472    28.825374  0.033832598  0.041027338            3 
   72000    1.2400891   -6.9280982     29.23849  0.033840844  0.041024019            2 
   73000    1.2173589   -6.9296319    29.717857  0.033924494  0.041003906            2 
   74000    1.2574952    -6.898813    30.151632   0.03395454  0.040977779            1 
   75000    1.2547375   -6.9452586    30.423576  0.033803973  0.040937181            1 
   76000     1.241299   -6.8893833    30.802391  0.033774551  0.040883835            1 
   77000     1.245772   -6.9379284    31.086168  0.033643039  0.040811424            1 
   78000    1.2776209   -6.9661996    31.429137  0.033578138  0.040738961            1 
   79000    1.2452847    -6.926553    31.719849  0.033459756  0.040653281            4 
   80000    1.2290728   -6.8936541    32.188809  0.033530009  0.040561708            2 
   81000     1.222607   -6.9362051    32.697735  0.033639645  0.040479338            1 
   82000    1.2517677   -6.9172045    33.268935  0.033809893  0.040402743            1 
   83000    1.2521369   -6.9259258    33.762937  0.033898531  0.040347446            1 
   84000    1.2678285   -6.9588892    34.464399  0.034190871   0.04030067            2 
   85000    1.2239663   -6.8875521    35.010841  0.034324354  0.040269323            2 
   86000     1.260741   -6.9365276    35.368594  0.034271893  0.040237311            1 
   87000    1.2316812   -6.8888084    35.927154  0.034412982  0.040211158            1 
   88000    1.2578163   -6.9282955    36.563674  0.034624691  0.040197416            1 
   89000    1.2480707   -6.9103918    37.021123  0.034663972  0.040184055            2 
   90000    1.2286954   -6.9706028     37.40351   0.03463288  0.040171938            1 
   91000    1.2280835   -6.9245467     37.84146  0.034653351  0.040159703            3 
   92000    1.2528998   -6.9334898     38.36945  0.034754936   0.04014468            1 
   93000    1.2276539   -6.9019173    39.016214  0.034960765  0.040133544            2 
   94000    1.2750265   -6.9195636    39.122818  0.034683349  0.040116176            3 
   95000    1.2255734    -6.919554    39.569965  0.034710496  0.040087555            3 
   96000    1.2214733    -6.943724    40.333008  0.035011292  0.040073687            1 
   97000     1.226881   -6.9666181    40.379903  0.034690638  0.040054795            1 
   98000    1.2266986   -6.9424476    40.683161  0.034594524   0.04002254            3 
   99000    1.2158454    -6.921202    41.153053  0.034640617  0.039980896            2 
  100000    1.2147184   -6.9350376    41.667843  0.034723202  0.039934516            2 
  101000    1.2259904    -6.876992    42.102639  0.034738151  0.039887683            1 
  102000    1.2351588   -6.9120895    42.664474  0.034856596  0.039847398            1 
  103000    1.2462256   -6.9343886    42.836644  0.034657479  0.039805041            1 
  104000    1.2275066   -6.9538537    43.101914   0.03453679   0.03975575            1 
  105000    1.2378239   -6.9991103    43.515087  0.034535783  0.039700618            1 
  106000    1.1858548   -6.9652941    44.080056  0.034654132   0.03964841            1 
  107000    1.2564007   -6.9131714    44.741435  0.034845354  0.039608838            1 
  108000    1.2465437   -6.9189288    45.099104  0.034798691  0.039574006            2 
  109000     1.215296   -6.9350117    45.452125  0.034749331  0.039530132            2 
  110000    1.2320327   -6.9061902    45.930888  0.034796127  0.039486761            1 
  111000    1.2342003   -6.9411376    46.048872  0.034571225  0.039435684            3 
  112000    1.1991653   -6.9099342    46.614172  0.034683164  0.039379742            2 
  113000    1.2729958   -6.9479621    46.881713  0.034573534  0.039326279            1 
  114000    1.2691193   -6.9435361    47.075138  0.034411651  0.039266956            1 
  115000    1.2132016   -6.9727124    47.513124    0.0344298  0.039200978            1 
  116000    1.2159383   -6.9142956    47.980395  0.034468674  0.039137691            1 
  117000    1.2285768   -6.9290423    48.313269   0.03441116  0.039076946            1 
  118000    1.2362405   -6.9725149    48.594178  0.034317922  0.039015798       -1e+20 
  119000    1.2375639   -6.9399332    49.295866  0.034520915  0.038958172            1 
  120000    1.2220102   -7.0081656    49.588195  0.034436247  0.038900348            1 
  121000    1.2437289   -6.9590506      50.0119  0.034443457  0.038846612            1 
  122000    1.2284936   -6.9203685    50.695062  0.034627774  0.038798746            2 
  123000     1.247377   -6.9513031    51.124517  0.034637206  0.038756146            1 
  124000    1.2425149   -6.9885734    51.518139  0.034622405  0.038715139            5 
  125000     1.237858   -6.9806833    52.178006  0.034785337  0.038675405            1 
  126000    1.2329756   -6.9518911     52.41877  0.034668498  0.038634757            1 
  127000    1.2084055   -6.9838429    52.799177  0.034645129  0.038592422            1 
  128000    1.2200521   -6.9696366    53.210654  0.034642353  0.038554899            2 
  129000    1.2537061   -6.8871629    53.885108  0.034809501  0.038518167            3 
  130000     1.233764   -6.9358078    54.238353  0.034768175  0.038486206            1 
  131000    1.2358171    -6.913792    54.778381  0.034846298  0.038454076            1 
  132000    1.1975801   -6.9489999    55.378418  0.034961123  0.038426218            1 
  133000    1.2035931   -6.9486436    55.931676  0.035044909  0.038400986            4 
  134000    1.2604265   -6.9300998    56.443576  0.035101726  0.038378871            2 
  135000    1.2290465   -6.9812723    56.504773   0.03487949  0.038357616            2 
  136000    1.2159837   -6.9122765    57.375655  0.035156651  0.038337954            1 
  137000     1.244253   -6.9612327    57.657235  0.035071311  0.038321213            2 
  138000    1.2252383   -6.9495561    58.582728  0.035376043  0.038309965            1 
  139000    1.2405618   -6.9197554    58.939066  0.035335171  0.038304195            1 
  140000    1.2100491   -6.9312205    59.190987   0.03523273  0.038297429            3 
  141000    1.2142904   -6.9425853    59.857142  0.035376561  0.038293714            1 
  142000    1.2525874   -6.9626556    60.698715  0.035621311  0.038292239            2 
  143000    1.2179953   -6.9920463    61.117003  0.035615969  0.038294556            2 
  144000    1.2400394   -6.9698406    61.614951    0.0356568  0.038298632            1 
  145000    1.2323941    -6.963228    62.196632   0.03574519   0.03830085            3 
  146000    1.2404861   -6.9964203    62.394119  0.035613082  0.038302327            1 
  147000    1.2067791   -6.9350546    62.873743  0.035642712  0.038298859            1 
  148000     1.244396   -6.9927297    63.282966  0.035632301   0.03829605            1 
  149000    1.2129958   -6.9811018    63.611586  0.035576949  0.038291488            2 
  150000    1.2140045   -6.9602021    63.917079  0.035509488   0.03828745            2 
  151000    1.2264202   -6.9984873    64.214988  0.035438735  0.038280791            1 
  152000    1.2553141   -6.9660189    64.879345  0.035569816  0.038276609            3 
  153000    1.2177696   -6.9610979    65.395226  0.035618315  0.038269158            1 
  154000    1.2084354   -6.9177904    65.764862  0.035587047  0.038264249            1 
  155000    1.2373801   -6.9605944    66.076682  0.035525098  0.038255512            1 
  156000    1.2266569   -6.9636116    66.361388   0.03544946  0.038248106            2 
  157000    1.2479981   -6.9593083    67.001927  0.035563656   0.03824018            3 
  158000    1.2181595   -6.9716091    67.545215  0.035625113  0.038234386            2 
  159000    1.2103577   -6.9301964    68.121577  0.035703133  0.038229282            2 
  160000    1.2402099   -6.9751526    68.479655  0.035666487  0.038225927            1 
  161000    1.2248938    -6.977352    68.929549   0.03567782  0.038221231            2 
  162000    1.2331911   -6.9439811    69.268283  0.035631833   0.03821331            1 
  163000    1.2361351   -6.9701728    69.764846  0.035667099  0.038204351            3 
  164000    1.2309985   -6.9436433    70.186861  0.035664056  0.038195556            2 
  165000    1.2245907   -6.9902585    70.444383  0.035577971  0.038188155            4 
  166000    1.2073985   -6.9532612     71.10691   0.03569624  0.038180724            2 
  167000    1.2333079   -6.9631331    71.741944  0.035799373  0.038175958            1 
  168000    1.2254252   -7.0172384    71.968239  0.035698531  0.038170251            2 
  169000    1.2184308   -6.9526271    72.785635  0.035890352  0.038169044            1 
  170000    1.2324574   -6.9778636    72.642111  0.035608878  0.038165089            2 
  171000    1.2092085   -6.9523156    73.321205  0.035731581  0.038155764            2 
  172000    1.2276817   -6.9499117    73.739574  0.035726538  0.038147142            1 
  173000     1.211358   -6.9504249    74.026919  0.035658439   0.03813765            1 
  174000    1.2228577   -6.9502572    74.642418  0.035748284  0.038126758            3 
  175000     1.209289   -6.9651208    75.040067  0.035733365  0.038117674            1 
  176000    1.2142637   -6.9771959    75.318613  0.035662222  0.038110213            2 
  177000    1.2360813   -6.9630847    75.939317  0.035752974  0.038101953            3 
  178000    1.2084581   -6.9514756    76.478701  0.035804635  0.038095089            2 
  179000     1.203031   -6.9462319    76.900953  0.035801189   0.03808621            1 
  180000    1.2115055   -6.9247769    77.145476  0.035715498  0.038074917            1 
  181000    1.2318856   -6.9842847    77.143169  0.035517113  0.038061373            2 
  182000    1.2170597   -6.9819537    77.594898  0.035528799   0.03804809            2 
  183000    1.2239419   -6.9223698    78.234311  0.035625825  0.038035706            2 
  184000    1.2333654   -6.9347516    78.921967  0.035743644  0.038025356            2 
  185000    1.2180618     -6.96142    79.291993  0.035717114  0.038017474            2 
  186000    1.2118163   -6.9646396    79.755165  0.035732601  0.038009065            1 
  187000    1.2108904   -7.0000561    80.195246  0.035737632  0.038001304            1 
  188000    1.2174478   -6.9561729    80.668103  0.035757138  0.037991385            1 
  189000     1.232602   -6.9573788    81.089846    0.0357539  0.037983827            2 
  190000     1.217663   -6.9809113     81.53064  0.035759053  0.037976314            1 
  191000    1.1746912   -6.9508847    82.621225  0.036047655  0.037973788            1 
  192000    1.2449772   -6.9407104    83.149585  0.036089229  0.037972762            1 
  193000    1.2054251   -6.9535844    83.367323  0.035996253   0.03797172            2 
  194000    1.2136426   -7.0240077    83.888543  0.036034597  0.037970156            2 
  195000    1.2075051   -6.9524376    84.146628  0.035960097   0.03796688            1 
  196000    1.2316233   -6.9986972    84.174435   0.03578845  0.037961409            1 
  197000    1.1976018   -7.0026808    84.783798  0.035864551  0.037954711            1 
  198000    1.2123393   -6.9689038    85.341022  0.035917938   0.03794667            1 
  199000    1.2296619   -6.9419868    85.864204  0.035956534  0.037943117            2 
  200000    1.2161694   -7.0191237    86.419146  0.036007977  0.037938689            1 
  201000    1.2139142    -7.021512    86.655911  0.035926994  0.037933477            2 
  202000    1.2234056   -6.9444627    87.188254  0.035968751  0.037927653            1 
  203000    1.1775041   -6.9604498    87.558624  0.035943606  0.037922578            2 
  204000    1.2142578    -6.983771    88.098646  0.035988009  0.037915282            1 
  205000     1.201823   -6.9747261    88.711877  0.036061739  0.037909383            1 
  206000    1.2319549   -7.0272433    88.612338  0.035846415  0.037901207            1 
  207000    1.2504424   -6.9692232    89.081518  0.035862125  0.037892999            1 
  208000    1.2296957   -6.9597624    89.143065  0.035714369  0.037881129            1 
  209000    1.2409769   -6.9797169    89.745176  0.035783563   0.03787067            2 
  210000    1.1942526   -6.9659514     90.42187  0.035881694   0.03786344            2 
  211000    1.2394098   -6.9727715    90.670503  0.035809835  0.037856147            1 
  212000    1.2199704   -6.9681566    91.033688  0.035783682  0.037847881            2 
  213000    1.2352144   -6.9835466    91.503955  0.035799669  0.037839241            1 
  214000    1.2422583   -6.9991737    92.032844  0.035838335  0.037830632            2 
  215000     1.188851   -6.9857882    92.400664  0.035814211  0.037822104            2 
  216000    1.2101623   -6.9882092    93.149676  0.035937375  0.037816426            1 
  217000    1.1992756   -6.9823825    93.502566  0.035907283  0.037808538            3 
  218000    1.2023121    -6.967411    93.902601   0.03589549  0.037800349            2 
  219000    1.2174751   -6.9462368    94.634157  0.036009953   0.03779154            1 
  220000    1.2028702   -7.0031312    94.652848  0.035853351  0.037782379            2 
  221000    1.2148497   -6.9868819    94.727663   0.03571933   0.03777169            1 
  222000     1.203878   -7.0275872    95.203678  0.035737116  0.037760175            1 
  223000    1.2231038   -6.9919549    95.854828   0.03582019  0.037748643            1 
  224000    1.2224648   -6.9611346    95.959885  0.035699362  0.037736219            1 
  225000    1.2138872   -6.9579778    96.746817  0.035832154  0.037724829            1 
  226000    1.2217579   -6.9739961    97.513506  0.035956307  0.037714138            1 
  227000    1.2130099   -6.9459417    97.881862  0.035933136  0.037707476            2 
  228000    1.2065474   -6.9448302    98.535498  0.036014436  0.037699195            1 
  229000    1.2038791   -6.9840667    99.081443  0.036055838  0.037692629            3 
  230000    1.2256364   -6.9616251    99.369649  0.036003496  0.037686306            1 
  231000    1.2329838   -6.9815588    99.436932  0.035871909  0.037679994            1 
  232000    1.2241666   -6.9535867    100.16736  0.035979655  0.037673686            2 
  233000    1.1952688   -6.9967856    100.51682  0.035950221  0.037667387            2 
  234000     1.213524   -6.9389781    100.95087  0.035951166  0.037659974            2 
  235000    1.2111963   -6.9981384    101.02342  0.035823908  0.037652843            1 
  236000     1.224414   -6.9695988     101.8811  0.035974964  0.037646008            2 
  237000    1.2199387    -6.995894     101.7666   0.03578291  0.037637174       -1e+20 
  238000    1.2385251   -6.9787487    102.09077  0.035746067  0.037626214            1 
  239000      1.19565   -6.9879822    102.20475  0.035636245   0.03761454            1 
  240000    1.2127352   -7.0240759    102.97351  0.035754691  0.037601585            4 
  241000    1.2408321   -6.9577958    103.78757   0.03588782  0.037591515            3 
  242000    1.2181249   -7.0220062    103.87162  0.035768463  0.037580541            1 
  243000    1.2258651   -7.0026832    104.33024  0.035778547  0.037568132            3 
  244000    1.2255856   -6.9749066    104.61987   0.03573083  0.037557846            3 
  245000    1.2192646   -6.9659822     105.2521  0.035800035  0.037547857            2 
  246000     1.198508    -6.971488    105.74301  0.035820804  0.037537643            1 
  247000    1.2365811   -6.9447414    106.27636  0.035855721  0.037528101            1 
  248000    1.2130318   -7.0245281    106.24397  0.035700259  0.037517977            2 
  249000    1.1718318   -6.9982434    106.37248  0.035599894     0.037507            2 
  250000    1.2243351   -6.9939557    107.05963  0.035686543  0.037496438            1 
  251000    1.2192693   -6.9934342    107.60034  0.035723884  0.037487164            4 
  252000    1.1815889   -6.9662845    108.00294  0.035715258  0.037477882            1 
  253000    1.1872288   -7.0115076    108.11063  0.035609562  0.037466911            1 
  254000     1.211377    -7.017762    108.83804  0.035708017   0.03745461            1 
  255000     1.213083   -6.9520637    109.33238  0.035729536  0.037441752            1 
  256000    1.2028001   -7.0100075    109.29995  0.035579409  0.037427985            1 
  257000    1.1987312   -6.9631152    109.80266  0.035603975   0.03741373            3 
  258000    1.2127396   -6.9608444    110.47704    0.0356838  0.037398254            1 
  259000    1.1984175   -7.0030211     110.4664  0.035542599  0.037383197            1 
  260000     1.185241   -6.9458086    110.88315  0.035539471  0.037367452            2 
  261000    1.2328316   -6.9648658    111.35759  0.035554785  0.037354102            1 
  262000    1.2177151   -7.0179823    112.18981  0.035683783  0.037340718            6 
  263000    1.1975136   -7.0233672    112.29944   0.03558284  0.037328709            1 
  264000    1.2030371   -6.9602784    113.22517  0.035740269  0.037316622            1 
  265000    1.2459618   -7.0269851    113.37352  0.035652051  0.037307636            1 
  266000     1.203088      -6.9652    114.50717  0.035873173  0.037298911            4 
  267000    1.2070739   -6.9961482     114.5338  0.035747129  0.037291192            2 
  268000    1.2163178   -7.0064769    115.13836  0.035801729  0.037283018            1 
  269000    1.1878127   -7.0174133    115.14032  0.035669243  0.037275136            1 
  270000    1.1921654   -6.9936354    115.67504  0.035702172  0.037267453            2 
  271000    1.1983328   -6.9685475      117.021  0.035984318  0.037260846            2 
  272000    1.1903474    -7.006624    116.60515  0.035724617  0.037254928            2 
  273000    1.2283963   -6.9923585    118.10021  0.036050126  0.037248902            3 
  274000    1.2225135   -7.0124922    117.78021  0.035821232  0.037243013            2 
  275000    1.2128131   -7.0327249    118.27074  0.035839617  0.037236393            2 
  276000    1.2293386   -7.0189224    118.86828  0.035890183  0.037230768            1 
  277000    1.1893728   -6.9510703     119.5222  0.035957339  0.037225822            1 
  278000    1.2166137   -6.9597339    120.24907  0.036045884  0.037220381            1 
  279000    1.1902966   -7.0031112     119.8774  0.035805675  0.037215635            2 
  280000    1.1874792   -6.9856262    120.26332  0.035792654  0.037208298            2 
  281000    1.2007157   -6.9632008    120.80175  0.035824954  0.037200886            1 
  282000    1.2082924   -7.0075649    121.13272   0.03579572  0.037191666            2 
  283000    1.2206883   -6.9858722     121.4202  0.035753887  0.037181973            1 
  284000    1.2280009    -7.000468    121.61499   0.03568515  0.037172608            1 
  285000    1.1933666   -6.9710603    122.10481  0.035703162  0.037161135            2 
  286000    1.2044366   -6.9946945    122.55231  0.035708716  0.037150555            1 
  287000    1.1863147   -6.9799729    122.89987  0.035685212  0.037141166            2 
  288000     1.204806   -6.9570559    123.31564  0.035681608  0.037130592            2 
  289000    1.2070726   -6.9799371    123.62093  0.035646175  0.037119689            1 
  290000     1.211942   -7.0130228    124.11203  0.035664376  0.037110164            1 
  291000    1.2207084   -6.9680658    124.34754  0.035609262  0.037100427            5 
  292000    1.2088843   -7.0182174    124.81026  0.035619367  0.037091288            2 
  293000    1.2235609   -7.0372017    124.80636  0.035496689   0.03708033            3 
  294000    1.1780417   -7.0255326    125.79094  0.035655027  0.037071058            2 
  295000    1.1909837    -6.991835    126.06473  0.035611506  0.037061375            2 
  296000    1.2025068   -6.9792518    126.50338  0.035614691  0.037051235       -1e+20 
  297000    1.1963546   -7.0216981    126.64701  0.035535075  0.037040809            1 
  298000    1.2034872   -6.9928405    127.26968  0.035589955  0.037031151            2 
  299000     1.195163   -7.0081906    128.03778     0.035685  0.037021867            1 
  300000    1.2129994   -6.9834617    128.36869  0.035657968  0.037013755            1 
  301000    1.2111702   -6.9511573    129.19359  0.035767881  0.037004826            1 
  302000    1.1798283    -7.006029    129.28628  0.035675022  0.036995646            3 
  303000    1.1905692   -6.9901281    129.47535  0.035609281  0.036987587            1 
  304000    1.1971782   -7.0007369    129.83381  0.035590408  0.036979404            1 
  305000    1.2076716   -7.0112666     130.8222  0.035743769  0.036970671            1 
  306000     1.219033    -6.999869    130.89677   0.03564727  0.036961444            1 
  307000    1.1936901   -6.9963234    130.89378  0.035530343  0.036950761            3 
  308000    1.1890895   -6.9733248    131.74732  0.035645919  0.036940475            1 
  309000    1.1890302    -6.961082    132.07706  0.035619488  0.036930476            1 
  310000    1.2021388   -6.9938508    132.52496  0.035624988  0.036920928            2 
  311000    1.1795633   -7.0150557    132.81886   0.03558919  0.036911239            1 
  312000     1.222354   -7.0265472    132.76906  0.035461821  0.036901489            1 
  313000    1.1821014   -7.0223141    133.60333  0.035570642  0.036890818            2 
  314000    1.2055854   -7.0343771    134.05417  0.035577009  0.036880085            1 
  315000     1.198071   -6.9760982    133.98945  0.035446945  0.036868982            3 
  316000    1.1800333   -7.0110091    134.25202  0.035404014  0.036857312            1 
  317000     1.207966   -7.0275456    134.84446  0.035448071   0.03684746            1 
  318000     1.207162   -7.0038128    135.59058  0.035532122  0.036837582            1 
  319000    1.1952947   -6.9817029     136.0369   0.03553733  0.036828441            1 
  320000    1.1891623   -7.0163612    137.02024  0.035682355   0.03681939            1 
  321000    1.2258704   -7.0533078    136.84029  0.035524479  0.036810211            2 
  322000     1.202758   -7.0028183    137.05731  0.035470319  0.036800928            1 
  323000    1.1876456   -7.0415404      137.299  0.035422859  0.036791235            1 
  324000    1.1928154   -6.9996806    138.23848  0.035555166  0.036780988            3 
  325000    1.2142193   -7.0331335    138.02823  0.035391855  0.036770577            2 
  326000    1.2303275   -6.9955825    138.98588  0.035528088  0.036760567            1 
  327000    1.1949367   -6.9931815    139.75008  0.035614188  0.036753022            3 
  328000    1.2147157   -7.0560802    140.10932  0.035596881  0.036744874            2 
  329000    1.1647692   -7.0719798    139.86702  0.035427309  0.036736911            1 
  330000    1.2047707   -6.9690659    140.75736  0.035544788  0.036728825            2 
  331000    1.1898455   -7.0159365    140.63032  0.035405419  0.036721168            1 
  332000    1.2055886   -6.9971471    141.37659  0.035486093  0.036711776            2 
  333000    1.1903804   -7.0410785    141.54091  0.035420647  0.036702546            1 
  334000    1.1899002   -7.0133818    142.06169  0.035444534  0.036693094            2 
  335000    1.2356189   -7.0504954    142.42281   0.03542856  0.036683853            2 
  336000    1.2081881   -6.9681455    143.49857  0.035589923  0.036674999            2 
  337000    1.2075225   -7.0044867    143.88077  0.035578824  0.036667597            2 
  338000     1.209066   -7.0497515    143.94014    0.0354882  0.036659381            1 
  339000    1.2076071   -7.0231149    144.67464  0.035564071  0.036652177            2 
  340000     1.176091   -7.0156831    144.99903  0.035538977   0.03664509            2 
  341000    1.1741318   -7.0251687    145.49575  0.035556145  0.036637338            2 
  342000    1.1939905   -7.0548819    145.98915  0.035572405  0.036630114            1 
  343000    1.1716706   -7.0231877    145.85922  0.035437128  0.036623495            1 
  344000    1.1872773   -6.9962423    146.83851  0.035571345  0.036616159            1 
  345000    1.1878787   -6.9741656    147.09974  0.035531338  0.036608202            1 
  346000    1.2142838   -6.9912556    147.56114  0.035539775  0.036599889            2 
  347000    1.2051594   -6.9952684    148.54599   0.03567387  0.036592043            1 
  348000    1.2264163    -7.018994    148.54824  0.035571896  0.036584696            3 
  349000    1.1762631   -7.0217686    148.87731  0.035548547   0.03657741            4 
  350000    1.1992141   -7.0231811     149.1445  0.035510595  0.036569976            2 
  351000    1.1944578   -7.0478717      148.907  0.035353039  0.036562192            1 
  352000    1.2092739   -7.0076138     149.6435  0.035426966  0.036554528            1 
  353000    1.2047763   -7.0382486    150.39197  0.035503298   0.03654626            1 
  354000     1.205691   -7.0359018     150.5897  0.035449553  0.036538812            2 
  355000    1.1966958   -6.9896329    151.35234  0.035528719  0.036531416            2 
  356000     1.167003   -7.0383303    150.93084  0.035330252  0.036523649            3 
  357000    1.1960981   -7.0513329    151.73625  0.035419294  0.036514363            1 
  358000     1.169231   -7.0215925    151.81812  0.035339414  0.036505015            2 
  359000    1.1784459   -7.0612976    152.38856   0.03537339  0.036496447            1 
  360000    1.2117221   -6.9872004    153.22025  0.035467651   0.03648814            1 
  361000    1.2043736   -7.0394972    153.09833  0.035341259  0.036478882            2 
  362000    1.1972057   -7.0162466    153.68672  0.035379079  0.036470114            2 
  363000    1.1653917   -7.0126243    153.94241  0.035340315  0.036460834            1 
  364000    1.1867219   -7.0600904    153.93129  0.035240679  0.036451865            1 
  365000    1.1879516   -7.0226926    154.74213  0.035329254  0.036442652            2 
  366000    1.1992594   -7.0123473    155.87472  0.035490601  0.036433746            2 
  367000    1.1592148   -6.9997818    155.48306  0.035304964  0.036424653            4 
  368000    1.1974715   -6.9950455     156.0059  0.035327424  0.036415816            3 
  369000    1.1965465   -7.0186297    156.63668  0.035374137  0.036406687            2 
  370000    1.1991032   -7.0283664    156.25473  0.035192506  0.036398579            1 
  371000    1.1781204   -7.0354954    157.97183   0.03548334  0.036389644            3 
  372000    1.1848202   -6.9759226    157.60558   0.03530591  0.036382491            1 
  373000    1.1968254   -7.0437344    158.15671  0.035334385  0.036374988            1 
  374000    1.1874646   -6.9866872     159.2812  0.035490463  0.036367742            1 
  375000    1.1908094   -7.0588877    158.91585  0.035314633   0.03635975            2 
  376000    1.1391001   -7.0622492    158.87173  0.035210932  0.036350656            3 
  377000    1.1913128   -7.0537352    159.97461   0.03536132  0.036342302            2 
  378000    1.1737664   -7.0293156    160.00948  0.035275458  0.036334787            1 
  379000    1.2000195   -6.9966801    160.97209   0.03539404  0.036327526            1 
  380000    1.2035236   -7.0616703    160.87079  0.035278682  0.036319767            1 
  381000    1.1918869   -7.0700682    161.45787  0.035314494  0.036311751            1 
  382000    1.1823367   -7.0303938    162.04655  0.035350469  0.036304761            6 
  383000    1.1581352   -7.0414269    162.49917  0.035356652  0.036298377            1 
  384000    1.1674186   -7.0333232     162.7228  0.035313107  0.036290748            1 
  385000    1.2071267   -7.0092944    163.57333  0.035405482  0.036283866            3 
  386000    1.1993246   -7.0292654    164.12813  0.035433533  0.036277547            1 
  387000    1.1720032   -7.0611406    163.66698  0.035242674   0.03627023            3 
  388000    1.2180838   -7.0062213    164.48384  0.035327286  0.036262182            2 
  389000    1.1985194   -7.0364642    163.91176  0.035113915   0.03625377            1 
  390000    1.1869458   -7.0646034    164.74136  0.035201145  0.036244963            2 
  391000     1.182756   -7.0317583    165.32361  0.035235211  0.036237154            2 
  392000    1.1887464    -7.017535    166.18482  0.035328406  0.036230335            2 
  393000     1.185216   -7.0487556     166.5596  0.035317981  0.036223262            3 
  394000    1.1784956   -7.0560775    167.15074  0.035353371  0.036216072            1 
  395000    1.1937709   -7.0117782    167.56171  0.035350571  0.036210031            3 
  396000    1.1953111   -7.0800481    167.82096  0.035315858  0.036203809            2 
  397000    1.2048971   -7.0786405    168.80398  0.035433244  0.036198149            1 
  398000    1.1825048    -7.023437     169.3167  0.035451571  0.036193205            1 
  399000    1.2108039   -6.9796042    170.49459  0.035608728  0.036189437            1 
  400000    1.1710702   -7.0395049    170.63333   0.03554861  0.036186266            1 
  401000    1.1841872   -7.0487589     171.4231  0.035624085  0.036182379            1 
  402000    1.1861902   -7.0279437    171.74694    0.0356026  0.036180179            2 
  403000    1.1754326   -7.0691462    171.58897   0.03548159  0.036177792            3 
  404000     1.166508   -7.0529918    171.61478  0.035399087   0.03617421            1 
  405000    1.2200253   -7.0394699    172.19674  0.035431427  0.036170303            1 
  406000    1.1847139   -7.0759775    172.31823  0.035369095  0.036166466            2 
  407000    1.1778803   -7.0514698    173.20442   0.03546364  0.036163287            2 
  408000    1.1793106   -7.0793831    173.84186  0.035506916  0.036159273            2 
  409000    1.1908777   -7.0204812    174.40993  0.035535846  0.036155383            2 
  410000    1.1807702   -7.0614228    174.14442  0.035395208   0.03615084            2 
  411000    1.1726943   -7.1118367    174.60718  0.035402916  0.036146099            1 
  412000    1.2184542   -7.0109451    175.53982  0.035505626  0.036142482            1 
  413000    1.1759723   -7.0095721     176.3014  0.035573326  0.036139234            2 
  414000    1.1694876    -7.068329    176.41323   0.03550991   0.03613567            2 
  415000    1.1873715   -7.0540092    176.60947   0.03546375  0.036132236            3 
  416000    1.1699803   -7.0440743    176.71211  0.035399061  0.036128456            2 
  417000    1.1754611   -7.0674644    176.64754  0.035301268  0.036124381            3 
  418000    1.2002658   -7.0323671    177.43641  0.035374085  0.036119389            1 
  419000    1.1854227   -7.0353464    178.99794  0.035600226  0.036115436            2 
  420000    1.1857612   -7.0024427     179.3628  0.035587856   0.03611247            1 
  421000    1.2112906   -7.0444684    179.30429  0.035491744  0.036109964            2 
  422000    1.2003311    -7.013666    179.72609  0.035490935  0.036106994            2 
  423000    1.1853422   -6.9972905    180.23154  0.035506608  0.036103404            1 
  424000    1.1796021   -7.0664877    180.07293  0.035391693  0.036099751            1 
  425000    1.1671708   -7.0523409    180.87811  0.035466296  0.036096095            2 
  426000    1.1748991   -7.0767927    180.83775  0.035375147  0.036092564            2 
  427000    1.1542886   -7.0714806    182.19002  0.035556211  0.036088917            1 
  428000    1.1791176   -7.0291418    182.22043  0.035479055  0.036085388            2 
  429000    1.1877413   -7.0447621    182.67755   0.03548515  0.036081885            1 
  430000    1.1866199   -7.0825156    182.56865  0.035381521  0.036077652            1 
  431000    1.1770416   -7.0496306    183.03379  0.035389364  0.036073781            1 
  432000    1.1697618   -7.0227287    183.90139  0.035474805  0.036071029            1 
  433000    1.1619935    -7.022343    184.58792  0.035525003  0.036068136            1 
  434000    1.1815174   -7.0863127    184.62525  0.035450316  0.036065502            3 
  435000    1.1773672   -7.0979584    185.06184   0.03545246  0.036062458            3 
  436000    1.1726838   -7.0514069    185.64117  0.035481875  0.036059431            2 
  437000    1.1726505   -7.0874759    186.00286  0.035469653  0.036057192            1 
  438000    1.1709701    -7.026526     186.6764  0.035516819  0.036054823            1 
  439000    1.2007497   -7.0677527    187.71812   0.03563366   0.03605333            1 
  440000    1.1698471   -7.0510965    187.01967  0.035420391  0.036051134            1 
  441000    1.1825821   -7.0730281    187.34596  0.035401731  0.036047808            1 
  442000    1.1794632   -7.0311712     188.0352  0.035451583  0.036044706            2 
  443000    1.1627369   -7.0275261    188.58451  0.035474889  0.036041035            2 
  444000    1.1762826   -7.0450753    188.38936  0.035358363  0.036037273            2 
  445000    1.1758668   -7.0084038     189.3387  0.035456685  0.036033588            1 
  446000    1.1918817   -7.0458402    189.66059  0.035437331  0.036030331            2 
  447000    1.1744362   -7.0585873    190.28205  0.035473909  0.036026673            1 
  448000    1.1914615   -7.0358197    190.03065  0.035347963  0.036022082            1 
  449000    1.1520694   -7.0338615    190.49068  0.035354617  0.036017417            2 
  450000    1.2237247   -7.0335721     191.8445  0.035526758  0.036013394            5 
  451000    1.2053883   -7.0323328    191.24817  0.035337799  0.036009728            2 
  452000    1.2167608   -7.0734391    191.77123  0.035356052  0.036006818            2 
  453000    1.1730936   -7.0911384    192.09488  0.035337542   0.03600366            2 
  454000    1.1643139   -7.0754249    192.88474  0.035404689  0.036000326            1 
  455000    1.1650401   -7.1274324    193.08849  0.035364192  0.035997116            1 
  456000    1.1763561   -7.0655294    194.43279  0.035532308  0.035993716            1 
  457000    1.1949149   -7.0531693    194.47056  0.035461445  0.035991171            1 
  458000    1.1796237   -7.0191885    194.79501  0.035443052  0.035988628            1 
  459000    1.1393806   -7.0511997    195.50176  0.035494147   0.03598624            1 
  460000    1.1666622   -7.0877228    195.90903  0.035490767  0.035983724            1 
  461000    1.1896178   -7.0701601    196.34522  0.035492628  0.035980796            2 
  462000    1.1770753   -7.0716601    195.60453  0.035282203  0.035976686            2 
  463000    1.1588975    -7.027815    195.59585  0.035204437  0.035971248            3 
  464000    1.1715485   -7.0523209    196.12851  0.035224229  0.035965751            1 
  465000    1.1642755   -7.0602999    196.82709  0.035273671   0.03596099            1 
  466000    1.1991866   -7.0851615    196.36667  0.035115643  0.035956225            3 
  467000    1.1682807   -7.0327844    198.45355  0.035412839    0.0359521            2 
  468000    1.1801943   -7.0595268    198.60801  0.035364674   0.03594775            2 
  469000    1.1887335   -7.0659604    198.97444  0.035354379   0.03594354            1 
  470000     1.176714   -7.0588561    198.44584  0.035185432   0.03593924       -1e+20 
  471000    1.1504252   -7.0561881    199.30819  0.035263303  0.035934888            1 
  472000    1.1526597   -7.0665121    199.95031  0.035301961   0.03592973            2 
  473000    1.1702931   -7.0587232    200.12866  0.035258749  0.035924498            2 
  474000    1.1588924   -7.0544275    200.24269  0.035204412  0.035918594            3 
  475000    1.1937347   -7.0882212      199.977  0.035083684  0.035912197            1 
  476000    1.1890099    -7.102026    201.03442  0.035195101  0.035906354            1 
  477000    1.1788868   -7.0861755    200.65219  0.035054541  0.035899652            2 
  478000    1.1992196   -7.0996126    200.64243  0.034979503  0.035892364            1 
  479000    1.1720961   -7.0318307    201.44928  0.035046847  0.035884587            1 
  480000    1.1905951   -7.0928758    200.89971  0.034878422    0.0358771            1 
  481000    1.1956147   -7.0880346    202.38029   0.03506242  0.035869473            2 
  482000    1.1897403   -7.0179369    202.50655  0.035011505  0.035861729            1 
  483000    1.1866804   -7.0914106    202.54905   0.03494635  0.035853955            1 
  484000    1.1802894   -7.0777606    203.28474  0.035000817  0.035846448            1 
  485000    1.1554766   -7.0805415    202.75371  0.034837407  0.035838813            1 
  486000    1.1841302   -7.0846555     203.2233  0.034846245  0.035830687            2 
  487000    1.1706781   -7.0662436    204.41883  0.034979266  0.035822279            3 
  488000    1.1337159   -7.0545886    204.89443  0.034988803  0.035813426            1 
  489000    1.1757855   -7.0816236    204.93226  0.034923697  0.035803419            3 
  490000    1.1889227   -7.0780191    204.72989  0.034818009   0.03579461            2 
  491000    1.1904922   -7.0584186    205.55223  0.034886665  0.035785685            1 
  492000    1.1717621   -7.0601295    206.11731  0.034911469   0.03577668            2 
  493000    1.1775348   -7.0900134    206.28624  0.034869209  0.035767473            1 
  494000    1.1909409   -7.0649243    206.75861  0.034878308  0.035758365            1 
  495000    1.1589935   -7.0823517    206.75591  0.034807392   0.03574907            1 
  496000    1.1586956   -7.0721307    207.30214  0.034828988  0.035739457            2 
  497000    1.1811576   -7.0577074    208.17007  0.034904439  0.035730808            1 
  498000    1.1534989   -7.0943007    207.72165  0.034759312  0.035722099            2 
  499000     1.138797   -7.0446459    207.50142  0.034652876  0.035712995            1 
  500000     1.172537   -7.0678974    208.27595  0.034712658  0.035703386            2 
  501000    1.1954469   -7.0907051    208.63632  0.034703313  0.035694219            2 
  502000    1.1531813   -7.0935031      209.164   0.03472178  0.035684959            2 
  503000     1.170393   -7.0876619    209.37573  0.034687828  0.035675855            2 
  504000    1.1935478   -7.0754759     210.3697   0.03478335  0.035666692            1 
  505000    1.1833622   -7.0509183    211.19117  0.034850028  0.035657218            1 
  506000    1.1704821   -7.0592851    211.54475  0.034839386  0.035648508            1 
  507000    1.1515223   -7.0994906    210.88217  0.034661763  0.035639428            1 
  508000      1.18826   -7.0772609    211.41185  0.034680421  0.035630004            2 
  509000    1.1598342   -7.0517765    211.65897  0.034652746  0.035620963            1 
  510000    1.1830168   -7.0457628     212.5636  0.034732615  0.035612553            1 
  511000    1.1575284   -7.0855549    212.94617  0.034727033  0.035603594            1 
  512000    1.1701869   -7.1223003    212.64417  0.034610054  0.035594481            3 
  513000    1.1936379   -7.0632434    213.74248     0.034721  0.035586363            6 
  514000    1.1724107   -7.0442653    215.13577   0.03487934  0.035578866            1 
  515000     1.179184   -7.0823501    215.56292  0.034880731  0.035571756            2 
  516000    1.1634056   -7.0960084    214.94342  0.034713085  0.035564439            1 
  517000    1.1793683   -7.0507973    216.09863  0.034832146  0.035556864            1 
  518000    1.1684071   -7.0926879    215.03655  0.034594039  0.035548935            1 
  519000    1.1756579   -7.0397134    217.47558  0.034919008  0.035541709            3 
  520000    1.1657496   -7.1038028    216.06839  0.034626345  0.035533629            2 
  521000     1.155983   -7.0702965    217.56349  0.034799022  0.035526252            1 
  522000    1.1737003   -7.0553266    217.37956  0.034702995  0.035519388            2 
  523000    1.1541907   -7.0518119    218.44356  0.034806176  0.035512024            1 
  524000    1.1661832   -7.0324864    219.28129  0.034872979  0.035504412            1 
  525000    1.1743507   -7.0770128    218.57329  0.034694173  0.035497187            1 
  526000      1.17835   -7.0756587    219.36561   0.03475374  0.035489786            2 
  527000    1.1909685   -7.0960969    220.50606   0.03486813  0.035482462            2 
  528000    1.1544865   -7.0694451     220.3878  0.034783428  0.035475564            2 
  529000    1.1438709   -7.0698085    220.30337  0.034704375   0.03546845            2 
  530000    1.1570152   -7.0797742     220.2778  0.034634874  0.035461917            7 
  531000    1.1673216   -7.0671213    221.14609  0.034705915  0.035454922            3 
  532000    1.1744787   -7.0895203    221.32948  0.034669404  0.035447657            1 
  533000    1.1364675   -7.0887094    221.53247  0.034636097  0.035439665            1 
  534000    1.1918809   -7.0867756     221.4359  0.034556164  0.035431604            1 
  535000    1.1415195   -7.0632569    221.98085  0.034576457  0.035423863            1 
  536000    1.1578068   -7.1155255    222.57934  0.034604996   0.03541565            4 
  537000    1.1539339   -7.1083029    222.63106  0.034548581  0.035407674            2 
  538000    1.1839167   -7.1075613    223.14179  0.034563474  0.035399925            1 
  539000    1.1635307   -7.0777667    223.91551  0.034618972  0.035392006            2 
  540000    1.1712706   -7.0711548    224.16699  0.034593671  0.035384191            1 
  541000    1.1698515   -7.0495776    224.67841  0.034608504  0.035376882            2 
  542000    1.1740865   -7.1060382    225.17362   0.03462079  0.035369482            2 
  543000    1.1826022   -7.0866975    226.02995  0.034688452  0.035362026            1 
  544000    1.1593339   -7.1199686    226.10988   0.03463693   0.03535472            2 
  545000    1.1460224   -7.0952332    226.01352  0.034558643  0.035347947            2 
  546000    1.1651682   -7.0631171    227.68736  0.034750818  0.035341414            4 
  547000    1.1612772   -7.0678144    227.36034  0.034637467  0.035334421            1 
  548000     1.165931   -7.0808979    227.49552  0.034594817  0.035326911            3 
  549000    1.1781523   -7.0985975    227.72253  0.034566262  0.035319609            2 
  550000     1.161404   -7.1174046     228.4193  0.034608985  0.035312089            1 
  551000     1.156976   -7.0830264    230.05838  0.034794068   0.03530544            1 
  552000    1.1508494    -7.061584    230.11544   0.03473965  0.035298768            2 
  553000     1.166868   -7.0971812    229.77326  0.034625265  0.035292148            2 
  554000    1.1483542   -7.0897403    230.28324  0.034639477  0.035285041            1 
  555000    1.1728206   -7.0734436    230.44015  0.034600622  0.035277953            2 
  556000    1.1826662   -7.0810881    230.40779  0.034533542   0.03527063            2 
  557000    1.1821768   -7.1053554    230.84537  0.034537009  0.035262806            2 
  558000    1.1560668   -7.0770578    231.69398  0.034601849  0.035255255            1 
  559000    1.1803052   -7.0790753    231.91745  0.034573263  0.035247971            1 
  560000    1.1582455    -7.085382    232.24292  0.034559958   0.03524056            1 
  561000    1.1638078    -7.089926    232.48873  0.034534868  0.035233562            1 
  562000    1.1826448   -7.0809558    234.18758  0.034725323   0.03522675            3 
  563000     1.162328   -7.1069086    233.22101  0.034520576  0.035219805            2 
  564000     1.160863   -7.1003292    234.44494   0.03464021  0.035212879            1 
  565000    1.1490983   -7.1297321    234.21166  0.034544493  0.035205814            2 
  566000     1.181519   -7.0888109    233.53731  0.034384173  0.035198075            2 
  567000    1.1498595    -7.053997    234.78922  0.034507527  0.035190478            1 
  568000    1.1506366    -7.102053    234.39675  0.034389195  0.035182096            1 
  569000    1.1636751   -7.0850868    234.53299  0.034348709  0.035172758            1 
  570000    1.1600478   -7.1517815    234.15171  0.034232706  0.035162788            1 
  571000    1.1504366   -7.1354422    234.32476  0.034198009  0.035153055            1 
  572000    1.1551119   -7.0885877    235.54036   0.03431532  0.035143242            3 
  573000    1.1712004   -7.0816083    235.75405  0.034286511  0.035134315            2 
  574000    1.1566017   -7.1023416    235.94528  0.034254541  0.035124332            4 
  575000    1.1434135   -7.1232858    236.12449  0.034220941  0.035114474            2 
  576000    1.1516309   -7.1052715    237.20479  0.034317823  0.035104807            1 
  577000    1.1451582   -7.1159998    237.20153  0.034257875  0.035095386            1 
  578000    1.1624207   -7.0726991    237.70275  0.034270869  0.035085994            1 
  579000    1.1575364   -7.1223066    237.38974  0.034166629  0.035076408            1 
  580000    1.1662684   -7.0838489    237.96378  0.034190198  0.035066764            1 
  581000    1.1653598    -7.132742    237.96463  0.034131473  0.035057172            2 
  582000    1.1613532   -7.1027438    238.20894   0.03410781   0.03504727            2 
  583000    1.1618385   -7.0582984    239.75357  0.034270093  0.035036926            1 
  584000    1.1448497   -7.1051572    239.74308  0.034209914  0.035027199            2 
  585000    1.1574036   -7.0934017    238.94017  0.034037061  0.035017116            1 
  586000    1.1426804   -7.1240132    239.58557  0.034070758  0.035007172            7 
  587000     1.154646   -7.1221837    240.33289  0.034118809  0.034997261            2 
  588000    1.1586707   -7.0760324    241.41573  0.034214248   0.03498793            1 
  589000    1.1324987   -7.0479859    242.28697  0.034279424  0.034979013            1 
  590000    1.1314526   -7.1226371    241.12294  0.034056912  0.034969963            1 
  591000    1.1860489   -7.1248548    241.20655  0.034011076  0.034960452            2 
  592000    1.1517828   -7.1089334    241.46525  0.033990041  0.034950443            1 
  593000    1.1661291   -7.0754345    242.53203  0.034082635  0.034940554            3 
  594000    1.1610968   -7.1357133    241.95388  0.033944148  0.034930659            2 
  595000    1.1571852   -7.1389403    242.51528  0.033965725  0.034920585            3 
  596000    1.1423399   -7.0976873    243.55872   0.03405463  0.034910484            1 
  597000    1.1548402   -7.1334998    243.67335  0.034013589  0.034900272            1 
  598000     1.176268    -7.060519     244.3327  0.034048593  0.034890005            1 
  599000    1.1314927   -7.1207099     244.4212  0.034004062  0.034879842            1 
  600000    1.1501383   -7.1225187    244.71695  0.033988465  0.034869845            2 
  601000    1.1592295   -7.0546966    245.71583  0.034070415  0.034859919            2 
  602000    1.1339544   -7.1478545    245.79538  0.034024831  0.034849488            1 
  603000    1.1703466   -7.1008855    246.26745  0.034033644  0.034839662            3 
  604000    1.1400093   -7.0606032    246.84655  0.034057195   0.03483007            1 
  605000    1.1797184   -7.1111685     246.5432  0.033959118   0.03482041            2 
  606000    1.1756894   -7.0828987    247.68794  0.034060498  0.034810541            1 
  607000    1.1677767   -7.1003911    247.73845  0.034011319   0.03480083            1 
  608000     1.185916   -7.1478018    247.18262  0.033879197  0.034790796            1 
  609000    1.1467241   -7.0964721    248.21973   0.03396548  0.034780806            1 
  610000    1.1423333   -7.1372341    247.12882  0.033760768  0.034770578            1 
  611000    1.1576931   -7.1150508    248.15684  0.033845723  0.034760266            1 
  612000    1.1484292   -7.1228693    248.40941  0.033824811  0.034749419            2 
  613000    1.1712971   -7.1366699    247.54597  0.033652253  0.034738293            1 
  614000    1.1413176    -7.117785    248.82863   0.03377153  0.034727027            1 
  615000     1.154586   -7.1144364    248.76479  0.033707966  0.034716021            1 
  616000    1.1629408   -7.1052048    249.71149  0.033781317  0.034704632            1 
  617000    1.1718742   -7.1001785    250.41227  0.033821214  0.034694133            1 
  618000    1.1540711   -7.1566529    250.27624  0.033748145  0.034683513            5 
  619000     1.160503   -7.0956506    250.57659  0.033734058  0.034672987            2 
  620000    1.1693014   -7.1160072    251.66948  0.033826544  0.034662599            3 
  621000    1.1432803   -7.0881175    252.47136  0.033879678  0.034652284            2 
  622000     1.143234   -7.0996672    252.20821  0.033789954  0.034642167            1 
  623000    1.1574121   -7.1030988    252.92514  0.033831613   0.03463241            1 
  624000    1.1524727   -7.1544452     252.9757  0.033784147  0.034622703            1 
  625000    1.1443426   -7.0553074    254.60872   0.03394783   0.03461308            1 
  626000    1.1528945   -7.1141702    254.35061   0.03385924  0.034603887            2 
  627000    1.1208578   -7.1091137    253.46771  0.033687894  0.034594115            3 
  628000    1.1536581   -7.1392692    254.33368  0.033749162   0.03458442            1 
  629000    1.1327484   -7.1368684     254.4821   0.03371517   0.03457466            2 
  630000    1.1478527   -7.1011013    255.48205  0.033793922  0.034564869            1 
  631000    1.1328667   -7.1306447    255.39683  0.033729111  0.034554889            1 
  632000    1.1579551   -7.1007756    255.67974  0.033713046   0.03454491            1 
  633000    1.1449698   -7.1350021    256.14889   0.03372155  0.034534964            2 
  634000    1.1325333   -7.1156016    257.02301  0.033783255  0.034524597            1 
  635000    1.1777516   -7.1156288    257.40779   0.03378055  0.034514667            1 
  636000     1.130303   -7.1121778    257.15691  0.033694564  0.034505466            1 
  637000    1.1577875    -7.097644     258.2357  0.033782797  0.034496154            1 
  638000    1.1591095   -7.1247518    258.38983  0.033749978  0.034486578            1 
  639000    1.1539855    -7.110984     258.3392  0.033690559  0.034477035            3 
  640000    1.1567031   -7.1096736      258.799  0.033697786  0.034466836            2 
  641000    1.1168198   -7.0974701     258.6691  0.033628328  0.034456518            1 
  642000    1.1566203   -7.1151685    258.66335  0.033575202  0.034446209            2 
  643000    1.1470139   -7.1266273    258.92382  0.033556742  0.034435806            3 
  644000    1.1335645   -7.1673002    258.61963  0.033465274  0.034425215            2 
  645000    1.1773004   -7.1200482    259.70716  0.033553897  0.034414552            1 
  646000    1.1498357   -7.1133695    259.74211  0.033506465  0.034403915            1 
  647000    1.1432324   -7.1244817    260.17588  0.033510547  0.034393516            2 
  648000    1.1409893   -7.1656356    261.00788  0.033565829  0.034382652            2 
  649000    1.1730995   -7.1303906    261.17576  0.033535665  0.034371358            1 
  650000    1.1546462   -7.1527741    260.80499  0.033436537  0.034360034            1 
  651000    1.1481926   -7.0983463     261.5496  0.033480491  0.034349405            1 
  652000    1.1556986   -7.1007106     261.5263  0.033426163  0.034338302            1 
  653000    1.1390671    -7.109919    261.81228  0.033411471  0.034327244            2 
  654000    1.1431495   -7.1390565    261.97209  0.033380745  0.034316167            1 
  655000    1.1253895   -7.1309318    262.68429  0.033420393  0.034305073            2 
  656000    1.1286319   -7.1110922    262.95612  0.033403978  0.034293717            3 
  657000    1.1730787   -7.1164919    263.69457    0.0334468  0.034282919            1 
  658000    1.1635062   -7.1360723    263.49777  0.033371044  0.034271788            3 
  659000    1.1653404   -7.1468017    263.90846   0.03337234  0.034260701            3 
  660000     1.125312   -7.1253886    264.14554   0.03335171  0.034249664            3 
  661000    1.1284612    -7.153726     264.3418  0.033325995  0.034238207            1 
  662000    1.1468395   -7.1441187    264.76379  0.033328776  0.034227164            2 
  663000    1.1248258   -7.1057604    265.48894  0.033369651  0.034216624            1 
  664000    1.1439988   -7.1234401    265.57082  0.033329671  0.034205805            1 
  665000    1.1396982   -7.1071675    265.89493  0.033320167  0.034194747            2 
  666000    1.1423967   -7.1571002    265.54851  0.033226791  0.034183667            2 
  667000    1.1815581   -7.1604738    266.82675  0.033336675   0.03417245            2 
  668000    1.1442372   -7.1045025    267.46049  0.033365829  0.034161519            1 
  669000    1.1666467   -7.1502703    267.13511  0.033275425  0.034150348            1 
  670000    1.1730377   -7.1272251    267.43014  0.033262455  0.034139184            4 
  671000     1.123187   -7.0934644    268.02998  0.033287379  0.034128223            1 
  672000    1.1258571   -7.0888263     269.3841  0.033405766  0.034117675            2 
  673000      1.13218     -7.14943    268.43217  0.033238257  0.034106736            1 
  674000    1.1561528   -7.1326448    268.64539  0.033215306  0.034095251            2 
  675000    1.1601583   -7.1177671    268.90348  0.033197961  0.034083624            1 
  676000    1.1739097   -7.1566553    268.54297   0.03310441  0.034071976            1 
  677000    1.1372635   -7.1429236    269.39282  0.033160121  0.034060645            2 
  678000     1.152818   -7.1748542    269.16349  0.033083024  0.034049191            1 
  679000    1.1603142   -7.1206525     271.6638  0.033341163  0.034038473            2 
  680000    1.1573625   -7.1215385    270.99721  0.033210443  0.034028279            3 
  681000    1.1444424   -7.0933892    272.47766  0.033342837  0.034017966            1 
  682000    1.1514647   -7.1530431    272.42957   0.03328807  0.034008385            1 
  683000    1.1376996   -7.0840868    273.20918  0.033334454  0.033998969            2 
  684000    1.1437787   -7.1002846    272.96408  0.033255857  0.033989299            1 
  685000    1.1295256   -7.1084552    273.37977   0.03325788  0.033979407            1 
  686000    1.1641382   -7.1991217    273.31633  0.033201692  0.033969378            2 
  687000    1.1419355   -7.1182183    272.82715  0.033094026  0.033958968            1 
  688000    1.1422197   -7.0795451    274.55994  0.033255806  0.033948764            2 
  689000    1.1474918   -7.1211626    274.32932  0.033179647  0.033938631            1 
  690000    1.1125578   -7.1461271    274.76075  0.033183665  0.033928295            1 
  691000    1.1407331   -7.1398019    274.43222  0.033096022  0.033917355            1 
  692000    1.1404674   -7.1155456    275.33207   0.03315656  0.033906566            3 
  693000    1.1590991   -7.1298905    275.90044  0.033177061  0.033895886            4 
  694000    1.0987654   -7.1201416     276.2531  0.033171602   0.03388517            1 
  695000    1.1535907    -7.153654    276.85053  0.033195507  0.033875272            2 
  696000    1.1480208   -7.1291511     276.1591  0.033065026  0.033865168            1 
  697000    1.1620107   -7.1589132     276.6206  0.033072764  0.033855208            2 
  698000    1.1228587   -7.1481593    276.61903  0.033025194  0.033845254            1 
  699000    1.1636553   -7.1415653    278.57936  0.033211654  0.033835476            2 
  700000    1.1372824   -7.1502546     278.2657  0.033126869  0.033825861            1 
  701000    1.1481237   -7.1474245    278.29319  0.033082881  0.033815871            3 
  702000     1.118867   -7.0999908    278.60206  0.033072419   0.03380583            2 
  703000    1.1221931   -7.1630879    279.49011  0.033130643  0.033796141            3 
  704000    1.1188435   -7.1554815    279.92263  0.033134781  0.033786097            2 
  705000    1.1381549   -7.1109146    280.72963  0.033183171  0.033776853            1 
  706000    1.1366805   -7.1635653    279.96492  0.033045907  0.033767466            2 
  707000     1.145982   -7.1306629    281.39454  0.033167673  0.033758197            2 
  708000    1.1462268   -7.1628062     281.5414  0.033138112  0.033749134            1 
  709000    1.1372912   -7.1237784    281.86937  0.033129921   0.03374016            1 
  710000    1.1589648   -7.1434716     282.0933  0.033109542  0.033731284            2 
  711000    1.1492853    -7.143014    283.16864  0.033189011  0.033722354            2 
  712000    1.1524654    -7.167514    283.24595  0.033151445   0.03371351            2 
  713000    1.1223867   -7.1174823    283.98572  0.033191412  0.033704994            2 
  714000    1.1410124   -7.1645325    283.78144  0.033121083  0.033695939            1 
  715000    1.1616646   -7.1485739    284.44888   0.03315255  0.033687142            1 
  716000    1.1502472   -7.1431006    284.85365  0.033153358   0.03367853            3 
  717000    1.1235829   -7.1512424    284.78799  0.033099487  0.033669352            1 
  718000    1.1502732   -7.1729596    286.05466  0.033200402  0.033660689            2 
  719000    1.1530029   -7.1672854    285.58023  0.033099238  0.033651817            1 
  720000    1.1140654   -7.1135966    287.59536  0.033286501  0.033643106            1 
  721000    1.1471918   -7.1512162    286.66237  0.033132497  0.033634841            3 
  722000    1.1414659   -7.1688172    286.44394  0.033061396  0.033626529            2 
  723000    1.1224599   -7.1318222     288.1852  0.033216367  0.033618302            3 
  724000    1.1208233   -7.1587812    288.01539  0.033150943  0.033610498            4 
  725000    1.1329645   -7.1229643    288.59593  0.033171946  0.033602621            1 
  726000    1.1393718   -7.1583344    288.54547  0.033120463  0.033594601            1 
  727000    1.1263958   -7.1412889    289.23992  0.033154507  0.033586352            4 
  728000     1.152397    -7.178041    288.55709  0.033030802  0.033578267            3 
  729000    1.1054063   -7.1110055    290.07287  0.033158765  0.033570324            2 
  730000     1.147008   -7.1609573     290.0231   0.03310766   0.03356237            2 
  731000    1.1223483   -7.1668803    290.64135  0.033132849  0.033554311            4 
  732000    1.1513728     -7.09147    292.19942  0.033264962  0.033546372            1 
  733000    1.1660914    -7.175758     291.1388  0.033098999  0.033538766            2 
  734000    1.1160543   -7.1405648    291.63548  0.033110295  0.033530901            2 
  735000    1.1459537   -7.1641451    291.68673  0.033071057  0.033523417            1 
  736000    1.1308306   -7.1735584    291.53707  0.033009179  0.033515377            1 
  737000    1.1769955   -7.1354274    292.63832   0.03308891  0.033507583            3 
  738000    1.1252923   -7.1474285    293.96774   0.03319419  0.033500327            2 
  739000     1.132089   -7.1864409    293.17943  0.033060378   0.03349274            1 
  740000    1.1375885   -7.1592861    293.19055  0.033016954  0.033484869            2 
  741000    1.1203257   -7.1418715    293.88187  0.033050143  0.033476906            2 
  742000    1.1246873   -7.1223094    294.51672    0.0330769   0.03346843            2 
  743000    1.1270449   -7.1417755     294.4322  0.033022903   0.03346068            1 
  744000    1.1377775   -7.1938104     295.1721  0.033061391   0.03345299            2 
  745000    1.1319659   -7.1338408    295.91063  0.033099623  0.033445639            1 
  746000    1.1275897   -7.1399865     296.3611  0.033105574  0.033438364            1 
  747000    1.1213049   -7.1367258     296.6461   0.03309305  0.033430815            2 
  748000    1.1449638    -7.153026    296.66549  0.033050968  0.033423025            2 
  749000    1.1036039   -7.1975149    295.49474  0.032876584  0.033415053            1 
  750000    1.1210277   -7.1824482    295.74913  0.032861015  0.033406884            3 
  751000     1.135354   -7.1765683    296.49518  0.032900042  0.033398635            3 
  752000    1.1700721   -7.2039788    296.22582  0.032826443  0.033390325            2 
  753000    1.1095602   -7.2141053    296.93434  0.032861259    0.0333817            2 
  754000     1.123701   -7.1469849    297.59401  0.032890585  0.033373435            1 
  755000    1.1217789   -7.1486912    297.98394  0.032890059  0.033365224            2 
  756000    1.1266596   -7.1510555    298.06835  0.032855859  0.033356801            1 
  757000    1.1180154   -7.1121856    299.65403  0.032987014  0.033349126            2 
  758000    1.1126775   -7.1784674    298.92986  0.032863881   0.03334114            1 
  759000    1.1130762   -7.1577983    299.72256  0.032907615  0.033333109            2 
  760000    1.1323861    -7.195685    299.52206  0.032842331  0.033325265            1 
  761000    1.1131241   -7.1689936    301.30414  0.032994321    0.0333175            1 
  762000    1.1412215    -7.133451    301.15393  0.032934595   0.03330969            2 
  763000    1.1310337   -7.1450178    300.18578   0.03278569  0.033301383            1 
  764000    1.1385045   -7.1669805    301.04242  0.032836215  0.033293446            1 
  765000    1.1465203   -7.1758793    300.99799  0.032788452   0.03328503            1 
  766000    1.1171815   -7.1051086    302.32781  0.032890319  0.033276915            2 
  767000    1.1386036   -7.1140044     302.6318  0.032880466  0.033268978            1 
  768000    1.1115026    -7.173168    302.84062   0.03286031  0.033260652            2 
  769000    1.1376938   -7.2028576    303.34403  0.032872132   0.03325262            3 
  770000    1.1408005    -7.137193    302.75104  0.032765264  0.033244271            2 
  771000    1.1041672   -7.1469368    303.46139  0.032799545  0.033236227            3 
  772000    1.1099448   -7.1700805    303.02538  0.032709994  0.033227886            1 
  773000    1.1446301   -7.1255021    303.64173  0.032734124  0.033219855            2 
  774000    1.1247833   -7.1368897    305.20218  0.032859839  0.033211498            4 
  775000    1.1024517   -7.1995925    305.23363   0.03282082  0.033203348            2 
  776000    1.0992362   -7.1717119    304.90225  0.032742939  0.033195307            3 
  777000    1.1406265   -7.1751471    305.10955  0.032723032  0.033187018            2 
  778000     1.135448   -7.2065448    304.92878  0.032661608  0.033178716            3 
  779000    1.1030845   -7.1210517    306.79303  0.032819109  0.033170182            2 
  780000    1.1199236   -7.1760972    306.71012  0.032768175  0.033162272            1 
  781000    1.1157851   -7.1427148      306.816  0.032737516  0.033154462            1 
  782000    1.1181118   -7.1537249    307.93741  0.032815154  0.033146874            3 
  783000    1.1405541   -7.1999565    307.04216  0.032677965  0.033138995            1 
  784000    1.1451823   -7.1995317    306.91898  0.032623191  0.033130827            3 
  785000    1.1295176   -7.2099795    307.20659  0.032612165  0.033122957            2 
  786000    1.1068209   -7.1501907    308.73112  0.032732307  0.033114814            2 
  787000    1.1252538    -7.184769    308.85591   0.03270393  0.033106772            3 
  788000    1.1269802   -7.1918696    308.37484  0.032611552  0.033098502            1 
  789000    1.1328032   -7.1889133    309.74272  0.032714694  0.033089871            4 
  790000    1.1328224    -7.159084    310.37833   0.03274033  0.033081934            1 
  791000    1.1203836   -7.1767539    310.38239  0.032699366  0.033073843            4 
  792000    1.0941036   -7.1472465    310.31898  0.032651407  0.033065894            3 
  793000    1.1381423   -7.1860432    309.80599  0.032556325  0.033057784            1 
  794000    1.1130679   -7.2016078    310.52757  0.032591055  0.033049841            2 
  795000    1.1341838   -7.1744211    312.55726  0.032762815  0.033042012            1 
  796000    1.1557952   -7.1639397    311.61338  0.032622841  0.033034573            2 
  797000    1.1383624   -7.2090284    312.37606  0.032661654  0.033027137            2 
  798000    1.1171318     -7.18025    313.30989  0.032718242  0.033019627            2 
  799000    1.1373491   -7.1933999    313.03753  0.032648887  0.033012227            1 
  800000    1.1375911   -7.1989202    312.48101  0.032550105  0.033004343            2 
  801000    1.1290968   -7.1724679    313.42359  0.032607532  0.032996483            4 
  802000    1.1177266   -7.1852873    313.42436  0.032566953  0.032988984            2 
  803000    1.1082778   -7.1396779    315.34028  0.032725227  0.032981521            3 
  804000    1.1061826   -7.2292037    313.94257  0.032539653  0.032973977            1 
  805000    1.1241028   -7.2137339    315.12031   0.03262115  0.032966277            2 
  806000    1.1279703   -7.1459625    314.91153  0.032559091  0.032958729            4 
  807000    1.1166701   -7.1802082    315.30986  0.032559878  0.032950931            1 
  808000    1.1310701   -7.1672923    314.64939  0.032451463  0.032942837            2 
  809000    1.1354082   -7.1744666    316.02263  0.032552805  0.032934831            1 
  810000    1.1235616   -7.1842693    315.16636  0.032424523  0.032926643            2 
  811000    1.1246724   -7.2069894    316.47897  0.032519417  0.032918427            2 
  812000    1.0912254    -7.162934    317.42715  0.032576678  0.032910654            1 
  813000    1.1212542   -7.1742819    317.84101  0.032579029  0.032902883            1 
  814000    1.1059153   -7.2079521    318.11559  0.032567116   0.03289505            2 
  815000    1.1220918   -7.1829094    319.24644  0.032642786  0.032887358            1 
  816000    1.1417519   -7.1905562     318.6889  0.032545843   0.03287982            1 
  817000    1.1009951   -7.1981769    318.56685  0.032493559  0.032872561            3 
  818000    1.1163981   -7.2090439    319.58572  0.032557632  0.032865208            3 
  819000    1.1367977   -7.2017215    319.73664  0.032533236  0.032857797            2 
  820000    1.1256896   -7.1459068     319.6913  0.032488953  0.032850639            1 
  821000    1.1351874   -7.1876646    321.48247  0.032631189  0.032843297            2 
  822000    1.1345062   -7.2289178    320.60859  0.032502898  0.032835511            1 
  823000    1.1330797   -7.1607731    321.80098  0.032584142  0.032828027            1 
  824000    1.0899876   -7.1800969    320.87896  0.032451351  0.032820937            2 
  825000    1.1159047   -7.1715184    322.71024  0.032596994  0.032813642            1 
  826000    1.1172733   -7.2173336     321.4295  0.032428319  0.032806268            1 
  827000    1.1329593   -7.1721086    322.03906   0.03245053  0.032798848            1 
  828000    1.1242408   -7.1624881    321.86621  0.032393942  0.032791269            1 
  829000     1.125765   -7.1742353    322.23703  0.032392142  0.032783689            4 
  830000    1.1284074   -7.1654007    323.32697  0.032462547  0.032775887            1 
  831000    1.1065471   -7.1712669    323.23502  0.032414262  0.032768022       -1e+20 
  832000    1.0963069   -7.1578622    323.28964  0.032380773  0.032759996            1 
  833000    1.1178334   -7.1695634    322.98095  0.032311019  0.032752191            1 
  834000    1.1445902   -7.1679054    324.10414  0.032384507  0.032744244            1 
  835000     1.122417   -7.1771859    324.56043   0.03239126  0.032736466            1 
  836000    1.1199385   -7.2303533    323.71861  0.032268602  0.032728023            1 
  837000      1.14069   -7.2002126    322.89214  0.032147764  0.032720008            3 
  838000    1.1376301   -7.1889302    324.58335  0.032277581  0.032711683            2 
  839000     1.109742   -7.1521502    326.12397  0.032392131  0.032703773            3 
  840000    1.1140508   -7.1889396    324.74269  0.032216537  0.032695742            4 
  841000    1.1180499   -7.2207067    325.83366  0.032286331   0.03268763            2 
  842000     1.114007   -7.1988157    326.68183  0.032331931  0.032679341            2 
  843000    1.1367151    -7.197257     326.8557  0.032310766  0.032671224            1 
  844000    1.1268534   -7.2038787    327.48111  0.032334233  0.032663157            2 
  845000    1.0884014   -7.1817581    327.83799  0.032331162  0.032655154            2 
  846000    1.1089407   -7.1652953     328.0977  0.032318528  0.032647336            2 
  847000    1.1203548     -7.17232    327.46132  0.032217761  0.032638979            1 
  848000    1.1292712   -7.1931017    327.82844  0.032215845  0.032631066            4 
  849000    1.1039298    -7.137666    329.87165   0.03237845  0.032623144            2 
  850000    1.0958196   -7.1738177    329.50015  0.032303936  0.032615565            1 
  851000    1.1088274   -7.1823105    328.25886  0.032144424  0.032607436            1 
  852000    1.1050774   -7.1870598     329.5084  0.032228912  0.032599301            3 
  853000    1.1131253   -7.2444613    329.15926   0.03215702  0.032590924            1 
  854000     1.113478    -7.197728    330.44873  0.032245193  0.032582491            1 
  855000    1.1154218   -7.2118718     329.9727  0.032161082  0.032574568            2 
  856000    1.1275694   -7.2083976    329.94355  0.032120673  0.032566818            2 
  857000    1.1028298   -7.2196805    331.42041    0.0322268  0.032558817            2 
  858000     1.100712   -7.1509019    333.05393  0.032347895  0.032551051            1 
  859000    1.1022498   -7.1866267    331.76811  0.032185498  0.032543384            1 
  860000    1.1353652   -7.1923112    331.42566  0.032114889  0.032535396            1 
  861000    1.1046046   -7.2068697    332.25332  0.032157697  0.032527141            1 
  862000    1.1229395   -7.2053938    332.00283  0.032096174  0.032519209            1 
  863000    1.1212358   -7.1849752    333.23247   0.03217772  0.032511148            3 
  864000    1.0792689   -7.2325337    332.71579  0.032090643  0.032503254            1 
  865000    1.1155095   -7.1798323    333.44604  0.032123896  0.032495046            2 
  866000    1.1430041   -7.1715538    333.91343  0.032131777  0.032487204            4 
  867000       1.1198   -7.1722428    335.82684  0.032278627  0.032479434            1 
  868000    1.1272235   -7.1680318    334.26498  0.032091492  0.032471705            2 
  869000    1.1181228   -7.2218007    335.23418  0.032147504  0.032463933            1 
  870000     1.119514   -7.2228004    334.92327  0.032080773  0.032456406            3 
  871000    1.1085131   -7.2338132    334.87971  0.032039773  0.032448695            2 
  872000    1.1100169   -7.2117257    336.88201  0.032194381  0.032440883            1 
  873000    1.1096964    -7.186045    337.04553  0.032173112  0.032433014            2 
  874000    1.1084845   -7.2195743    335.83894  0.032021257  0.032425116            1 
  875000    1.1193807   -7.2076936    337.31806   0.03212553  0.032417247            2 
  876000    1.0945469   -7.2298051    336.61421    0.0320219  0.032409355            1 
  877000    1.1135963   -7.1961476    337.83384  0.032101277  0.032401445            2 
  878000    1.0902171   -7.1910224    338.04459  0.032084718  0.032393471            2 
  879000    1.1092914   -7.1708167    338.22655  0.032065468   0.03238546            1 
  880000    1.1176146   -7.1871733    338.37319  0.032042916  0.032377244            1 
  881000    1.0990178   -7.2023277    337.41277  0.031915699  0.032368783            1 
  882000    1.1131846   -7.2174028    337.03863  0.031844164  0.032360412            1 
  883000    1.1054209   -7.2447882    337.39087  0.031841343  0.032351755            3 
  884000    1.1199831   -7.2030119     338.3054  0.031891535  0.032343077            1 
  885000    1.1041269   -7.2333752    337.63872  0.031792724  0.032334136            1 
  886000    1.1116447   -7.2221349    338.50104  0.031837945  0.032325311            3 
  887000    1.1166658   -7.2221851    338.12506  0.031766729  0.032316294            1 
  888000    1.1053065   -7.1981934    338.42205  0.031758826  0.032307502            1 
  889000    1.1056512    -7.184233    340.38149  0.031906777  0.032298799            4 
  890000    1.1121452    -7.177746    341.34819  0.031961441  0.032290346            2 
  891000    1.0990158   -7.2298865    340.67121  0.031862253  0.032281826            2 
  892000    1.1348592   -7.2405943     340.8369  0.031842012  0.032273143            2 
  893000    1.1114576   -7.2449356    340.86844  0.031809298  0.032264532            1 
  894000    1.1260172   -7.2283917    341.51197  0.031833704   0.03225594            2 
  895000    1.1196097   -7.1988577    341.76093  0.031821316  0.032247227            1 
  896000    1.1322231   -7.2585909    341.47899  0.031759578  0.032238799            1 
  897000    1.0998186   -7.1984378    342.67442   0.03183523  0.032230428            2 
  898000    1.1183098    -7.196088    342.51413  0.031784905  0.032222032            3 
  899000    1.0961287   -7.2004879    343.08883  0.031802821  0.032213244            2 
  900000    1.0943397   -7.2237096    343.34431   0.03179114  0.032204572            4 
  901000    1.1243588   -7.2143858    343.68151  0.031787043  0.032195999            2 
  902000    1.0844892   -7.1782405    343.78345   0.03176122  0.032187191            1 
  903000    1.1522274   -7.2270247    343.58806  0.031708016  0.032178285            2 
  904000    1.1090328   -7.2099634    343.14895  0.031632462  0.032169397            6 
  905000    1.1104797   -7.2298516    343.54594  0.031634064  0.032160526            1 
  906000    1.1248888    -7.269734    343.33285  0.031579549  0.032151659            2 
  907000    1.1273371   -7.2316433    343.75663  0.031583667  0.032142496            4 
  908000    1.1189655    -7.229667    343.88234  0.031560421  0.032133509            1 
  909000    1.1173997   -7.1679501    345.25511   0.03165155  0.032124392            1 
  910000    1.1010129   -7.2235624    345.52048  0.031641069  0.032115292            2 
  911000    1.1183994   -7.2088815    346.38861  0.031685749  0.032106514            1 
  912000    1.1278288   -7.2621804    344.87221  0.031512446  0.032097341            1 
  913000    1.0871139   -7.2019825    347.16342  0.031687059  0.032088561            3 
  914000    1.1018648   -7.1991929    347.38962  0.031673014  0.032080063            1 
  915000    1.1295338   -7.2116987    347.28286  0.031628676  0.032071196            1 
  916000    1.0844122   -7.2413838    346.81526  0.031551607  0.032062559            2 
  917000    1.1001276   -7.1996457    349.15163  0.031729519  0.032054039            3 
  918000    1.0931555   -7.2136183    349.07818  0.031688288  0.032045531            1 
  919000    1.1170802   -7.2209025    348.35518  0.031588246  0.032037147            3 
  920000    1.1102245    -7.228962    348.99954  0.031612277   0.03202849            1 
  921000     1.135658   -7.2155643    349.79574  0.031649995  0.032019916            2 
  922000    1.1103928   -7.2307384    349.73561  0.031610232  0.032011193            3 
  923000    1.1102301   -7.2168183    350.50233  0.031645209  0.032002569            3 
  924000    1.0945199   -7.2170836     349.9243  0.031558829  0.031994002            2 
  925000     1.128539   -7.2442966    351.58239  0.031674089  0.031985591            2 
  926000    1.1004908   -7.2261392    352.01945  0.031679217  0.031977351            1 
  927000    1.1035624   -7.2333304    351.35048  0.031584905  0.031969251            1 
  928000    1.1157926   -7.1797274    353.31203  0.031727014  0.031961311            2 
  929000    1.1138152   -7.2141127    352.74158  0.031641692  0.031953295            3 
  930000    1.1176443   -7.1944622    352.97802  0.031628855  0.031945033            1 
  931000    1.1240033   -7.1748142    352.76141  0.031575493  0.031936933            1 
  932000    1.1102049    -7.221318    353.47414  0.031605342  0.031928967            5 
  933000    1.1211095   -7.2174797    353.97518  0.031616218  0.031920881            3 
  934000    1.1032511   -7.2118758    353.85772  0.031571887  0.031913025            1 
  935000    1.0802964   -7.2146151    354.62875  0.031606841   0.03190499            3 
  936000    1.1064037   -7.2096439    354.85251  0.031592994  0.031896957            3 
  937000    1.1026175   -7.2060992    355.31594  0.031600493  0.031888838            2 
  938000    1.1125292   -7.1840265    357.33826   0.03174647  0.031881123            1 
  939000    1.0950404   -7.2671264    355.82484  0.031578349  0.031873242            2 
  940000    1.0915417   -7.2279685    355.69923  0.031533619  0.031865401            1 
  941000    1.1223237   -7.2228211    356.69578  0.031588362  0.031857762            1 
  942000    1.1292074   -7.2109933    356.58549  0.031545072  0.031850276            3 
  943000    1.0937114   -7.2215263    356.84222  0.031534307  0.031842617            2 
  944000       1.0763   -7.2170236    357.53061  0.031561671  0.031834933            1 
  945000    1.0837989   -7.2359712    357.91316  0.031562007  0.031827395            2 
  946000    1.1134065   -7.2368562    358.60388  0.031589489  0.031819684            2 
  947000    1.0893463   -7.2256755    359.00195  0.031591161  0.031812243            2 
  948000    1.1107467   -7.2302326    358.34465  0.031500057  0.031804949            1 
  949000    1.0907651   -7.1898873    360.73965  0.031677173  0.031797721            4 
  950000    1.1072418   -7.2446923    361.07093  0.031672889  0.031790479            2 
  951000    1.1206289   -7.2446641     359.2715  0.031481905  0.031783294            1 
  952000    1.1044367   -7.2871469    360.30961  0.031539706  0.031776073            2 
  953000    1.0810801   -7.2231546    361.61283  0.031620569  0.031768877            2 
  954000    1.1244025   -7.1778548    361.11199  0.031543675  0.031761695            2 
  955000    1.0879902   -7.2442128     361.7942  0.031570174  0.031754067            3 
  956000    1.0830859    -7.209655    361.21831  0.031486952   0.03174646            4 
  957000    1.1023195   -7.2521696    361.06969  0.031441108  0.031738738            2 
  958000    1.0929881   -7.2330289    361.73829  0.031466449  0.031731171            8 
  959000    1.0955307   -7.2603458    360.85499  0.031356881  0.031723267            2 
  960000     1.097894   -7.2647778    360.75093  0.031315185  0.031715282            3 
  961000    1.0893483   -7.2261223    361.99051  0.031390089   0.03170729            2 
  962000    1.0790727   -7.2205513     362.8392  0.031430977  0.031699659            1 
  963000    1.1031519   -7.2092071    364.55556  0.031546864   0.03169203            2 
  964000     1.113502   -7.1942654    363.36605  0.031411311   0.03168446            1 
  965000    1.0914669   -7.1917129    363.76411  0.031413135  0.031676718            3 
  966000     1.095782   -7.2534217    363.15402  0.031327986  0.031668864            1 
  967000    1.1039478   -7.2262757    364.20066  0.031385786  0.031660759            2 
  968000    1.1066397   -7.2177452     363.9491  0.031331706  0.031652519            1 
  969000    1.0951676   -7.2311397    363.84917  0.031290779  0.031644736            1 
  970000    1.0887436   -7.2224729    364.64455  0.031326851  0.031636732            2 
  971000    1.0904987   -7.2775458    363.50897  0.031197131  0.031628694            2 
  972000     1.096944   -7.2214908    364.18528  0.031223018  0.031620595            1 
  973000    1.1106071   -7.2599637    365.46481  0.031300515  0.031612802            1 
  974000    1.0962264    -7.226974    365.61598  0.031281312  0.031605033            2 
  975000    1.0929183   -7.2337479    366.52245  0.031326705  0.031597155            5 
  976000    1.0703158   -7.1993203    367.62163  0.031388459  0.031589398            2 
  977000    1.1013215   -7.2009723    367.06092  0.031308505  0.031581459            2 
  978000     1.125412   -7.2638838    366.50219  0.031228884  0.031573798            2 
  979000    1.0938716    -7.234266    367.61131  0.031291395  0.031566101            1 
  980000    1.0912729    -7.250846    368.68814  0.031351032  0.031558325            1 
  981000    1.0962952   -7.2326015    368.40428  0.031294961  0.031550487            1 
  982000    1.1081813   -7.2091395    368.72555  0.031290355  0.031542931            2 
  983000    1.1034606   -7.2516738    368.91347  0.031274455  0.031535321            2 
  984000    1.1092229   -7.2588686    368.83447  0.031235981  0.031527264            1 
  985000      1.11356   -7.2480961    368.96389  0.031215219  0.031519074            1 
  986000    1.1061422   -7.2299951    370.27388  0.031294276  0.031511061            1 
  987000    1.0866294    -7.238753    370.10758   0.03124853  0.031503244            2 
  988000    1.0881578   -7.2468584     371.3667  0.031323102  0.031495198            1 
  989000    1.0953591    -7.229919    369.79261  0.031158798  0.031487534            2 
  990000     1.076029   -7.2600804    371.66906  0.031285274  0.031480314            3 
  991000    1.0842814   -7.2441288    371.61689  0.031249318  0.031473078            2 
  992000    1.0689016   -7.2520164    371.65529  0.031221043   0.03146599            2 
  993000    1.0809691   -7.2563389    372.10309  0.031227181  0.031458653            3 
  994000    1.0967036   -7.2199078    373.81699  0.031339452  0.031451332            1 
  995000    1.1132553   -7.2678756    372.56215   0.03120286  0.031443878            1 
  996000    1.0943789   -7.2691181     373.6841  0.031265404  0.031436766            1 
  997000    1.0884179   -7.2318016    373.64595  0.031230855  0.031429749            3 
  998000      1.07413   -7.2724295    373.24479  0.031166065  0.031422257            2 
  999000    1.0884314   -7.2772419    375.37455  0.031312525  0.031414978            1 
 1000000    1.1066706   -7.2206353    374.72212  0.031226843  0.031407944            1 
 1001000    1.0745461   -7.2416171    375.42735  0.031254358  0.031400965            2 
 1002000    1.0855557   -7.2446391    375.25026  0.031208438  0.031393951            1 
 1003000    1.0922026   -7.2451804    375.97863  0.031237839  0.031386852            4 
 1004000    1.0984231    -7.231795    376.59012   0.03125748  0.031379683            1 
 1005000    1.1136966   -7.2823817    374.96464  0.031091596  0.031372574            1 
 1006000     1.099172   -7.2935574    375.36623  0.031093955  0.031365028            2 
 1007000    1.1027657   -7.2490244    376.24735  0.031135994  0.031357876            1 
 1008000    1.1011408   -7.2297401    377.47933  0.031206955   0.03135057            3 
 1009000    1.0816308   -7.2224386    377.82788  0.031204814  0.031343625            2 
 1010000    1.0835281   -7.2465164    377.53271  0.031149564  0.031336724            3 
 1011000    1.0955765   -7.2341739    377.78851  0.031139837  0.031329607            2 
 1012000    1.1117873   -7.2480895    378.41155  0.031160371  0.031322486            4 
 1013000    1.0856801    -7.256919    377.99795  0.031095586  0.031314979            2 
 1014000    1.0837212   -7.2070166    380.37503  0.031260275  0.031307638            2 
 1015000    1.0916815   -7.2853387    378.21217  0.031051902  0.031300195            3 
 1016000    1.1054358   -7.2475607    377.91357  0.030996848   0.03129299            2 
 1017000    1.0842188   -7.2851677    378.68329   0.03102944  0.031285638            2 
 1018000    1.0901171   -7.2674605    379.79577  0.031090027  0.031278092            2 
 1019000    1.0671728    -7.265026    379.82337  0.031061774  0.031270523            2 
 1020000    1.1243995   -7.2758207    378.79032  0.030946921  0.031262926            1 
 1021000    1.0973898   -7.2409455    380.40638  0.031048513  0.031255327            2 
 1022000    1.0677733   -7.2914941    380.43191  0.031020215  0.031247806            1 
 1023000    1.1015687   -7.2621436    380.19773  0.030970815  0.031239766            2 
 1024000     1.077006   -7.2640435    379.43702  0.030878664  0.031231646            1 
 1025000    1.1069881   -7.2539823    378.79568  0.030796396  0.031223574            1 
 1026000     1.074297   -7.2528167    380.33918  0.030891746  0.031215478            1 
 1027000    1.0894526   -7.1878258    380.41328  0.030867679   0.03120716            1 
 1028000    1.1021813   -7.2466934    380.36807  0.030833988  0.031199047            1 
 1029000    1.0737988   -7.2756627    381.48822  0.030894738  0.031191177            3 
 1030000    1.0772324   -7.3002321    381.37498  0.030855581    0.0311831            2 
 1031000    1.0951611   -7.2727415     381.5387  0.030838886  0.031175207            1 
 1032000    1.0687823   -7.2261859    382.18467  0.030861165  0.031167251            2 
 1033000    1.0826385   -7.3159627    381.82707  0.030802442  0.031159303            1 
 1034000    1.1044387   -7.3085276    382.40856  0.030819516   0.03115142            3 
 1035000    1.0706547   -7.2619376    382.74478   0.03081681  0.031143488            2 
 1036000    1.0849183   -7.2981836    384.05314  0.030892306  0.031135631            2 
 1037000    1.0995373   -7.2246186     384.9397  0.030933759  0.031127859            4 
 1038000    1.0926596    -7.239493    384.38129  0.030859128  0.031120039            3 
 1039000    1.0656613   -7.2520173    383.09307  0.030726104  0.031112006            1 
 1040000    1.0751571   -7.2640465    383.27643  0.030711253  0.031103928            1 
 1041000    1.0643168   -7.2725864    384.08151  0.030746198  0.031095659            1 
 1042000    1.0892572   -7.2773175      383.981  0.030708653  0.031087397            1 
 1043000    1.0977899   -7.2554271    385.86961  0.030830107  0.031079354            3 
 1044000    1.0573741   -7.2784015    385.13862  0.030742227   0.03107141            1 
 1045000    1.0852215   -7.2663109    386.64038  0.030832566  0.031063454            1 
 1046000    1.0867505   -7.2862776     385.4058  0.030704732   0.03105548            2 
 1047000    1.0452939   -7.2410294    386.53058   0.03076493  0.031047676            2 
 1048000    1.1139653   -7.2608289    386.80512  0.030757405  0.031039711            2 
 1049000    1.0809643   -7.2797516    386.08491   0.03067087  0.031031626            1 
 1050000    1.0460221   -7.2554906    387.85814  0.030782392  0.031023565            1 
 1051000    1.0896933   -7.2360554     388.6466   0.03081562  0.031015783            4 
 1052000    1.0921995   -7.2543237    388.61784  0.030784049  0.031007727            1 
 1053000    1.0930298   -7.2831817    387.93991  0.030701164  0.030999661            1 
 1054000    1.0797373   -7.2876053    388.40864  0.030709095  0.030991786            2 
 1055000    1.0889057   -7.2877104    386.94918  0.030564706  0.030983623            4 
 1056000    1.0835396   -7.2741967     388.7436  0.030677367  0.030975441            1 
 1057000    1.0984151   -7.2768984    388.69515  0.030644524  0.030967193            6 
 1058000    1.1116755   -7.2838396    388.62562  0.030610083  0.030958897            1 
 1059000    1.0820792   -7.3141698     388.0455  0.030535529  0.030950645            4 
 1060000    1.1186559   -7.2726735    389.20249   0.03059768  0.030942579            1 
 1061000    1.0814468   -7.2426109    390.60071   0.03067866  0.030934563            2 
 1062000     1.051541    -7.276086    390.31106  0.030627045  0.030926508            2 
 1063000    1.0674486   -7.2567931    391.66083  0.030704047  0.030918465            2 
 1064000     1.080242    -7.283185      392.045  0.030705278  0.030910362            2 
 1065000    1.0768435   -7.2933362    390.16719  0.030529514  0.030902124            2 
 1066000    1.0779115   -7.2324253     392.1495  0.030655839   0.03089408            2 
 1067000    1.0547907   -7.2787472    391.46647  0.030573764  0.030886011            1 
 1068000    1.0851997   -7.2913842    391.75948  0.030567999  0.030877822            2 
 1069000     1.088644   -7.3104537    391.31824  0.030505008  0.030869687            1 
 1070000    1.0695994   -7.2863892     391.3528   0.03047919  0.030861596            2 
 1071000    1.0839336   -7.2717275    393.90619  0.030649408  0.030853627            2 
 1072000    1.0861797   -7.2424837    392.81217  0.030535772  0.030845504            1 
 1073000    1.0522927   -7.2611952    394.30193  0.030623014  0.030837608            2 
 1074000    1.0787583   -7.2879191    393.47664  0.030530465  0.030829662            2 
 1075000    1.0644779   -7.2423955    394.13799  0.030553333  0.030821849            1 
 1076000    1.0595618   -7.2598653    394.75391  0.030572639  0.030813893            2 
 1077000    1.0867123   -7.2471313    394.35461  0.030513355  0.030806017            1 
 1078000    1.0883238   -7.2265654     394.6627  0.030508867  0.030798224            2 
 1079000    1.1044376   -7.3056058    394.65438  0.030479949  0.030790002            2 
 1080000    1.1056467     -7.28036    394.45976   0.03043671  0.030781809            3 
 1081000    1.0953764   -7.3002734    395.32283  0.030475087  0.030773623            2 
 1082000    1.1019682   -7.3033789    394.54886  0.030387312  0.030765531            5 
 1083000    1.0704826   -7.3000154     395.1244  0.030403539  0.030757229            2 
 1084000    1.0719268   -7.2755986    396.76263  0.030501432  0.030749122            2 
 1085000    1.0779488   -7.2739493    396.78218  0.030474821  0.030740997            3 
 1086000    1.0522901   -7.3173186    395.38499  0.030339548  0.030732667            1 
 1087000     1.074091   -7.2989574    395.61168  0.030329016   0.03072432            2 
 1088000    1.0743371   -7.2767726    396.68063  0.030383014  0.030715818            2 
 1089000    1.0734351   -7.2794068    396.41093  0.030334476  0.030707372            1 
 1090000    1.0810743   -7.2627472    396.90551  0.030344458  0.030698785            1 
 1091000    1.0661243   -7.2665534      398.095  0.030407501  0.030690377            3 
 1092000     1.070581   -7.2779988    397.16084  0.030308367  0.030682166            4 
 1093000    1.1000953   -7.3040952    397.53505  0.030309168  0.030673751            1 
 1094000    1.0758586   -7.2589563    398.72494  0.030372101  0.030665299            2 
 1095000    1.0602088   -7.2799596    399.01749  0.030366628  0.030657052            2 
 1096000    1.0768253   -7.2840164    400.15539   0.03042544  0.030648754            2 
 1097000     1.088849   -7.3185657    398.76952  0.030292428  0.030640349            1 
 1098000    1.0669201   -7.2792404    399.36468  0.030310009  0.030631972            2 
 1099000    1.0698174   -7.2787796    400.73092  0.030386027  0.030623774            3 
 1100000    1.0666477   -7.3107242    400.09997  0.030310604  0.030615591            2 
 1101000    1.0977519    -7.318141    399.53373  0.030240216  0.030607198            2 
 1102000    1.0565754   -7.2970132    399.70866  0.030226003   0.03059848            2 
 1103000    1.0834018   -7.2919675    400.25998  0.030240252  0.030590074            1 
 1104000    1.0762035   -7.2803699     400.3188    0.0302173  0.030581925            1 
 1105000    1.0667177   -7.2361091    401.84035  0.030304702  0.030573851            1 
 1106000    1.0780344   -7.2451892    402.67532  0.030340214  0.030565671            2 
 1107000      1.05991   -7.2938339    402.61689  0.030308408  0.030557515            1 
 1108000     1.064854    -7.309681     401.3541  0.030186079  0.030549287            2 
 1109000    1.0506779   -7.2867985    401.87551  0.030198039  0.030541138            2 
 1110000    1.0560511   -7.2942807    401.44221  0.030138304  0.030532865            1 
 1111000    1.0838373   -7.2687058    403.90109  0.030295611  0.030524735            5 
 1112000    1.0494238   -7.2656233    403.41588  0.030232005  0.030516775            2 
 1113000    1.0868429    -7.316973    403.96479  0.030245941  0.030508926            2 
 1114000    1.0786103   -7.2643612    403.69662   0.03019873  0.030501057            2 
 1115000    1.0767916   -7.2603568    404.72668  0.030248631  0.030493283            2 
 1116000    1.0554447   -7.2757559    403.53461  0.030132513  0.030485179            2 
 1117000    1.0587791   -7.2889685    403.25155  0.030084419  0.030477046            1 
 1118000    1.0888025   -7.2588422    405.36992  0.030215408  0.030468789            3 
 1119000    1.0675538   -7.2550666    405.24692  0.030179246  0.030460752            4 
 1120000    1.0631211   -7.3084194    404.21008  0.030075155   0.03045251            1 
 1121000    1.0689124   -7.2693477    405.57133  0.030149519  0.030444426            2 
 1122000    1.0696945   -7.3080556    406.08065  0.030160476  0.030436445            2 
 1123000     1.067815   -7.2682678    407.33922  0.030227013  0.030428236            3 
 1124000    1.0691166   -7.3161182    405.09742  0.030033913  0.030420017            1 
 1125000    1.0681386   -7.3096239     406.8129  0.030134289  0.030411822            3 
 1126000    1.0786696   -7.2355678    408.12513  0.030204643  0.030403817            2 
 1127000    1.0798793   -7.2699591    406.99549  0.030094313  0.030395867            1 
 1128000    1.0953116   -7.3245204    407.70264  0.030119876  0.030387754            5 
 1129000    1.0881244   -7.2735012    408.13486    0.0301251  0.030379542            1 
 1130000    1.0878397   -7.2595124    407.23157  0.030031827  0.030371545            1 
 1131000    1.1002479    -7.289885    407.32877  0.030012435  0.030363551            1 
 1132000    1.0527695    -7.353365    407.26432  0.029981178  0.030355216            1 
 1133000    1.0951823   -7.3076166    408.50684  0.030046105  0.030346894            1 
 1134000    1.0866546    -7.339584      408.945  0.030051807  0.030338614            2 
 1135000    1.0751095    -7.274728    408.18087  0.029969227  0.030330217            3 
 1136000     1.074931   -7.3080392    408.87854  0.029994024  0.030322122            3 
 1137000    1.0811286   -7.2782055    409.58466  0.030019397   0.03031388            3 
 1138000    1.0765433   -7.2859533    409.48903  0.029986015  0.030305649            5 
 1139000    1.0661371   -7.2625004    410.05497  0.030001095  0.030297381            2 
 1140000    1.0613199    -7.271538     411.4439  0.030076308  0.030289183            2 
 1141000    1.0474631   -7.3108925    409.48389  0.029906799  0.030280891            2 
 1142000    1.0795741   -7.3033675    410.64559  0.029965381  0.030272669            1 
 1143000    1.0666201   -7.3023177    411.26953  0.029984655   0.03026445            2 
 1144000    1.0653458   -7.3306508     410.7134  0.029917934  0.030256217            2 
 1145000    1.0551002   -7.3455321    410.25384  0.029858358  0.030247721            1 
 1146000    1.0742683   -7.3116647     411.2026  0.029901294  0.030239253            1 
 1147000    1.0666867   -7.3213303     411.0516  0.029864255  0.030230766            2 
 1148000    1.0587645   -7.2896689    411.27027  0.029854114  0.030222473            2 
 1149000    1.0696051   -7.3355438     411.0285  0.029810596  0.030214014            3 
 1150000    1.0602768   -7.3035118    411.20644  0.029797568   0.03020539            2 
 1151000    1.0859692   -7.3263561    412.03367  0.029831571  0.030196709            3 
 1152000    1.0660925   -7.2953641    411.75387  0.029785436  0.030188046            3 
 1153000     1.060184   -7.2948611    412.86473  0.029839891  0.030179641            1 
 1154000    1.0455861   -7.3015438    413.39286  0.029852171  0.030171052            2 
 1155000    1.0798618   -7.2946512    413.22892  0.029814496  0.030162372            2 
 1156000    1.0678447   -7.3072881    413.17354  0.029784713  0.030153653            1 
 1157000    1.0316568   -7.2816949    412.55892  0.029714702  0.030144989            1 
 1158000    1.0499993   -7.3190682    413.02443  0.029722541  0.030136211            2 
 1159000    1.0610082   -7.3225504    412.82391  0.029682478  0.030127499            2 
 1160000    1.0584041    -7.325884    413.23949  0.029686745  0.030118808            1 
 1161000    1.0817703   -7.3322036    413.97371  0.029713875  0.030109815            2 
 1162000    1.0700779   -7.3160863    413.51109  0.029655127  0.030100829            2 
 1163000    1.0827066    -7.291602    414.44848  0.029696796  0.030091816            1 
 1164000    1.0584165   -7.3077574    414.86497    0.0297011  0.030082829            2 
 1165000    1.0879308   -7.2914913    414.54161  0.029652476  0.030073773            2 
 1166000    1.0795677   -7.3151799     414.0731   0.02959356  0.030064616            2 
 1167000    1.0560245   -7.2581543    414.67432  0.029611134  0.030055509            3 
 1168000    1.0639398   -7.3067831    413.34782   0.02949114  0.030046265            2 
 1169000    1.0601152   -7.2906757    415.43984  0.029615044  0.030036925            2 
 1170000    1.0372571   -7.3081765    415.22258  0.029574258  0.030027824            2 
 1171000    1.0639372   -7.3024717    415.26735  0.029552188  0.030018703            2 
 1172000    1.0741693   -7.3017759    414.70995   0.02948734  0.030009531            2 
 1173000    1.0389551   -7.3484198    414.01408  0.029412765  0.030000343            2 
 1174000    1.0776223   -7.3163568    415.08127  0.029463463  0.029991095            2 
 1175000     1.068577    -7.297271     416.3788  0.029530412  0.029981915            5 
 1176000    1.0678505   -7.3326547    416.92748  0.029544181  0.029972721            1 
 1177000    1.0539002   -7.3291973    416.63323  0.029498246  0.029963614            4 
 1178000    1.0589958   -7.3181219    417.05273  0.029502881  0.029954487            3 
 1179000     1.065412   -7.3066737    416.88945  0.029466317  0.029945454            1 
 1180000    1.0793908   -7.3193858    417.10173  0.029456337  0.029936215            2 
 1181000    1.0562069   -7.3214693     416.9976  0.029424048  0.029927054            1 
 1182000    1.0631692    -7.292527    417.83296  0.029458048  0.029917814            1 
 1183000    1.0690092   -7.3066103    419.26421  0.029533968  0.029908863            1 
 1184000    1.0465703   -7.3010738    419.92572  0.029555583  0.029900101            2 
 1185000    1.0653821   -7.2735867     419.1019  0.029472707   0.02989139            1 
 1186000    1.0618869   -7.3323966    418.18917  0.029383725  0.029882442            2 
 1187000    1.0788269   -7.2917463    420.26343  0.029504593  0.029873616            3 
 1188000    1.0536734   -7.3375301    419.50101  0.029426278  0.029864723            1 
 1189000    1.0853313   -7.3111827    420.76627  0.029490207  0.029855961            2 
 1190000     1.065992   -7.3380783    420.49476  0.029446412  0.029847088            1 
 1191000    1.0484375   -7.2644024    422.36876   0.02955281  0.029838405            3 
 1192000    1.0750729   -7.3077954    422.48266   0.02953598  0.029829953            1 
 1193000    1.0669678   -7.2883987    424.24172  0.029634096  0.029821402            2 
 1194000    1.0463959   -7.3308252     422.3849  0.029479683  0.029812949            1 
 1195000     1.055628    -7.358379    421.16184  0.029369724  0.029804348            1 
 1196000    1.0594922   -7.3439405    421.18861  0.029347033  0.029795583            1 
 1197000    1.0457295   -7.2938348    423.59735  0.029490208  0.029786901            1 
 1198000    1.0680421   -7.3101741    424.40092  0.029521488  0.029778445            2 
 1199000    1.0695475   -7.3264983    424.42183   0.02949832  0.029770258            1 
 1200000    1.0559583   -7.3573443    422.76812  0.029358897  0.029762018            1 
 1201000    1.0768886   -7.3375417    425.89795   0.02955162  0.029753548            1 
 1202000    1.0627797   -7.3038856    423.96114  0.029392758  0.029745233            2 
 1203000    1.0658456   -7.3543115    424.90666  0.029433822  0.029736921            2 
 1204000    1.0606621   -7.2761506    425.84075  0.029474027  0.029728407            4 
 1205000    1.0406471   -7.3649598    425.13238  0.029400579  0.029720038            2 
 1206000    1.0649785   -7.3123738    425.17493  0.029379141  0.029711549            1 
 1207000    1.0417917   -7.3244701    426.03213  0.029413983  0.029702966            2 
 1208000    1.0663738   -7.3031357    425.99563  0.029387115   0.02969437            2 
 1209000    1.0823346   -7.2839622    427.29657  0.029452479  0.029685868            2 
 1210000    1.0530955   -7.2987036    427.71105  0.029456684  0.029677405            2 
 1211000    1.0642074   -7.3271858    425.47752  0.029278662  0.029668932            1 
 1212000    1.0711567    -7.313105    426.75047  0.029342029  0.029660423            3 
 1213000    1.0772268   -7.3646204    426.79828  0.029321124  0.029651905            2 
 1214000    1.0597789   -7.3185137    426.74758  0.029293491  0.029643339            1 
 1215000    1.0743604   -7.3090883    426.09662  0.029224734    0.0296347            1 
 1216000    1.0569549   -7.3199799    427.99433  0.029330752  0.029625898            3 
 1217000    1.0412712   -7.3302406     428.0581  0.029311018  0.029617298            1 
 1218000    1.0684106   -7.3243806    427.95688  0.029280027  0.029608829            1 
 1219000    1.0652612   -7.2902105    429.37236  0.029352773   0.02960041            1 
 1220000    1.0477043   -7.3106424    429.05278  0.029306884  0.029591794            2 
 1221000    1.0530929   -7.3258982    428.42259  0.029239871  0.029583291            2 
 1222000    1.0540944   -7.3556076    430.42877  0.029352753  0.029574853            1 
 1223000    1.0224706   -7.3155645    429.81455    0.0292869  0.029566325            2 
 1224000    1.0515347   -7.3398468    429.83228   0.02926418  0.029558064            1 
 1225000    1.0521041   -7.3511476    430.72599  0.029301088  0.029549974            1 
 1226000    1.0427196   -7.3161848    432.11621  0.029371684  0.029541806            3 
 1227000    1.0834441   -7.3102782    431.50877   0.02930649  0.029533743            2 
 1228000    1.0619056   -7.3026423    432.59341   0.02935623  0.029525596            4 
 1229000    1.0602117   -7.3270566    431.82612  0.029280317  0.029517512            2 
 1230000    1.0403921   -7.3484507    433.01832  0.029337284  0.029509355            1 
 1231000    1.0497732    -7.322493    432.50639  0.029278797  0.029501269            2 
 1232000     1.046935    -7.295511    432.89142  0.029281075  0.029493061            1 
 1233000    1.0439844   -7.3617077     432.3679  0.029221945  0.029484761            2 
 1234000     1.057966   -7.3429053    432.33336  0.029195932   0.02947629            2 
 1235000    1.0396714   -7.3009071    432.20363  0.029163538  0.029467855            2 
 1236000    1.0567127   -7.3374146    433.00305  0.029193841  0.029459574            1 
 1237000    1.0483933   -7.3445041    432.20823  0.029116696  0.029451211            3 
 1238000    1.0468819   -7.3248276    433.12046  0.029154581  0.029442677            2 
 1239000     1.055799   -7.3357795     432.9787  0.029121516  0.029434092            2 
 1240000    1.0404768   -7.3108577    434.00991  0.029167333  0.029425596            2 
 1241000    1.0666917   -7.3328972    433.37169  0.029100973  0.029417188            2 
 1242000    1.0636543   -7.3132996     435.7664  0.029238218  0.029408601            1 
 1243000    1.0637924   -7.3071692    433.03852  0.029031813  0.029400217            1 
 1244000    1.0440924   -7.3769782     433.8261  0.029061234  0.029391741            2 
 1245000    1.0558764   -7.3322107    433.60677  0.029023211  0.029383374            2 
 1246000    1.0510437   -7.3429834    434.17557   0.02903796  0.029374886            1 
 1247000    1.0408143    -7.352804    434.75542  0.029053423  0.029366397            3 
 1248000    1.0787592    -7.315442    435.92539  0.029108266  0.029357934            1 
 1249000    1.0306707   -7.2791023      436.162  0.029100747  0.029349846            2 
 1250000    1.0622164    -7.312794    436.34847  0.029089898  0.029341445            2 
 1251000    1.0337586   -7.3640337    435.41331   0.02900435  0.029333079            2 
 1252000    1.0258287   -7.3235492    437.05402   0.02909039  0.029324589            2 
 1253000    1.0445442   -7.2981435    438.31128   0.02915079  0.029316442            3 
 1254000    1.0680474    -7.351013    436.58071  0.029012541  0.029308225            2 
 1255000     1.058884    -7.362135    437.70672  0.029064191  0.029299692            2 
 1256000    1.0519859    -7.352633    436.85758  0.028984712  0.029291231            1 
 1257000    1.0564517   -7.3443835    438.09899  0.029043953  0.029282723            1 
 1258000    1.0361422   -7.3577924     437.6339  0.028990057  0.029274524            2 
 1259000    1.0445417     -7.34114    438.62958  0.029032935  0.029266183            2 
 1260000    1.0321326   -7.3299189    438.26089  0.028985508  0.029257908            1 
 1261000    1.0630905    -7.347435    436.22082  0.028827704  0.029249459            2 
 1262000    1.0492563   -7.3670663    437.08733   0.02886208  0.029240775            1 
 1263000    1.0332432   -7.3705328    438.75836  0.028949483  0.029232325            3 
 1264000    1.0530879    -7.323394    439.33994  0.028964922  0.029223963            4 
 1265000    1.0543327   -7.2989294    439.89558  0.028978629  0.029215842            2 
 1266000    1.0592987   -7.2978458    440.97719  0.029026935  0.029207521            1 
 1267000    1.0328213   -7.3684582    439.46044  0.028904265   0.02919914            2 
 1268000    1.0507863   -7.3140712    439.77657  0.028902245  0.029190678            3 
 1269000    1.0757767   -7.3506024    438.62728  0.028803998  0.029182141            2 
 1270000    1.0535778   -7.3474505    439.78397  0.028857216   0.02917376            1 
 1271000     1.063574   -7.3825111    440.16889  0.028859749  0.029165211            3 
 1272000    1.0538301   -7.2987855    439.65993  0.028803717  0.029156629            3 
 1273000    1.0374832   -7.3797288    440.59856  0.028842535  0.029148152            1 
 1274000    1.0764948   -7.3345747    440.78381  0.028832012  0.029139557            2 
 1275000    1.0564905   -7.3363516    440.18595  0.028770323  0.029131162            5 
 1276000    1.0521942    -7.348438    441.44003  0.028829678  0.029122628            2 
 1277000    1.0396836   -7.3590198    441.33375  0.028800167  0.029114051            2 
 1278000    1.0694801   -7.3594373    440.80968  0.028743459  0.029105252            1 
 1279000    1.0463164   -7.3477302    440.35232  0.028691186  0.029096548            2 
 1280000    1.0666178   -7.3301829    441.50752  0.028743979  0.029087906            1 
 1281000     1.027913   -7.3360606    440.64961  0.028665731  0.029079149            1 
 1282000    1.0307822   -7.4028369    440.74201  0.028649377  0.029070356            1 
 1283000     1.072927   -7.3514295    441.30329  0.028663503  0.029061599            3 
 1284000     1.074265   -7.3632904     441.9782  0.028684982  0.029052735            2 
 1285000    1.0471007   -7.3293556    443.16679   0.02873974  0.029044183            1 
 1286000    1.0459132   -7.3450426    443.38885  0.028731781  0.029035544            2 
 1287000    1.0471794   -7.3556071    443.15355  0.028694221  0.029026919            2 
 1288000    1.0421319   -7.3242826    443.92184  0.028721651  0.029018405            1 
 1289000    1.0707172   -7.3787404    444.43318  0.028732427  0.029009829            4 
 1290000    1.0443105   -7.3720047    443.32226  0.028638389  0.029001227            4 
 1291000    1.0521348   -7.3404351     444.3244  0.028680893  0.028992588            1 
 1292000    1.0436115   -7.3509195     445.4979  0.028734385  0.028984054            3 
 1293000    1.0340761   -7.3519846    444.57305  0.028652556  0.028975597            2 
 1294000    1.0547985   -7.3569494     444.1702  0.028604469  0.028966904            1 
 1295000    1.0342958    -7.335876     445.8172  0.028688365  0.028958302            2 
 1296000    1.0483752   -7.3791156    445.00131  0.028613767  0.028949619            2 
 1297000    1.0353208   -7.3111828    445.79643  0.028642793  0.028940929            2 
 1298000    1.0513477   -7.3310079    445.41673  0.028596349  0.028932267            3 
 1299000    1.0621117   -7.3720127    446.44565  0.028640342  0.028923667            4 
 1300000    1.0880064   -7.3207894    447.54853  0.028689008   0.02891508            3 
 1301000    1.0381165   -7.3634237    446.07824   0.02857278  0.028906643            2 
 1302000    1.0664047   -7.3444375     445.7933  0.028532597  0.028897943            3 
 1303000    1.0646869   -7.3205135    447.83529  0.028641295  0.028889415            2 
 1304000    1.0398181   -7.3397618    446.83801  0.028555598   0.02888104            1 
 1305000    1.0398001   -7.3865115    447.00357   0.02854429  0.028872364            1 
 1306000    1.0427458    -7.345991    446.43404  0.028486092  0.028863889            1 
 1307000    1.0280888   -7.3431841    446.63218   0.02847693  0.028855335            2 
 1308000    1.0543372   -7.3033891     448.1574  0.028552332  0.028846625            2 
 1309000    1.0394312   -7.3458401    448.73535  0.028567313  0.028837924            2 
 1310000    1.0513509   -7.3227476     447.2532  0.028451221  0.028829191            2 
 1311000     1.039781   -7.3630468    448.38187  0.028501263  0.028820416            4 
 1312000    1.0489901   -7.3787015    446.72894  0.028374552  0.028811581            2 
 1313000    1.0404578   -7.3675758    447.43006   0.02839744  0.028802699            2 
 1314000    1.0494756   -7.3452154     447.8008   0.02839934  0.028793824            2 
 1315000    1.0438597   -7.3813877     447.8811  0.028382833  0.028785038            1 
 1316000    1.0400883   -7.3786658    448.59369  0.028406388  0.028776196            1 
 1317000    1.0244024   -7.3610972    448.49039  0.028378284   0.02876725            2 
 1318000    1.0425228   -7.3437865     450.2838  0.028470144  0.028758475            2 
 1319000    1.0210398   -7.3775892    449.58723  0.028404551  0.028749545            4 
 1320000    1.0224638    -7.386365    448.14244  0.028291821  0.028740582            4 
 1321000    1.0789964   -7.3483675       450.64  0.028427959  0.028731688            2 
 1322000    1.0407391   -7.3418921    451.82113  0.028480909  0.028722926            2 
 1323000    1.0424011   -7.3514654    449.74355  0.028328518  0.028714255            2 
 1324000      1.03957   -7.3773951    450.82311   0.02837507  0.028705621            1 
 1325000    1.0395139   -7.3803898    451.02751   0.02836651    0.0286968            2 
 1326000    1.0393237   -7.3456542    451.73867  0.028389811  0.028688005            2 
 1327000     1.038893   -7.3593283    450.81013  0.028310106  0.028679144            2 
 1328000    1.0550076   -7.3666862    451.11864  0.028308148  0.028670373            2 
 1329000      1.04805   -7.3490634    451.84698  0.028332517  0.028661542            4 
 1330000    1.0525632   -7.4021762    451.50672  0.028289895  0.028652822            2 
 1331000    1.0509224   -7.3666809    451.70205  0.028280869  0.028643885            1 
 1332000    1.0463355   -7.3935869    450.37477    0.0281766  0.028634925            4 
 1333000    1.0502587   -7.3960872    451.16962  0.028205152  0.028625783            2 
 1334000    1.0326542   -7.3633418    451.78674   0.02822256  0.028616644            1 
 1335000    1.0499524   -7.3683745    452.78143   0.02826351  0.028607487            2 
 1336000    1.0367972   -7.3876059     451.6427  0.028171326  0.028598411            2 
 1337000    1.0324582   -7.3474186    452.46331  0.028201403  0.028589317            1 
 1338000    1.0616355   -7.3701167    451.74765  0.028135753   0.02858022            2 
 1339000    1.0311008   -7.3438638    453.52218  0.028225179  0.028571264       -1e+20 
 1340000    1.0394574   -7.3519061     452.8553  0.028162643   0.02856232            3 
 1341000    1.0324917   -7.3852911    452.64249  0.028128417  0.028553258            2 
 1342000    1.0477847   -7.3605346    453.36321  0.028152212  0.028544217            2 
 1343000    1.0449705   -7.3683278    453.81487  0.028159275  0.028535224            1 
 1344000    1.0570931   -7.3829823    454.15146  0.028159193  0.028526309            1 
 1345000    1.0491941   -7.3417888    455.70562  0.028234549  0.028517494            1 
 1346000    1.0400841   -7.3999373    454.05561  0.028111417  0.028508655            1 
 1347000    1.0391751   -7.3641758    454.89622  0.028142553  0.028499818            2 
 1348000    1.0261734    -7.365086    455.32519  0.028148194   0.02849098            4 
 1349000    1.0542306   -7.3655909    456.11764  0.028176281  0.028482196            1 
 1350000    1.0363162   -7.3494834    457.07653  0.028214601  0.028473422            1 
 1351000    1.0369783   -7.3738929    455.01064  0.028066286   0.02846459            3 
 1352000    1.0237185   -7.4082041    455.61666  0.028082881  0.028455573            1 
 1353000    1.0297833    -7.393568    454.84214  0.028014421  0.028446575            1 
 1354000    1.0221754   -7.3745074     456.1031  0.028071338  0.028437654            2 
 1355000    1.0484772   -7.3649349     455.9011  0.028038198  0.028428699            3 
 1356000    1.0346526   -7.3724327    456.48408  0.028053348  0.028419892            2 
 1357000    1.0204162    -7.317157    458.43032  0.028152194  0.028411107            5 
 1358000    1.0384672   -7.3985421    457.76179  0.028090439  0.028402503            2 
 1359000    1.0184401   -7.3463304    457.28245  0.028040376  0.028393745            2 
 1360000    1.0244426   -7.3990647    456.81336  0.027991015  0.028385126            2 
 1361000    1.0216058   -7.4020513    459.23037   0.02811844  0.028376498            1 
 1362000    1.0484803    -7.383862    460.71986  0.028188929  0.028367951            2 
 1363000    1.0419628   -7.3962268    460.12305  0.028131759  0.028359488            2 
 1364000    1.0450621   -7.3661487    459.84934  0.028094412  0.028350997            4 
 1365000    1.0279372   -7.3291271    461.23645  0.028158513  0.028342494            1 
 1366000    1.0316043   -7.3778417    461.55238  0.028157173  0.028333928            1 
 1367000    1.0271647    -7.369473    459.70481  0.028023946  0.028325454            2 
 1368000    1.0342603   -7.4005518    460.23045   0.02803548  0.028316862            1 
 1369000    1.0180356   -7.3736739    461.06073  0.028065542  0.028308338            2 
 1370000    1.0291049   -7.3545269    461.28883  0.028058931  0.028299952            2 
 1371000    1.0191522   -7.3565298    462.10384  0.028088004  0.028291558            3 
 1372000    1.0291685   -7.4296644    461.59275  0.028036489   0.02828314            2 
 1373000    1.0607227   -7.3987554    460.59064  0.027955246  0.028274683            1 
 1374000    1.0330658   -7.3637344    461.73344  0.028004212  0.028266383            1 
 1375000     1.021471   -7.3976721    462.77729  0.028047109  0.028258094            3 
 1376000     1.050809   -7.4086088    462.89005  0.028033554  0.028249702            4 
 1377000    1.0440912    -7.379616    462.26685  0.027975481  0.028241366            3 
 1378000    1.0283505   -7.3862832    462.42545  0.027964771  0.028233133            2 
 1379000    1.0404494   -7.4236641    462.44384  0.027945603  0.028224755            1 
 1380000    1.0287228   -7.3895926    462.96209  0.027956648  0.028216391            3 
 1381000      1.02464     -7.40246    465.00412  0.028059626  0.028208067            1 
 1382000    1.0312031   -7.3876696    464.04899  0.027981729  0.028199732            1 
 1383000    1.0213249   -7.3575357    466.06705  0.028083095  0.028191529            1 
 1384000     1.036689   -7.3853707    464.98927  0.027997909  0.028183311            1 
 1385000    1.0352097   -7.3874441    465.63592  0.028016602  0.028175184            1 
 1386000     1.056464   -7.3678315    465.10238  0.027964308  0.028167112            1 
 1387000    1.0435721   -7.3553876    466.29875  0.028016027  0.028158983            1 
 1388000    1.0119002   -7.3853549    465.57532  0.027952408  0.028150783            2 
 1389000    1.0349119   -7.4232299    465.59713  0.027933593  0.028142653            1 
 1390000    1.0216892   -7.3916549    465.24883  0.027892616  0.028134713            2 
 1391000    1.0414896   -7.4008813    465.20636  0.027870019  0.028126578            1 
 1392000    1.0343996   -7.4120104    466.57829  0.027932129   0.02811837            1 
 1393000    1.0277248   -7.3935224    466.93309  0.027933303  0.028110174            2 
 1394000    1.0438189   -7.3778248    467.91236  0.027971805  0.028102032            1 
 1395000    1.0322012   -7.3891656    467.75386  0.027942286  0.028094043            1 
 1396000    1.0403534     -7.36562    468.21289  0.027949671  0.028085987            2 
 1397000    1.0510366   -7.4343349    467.83917  0.027907371  0.028077946            1 
 1398000    1.0271936   -7.4141893    467.98508  0.027896106  0.028069857            3 
 1399000    1.0459919   -7.3583833    469.23412  0.027950567  0.028061788            2 
 1400000    1.0379594   -7.3783321    469.95489  0.027973505  0.028053921            2 
 1401000    1.0193822   -7.3953004    468.74659  0.027881667  0.028046145            1 
 1402000    1.0086492   -7.4259209    469.75873  0.027921941  0.028038331            3 
 1403000    1.0172867   -7.4272994    469.94359  0.027913019    0.0280304            1 
 1404000    1.0305632   -7.3835983      469.485  0.027865919  0.028022413            1 
 1405000    1.0189162   -7.4039426     470.2876  0.027893689   0.02801456            1 
 1406000    1.0285311   -7.4021382    470.60947  0.027892927  0.028006529            1 
 1407000    1.0325845   -7.4029636    472.16293  0.027965111  0.027998693            1 
 1408000    1.0335401   -7.3884752    471.07632  0.027880938  0.027990917            2 
 1409000    1.0237258   -7.3508582    471.26931  0.027872564  0.027983158            3 
 1410000    1.0290567   -7.3476791    471.43259  0.027862446  0.027975282            1 
 1411000     1.042788   -7.3605722    471.01173  0.027817844  0.027967371            1 
 1412000    1.0211719   -7.4001502    471.86793  0.027848674  0.027959345            2 
 1413000    1.0320832   -7.4180768    471.07483  0.027782191  0.027951316            3 
 1414000    1.0213672   -7.4318579    471.87186  0.027809516  0.027943438            1 
 1415000    1.0244734   -7.4051217      470.188  0.027690695  0.027935316            1 
 1416000    1.0305883   -7.4064391     471.3557   0.02773986  0.027927314            1 
 1417000    1.0377585   -7.3693395    471.57354  0.027733094  0.027919283            2 
 1418000   0.99564711   -7.4184405    470.96861  0.027677986  0.027911137            4 
 1419000    1.0333169   -7.4059396      472.072  0.027723279  0.027903001            1 
 1420000     1.014531   -7.4113192    472.67409   0.02773909  0.027894729            4 
 1421000    1.0101904    -7.422285    472.32889  0.027699325  0.027886496            2 
 1422000    1.0169242   -7.3833486    472.02741  0.027662178  0.027878207            1 
 1423000    1.0397859   -7.3926313    471.36212  0.027603779  0.027869866            2 
 1424000   0.99664609   -7.4053999    472.82224  0.027669841  0.027861411            1 
 1425000    1.0301671   -7.4226261    471.45737  0.027570607  0.027852893            1 
 1426000    1.0052045   -7.4182389    471.35773  0.027545449  0.027844406            2 
 1427000    1.0033117   -7.3977674     472.1717   0.02757368  0.027836025            1 
 1428000    1.0344141   -7.4316558    471.53396  0.027517155  0.027827622            2 
 1429000     1.015158   -7.4015987    472.41051  0.027549015  0.027819196            4 
 1430000    1.0272656   -7.4377547    472.78605  0.027551634  0.027810756            1 
 1431000    1.0456412   -7.3986071    473.99612  0.027602849  0.027802311            1 
 1432000     1.019052   -7.3805516    473.78874  0.027571505  0.027793938            2 
 1433000    1.0404478   -7.3934674    473.67724  0.027545781  0.027785696            2 
 1434000    1.0171812   -7.3942498    474.33413  0.027564745  0.027777458            5 
 1435000    1.0025017   -7.4310624    472.76697  0.027454528  0.027769065            2 
 1436000    1.0240777   -7.4092884    474.96009  0.027562679  0.027760535            2 
 1437000    1.0125635   -7.4407789    472.63145  0.027408458  0.027752073            2 
 1438000    1.0073942   -7.3974115    474.42005  0.027493049  0.027743733            2 
 1439000    1.0481532   -7.3714558    475.80335  0.027554051  0.027735533            3 
 1440000    1.0206317   -7.4162963     474.6644  0.027469004  0.027727375            2 
 1441000    1.0216939   -7.4148635    477.84857  0.027634083  0.027719193            2 
 1442000    1.0505156    -7.389604    477.17895  0.027576222  0.027711213            2 
 1443000    1.0265859   -7.3821229    477.55922  0.027579072  0.027703201            2 
 1444000    1.0361687   -7.4020136    478.30187  0.027602832    0.0276952            2 
 1445000    1.0077958   -7.4033457    478.54873  0.027597966  0.027687259            2 
 1446000   0.99395192   -7.3989292    478.76899  0.027591574  0.027679271            1 
 1447000    1.0117321   -7.4216923    478.47511  0.027555581  0.027671338            2 
 1448000    1.0099698   -7.4256679      478.935  0.027563018  0.027663374            2 
 1449000    1.0324929   -7.4032674    478.36316  0.027511109  0.027655376            1 
 1450000    1.0091322   -7.4080345    478.94249   0.02752543  0.027647259            1 
 1451000    1.0248038   -7.4220349     478.6353  0.027488818   0.02763934            4 
 1452000    1.0436869   -7.4034448    478.61104  0.027468494  0.027631319            1 
 1453000   0.99830491   -7.4043549    479.25752  0.027486667  0.027623437            2 
 1454000      1.02633   -7.4189937    479.16507  0.027462464  0.027615474            2 
 1455000    1.0218367   -7.3898682    480.46185  0.027517861  0.027607483            1 
 1456000    1.0298587   -7.3825408    480.13078  0.027480012  0.027599531            1 
 1457000    1.0135047   -7.4155014    478.60955  0.027374145  0.027591483            6 
 1458000     1.020467   -7.4292297    481.28594  0.027508341  0.027583526            2 
 1459000    1.0187938   -7.4087355    481.51828  0.027502758  0.027575619            1 
 1460000    1.0027293   -7.4188499    480.71236   0.02743792  0.027567795            2 
 1461000    1.0097358   -7.3960958     482.1005  0.027498318  0.027559994            2 
 1462000     1.000645   -7.4457141    481.01191  0.027417459  0.027552164            1 
 1463000    1.0101415   -7.4477557    480.58242  0.027374255  0.027544219            4 
 1464000     1.014575   -7.4037202    481.54142  0.027410144   0.02753634            2 
 1465000    1.0036313   -7.4547942     480.1371  0.027311553  0.027528504            3 
 1466000    1.0292521   -7.4300595    481.60444  0.027376332  0.027520604            1 
 1467000    1.0488051   -7.3975222    484.73841  0.027535697  0.027512829            2 
 1468000    1.0266466   -7.4164034    483.16279  0.027427497  0.027505059            1 
 1469000    1.0158217   -7.4112844    483.81678  0.027445926  0.027497148            1 
 1470000   0.99090029   -7.3986226    482.84414  0.027372117  0.027489303            4 
 1471000    1.0223458   -7.4358416    482.97953  0.027361179  0.027481544            2 
 1472000    1.0258846   -7.4303581    483.10384  0.027349629  0.027473869            1 
 1473000    1.0157713   -7.4129749    483.35964  0.027345533  0.027466075            2 
 1474000   0.99206196   -7.4507944    482.59632  0.027283826  0.027458243            1 
 1475000    1.0247093   -7.4172976    485.08162  0.027405741  0.027450346            3 
 1476000   0.99624182   -7.4346373    484.08736  0.027331039  0.027442476            3 
 1477000   0.99646172   -7.4234655    484.61463  0.027342283  0.027434653            2 
 1478000    1.0048536   -7.4370485      485.125   0.02735256  0.027426918            2 
 1479000     1.018369   -7.4419537    484.45485  0.027296306  0.027419139            3 
 1480000    1.0460739   -7.3844156    486.04402  0.027367343  0.027411423            1 
 1481000    1.0333114   -7.4248848    485.06281  0.027293653  0.027403712            1 
 1482000    1.0297365   -7.4497083    485.21691  0.027283902  0.027395775            2 
 1483000      1.03086   -7.4356884    486.09543   0.02731487  0.027387854            1 
 1484000    1.0188523   -7.4569181    485.45636  0.027260577  0.027380097            1 
 1485000    1.0111943   -7.4415505    486.59174  0.027305934  0.027372342            2 
 1486000    1.0306385   -7.4051575    486.70565  0.027293946  0.027364609            2 
 1487000    1.0413335   -7.4110677    486.66804  0.027273483  0.027356957            2 
 1488000   0.98690083   -7.4210157    488.15147  0.027338232  0.027349401            2 
 1489000    1.0017685   -7.4116217     487.1641  0.027264613  0.027341738            4 
 1490000   0.99501605   -7.4337353    487.11458  0.027243545  0.027334045            2 
 1491000    1.0226309    -7.450245    487.33147  0.027237395  0.027326308            1 
 1492000    1.0120136   -7.4479397    487.69866  0.027239648  0.027318634            1 
 1493000    1.0088927   -7.4296937    487.89098  0.027232138  0.027310898            2 
 1494000    1.0193856   -7.4472983    488.66675  0.027257182  0.027303194            2 
 1495000    1.0125916   -7.4059129    487.39292  0.027167944  0.027295429            1 
 1496000    1.0263983   -7.4064243     488.7749  0.027226766  0.027287684            5 
 1497000   0.98817428   -7.3981367    488.96999  0.027219438  0.027279911            2 
 1498000    1.0121839   -7.4067421    489.21615  0.027214961   0.02727219            1 
 1499000    1.0157796   -7.4368898    488.02894  0.027130806  0.027264477            2 
 1500000    1.0108736    -7.415211    489.85638  0.027214244  0.027256698            5 
 1501000   0.99357177   -7.3698415    490.98478   0.02725876  0.027248998            2 
 1502000   0.99589779   -7.4349341    488.61119  0.027108921  0.027241312            3 
 1503000   0.98784309   -7.4157018    490.27985  0.027183402  0.027233669            1 
 1504000    1.0123325   -7.4263102    489.74467  0.027135675  0.027226063            2 
 1505000    1.0002099    -7.476444    490.33703  0.027150445  0.027218421            2 
 1506000     1.016717   -7.4295994    490.99944   0.02716907  0.027210605            2 
 1507000    1.0054697   -7.4070423    491.61801  0.027185247  0.027202993            1 
 1508000     0.986316   -7.4513672    491.21967  0.027145207  0.027195235            2 
 1509000    1.0020706   -7.4436652    491.44987  0.027139931  0.027187441            1 
 1510000    1.0325189   -7.4128329    493.33172  0.027225812  0.027179785            2 
 1511000    1.0031168   -7.4679977    492.62651  0.027168901  0.027172152            1 
 1512000    1.0076984   -7.4487877    490.35978  0.027026002  0.027164455            2 
 1513000    1.0231144   -7.4747026    491.46777  0.027069166  0.027156691            1 
 1514000    1.0341571   -7.3927371    492.89488  0.027129837  0.027149137            1 
 1515000    1.0069699   -7.4331176    493.18579  0.027127931  0.027141508            1 
 1516000    1.0226253   -7.4506501    491.84441  0.027036302  0.027133984            1 
 1517000     0.994161   -7.4423953    492.10466  0.027032776  0.027126509            2 
 1518000   0.99492415   -7.4210846    494.51649   0.02714737  0.027118975            2 
 1519000    1.0109301   -7.4564696    493.45143  0.027071068  0.027111436            2 
 1520000    1.0251029   -7.4434227    493.68155  0.027065874  0.027103818            2 
 1521000     1.016426   -7.4157115    494.06251  0.027068952  0.027096176            2 
 1522000   0.98196783    -7.454339    493.63577  0.027027802  0.027088578            1 
 1523000    1.0108244   -7.4148508    495.36659   0.02710476  0.027080936            2 
 1524000    1.0230831   -7.4545045    494.21578  0.027024048  0.027073387            2 
 1525000    1.0095463   -7.4492162    495.11175  0.027055287  0.027065795            1 
 1526000   0.98595231   -7.4316532    495.53797  0.027060833  0.027058301            1 
 1527000     1.030807   -7.4361791     494.9963  0.027013551   0.02705065            2 
 1528000    1.0219529   -7.4664199    495.49475  0.027023056  0.027043032            1 
 1529000   0.97881193   -7.4362538    495.47535  0.027004325   0.02703543            3 
 1530000    1.0123388   -7.4390217    496.60934  0.027048439  0.027027788            2 
 1531000    1.0016561   -7.4618481    496.06385   0.02700108  0.027020224            1 
 1532000    1.0167441   -7.4387328    496.32801  0.026997825  0.027012655            1 
 1533000    1.0181428    -7.398735    496.95051  0.027014052  0.027005143            2 
 1534000    1.0105389   -7.4284463     495.9923  0.026944388  0.026997494            2 
 1535000   0.98947596   -7.4697377    495.04173  0.026875229  0.026989774            1 
 1536000    1.0041604   -7.4387165    496.31924  0.026927042  0.026981984            1 
 1537000    1.0177318   -7.4184959     497.9277  0.026996731  0.026974308            2 
 1538000   0.99619742   -7.4473526    497.92762  0.026979173   0.02696663            3 
 1539000    1.0065097   -7.4342124    497.11631  0.026917712  0.026959033            1 
 1540000    1.0258517   -7.4394137     496.8372   0.02688513  0.026951464            1 
 1541000   0.99429214   -7.4254591    497.41947  0.026899171  0.026943834            2 
 1542000    1.0203126   -7.4697171    496.50264  0.026832179  0.026936122            1 
 1543000   0.99925171   -7.4409113    497.64875  0.026876688  0.026928405            3 
 1544000    0.9980372    -7.469225      497.464  0.026849309  0.026920734            2 
 1545000    1.0028041   -7.4685264    498.30096  0.026877074  0.026913037            2 
 1546000    1.0071565   -7.4583723    498.88737  0.026891298  0.026905372            2 
 1547000   0.99843861   -7.4442339    497.77982  0.026814254  0.026897815            2 
 1548000    1.0149504   -7.4430517    498.13511  0.026816059  0.026890161            1 
 1549000    1.0012101   -7.4764877    498.32516  0.026808971  0.026882543            2 
 1550000   0.99412812   -7.4611024    499.08843  0.026832711  0.026874717            1 
 1551000    1.0089967   -7.4352546    499.67744  0.026847058  0.026867041            2 
 1552000   0.99357119   -7.4416233     499.6737  0.026829559  0.026859512            2 
 1553000    0.9957528   -7.4411981    499.51906  0.026803985  0.026852031            4 
 1554000    1.0242587   -7.4232256    499.79715  0.026801649  0.026844477            2 
 1555000    1.0066474    -7.449002    499.63683  0.026775822  0.026836987            2 
 1556000    1.0029513   -7.4549151    501.33806  0.026849725  0.026829569            2 
 1557000   0.99451017   -7.4629043     500.8428  0.026805973  0.026822049            4 
 1558000     1.004505    -7.488835     499.1576  0.026698631  0.026814498            2 
 1559000   0.99278059   -7.4606522     500.6075  0.026759007  0.026806773            2 
 1560000   0.97736256   -7.4236544    502.26648  0.026830474  0.026799074            1 
 1561000    1.0031903   -7.4561862    500.50224  0.026719103  0.026791434            3 
 1562000    1.0033104   -7.4277874    501.44327  0.026752202  0.026783757            3 
 1563000    1.0016536   -7.4559218    501.29394  0.026727124  0.026775979            3 
 1564000   0.99740029   -7.4708956    500.83823  0.026685754   0.02676835            2 
 1565000    1.0026591   -7.4437024    501.95804   0.02672833  0.026760768            2 
 1566000    1.0224522   -7.4603101    501.47217  0.026685407  0.026753228            2 
 1567000    0.9953772   -7.4734471    502.57408  0.026726977  0.026745578            1 
 1568000     1.008239   -7.4409142    502.05605  0.026682401  0.026737955            1 
 1569000    1.0117851   -7.4228202    504.17186  0.026777771  0.026730437            2 
 1570000    0.9822116   -7.4720794     502.4362  0.026668588   0.02672303            2 
 1571000   0.99137675   -7.4429515    504.91015  0.026782842  0.026715538            2 
 1572000    1.0059618   -7.4481795    502.75429  0.026651521   0.02670794            1 
 1573000   0.99663975   -7.4325351    502.77951  0.026635914   0.02670034            1 
 1574000    1.0098948    -7.447476    503.63526  0.026664298  0.026692792            2 
 1575000    1.0029266   -7.4786686    505.15366  0.026727707  0.026685288            3 
 1576000   0.99213707   -7.4384932    504.00505  0.026650013  0.026677822            2 
 1577000    1.0090103   -7.4329575    505.81832  0.026728932  0.026670381            1 
 1578000     1.020927   -7.4489131    505.06721  0.026672329   0.02666294            2 
 1579000    1.0075672   -7.5225826    503.75672  0.026586274  0.026655436            2 
 1580000   0.99089073   -7.4668934    506.27793  0.026702423  0.026647852            2 
 1581000   0.99247925   -7.4770049    505.17264  0.026627274   0.02664043            1 
 1582000    1.0378168   -7.4820644    504.50143  0.026575086  0.026632971            1 
 1583000   0.99466531   -7.4544611    505.26226   0.02659835  0.026625463            1 
 1584000    1.0165271   -7.4593398    506.50151  0.026646754  0.026618017            2 
 1585000    1.0152326    -7.434872    507.24185  0.026668867  0.026610592            2 
 1586000    1.0085527   -7.4424373    506.48097  0.026612073  0.026603181            1 
 1587000   0.98326546   -7.4614905    506.44366  0.026593345   0.02659569            2 
 1588000      1.02215   -7.4462559    507.08875  0.026610451  0.026588225            2 
 1589000    1.0083084   -7.4355725    507.48275  0.026614367  0.026580774            2 
 1590000     1.019219   -7.4985251    507.17448  0.026581472  0.026573263            2 
 1591000   0.98235226   -7.4516378    507.46241  0.026579845  0.026565831            2 
 1592000   0.99011205   -7.4930737    508.37691  0.026611019  0.026558482            2 
 1593000    0.9941133   -7.4377039    509.79451  0.026668472  0.026551096            1 
 1594000    1.0074687   -7.4391591    508.44818  0.026581356  0.026543681            2 
 1595000   0.98015118   -7.4832032    508.43334  0.026563916  0.026536304            1 
 1596000   0.99057489   -7.4545833    509.17801  0.026586153  0.026528952            2 
 1597000   0.98986836   -7.4629537    509.36576  0.026579303  0.026521592            4 
 1598000   0.99470869   -7.5164501    509.40762  0.026564853  0.026514157            3 
 1599000   0.98470447   -7.4610259    507.93775  0.026471636  0.026506587            2 
 1600000   0.99285884   -7.4194375     511.0523  0.026617307  0.026499127            3 
 1601000   0.95818419   -7.4702201    508.13945  0.026449066  0.026491668            1 
 1602000     0.986919   -7.4667922     508.4934  0.026450967  0.026484199            2 
 1603000   0.98425571   -7.4735731    509.20677  0.026471552  0.026476728            2 
 1604000     1.011343     -7.46504    510.83591  0.026539688  0.026469288            2 
 1605000   0.98775128   -7.5115189    508.70745   0.02641264  0.026461902            3 
 1606000   0.97348473    -7.476613    509.30791  0.026427351  0.026454378            2 
 1607000   0.99267671   -7.4570084     509.2659  0.026408727  0.026446899            2 
 1608000    1.0117131   -7.4556627    509.05706  0.026381481  0.026439217            3 
 1609000   0.97906998   -7.4709923     510.5967  0.026444826  0.026431662            1 
 1610000   0.98197935   -7.4767069     510.2122  0.026408499  0.026424181            2 
 1611000    0.9871348   -7.4743208    511.14944  0.026440587  0.026416685            2 
 1612000    1.0062885   -7.4453437    512.04287  0.026470372  0.026409273            4 
 1613000    0.9833236   -7.4604785    512.29123  0.026466792  0.026401849            1 
 1614000    1.0015246   -7.4446326    511.60956  0.026415198  0.026394301            1 
 1615000   0.99252921   -7.4495412    512.14497  0.026426469  0.026386981            4 
 1616000   0.97973917   -7.4604318    511.83965  0.026394371   0.02637965            6 
 1617000    1.0026068    -7.484418    511.55305  0.026363278  0.026372333            2 
 1618000   0.99370486    -7.475067    513.21396  0.026432528  0.026364937            1 
 1619000   0.99451193   -7.4793928    510.93613  0.026298957  0.026357532            1 
 1620000   0.98148441   -7.4675103    513.13008   0.02639558  0.026350208            1 
 1621000   0.98717241   -7.4885838     512.5659  0.026350293  0.026342865            1 
 1622000    1.0012249   -7.4664335     512.8634  0.026349332  0.026335437            3 
 1623000   0.97998156   -7.4767924    515.49303  0.026468116  0.026328103            2 
 1624000   0.98666582   -7.4969498    512.22721  0.026284237  0.026320587            3 
 1625000   0.97737489   -7.4924442    513.33214  0.026324725  0.026313035            2 
 1626000   0.99667713   -7.4899033    514.34995  0.026360699  0.026305592            4 
 1627000   0.99715182   -7.4901996    515.06366  0.026381052  0.026298091            4 
 1628000   0.98950332   -7.4637657    515.24936  0.026374353  0.026290666            2 
 1629000   0.99963524   -7.4841652    513.98581  0.026293524  0.026283338            2 
 1630000   0.97737119   -7.4890051    515.44977  0.026352238  0.026275956            1 
 1631000     0.995489   -7.4843134    513.30046  0.026226265  0.026268549            2 
 1632000    1.0134807    -7.484209    514.26823  0.026259612  0.026261152            3 
 1633000   0.99121288    -7.482842     515.8445  0.026323969  0.026253801            2 
 1634000   0.99391006    -7.476318     516.1909  0.026325525  0.026246492            2 
 1635000   0.98928628   -7.4863761    514.25827  0.026210921  0.026239019            2 
 1636000   0.98547451   -7.5029306    516.17992  0.026292783  0.026231635            2 
 1637000   0.99015591   -7.5133603    514.59277  0.026195926  0.026224225            1 
 1638000   0.99824449   -7.4475906    516.66769  0.026285495  0.026216784            1 
 1639000   0.98658382   -7.4608488    516.78302  0.026275321  0.026209532            2 
 1640000   0.97183046   -7.4819435    517.60081  0.026300854  0.026202205            5 
 1641000   0.99597179   -7.4751464    515.42087  0.026174125  0.026194932            1 
 1642000   0.98987472   -7.4906959    518.06155  0.026292202  0.026187656            2 
 1643000   0.97516042   -7.4662189    519.01107  0.026324359  0.026180439            3 
 1644000   0.99463106   -7.5099394    515.30301  0.026120388  0.026173134            2 
 1645000   0.98654709   -7.4854385    516.96549  0.026188728  0.026165652            2 
 1646000   0.99870089   -7.4731133     517.3613  0.026192856  0.026158398            1 
 1647000   0.96081363    -7.485542    517.47124  0.026182516  0.026151185            1 
 1648000   0.98524331   -7.4843339    519.25724   0.02625694  0.026143915            2 
 1649000     0.982826   -7.4731242    519.08354  0.026232239  0.026136592            2 
 1650000    1.0058912   -7.4729801    517.23382   0.02612292  0.026129157            1 
 1651000    1.0009502   -7.4716274    517.66898  0.026129062  0.026121767            2 
 1652000    0.9597885   -7.4993307    517.85631  0.026122695  0.026114291            2 
 1653000   0.98371933    -7.473753    518.17088  0.026122751  0.026106967            2 
 1654000   0.98932613   -7.4876868    519.64947  0.026181453   0.02609976            3 
 1655000   0.99344467   -7.4808655    520.24235  0.026195486  0.026092562            1 
 1656000   0.98370201   -7.4788819    520.89174  0.026212346  0.026085351            2 
 1657000   0.99687882   -7.5042194    519.74121  0.026138665  0.026078029            2 
 1658000   0.98387905   -7.5150503    518.98858  0.026085071  0.026070596            1 
 1659000    1.0040739   -7.5088883    518.91376   0.02606559   0.02606318            1 
 1660000     0.993886   -7.4849069    521.11926  0.026160605  0.026055798            4 
 1661000   0.95879005   -7.5017141    519.40206  0.026058703  0.026048463            1 
 1662000   0.97403706   -7.4810149    520.76882  0.026111553  0.026041202            1 
 1663000   0.97748707   -7.4625398    520.22017  0.026068359  0.026034028           10 
 1664000    0.9785744   -7.5170344     520.6899  0.026076217  0.026026859            1 
 1665000   0.98932921   -7.4696863    520.62659  0.026057387  0.026019646            2 
 1666000    0.9878341   -7.4861327    521.25037  0.026072947  0.026012455            2 
 1667000    1.0051442   -7.4581029    523.19084  0.026154311  0.026005333            2 
 1668000    1.0060266   -7.4978686    521.83733  0.026071009  0.025998274            1 
 1669000   0.99168028   -7.4711468    522.74196  0.026100557  0.025991029            3 
 1670000   0.96594237   -7.4726673    520.53571  0.025974836  0.025983851            1 
 1671000   0.98423959   -7.4868563    522.25897  0.026045231  0.025976655            2 
 1672000   0.99636419   -7.4786548     522.3789  0.026035631  0.025969308            1 
 1673000   0.97802986   -7.4553571    523.30777  0.026066336  0.025962129            1 
 1674000   0.99116329   -7.5259287    523.19769  0.026045285  0.025954908            3 
 1675000   0.96337104    -7.506239    521.91603  0.025965972  0.025947625            1 
 1676000   0.98464106   -7.5000907    523.24856  0.026016734  0.025940326            2 
 1677000   0.98948452   -7.5236996    522.49256  0.025963653  0.025933023            1 
 1678000   0.99459675   -7.4623191    523.45007  0.025995732  0.025925838            1 
 1679000    1.0053941   -7.4937643    523.58218  0.025986807  0.025918538            1 
 1680000   0.98678895   -7.5045264    523.61861  0.025973146   0.02591121            1 
 1681000    0.9842568   -7.4970748    522.10671  0.025882744  0.025903883            1 
 1682000   0.99647423   -7.4727386    525.23227  0.026022209  0.025896668            1 
 1683000   0.94879844   -7.5316382    524.65886  0.025978355  0.025889442            3 
 1684000    1.0067125   -7.5234454    525.17722   0.02598858  0.025882139            1 
 1685000   0.97054614   -7.4981952    524.78847   0.02595393  0.025874873            2 
 1686000   0.96936534   -7.4909598    525.06637  0.025952272  0.025867716            6 
 1687000   0.94972921   -7.4977711    525.64288  0.025965367  0.025860593            2 
 1688000   0.97055496   -7.4885591     525.6942  0.025952518  0.025853401            4 
 1689000     0.971773   -7.4865967    525.82383  0.025943548  0.025846226            2 
 1690000   0.98899434   -7.5081779    525.26563  0.025900672  0.025839025            3 
 1691000   0.97642664   -7.5185147    526.03976  0.025923505  0.025831853            3 
 1692000   0.97642662   -7.5180444    525.01707  0.025857815  0.025824621            2 
 1693000   0.99109843   -7.4726328    526.37694  0.025909477  0.025817549            2 
 1694000   0.99193668   -7.5036835    526.10032  0.025880574  0.025810371            2 
 1695000   0.97025752   -7.5105118    526.86485  0.025902893  0.025803245            3 
 1696000   0.96320569    -7.507971    527.36058  0.025911978  0.025796165            4 
 1697000   0.97918081   -7.4999198    528.05877  0.025930994  0.025789112            2 
 1698000   0.96590531   -7.5358666    525.93067  0.025811282  0.025781952            2 
 1699000   0.96723776   -7.5330967    526.55444  0.025826684  0.025774646            2 
 1700000   0.97307312   -7.5273253     527.7291  0.025869074  0.025767554            2 
 1701000   0.97763506   -7.4940551    529.29444  0.025930553  0.025760319            1 
 1702000   0.95287174   -7.5321013    527.51437  0.025828161   0.02575302            2 
 1703000   0.97071982   -7.4768558    528.61602  0.025866903  0.025745802            2 
 1704000    1.0011703   -7.5122359    529.02123  0.025871539  0.025738693            1 
 1705000   0.98128411   -7.5138219    528.29541   0.02582089  0.025731487            5 
 1706000    1.0010292   -7.5239457     527.3937  0.025761709  0.025724235            2 
 1707000   0.98742218   -7.4802437    529.44157  0.025846591   0.02571708            3 
 1708000   0.97018219   -7.4909401    529.69424  0.025843786  0.025709919            2 
 1709000   0.98631257   -7.4963886     529.3633  0.025812527  0.025702697            1 
 1710000   0.97311336   -7.5012377    530.40486   0.02584819   0.02569555            4 
 1711000    0.9506002   -7.4681306    530.56675  0.025840968   0.02568838            3 
 1712000   0.98986861   -7.4994046     529.9804  0.025797333  0.025681213            2 
 1713000   0.98604928   -7.5296309    529.55414  0.025761536  0.025673943            1 
 1714000   0.94951093   -7.5026357    528.84083  0.025711826  0.025666708            1 
 1715000   0.94458236   -7.4836173    529.34824  0.025721489   0.02565949            2 
 1716000    0.9967108   -7.4929561    531.48335  0.025810186  0.025652291            3 
 1717000   0.96990915   -7.5178653    531.25589  0.025784114   0.02564519            2 
 1718000   0.96027224   -7.4700237    531.33554   0.02577297  0.025638008            1 
 1719000   0.98571339    -7.531938    529.62068  0.025674844  0.025630716            3 
 1720000   0.95809637   -7.5286438    529.34342  0.025646484  0.025623429            2 
 1721000   0.95472225   -7.4973554    531.57395  0.025739587  0.025616176            2 
 1722000   0.95811836   -7.5358216     529.9117  0.025644198  0.025608928            1 
 1723000   0.97980485   -7.4962796    530.95546  0.025679796  0.025601751            1 
 1724000   0.98157679   -7.5284015    530.12111   0.02562457  0.025594502            2 
 1725000   0.97732124   -7.4941488    533.50517  0.025773196   0.02558727            1 
 1726000   0.96647647   -7.5324447    530.89954  0.025632461  0.025580061            3 
 1727000   0.98131354   -7.4954568    531.80467  0.025661295  0.025572923            1 
 1728000   0.99237253   -7.4635194    532.51929  0.025680907  0.025565756            1 
 1729000   0.96474837    -7.499649    532.08369  0.025645059   0.02555868            4 
 1730000   0.99296609    -7.527505    532.14618  0.025633246  0.025551383            3 
 1731000   0.98950842   -7.4787541    531.95665  0.025609313   0.02554415            1 
 1732000    0.9961567   -7.5315279    530.62506  0.025530459   0.02553688            1 
 1733000    0.9770854   -7.5396618    532.47936  0.025604893   0.02552968            1 
 1734000   0.96100001   -7.5054587    531.61115  0.025548402  0.025522422            1 
 1735000   0.99363317    -7.538056    531.19942  0.025513901  0.025515214            2 
 1736000   0.97120916   -7.5309709    532.56485  0.025564749   0.02550789            1 
 1737000   0.96014088   -7.5266727    531.92861  0.025519507  0.025500634            1 
 1738000    1.0022641   -7.5144071    532.96412  0.025554475  0.025493445            2 
 1739000   0.97293142   -7.5176241    533.39703  0.025560525  0.025486249            2 
 1740000   0.97186011   -7.4542656    533.55659  0.025553477  0.025479135            1 
 1741000   0.97931357   -7.4878967    533.99138   0.02555961  0.025471914            2 
 1742000   0.96835606   -7.5195091    534.53634  0.025571007  0.025464802            1 
 1743000   0.97019991   -7.4731913    535.24756   0.02559034  0.025457672            1 
 1744000    0.9902306   -7.5198434    534.50723  0.025540292  0.025450596            3 
 1745000   0.95655749   -7.5299265     535.0892  0.025553448  0.025443456            2 
 1746000   0.96249808   -7.4939622    535.28939  0.025548367   0.02543633            1 
 1747000   0.97156663   -7.5531508    534.25631  0.025484464  0.025429162            1 
 1748000   0.96663404   -7.5211929    535.33089  0.025521114  0.025421926            1 
 1749000   0.97464607   -7.5375136    535.49689  0.025514431  0.025414754            1 
 1750000   0.96514292   -7.5127149    536.65508  0.025555004  0.025407767            2 
 1751000    0.9776562   -7.5365143    537.03407  0.025558446  0.025400762            1 
 1752000   0.96201495   -7.5179519    536.52931  0.025519849  0.025393703            1 
 1753000   0.93445362   -7.5358402    536.96194  0.025525858  0.025386676            2 
 1754000   0.97473287   -7.5046877    537.10587  0.025518143  0.025379649            2 
 1755000   0.95594196   -7.5252402    537.18994  0.025507594  0.025372606            1 
 1756000   0.96197653   -7.5917032    536.55931  0.025463141  0.025365513            2 
 1757000   0.97560501   -7.5278255    537.37747  0.025487454  0.025358407            3 
 1758000   0.98001308   -7.5404443     538.1994  0.025511917  0.025351365            2 
 1759000   0.96603803    -7.553192    536.88031  0.025434921  0.025344254            1 
 1760000   0.99139143   -7.5532654    538.66981  0.025505199   0.02533726            3 
 1761000   0.95203577   -7.4876556    539.20414  0.025516002   0.02533039            2 
 1762000   0.96302111   -7.5177868    539.89505  0.025534197   0.02532344            1 
 1763000   0.96592959   -7.5200826    539.36812  0.025494806  0.025316549            2 
 1764000    0.9865935   -7.5806852    536.89087  0.025363325   0.02530956            3 
 1765000   0.98456995   -7.5054069    540.91811  0.025539099  0.025302642            1 
 1766000   0.95339621   -7.5331595    538.58821  0.025414695  0.025295796            4 
 1767000   0.97497131   -7.5273545    538.91526  0.025415736  0.025289016            2 
 1768000   0.97891496   -7.5030378     541.0818  0.025503479  0.025282209            2 
 1769000   0.98507573   -7.4986868    541.85726  0.025525592  0.025275465            2 
 1770000   0.98952662   -7.5368172    541.11194   0.02547608  0.025268692            1 
 1771000   0.95493963   -7.5341983     541.0458  0.025458583  0.025261826            2 
 1772000   0.96328791   -7.5660561    539.95946  0.025393127  0.025254908            1 
 1773000   0.96497044   -7.5397618    540.22593   0.02539133  0.025247949            3 
 1774000    0.9752294   -7.5157456    541.69008  0.025445795  0.025240982            2 
 1775000   0.97955157   -7.4767218    541.06219  0.025401981  0.025234054            3 
 1776000   0.93913272   -7.5402292    540.67073   0.02536931   0.02522708            2 
 1777000   0.97596181   -7.5279818     540.3202  0.025338595  0.025220136            2 
 1778000   0.97151566   -7.5147133    542.90346  0.025445419  0.025213215            5 
 1779000   0.96427925   -7.5161417    542.16286  0.025396424  0.025206293            1 
 1780000   0.96384586   -7.5720102    540.17298  0.025288997  0.025199244            2 
 1781000   0.95346518   -7.5185335    540.97795  0.025312463  0.025192291            2 
 1782000   0.96611331    -7.551353    542.44262  0.025366752  0.025185357            2 
 1783000    0.9556439   -7.5249053    542.23487  0.025342815  0.025178355            5 
 1784000   0.95460931   -7.4948162    541.11358  0.025276232  0.025171386            2 
 1785000    0.9537544   -7.5484551    542.72704  0.025337397   0.02516442            1 
 1786000   0.95823272   -7.5432878    541.62638  0.025271854  0.025157483            5 
 1787000   0.95784711   -7.5094253    543.35382  0.025338268   0.02515055            1 
 1788000   0.99428373   -7.5592156      541.575  0.025241191  0.025143583            2 
 1789000   0.96356186   -7.5563468    542.00304  0.025247021  0.025136521            1 
 1790000   0.98364317   -7.5466483    543.34786  0.025295524  0.025129518            2 
 1791000   0.98134774   -7.5221515    544.27744  0.025324653  0.025122564            1 
 1792000    0.9873669   -7.5445592    543.63031  0.025280427  0.025115605            3 
 1793000   0.97926914   -7.5376407    543.92905  0.025280212  0.025108599            3 
 1794000   0.95232535     -7.52111    542.51405  0.025200392  0.025101657            1 
 1795000   0.97294612    -7.572401    543.08658  0.025212933  0.025094646            1 
 1796000   0.96840971   -7.5872114    542.62988  0.025177704  0.025087581            1 
 1797000   0.96788966   -7.5136533    544.05105  0.025229598  0.025080571            2 
 1798000   0.96591874   -7.5201574    544.11306   0.02521844  0.025073633            1 
 1799000    0.9880968   -7.5320458      544.665  0.025229989  0.025066678            2 
 1800000   0.96853572   -7.5336863    543.56772  0.025165172  0.025059685            2 
 1801000    0.9534174   -7.5322017    545.87856  0.025258123   0.02505274            5 
 1802000   0.95734913   -7.5370003     544.9661   0.02520191  0.025045794            3 
 1803000   0.95725421   -7.5619073    543.77251  0.025132765  0.025038825            2 
 1804000   0.95063209   -7.5716407    544.63073  0.025158478   0.02503181            1 
 1805000   0.95714101   -7.5409337    545.72808  0.025195202  0.025024878            1 
 1806000   0.95699901   -7.5162652    546.71112  0.025226611  0.025018022            1 
 1807000   0.94768537   -7.5373021    545.99136  0.025179458  0.025011143            2 
 1808000   0.97402481    -7.545296    546.54791  0.025191183  0.025004219            2 
 1809000   0.96904892   -7.5371596    545.84778  0.025145005  0.024997344            2 
 1810000   0.95260963    -7.574704    546.59557  0.025165542  0.024990457            2 
 1811000   0.96998072   -7.5833775    545.38632  0.025096002  0.024983532            2 
 1812000    0.9542165   -7.5413498    547.61235  0.025184527  0.024976671            2 
 1813000     0.983924   -7.5524354    546.89553  0.025137688  0.024969759            1 
 1814000   0.96857834   -7.5602513    547.29104  0.025141999  0.024962815            2 
 1815000   0.93931738   -7.5289532    547.05259  0.025117199  0.024955855            3 
 1816000   0.95160686   -7.5776613      546.138  0.025061398  0.024948965            2 
 1817000   0.94137899     -7.54527    545.97898  0.025040313  0.024942053            2 
 1818000   0.97259238   -7.5366293    547.98162  0.025118336  0.024935169            2 
 1819000   0.96889114   -7.5455182     547.7572  0.025094246  0.024928289            4 
 1820000    0.9532406   -7.5375639    548.00691  0.025091892  0.024921407            3 
 1821000   0.96061062   -7.5686768    548.87037  0.025117626  0.024914427            2 
 1822000   0.96497487   -7.5438849    548.57446  0.025090306  0.024907548            1 
 1823000   0.97355484   -7.5206977    548.47077  0.025071804  0.024900641            2 
 1824000   0.97300321   -7.6060383    547.20141  0.025000064  0.024893708            3 
 1825000   0.95644729   -7.5728495    549.05511  0.025071009  0.024886824            2 
 1826000    0.9609964   -7.5526169    548.09699  0.025013554   0.02487996            2 
 1827000   0.96191786   -7.5533409    550.33341  0.025101871  0.024873038            3 
 1828000   0.95608169   -7.5748002    549.56466  0.025053094  0.024866102            2 
 1829000   0.94210643   -7.5208169    550.29162  0.025072518  0.024859212            1 
 1830000   0.96071062   -7.5449352    550.01452  0.025046199  0.024852412            1 
 1831000   0.94530334   -7.5262539    550.69143  0.025063327  0.024845672            3 
 1832000   0.96727044   -7.4952656    552.09937  0.025113691  0.024839006            2 
 1833000   0.95901207   -7.5763915    551.70029  0.025081846  0.024832298            3 
 1834000    0.9567056   -7.5555838    551.87065  0.025075911   0.02482556            3 
 1835000   0.93369636   -7.5696013    552.49206  0.025090466  0.024818832            2 
 1836000   0.96968003   -7.5249147    551.99719  0.025054339  0.024812134            1 
 1837000   0.97838578   -7.5435273    552.44262  0.025060906  0.024805366            1 
 1838000   0.96810309    -7.565067    551.88971  0.025022203  0.024798592            1 
 1839000   0.95222586   -7.5427523    551.93472  0.025010636  0.024791845            1 
 1840000   0.98310565   -7.5346246    550.91687  0.024950945  0.024785028            4 
 1841000   0.95704801   -7.5476507    551.84298  0.024979313  0.024778261            5 
 1842000   0.93744012   -7.5598288    551.64186  0.024956653  0.024771523            1 
 1843000   0.96159009   -7.5499112      552.628  0.024987701  0.024764716            2 
 1844000    0.9631269   -7.5892199    550.23014  0.024865787  0.024757864            1 
 1845000   0.95856391   -7.5638314    552.95182   0.02497524  0.024751013            2 
 1846000   0.95701399   -7.5341614    551.55967  0.024898866  0.024744197            3 
 1847000   0.96716381   -7.5649894    551.91495  0.024901415   0.02473741            3 
 1848000   0.95818173   -7.5476538    552.74447  0.024925346   0.02473064            2 
 1849000   0.94816881   -7.5626919     552.8436  0.024916333  0.024723893            3 
 1850000   0.95727077    -7.526148    553.74453  0.024943447  0.024717228            2 
 1851000   0.95095289    -7.552856    554.46458  0.024962389  0.024710596            2 
 1852000   0.97553617   -7.5185104    555.09253  0.024977166  0.024703918            1 
 1853000   0.94990308   -7.5322344    555.30579  0.024973277  0.024697282            1 
 1854000     0.928604   -7.5608509    554.14344  0.024907562   0.02469057            2 
 1855000   0.97755941   -7.5684764    553.45866  0.024863372   0.02468386            2 
 1856000   0.95514409   -7.5898918    553.97036  0.024872951  0.024677139            3 
 1857000   0.95057259    -7.585795    554.53591  0.024884936  0.024670393            3 
 1858000    0.9626783   -7.5561615    554.83521  0.024884966  0.024663573            5 
 1859000   0.95610379   -7.5815886    555.59585  0.024905678    0.0246568            2 
 1860000   0.94564692   -7.5532694    554.66757  0.024850698  0.024650168            2 
 1861000   0.96792657   -7.5949482    555.75395  0.024885991  0.024643462            3 
 1862000   0.97199549   -7.5362854    558.06681  0.024976137  0.024636754            1 
 1863000   0.94708567    -7.595552    554.78578  0.024815968  0.024630068            2 
 1864000   0.95956641   -7.5621803     556.9331  0.024898654  0.024623336            2 
 1865000   0.94819827   -7.5576397    556.33115  0.024858407  0.024616638            1 
 1866000   0.97963253   -7.5792298    556.04094  0.024832125  0.024609933            2 
 1867000   0.95253878   -7.5438067    557.05907  0.024864268  0.024603282            3 
 1868000   0.95736157   -7.5781159    557.35483  0.024864152  0.024596671            2 
 1869000   0.94633047   -7.5276755    558.36031   0.02489568  0.024590021            2 
 1870000   0.97045332   -7.5979323    557.22273  0.024831673  0.024583494            3 
 1871000   0.95282861   -7.5677709    558.08224  0.024856683  0.024576836            5 
 1872000   0.94888448   -7.5751957     557.9019  0.024835377  0.024570131            3 
 1873000   0.93509275   -7.5584603     557.5362  0.024805846  0.024563409            2 
 1874000   0.94728048   -7.5871225    557.67561  0.024798809  0.024556716            3 
 1875000   0.95319998   -7.5583001    556.96236  0.024753883  0.024549968            2 
 1876000   0.94456615   -7.5672235    556.71319  0.024729619  0.024543232            2 
 1877000   0.96416903   -7.5937118     557.4045  0.024747137  0.024536547            3 
 1878000   0.95213181   -7.5743389    557.90079  0.024755981  0.024529805            2 
 1879000   0.95227224   -7.5514908    559.29029   0.02480443  0.024523123            1 
 1880000   0.94113976   -7.5646574    557.74967  0.024722946  0.024516492            3 
 1881000   0.95655515   -7.5610528    558.39271  0.024738291  0.024509829            1 
 1882000   0.96278233   -7.5415607    560.22698  0.024806366  0.024503201            2 
 1883000   0.98057604   -7.5246216    559.65182  0.024767739   0.02449658            2 
 1884000   0.93915828   -7.5937681     557.7982  0.024672603  0.024489866            2 
 1885000    0.9515389   -7.5559866    558.54538  0.024692546  0.024483142            1 
 1886000   0.96309838   -7.5859821    558.65332  0.024684222  0.024476419            2 
 1887000   0.95948202   -7.5822494    559.59433  0.024712698  0.024469677            3 
 1888000   0.94534111   -7.5479693    558.62278  0.024656726  0.024462959            2 
 1889000   0.93433133   -7.5343303    558.89662  0.024655753  0.024456184            2 
 1890000    0.9618463   -7.5909958    558.66482  0.024632488  0.024449435            1 
 1891000   0.95699438   -7.5720988    559.10385  0.024638809  0.024442621            2 
 1892000   0.93175289   -7.5957417    558.86561  0.024615293  0.024435816            3 
 1893000   0.95812979   -7.5717826    560.18668  0.024660445  0.024429027            2 
 1894000    0.9268465   -7.5637221    559.90119  0.024634864  0.024422277            1 
 1895000   0.95787766   -7.6084873    558.77835  0.024572487  0.024415553            3 
 1896000   0.93922726   -7.5740687    561.01804  0.024657966  0.024408786            1 
 1897000   0.94479805   -7.5667202     561.6419  0.024672373  0.024401908            1 
 1898000   0.94733008   -7.5812014    559.70234  0.024574216  0.024395041            1 
 1899000   0.94429322   -7.5816892    560.87764  0.024612851  0.024388162            2 
 1900000   0.95406429   -7.5775287    560.48561  0.024582702  0.024381293            3 
 1901000   0.93853023   -7.5883807    560.42832  0.024567259  0.024374492            1 
 1902000   0.96271964   -7.5865357    558.43585  0.024467045  0.024367745            4 
 1903000   0.91563128   -7.5972743    560.58548  0.024548322  0.024360921            2 
 1904000   0.96282455   -7.5980295      559.133  0.024471857  0.024353969            2 
 1905000   0.93090758   -7.5487502    559.64568  0.024481438  0.024347095            2 
 1906000    0.9474675   -7.5828654    560.28018  0.024496335  0.024340197            2 
 1907000   0.94898714   -7.5887761    561.35017  0.024530247  0.024333249            3 
 1908000   0.93537399   -7.5450523    562.34422  0.024560806  0.024326431            2 
 1909000   0.93788621   -7.5997822    559.97986  0.024444729  0.024319619            1 
 1910000   0.92864561   -7.5792371    562.09616  0.024524265  0.024312771            2 
 1911000   0.95204846    -7.559366    561.83519  0.024500052  0.024305943            3 
 1912000   0.95627756   -7.5933277    560.92689   0.02444765  0.024299054            4 
 1913000   0.96347593   -7.6161888    561.65422  0.024466554  0.024292162            1 
 1914000   0.94734754   -7.5635668    562.24744    0.0244796  0.024285377            3 
 1915000     0.950624   -7.6074042    560.95125  0.024410411   0.02427854            2 
 1916000   0.95192291   -7.5715616    561.70331  0.024430381  0.024271696            4 
 1917000    0.9528579   -7.6169544    562.06994  0.024433574  0.024264843            2 
 1918000   0.92812578   -7.6001083    562.42277  0.024436165   0.02425802            5 
 1919000    0.9338378   -7.5960201    563.17981  0.024456306  0.024251199            2 
 1920000   0.95817321   -7.5813263    562.23443  0.024402536  0.024244349            1 
 1921000   0.96508759   -7.5941429    563.22289  0.024432713  0.024237526            3 
 1922000   0.94932071   -7.5921536    563.49882  0.024431964  0.024230773            1 
 1923000   0.91866576     -7.60935    563.73567  0.024429523  0.024223986            2 
 1924000   0.94368173   -7.6142227    563.43234  0.024403687   0.02421722            2 
 1925000   0.94177833   -7.5869462    562.39362  0.024346044  0.024210471            2 
 1926000   0.94481123   -7.5756366    565.23021  0.024456136  0.024203635            4 
 1927000   0.93611713   -7.5720797    564.75347  0.024422828  0.024196909            2 
 1928000   0.93854285    -7.618556    563.46061   0.02435428  0.024190112            2 
 1929000   0.93757181   -7.5856304    566.35073  0.024466508  0.024183296            3 
 1930000   0.95642123   -7.6107284    565.36639   0.02441133  0.024176544            1 
 1931000   0.95204962   -7.5715205     565.2863  0.024395231  0.024169723            1 
 1932000   0.94930859   -7.6159714    563.80369  0.024318655  0.024162918            2 
 1933000   0.93469276   -7.5791616    565.15426  0.024364298  0.024156103            1 
 1934000   0.91995657   -7.5997961    565.40761  0.024362617  0.024149344            2 
 1935000    0.9315113    -7.587991    564.77975  0.024322987  0.024142564            1 
 1936000   0.93487964   -7.6109707    564.87815  0.024314659  0.024135681            2 
 1937000   0.94281729   -7.6410805    564.07287  0.024267461  0.024128834            2 
 1938000   0.95885617   -7.5633994      566.075   0.02434103  0.024121994            1 
 1939000   0.94078428   -7.6022188    565.46228  0.024302144  0.024115175            1 
 1940000   0.94394935   -7.5969172    564.54735  0.024250316  0.024108389            3 
 1941000   0.93795058   -7.5780986    564.82084  0.024249564  0.024101598            2 
 1942000    0.9562517   -7.5893587    566.66509  0.024316216  0.024094795            1 
 1943000   0.92791082   -7.6251646    565.18158  0.024240074  0.024087997            1 
 1944000   0.96064929   -7.5748852    565.00908  0.024220211  0.024081193            1 
 1945000    0.9461556   -7.5771508    567.05435  0.024295388   0.02407444            3 
 1946000   0.95574274   -7.5931639    567.14523  0.024286795  0.024067606            1 
 1947000   0.93572461   -7.5682435     567.2829  0.024280213  0.024060845            1 
 1948000   0.94730226   -7.6454814    565.88596  0.024207989  0.024054108            2 
 1949000   0.96494945   -7.5811173    568.89411  0.024324188  0.024047386            1 
 1950000   0.92802836   -7.5653674    568.27917  0.024285435  0.024040775            2 
 1951000   0.93238279   -7.6165703    566.53237  0.024198376  0.024034084            1 
 1952000   0.91913487   -7.6080561    567.24521  0.024216411  0.024027355            2 
 1953000   0.94281666   -7.6183171      567.416  0.024211299  0.024020624            1 
 1954000   0.94232774   -7.6311907    569.24315  0.024276832  0.024013957            1 
 1955000   0.94514069    -7.591596    567.70644   0.02419891    0.0240073            3 
 1956000   0.93668653   -7.6334591    568.44894  0.024218172  0.024000685            1 
 1957000   0.91759546   -7.6165105    566.77571  0.024134547  0.023993973            2 
 1958000   0.92763947   -7.6664257    566.98099  0.024130958  0.023987224            1 
 1959000   0.95228206    -7.598862    568.00535  0.024162215  0.023980499            5 
 1960000   0.91387512   -7.6078028    569.23239  0.024202057  0.023973851            1 
 1961000   0.91951476   -7.5688538    570.32224  0.024236029  0.023967236            1 
 1962000   0.93651198   -7.6261187    569.23338  0.024177429  0.023960625            2 
 1963000   0.94878978   -7.5742591    569.77164  0.024187962  0.023953977            3 
 1964000    0.9364703   -7.6270405    567.72568  0.024088836  0.023947286            1 
 1965000   0.94259912   -7.6323171    570.24007  0.024183209  0.023940562            1 
 1966000   0.94535883   -7.6363809    569.79577  0.024152076  0.023933913            2 
 1967000   0.92236279   -7.6005342    570.29989  0.024161154  0.023927274            1 
 1968000   0.93239988   -7.5961599    571.09572  0.024182576  0.023920601            2 
 1969000   0.95141609   -7.6190713     570.9046  0.024162206  0.023913956            1 
 1970000   0.93089868   -7.6078835    571.09206  0.024157871  0.023907311            9 
 1971000   0.93632436   -7.5932679    571.79558  0.024175358  0.023900688            3 
 1972000   0.93199019     -7.61582     570.9223  0.024126196  0.023894171            2 
 1973000   0.92353689   -7.5968274    571.79346  0.024150763  0.023887602            2 
 1974000   0.92707591   -7.5557145     571.4903   0.02412573  0.023881086            1 
 1975000   0.94637441   -7.5815734    573.23726  0.024187226  0.023874611            6 
 1976000   0.93497357   -7.5962984    571.54504   0.02410362  0.023868089            2 
 1977000   0.92674974     -7.60047    573.66604  0.024180831  0.023861563            3 
 1978000   0.94137567   -7.6450773    571.65105  0.024083715  0.023855027            2 
 1979000   0.92629683   -7.6053608    573.71253  0.024158351  0.023848489            1 
 1980000   0.94349971   -7.5987956    572.52749  0.024096275  0.023841924            3 
 1981000   0.94373895   -7.6417763    574.22086  0.024155345  0.023835393            1 
 1982000   0.92117134   -7.6465959    572.52656  0.024071921  0.023828771            2 
 1983000   0.91774965   -7.5903266    573.41364   0.02409706   0.02382212            5 
 1984000   0.93069637   -7.6114689    572.80355  0.024059289  0.023815423            3 
 1985000    0.9378233   -7.6131618    573.30065  0.024068037  0.023808754            1 
 1986000    0.9407766   -7.6098271    573.58667   0.02406792  0.023802118            1 
 1987000   0.94544084   -7.6113521    573.04695  0.024033172  0.023795564            1 
 1988000   0.94099329   -7.6189781    573.20445  0.024027685  0.023788928            3 
 1989000   0.93222197   -7.5969053     571.4798  0.023943347  0.023782283            2 
 1990000   0.91820265   -7.5848423    574.21722  0.024045947  0.023775631            2 
 1991000   0.93426585   -7.5752103    574.09928  0.024028933  0.023769001            2 
 1992000   0.93717943   -7.5949302    573.60283  0.023996102  0.023762391            2 
 1993000   0.92656144   -7.6024427    574.16201  0.024007443  0.023755783            1 
 1994000   0.93600518   -7.5726553    574.71694  0.024018595  0.023749161            3 
 1995000   0.91670154   -7.5774341    574.30808  0.023989477  0.023742462            1 
 1996000   0.90670203   -7.6058123    574.02712  0.023965728  0.023735753            2 
 1997000   0.93889863   -7.6232543    571.62623   0.02385354  0.023729014            1 
 1998000   0.95298239   -7.6106659    574.95527   0.02398045  0.023722333            2 
 1999000   0.90947408   -7.5996619     574.3612  0.023943688  0.023715638            2 
 2000000   0.93066172   -7.6191846    574.11668  0.023921528   0.02370891            4 
 2001000   0.92988904   -7.6340041     573.7259  0.023893299  0.023702136            2 
 2002000   0.93719758   -7.6219288    575.43194  0.023952379  0.023695351            2 
 2003000   0.92906439   -7.6064422     573.4836  0.023859361  0.023688561            7 
 2004000    0.9249858   -7.6566788    572.40352  0.023802542  0.023681759            2 
 2005000   0.94173474   -7.5911154    574.12111  0.023862058  0.023674979            1 
 2006000   0.93863788   -7.6293593    574.08417  0.023848628  0.023668293            1 
 2007000   0.93089153   -7.6276006    574.84819  0.023868468  0.023661548            2 
 2008000   0.93774457   -7.6108129    575.05051  0.023864978  0.023654786            1 
 2009000   0.94171368   -7.6430373    573.98771  0.023809014  0.023647938            1 
 2010000   0.95050736   -7.6115376    573.38807  0.023772308  0.023641131            2 
 2011000   0.93691727    -7.602853    576.05283  0.023870911  0.023634386            2 
 2012000   0.91631933   -7.6109049    576.04351  0.023858661  0.023627716            2 
 2013000   0.94457595   -7.6132706    576.01299  0.023845545  0.023621015            1 
 2014000   0.91407673   -7.6299148    576.57427  0.023856929  0.023614377            3 
 2015000   0.91597661   -7.6300862    576.33638  0.023835251  0.023607709            1 
 2016000   0.93130703   -7.6160551    575.56959  0.023791732  0.023601061            5 
 2017000   0.93154779   -7.6343786    576.56751  0.023821166  0.023594394            1 
 2018000   0.90807113   -7.6481273    576.04212  0.023787666   0.02358762            2 
 2019000   0.92806635   -7.6774644    574.99474  0.023732654  0.023580801            2 
 2020000   0.92244547   -7.6533859    576.81461  0.023795982  0.023573991            2 
 2021000   0.92434537   -7.6603887    576.27229  0.023761846  0.023567225            1 
 2022000   0.90954298   -7.6109267    575.95749   0.02373712  0.023560494            4 
 2023000   0.92233911   -7.5858122    578.72249  0.023839285  0.023553822            4 
 2024000   0.93097811   -7.6124971    576.60769  0.023740435  0.023547099            2 
 2025000   0.92991048   -7.6005285    576.33498  0.023717489  0.023540398            2 
 2026000   0.90878119   -7.6018159    575.68704  0.023679131  0.023533632            2 
 2027000   0.90840185   -7.6279626    576.72546  0.023710141  0.023526858            1 
 2028000   0.93647093    -7.627686    577.50541  0.023730498  0.023520033            2 
 2029000   0.93040388   -7.6411619    574.90712  0.023612088  0.023513178            3 
 2030000    0.9223098   -7.6575549    576.53099  0.023667118  0.023506341            2 
 2031000   0.93469794   -7.6531961    576.47134  0.023653018  0.023499628            1 
 2032000   0.93429092   -7.6293321    577.79606  0.023695705  0.023492856            1 
 2033000   0.91757179    -7.640951    579.21001  0.023742007  0.023486102            1 
 2034000   0.93145129    -7.638706    577.97915  0.023679906  0.023479312            2 
 2035000   0.90970482   -7.6293648    577.29088  0.023640085  0.023472552            2 
 2036000   0.92551551   -7.6573288    577.64042  0.023642781  0.023465772            2 
 2037000   0.90418506   -7.6374865     577.2499  0.023615198  0.023458988            1 
 2038000   0.92367089   -7.6424321    577.19069  0.023601189  0.023452157            1 
 2039000   0.91660775   -7.6628759    577.18738  0.023589479  0.023445314            1 
 2040000   0.91294989   -7.6571406    577.86958  0.023605784  0.023438467            2 
 2041000   0.92051601   -7.6936722    575.90845  0.023514146  0.023431631            1 
 2042000   0.91655988   -7.6215894    578.03563   0.02358944   0.02342478            2 
 2043000   0.93094981   -7.6357387    578.62893  0.023602094  0.023417878            4 
 2044000   0.91070737   -7.6188032    576.54012  0.023505387  0.023410998            3 
 2045000   0.89615819   -7.6106859    578.00863  0.023553734  0.023404136            1 
 2046000     0.917641   -7.6270537    577.82324  0.023534671  0.023397249            6 
 2047000   0.91617678   -7.6185867     578.1608  0.023536916  0.023390282            2 
 2048000   0.91269962   -7.6339806     578.8034  0.023551571  0.023383398            2 
 2049000   0.87872142    -7.675992    578.06795  0.023510166  0.023376509            5 
 2050000   0.91251936   -7.6202234    578.78479  0.023527837  0.023369673            3 
 2051000   0.93541604   -7.6256702    579.65002   0.02355152  0.023362911            1 
 2052000   0.91081969   -7.6110411     580.9103  0.023591224  0.023356108            3 
 2053000   0.93926356    -7.660886    578.48336  0.023481221  0.023349323            2 
 2054000   0.90877504   -7.6225671    582.21524  0.023621196  0.023342532            3 
 2055000   0.91977755    -7.625974     580.7857  0.023551731  0.023335728            1 
 2056000   0.91211918    -7.656297    580.34624  0.023522464  0.023328946            2 
 2057000   0.90926803   -7.6300254     580.8721  0.023532333  0.023322174            1 
 2058000   0.93823952   -7.6428418    581.02124  0.023526937  0.023315375            2 
 2059000   0.92869371   -7.6661464    579.45167  0.023451986  0.023308576            4 
 2060000   0.91000096   -7.6561847    579.22705  0.023431515  0.023301701            1 
 2061000     0.929771   -7.6173626    581.57249   0.02351498  0.023294838            2 
 2062000   0.92210653   -7.6531864    580.25961  0.023450518  0.023288032            2 
 2063000   0.92887848   -7.6564245    579.85375  0.023422756  0.023281138            2 
 2064000    0.9095602   -7.6440643    580.04225  0.023419018  0.023274269            2 
 2065000   0.91907767   -7.6666757    581.29731  0.023458326  0.023267469            2 
 2066000   0.90787287   -7.6700182    579.46009  0.023372866  0.023260578            3 
 2067000   0.92345609   -7.6702938    581.38427  0.023439133  0.023253702            1 
 2068000   0.92210442    -7.679011     579.8823  0.023367275  0.023246899            3 
 2069000   0.92108385   -7.6746486    580.76923  0.023391704  0.023240142            1 
 2070000   0.92215207   -7.6720084    581.88408  0.023425285  0.023233422            1 
 2071000   0.90940108   -7.6156358    581.62945  0.023403728  0.023226714            2 
 2072000    0.9206749   -7.6414691     584.3945   0.02350364  0.023219997            2 
 2073000   0.92543201   -7.6849857    582.35182  0.023410188  0.023213367            1 
 2074000   0.92884663   -7.6387373    583.19952  0.023432961  0.023206747            2 
 2075000   0.92509179    -7.616512    583.63598  0.023439196  0.023200118            2 
 2076000   0.93924569   -7.6215017    581.98528  0.023361644  0.023193418            3 
 2077000   0.92207587   -7.6385298     583.4866  0.023410632  0.023186708            1 
 2078000   0.92066364   -7.6471898    582.67229   0.02336671  0.023179978            2 
 2079000   0.93810745   -7.6733713    582.29248  0.023340247   0.02317328            2 
 2080000    0.9350525   -7.6205137    584.31403  0.023410017  0.023166609            3 
 2081000   0.91670811   -7.6369532    585.61659  0.023450929  0.023159986            3 
 2082000   0.91933897   -7.6416349    585.66245  0.023441501  0.023153434            3 
 2083000   0.91886602   -7.6589831    584.95194  0.023401822   0.02314683            2 
 2084000   0.91075901   -7.6631805    584.38848  0.023368062  0.023140265            4 
 2085000   0.90793136   -7.6279137    585.96823  0.023419993  0.023133776            2 
 2086000   0.91181325   -7.6866993    585.31094  0.023382508  0.023127159            2 
 2087000   0.91527498       -7.645     586.2049  0.023406999  0.023120546            1 
 2088000    0.9237232   -7.6541357    586.77434  0.023418516  0.023113918            4 
 2089000   0.92581523   -7.6703365      586.041  0.023378052  0.023107339            1 
 2090000   0.90797916   -7.6853985     584.7854  0.023316802  0.023100787            2 
 2091000   0.91723489   -7.6820293    585.50962  0.023334514  0.023094178            2 
 2092000    0.8908095    -7.630061     586.8506  0.023376777  0.023087634            1 
 2093000   0.91339364   -7.6432631    586.90405  0.023367736  0.023081095            3 
 2094000   0.91287063    -7.645401    586.52366  0.023341438  0.023074549            2 
 2095000   0.91607209    -7.689568    585.97867  0.023308618  0.023067945            2 
 2096000   0.91336067   -7.6748258     586.6401  0.023323795   0.02306131            1 
 2097000   0.91355274    -7.663379    585.99064  0.023286864  0.023054788            1 
 2098000   0.90799738   -7.6777879    585.04221  0.023238092  0.023048191            2 
 2099000   0.90694075   -7.6511152    586.64622  0.023290703  0.023041641            2 
 2100000   0.90985586   -7.6414932    586.76496  0.023284324  0.023035163            2 
 2101000   0.92862214   -7.6456695    589.05542  0.023364089  0.023028663            4 
 2102000   0.91383623   -7.6390507    588.24881  0.023320996  0.023022173            1 
 2103000   0.89893832   -7.6614279    587.54335  0.023281952  0.023015688            1 
 2104000   0.90223551   -7.6589283    587.36358  0.023263767  0.023009151            3 
 2105000   0.90302818   -7.6773229    588.00714  0.023278192  0.023002597            1 
 2106000   0.92886171   -7.6679689    587.49618  0.023246921   0.02299609            1 
 2107000   0.90522991   -7.6533836    587.72729  0.023245028   0.02298955            2 
 2108000    0.9166944   -7.7104379    588.48907  0.023264116  0.022982993            1 
 2109000   0.90466374   -7.6787181    588.23546  0.023243064  0.022976409            2 
 2110000   0.91237013   -7.6900363    587.88344  0.023218145  0.022969847            1 
 2111000   0.90701184   -7.6741476     589.2676  0.023261788  0.022963256            4 
 2112000   0.89827398   -7.6454134    588.92199  0.023237137  0.022956698            6 
 2113000   0.92362467   -7.6231912    588.57407  0.023212418  0.022950191            1 
 2114000   0.90525597    -7.650174    587.74571  0.023168784  0.022943601            1 
 2115000   0.91855285    -7.648279    590.46486  0.023264967  0.022937051            2 
 2116000   0.91153968   -7.6651795    588.78873  0.023187962  0.022930499            2 
 2117000   0.92845034   -7.7006687    586.11723  0.023071848  0.022923892            1 
 2118000   0.91762533   -7.7003002     588.1507  0.023140963  0.022917214            2 
 2119000   0.91300911   -7.7056958    588.26496  0.023134535  0.022910499            1 
 2120000   0.90165972   -7.6376934    589.93762  0.023189372  0.022903805            2 
 2121000   0.89868525    -7.665136    589.41135  0.023157762  0.022897146            3 
 2122000   0.92621706   -7.6775754    588.72402  0.023119856  0.022890554            2 
 2123000   0.89925897   -7.6711022    588.93723  0.023117335  0.022883905            6 
 2124000   0.90656602   -7.6641193    589.78145  0.023139573  0.022877274            1 
 2125000   0.92376316    -7.654717    589.49888  0.023117603  0.022870635            1 
 2126000   0.91396014   -7.6562551     588.7465  0.023077238  0.022864039            2 
 2127000   0.90377155   -7.6836133    588.35189  0.023050928  0.022857387            1 
 2128000   0.89920166    -7.655105    590.52358   0.02312514  0.022850789            1 
 2129000   0.89177765   -7.6629386    590.00515  0.023093986  0.022844098            1 
 2130000   0.90899933    -7.635977    588.98939  0.023043403  0.022837419            2 
 2131000   0.91476124   -7.6491308    588.98634  0.023032471  0.022830723            1 
 2132000   0.91397053   -7.6536961    588.18452  0.022990327  0.022824037            2 
 2133000   0.91253019   -7.6712964    590.51111  0.023070445  0.022817349            2 
 2134000   0.90641639   -7.6488521    590.93621  0.023076235  0.022810616            2 
 2135000   0.90788099   -7.6780851    589.70633  0.023017421  0.022803861            2 
 2136000   0.89063029    -7.649907    589.84977  0.023012241  0.022797118            4 
 2137000   0.93518263   -7.6796203    588.04557  0.022931117  0.022790483            3 
 2138000    0.9062102   -7.6854829    590.67396  0.023022839  0.022783752            2 
 2139000   0.92535727   -7.6577168    589.86942  0.022980732  0.022777059            2 
 2140000   0.90706256   -7.6767812    589.90614  0.022971423  0.022770352            2 
 2141000   0.91551616   -7.6797496      590.787  0.022994979  0.022763665            2 
 2142000   0.91259766   -7.6505797    590.03255  0.022954892  0.022757003            1 
 2143000   0.90187746   -7.6595527    591.34527  0.022995228   0.02275025            2 
 2144000   0.89640808   -7.6540803    591.57061  0.022993261  0.022743591            1 
 2145000   0.90835188   -7.6320261    590.82327  0.022953507  0.022736884            2 
 2146000   0.92185519   -7.6874535    590.77809  0.022941056  0.022730182            2 
 2147000   0.89441017   -7.6792049    590.60864  0.022923794  0.022723483            3 
 2148000   0.90329077   -7.7004471    591.48601  0.022947161  0.022716791            2 
 2149000   0.91252124   -7.6777052    591.48827   0.02293657  0.022710123            2 
 2150000   0.90277586   -7.6500318    591.29378  0.022918364  0.022703407            5 
 2151000   0.89657376   -7.6847864    590.71662  0.022885349  0.022696725            2 
 2152000   0.89363652   -7.6426254    591.05321  0.022887748  0.022690021            2 
 2153000   0.89327034   -7.6601488     591.5153  0.022895003  0.022683395            2 
 2154000   0.90073351    -7.700067    592.00745  0.022903414  0.022676753            4 
 2155000   0.89369303   -7.6961929    592.62222  0.022916559  0.022670085            1 
 2156000   0.88758339   -7.6841551    591.22033  0.022851744  0.022663412            1 
 2157000   0.90779085   -7.6898871    593.27577   0.02292056  0.022656741            4 
 2158000   0.91732363   -7.6834486     591.7567  0.022851278  0.022650053            2 
 2159000   0.90669496   -7.6867235    591.95186  0.022848227  0.022643352            1 
 2160000   0.89401549   -7.6695469    593.13839  0.022883426  0.022636674            1 
 2161000   0.89909839   -7.6609723    592.70616  0.022856168  0.022630009            2 
 2162000   0.89618093   -7.6711834     592.7127  0.022845849  0.022623428            2 
 2163000    0.9041761   -7.6732163    593.34777  0.022859754  0.022616815            1 
 2164000   0.90833457   -7.6695161    594.23761  0.022883457   0.02261022            2 
 2165000   0.91679872   -7.7178394    592.01799  0.022787451  0.022603588            3 
 2166000   0.93339233   -7.6815896    593.16642  0.022821115  0.022596978            2 
 2167000   0.92422368   -7.6850963    593.50895  0.022823756   0.02259034            4 
 2168000   0.92195915   -7.6787974    593.58804  0.022816269  0.022583727            2 
 2169000   0.92196749   -7.7109253    593.16729  0.022789584  0.022577132            2 
 2170000   0.88592471   -7.7205249    592.46435  0.022752087  0.022570496            3 
 2171000    0.9049195   -7.7018357    594.61593  0.022824195  0.022563923            3 
 2172000   0.91323778   -7.6852084    594.94532  0.022826324  0.022557308            3 
 2173000   0.90429927    -7.707057    593.86658  0.022774451  0.022550747            2 
 2174000   0.88816255   -7.6243068    596.06419  0.022848213  0.022544277            2 
 2175000   0.91263958   -7.6754433    594.74255  0.022787071  0.022537763            1 
 2176000   0.90083257   -7.6975453    594.24961  0.022757721  0.022531258            4 
 2177000   0.91198505   -7.6598575    595.77569  0.022805684  0.022524741            2 
 2178000   0.91135076   -7.7228734    594.39621  0.022742432  0.022518215            3 
 2179000   0.89948432   -7.6473188    597.59577  0.022854359  0.022511671            3 
 2180000   0.88241171   -7.7114174    594.51362  0.022726056  0.022505155            1 
 2181000   0.89986717   -7.6589603    595.00167  0.022734284  0.022498615            4 
 2182000   0.89876978   -7.6937228    595.27962   0.02273448  0.022492018            1 
 2183000   0.91285089   -7.6954666    595.41071   0.02272907  0.022485435            1 
 2184000    0.9228421   -7.7203806    593.23395  0.022635606  0.022478767            3 
 2185000   0.91244363   -7.7105597    594.97103  0.022691496  0.022472127            1 
 2186000   0.90923561   -7.6988749    596.29135  0.022731448  0.022465552            2 
 2187000   0.89303674   -7.6745171    596.81054  0.022740837  0.022458997            2 
 2188000   0.90460649   -7.6621827    597.93262   0.02277318  0.022452494            2 
 2189000     0.925601   -7.7237822    595.65744  0.022676162  0.022445951            2 
 2190000   0.89032292   -7.6892639    597.60903   0.02274007  0.022439402            1 
 2191000   0.88642245   -7.6907742    596.61561  0.022691907  0.022432865            3 
 2192000   0.88035927   -7.6850633    596.64431  0.022682645  0.022426316            1 
 2193000    0.8884831   -7.6987465    595.51506  0.022629391  0.022419734            2 
 2194000   0.89787631   -7.6805799    597.05999  0.022677757  0.022413201            1 
 2195000   0.88746258   -7.6661209    596.58455  0.022649375  0.022406701            2 
 2196000   0.88187148   -7.7118774    596.70039  0.022643457  0.022400167            1 
 2197000    0.8989173   -7.7033132    595.90906  0.022603135  0.022393614            4 
 2198000   0.88771053   -7.7044124     596.7167  0.022623472  0.022387044            3 
 2199000   0.88217923   -7.6884269    597.30379  0.022635432  0.022380522            3 
 2200000    0.9009184   -7.6912549    597.65101  0.022638296  0.022373994            1 
 2201000   0.90041072   -7.7207735    597.98476  0.022640647  0.022367465            1 
 2202000   0.90332978   -7.7264077    597.75163  0.022621542  0.022360933            1 
 2203000   0.88424902   -7.6837349     597.4264  0.022598971  0.022354405            4 
 2204000   0.91418225   -7.7001908    599.83586  0.022679819  0.022347994            1 
 2205000   0.90395011   -7.7123616    599.07876   0.02264092  0.022341584            1 
 2206000   0.91054416   -7.7035125    598.89707  0.022623794   0.02233514            3 
 2207000   0.90140711   -7.7019977    599.73558  0.022645204  0.022328792            2 
 2208000   0.90162472   -7.7077777    598.75097  0.022597787  0.022322398            1 
 2209000   0.89801492   -7.6739327    599.70944  0.022623715  0.022315966            2 
 2210000   0.87322369   -7.6684539    600.41579  0.022640113  0.022309513            2 
 2211000   0.91331847   -7.7023005    598.77905  0.022568184  0.022303116            3 
 2212000   0.91133342   -7.7226369    599.24878  0.022575677  0.022296609            1 
 2213000   0.90452745   -7.6828618    600.12878  0.022598613   0.02229014            1 
 2214000   0.87465807   -7.6792259    600.90696  0.022617696  0.022283691            1 
 2215000   0.90008157   -7.7165916    600.49168  0.022591861  0.022277259            2 
 2216000   0.90197428   -7.7089576    600.63497  0.022587055  0.022270802            6 
 2217000   0.89518916   -7.6924413    599.79608  0.022545335  0.022264356            5 
 2218000   0.88962339   -7.7172971     600.4412  0.022559408  0.022257904            3 
 2219000   0.89228422   -7.6776546    601.17096  0.022576647  0.022251527            1 
 2220000   0.89985839   -7.7405282    600.55349  0.022543299  0.022245095            1 
 2221000   0.89992543   -7.7003562     600.4819  0.022530463  0.022238674            3 
 2222000   0.89785947   -7.7124749    601.04682   0.02254151  0.022232224            2 
 2223000   0.88741432   -7.7006329    600.64467  0.022516295  0.022225808            3 
 2224000   0.90014081   -7.6853324     601.9281   0.02255426  0.022219426            1 
 2225000   0.88581927   -7.7091499    602.68253  0.022572379  0.022213046            3 
 2226000   0.87857301   -7.7294316    599.60611  0.022447069  0.022206615            2 
 2227000    0.9016439   -7.6897312     602.4494  0.022543384  0.022200213            2 
 2228000   0.87461608   -7.7172576    600.31536  0.022453447   0.02219383            2 
 2229000    0.8843605   -7.7297627    600.37666  0.022445666  0.022187421            2 
 2230000   0.90029047   -7.7095455    601.10243  0.022462722  0.022180991            2 
 2231000   0.90065581   -7.7452108    602.15058  0.022491804  0.022174498            3 
 2232000   0.89826512     -7.71286    601.58748  0.022460704    0.0221681            1 
 2233000    0.8942132   -7.7017383    601.96427  0.022464706  0.022161697            1 
 2234000   0.90498291   -7.7076733    602.61419  0.022478894  0.022155358            1 
 2235000   0.90368695   -7.7170484    603.18471  0.022490108  0.022148975            3 
 2236000    0.8918751   -7.6820374    603.73296  0.022500483  0.022142566            2 
 2237000   0.88295754   -7.7403148    602.49185  0.022444191  0.022136155            4 
 2238000   0.91063783   -7.6834473    603.03029  0.022454211  0.022129752            2 
 2239000   0.90667416   -7.7218309     602.1011  0.022409599  0.022123357            1 
 2240000   0.90160405   -7.7256937    602.78177  0.022424917  0.022116902            3 
 2241000   0.89341173   -7.7325046    600.96664  0.022347413  0.022110425            2 
 2242000   0.88910813   -7.7261961    601.31273   0.02235031  0.022103985            2 
 2243000   0.90757178   -7.7129449    602.05354  0.022367868  0.022097512            2 
 2244000   0.90397326   -7.7294744     602.4618  0.022373061  0.022090997            2 
 2245000   0.89430161   -7.7148948    601.93309   0.02234347  0.022084529            3 
 2246000    0.9194671   -7.7143337    603.13459  0.022378101  0.022078034            3 
 2247000   0.91385999   -7.7015705    603.36642   0.02237674  0.022071589            2 
 2248000   0.89449797   -7.7273126    602.55801  0.022336818  0.022065194            4 
 2249000   0.88121237   -7.7071497    603.89733  0.022376513  0.022058796            2 
 2250000   0.90345152   -7.6951283    604.73304   0.02239752  0.022052399            2 
 2251000   0.89721916    -7.735248    602.73666  0.022313663  0.022045958            1 
 2252000   0.89941217   -7.7092443     603.5825  0.022335054  0.022039513            1 
 2253000   0.91136449   -7.7488051    601.36509  0.022243124  0.022033049            2 
 2254000   0.89271076   -7.7202492    603.53942  0.022313643  0.022026569            2 
 2255000   0.90789012    -7.730939    603.53202  0.022303474  0.022020062            3 
 2256000   0.89696687   -7.7223501    602.73576  0.022264176   0.02201364            2 
 2257000   0.88928777   -7.6849822    605.33543  0.022350296  0.022007188            2 
 2258000   0.90343147   -7.7297747    603.55022  0.022274513  0.022000754            2 
 2259000   0.89923411   -7.7216547    605.12614  0.022322788  0.021994298            3 
 2260000   0.88695725   -7.7292799    602.38222  0.022211734  0.021987778            2 
 2261000   0.87506625   -7.7151807    603.72176  0.022251281  0.021981263            1 
 2262000   0.88156207   -7.6997429    603.01025  0.022215232  0.021974796            2 
 2263000   0.88704914   -7.7175205    603.70493  0.022230996   0.02196832            2 
 2264000   0.88115961   -7.7078069    605.11319  0.022273012  0.021961812            1 
 2265000   0.87467679    -7.733075    604.08472  0.022225339  0.021955332            1 
 2266000    0.8690966   -7.7100742    604.69622  0.022238019  0.021948813            1 
 2267000   0.88463165   -7.7349189    603.44776  0.022182317  0.021942354            1 
 2268000   0.88870402   -7.7472074    604.53404   0.02221245   0.02193587            2 
 2269000   0.88437945   -7.7248748    605.17039  0.022226032  0.021929433            2 
 2270000   0.90203714   -7.7036152    604.81518    0.0222032  0.021922989            1 
 2271000   0.90895837   -7.7162691    605.77631  0.022228692  0.021916556            2 
 2272000   0.89909529   -7.7129108    605.17163  0.022196729  0.021910087            1 
 2273000   0.87503993   -7.7256389    603.76178  0.022135276  0.021903615            1 
 2274000   0.87041121   -7.7153462    605.66418  0.022195257  0.021897179            6 
 2275000   0.87997538   -7.7437347    604.77544  0.022152946  0.021890737            3 
 2276000   0.89326258   -7.7203893    603.66152  0.022102428  0.021884258            1 
 2277000   0.88227377   -7.7485285    605.31161  0.022153111  0.021877786            1 
 2278000   0.89535091   -7.7285158    605.43748  0.022147991  0.021871323            2 
 2279000   0.88257421   -7.7215338    606.27776  0.022168998  0.021864858            2 
 2280000   0.89517729   -7.7440327    606.72906   0.02217577  0.021858351            1 
 2281000   0.89813523   -7.7140329    606.10996   0.02214343  0.021851936            1 
 2282000   0.87933556   -7.7053734    606.69245  0.022154997  0.021845546            2 
 2283000    0.8858468   -7.7057995    606.60019  0.022141925  0.021839165            3 
 2284000   0.89849176   -7.7127835    605.97397  0.022109383  0.021832746            2 
 2285000     0.900164    -7.763038     605.4039  0.022078917  0.021826271            2 
 2286000   0.88038662   -7.7437816    606.32612  0.022102877  0.021819803            2 
 2287000   0.88689464   -7.7378019    605.10726    0.0220488  0.021813386            3 
 2288000   0.89522974   -7.7198234    607.34883  0.022120805  0.021806959            3 
 2289000   0.89573614   -7.7489873    607.65388  0.022122247  0.021800522            1 
 2290000   0.86263078   -7.7020082    606.62714  0.022075223  0.021794108            2 
 2291000   0.88991185   -7.7455743    607.14769  0.022084522  0.021787669            1 
 2292000   0.87633232     -7.74768    606.34218    0.0220456  0.021781225            2 
 2293000   0.87819627   -7.7215332    606.27549  0.022033562  0.021774775            2 
 2294000   0.89235355   -7.7645544    605.44075  0.021993634  0.021768282            2 
 2295000   0.89268808   -7.7463886    605.78167  0.021996429  0.021761781            2 
 2296000   0.89110868   -7.7601754     606.4216  0.022010075  0.021755285            5 
 2297000   0.87312512   -7.7036023    607.88816  0.022053699  0.021748791            3 
 2298000   0.88963302   -7.7233479    605.87826  0.021971216   0.02174231            3 
 2299000   0.89227532    -7.714746    606.40399  0.021980716  0.021735836            1 
 2300000   0.88536467   -7.7220451    608.57562  0.022049841  0.021729334            2 
 2301000   0.89874092   -7.7352359    606.94023  0.021981031  0.021722838            5 
 2302000   0.88479265   -7.6963954    608.02513  0.022010756  0.021716368            2 
 2303000   0.88714398   -7.7155984    608.49412  0.022018169  0.021709927            2 
 2304000   0.89470393   -7.7190036    608.69407  0.022015845  0.021703453            2 
 2305000   0.88528066   -7.7402719    608.75305  0.022008426  0.021697007            1 
 2306000   0.86514511    -7.745969    609.35398  0.022020598  0.021690546            3 
 2307000   0.88113536   -7.7367246    607.03187  0.021927174  0.021684121            1 
 2308000   0.89672985   -7.7385179    607.56247  0.021936831  0.021677665            3 
 2309000   0.87334969   -7.7022379    607.74888  0.021934058  0.021671215            1 
 2310000   0.87768619   -7.7271563    608.43691  0.021949383  0.021664732            3 
 2311000    0.8830603   -7.7248785    608.28765  0.021934503  0.021658238            1 
 2312000   0.88440902    -7.746961    606.86212  0.021873635  0.021651733            1 
 2313000    0.8737175   -7.7306209    607.20585  0.021876562  0.021645251            3 
 2314000   0.87635806    -7.752877    607.88344   0.02189151  0.021638735            2 
 2315000    0.8722897   -7.7468026    606.51295   0.02183272  0.021632183            4 
 2316000   0.88041532   -7.7168899    610.54897  0.021968515  0.021625717            7 
 2317000   0.89010967   -7.7581792    608.79979  0.021896122   0.02161924            1 
 2318000   0.87762341   -7.7368843    609.40846  0.021908558  0.021612767            4 
 2319000   0.87756539   -7.7403591    609.53844  0.021903782  0.021606334            2 
 2320000   0.86089301   -7.7539394    608.69557  0.021864065  0.021599896            3 
 2321000   0.88327021   -7.7119382    609.68913  0.021890318  0.021593545            3 
 2322000   0.87711253   -7.7389257    610.10986   0.02189599  0.021587183            3 
 2323000   0.88508192   -7.7772813    609.96841   0.02188149  0.021580775            4 
 2324000   0.86885212   -7.7532828    609.08837  0.021840518  0.021574347            1 
 2325000   0.88006685   -7.7289003    609.68936  0.021852665  0.021567956            2 
 2326000   0.88806304     -7.73265    609.97387  0.021853463  0.021561595            3 
 2327000   0.89590081    -7.709265    612.05945   0.02191876  0.021555273            2 
 2328000   0.86726628   -7.7139847    611.95257  0.021905519  0.021548961            3 
 2329000   0.87863588   -7.6871406    611.85017  0.021892449  0.021542722            1 
 2330000   0.89677385    -7.745356    609.08913  0.021784304  0.021536402            1 
 2331000   0.88373253   -7.7649876    610.58207  0.021828331  0.021530009            3 
 2332000   0.90454429   -7.7594292    610.17922  0.021804575  0.021523626            2 
 2333000   0.89405939   -7.7663176     610.9821  0.021823907  0.021517254            2 
 2334000   0.86145783   -7.7559139    610.79261  0.021807791  0.021510955            3 
 2335000   0.87991651   -7.7107568     613.2587  0.021886463  0.021504671            3 
 2336000   0.85717352   -7.7464901    611.71275  0.021821945  0.021498415            2 
 2337000   0.86740293   -7.7540324    610.55526  0.021771333  0.021492134            5 
 2338000   0.89094984   -7.7306924    612.26662  0.021823019  0.021485843            4 
 2339000   0.86177004    -7.746218      611.137  0.021773443  0.021479508            1 
 2340000   0.86245407    -7.740472    613.80525  0.021859161  0.021473225            2 
 2341000    0.8826473   -7.7485701    612.35371  0.021798153  0.021466912            2 
 2342000   0.88405897   -7.7334233    612.31653  0.021787522  0.021460575            2 
 2343000   0.86701335   -7.7284819    613.06457  0.021804829   0.02145427            2 
 2344000   0.89513621   -7.7403462    614.21449  0.021836408  0.021447938            2 
 2345000   0.86046499   -7.7333839     613.9553  0.021817885   0.02144163            2 
 2346000   0.86065041   -7.7419535    612.43485  0.021754577  0.021435259            1 
 2347000   0.86169594   -7.7292012     610.8683  0.021689685  0.021428902            5 
 2348000   0.88309355    -7.750376     612.1109  0.021724549   0.02142254            1 
 2349000   0.88639117   -7.7371199    613.21338  0.021754412  0.021416157            4 
 2350000   0.86322352   -7.7507535    612.43572  0.021717579  0.021409762            6 
 2351000   0.88124753   -7.7620596    611.21275  0.021664992   0.02140336            1 
 2352000   0.85371937   -7.7897481    610.82401  0.021642007  0.021396965            2 
 2353000   0.87869583   -7.7712409    613.11979  0.021714116  0.021390565            3 
 2354000    0.8743788    -7.773416    612.84289   0.02169509  0.021384168            2 
 2355000    0.8795862   -7.7790534    612.34948  0.021668417  0.021377733            5 
 2356000   0.87717995   -7.7682161    612.00628  0.021647081  0.021371352            1 
 2357000   0.88093137   -7.7286468    613.13338  0.021677746  0.021364947            2 
 2358000   0.84808137   -7.7587808    613.41046  0.021678345  0.021358536            1 
 2359000   0.86313296   -7.7514858    612.40613  0.021633677  0.021352089            2 
 2360000   0.87597344   -7.7861024    613.56476  0.021665422  0.021345722            2 
 2361000   0.87175141   -7.7912898    611.55182  0.021585197  0.021339322            1 
 2362000    0.8583982   -7.8017872    611.22766  0.021564623  0.021332914            3 
 2363000     0.879122   -7.7591331    614.05417  0.021655176  0.021326555            1 
 2364000   0.86884774   -7.7531781    614.79574  0.021672157  0.021320214            2 
 2365000   0.87819778   -7.7833891    613.43061  0.021614891  0.021313838            2 
 2366000   0.88657283   -7.7080319    613.99402  0.021625599  0.021307522            2 
 2367000   0.88387775   -7.7374417    614.36988  0.021629696  0.021301168            2 
 2368000   0.88983171   -7.7782719     613.3936  0.021586205  0.021294826            2 
 2369000   0.88937734   -7.7768569    613.60424  0.021584503  0.021288501            1 
 2370000   0.87349616   -7.7563391    615.11592  0.021628548  0.021282166            1 
 2371000   0.86976007   -7.7648786    614.81861  0.021608977  0.021275835            1 
 2372000   0.84982682   -7.7692593    614.63088  0.021593272  0.021269466            1 
 2373000   0.87773034   -7.7469433    614.67738  0.021585805  0.021263154            3 
 2374000    0.8715555   -7.7722582    613.87544  0.021548562  0.021256812            2 
 2375000   0.87097282   -7.7634442     613.6324  0.021530962  0.021250454            3 
 2376000   0.87788991    -7.786123    613.37537  0.021512885  0.021244103            6 
 2377000    0.8795427   -7.7578591    614.55746  0.021545276  0.021237702            1 
 2378000   0.87688219   -7.7387014    614.86419  0.021546965  0.021231347            3 
 2379000    0.8770811   -7.7501949    614.36965  0.021520585  0.021225043            3 
 2380000   0.87386818   -7.7479826    614.40641   0.02151283  0.021218691            2 
 2381000   0.88500371   -7.7227343     615.2963   0.02153494  0.021212356            2 
 2382000    0.8685188   -7.7184312    616.15878  0.021556073  0.021206062            1 
 2383000   0.88032754   -7.7409471    614.58394  0.021491955  0.021199732            1 
 2384000   0.86277765   -7.7453215    614.71374  0.021487477  0.021193413            2 
 2385000     0.851726   -7.7821186    613.96255  0.021452221  0.021187068            2 
 2386000   0.87461457   -7.7596373    614.30854  0.021455314   0.02118067            2 
 2387000   0.87442373   -7.7462351    616.15259  0.021510704  0.021174264            1 
 2388000   0.85505113   -7.7376431    616.14051  0.021501274  0.021167915            3 
 2389000   0.87710176   -7.7442392    615.53662  0.021471209  0.021161572            2 
 2390000   0.88324089   -7.7613689    616.38069  0.021491656  0.021155214            1 
 2391000   0.88425938   -7.7624531    616.05143  0.021471191  0.021148808            1 
 2392000   0.83893161   -7.8113326    612.80486   0.02134911  0.021142403            2 
 2393000   0.87127476   -7.7759041    615.30266  0.021427172  0.021135989            4 
 2394000   0.87347991   -7.7921038    616.40862  0.021456719  0.021129564            7 
 2395000   0.85278583   -7.7846505    616.02782   0.02143451  0.021123117            2 
 2396000     0.866287   -7.7771506    616.06645  0.021426908  0.021116689            1 
 2397000   0.86913751   -7.7424684    616.43261  0.021430698  0.021110291            2 
 2398000   0.88139232   -7.7568766    615.70748  0.021396563  0.021103913            1 
 2399000   0.86649637   -7.7863098    616.28505  0.021407706  0.021097539            5 
 2400000   0.88266442   -7.7681293    613.58652  0.021305088  0.021091102            1 
 2401000   0.85460751   -7.7730716    616.61507  0.021401328  0.021084684            3 
 2402000   0.87404441    -7.773897    616.75833  0.021397389  0.021078295            2 
 2403000   0.86715703    -7.820917    614.11412  0.021296786  0.021071883            2 
 2404000   0.85630782   -7.7877165    615.56725  0.021338299  0.021065496            1 
 2405000   0.88307396   -7.7738149    614.79364  0.021302621  0.021059101            2 
 2406000    0.8656307   -7.7996206    617.09434  0.021373453  0.021052709            2 
 2407000   0.85853995   -7.7856442    616.31154  0.021337472  0.021046297            2 
 2408000    0.8564019   -7.7586179    616.77934    0.0213448  0.021039919            4 
 2409000   0.86806167   -7.8114659    615.36208  0.021286913  0.021033522            4 
 2410000   0.86392296   -7.7991529    616.74693  0.021325966  0.021027078            2 
 2411000   0.87114742   -7.7469802    617.09869  0.021329279   0.02102064            2 
 2412000   0.85643084     -7.78079    616.67378  0.021305755  0.021014245            2 
 2413000   0.85583285   -7.7769851    617.35829  0.021320565  0.021007858            1 
 2414000   0.85122401   -7.7960932    617.62161  0.021320823  0.021001446            2 
 2415000   0.87427515   -7.7402086    616.34363  0.021267896  0.020995034            1 
 2416000   0.87814956   -7.7720969    618.24739  0.021324758  0.020988732            4 
 2417000   0.85362526   -7.7985246    617.48453  0.021289634  0.020982426            1 
 2418000   0.84955598   -7.7881063    617.73563  0.021289483  0.020976033            1 
 2419000    0.8770396   -7.7982417    617.49794  0.021272493  0.020969625            2 
 2420000   0.84252429   -7.8250965    616.82118  0.021240399  0.020963255            3 
 2421000   0.87236377   -7.7914845    618.23858  0.021280414  0.020956884            2 
 2422000   0.88342634   -7.8157418    617.71258  0.021253529  0.020950539            1 
 2423000   0.86600802   -7.7940416    618.65865  0.021277296  0.020944154            2 
 2424000   0.87295489   -7.8145123    617.30968  0.021222142  0.020937847            3 
 2425000   0.86516337    -7.791957    617.71005  0.021227149  0.020931519            2 
 2426000   0.84238179   -7.7736124    619.98349  0.021296492  0.020925193            2 
 2427000   0.86211349   -7.7886629    620.19969  0.021295141  0.020918882            2 
 2428000   0.85694511   -7.7985443    619.48793  0.021261941  0.020912625            1 
 2429000   0.87625833   -7.7909452    620.80952  0.021298529  0.020906402            2 
 2430000   0.86942908   -7.7974287    620.42089  0.021276437  0.020900151            2 
 2431000   0.84816766   -7.7998506    618.06178  0.021186815  0.020893847            3 
 2432000   0.86137575   -7.7848795    618.43041  0.021190735  0.020887557            1 
 2433000   0.85577629   -7.8009341    618.27329  0.021176644  0.020881243            1 
 2434000   0.87115484   -7.8085667    619.61985  0.021214046  0.020874949            2 
 2435000   0.85292445   -7.7800184    619.95375  0.021216761  0.020868652            2 
 2436000   0.85577031    -7.791689    620.40549  0.021223505  0.020862356            2 
 2437000   0.83607507   -7.7725454    621.50807  0.021252499  0.020856088            2 
 2438000   0.86674577   -7.8310937    618.69823  0.021147738  0.020849789            2 
 2439000   0.86426891   -7.7622991    619.89364  0.021179911  0.020843478            5 
 2440000   0.85875015   -7.7985158    621.05369   0.02121085  0.020837201            3 
 2441000   0.86030037   -7.7994721    620.64401  0.021188175  0.020830896            2 
 2442000    0.8650052   -7.7925606    619.59339  0.021143646  0.020824638            1 
 2443000   0.87999356   -7.7850077    620.75414  0.021174585  0.020818403            3 
 2444000   0.84280539   -7.7712731    620.40487  0.021154012  0.020812158            2 
 2445000   0.86627414    -7.794478    620.40395  0.021145329  0.020805884            1 
 2446000   0.85736651   -7.7644474    621.54011  0.021175392  0.020799603            2 
 2447000   0.86717939   -7.7817769    621.64984  0.021170475  0.020793425            4 
 2448000   0.84430539   -7.8101817    620.81862  0.021133531  0.020787174            1 
 2449000   0.86077472   -7.8124133    620.11582  0.021100988  0.020780921            2 
 2450000   0.86549933   -7.8344566    619.68385  0.021077682  0.020774652            1 
 2451000   0.86249081   -7.8217585    620.42592  0.021094313  0.020768375            4 
 2452000   0.87272407   -7.8065269    620.69969  0.021095014  0.020762075            2 
 2453000   0.87123727    -7.816608    621.40224  0.021110281  0.020755815            1 
 2454000   0.86051248   -7.7995176    620.96377  0.021086789  0.020749549            1 
 2455000   0.85274547   -7.7882984    621.54464  0.021097917  0.020743315            3 
 2456000   0.88347837   -7.7811022    621.55797  0.021089779  0.020737083            3 
 2457000   0.85401133   -7.7817759    622.28067  0.021105707  0.020730857            2 
 2458000   0.87197473   -7.8096167    620.91669  0.021050878  0.020724645            2 
 2459000   0.86518701   -7.7723379    623.47974  0.021129177   0.02071843            2 
 2460000   0.85561033    -7.808796    622.16179  0.021075941  0.020712224            2 
 2461000   0.84697037   -7.8117825    622.09443  0.021065097   0.02070601            1 
 2462000   0.84361539     -7.79946    621.16851    0.0210252  0.020699788            3 
 2463000   0.85545353   -7.7776997    621.00242  0.021011044   0.02069357            2 
 2464000   0.86967485   -7.7879697    622.90064  0.021066715  0.020687369            1 
 2465000   0.85237321   -7.8134337    621.47209  0.021009874  0.020681192            3 
 2466000   0.87329745   -7.7646263    622.61376  0.021039935  0.020675001            3 
 2467000   0.86547598    -7.783073    622.68053  0.021033662  0.020668819            2 
 2468000   0.86139466    -7.783306    622.64041  0.021023785  0.020662642            1 
 2469000   0.82728731   -7.8005874    622.87071  0.021023043  0.020656453            3 
 2470000   0.84161656   -7.7887344    623.08703   0.02102183  0.020650214            2 
 2471000   0.84821317   -7.8201514    623.08081  0.021013112   0.02064395            3 
 2472000   0.85862945   -7.7996938    624.02651  0.021036493  0.020637702            2 
 2473000   0.84612327    -7.789916    623.42401  0.021007683  0.020631493            1 
 2474000   0.82631195   -7.8140999    622.13385  0.020955734  0.020625287            1 
 2475000   0.84501902   -7.8249906    623.36667  0.020988777  0.020619069            3 
 2476000   0.87164062   -7.7919526    622.32634  0.020945286  0.020612857            1 
 2477000   0.86014752   -7.7830454    624.89939  0.021023395  0.020606692            1 
 2478000   0.87297586    -7.820939    622.36602  0.020929715  0.020600511            1 
 2479000   0.84501285   -7.8000517    623.56363  0.020961531  0.020594318            3 
 2480000   0.86030706   -7.8171113    623.10174  0.020937558   0.02058811            1 
 2481000   0.86694507    -7.783571     625.4669  0.021008562  0.020581935            1 
 2482000   0.87058645   -7.7671187     624.6112  0.020971367  0.020575797            1 
 2483000   0.84469527   -7.8253598    622.96923  0.020907814  0.020569637            2 
 2484000   0.86218652      -7.8047    623.99377  0.020933769  0.020563447            1 
 2485000   0.85134096   -7.8251257    623.17598   0.02089792  0.020557286            2 
 2486000   0.85140647   -7.8678437    620.93293  0.020814324  0.020551034            3 
 2487000   0.83234935   -7.8117342    622.08841  0.020844673  0.020544783            1 
 2488000   0.85649115   -7.7829998    624.33848  0.020911659  0.020538565            3 
 2489000   0.85366928   -7.8197056    623.84571  0.020886759  0.020532365            2 
 2490000   0.85683141   -7.8000194    625.31534  0.020927555  0.020526134            2 
 2491000   0.84067693   -7.8032747    624.02938  0.020876133  0.020519879            1 
 2492000   0.87258815   -7.7921846    624.15591  0.020871987  0.020513692            2 
 2493000    0.8622653   -7.7994248    624.98465  0.020891317  0.020507461            3 
 2494000   0.85939451   -7.8249179    625.07468  0.020885949  0.020501221            1 
 2495000   0.84524777    -7.838279    623.70489  0.020831827  0.020494971            1 
 2496000   0.85380669   -7.8100855    622.28684  0.020776137  0.020488706            1 
 2497000   0.85048063   -7.8192476    623.69743  0.020814892  0.020482469            2 
 2498000   0.85094405   -7.8055685    624.30466  0.020826817  0.020476264            1 
 2499000   0.84328019   -7.7871091    626.18096  0.020881051  0.020470088            3 
 2500000   0.85194421   -7.7871453    625.32768  0.020844256  0.020463898            1 
 2501000   0.86441638   -7.8240993    625.14794  0.020829933  0.020457696            1 
 2502000   0.83820804   -7.8072427    625.43623  0.020831209  0.020451525            3 
 2503000   0.85944475   -7.8156441    625.13016  0.020812697  0.020445339            1 
 2504000   0.84639972    -7.814152    624.83017  0.020794401  0.020439156            3 
 2505000   0.85213585     -7.83185     624.6396   0.02077976   0.02043289            1 
 2506000   0.85537897   -7.8075297    625.03852  0.020784734  0.020426632            1 
 2507000    0.8547378   -7.8668814    624.98751  0.020774748  0.020420402            1 
 2508000   0.83782672   -7.8397238    623.94777  0.020731917  0.020414125            2 
 2509000   0.83981825   -7.8319576     623.0269  0.020693068  0.020407867            2 
 2510000   0.85398301   -7.8264988    624.77671  0.020742919  0.020401629            4 
 2511000   0.83114907    -7.823733    625.27163  0.020751083  0.020395381            1 
 2512000   0.85686644   -7.8061996    624.82969  0.020728161  0.020389137            2 
 2513000   0.85805439   -7.8215537    624.87205  0.020721317   0.02038288            4 
 2514000   0.84297092    -7.875136    623.79578  0.020677399  0.020376595            2 
 2515000   0.84315498   -7.8110405    625.39273  0.020722092  0.020370346            2 
 2516000   0.83218738   -7.8337805    625.31794  0.020711379  0.020364109            2 
 2517000   0.85045417    -7.835378    625.15669  0.020697811   0.02035786            2 
 2518000   0.84216148   -7.8269459    626.60967  0.020737678  0.020351658            2 
 2519000   0.85404803    -7.845531    626.22481  0.020716713  0.020345482            2 
 2520000   0.85194563   -7.8383478    626.98178  0.020733524  0.020339277            2 
 2521000   0.84030364   -7.8288374    626.26742  0.020701687   0.02033307            2 
 2522000   0.84324723   -7.8044869    625.80837   0.02067831  0.020326851            4 
 2523000   0.82834309   -7.8195024    625.96613  0.020675325  0.020320683            1 
 2524000   0.86583821   -7.7857711    626.85901  0.020696613  0.020314523            2 
 2525000   0.85458334   -7.8273752    626.52678  0.020677451  0.020308315            1 
 2526000   0.83306536   -7.8436155    627.40476   0.02069823  0.020302067            3 
 2527000   0.83899891    -7.831776     625.7085  0.020634102  0.020295805            1 
 2528000   0.85942601   -7.8438332    625.64788  0.020623941   0.02028958            3 
 2529000   0.83543576   -7.8347506    626.48748  0.020643452  0.020283385            3 
 2530000   0.86483853   -7.7933895     626.0848  0.020622029  0.020277169            2 
 2531000   0.83534952   -7.8246745    625.34124  0.020589399  0.020270967            3 
 2532000   0.86143173   -7.8192692    628.72079  0.020692496   0.02026477            6 
 2533000     0.849725   -7.8112694    627.94413  0.020658775  0.020258563            4 
 2534000   0.84110716    -7.839485    626.93918  0.020617574  0.020252367            5 
 2535000   0.83324638   -7.8237403    629.08426  0.020679956  0.020246234            2 
 2536000   0.84025059   -7.8013564    627.45657  0.020618315  0.020240068            2 
 2537000   0.83691157   -7.8186564    627.20073  0.020601785  0.020233906            2 
 2538000   0.84680557   -7.8125755    628.07875  0.020622496  0.020227761            3 
 2539000   0.86103596   -7.8176151      629.188  0.020650781  0.020221607            2 
 2540000   0.84409386   -7.8204291    628.63273  0.020624433  0.020215472            2 
 2541000   0.83100738   -7.8595841    626.64527  0.020551137  0.020209316            3 
 2542000   0.84573348   -7.8352159    626.77288  0.020547236   0.02020316            2 
 2543000   0.83678509     -7.83643    627.70735  0.020569778  0.020196995            4 
 2544000   0.85266641   -7.8191168    628.67047  0.020593241  0.020190842            1 
 2545000    0.8480144   -7.8674311      626.477  0.020513327  0.020184696            3 
 2546000   0.82585566   -7.8527509    628.59427   0.02057457  0.020178506            2 
 2547000   0.84123925   -7.8581065    627.35863  0.020526064  0.020172276            3 
 2548000   0.83139976   -7.8410787     628.1672  0.020544453  0.020166059            5 
 2549000   0.84118254    -7.858429    627.71832  0.020521718   0.02015983            2 
 2550000   0.83970345   -7.8463949    628.21816  0.020530005  0.020153553            5 
 2551000   0.83733398     -7.83003     626.9058  0.020479087  0.020147328            3 
 2552000   0.84573493   -7.8302801    627.22249  0.020481403  0.020141139            3 
 2553000   0.84276076   -7.8626113     628.1525  0.020503737  0.020134931            1 
 2554000   0.82858127   -7.8669949    627.22036  0.020465295  0.020128711            1 
 2555000   0.84416552    -7.838109    627.82494  0.020477004  0.020122473            2 
 2556000   0.84832401    -7.830511     628.7984   0.02050073   0.02011629            2 
 2557000   0.83251498   -7.8067363    627.02803  0.020435016  0.020110084            2 
 2558000   0.85037097   -7.8510008    627.71416   0.02044938  0.020103857            2 
 2559000   0.84648178    -7.846644    626.18886  0.020391718  0.020097624            2 
 2560000   0.86341488   -7.8327991    627.38317  0.020422629  0.020091373            4 
 2561000   0.82993728   -7.8436769    629.01679  0.020467812  0.020085138            2 
 2562000   0.85070059   -7.8425077    627.15464  0.020399253  0.020078924            2 
 2563000   0.82965398   -7.8456427    627.32901  0.020396963  0.020072681            1 
 2564000   0.85803276   -7.8599641    627.66153  0.020399816  0.020066424            3 
 2565000   0.83789319   -7.8554933    628.09946   0.02040609  0.020060167            2 
 2566000   0.85485443   -7.8570831    629.71763   0.02045069  0.020053888            2 
 2567000   0.82052923   -7.8486882    629.90654  0.020448855  0.020047664            3 
 2568000   0.85157763   -7.8303153    629.41804   0.02042504  0.020041438            3 
 2569000   0.82958125    -7.837153    628.19087  0.020377283  0.020035241            2 
 2570000   0.83351247   -7.8330871    628.85001  0.020390727  0.020029052            2 
 2571000    0.8447252   -7.8258666    629.09669  0.020390791  0.020022876            4 
 2572000   0.84064993   -7.8546169    626.93517   0.02031283  0.020016705            1 
 2573000   0.84545172   -7.8418445    626.66495  0.020296183  0.020010512            2 
 2574000    0.8376893   -7.8253979    628.86938  0.020359667  0.020004306            2 
 2575000   0.84493051   -7.8571607    629.00609  0.020356184   0.01999806            2 
 2576000   0.84365644   -7.8613729    627.88423   0.02031199  0.019991787            3 
 2577000   0.83418957   -7.8709276    629.56447  0.020358442  0.019985558            2 
 2578000   0.83791015   -7.8223939    629.40877  0.020345512  0.019979353            1 
 2579000   0.85277916   -7.8702916    628.34112  0.020303125   0.01997315            4 
 2580000   0.84071003   -7.8510096    627.70009  0.020274551   0.01996693            3 
 2581000   0.83290534   -7.8438167    629.09686  0.020311793  0.019960696            3 
 2582000   0.84534456   -7.8534914    629.72217  0.020324108  0.019954455            2 
 2583000   0.83432216   -7.8226867    630.02113  0.020325885  0.019948288            3 
 2584000    0.8148818   -7.8128114     630.3973   0.02033015  0.019942165            2 
 2585000    0.8406821   -7.8349792    630.90851  0.020338766  0.019936006            3 
 2586000   0.84679503   -7.8560924    630.12422  0.020305627  0.019929803            2 
 2587000   0.85154198   -7.8580333    629.55151   0.02027933  0.019923622            1 
 2588000    0.8296774   -7.8217736    628.99955  0.020253721  0.019917468            4 
 2589000   0.84971907   -7.8308314    630.83654  0.020305026  0.019911336            2 
 2590000   0.83457954   -7.8381034    629.04112  0.020239418  0.019905171            3 
 2591000   0.83610533    -7.828912    629.29013  0.020239616  0.019899004            2 
 2592000   0.83851538   -7.8675788    629.37057  0.020234393  0.019892839            3 
 2593000   0.84222338   -7.8464396    630.29374  0.020256258  0.019886667            2 
 2594000    0.8311956   -7.8490143    630.40786  0.020252116  0.019880517            1 
 2595000   0.85422183   -7.8487553    629.34319  0.020210122  0.019874376            2 
 2596000   0.84591657   -7.8293525    631.34409  0.020266567  0.019868212            4 
 2597000   0.83132902   -7.8603385    629.44566  0.020197846  0.019862004            2 
 2598000   0.84122416   -7.8235412    630.52856  0.020224806  0.019855785            2 
 2599000   0.83810855   -7.8696065    628.81635  0.020162125  0.019849575            1 
 2600000   0.83825932   -7.8554259    630.48789  0.020207945  0.019843359            2 
 2601000   0.84140995   -7.8587592    630.32215  0.020194866  0.019837138            1 
 2602000   0.83849933   -7.8593714    629.34109  0.020155684  0.019830902            3 
 2603000   0.83415856   -7.8453389    630.92743  0.020198727   0.01982464            2 
 2604000    0.8334007   -7.8492881     629.4229  0.020142822  0.019818404            3 
 2605000   0.83340015   -7.8635316    627.86354  0.020085206  0.019812141            2 
 2606000   0.82706692   -7.8364405    629.61619  0.020133544  0.019805884            2 
 2607000   0.83751371    -7.843379    629.97607  0.020137325  0.019799622            3 
 2608000   0.82251882   -7.8593537    629.18234  0.020104242  0.019793371            2 
 2609000   0.83830389   -7.8444673    629.83457  0.020117368  0.019787114            2 
 2610000   0.83780361   -7.8616563    629.67266  0.020104491  0.019780857            2 
 2611000   0.82174969   -7.8734907    629.92903  0.020104973  0.019774624            2 
 2612000    0.8360437   -7.8643636    629.96234  0.020098339  0.019768388            2 
 2613000   0.83171322   -7.8333311    631.83486  0.020150365  0.019762151            1 
 2614000   0.82506587   -7.8887822    628.80871  0.020046184   0.01975591            2 
 2615000    0.8157557   -7.8818333     629.4561  0.020059149  0.019749638            2 
 2616000    0.8540656   -7.8745918    630.10391  0.020072117  0.019743393            2 
 2617000   0.83086915   -7.8778824    632.21105  0.020131545  0.019737141            1 
 2618000   0.84190821   -7.8887619    629.37174  0.020033478  0.019730898            3 
 2619000   0.81987173   -7.8910143    629.20115  0.020020401  0.019724627            4 
 2620000   0.83047202   -7.8652737    630.46664   0.02005301   0.01971838            1 
 2621000    0.8379806    -7.844278    631.77313  0.020086899  0.019712177            2 
 2622000   0.83293993   -7.8659037    631.51323  0.020070977  0.019705979            2 
 2623000   0.83285873   -7.8702972    630.82157  0.020041351  0.019699808            5 
 2624000   0.81903295   -7.8829974    631.91667  0.020068492  0.019693631            3 
 2625000   0.83492559   -7.8504343    631.81591  0.020057648  0.019687505            1 
 2626000   0.82084353     -7.89668    630.38459  0.020004588  0.019681302            2 
 2627000   0.83456822   -7.8571741    628.44958  0.019935591  0.019675071            1 
 2628000    0.8096255   -7.8897003    629.91713  0.019974541  0.019668815            1 
 2629000   0.84323002    -7.878402    630.14824  0.019974269  0.019662558            2 
 2630000   0.83707597   -7.9073998    629.95769  0.019960637  0.019656316            2 
 2631000   0.82555216   -7.8930051    631.49883  0.020001863  0.019650078            1 
 2632000   0.85093189   -7.8650993    631.54873  0.019995844  0.019643878            3 
 2633000   0.82969301   -7.8472671    630.73025  0.019962345  0.019637666            2 
 2634000    0.8451799   -7.8586735    631.57939  0.019981631  0.019631472            1 
 2635000     0.824138   -7.8548132    630.64077  0.019944363  0.019625235            1 
 2636000   0.81811373   -7.8533629    631.21958  0.019955096  0.019619034            1 
 2637000   0.84758943   -7.8574925    631.56697  0.019958506  0.019612828            1 
 2638000   0.83514357   -7.8401379    631.38129  0.019945075  0.019606676            2 
 2639000   0.83260007   -7.8324557    631.47487  0.019940472   0.01960051            1 
 2640000   0.82844519   -7.8498687    631.89672  0.019946235  0.019594373            2 
 2641000   0.83051749   -7.8586845    633.45103  0.019987727  0.019588182            2 
 2642000   0.82525183   -7.8707415    632.17539  0.019939925  0.019581995            2 
 2643000   0.84080391   -7.8654363     631.8739  0.019922875  0.019575814            2 
 2644000   0.83304057   -7.8457321     632.2129  0.019926024  0.019569617            2 
 2645000   0.85216463   -7.8909582    632.00592   0.01991197  0.019563386            4 
 2646000   0.85441721   -7.8661193     633.5741  0.019953833  0.019557187            4 
 2647000   0.82959867   -7.8613014     632.2077  0.019903277  0.019550992            3 
 2648000   0.83419194   -7.8744466    631.22603  0.019864868  0.019544794            1 
 2649000   0.82601239   -7.8654785    632.74718  0.019905221  0.019538606            2 
 2650000   0.81807565    -7.867043    632.29101  0.019883365  0.019532458            2 
 2651000   0.81779159   -7.8596561    631.81545  0.019860916  0.019526283            4 
 2652000   0.83205191    -7.849398    631.70021  0.019849805  0.019520126            2 
 2653000   0.82293116   -7.8654185    633.08179   0.01988572  0.019513976            3 
 2654000   0.81571509   -7.8684279    633.46324  0.019890205  0.019507835            1 
 2655000    0.8272845   -7.8791955    632.76531  0.019860807  0.019501657            1 
 2656000   0.80817349   -7.8508553    634.73063  0.019914992  0.019495483            1 
 2657000   0.82351531   -7.8752753    633.26862  0.019861643  0.019489337            2 
 2658000   0.83870626   -7.9128655    630.99445  0.019782871  0.019483125            2 
 2659000   0.81724623   -7.8696791    632.80089  0.019832045   0.01947693            2 
 2660000   0.83660015   -7.8509366    632.71912  0.019822028  0.019470752            1 
 2661000   0.80771713   -7.8639983    632.86733   0.01981922  0.019464563            3 
 2662000   0.83081712   -7.8854683    632.78422  0.019809173  0.019458373            1 
 2663000   0.82740156   -7.8842186    632.94388  0.019806731  0.019452187            3 
 2664000   0.83479722   -7.8646971    634.05811   0.01983415  0.019445998            3 
 2665000   0.81791655   -7.8630947     632.7138  0.019784672  0.019439804            1 
 2666000   0.81491399   -7.8696841    633.71878  0.019808664   0.01943361            2 
 2667000   0.83506506   -7.8920004    632.30686   0.01975712  0.019427408            2 
 2668000    0.8312311   -7.8918186    632.42571  0.019753427  0.019421174            3 
 2669000    0.8477699   -7.8469525    635.14361  0.019830886  0.019414987            2 
 2670000   0.81643394   -7.8808364    632.24871  0.019733106  0.019408823            1 
 2671000      0.81527    -7.884054    632.71748  0.019740343  0.019402658            1 
 2672000    0.8294524   -7.8842456     633.1522  0.019746513  0.019396479            3 
 2673000   0.82552835   -7.8525133    633.87857  0.019761771  0.019390364            3 
 2674000   0.81326078   -7.8729259     634.6873  0.019779584  0.019384262            2 
 2675000   0.81454244   -7.9023512    633.56425  0.019737204  0.019378169            2 
 2676000   0.82601667   -7.8677332    633.28912  0.019721261  0.019372034            2 
 2677000   0.83396461   -7.9020754    632.69556  0.019695417  0.019365899            2 
 2678000   0.80401884   -7.8902066    634.00662  0.019728859  0.019359753            4 
 2679000   0.82149131   -7.9126902    631.22464  0.019634958  0.019353616            2 
 2680000   0.82680862   -7.9182018    634.57414  0.019731783  0.019347454            3 
 2681000   0.81368227   -7.8632328    634.70692   0.01972855  0.019341329            1 
 2682000   0.83483341   -7.8379493    634.70132   0.01972102  0.019335241            2 
 2683000   0.84046756   -7.8689136    635.76255  0.019746631  0.019329143            2 
 2684000   0.83380492   -7.8857359     633.7803  0.019677729  0.019323009            1 
 2685000   0.83530138     -7.88667    633.20875  0.019652661  0.019316843            2 
 2686000   0.81453669   -7.8756632    635.37093  0.019712427  0.019310683            5 
 2687000   0.82091452   -7.8942891    633.16545  0.019636691   0.01930455            2 
 2688000   0.81113013    -7.886571    633.80695  0.019649273  0.019298428            2 
 2689000   0.81025568   -7.8797464      634.898  0.019675778  0.019292322            1 
 2690000   0.80200671   -7.8735445    634.33596  0.019651052  0.019286201            2 
 2691000   0.81001293   -7.9073019    634.40602  0.019645919  0.019280075            2 
 2692000   0.79920624   -7.9054586    634.02718  0.019626894  0.019273945            2 
 2693000   0.84043647   -7.8869265    635.15792  0.019654596  0.019267807            1 
 2694000   0.81290981   -7.9114291    633.38083  0.019592329  0.019261654            3 
 2695000   0.82903137   -7.9106942    634.40091  0.019616602  0.019255517            1 
 2696000   0.82909297   -7.8830499    633.83914  0.019591962  0.019249392            1 
 2697000   0.81507851      -7.8915    635.96681  0.019650439  0.019243296            2 
 2698000    0.8115335   -7.8937411    634.83789  0.019608287  0.019237186            3 
 2699000   0.83047713    -7.879202    637.28462  0.019676566  0.019231089            2 
 2700000   0.81331062   -7.9078623    635.86075  0.019625332  0.019224973            1 
 2701000   0.81825898   -7.8870255    635.92009  0.019619897  0.019218886            3 
 2702000   0.81666112   -7.9216493    636.15122  0.019619764  0.019212809            2 
 2703000   0.82092088   -7.9539823    634.30734  0.019555658  0.019206716            3 
 2704000   0.80469776   -7.9009254     635.1376  0.019574014   0.01920061            1 
 2705000   0.84403673   -7.9167049    635.53464  0.019579009  0.019194532            2 
 2706000   0.80618139   -7.8882236    635.31662   0.01956506  0.019188452            2 
 2707000   0.83438995   -7.8965378    635.66689  0.019568615  0.019182367            2 
 2708000    0.8149501   -7.8771764    635.27061  0.019549194  0.019176297            3 
 2709000   0.82508075     -7.86246    637.83784   0.01962095  0.019170268            3 
 2710000    0.8062344   -7.8810156    637.85985  0.019614387  0.019164278            2 
 2711000   0.81198837   -7.8707258    637.72829  0.019603107  0.019158281            3 
 2712000   0.81919241   -7.9080988    636.63163  0.019562181  0.019152303            2 
 2713000   0.81782011   -7.9116413    636.85719  0.019561899  0.019146315            1 
 2714000   0.80652733   -7.8740704    638.51935  0.019605728  0.019140308            1 
 2715000   0.80841247   -7.8993494    637.68587  0.019572924  0.019134286            2 
 2716000   0.81145847   -7.9288908    635.38916  0.019495249   0.01912827            2 
 2717000   0.80432584   -7.8762293    638.08936  0.019570892  0.019122273            3 
 2718000   0.82361346   -7.9049027    638.15526  0.019565712  0.019116257            2 
 2719000    0.8076867   -7.9194393    638.10491  0.019556973   0.01911025            9 
 2720000   0.82876002   -7.9042105    636.44981  0.019499075  0.019104215            2 
 2721000   0.80836002   -7.9417759    635.80542  0.019472174   0.01909821            1 
 2722000   0.81501313   -7.8933131    636.68815  0.019492045  0.019092163            1 
 2723000   0.81091453   -7.9055461    638.00083  0.019525059  0.019086123            2 
 2724000   0.81268708   -7.8895849    637.35785  0.019498221  0.019080131            3 
 2725000   0.81924508   -7.8891319    639.39873  0.019553478  0.019074161            2 
 2726000   0.79971704   -7.8903177    639.21862  0.019540799  0.019068193            4 
 2727000   0.81020823   -7.8863915    638.39337  0.019508415  0.019062217            4 
 2728000    0.8090629   -7.9266069    637.77438  0.019482355  0.019056241            3 
 2729000   0.81269492   -7.8982497    637.71466  0.019473393  0.019050286            3 
 2730000   0.80489968    -7.908637    636.93449  0.019442445  0.019044295            2 
 2731000   0.83559776   -7.8883999    637.91418   0.01946522  0.019038341            1 
 2732000   0.82210404   -7.9085438     639.7364  0.019513678  0.019032365            2 
 2733000   0.79593416     -7.89992     637.6391  0.019442587  0.019026415            1 
 2734000   0.81569832   -7.8875511    638.38882  0.019458328  0.019020461            1 
 2735000   0.80505281   -7.9084088    638.27797  0.019447836  0.019014454            2 
 2736000   0.80976234   -7.9006258    636.70725  0.019392886  0.019008433            2 
 2737000   0.82268628   -7.9234609    639.33892  0.019465928  0.019002406            1 
 2738000   0.82357869   -7.9048958    638.93509  0.019446527   0.01899641            2 
 2739000   0.81404466    -7.932478    638.17127  0.019416188  0.018990442            2 
 2740000   0.81814064   -7.9028128    639.06993  0.019436433   0.01898447            2 
 2741000   0.82179125   -7.9421522    638.54505  0.019413385  0.018978485            2 
 2742000   0.79785835   -7.9143266    638.53722  0.019406067  0.018972472            2 
 2743000   0.81819946   -7.9176912    637.66565  0.019372513  0.018966442            1 
 2744000    0.7977467   -7.9064714    638.05601  0.019377308  0.018960435            2 
 2745000   0.79645114   -7.9184537    638.08698  0.019371189  0.018954421            2 
 2746000   0.79955547   -7.9368735    636.25952  0.019308677  0.018948424            2 
 2747000    0.8003759   -7.9115142    637.47314  0.019338464  0.018942389            1 
 2748000   0.80679083    -7.932085    637.85827  0.019343106  0.018936389            3 
 2749000   0.79228755   -7.9518193    638.05509  0.019342036  0.018930384            2 
 2750000   0.82088664   -7.9293783    636.60787  0.019291148  0.018924369            2 
 2751000   0.79323217   -7.9245868    639.14298  0.019360929  0.018918378            2 
 2752000   0.81700185   -7.9211229    639.55072   0.01936624  0.018912373            2 
 2753000   0.81500061    -7.939148    637.68768  0.019302812  0.018906357            2 
 2754000   0.81743346   -7.9155471    639.40317  0.019347712  0.018900363            2 
 2755000   0.80242528   -7.9364678    637.70084  0.019289197   0.01889435            2 
 2756000    0.8230718    -7.896304    639.93022  0.019349608   0.01888836            1 
 2757000   0.81792528   -7.9227404    638.84845  0.019309892  0.018882422            4 
 2758000   0.80629677   -7.8997937    641.28336  0.019376461  0.018876459            3 
 2759000   0.80490163   -7.9050054    638.79312  0.019294222  0.018870496            1 
 2760000   0.82875938   -7.9177603    638.91484  0.019290907  0.018864526            2 
 2761000   0.81001618   -7.9206818    638.84238  0.019281733  0.018858556            3 
 2762000    0.8230402   -7.9558684    639.55536  0.019296264  0.018852582            2 
 2763000   0.81584263   -7.9246022      638.723  0.019264175  0.018846602            3 
 2764000   0.82890097   -7.9431802    638.15838  0.019240183  0.018840607            2 
 2765000   0.80661525   -7.9478017    638.74391  0.019250871  0.018834613            1 
 2766000   0.80823251   -7.9198706    639.23351  0.019258662  0.018828629            2 
 2767000   0.81590237   -7.9507287    638.87914  0.019241029  0.018822626            3 
 2768000   0.81722374   -7.9261068    638.55828  0.019224418  0.018816631            2 
 2769000   0.81238753   -7.9672419     639.0996  0.019233767  0.018810644            3 
 2770000    0.8094585   -7.9296166    639.08483  0.019226379  0.018804647            3 
 2771000   0.80034014   -7.9296512    639.44258  0.019230199   0.01879865            3 
 2772000   0.82315257   -7.9313094    639.21205  0.019216331   0.01879268            1 
 2773000   0.79834406   -7.8985264     641.1238  0.019266853  0.018786722            2 
 2774000    0.7971106   -7.9298108    640.01208   0.01922651  0.018780747            2 
 2775000   0.80499026   -7.8863244    640.00284  0.019219305  0.018774767            3 
 2776000   0.80014799   -7.9380764    639.88616  0.019208878  0.018768789            1 
 2777000   0.79290166   -7.9438755    638.60951  0.019163651  0.018762798            3 
 2778000   0.80901056   -7.9379249    639.17321  0.019173662  0.018756777            2 
 2779000   0.79921416   -7.8975244    641.10247  0.019224615  0.018750797            6 
 2780000   0.80052241   -7.9170483    639.96438  0.019183584  0.018744822            2 
 2781000   0.79376387   -7.9158302    640.87999  0.019204123   0.01873885            3 
 2782000   0.81836609   -7.9099356    641.02763  0.019201642  0.018732893            2 
 2783000   0.78750318   -7.9130568    640.72457  0.019185668  0.018726932            2 
 2784000   0.80076692   -7.9259797    638.28774  0.019105835  0.018720968            3 
 2785000   0.80748575   -7.9250048    639.22782  0.019127104  0.018714999            2 
 2786000   0.80825054   -7.9131241    640.14101  0.019147554  0.018709027            5 
 2787000   0.79527087   -7.9610501    640.04664  0.019137862  0.018703039            2 
 2788000    0.8088053   -7.9087763    641.31194  0.019168817   0.01869705            3 
 2789000   0.79541732   -7.9357131    639.20918  0.019099115  0.018691071            2 
 2790000   0.82704781    -7.923311    641.15249  0.019150313  0.018685108            3 
 2791000   0.80083651   -7.9189193    640.07258  0.019111208  0.018679151            3 
 2792000   0.78680165    -7.893455    642.93627  0.019189836  0.018673243            2 
 2793000   0.78963311    -7.893007    640.56725  0.019112282  0.018667352            1 
 2794000   0.81439194   -7.9246123    640.53893  0.019104597  0.018661435            2 
 2795000   0.79804937   -7.9155801     641.2514  0.019119004    0.0186555            1 
 2796000   0.80959579   -7.8973563    642.44612  0.019147774  0.018649584            2 
 2797000   0.80146997   -7.9038073    641.04115  0.019099069  0.018643686            2 
 2798000   0.81901573   -7.9447902    641.21826  0.019097518   0.01863776            1 
 2799000   0.78768108   -7.9229839     640.5204  0.019069918   0.01863181            4 
 2800000    0.8223269   -7.9667412    640.25477  0.019055201  0.018625806            4 
 2801000   0.80308068   -7.9396511    641.11456  0.019073978  0.018619833            3 
 2802000   0.82155483   -7.9241241      640.662  0.019053712  0.018613858            1 
 2803000   0.79667362    -7.958646    639.88721   0.01902388  0.018607865            3 
 2804000   0.80307794   -7.9441871    640.00207  0.019020509  0.018601885            1 
 2805000   0.81760973   -7.9651307    639.70274  0.019004835  0.018595885            2 
 2806000    0.8202203   -7.9220484    641.49913  0.019051411  0.018589888            3 
 2807000   0.80366542    -7.978228    639.87963  0.018996545  0.018583891            2 
 2808000   0.80217193   -7.9652553    640.77724  0.019016418  0.018577879            3 
 2809000   0.80663771   -7.9722845    639.94558  0.018984976  0.018571849            2 
 2810000   0.81429943   -7.9703613    640.30218  0.018988795  0.018565807            1 
 2811000   0.81364832   -7.9583148    638.78575  0.018937085  0.018559782            4 
 2812000    0.7932752   -7.9444407    640.37251  0.018977374   0.01855375            3 
 2813000   0.82135234   -7.9802011    640.09344  0.018962361  0.018547734            2 
 2814000    0.7791491   -7.9369504     639.6337  0.018942007  0.018541724            2 
 2815000   0.81353686   -7.9439648    640.10321  0.018949177  0.018535725            1 
 2816000   0.79759783   -7.9445441    640.51311  0.018954578  0.018529733            1 
 2817000   0.80868806   -7.9456318    639.34045   0.01891316  0.018523754            2 
 2818000   0.78907182     -7.96238    640.66679   0.01894567  0.018517787            3 
 2819000   0.79393393   -7.9573715    641.20942   0.01895499  0.018511827            2 
 2820000   0.79161053   -7.9588389    642.02173  0.018972273  0.018505888            3 
 2821000   0.78769801   -7.9606541    640.78024  0.018928874  0.018499941            3 
 2822000   0.79958605   -7.9250807    641.98263  0.018957673  0.018494019            2 
 2823000   0.80082918   -7.9569194    641.61717  0.018940169  0.018488099            2 
 2824000   0.78629029   -7.9444301    640.87907  0.018911682  0.018482156            1 
 2825000   0.80749012   -7.9299258    641.97398  0.018937286  0.018476257            3 
 2826000   0.79726175   -7.9402865    642.69591  0.018951873  0.018470376            3 
 2827000   0.79864614   -7.9590238    640.90804  0.018892467  0.018464487            2 
 2828000   0.80991724    -7.949431     641.2549  0.018896007  0.018458565            5 
 2829000    0.8053637   -7.9705051    642.78949  0.018934532  0.018452652            2 
 2830000   0.78470182    -7.932886    642.11938  0.018908109  0.018446753            1 
 2831000   0.81134972   -7.9663629    640.95522  0.018867162  0.018440836            2 
 2832000   0.80084685   -7.9435576    642.52597   0.01890672  0.018434948            3 
 2833000   0.79304742   -7.9491413     641.3128   0.01886436  0.018429038            2 
 2834000   0.80713154   -7.9324476    641.37504  0.018859534  0.018423129            1 
 2835000   0.79801967   -7.9480541    643.12536  0.018904332  0.018417246            2 
 2836000   0.79986833   -7.9596147    641.90841  0.018861907  0.018411369            3 
 2837000   0.78899002   -7.9353333    643.52553  0.018902759  0.018405491            1 
 2838000   0.79159114   -7.9271547    643.93297  0.018908062  0.018399615            1 
 2839000   0.80298851   -7.9436508    642.22088  0.018851147  0.018393736            1 
 2840000   0.80205591   -7.9547264    643.32797  0.018876994  0.018387857            8 
 2841000   0.78781686   -7.9521668    642.88284  0.018857293  0.018382001            1 
 2842000   0.80382193   -7.9419948     641.8593  0.018820646  0.018376152            4 
 2843000   0.78788786    -7.945116    642.16699  0.018823045  0.018370282            2 
 2844000   0.81537317   -7.9277528    641.28981  0.018790723  0.018364392            4 
 2845000   0.78437521   -7.9696971    643.33392  0.018843993  0.018358507            1 
 2846000   0.79926559   -7.9504814     643.4502  0.018840777  0.018352612            3 
 2847000    0.7861773   -7.9700761    642.78433  0.018814668   0.01834673            2 
 2848000     0.801471   -7.9645587    643.58647  0.018831533  0.018340843            2 
 2849000   0.78877318    -7.954631    643.18853  0.018813283  0.018334984            3 
 2850000    0.7956605   -7.9794718    642.64336  0.018790742  0.018329121            1 
 2851000   0.79763574    -7.986582    641.08301  0.018738542  0.018323256            3 
 2852000     0.795598   -7.9560452    642.78194  0.018781614  0.018317353            2 
 2853000   0.79523383   -7.9748821    643.73696  0.018802926  0.018311483            2 
 2854000   0.79947376   -7.9548852    643.69712  0.018795174  0.018305638            3 
 2855000   0.79995785   -7.9531591    644.46422  0.018810981  0.018299825            1 
 2856000   0.79473788   -7.9442417    644.68564  0.018810856  0.018294021            1 
 2857000   0.80015551   -7.9246349    644.89799  0.018810465  0.018288224            4 
 2858000   0.79488338   -7.9642379    643.98316  0.018777209   0.01828243            1 
 2859000    0.8054811   -7.9703209    643.88056  0.018767651  0.018276621            3 
 2860000   0.78059167   -7.9466611    643.65226  0.018754437  0.018270816            2 
 2861000   0.80465495   -7.9909621    644.55619   0.01877421  0.018264994            3 
 2862000   0.81080944    -7.953653    644.53546  0.018767047  0.018259154            6 
 2863000   0.79479501   -7.9764832    642.75033  0.018708532  0.018253318            2 
 2864000   0.79827042   -7.9514552    644.68193  0.018758203  0.018247477            2 
 2865000   0.79834525   -7.9749766     643.6455  0.018721509  0.018241649            6 
 2866000   0.77516529   -7.9382172    644.32604  0.018734765  0.018235836            3 
 2867000   0.79500253   -7.9673584    643.37774  0.018700667  0.018230024            1 
 2868000   0.80778145   -7.9665156    644.01762  0.018712739  0.018224241            5 
 2869000   0.77801506   -7.9888641    642.61166  0.018665379  0.018218407            3 
 2870000   0.79322708   -7.9607272     644.8226  0.018723072  0.018212566            2 
 2871000    0.8052684   -7.9710233    645.18567  0.018727089   0.01820674            4 
 2872000   0.79597556   -7.9448701     644.1968  0.018691876  0.018200921            2 
 2873000   0.81608768    -7.966757    644.11517  0.018683002  0.018195104            3 
 2874000   0.78350891   -7.9684183    643.66106  0.018663334  0.018189302            3 
 2875000   0.78951589   -7.9922823    644.26092   0.01867423  0.018183501            2 
 2876000   0.80484813   -7.9696017    645.07511  0.018691328  0.018177703            2 
 2877000   0.80816045   -7.9894027    643.22931  0.018631367  0.018171901            1 
 2878000   0.79678889   -7.9853022    645.15372  0.018680615  0.018166089            3 
 2879000   0.77231277   -7.9562196    645.67429  0.018689194  0.018160311            4 
 2880000   0.77785667   -7.9347689    646.67799  0.018711748  0.018154517            2 
 2881000   0.78292146   -7.9617719    645.03632  0.018657767  0.018148738            2 
 2882000   0.77652668   -7.9756005    643.74737  0.018614023  0.018142964            2 
 2883000   0.81150862   -7.9776983    644.48869  0.018628994  0.018137177            1 
 2884000   0.80052708   -7.9741767    644.33624   0.01861813  0.018131356            2 
 2885000   0.79579861   -7.9799637    643.75217  0.018594806  0.018125533            3 
 2886000   0.79085455   -7.9972574    644.81721  0.018619116  0.018119701            4 
 2887000   0.79266666   -7.9789696    645.15252  0.018622345  0.018113853            3 
 2888000   0.79245347   -7.9712146    643.58026  0.018570529  0.018107998            2 
 2889000   0.78267855   -7.9661873    644.14854  0.018580493  0.018102172            1 
 2890000   0.78772667   -7.9748605    642.61258  0.018529775   0.01809633            5 
 2891000   0.77673154   -7.9819857    644.65314  0.018582184  0.018090453            2 
 2892000   0.78597456   -8.0113586    644.10458  0.018559952   0.01808458            5 
 2893000   0.79587135   -7.9565875    643.82677  0.018545534  0.018078731           10 
 2894000    0.7876794    -7.966498    642.98674  0.018514937  0.018072875            6 
 2895000   0.79932002   -7.9592156    643.82927  0.018532794  0.018067014            4 
 2896000   0.78759351   -7.9685831    643.28139  0.018510629  0.018061165            3 
 2897000   0.79607093   -7.9539695    644.02612  0.018525662  0.018055332            1 
 2898000   0.78819916   -7.9712811    644.66951  0.018537771  0.018049496            2 
 2899000   0.80405013    -7.953935    642.43092  0.018467027  0.018043655            5 
 2900000   0.79279964   -7.9573756    645.04342   0.01853573  0.018037799            2 
 2901000   0.78192174   -7.9700151    644.02367  0.018500048  0.018031916            2 
 2902000   0.78408588   -7.9970919    643.04436  0.018465551  0.018026028            2 
 2903000   0.75498232   -7.9863332    645.83443  0.018539282  0.018020142            1 
 2904000    0.7705074   -7.9572389    643.62973  0.018469632   0.01801428            1 
 2905000   0.78123484   -7.9517933    646.01957  0.018531829  0.018008429            2 
 2906000   0.78380128   -7.9952418    643.97938  0.018466947  0.018002582            2 
 2907000    0.7938756   -7.9705686    644.41408  0.018473056  0.017996713            3 
 2908000   0.79022592   -7.9818779     644.3023    0.0184635  0.017990863            2 
 2909000   0.77455281   -7.9938124    643.67105   0.01843907     0.017985            3 
 2910000   0.77548618   -7.9819364    644.40913   0.01845387  0.017979134            2 
 2911000   0.77880344   -8.0075669    643.59371  0.018424187  0.017973254            2 
 2912000   0.77450836   -8.0120466    644.20808  0.018435442  0.017967393            2 
 2913000   0.79000885   -7.9726163    643.99072  0.018422895  0.017961529            2 
 2914000   0.77825681   -7.9901895    643.03161  0.018389145  0.017955655            2 
 2915000   0.80221485   -7.9623526     645.9514  0.018466306  0.017949803            3 
 2916000   0.77927059   -7.9808044    642.42466  0.018359187  0.017943937            1 
 2917000   0.77585663   -8.0175358    644.44191  0.018410522   0.01793808            1 
 2918000   0.77947097   -7.9764214    644.21593  0.018397759  0.017932231            3 
 2919000   0.77463092   -7.9779596    644.85942  0.018409827  0.017926389            3 
 2920000   0.79594996   -8.0022466    644.52931  0.018394101   0.01792057            5 
 2921000   0.78472944   -7.9992501    644.13294  0.018376496  0.017914718            1 
 2922000   0.77732762   -8.0003509    643.51257  0.018352515  0.017908871            1 
 2923000   0.79746164   -7.9923645    644.84212  0.018384141  0.017903046            2 
 2924000    0.7819496   -7.9915432    645.40218  0.018393815  0.017897216            6 
 2925000   0.76833229   -7.9657497    646.63869  0.018422755  0.017891421            1 
 2926000   0.78453229   -7.9739447    644.51696  0.018356031  0.017885627            2 
 2927000   0.78739343   -7.9926188     645.0596  0.018365209  0.017879828            8 
 2928000   0.77354441   -7.9910359    644.84311  0.018352775  0.017874032            1 
 2929000   0.78871395   -8.0016677    645.38039  0.018361795  0.017868214            3 
 2930000   0.80511925   -8.0035032     645.4918  0.018358697  0.017862403            3 
 2931000   0.78266163   -7.9827783    644.61147  0.018327404  0.017856588            1 
 2932000   0.77189338   -8.0246056    645.59091  0.018348991  0.017850779            2 
 2933000   0.77033899   -8.0209656    645.55046  0.018341586  0.017844954            3 
 2934000   0.80539758   -8.0398519    644.22852  0.018297788  0.017839125            2 
 2935000   0.78488893   -8.0144053    645.27469  0.018321258  0.017833271            2 
 2936000   0.75999109    -8.018153    645.49601  0.018321299  0.017827454            1 
 2937000    0.7718214   -8.0223632    645.16338  0.018305623  0.017821623            2 
 2938000   0.76621296   -8.0159099    645.05403  0.018296291  0.017815814            2 
 2939000   0.79435364   -7.9713707     646.2685  0.018324501  0.017810013            2 
 2940000   0.78534015   -8.0082335    645.78025  0.018304429  0.017804244            1 
 2941000     0.772592   -8.0118022    645.49214  0.018290041  0.017798461            3 
 2942000   0.77068599   -7.9794973    645.93247  0.018296297   0.01779267            2 
 2943000   0.79322239   -8.0292307    643.93064  0.018233397  0.017786883            3 
 2944000   0.76586692    -8.021887    645.69625  0.018277181  0.017781089            2 
 2945000   0.78017214   -7.9937982    646.84773  0.018303558  0.017775308            2 
 2946000   0.77853267   -8.0016552    646.09461  0.018276041  0.017769535            1 
 2947000   0.77235951   -7.9927793     646.3309  0.018276521  0.017763765            4 
 2948000   0.77116459   -8.0019804    645.11652  0.018235994  0.017757976            3 
 2949000   0.77943645   -7.9849986    646.06241  0.018256539  0.017752201            3 
 2950000   0.78474782   -8.0142296    645.04104  0.018221498  0.017746396            2 
 2951000   0.79891727   -7.9800351    645.66655  0.018232987  0.017740613            1 
 2952000   0.77665756   -7.9999565    645.83614  0.018231598  0.017734848            2 
 2953000   0.78421022   -8.0060473    645.03194   0.01820273   0.01772906            4 
 2954000   0.77601062   -8.0037735    645.82363  0.018218902   0.01772331            1 
 2955000   0.76990085   -7.9952914    646.54638  0.018233118   0.01771755            2 
 2956000   0.78986811    -8.004197    646.25123   0.01821863  0.017711786            3 
 2957000   0.77399772   -7.9889827    646.58089  0.018221759  0.017706015            1 
 2958000   0.78272955   -8.0306711    645.36661   0.01818139  0.017700218            2 
 2959000   0.77174202   -8.0212998    645.82927  0.018188275  0.017694435            2 
 2960000   0.77268701   -8.0192409     645.7891     0.018181  0.017688655            3 
 2961000   0.76592357   -8.0006987     646.8561  0.018204889  0.017682886            2 
 2962000   0.77516311   -7.9861844    646.78607  0.018196772  0.017677143            2 
 2963000   0.78626227   -7.9944233    646.59472  0.018185249  0.017671368            1 
 2964000   0.79152675   -8.0268105    645.73659  0.018154987  0.017665628            1 
 2965000   0.77604015   -8.0002593    646.38644  0.018167129  0.017659858            2 
 2966000   0.77526703   -8.0021927    647.33873  0.018187759  0.017654112            3 
 2967000   0.77683726   -7.9888062     646.4492  0.018156645  0.017648363            2 
 2968000   0.78263438   -7.9777705     646.5931  0.018154568  0.017642626            1 
 2969000   0.78315263   -8.0053248    645.81351  0.018126572  0.017636875            2 
 2970000   0.77604425   -8.0092268    646.24166  0.018132482  0.017631103            3 
 2971000   0.77850674   -8.0242602    645.56298  0.018107343  0.017625328            9 
 2972000     0.800648   -8.0175302    645.24549  0.018092348  0.017619544            2 
 2973000   0.78014076   -7.9975039    648.04886  0.018164841  0.017613806            5 
 2974000   0.77534183   -8.0127091    646.98186  0.018128835  0.017608085            2 
 2975000   0.78489162   -8.0076149    646.38033  0.018105892  0.017602344            2 
 2976000   0.76973479   -8.0078069    645.38265  0.018071871  0.017596587            2 
 2977000   0.77666617   -7.9966843    645.58369  0.018071428  0.017590819            2 
 2978000   0.77479438   -8.0055974    647.21093  0.018110895   0.01758506            3 
 2979000   0.76320422   -7.9987239    647.29042  0.018107039  0.017579315            1 
 2980000   0.77676355   -8.0260135    645.75666  0.018058072  0.017573569            2 
 2981000   0.75438979   -8.0153104    647.52161  0.018101353  0.017567826            3 
 2982000   0.75788423   -7.9961951    645.78659  0.018046797   0.01756209            5 
 2983000   0.78117558    -7.999797     646.7429  0.018067463  0.017556347            1 
 2984000   0.76429555   -7.9772019    647.39908  0.018079733  0.017550603            3 
 2985000   0.76197571    -8.046033    647.19963  0.018068108  0.017544873            2 
 2986000   0.77975276    -8.028805     645.8873  0.018025433  0.017539122            3 
 2987000   0.78734948   -8.0063127     647.9426  0.018076738  0.017533368            1 
 2988000   0.78419349   -8.0052782     647.6338  0.018062076  0.017527649            2 
 2989000   0.78040991   -8.0092697    646.04346  0.018011695  0.017521933            1 
 2990000   0.77542254   -7.9884063    647.43906  0.018044567  0.017516226            2 
 2991000   0.75953389   -7.9893555    647.57438  0.018042304    0.0175105            1 
 2992000   0.76887782   -7.9839877    649.25625  0.018083117  0.017504803            3 
 2993000   0.76636444   -8.0140728    647.01285  0.018014613  0.017499099            1 
 2994000   0.78020509   -8.0106921    647.42841  0.018020163  0.017493411            2 
 2995000   0.77882044   -8.0306526    647.80094  0.018024512  0.017487719            2 
 2996000   0.76668749   -8.0070376    648.94192  0.018050231  0.017482033            1 
 2997000   0.77991398   -8.0369858    647.41115  0.018001645  0.017476332            1 
 2998000   0.78083724   -7.9910674     648.0894  0.018014493   0.01747065            2 
 2999000    0.7747439   -8.0505273     646.2981  0.017958711  0.017464962            3 
 3000000   0.77669641    -8.011806    647.80493  0.017994581  0.017459267            3 
 3001000   0.76296706   -8.0023266      647.824  0.017989115  0.017453589            1 
 3002000   0.77084731   -8.0268356    647.71478   0.01798009  0.017447933            3 
 3003000   0.76584043   -8.0253191    647.24397  0.017961038  0.017442287            2 
 3004000   0.76962419   -7.9904608    648.07317  0.017978062  0.017436638            1 
 3005000   0.78122946   -8.0107809    649.08351  0.018000097  0.017430995            1 
 3006000   0.77497349   -8.0152492    648.66615  0.017982539  0.017425333            2 
 3007000   0.78380328   -8.0215657    647.51097  0.017944545  0.017419677            3 
 3008000   0.75824368   -7.9895872    648.92484  0.017977749  0.017414001            2 
 3009000   0.77610283   -8.0065723    648.13274  0.017949838  0.017408339            1 
 3010000   0.78121174   -8.0156821    648.64029  0.017957926   0.01740267            2 
 3011000   0.78641321   -8.0288844    647.40574  0.017917794  0.017396981            2 
 3012000    0.7837367   -8.0378959    648.59779  0.017944826  0.017391295            4 
 3013000   0.77497928   -8.0336128    648.06642  0.017924174  0.017385606            4 
 3014000   0.75758539   -8.0188529    647.94373  0.017914834  0.017379894            3 
 3015000   0.74897974   -8.0459463    647.41869  0.017894381  0.017374185            2 
 3016000   0.75982818   -8.0082555    648.04797  0.017905835   0.01736848            3 
 3017000   0.76672138   -8.0048807    649.07825  0.017928357  0.017362801            4 
 3018000   0.78725527   -8.0308088    649.01025  0.017920539  0.017357118            2 
 3019000   0.77831957    -8.051647    647.66845  0.017877566  0.017351412            5 
 3020000   0.76592217   -8.0443129    645.51598  0.017812251  0.017345702            7 
 3021000   0.75501675   -8.0299818    648.26163  0.017882093  0.017339977            2 
 3022000   0.76963952   -8.0393875    648.57445  0.017884802   0.01733426            5 
 3023000   0.76502235   -8.0152335    646.83835  0.017831027  0.017328562            5 
 3024000   0.77118489   -8.0289682     648.0628  0.017858873  0.017322893            1 
 3025000   0.76727554   -8.0333536    648.79355  0.017873101  0.017317206            2 
 3026000   0.76833694   -8.0452586    647.20353  0.017823406  0.017311525            3 
 3027000   0.76561646   -8.0128696      650.351  0.017904168  0.017305831            2 
 3028000   0.77892743   -8.0407563    647.20327  0.017811627  0.017300173            2 
 3029000   0.76919016   -8.0293233    649.54031  0.017870043  0.017294516            1 
 3030000   0.77036279   -8.0060827    650.28072  0.017884508  0.017288875            2 
 3031000   0.76720811    -7.996418    648.53515  0.017830616  0.017283242            2 
 3032000   0.76643222    -7.999897    649.70735  0.017856952  0.017277606            2 
 3033000   0.77183594   -7.9986529    650.19158  0.017864369  0.017271976            2 
 3034000   0.75381908   -8.0251863    648.73903  0.017818585  0.017266326            2 
 3035000   0.76036717   -8.0479279    648.16841  0.017797046  0.017260648            1 
 3036000   0.75035019   -8.0314058    648.08731  0.017788958  0.017254972            2 
 3037000   0.77489464   -8.0171514    649.26006   0.01781528  0.017249326            2 
 3038000    0.7713681   -8.0136877    649.22365  0.017808417  0.017243678            1 
 3039000   0.76717101   -8.0235773    647.25953  0.017748698  0.017238021            3 
 3040000   0.76622996   -8.0270263     648.6763  0.017781697  0.017232376            5 
 3041000   0.76690693   -8.0394856    649.68722  0.017803552   0.01722672            2 
 3042000    0.7588097    -8.049736    648.39839  0.017762393  0.017221084            2 
 3043000   0.76346133   -8.0538104    648.63592  0.017763061  0.017215442            2 
 3044000   0.76333224   -8.0349135     648.5724  0.017755486  0.017209794            3 
 3045000   0.76074168   -8.0195417    648.63178   0.01775128  0.017204131            3 
 3046000   0.75558924   -8.0430866    648.36232  0.017738081  0.017198484            3 
 3047000   0.76641196   -8.0395033    649.99254  0.017776844  0.017192845            2 
 3048000   0.76505151   -8.0590745    649.25805  0.017750931  0.017187226            2 
 3049000   0.77050402   -8.0221263    648.71282  0.017730207  0.017181574            2 
 3050000   0.76674945    -8.000411    649.25572  0.017739227  0.017175956            7 
 3051000   0.77755766   -8.0433443    649.41156   0.01773767  0.017170351            1 
 3052000   0.76697835   -8.0455511    649.85304  0.017743912  0.017164718            1 
 3053000   0.77248259   -8.0239688    649.14796  0.017718855  0.017159092            2 
 3054000   0.76230166   -8.0626903    649.53756  0.017723684  0.017153488            3 
 3055000   0.77629797   -8.0370194    649.66355  0.017721319  0.017147877            1 
 3056000   0.78116997    -8.004047     650.0999  0.017727419  0.017142263            5 
 3057000    0.7573871   -8.0166328    648.73766  0.017684485  0.017136647            2 
 3058000   0.76924688   -8.0253271    649.44799  0.017698059  0.017131034            3 
 3059000   0.76215265   -8.0560735    650.18247  0.017712283  0.017125435            2 
 3060000   0.75064846    -8.032246    649.83906  0.017697142  0.017119818            2 
 3061000   0.76174158   -8.0321906     649.2943   0.01767653  0.017114194            1 
 3062000   0.76082391   -8.0426551    649.50625  0.017676525  0.017108573            4 
 3063000    0.7826414   -8.0289987    650.00249  0.017684255  0.017102959            2 
 3064000   0.78038581   -8.0331576    648.83541  0.017646742  0.017097325            2 
 3065000   0.76347874   -8.0119022    650.55841   0.01768783  0.017091703            1 
 3066000   0.76890256   -8.0449144    650.34908  0.017676372  0.017086085            3 
 3067000   0.76148659   -8.0565426    649.86711  0.017657513  0.017080491            3 
 3068000   0.75445451    -8.053966    649.55605  0.017643308  0.017074882            3 
 3069000   0.76945173   -8.0372841    650.50174  0.017663238   0.01706927            1 
 3070000   0.76223212   -8.0157659    649.62235  0.017633614  0.017063682            1 
 3071000   0.76302647   -8.0385064     650.9569  0.017664086  0.017058105            2 
 3072000   0.77178486   -8.0475784    649.06105  0.017606908  0.017052501            2 
 3073000   0.76595424   -8.0577571    649.57783  0.017615192    0.0170469            4 
 3074000   0.76606179   -8.0548504     649.8159  0.017615916  0.017041317            3 
 3075000   0.76127746   -8.0316607    649.44631  0.017600171  0.017035755            1 
 3076000   0.76153735    -8.052609    648.67619  0.017573586  0.017030196            1 
 3077000   0.76407058   -8.0696534    650.01164  0.017604042  0.017024618            2 
 3078000   0.75461337   -8.0554427    647.88698    0.0175408  0.017019055            3 
 3079000   0.76382882   -8.0531847    651.00364  0.017619456  0.017013508            3 
 3080000   0.74702835     -8.04432    651.48888  0.017626864  0.017007958            1 
 3081000   0.75965922   -8.0300146    650.22604  0.017586986  0.017002393            2 
 3082000   0.74513033   -8.0529494    649.35064   0.01755761  0.016996849            2 
 3083000   0.77796324    -8.071973     648.7026  0.017534398  0.016991304            2 
 3084000   0.74561154   -8.0121128    650.95622  0.017589608  0.016985757            1 
 3085000   0.77606808   -8.0772254    649.67553  0.017549312  0.016980204            3 
 3086000   0.74522216   -8.0711067    650.57705   0.01756797  0.016974661            1 
 3087000   0.75402701   -8.0639522    649.94611  0.017545247  0.016969101            1 
 3088000   0.76534024   -8.0664187    649.81613  0.017536057  0.016963533            2 
 3089000   0.74860313   -8.0715594    650.34791  0.017544726  0.016957984            4 
 3090000   0.74621552   -8.0567329    650.15134  0.017533747  0.016952431            2 
 3091000   0.73277389   -8.0631165    649.52567  0.017511207  0.016946884            2 
 3092000    0.7587121   -8.0584829    648.95609  0.017490192  0.016941324            2 
 3093000   0.74517963   -8.0644834    649.94145  0.017511086   0.01693578            1 
 3094000   0.75384102   -8.0817016    649.55658   0.01749506  0.016930212            1 
 3095000   0.75015313   -8.0602405    650.10777  0.017504248  0.016924649            5 
 3096000   0.76569991   -8.0437556    649.67721  0.017487005  0.016919072            1 
 3097000   0.76200612   -8.0915606    649.55985  0.017478201  0.016913494            3 
 3098000   0.74329286   -8.0791179    649.14969  0.017461526  0.016907906            1 
 3099000   0.75888578   -8.0824715    650.68745  0.017497243  0.016902312            4 
 3100000    0.7461186   -8.0612287    650.49796  0.017486504   0.01689676            2 
 3101000   0.77826574   -8.0505501    650.77816  0.017488395  0.016891241            2 
 3102000   0.75688977   -8.0459923    650.79177  0.017483123  0.016885705            3 
 3103000   0.77146571   -8.0574177    650.81111  0.017478008  0.016880174            2 
 3104000   0.76279723   -8.0593736     652.0705  0.017506188  0.016874632            1 
 3105000   0.74945795   -8.0689687     651.0857   0.01747412  0.016869093            4 
 3106000   0.74454442   -8.0320816    650.88242   0.01746304   0.01686357            1 
 3107000   0.75810936   -8.0406366    651.18402  0.017465509  0.016858047            2 
 3108000   0.76609848   -8.0549382    650.76066  0.017448538  0.016852536            3 
 3109000    0.7425859    -8.059757    652.48862  0.017489241  0.016847006            1 
 3110000   0.76084369   -8.0681302    649.79135  0.017411344  0.016841474            4 
 3111000   0.76336963   -8.0823768    650.88434  0.017435025  0.016835936            3 
 3112000   0.75562575   -8.0952122    650.49152  0.017418903  0.016830388            1 
 3113000   0.73880404   -8.0887818    652.03156  0.017454534  0.016824865            2 
 3114000   0.76328339    -8.084972    650.50145  0.017407981   0.01681933            1 
 3115000   0.74056318   -8.0744057    650.89653  0.017412962  0.016813795            1 
 3116000   0.76614478    -8.067882    651.34679  0.017419416  0.016808278            3 
 3117000   0.74249925   -8.0956229    650.60543  0.017394007  0.016802768            3 
 3118000    0.7391286   -8.0611096    650.74025  0.017392031  0.016797258            1 
 3119000   0.76522443   -8.0812413    651.36961  0.017403271  0.016791751            2 
 3120000    0.7424115   -8.0835875    652.35087  0.017423901  0.016786224            1 
 3121000   0.75971893   -8.0967152    649.53074  0.017343019  0.016780718            2 
 3122000   0.75468266   -8.0651394    653.06472  0.017431794  0.016775228            2 
 3123000    0.7600971   -8.0936717    652.24716  0.017404396  0.016769746            3 
 3124000   0.76399649   -8.0728367    649.39505  0.017322745  0.016764252            2 
 3125000    0.7707027   -8.0706763    651.33644  0.017368972  0.016758752            4 
 3126000   0.76499701   -8.0571321    652.66823  0.017398919  0.016753304            2 
 3127000   0.74897449   -8.0692659     653.4199  0.017413386  0.016747878            4 
 3128000   0.78488571   -8.0399829    652.57715  0.017385367  0.016742433            2 
 3129000   0.74291992   -8.0740337    652.00869  0.017364672  0.016736978            2 
 3130000   0.76268884   -8.0513667    652.59454  0.017374722  0.016731525            2 
 3131000    0.7569698    -8.043868    653.33471  0.017388872  0.016726082            4 
 3132000   0.74412439   -8.0732687    653.41366  0.017385421  0.016720624            1 
 3133000   0.74360089   -8.0619582    653.15794   0.01737307  0.016715173            3 
 3134000    0.7485481   -8.0681123    652.68494   0.01735495   0.01670971            1 
 3135000   0.76666822   -8.0620573    651.92721  0.017329272  0.016704282            3 
 3136000   0.73825337   -8.0794665    651.20944  0.017304673  0.016698855            3 
 3137000   0.75386991   -8.0728546    653.56341  0.017361689  0.016693402            1 
 3138000   0.76047549   -8.0830388     652.3414  0.017323704  0.016687942            2 
 3139000   0.73756095   -8.0992596    653.18933  0.017340696  0.016682508            3 
 3140000   0.74124374   -8.0604219    652.89551  0.017327376  0.016677057            3 
 3141000    0.7630205   -8.0927471    652.97534  0.017323977  0.016671644            3 
 3142000    0.7470652   -8.0815353    652.41153   0.01730351  0.016666221            4 
 3143000   0.74901952   -8.0961635    653.07207  0.017315518  0.016660804            2 
 3144000   0.75148998   -8.0650017    653.40168  0.017318747  0.016655383            3 
 3145000   0.74156403   -8.0764814    651.73618  0.017269109  0.016649956            3 
 3146000   0.74525313   -8.0763335    651.90767  0.017268162  0.016644521            2 
 3147000   0.73780631   -8.0792736    651.37887  0.017248673  0.016639077            3 
 3148000   0.75731389   -8.0998558    652.63344  0.017276404   0.01663362            1 
 3149000   0.73132345   -8.1042182    653.34977  0.017289874   0.01662816            2 
 3150000   0.74421784   -8.0721685     652.2005  0.017253981  0.016622731            1 
 3151000   0.74742274   -8.0707959    654.69424  0.017314457  0.016617345            2 
 3152000   0.76411765   -8.0748429    653.78942  0.017285042  0.016611948            2 
 3153000   0.74185581   -8.0858341    654.30584  0.017293209  0.016606549            2 
 3154000   0.76951867   -8.0680502    652.65142  0.017244013  0.016601151            3 
 3155000   0.74302607   -8.0913605    651.57894   0.01721022  0.016595749            2 
 3156000   0.75168012   -8.0594597    654.59956  0.017284526  0.016590365            2 
 3157000   0.73110421   -8.0791598    655.25298  0.017296299  0.016585002            3 
 3158000   0.74399791    -8.024236    654.98435  0.017283733  0.016579631            4 
 3159000   0.74556439   -8.0630805    654.58199  0.017267648  0.016574282            2 
 3160000   0.75514689   -8.0614777    652.37669  0.017204027  0.016568938            3 
 3161000   0.74703197   -8.0667988    653.31289  0.017223265  0.016563571            2 
 3162000   0.75446104   -8.0717683    653.68558   0.01722764  0.016558199            2 
 3163000   0.72037635   -8.0610268    653.40584  0.017214823  0.016552821            2 
 3164000   0.75175544   -8.0889661    654.40552  0.017235712  0.016547444            3 
 3165000   0.75354322   -8.0830373    653.69422  0.017211538  0.016542052            2 
 3166000   0.75010309   -8.0681716    653.60257   0.01720369  0.016536708            6 
 3167000   0.73170343   -8.0911139    652.81084  0.017177425  0.016531372            2 
 3168000   0.74947931   -8.0983578    654.62444  0.017219708  0.016526012            2 
 3169000    0.7440411   -8.0751752    654.33579  0.017206684  0.016520637            2 
 3170000   0.75177492   -8.0982565     653.2566  0.017172886   0.01651527            1 
 3171000   0.74216235   -8.0795244    654.02065   0.01718755  0.016509911            2 
 3172000   0.72497736   -8.1059643    653.41596  0.017166245  0.016504547            2 
 3173000   0.73334238    -8.110719    653.52326  0.017163653  0.016499172            1 
 3174000   0.75504897   -8.0999104    653.75343  0.017164289  0.016493797            1 
 3175000    0.7365876   -8.0732449    653.67967  0.017156947  0.016488433            2 
 3176000    0.7528853   -8.0912994    653.58691  0.017149111  0.016483059            3 
 3177000   0.74084379   -8.1042661    653.13247  0.017131793  0.016477674            4 
 3178000   0.74928877   -8.0825347      654.772  0.017169394    0.0164723            5 
 3179000   0.74739349   -8.0801922    654.40661  0.017154415  0.016466953            2 
 3180000    0.7325464   -8.1227525    654.65615  0.017155559  0.016461578            1 
 3181000   0.74067038   -8.0820593    654.33777  0.017141826  0.016456222            3 
 3182000   0.73365554   -8.0721901    653.55226  0.017115867   0.01645086            3 
 3183000   0.74065337   -8.0945409    654.16623  0.017126564  0.016445481            2 
 3184000   0.74087096   -8.0847613    653.01003  0.017090924  0.016440117            1 
 3185000   0.74486642   -8.0903908    652.34518  0.017068163  0.016434747            3 
 3186000   0.74154382   -8.1044515    652.98331  0.017079496   0.01642936            3 
 3187000    0.7394678   -8.1043161    654.71238  0.017119349   0.01642396            3 
 3188000   0.73237068   -8.1010942    652.03624  0.017044025  0.016418562            2 
 3189000   0.75831137   -8.1085333    654.88091  0.017113016  0.016413172            2 
 3190000   0.72897542   -8.1161098    654.61801  0.017100784  0.016407798            1 
 3191000   0.72641771   -8.0989536    653.41917  0.017064117  0.016402424            2 
 3192000   0.73917228   -8.1149004     653.3026  0.017055728  0.016397047            8 
 3193000   0.74049553   -8.1166764    653.70791  0.017060964  0.016391675            2 
 3194000   0.75314499   -8.1233484     652.4576  0.017023001  0.016386277            2 
 3195000   0.73199239   -8.1078149    653.35705  0.017041133  0.016380887            3 
 3196000   0.73414328   -8.1259757    652.31407  0.017008606  0.016375469            3 
 3197000   0.74826156   -8.1216186    653.28687  0.017028643  0.016370054            3 
 3198000    0.7369704   -8.1268532    651.78637  0.016984218  0.016364635            1 
 3199000   0.74900218   -8.1109575     651.7611  0.016978251  0.016359214            4 
 3200000   0.72041143    -8.151558    650.82313  0.016948519  0.016353772            3 
 3201000    0.7286905    -8.116783    651.77663  0.016968047  0.016348323            1 
 3202000   0.74305535   -8.1412747    653.32041  0.017002926  0.016342869            2 
 3203000   0.72502985   -8.1555881    650.60529  0.016926977   0.01633743            5 
 3204000   0.73356787   -8.0980113    651.79429  0.016952619   0.01633198            2 
 3205000   0.73998341   -8.1243075    652.18131  0.016957392  0.016326563            1 
 3206000   0.74533067   -8.1292509    653.06947  0.016975189  0.016321131            2 
 3207000   0.73693526   -8.1039972    652.01751  0.016942561  0.016315701            2 
 3208000   0.73459841   -8.1091629    652.14116  0.016940492  0.016310289            3 
 3209000   0.75588861    -8.097378    652.68511  0.016949338  0.016304883            3 
 3210000   0.73173523   -8.1137375    651.60649  0.016916056  0.016299465            1 
 3211000   0.74811922   -8.1263953    651.38902  0.016905144   0.01629404            1 
 3212000   0.72892946   -8.1121871     651.7792  0.016910004  0.016288616            1 
 3213000   0.73371425   -8.1220033    651.05431   0.01688594  0.016283217            1 
 3214000   0.75156886   -8.1148514    651.67308   0.01689673   0.01627781            3 
 3215000   0.74906357   -8.1185966     653.5464  0.016940031  0.016272417            2 
 3216000   0.72268654   -8.0973166    653.17468  0.016925132  0.016267031            1 
 3217000   0.71906175   -8.0909099    653.77242  0.016935354  0.016261656            2 
 3218000   0.72241387   -8.1076882    653.44697  0.016921664   0.01625628            3 
 3219000   0.73534551   -8.0851857    654.06356  0.016932369  0.016250904            2 
 3220000   0.73457341   -8.0929381    652.91395  0.016897359  0.016245544            3 
 3221000   0.73843002   -8.1131731    651.81952  0.016863798  0.016240163            3 
 3222000   0.74215939   -8.1180572    653.52677   0.01690272  0.016234763            1 
 3223000   0.73867868   -8.0957288    652.24122  0.016864237  0.016229376            2 
 3224000   0.74603842   -8.0993344    652.32571   0.01686119  0.016223998            2 
 3225000   0.72043492   -8.1097307    652.99286  0.016873201  0.016218604            5 
 3226000    0.7423984   -8.0938678    654.00529  0.016894123  0.016213212            4 
 3227000   0.72485351   -8.1245245    653.05493  0.016864346  0.016207816            2 
 3228000   0.72617288   -8.1521889    653.79189  0.016878147  0.016202415            4 
 3229000   0.72611398    -8.143089    650.77752  0.016795125  0.016197011            5 
 3230000   0.74615856   -8.1212119    652.41408  0.016832149   0.01619162            4 
 3231000   0.72499919   -8.1368079    652.79476  0.016836757  0.016186241            2 
 3232000   0.73637592   -8.1351175    651.23593  0.016791355   0.01618084            3 
 3233000   0.74375216   -8.1364704    653.20954  0.016837033  0.016175447            8 
 3234000     0.719664   -8.1602375    651.93752   0.01679905  0.016170055            4 
 3235000   0.72947182   -8.1374402    653.20415  0.016826485   0.01616469            3 
 3236000   0.75145422   -8.1463971    653.04881  0.016817285  0.016159314            2 
 3237000   0.71704451   -8.1348215    652.42601  0.016796056  0.016153952            2 
 3238000   0.73888501   -8.1249071     654.6199  0.016847331  0.016148605            2 
 3239000   0.74711304   -8.1131553    653.22726    0.0168063  0.016143259            7 
 3240000   0.75152621   -8.1304813    654.47265  0.016833144   0.01613792            1 
 3241000   0.73168874   -8.1414564    651.44228  0.016750033  0.016132567            3 
 3242000   0.72052508   -8.1544777     652.9494  0.016783606  0.016127207            2 
 3243000   0.73842399   -8.1433461    652.40064  0.016764329  0.016121864            2 
 3244000   0.72535542   -8.1334789    653.95024  0.016798968  0.016116523            2 
 3245000   0.73373343   -8.1559686    653.62441  0.016785424  0.016111165            3 
 3246000   0.71072991   -8.1312901     653.4726  0.016776356   0.01610581            2 
 3247000   0.72868122   -8.1662841    653.59967   0.01677445  0.016100432            2 
 3248000     0.733672   -8.1416422    653.41856  0.016764639  0.016095065            3 
 3249000   0.71235934   -8.1462456    653.56976  0.016763357  0.016089729            1 
 3250000   0.72013383   -8.1088265    653.86784  0.016765842  0.016084392            3 
 3251000   0.73564921    -8.089186    653.29613   0.01674603  0.016079088            7 
 3252000   0.71459117   -8.1338483     653.7843   0.01675339  0.016073778            2 
 3253000   0.73326575   -8.1465229    653.15821  0.016732201  0.016068445            2 
 3254000    0.7324209   -8.1257326    654.14441  0.016752315  0.016063104            1 
 3255000   0.73192753   -8.1508076    653.08134  0.016719952  0.016057764            2 
 3256000   0.73428555   -8.1275134    653.93574  0.016736685  0.016052414            3 
 3257000   0.71592398   -8.1410312    654.39831  0.016743381  0.016047076            5 
 3258000     0.734447   -8.1368515    654.27038   0.01673497  0.016041755            2 
 3259000   0.74035997   -8.1365138    654.68538  0.016740446  0.016036436            2 
 3260000   0.73116832    -8.134706    654.99059  0.016743113  0.016031118            2 
 3261000   0.72691295   -8.1152645    655.29949  0.016745873   0.01602582            2 
 3262000   0.70844669   -8.1406376     653.8206  0.016702958  0.016020507            3 
 3263000   0.72486874   -8.1428929    653.92847  0.016700594  0.016015197            1 
 3264000   0.72203702   -8.1365403    653.24967  0.016678147  0.016009882            1 
 3265000   0.72248286   -8.1455331     653.7899  0.016686828  0.016004583            4 
 3266000   0.73848194   -8.1495864     653.5993  0.016676855   0.01599926            2 
 3267000   0.73488141   -8.1711756    653.53674  0.016670154  0.015993961            2 
 3268000   0.72350947   -8.1325308    654.88564   0.01669945  0.015988677            2 
 3269000    0.7096664   -8.1532819    654.63411   0.01668793  0.015983391            1 
 3270000   0.72107462   -8.1566328       654.19  0.016671509  0.015978115            2 
 3271000   0.72483907   -8.1575032     654.2578  0.016668139  0.015972837            1 
 3272000   0.73134579   -8.1359248    654.68603  0.016673951  0.015967566            1 
 3273000   0.73742723   -8.1604595    653.54043  0.016639689  0.015962289            2 
 3274000   0.72370194   -8.1174206     655.9881  0.016696907  0.015957008            2 
 3275000   0.72993308   -8.1476729    655.35791  0.016675774  0.015951745            1 
 3276000   0.73945865   -8.1476303    655.47828  0.016673745  0.015946484            3 
 3277000   0.71615229   -8.1561825    656.36179  0.016691125  0.015941233            2 
 3278000    0.7420323   -8.1122884    655.93371   0.01667515     0.015936            2 
 3279000   0.72792272   -8.1387626    654.04194  0.016621987  0.015930766            3 
 3280000   0.73355915   -8.1210681    654.24435  0.016622062  0.015925547            1 
 3281000   0.72421791   -8.1410222    655.03906   0.01663718  0.015920303            2 
 3282000   0.71491037   -8.1346719    656.29491  0.016663998  0.015915061            3 
 3283000   0.72794611   -8.1684634    654.60577  0.016616047  0.015909827            2 
 3284000    0.7207095   -8.1159614    656.04077  0.016647401  0.015904601            1 
 3285000   0.71968748   -8.1128771    657.71914   0.01668491  0.015899384            4 
 3286000    0.7186033   -8.1355404    656.14743  0.016639973  0.015894186            2 
 3287000   0.73144292   -8.1254949    655.74083  0.016624603  0.015888989            3 
 3288000   0.73319511   -8.1555405     656.0027  0.016626184   0.01588377            4 
 3289000   0.72719836   -8.1280128    656.75182  0.016640109  0.015878577            3 
 3290000   0.71184362   -8.1354461    654.62691  0.016581229  0.015873394            1 
 3291000    0.7303929     -8.14482    656.20336  0.016616109  0.015868226            2 
 3292000   0.73047349   -8.1664246    654.88899  0.016577789  0.015863037            3 
 3293000    0.7207128   -8.1434926    656.47219   0.01661282  0.015857847            2 
 3294000   0.72433951   -8.1377188    655.01872  0.016571006  0.015852665            5 
 3295000   0.71891484   -8.1340336    655.86556  0.016587394   0.01584747            2 
 3296000   0.75201234   -8.1136073    656.68568  0.016603097  0.015842282            2 
 3297000   0.74145662   -8.1545521    655.73184  0.016573952  0.015837077            5 
 3298000   0.71386075   -8.1783735    655.38164  0.016560078  0.015831846            2 
 3299000   0.73479752   -8.1524649    655.18504  0.016550092  0.015826639            2 
 3300000   0.71984108   -8.1445623    654.78693  0.016535023  0.015821417            4 
 3301000    0.7184765   -8.1775269    654.58316   0.01652487   0.01581619            2 
 3302000   0.71317514   -8.1666529    656.15874  0.016559629  0.015810973            2 
 3303000   0.72708529   -8.1613448    655.52299  0.016538576  0.015805742            1 
 3304000   0.70504964   -8.1833959    655.85376  0.016541913  0.015800513            3 
 3305000   0.72723392   -8.1896854    653.98189   0.01648971  0.015795296            3 
 3306000    0.7161288   -8.1704042    656.37857  0.016545134  0.015790066            2 
 3307000   0.72257674   -8.1777606    655.65888  0.016521996  0.015784833            3 
 3308000   0.72130462    -8.157378    656.89184  0.016548061  0.015779624            2 
 3309000   0.71455026    -8.158855    656.86467  0.016542376  0.015774428            3 
 3310000   0.73201532   -8.1340607    654.94001  0.016488923  0.015769226            4 
 3311000   0.72452038    -8.144634    656.97036  0.016535044  0.015764044            2 
 3312000   0.71118916   -8.1488887    656.67506  0.016522621  0.015758876            1 
 3313000   0.72380257   -8.1720865    655.90866  0.016498356   0.01575371            3 
 3314000   0.72869827   -8.1765952    657.03217   0.01652163  0.015748549            3 
 3315000   0.72118946   -8.1505441    656.03956  0.016491693  0.015743393            4 
 3316000   0.70153651   -8.1427186    654.98726  0.016460275  0.015738215            3 
 3317000   0.71788087   -8.1429385    656.11157  0.016483559  0.015733051            2 
 3318000   0.72466002   -8.1682387    657.36183  0.016509992  0.015727893            2 
 3319000   0.73644807   -8.1755365    655.52607  0.016458925  0.015722723            2 
 3320000   0.73995572   -8.1683391    655.46861  0.016452525  0.015717544            4 
 3321000   0.72098668   -8.1755242    654.55863  0.016424737  0.015712353            6 
 3322000   0.72615928   -8.1668098    656.01931  0.016456435  0.015707176            1 
 3323000   0.72794593   -8.1558873     656.4849  0.016463158   0.01570202            4 
 3324000   0.71388134   -8.1370903    655.98042  0.016445558   0.01569686            4 
 3325000   0.71652559   -8.1605804    656.95944  0.016465149  0.015691709            3 
 3326000   0.72192406   -8.1398366    655.68812  0.016428345  0.015686558            2 
 3327000   0.72927806   -8.1518808    656.74245  0.016449816  0.015681416            3 
 3328000   0.72309645   -8.1543709    657.21483  0.016456701  0.015676273            1 
 3329000   0.72974082   -8.1486985    656.30958  0.016429097  0.015671126            3 
 3330000   0.72206852   -8.1573064    656.60315   0.01643151  0.015665964            3 
 3331000   0.73844861   -8.1401587    657.34511  0.016445139  0.015660812            3 
 3332000    0.7174823   -8.1460225    655.64792  0.016397757  0.015655646            8 
 3333000   0.71451858    -8.145346    656.30486  0.016409262  0.015650466            3 
 3334000   0.72406184   -8.1491553    657.83514   0.01644259  0.015645278            2 
 3335000   0.72745487    -8.141279    656.83441  0.016412654  0.015640098            2 
 3336000   0.71948693   -8.1696723    657.04649  0.016413032  0.015634919            4 
 3337000   0.71883332   -8.2100751    655.21329  0.016362334  0.015629727            2 
 3338000   0.71824293   -8.1877588    655.09934  0.016354587  0.015624542            2 
 3339000    0.7062481   -8.1843753    654.94676  0.016345881  0.015619359            2 
 3340000   0.72993033   -8.1813569    655.09966  0.016344802  0.015614164            3 
 3341000   0.73207056   -8.2019831    653.63047  0.016303264  0.015608955            2 
 3342000   0.72532138   -8.1758259    653.79015  0.016302368  0.015603742            2 
 3343000   0.72600502   -8.1792284    654.84136  0.016323695  0.015598539            2 
 3344000   0.71287771   -8.1640705    654.97147  0.016322056  0.015593346            2 
 3345000   0.72268892   -8.1598242    655.13737   0.01632131  0.015588161            1 
 3346000   0.70441348   -8.1651085     655.8822  0.016334982  0.015582995            2 
 3347000   0.72284453   -8.1665848    655.34198  0.016316651  0.015577834            1 
 3348000   0.72248356   -8.1751251    656.32294  0.016336194  0.015572652            4 
 3349000   0.73007209     -8.17845    655.89975  0.016320786  0.015567472            1 
 3350000   0.70470505   -8.1632702    656.30774  0.016326063  0.015562298            2 
 3351000   0.71405492   -8.1595103    656.24575   0.01631965   0.01555713            2 
 3352000   0.72212768   -8.1595582    654.96686  0.016282987  0.015551944            3 
 3353000   0.72943143   -8.1702622    656.50485  0.016316355  0.015546757            5 
 3354000   0.72365511   -8.1558749    654.37356  0.016258536  0.015541583            4 
 3355000   0.71812483   -8.1966578    655.92959   0.01629234  0.015536386            1 
 3356000   0.72792499   -8.1862951    655.09136  0.016266671  0.015531198            5 
 3357000   0.70249997   -8.1688785    654.96422  0.016258669  0.015526003            1 
 3358000   0.72911558   -8.1967102    654.03959  0.016230881  0.015520821            2 
 3359000   0.72329433   -8.2075437    654.98457  0.016249493  0.015515613            4 
 3360000    0.6913175   -8.1816481    655.66379  0.016261503  0.015510403            2 
 3361000    0.7255495   -8.1772365    654.19367  0.016220214  0.015505203            4 
 3362000   0.69780675   -8.1945581     653.7461  0.016204296  0.015500014            2 
 3363000   0.70505401   -8.1502647    654.78295   0.01622517   0.01549482            2 
 3364000    0.7201323   -8.2075866    654.70709  0.016218467  0.015489637            5 
 3365000   0.71066064   -8.1903516    653.99038  0.016195899  0.015484457            4 
 3366000   0.72001857   -8.1940731    654.86483  0.016212736  0.015479275            2 
 3367000   0.71730083   -8.2302271    654.69251  0.016203656  0.015474092            2 
 3368000   0.70859301     -8.19989    654.14401  0.016185273  0.015468919            1 
 3369000   0.71430933   -8.2039205    654.18432  0.016181466  0.015463733            1 
 3370000   0.70853931   -8.1996414    653.86747   0.01616883  0.015458532            1 
 3371000   0.71317921   -8.2101664       653.81  0.016162612  0.015453341            1 
 3372000   0.73324064   -8.2080259    653.89892  0.016160017  0.015448147            3 
 3373000   0.70633243   -8.2055741    655.05856  0.016183876  0.015442974            2 
 3374000   0.71391841   -8.1805108    655.32758  0.016185724  0.015437805            4 
 3375000   0.71117201   -8.2018888    654.70246  0.016165493  0.015432635            2 
 3376000   0.70670173   -8.2024825    655.26838  0.016174674  0.015427466            2 
 3377000   0.70300116   -8.2026438    655.49063  0.016175368  0.015422286            2 
 3378000   0.71411036   -8.1884415    655.15748  0.016162361  0.015417098            4 
 3379000   0.70539179    -8.196494    655.66809  0.016170171  0.015411929            2 
 3380000   0.70128656    -8.200312     654.4458  0.016135251  0.015406757            2 
 3381000   0.72096575   -8.2025922    653.74898  0.016113304   0.01540157            2 
 3382000   0.70432848    -8.202911     653.2978  0.016097423  0.015396381            2 
 3383000   0.71797866   -8.2054544    654.41196  0.016120109  0.015391199            4 
 3384000   0.69997525   -8.2208396    653.55667  0.016094284  0.015386011            2 
 3385000    0.7155664   -8.1966372    655.27196  0.016131757  0.015380832            2 
 3386000    0.7127919   -8.2033704    654.67189  0.016112224  0.015375653            3 
 3387000    0.7018348   -8.1957324     654.1304  0.016094144  0.015370466            1 
 3388000   0.71127611   -8.2150462    653.44524  0.016072541  0.015365292            2 
 3389000   0.70691654   -8.2095321    655.99963   0.01613061  0.015360106            2 
 3390000    0.7112324   -8.2118977    653.84638   0.01607292  0.015354936            7 
 3391000   0.69754846   -8.1768989    654.50904  0.016084465  0.015349773            2 
 3392000    0.7115752   -8.2113041    654.61835  0.016082408  0.015344615            1 
 3393000   0.71497256   -8.1885792    655.57419  0.016101144  0.015339465            1 
 3394000   0.68761061   -8.1931167     653.9159  0.016055684  0.015334303            3 
 3395000   0.70552463   -8.2007603    654.99406  0.016077419   0.01532914            1 
 3396000   0.70926726   -8.2182029    653.76517   0.01604253   0.01532397            2 
 3397000    0.7011527   -8.2010299    654.70381  0.016060833  0.015318807            2 
 3398000   0.71351068   -8.2282053    654.05608  0.016040222  0.015313636            3 
 3399000   0.70905767    -8.210596    654.00385  0.016034222   0.01530848            2 
 3400000   0.68951181   -8.2179514    656.69067   0.01609536  0.015303331            2 
 3401000   0.70460221   -8.1827942    654.86933  0.016045999  0.015298179            3 
 3402000   0.70916269   -8.1675315    654.23978  0.016025862   0.01529305            2 
 3403000   0.69395085   -8.2002532    654.78547  0.016034515  0.015287918            3 
 3404000   0.71289245   -8.1815855    653.42125  0.015996407  0.015282777            1 
 3405000   0.71734529    -8.183129    655.30518  0.016037817  0.015277644            2 
 3406000   0.70206301   -8.1584249     655.0076  0.016025827  0.015272517            2 
 3407000   0.71488147   -8.1798169    654.68204   0.01601316  0.015267382            3 
 3408000   0.69982477     -8.18927    654.28904  0.015998852  0.015262255            1 
 3409000   0.71719205    -8.195796    653.93379  0.015985474  0.015257133            6 
 3410000   0.70209975   -8.1993255     655.4557  0.016017979  0.015252016            5 
 3411000   0.70758401   -8.1941087    656.32725  0.016034576  0.015246901            3 
 3412000   0.70437494   -8.1738632    656.27398  0.016028575  0.015241785            2 
 3413000   0.71096565   -8.1763459    654.21935  0.015973712  0.015236679            2 
 3414000   0.71514218   -8.1945921    655.18733  0.015992661  0.015231571            3 
 3415000   0.69235225   -8.1764569    656.79195  0.016027134  0.015226467            2 
 3416000   0.69240533   -8.2186717    655.31171  0.015986332  0.015221363            2 
 3417000   0.70598066   -8.2069244    654.44846    0.0159606  0.015216242            3 
 3418000   0.70390284   -8.1976329    655.26276  0.015975784  0.015211145            5 
 3419000   0.70234814   -8.1835388    655.78217  0.015983771  0.015206047            3 
 3420000   0.69960687   -8.1651116     655.2718  0.015966662  0.015200967            1 
 3421000    0.6920998   -8.1855586    655.86487  0.015976441  0.015195896            2 
 3422000   0.70341946   -8.1741482    655.52461  0.015963487  0.015190814            2 
 3423000   0.70053167   -8.1848341    653.86271  0.015918364  0.015185708            2 
 3424000   0.70564783   -8.1857175    656.10835  0.015968369  0.015180629            2 
 3425000    0.7084943   -8.1840288    655.36169   0.01594554  0.015175553            2 
 3426000   0.70332785   -8.1615814    657.23044  0.015986341  0.015170492            2 
 3427000   0.69651012   -8.1891853    654.76831  0.015921805  0.015165408            2 
 3428000   0.70485572   -8.1743941    657.96444  0.015994857  0.015160348            5 
 3429000   0.70098994   -8.1798842    656.95516  0.015965664  0.015155274            2 
 3430000   0.71285703   -8.2080474     655.8668  0.015934568  0.015150198            1 
 3431000   0.71019374   -8.1981903    655.75284  0.015927155  0.015145135            1 
 3432000   0.70531065    -8.193736    656.76728  0.015947146  0.015140074            2 
 3433000   0.72670273   -8.1896692    656.53828  0.015936943  0.015135006            5 
 3434000   0.69925387   -8.2084536     655.6143  0.015909879  0.015129933            2 
 3435000   0.69297663   -8.2196849    654.69025   0.01588283  0.015124835            2 
 3436000   0.72797054   -8.2101108    655.10274  0.015888211  0.015119742            2 
 3437000    0.6942869   -8.2192068    653.37021  0.015841582  0.015114651            3 
 3438000   0.70389105   -8.1944467    656.36261  0.015909507  0.015109567            3 
 3439000   0.70175937   -8.1954732    655.77432  0.015890625  0.015104473            2 
 3440000   0.68734492   -8.2112073    654.89045  0.015864594  0.015099386            2 
 3441000   0.69418422   -8.2049198    655.50868  0.015874956  0.015094316            2 
 3442000   0.69985432   -8.2120735    656.95225  0.015905294  0.015089249            2 
 3443000   0.72029207   -8.1872307    657.14174  0.015905261  0.015084201            1 
 3444000     0.707838   -8.2115877    657.29544  0.015904361  0.015079155            3 
 3445000   0.70290036   -8.1895071    655.87771   0.01586545  0.015074125            2 
 3446000   0.68994378   -8.2137825    655.68358  0.015856152  0.015069074            1 
 3447000   0.69012479   -8.1988993    656.53975   0.01587225   0.01506403            2 
 3448000   0.69783897   -8.2159907    655.92138  0.015852702  0.015058975            1 
 3449000   0.72481611   -8.1927191    656.14941  0.015853615  0.015053947            2 
 3450000    0.6896264    -8.192269     656.7116  0.015862599  0.015048929            2 
 3451000   0.67557223   -8.2083099     655.7287  0.015834268  0.015043892            1 
 3452000   0.69593405    -8.221724     656.1883  0.015840776   0.01503885            2 
 3453000   0.70270827   -8.2316202    655.68019  0.015823926  0.015033812            3 
 3454000   0.69176558   -8.2085254    656.17977  0.015831398  0.015028764            3 
 3455000   0.70353385   -8.1827327    655.38326  0.015807604  0.015023744            2 
 3456000   0.69296558   -8.2070321    656.65914  0.015833795  0.015018713            4 
 3457000   0.70018513   -8.2168886    655.84924  0.015809691  0.015013674            2 
 3458000   0.70590679   -8.2274015    656.15522  0.015812493   0.01500863            3 
 3459000   0.69308481   -8.1996098    655.90842  0.015801976  0.015003595            5 
 3460000   0.69773433   -8.2180058    655.64677  0.015791107  0.014998568            2 
 3461000   0.68983584   -8.2029042    654.73535    0.0157646  0.014993536            3 
 3462000   0.69701762   -8.2334304    655.26201  0.015772723   0.01498852            4 
 3463000   0.70392631   -8.2160548    655.41415   0.01577183  0.014983485            1 
 3464000   0.69909627   -8.2463564    655.74073  0.015775133  0.014978443            6 
 3465000   0.69367305   -8.2612474    654.64524  0.015744234  0.014973392            4 
 3466000   0.68073957   -8.2078426    655.90383  0.015769952  0.014968357            2 
 3467000   0.67998278   -8.2626897     656.0038  0.015767806  0.014963314            2 
 3468000   0.70512897   -8.2144251    655.24484  0.015745022  0.014958284            4 
 3469000   0.70356857   -8.2346226    656.48113  0.015770182  0.014953259            1 
 3470000   0.68876826   -8.2085131    655.72372  0.015747448  0.014948227            2 
 3471000   0.70686606   -8.2270661    654.94829  0.015724294  0.014943206            1 
 3472000    0.7050075   -8.2088981    657.12424  0.015771991  0.014938198            2 
 3473000   0.69789722   -8.2437939    654.91167   0.01571436   0.01493319            2 
 3474000   0.69990837   -8.2271799    654.84244  0.015708176  0.014928168            2 
 3475000   0.70568745   -8.2378094    655.25317  0.015713505  0.014923161            4 
 3476000   0.68573118   -8.2142669    655.83731  0.015722989  0.014918151            4 
 3477000   0.69886611   -8.2355022    654.74276  0.015692234  0.014913126            1 
 3478000   0.69038303   -8.2313277    656.34801  0.015726184  0.014908112            3 
 3479000   0.69021085   -8.2121374    655.37112  0.015698264    0.0149031            1 
 3480000   0.70369528   -8.2393386    655.75203  0.015702874  0.014898103            3 
 3481000   0.70047777   -8.2355957    657.25685  0.015734388  0.014893098            3 
 3482000   0.69008665    -8.259316    655.17811  0.015680119  0.014888097            3 
 3483000    0.6858499   -8.2248928    655.96824  0.015694522  0.014883096            3 
 3484000   0.68819887   -8.2240876    655.43306  0.015677216  0.014878085            5 
 3485000   0.70431209   -8.2331413    655.25478  0.015668455  0.014873078            3 
 3486000   0.69880192   -8.2321771    655.40208  0.015667481  0.014868069            3 
 3487000   0.69224801   -8.1965622    656.23999  0.015683013  0.014863053            2 
 3488000   0.69102863   -8.2038339    656.25597  0.015678898  0.014858057            2 
 3489000   0.69739497   -8.2211335    656.04766  0.015669429   0.01485307            2 
 3490000   0.68117704   -8.2311081    656.90574  0.015685428  0.014848076            2 
 3491000   0.70163515   -8.2230462    655.60126  0.015649796  0.014843087            2 
 3492000   0.68979826   -8.2317414    655.43516  0.015641351  0.014838105            2 
 3493000   0.69308831   -8.2089579    656.76051  0.015668492  0.014833132            2 
 3494000   0.67569547   -8.2231753    656.99992  0.015669718  0.014828157            1 
 3495000   0.71506555   -8.2139358    657.03326  0.015666029  0.014823187            4 
 3496000   0.70605113   -8.2094369    655.55904  0.015626407  0.014818225            3 
 3497000   0.67982096   -8.2073875    656.57162  0.015646069  0.014813263            3 
 3498000   0.70284148   -8.2111339    656.88776  0.015649127  0.014808295            2 
 3499000   0.70413868   -8.2252597    657.17904  0.015651592  0.014803331            2 
 3500000   0.67752462   -8.2324112    656.58318  0.015632933  0.014798373            2 
 3501000   0.69080691   -8.2601274    655.50273   0.01560275  0.014793412            3 
 3502000   0.70236246   -8.2398457    656.82341  0.015629721  0.014788455            4 
 3503000   0.68698029   -8.2035288    656.10048  0.015608062  0.014783504            3 
 3504000   0.68838322   -8.2530514    655.07359  0.015579185   0.01477854            3 
 3505000    0.6852899   -8.2419301    656.41076  0.015606533  0.014773572            3 
 3506000   0.67370548    -8.214078    656.51191  0.015604485  0.014768618            7 
 3507000   0.68074732   -8.2146143    657.02046   0.01561212  0.014763669            4 
 3508000   0.69385874   -8.2267285    656.35999   0.01559198   0.01475872            3 
 3509000   0.69935667   -8.2045552    655.88957  0.015576365  0.014753778            3 
 3510000   0.68693469   -8.2591918    656.22754  0.015579951  0.014748824            2 
 3511000   0.68745698   -8.2302263    656.39944  0.015579594  0.014743862            3 
 3512000    0.6914685   -8.2172675    656.76549  0.015583843  0.014738907            2 
 3513000   0.67725204   -8.2211403    656.65565  0.015576802  0.014733961            2 
 3514000   0.68550143   -8.2613601    656.26163  0.015563025  0.014729006            2 
 3515000   0.69339722   -8.2651006     655.6522  0.015544149   0.01472405            1 
 3516000   0.69810368   -8.2265654    656.82006  0.015567408   0.01471909            2 
 3517000   0.68753157   -8.2250765    656.34667  0.015551764  0.014714142            3 
 3518000   0.68703279   -8.2196486    656.74954  0.015556887  0.014709189            2 
 3519000   0.67826154   -8.2226292    656.89862  0.015555997  0.014704252            3 
 3520000   0.68138755   -8.2559592    656.36527  0.015538951  0.014699315            2 
 3521000   0.70534643   -8.2551542    657.40379  0.015559116  0.014694372            2 
 3522000   0.68862706   -8.2302215    657.09344  0.015547356  0.014689444            2 
 3523000   0.69654198   -8.2279927     656.2549  0.015523108  0.014684522            4 
 3524000   0.67279398   -8.2360927    656.00374  0.015512763  0.014679599            2 
 3525000   0.68742408   -8.2290143    655.40265  0.015494153  0.014674681            3 
 3526000    0.6946635   -8.2210531     656.0555  0.015505188  0.014669753            4 
 3527000   0.69489384   -8.2506424    656.09044  0.015501617  0.014664827            2 
 3528000   0.68486766   -8.2394654    656.97445  0.015518104  0.014659912            2 
 3529000   0.67886261   -8.2185432    657.79973  0.015533195  0.014655005            1 
 3530000   0.68504149   -8.1984928    657.93017  0.015531874  0.014650107            2 
 3531000   0.67402199   -8.2082499    658.24801  0.015534976  0.014645212            3 
 3532000   0.67983451   -8.2334607    655.89783  0.015475128  0.014640303            2 
 3533000    0.6828778   -8.2307753    655.98707  0.015472853  0.014635387            2 
 3534000   0.68721946   -8.2238199    655.82042  0.015464545  0.014630483            1 
 3535000   0.68422297   -8.2517683    655.88336  0.015461654  0.014625561            3 
 3536000   0.69253756   -8.2497425    657.30971  0.015490896  0.014620639            2 
 3537000   0.68022366   -8.2600009    657.54477  0.015492055  0.014615736            2 
 3538000   0.69279495   -8.2619082    656.63016  0.015466133  0.014610825            3 
 3539000   0.68888843   -8.2524309    656.85771  0.015467121  0.014605913            2 
 3540000   0.69315124   -8.2320713    656.24401  0.015448305  0.014600996            2 
 3541000   0.67980403   -8.2416726     656.8341   0.01545783  0.014596092            1 
 3542000    0.6922982   -8.2664794    656.06497   0.01543537  0.014591175            2 
 3543000   0.68201258   -8.2534244    655.94366   0.01542816   0.01458626            2 
 3544000   0.68604946   -8.2697401    656.25881  0.015431217   0.01458134            4 
 3545000   0.69776165   -8.2606002    656.43397  0.015430982  0.014576432            1 
 3546000   0.69682652   -8.2513922    657.16571  0.015443827  0.014571522            1 
 3547000    0.6875723   -8.2298146    655.79442  0.015407255  0.014566614            1 
 3548000   0.68261961   -8.2504282    655.55775  0.015397354  0.014561704            3 
 3549000   0.67414976   -8.2588636     656.5154  0.015415502  0.014556789            2 
 3550000   0.68835687   -8.2654604    656.52541  0.015411395  0.014551887            5 
 3551000    0.6903383   -8.2468768    658.24874  0.015447497  0.014546982            2 
 3552000   0.68356968    -8.252734    657.25884  0.015419924  0.014542082            2 
 3553000   0.68312137   -8.2714564    656.95273  0.015408404  0.014537195            3 
 3554000   0.66942778   -8.2415936    656.03504  0.015382551  0.014532288            2 
 3555000   0.69357745   -8.2412096    656.21576   0.01538246  0.014527382            3 
 3556000   0.67576418   -8.2647053    656.14732  0.015376531  0.014522471            3 
 3557000   0.69490306   -8.2328575    656.21081  0.015373695  0.014517567            3 
 3558000   0.68339905   -8.2613678    655.64378  0.015356094  0.014512658            4 
 3559000   0.67018078   -8.2494076    655.29674  0.015343653  0.014507755            2 
 3560000   0.67769978   -8.2547341    656.68321  0.015371798   0.01450285            2 
 3561000   0.68087756   -8.2648236    656.16275  0.015355302  0.014497943            1 
 3562000    0.6748858   -8.2799832    655.68456  0.015339803  0.014493053            2 
 3563000   0.66868891   -8.2771128    656.97842   0.01536576  0.014488147            1 
 3564000   0.67520634   -8.2712255    655.60833  0.015329413  0.014483244            1 
 3565000   0.66816917   -8.2684895    655.93164   0.01533267  0.014478342            1 
 3566000   0.67796058   -8.2575751    655.33247  0.015314369  0.014473429            3 
 3567000   0.67771538   -8.2800811    656.44826  0.015336143  0.014468528            5 
 3568000   0.68397981   -8.2756542    656.18071  0.015325596  0.014463632            2 
 3569000   0.68573328   -8.2692058    656.60696  0.015331254  0.014458739            2 
 3570000    0.6827482   -8.2847728     655.0343   0.01529025  0.014453852            1 
 3571000   0.67932995   -8.2579133    654.04241  0.015262821  0.014448948            3 
 3572000   0.68649117   -8.2778574    655.24305  0.015286559  0.014444055            6 
 3573000   0.68481129   -8.2668833     656.2043    0.0153047  0.014439165            4 
 3574000   0.68609875   -8.2667835      655.508  0.015284182   0.01443429            2 
 3575000   0.66514407   -8.2640885    656.61743  0.015305768  0.014429403            1 
 3576000   0.68850831   -8.2604457    656.78819  0.015305467  0.014424531            3 
 3577000   0.66455165   -8.2615811    656.78385  0.015301087  0.014419664            2 
 3578000    0.6813978   -8.2523223    656.68063  0.015294406  0.014414788            5 
 3579000   0.67749287   -8.2529717    655.92426  0.015272522  0.014409921            2 
 3580000   0.67160338   -8.2428521    656.99451  0.015293168  0.014405045            3 
 3581000   0.67451204    -8.289224    656.02974  0.015266446  0.014400167            2 
 3582000   0.68145365   -8.2636086    656.58818  0.015275176  0.014395278            2 
 3583000   0.69090891   -8.2914127    655.47011  0.015244909  0.014390402            2 
 3584000   0.68349286   -8.2621657    656.54566  0.015265664  0.014385534            1 
 3585000   0.67376617   -8.2666408    656.22547  0.015253963  0.014380676            2 
 3586000     0.688525   -8.2565995     655.8432  0.015240825  0.014375822            2 
 3587000   0.68241685   -8.2762889    656.76942  0.015258095   0.01437096            2 
 3588000   0.68377359   -8.2793596    656.28011  0.015242478  0.014366103            3 
 3589000   0.67775719   -8.2875517    654.10739  0.015187782  0.014361247            2 
 3590000   0.67284481   -8.2472878    656.57163  0.015240753  0.014356388            2 
 3591000   0.67774995   -8.2868792     656.0485  0.015224369  0.014351528            3 
 3592000   0.67366102   -8.2872096    655.41834  0.015205511  0.014346673            2 
 3593000    0.6729345   -8.2965197    656.48256  0.015225962  0.014341819            5 
 3594000   0.67378904   -8.2623876    657.02002  0.015234187  0.014336957            2 
 3595000    0.6960576   -8.2872635    656.74618  0.015223602  0.014332092            2 
 3596000   0.67138522   -8.2671317    656.21672  0.015207099  0.014327237            2 
 3597000   0.67161466   -8.2666015    656.86777  0.015217954   0.01432239            3 
 3598000    0.6763347   -8.2647243    654.63086  0.015161916  0.014317537            1 
 3599000   0.67509396   -8.2807775    655.97952   0.01518893  0.014312682            3 
 3600000   0.68230745   -8.2687637    656.37305  0.015193821  0.014307836            4 
 3601000    0.6717449   -8.2690504    655.83278  0.015177099  0.014302992            2 
 3602000   0.67746363   -8.2802064    656.90982  0.015197803  0.014298149            3 
 3603000   0.67509678   -8.2815051    654.25953  0.015132286  0.014293306            2 
 3604000   0.67354863   -8.2800413    656.35148  0.015176459  0.014288461            2 
 3605000   0.66892537   -8.2935033    654.69714  0.015134007  0.014283605            5 
 3606000   0.67298772   -8.3069128     654.3964   0.01512286   0.01427874            2 
 3607000   0.67910281   -8.2837058     656.0559  0.015157007  0.014273877            8 
 3608000   0.68004722   -8.2847083    655.36664  0.015136887  0.014269013            3 
 3609000   0.67831153   -8.2851316    655.01653  0.015124608  0.014264147            2 
 3610000   0.67933219   -8.2884937     656.1054  0.015145554  0.014259287            1 
 3611000   0.66876406    -8.293611    656.41812  0.015148576  0.014254432            3 
 3612000   0.67476432   -8.3158805    655.12386  0.015114522  0.014249573            2 
 3613000   0.67908306   -8.2769824      656.187   0.01513486  0.014244722            2 
 3614000   0.67806922   -8.2945802    655.10753  0.015105781  0.014239875            2 
 3615000    0.6830495   -8.2995023    654.02923  0.015076746  0.014235036            1 
 3616000   0.66012274   -8.2979054     655.8508  0.015114556    0.0142302            1 
 3617000   0.67748791   -8.3003228    655.08695  0.015092778  0.014225348            3 
 3618000   0.68845591   -8.2860626    654.95763  0.015085628    0.0142205            2 
 3619000   0.67401182   -8.3051859    654.11491  0.015062055  0.014215645            4 
 3620000   0.65748602   -8.2820182    654.23765  0.015060719   0.01421078            1 
 3621000   0.66861469   -8.2876393    655.68095  0.015089776   0.01420593            2 
 3622000   0.67342621   -8.3046288    654.85158  0.015066528  0.014201083            1 
 3623000   0.65719477   -8.2819417    655.28613  0.015072365   0.01419624            3 
 3624000   0.67357862   -8.2967896    655.91301  0.015082621  0.014191398            2 
 3625000    0.6680285   -8.3005733    655.65732  0.015072582  0.014186575            2 
 3626000   0.68925737   -8.2816068    656.51939  0.015088238  0.014181747            1 
 3627000   0.66376087   -8.2911005    655.61814  0.015063371  0.014176924            2 
 3628000   0.67300204   -8.2856879    655.43983  0.015055123  0.014172107            2 
 3629000   0.67462014   -8.2899561    655.34378  0.015048769  0.014167288            1 
 3630000   0.67945986   -8.3141869     655.7731  0.015054479  0.014162468            2 
 3631000   0.66307884   -8.3016263     655.0994  0.015034871  0.014157644            1 
 3632000   0.66034551   -8.2633484    655.85024  0.015047959  0.014152819            3 
 3633000    0.6827109    -8.299736    655.34932  0.015032327  0.014148009            2 
 3634000   0.67972256    -8.303158    655.32749   0.01502769  0.014143206            3 
 3635000   0.67197415    -8.300636    656.92289   0.01506013  0.014138388            4 
 3636000    0.6771589   -8.3077318    656.13781  0.015037995  0.014133588            4 
 3637000   0.65776879   -8.3182599     654.5759  0.014998073   0.01412878            3 
 3638000   0.64865507   -8.3068691    655.92747   0.01502491  0.014123957            3 
 3639000   0.67751909    -8.316317    654.87786  0.014996745  0.014119142            2 
 3640000   0.68214441   -8.3018903    654.51794  0.014984385  0.014114325            2 
 3641000   0.67591631   -8.2769273    654.46618  0.014979085  0.014109519            3 
 3642000    0.6830809   -8.2992883    655.99522  0.015009958  0.014104711            2 
 3643000   0.67353421   -8.3166843    655.12777  0.014985995  0.014099907            3 
 3644000   0.67264556   -8.3078997     656.5396  0.015014169  0.014095103            3 
 3645000   0.67413833   -8.3042887    655.10527  0.014977258  0.014090302            2 
 3646000   0.65231084   -8.2921534    655.64495  0.014985485  0.014085501            3 
 3647000   0.67454572   -8.3117207    656.65061  0.015004355  0.014080704            1 
 3648000   0.65109247   -8.3054984    656.17549  0.014989389  0.014075914            4 
 3649000    0.6690241   -8.3215804    656.01749  0.014981673  0.014071124            2 
 3650000    0.6621453   -8.3014759    655.69965  0.014970312  0.014066338            5 
 3651000   0.66344235   -8.2948926    654.90398   0.01494805  0.014061545            1 
 3652000    0.6609573   -8.3141343     656.1655  0.014972743  0.014056753            2 
 3653000   0.67643541   -8.3327486    654.52045  0.014931117  0.014051956            1 
 3654000   0.67194198   -8.3024506     654.7518  0.014932307  0.014047156            2 
 3655000   0.68217614   -8.2952541     655.4778  0.014944774  0.014042375            1 
 3656000   0.65745706   -8.3079177    655.44021   0.01493983  0.014037591            2 
 3657000    0.6670085   -8.3224709    654.22516  0.014908057  0.014032804            2 
 3658000   0.66755934   -8.3031113    654.57757  0.014912009  0.014028024            2 
 3659000   0.67566385    -8.297692    655.78137   0.01493535  0.014023249            1 
 3660000   0.66604763   -8.3034971    655.40259  0.014922645  0.014018477            3 
 3661000   0.67173153   -8.3013689    656.49973  0.014943543  0.014013711            2 
 3662000   0.67005327   -8.3193102    655.80962  0.014923758  0.014008938            1 
 3663000   0.66431203   -8.2843151    656.90406  0.014944582  0.014004172            2 
 3664000   0.66698807   -8.2712496    655.95802  0.014918987  0.013999406            1 
 3665000   0.68108263   -8.3373381    655.42001  0.014902683  0.013994631            1 
 3666000    0.6557279   -8.3171191    654.16369   0.01487006  0.013989856            2 
 3667000   0.68415273   -8.3277471    654.90974  0.014882959  0.013985076            1 
 3668000   0.66723994   -8.3469425    655.60735  0.014894751   0.01398028            2 
 3669000   0.67149911   -8.3232606    655.50501  0.014888367  0.013975494            2 
 3670000   0.66549147   -8.2984174    655.32706  0.014880269  0.013970713            1 
 3671000   0.66977333   -8.3128818    654.71604  0.014862345   0.01396593            3 
 3672000   0.65021588   -8.3054523    654.49994  0.014853394  0.013961146            2 
 3673000   0.65804256   -8.3253773    653.95933  0.014837084  0.013956359            3 
 3674000    0.6713315   -8.3344746    654.05702  0.014835262  0.013951578            2 
 3675000   0.66708936   -8.3254977     655.4064  0.014861823  0.013946795            2 
 3676000   0.66255794   -8.3158985    654.62697  0.014840111  0.013942019            2 
 3677000   0.65618124   -8.3082149    654.24811  0.014827489  0.013937248            5 
 3678000   0.65913688   -8.3381367    654.98432  0.014840138  0.013932473            3 
 3679000   0.66966558   -8.3230938     654.3262  0.014821197  0.013927699            3 
 3680000   0.65660618    -8.328608    654.09155  0.014811856  0.013922938            1 
 3681000    0.6572935   -8.3149115    655.25516  0.014834175  0.013918177            3 
 3682000   0.66196629   -8.3250349        654.2  0.014806265  0.013913408            2 
 3683000   0.64290664   -8.2882688    655.75727   0.01483748  0.013908634            2 
 3684000   0.66104811   -8.3112576    654.14014  0.014796873  0.013903867            3 
 3685000   0.66791808   -8.3060662    656.12658  0.014837779  0.013899111            8 
 3686000   0.66355755   -8.3343849    654.48171  0.014796566  0.013894354            2 
 3687000   0.66624828   -8.3351256    654.20648  0.014786332  0.013889597            1 
 3688000   0.65489528   -8.2970237     653.6205  0.014769082  0.013884843            3 
 3689000   0.65462938    -8.313311    654.61814  0.014787615  0.013880091            2 
 3690000   0.66136926    -8.344622    653.41877  0.014756522  0.013875326            2 
 3691000   0.66057266   -8.3352077    653.25245  0.014748768  0.013870561            1 
 3692000   0.66335719    -8.335742    654.13165  0.014764618  0.013865797            1 
 3693000   0.65392171   -8.3060809     653.5754  0.014748068  0.013861032            2 
 3694000     0.638295   -8.3325432    654.15195  0.014757082  0.013856267            3 
 3695000   0.65466117    -8.325817    655.09465  0.014774349  0.013851502            3 
 3696000   0.65963057   -8.3215054    654.50838  0.014757133  0.013846743            2 
 3697000   0.66004794   -8.3349484    654.64392  0.014756197  0.013842004            2 
 3698000   0.66643688   -8.3337268    652.90394  0.014712997  0.013837253            1 
 3699000   0.66320635   -8.3303638    655.68163  0.014771597  0.013832513            3 
 3700000   0.65513037   -8.3233784    655.37642   0.01476073  0.013827766            1 
 3701000   0.67937385    -8.328319    653.86338  0.014722674  0.013823028            2 
 3702000    0.6666067   -8.3282612    654.66777  0.014736804  0.013818287            4 
 3703000   0.67354736   -8.3469291    654.77474  0.014735231  0.013813536            2 
 3704000   0.65330361   -8.3392737    654.68104  0.014729145  0.013808785            2 
 3705000   0.65530845   -8.3226447    654.77431  0.014727267  0.013804032            2 
 3706000   0.64597411    -8.341211    653.03878  0.014684268   0.01379928            2 
 3707000   0.66988507   -8.3363944     653.8666  0.014698916   0.01379452            1 
 3708000   0.65573106   -8.3584734    654.47658  0.014708661  0.013789764           12 
 3709000   0.65910044   -8.3486089    654.04684   0.01469504  0.013785006            2 
 3710000   0.65417011   -8.3434928     654.1283  0.014692909   0.01378025            3 
 3711000   0.66559651   -8.3298744     655.2947  0.014715142  0.013775504            2 
 3712000   0.65530534   -8.3513152    653.63161  0.014673842  0.013770762            2 
 3713000   0.65393253   -8.3453378    654.44157  0.014688068  0.013766016            3 
 3714000   0.66371046   -8.3415843    654.05027  0.014675334  0.013761269            1 
 3715000   0.65794313   -8.3338553    653.83451  0.014666543  0.013756528            1 
 3716000    0.6487873   -8.3459732     654.1789   0.01467032  0.013751789            2 
 3717000   0.64801496   -8.3378658    654.40516  0.014671446  0.013747049            2 
 3718000   0.63961878   -8.3405546    652.48448   0.01462445  0.013742319            5 
 3719000   0.66546159   -8.3536477    654.75632  0.014671424  0.013737584            4 
 3720000    0.6544387   -8.3201453    653.96119  0.014649668  0.013732848            2 
 3721000   0.66381525   -8.3503456    654.01103  0.014646847  0.013728124            3 
 3722000   0.66276362   -8.3392221    653.65207  0.014634875  0.013723406            1 
 3723000   0.65430728   -8.3514731    654.68126  0.014653981  0.013718682            3 
 3724000   0.64733611   -8.3430253     655.0762  0.014658884  0.013713957            3 
 3725000   0.66648541   -8.3213915     654.2633  0.014636763  0.013709237            1 
 3726000    0.6560514    -8.322642    654.11184  0.014629447  0.013704529            3 
 3727000    0.6576412   -8.3536975    653.02123  0.014601137  0.013699811            3 
 3728000   0.66513268   -8.3400009    655.27626  0.014647627  0.013695094            4 
 3729000   0.65172538   -8.3261868    654.39469  0.014623999   0.01369038            1 
 3730000   0.65137513   -8.3570534    655.43818  0.014643391  0.013685675            6 
 3731000   0.64527208   -8.3441798    654.77106  0.014624566  0.013680971            3 
 3732000   0.66505082   -8.3168376    654.63984  0.014617717  0.013676267            1 
 3733000   0.64516524    -8.349386    653.23542   0.01458245  0.013671569            2 
 3734000    0.6566303    -8.342446    653.19816  0.014577713  0.013666865            3 
 3735000   0.65572517   -8.3158439    655.19221    0.0146183  0.013662166            4 
 3736000   0.64629904   -8.3189209    652.79452  0.014560906  0.013657473            6 
 3737000   0.66520335   -8.3346169    654.99365  0.014606049  0.013652786            4 
 3738000   0.65670075   -8.3335392    654.68455   0.01459525  0.013648094            1 
 3739000   0.65117496   -8.3330759    654.51774  0.014587629  0.013643406            2 
 3740000   0.64702928   -8.3361204    654.69212  0.014587614  0.013638714            1 
 3741000   0.65246236    -8.311965    654.33922  0.014575854  0.013634018            3 
 3742000   0.65279556   -8.3383823    654.61242  0.014578043  0.013629333            2 
 3743000   0.65676308   -8.3478995    654.31864  0.014567607  0.013624649            2 
 3744000   0.65784691   -8.3400844    656.02304  0.014601652  0.013619976            4 
 3745000    0.6444719   -8.3423011    654.30339  0.014559488  0.013615301            2 
 3746000    0.6468793   -8.3233962    654.70598  0.014564557  0.013610623            1 
 3747000   0.65624243   -8.3597071    653.82582  0.014541096  0.013605952            1 
 3748000   0.64238972   -8.3202022    655.11807  0.014565948  0.013601278            2 
 3749000   0.65099084   -8.3351767    654.16937  0.014540975  0.013596597            2 
 3750000   0.63788237   -8.3240805    653.72139  0.014527142  0.013591925            4 
 3751000   0.64740744   -8.3510872    654.27528  0.014535574  0.013587255            1 
 3752000   0.65697314   -8.3261855    653.37138  0.014511624  0.013582575            2 
 3753000   0.65687421   -8.3461888    652.41041   0.01448642  0.013577898            2 
 3754000   0.64766057   -8.3189469    654.14261  0.014521013  0.013573221            3 
 3755000   0.64824141   -8.3617593    652.87826  0.014489087  0.013568542            3 
 3756000   0.65126954   -8.3419087    654.34531  0.014517778  0.013563871            2 
 3757000   0.65663677   -8.3226926    654.07208  0.014507854  0.013559201            6 
 3758000   0.64482732   -8.3303032     653.7397  0.014496623   0.01355453            3 
 3759000   0.65205048   -8.3392523    654.19188  0.014502791  0.013549867            2 
 3760000    0.6593821   -8.3273759    654.32431  0.014501869  0.013545202            2 
 3761000   0.64214504   -8.3413027    654.25054  0.014496378  0.013540536            2 
 3762000   0.65857307    -8.345483    654.73694  0.014503299  0.013535878            4 
 3763000   0.65378747   -8.3262355    652.59202  0.014451945  0.013531214            3 
 3764000   0.65575806   -8.3249209    654.20879    0.0144839  0.013526553            4 
 3765000   0.65127267   -8.3559255    652.82202  0.014449359  0.013521899            1 
 3766000   0.65356677    -8.336851    653.77666  0.014466646  0.013517251            4 
 3767000   0.64127933   -8.3408801    654.81431   0.01448576  0.013512606            4 
 3768000   0.64301795   -8.3427964    654.16133  0.014467475   0.01350796            2 
 3769000   0.63469836   -8.3309227    654.70362  0.014475626  0.013503312            4 
 3770000    0.6456179   -8.3493649    656.09104  0.014502454  0.013498682            4 
 3771000   0.63818142    -8.325226     653.9842  0.014452051  0.013494041            2 
 3772000   0.65234691    -8.334884    654.61645  0.014462187  0.013489412            2 
 3773000   0.64753957   -8.3541797      654.008  0.014444916  0.013484779            2 
 3774000   0.64795755   -8.3477365    653.68903  0.014434045   0.01348015            3 
 3775000   0.66466901   -8.3334363     654.8265  0.014455331  0.013475514            2 
 3776000    0.6422268   -8.3492664    655.32921  0.014462597  0.013470883            3 
 3777000    0.6293045    -8.339663    653.30203  0.014414042  0.013466251            2 
 3778000   0.65792361   -8.3483608    654.98833  0.014447422  0.013461617            2 
 3779000   0.64633633   -8.3425441    655.24388  0.014449234  0.013456982            1 
 3780000    0.6492918   -8.3479235    654.02825  0.014418612   0.01345235            4 
 3781000   0.65633074   -8.3536074     654.5074  0.014425359  0.013447727            2 
 3782000   0.64059638   -8.3375627     655.3572   0.01444027   0.01344311            1 
 3783000   0.65941655   -8.3613963    653.70006  0.014399948  0.013438479            3 
 3784000   0.64142817   -8.3359169    653.88637  0.014400246  0.013433853            2 
 3785000   0.63952126   -8.3622828    655.62347  0.014434687  0.013429229            3 
 3786000   0.64556201   -8.3480084    653.80654  0.014390882  0.013424614            2 
 3787000   0.64473024   -8.3499017    653.71465   0.01438506  0.013420004            4 
 3788000   0.64404586   -8.3585115    653.48027  0.014376106   0.01341538            1 
 3789000   0.63134345   -8.3780517    652.19949  0.014344143  0.013410761            2 
 3790000   0.64195083   -8.3336309    655.37545   0.01441019  0.013406147            3 
 3791000   0.64795746   -8.3218441    654.90378  0.014396021  0.013401538            3 
 3792000   0.64994423   -8.3361519    653.69114  0.014365575  0.013396937            2 
 3793000   0.64311021   -8.3385675    656.60563   0.01442582  0.013392338            3 
 3794000   0.64707453   -8.3388478     654.3679  0.014372867  0.013387743            2 
 3795000   0.65666546   -8.3408882     654.1858  0.014365081  0.013383149            3 
 3796000   0.63548632   -8.3670575    654.43443  0.014366755  0.013378546            2 
 3797000   0.64404817   -8.3533754    654.11615  0.014355986  0.013373946            2 
 3798000   0.64376167   -8.3583779    654.37713  0.014357932  0.013369344            3 
 3799000   0.63555705   -8.3544417    655.12426  0.014370542  0.013364746            2 
 3800000   0.64813603   -8.3676487    653.05114  0.014321297  0.013360148            1 
 3801000   0.63280241   -8.3522769    653.78186  0.014333549  0.013355548            2 
 3802000   0.64942635   -8.3561348    652.89808  0.014310408   0.01335096            2 
 3803000   0.65101846   -8.3472219     652.7452  0.014303296  0.013346366            2 
 3804000   0.62863275    -8.351755    653.91191  0.014325094  0.013341776            1 
 3805000   0.63855189   -8.3444653    654.98946  0.014344929  0.013337189            2 
 3806000   0.65732209   -8.3669191    654.01931  0.014319918  0.013332604            1 
 3807000   0.63402579   -8.3799395    653.75726  0.014310421  0.013328021            2 
 3808000   0.64435962   -8.3616748    654.63346  0.014325837  0.013323447            2 
 3809000   0.64127805   -8.3437473    654.41519  0.014317301  0.013318887            2 
 3810000    0.6548066   -8.3680731    654.47797  0.014314916  0.013314326            2 
 3811000   0.64787101   -8.3529999     654.2644   0.01430649  0.013309764            2 
 3812000   0.64218458   -8.3767201    654.70779   0.01431243  0.013305205            3 
 3813000   0.66922361   -8.3413334     655.8238  0.014333067   0.01330063            6 
 3814000   0.62890006   -8.3349585    653.47146  0.014277912  0.013296068            5 
 3815000   0.63126441   -8.3520602     654.6314  0.014299506    0.0132915            3 
 3816000    0.6599628    -8.365845    653.19441  0.014264378  0.013286928            3 
 3817000   0.64040027    -8.352803    654.49136  0.014288956  0.013282363            3 
 3818000   0.63180691   -8.3677512    654.15226  0.014277813  0.013277796            3 
 3819000   0.64293297   -8.3531817    654.42697  0.014280068  0.013273234            2 
 3820000   0.63123897   -8.3601794    652.51394  0.014234597  0.013268669            3 
 3821000   0.63925127   -8.3743733    654.68997   0.01427833  0.013264102            2 
 3822000   0.63682472    -8.338234     654.9289  0.014279803  0.013259539            3 
 3823000   0.63720961   -8.3681695    653.31718  0.014240936  0.013254978            2 
 3824000   0.63412147   -8.3661144    654.32354  0.014259143   0.01325042            1 
 3825000   0.62296645   -8.3610787    654.40337  0.014257154  0.013245863            1 
 3826000   0.63569282   -8.3799142     653.8377  0.014241107  0.013241308            2 
 3827000   0.63512213   -8.3430172    653.33218  0.014226378  0.013236752            3 
 3828000   0.63501678   -8.3658284    654.14461  0.014240348  0.013232196            3 
 3829000   0.63687096   -8.3299581    654.09713  0.014235595  0.013227638            3 
 3830000   0.64372877   -8.3801595    653.35175   0.01421566  0.013223089            2 
 3831000   0.65379589    -8.370602    652.72277  0.014198268  0.013218548            2 
 3832000     0.637195   -8.3715437    654.68323  0.014237196  0.013213997            3 
 3833000   0.64597684   -8.3752205    654.21953    0.0142234  0.013209459            3 
 3834000   0.63797025   -8.3812617    653.71416  0.014208706   0.01320491            2 
 3835000   0.64152038   -8.3538637    653.70718   0.01420485  0.013200363            3 
 3836000   0.64325158    -8.363137    653.61612  0.014199168  0.013195826            3 
 3837000   0.63067697   -8.3547378    653.85406  0.014200636  0.013191288            2 
 3838000   0.62994483   -8.3660708    653.54866  0.014190304  0.013186757            2 
 3839000   0.65309808    -8.366351    653.95575  0.014195445  0.013182225            3 
 3840000   0.63299038    -8.392164     653.6814  0.014185794  0.013177696            1 
 3841000   0.62584601   -8.3646162      652.874  0.014164584  0.013173166            3 
 3842000   0.63366759   -8.3588091    654.75365  0.014201667  0.013168631            3 
 3843000   0.63115838   -8.3954415    653.72995  0.014175773  0.013164098            3 
 3844000   0.64570814   -8.3646921    653.42806  0.014165541  0.013159562            2 
 3845000   0.64985474   -8.3408868    655.22267  0.014200751  0.013155044            3 
 3846000   0.64094966   -8.3611081    654.07493   0.01417219  0.013150524            1 
 3847000   0.63322925   -8.3476442     653.7904  0.014162343  0.013146003            1 
 3848000   0.63036175   -8.3745885    654.57047  0.014175556  0.013141484            3 
 3849000   0.63782134   -8.3559714    655.05959  0.014182463  0.013136972            5 
 3850000   0.64646246    -8.366496    655.04752  0.014178518  0.013132452            2 
 3851000   0.62344077   -8.3660039     654.7713  0.014168859  0.013127938            3 
 3852000    0.6377831    -8.381854    653.94098  0.014147217  0.013123425            4 
 3853000   0.63162486   -8.3623845    653.60172  0.014136208  0.013118906            4 
 3854000   0.64079542   -8.3659624    653.33667  0.014126809    0.0131144            5 
 3855000   0.63177597   -8.3786627    654.25019  0.014142892  0.013109892            1 
 3856000   0.63829258   -8.3703068    654.01855  0.014134218  0.013105386            3 
 3857000    0.6409226   -8.3551652    653.74907  0.014124731  0.013100877            3 
 3858000   0.63032396   -8.3624627    654.27448  0.014132419  0.013096371            2 
 3859000   0.62804144    -8.368262     654.3588  0.014130578  0.013091862            1 
 3860000    0.6329553   -8.3643452    653.66532  0.014111946  0.013087356            1 
 3861000   0.64973229   -8.3733934    654.49098  0.014126111  0.013082857            3 
 3862000   0.63571196   -8.3759855    652.77353  0.014085395  0.013078357            3 
 3863000   0.63782136   -8.3711812    654.00405  0.014108293   0.01307385            2 
 3864000   0.63542604   -8.3564006    653.26753  0.014088758  0.013069346            3 
 3865000   0.62745988   -8.3776479    655.02716  0.014123052  0.013064851            2 
 3866000   0.62662225   -8.3532064    653.36316  0.014083531   0.01306036            3 
 3867000   0.63860864   -8.3954238    652.80914   0.01406795  0.013055867            5 
 3868000   0.63970031   -8.3915287    653.56662  0.014080632  0.013051374            3 
 3869000     0.652332   -8.3927486    654.46297  0.014096299  0.013046891            2 
 3870000   0.61460629   -8.3740577     654.6384  0.014096434  0.013042402            1 
 3871000   0.64234538   -8.3599738    654.98247    0.0141002  0.013037923            2 
 3872000   0.63547711   -8.3833524    653.63354  0.014067526  0.013033444            2 
 3873000   0.62638007   -8.3862028    653.51169  0.014061272  0.013028957            1 
 3874000   0.61614896   -8.3759186    652.45849  0.014034987  0.013024474            2 
 3875000   0.63429937   -8.3952622    652.84796  0.014039741  0.013019985            2 
 3876000   0.64079155   -8.4020233    654.78661  0.014077799  0.013015495            2 
 3877000   0.62266729   -8.3988774    654.38061  0.014065442  0.013011009            1 
 3878000    0.6373599   -8.3811157    653.08467  0.014033967  0.013006529            3 
 3879000   0.63870778   -8.3867946    653.13709  0.014031475  0.013002048            1 
 3880000   0.63912234   -8.3909445    654.15147  0.014049645  0.012997565            2 
 3881000    0.6344391   -8.4010707    652.72314  0.014015356  0.012993089            4 
 3882000   0.66074907   -8.3900855    652.78238  0.014013017  0.012988613            2 
 3883000   0.63590915    -8.400826    653.40913  0.014022859  0.012984134            1 
 3884000   0.62932252   -8.4034257    653.87957  0.014029342  0.012979652            2 
 3885000   0.63652355     -8.41082    652.70475  0.014000531  0.012975174            3 
 3886000   0.64595106   -8.3867215    653.10542   0.01400552   0.01297069            6 
 3887000   0.62555646   -8.3914641    652.94868  0.013998557  0.012966215            2 
 3888000   0.62877798   -8.3842625    653.03441  0.013996794  0.012961734            4 
 3889000   0.63674507   -8.4061734    651.93813  0.013969704  0.012957259            2 
 3890000   0.62661229   -8.3943562    653.40685  0.013997576  0.012952785            2 
 3891000   0.63553876    -8.411772    653.16439  0.013988786  0.012948309            3 
 3892000   0.62358941   -8.4094561    652.99011   0.01398146   0.01294384            2 
 3893000   0.62074712   -8.3941816    653.52896  0.013989403  0.012939363            2 
 3894000   0.63295171   -8.4146964    652.81586   0.01397055  0.012934891            1 
 3895000   0.62766268   -8.3901701    653.15942  0.013974314  0.012930419            2 
 3896000   0.63399428   -8.4045661    653.94629  0.013987557  0.012925955            1 
 3897000   0.64081247   -8.3934516    653.70093  0.013978722  0.012921489            2 
 3898000   0.63413094   -8.3987225    653.24585  0.013965406  0.012917021            5 
 3899000   0.63595151   -8.3911838    653.49763  0.013967206   0.01291256            3 
 3900000   0.61905667   -8.4013199    652.89556   0.01395076  0.012908097            1 
 3901000   0.64004208   -8.4043816    653.54756  0.013961112  0.012903636            1 
 3902000   0.61912792   -8.4039618     652.7399  0.013940285  0.012899174            1 
 3903000   0.62733161   -8.4165937    652.80047  0.013938006  0.012894715            2 
 3904000   0.63400421   -8.4088588    652.54138  0.013928906  0.012890253            2 
 3905000   0.62236693   -8.3955741    653.61455  0.013948241  0.012885794            1 
 3906000   0.63370608   -8.4195608    653.01459   0.01393187  0.012881335            2 
 3907000   0.62411205    -8.397214    652.08834  0.013908547  0.012876877            2 
 3908000    0.6142259   -8.4260398    653.70735  0.013939512  0.012872423            2 
 3909000   0.64236925   -8.4133158    652.07081  0.013901058  0.012867968            2 
 3910000    0.6340807   -8.3921583    653.97494  0.013938085  0.012863514            2 
 3911000   0.62867862   -8.4200552    652.68182  0.013906968  0.012859065            2 
 3912000    0.6126167   -8.4184582    652.34044  0.013896141  0.012854617            4 
 3913000   0.63087843   -8.4082935    652.75213  0.013901357  0.012850171            2 
 3914000    0.6175975    -8.412911    652.16114  0.013885223  0.012845726            4 
 3915000   0.63197153   -8.4200413    652.88894  0.013897168  0.012841294            1 
 3916000   0.62929085   -8.4053867    653.96166  0.013916447  0.012836856            3 
 3917000   0.61720436   -8.4138445    652.19882   0.01387539  0.012832417            2 
 3918000    0.6179688   -8.4201846    652.60108  0.013880404  0.012827973            2 
 3919000   0.64852157   -8.3890733    653.22888  0.013890212  0.012823541            1 
 3920000   0.61425296    -8.413999    652.58618  0.013873006  0.012819104            2 
 3921000   0.61496628   -8.4139635    653.73136  0.013893806   0.01281467            1 
 3922000   0.62088418   -8.4045046    652.72207  0.013868819  0.012810242            3 
 3923000   0.62646286   -8.4370726    652.64299  0.013863603   0.01280581            1 
 3924000   0.62260838   -8.4064851    653.05725  0.013868868  0.012801381            1 
 3925000   0.64200393   -8.3926661    652.87625  0.013861491  0.012796959            1 
 3926000   0.62195131   -8.4171231    652.99611  0.013860505  0.012792542            4 
 3927000   0.62375045   -8.4014834    652.22201  0.013840549  0.012788119            4 
 3928000   0.60914779   -8.3929164    652.36452  0.013840048  0.012783691            4 
 3929000   0.62384918     -8.41033     652.0702  0.013830283  0.012779266            2 
 3930000   0.60762145    -8.411632    653.42477  0.013855487  0.012774841            1 
 3931000   0.61361746   -8.4293426    652.93418  0.013841562  0.012770421            1 
 3932000   0.62221634   -8.4254034    653.10403  0.013841642  0.012766003            3 
 3933000   0.61479127   -8.4152242    652.29504  0.013820981  0.012761584            1 
 3934000    0.6257214   -8.4246469    652.85902  0.013829415   0.01275717            2 
 3935000   0.60790098   -8.4257881    653.48122  0.013839077   0.01275276            3 
 3936000   0.61495394   -8.4200445    652.48202  0.013814406  0.012748349            1 
 3937000   0.62077735   -8.4268656    652.79024  0.013817421  0.012743934            2 
 3938000   0.63674071   -8.4068373    653.77805  0.013834816  0.012739526            4 
 3939000   0.61904822    -8.384819    651.82658  0.013790018   0.01273512            2 
 3940000   0.62002038   -8.4016449    652.50844   0.01380094  0.012730725            1 
 3941000   0.61993639   -8.4451589    652.67158  0.013800888  0.012726326            2 
 3942000   0.60825438   -8.4133668    651.74316   0.01377776  0.012721919            2 
 3943000   0.60996397   -8.3950807    652.76478  0.013795857  0.012717521            2 
 3944000   0.62713425   -8.4125021    652.80301  0.013793167  0.012713125            2 
 3945000    0.6282493   -8.4260814    652.67922  0.013787056  0.012708732            1 
 3946000   0.61723986   -8.4237089    652.14934  0.013772372  0.012704344            5 
 3947000   0.62813551   -8.4064672    652.48403  0.013775949  0.012699958            3 
 3948000   0.62347941   -8.4296553    653.34154  0.013790559  0.012695574            2 
 3949000   0.61814363    -8.410449     652.9319  0.013778423  0.012691195            2 
 3950000   0.61652564   -8.4268958    653.22299  0.013781076  0.012686816            4 
 3951000   0.61921114   -8.4230599     651.3938  0.013739007  0.012682443            2 
 3952000   0.61479225   -8.4233909    652.72321  0.013763563  0.012678066            2 
 3953000   0.60438275   -8.4115114     653.3602  0.013773509  0.012673697            2 
 3954000   0.60746903   -8.4355558     651.9251   0.01373978  0.012669317            3 
 3955000   0.61653148   -8.4512383    652.79705  0.013754679  0.012664937            2 
 3956000   0.62135971   -8.4313188    651.38137   0.01372138  0.012660557            1 
 3957000   0.61654308   -8.4221951    651.90249  0.013728887  0.012656185            1 
 3958000   0.60645126    -8.436637    652.49876  0.013737973  0.012651812            8 
 3959000    0.6125012   -8.4298227     653.6355   0.01375843  0.012647434            2 
 3960000   0.60902765   -8.4448481    651.57052  0.013711501  0.012643066            1 
 3961000   0.62755858    -8.417681    651.17462   0.01369971  0.012638693            2 
 3962000   0.62210177    -8.418502    652.68896  0.013728104  0.012634327            2 
 3963000   0.60927524   -8.4253524    651.90714    0.0137082  0.012629953            3 
 3964000   0.62845117   -8.4317345    651.87986  0.013704168   0.01262559            2 
 3965000   0.61944491   -8.4336193    651.62032  0.013695257  0.012621224            1 
 3966000   0.62259653   -8.4230078    652.27586  0.013705578  0.012616857            1 
 3967000    0.5982708    -8.442653    650.88989  0.013673008  0.012612491            1 
 3968000   0.61777664   -8.4439486    653.16849  0.013717416  0.012608122            4 
 3969000   0.61794643   -8.4377802    651.91634   0.01368767  0.012603757            1 
 3970000    0.6238238   -8.4422643     652.2698  0.013691642  0.012599386            1 
 3971000   0.60923142   -8.4299609    652.10466  0.013684728  0.012595016            2 
 3972000   0.61723826   -8.4536317    652.40127  0.013687506  0.012590644            2 
 3973000   0.61120506   -8.4487135    651.41449  0.013663363  0.012586276            1 
 3974000   0.62020884   -8.4351727    651.52788  0.013662302  0.012581913            2 
 3975000   0.62401057   -8.4293628    652.12957  0.013671479  0.012577555            1 
 3976000   0.62189087    -8.431593    652.82145  0.013682542  0.012573194            5 
 3977000   0.61779797   -8.4452579    652.38883  0.013670037  0.012568834            5 
 3978000   0.61085512   -8.4376038    650.95567  0.013636578  0.012564477            2 
 3979000   0.61163518   -8.4360042    652.70548  0.013669797  0.012560125            1 
 3980000   0.62197509   -8.4430416    652.35967  0.013659122  0.012555776            2 
 3981000   0.63112027   -8.4441536    651.86094  0.013645251  0.012551422            1 
 3982000   0.61660123   -8.4361608    653.47467  0.013675596  0.012547075            1 
 3983000   0.61960964   -8.4106298    652.28548  0.013647282   0.01254273            3 
 3984000   0.62397171   -8.4224235    653.30946  0.013665275  0.012538393            2 
 3985000   0.62402688    -8.451925    652.22465   0.01363916  0.012534055            3 
 3986000   0.61243079   -8.4410674    651.23218   0.01361499  0.012529719            2 
 3987000   0.62290097   -8.4255269     651.9408  0.013626386  0.012525381            3 
 3988000   0.59509272   -8.4579425    651.06164  0.013604598   0.01252104            2 
 3989000   0.61874388   -8.4230473    651.80725  0.013616764  0.012516695            3 
 3990000   0.60828895   -8.4422383    653.46009  0.013647872  0.012512362            1 
 3991000   0.60997003   -8.4246059    652.10376  0.013616131  0.012508024            2 
 3992000   0.62257398   -8.4504168    651.89015  0.013608261  0.012503693            2 
 3993000   0.60128282    -8.453805    651.66896  0.013600237   0.01249936            3 
 3994000   0.61925039   -8.4166119    652.96822   0.01362394  0.012495034            2 
 3995000   0.62243258   -8.4371241    652.47628  0.013610269  0.012490712            3 
 3996000   0.59621303    -8.451641    650.25121  0.013560461  0.012486387            3 
 3997000   0.61296519   -8.4391095    652.03837  0.013594329  0.012482063            3 
 3998000   0.60625617   -8.4327924    651.57528  0.013581276  0.012477745            2 
 3999000   0.62197918   -8.4272152    651.44034  0.013575068  0.012473425            2 
 4000000   0.60599061   -8.4483253     651.6158  0.013575329  0.012469112            2 
 4001000   0.60812408    -8.442899     651.3947  0.013567331   0.01246479            2 
 4002000    0.6220585   -8.4355638    652.33486  0.013583518  0.012460469            1 
 4003000   0.61093159   -8.4571439    652.10716  0.013575384  0.012456145            3 
 4004000   0.61323922   -8.4647969     651.8447  0.013566531  0.012451823            3 
 4005000   0.61544724   -8.4473794    652.03688  0.013567143  0.012447505            3 
 4006000   0.61632398   -8.4714794    651.40643  0.013550641  0.012443181            1 
 4007000   0.60925926   -8.4379522    651.87308  0.013556964  0.012438857            4 
 4008000   0.60992241   -8.4431691    651.03964  0.013536253  0.012434533            1 
 4009000   0.60768104   -8.4595143    651.63634   0.01354528  0.012430218            4 
 4010000   0.60689749   -8.4439898    651.14305  0.013531651    0.0124259            3 
 4011000     0.602983   -8.4706027    652.38004  0.013553977  0.012421585            1 
 4012000     0.599607   -8.4563867    651.25396  0.013527209  0.012417274            5 
 4013000   0.60623479   -8.4137684    650.87364  0.013515941  0.012412965            1 
 4014000   0.60791399   -8.4625067    652.35427  0.013543312  0.012408657            2 
 4015000   0.61543535   -8.4445569    653.27854  0.013559123  0.012404344            2 
 4016000   0.60032401   -8.4383077    652.22587  0.013533903  0.012400042            2 
 4017000   0.61730881   -8.4680389    651.92904  0.013524376  0.012395736            3 
 4018000    0.6077445   -8.4825461    650.80709  0.013497741  0.012391434            2 
 4019000   0.60267627   -8.4470646    651.18245  0.013502166  0.012387132            2 
 4020000   0.60092197   -8.4531928     651.1136   0.01349738  0.012382832            2 
 4021000   0.60159381   -8.4487915    651.39258  0.013499805  0.012378539            3 
 4022000   0.61052063    -8.452865    651.44651  0.013497566  0.012374241            4 
 4023000   0.61539328   -8.4536332    652.18149  0.013509435  0.012369953            3 
 4024000   0.62351869   -8.4564728    651.65914  0.013495261  0.012365665            2 
 4025000   0.61472964   -8.4642914    651.58468  0.013490366  0.012361378            2 
 4026000   0.60736055   -8.4539135    651.60393  0.013487414   0.01235709            3 
 4027000   0.61699485   -8.4678306    651.04437  0.013472485  0.012352808            5 
 4028000   0.61779096   -8.4475829    652.24882  0.013494059  0.012348527            2 
 4029000   0.61559676    -8.443829    650.93233   0.01346348  0.012344241            3 
 4030000    0.5938458   -8.4508893    650.18128  0.013444609  0.012339958            2 
 4031000   0.60109089   -8.4287838    652.04218  0.013479744  0.012335671            2 
 4032000   0.60707632   -8.4694339    651.73601  0.013470073  0.012331387            1 
 4033000   0.61117416   -8.4523002    651.56587  0.013463217  0.012327106            1 
 4034000   0.61014758   -8.4531741    650.99483  0.013448083  0.012322824            5 
 4035000   0.61612432   -8.4666414     651.5917  0.013457078  0.012318542            2 
 4036000   0.61395323    -8.456575    650.58191  0.013432894  0.012314268            3 
 4037000   0.59892627    -8.450596    650.99689  0.013438132  0.012309989            1 
 4038000   0.60657009   -8.4580935    651.37964  0.013442704  0.012305708            1 
 4039000   0.61660379   -8.4658222    651.32642  0.013438277  0.012301445            3 
 4040000   0.60499168   -8.4760422    651.55358  0.013439636  0.012297176            2 
 4041000   0.59880041   -8.4718567    651.19139  0.013428842  0.012292903            1 
 4042000   0.62074042   -8.4845123    650.95598  0.013420666  0.012288636            1 
 4043000   0.60368835   -8.4731272    650.47927  0.013407521  0.012284372            2 
 4044000   0.60300445   -8.4797276    650.20535  0.013398561  0.012280108            2 
 4045000   0.60489604   -8.4505405    652.37881  0.013440025  0.012275843            3 
 4046000   0.59063633   -8.4491603    650.69437   0.01340201  0.012271582            2 
 4047000   0.60499372   -8.4673303    650.73483  0.013399531  0.012267319            2 
 4048000   0.59843795   -8.4693507    651.19009  0.013405593  0.012263055            1 
 4049000   0.58966134   -8.4541873    651.95567  0.013418039  0.012258797            4 
 4050000   0.61398503   -8.4690013    651.74279  0.013410346  0.012254541            1 
 4051000   0.60104729   -8.4731812    650.41982   0.01337982  0.012250285            1 
 4052000   0.59384063   -8.4631898    650.52687   0.01337872  0.012246032            1 
 4053000   0.60161958   -8.4654065    651.11777  0.013387568  0.012241777            2 
 4054000   0.60853732   -8.4716342    651.02455   0.01338235  0.012237523            2 
 4055000   0.60573767   -8.4679669    651.20573  0.013382773  0.012233278            4 
 4056000   0.60442951   -8.4718148     650.8906  0.013372999  0.012229033            2 
 4057000   0.60431219   -8.4663229    651.26313  0.013377355  0.012224787            3 
 4058000   0.61136945   -8.4792676    651.08955  0.013370493  0.012220539            2 
 4059000   0.60551471   -8.4886449    650.32474  0.013351498  0.012216293            3 
 4060000   0.60089158   -8.4830224    650.69034  0.013355713  0.012212047            1 
 4061000   0.60381428   -8.4713368    650.19689  0.013342298  0.012207807            2 
 4062000   0.59806225   -8.4926831    651.37331  0.013363148  0.012203572            2 
 4063000   0.60245476   -8.4819329    651.21979  0.013356711  0.012199337            2 
 4064000   0.60814461   -8.4881684    651.18931  0.013352799  0.012195107            3 
 4065000   0.59926167    -8.471862    650.73292  0.013340158  0.012190883            1 
 4066000    0.5961004   -8.4655076    651.44923  0.013351558   0.01218666            2 
 4067000   0.60261699   -8.4954587    650.87125  0.013336432  0.012182436            3 
 4068000   0.62362854   -8.4804996    652.00411  0.013356361  0.012178215            3 
 4069000   0.59741605   -8.4784371    650.22629  0.013316669  0.012173997            1 
 4070000   0.59457238     -8.47512    650.59667   0.01332098   0.01216978            2 
 4071000   0.60564437   -8.4580491    652.10884  0.013348662  0.012165565            1 
 4072000   0.61055155    -8.478082    650.71863  0.013316933  0.012161349            2 
 4073000   0.59180267   -8.4804287    651.14033  0.013322292  0.012157133            2 
 4074000   0.59759179   -8.4712081    651.19875  0.013320217  0.012152928            1 
 4075000   0.59806799   -8.4641435    650.56185  0.013303923  0.012148725            1 
 4076000   0.60550873    -8.476536    650.48893  0.013299169   0.01214451            1 
 4077000   0.61755773   -8.4826808    650.86616  0.013303617  0.012140301            2 
 4078000    0.5911551   -8.4596143    650.60596  0.013295038  0.012136099            2 
 4079000   0.59835795   -8.4653625      651.288  0.013305712  0.012131892            2 
 4080000   0.60108002   -8.4502303    650.41986  0.013284719  0.012127691            1 
 4081000   0.60378753   -8.4634497    652.20602  0.013317937  0.012123495            2 
 4082000   0.59954895   -8.4836919    651.14484  0.013293011  0.012119298            2 
 4083000   0.59649377   -8.4734936    650.77224   0.01328215  0.012115099            1 
 4084000   0.61250406   -8.4580262    650.61911  0.013275774  0.012110905            2 
 4085000   0.59938803   -8.4531554    650.46178  0.013269314  0.012106714            1 
 4086000   0.60409506   -8.4725289    651.29789  0.013283119  0.012102523            3 
 4087000   0.60814404   -8.4658093    650.55245  0.013264669  0.012098334            1 
 4088000   0.60459153   -8.4650094    650.91992  0.013268915  0.012094153            4 
 4089000   0.60051914   -8.4659868    650.67144  0.013260607  0.012089971            3 
 4090000   0.58891133   -8.4677061    652.10618  0.013286597  0.012085794            2 
 4091000   0.60006517   -8.4776581     651.8815  0.013278772  0.012081619            2 
 4092000   0.59654116   -8.4571797    651.51607  0.013268086  0.012077442            1 
 4093000   0.60377011   -8.4500048    651.10307  0.013256435  0.012073269            2 
 4094000   0.59701727   -8.4536661    652.30117  0.013277585  0.012069106            1 
 4095000    0.6001383    -8.476505    652.10572  0.013270365  0.012064944            2 
 4096000   0.59686697     -8.46154    652.46626   0.01327446  0.012060777            1 
 4097000   0.59986686   -8.4577729    651.59888  0.013253577  0.012056606            2 
 4098000   0.60270964   -8.4714047    651.45088  0.013247334  0.012052443            2 
 4099000   0.59548669    -8.460712    651.64135  0.013247974  0.012048281            2 
 4100000    0.5932293   -8.4799081    651.29073  0.013237617  0.012044123            2 
 4101000   0.59547214   -8.4609719    650.92989  0.013227056  0.012039967            4 
 4102000   0.60131066   -8.4478289     651.3246   0.01323185  0.012035817            2 
 4103000   0.59810637   -8.4584061    652.07294  0.013243824  0.012031668            1 
 4104000   0.58743142   -8.4661851    651.03923  0.013219607  0.012027518            1 
 4105000   0.60441697   -8.4671916    650.07756  0.013196865  0.012023373            2 
 4106000    0.5927771   -8.4775443    650.33797  0.013198936  0.012019217            1 
 4107000   0.59556708   -8.4538997     651.9466  0.013228362  0.012015062            2 
 4108000   0.59568832    -8.465436    649.68653  0.013179295  0.012010916            2 
 4109000   0.56978126   -8.4834356    651.57064  0.013214299  0.012006776            2 
 4110000   0.59969278   -8.4787651    650.44345  0.013188229  0.012002629            3 
 4111000   0.59069571    -8.478808    651.09837  0.013198297  0.011998482            2 
 4112000   0.59455931   -8.4824523    651.10097   0.01319514   0.01199434            1 
 4113000   0.59541357    -8.471267    650.97141  0.013189306  0.011990196            2 
 4114000   0.59857032    -8.492735    650.65691   0.01317973   0.01198606            2 
 4115000   0.59022809    -8.487066    650.52854  0.013173928  0.011981928            1 
 4116000    0.6024334   -8.4884628    650.51332  0.013170419  0.011977787            2 
 4117000    0.5964347   -8.4757721    650.23622  0.013161611  0.011973651            3 
 4118000   0.58448209   -8.4688437    651.41131  0.013182194  0.011969526            1 
 4119000   0.58125958   -8.4726437    650.27193  0.013155943  0.011965392            2 
 4120000   0.61087179   -8.4732129     650.9924  0.013167322  0.011961263            1 
 4121000   0.59371491   -8.4851601    651.17745  0.013167869  0.011957136            3 
 4122000    0.5981013    -8.473638    652.13324  0.013183997  0.011953013            3 
 4123000   0.59789658    -8.487442    651.23881  0.013162722  0.011948885            2 
 4124000   0.59399364   -8.4908373     651.2072  0.013158891  0.011944761            3 
 4125000   0.59625959    -8.440534    651.72397  0.013166141  0.011940641            8 
 4126000   0.58442919    -8.490008    650.16506  0.013131464  0.011936521            4 
 4127000   0.59330932    -8.467202    651.00408  0.013145224  0.011932395            4 
 4128000   0.58405026   -8.4815831    651.40796  0.013150193  0.011928273            1 
 4129000   0.59800378   -8.4551001    651.55269  0.013149929  0.011924153            3 
 4130000    0.5927631   -8.4861043    651.38968  0.013143456  0.011920033            2 
 4131000   0.58882299   -8.4838673    651.97567  0.013152095  0.011915918            2 
 4132000   0.59075742   -8.4959728    650.68918  0.013122967  0.011911803            4 
 4133000   0.59449799   -8.5013018    650.86577  0.013123352  0.011907688            3 
 4134000   0.58064454   -8.4880288    650.03597   0.01310345  0.011903571            2 
 4135000   0.59680008   -8.4795139    650.62402  0.013112133  0.011899457            2 
 4136000    0.5974443   -8.4957801    650.56762  0.013107826   0.01189535            5 
 4137000   0.57691579   -8.4834459    650.94748  0.013112309  0.011891246            3 
 4138000   0.58627048   -8.4833003    650.64226  0.013102994  0.011887147            1 
 4139000   0.58794199   -8.4822817    650.58298  0.013098634  0.011883039            2 
 4140000   0.60262077   -8.4722801    651.48669  0.013113661  0.011878933            1 
 4141000   0.58610374    -8.498271    650.45877  0.013089809  0.011874834            1 
 4142000   0.59931914    -8.489293    650.27541  0.013082959  0.011870731            1 
 4143000   0.57292098   -8.5037368    650.94972  0.013093365   0.01186663            2 
 4144000   0.58938636   -8.4790282    650.12235  0.013073567  0.011862531            3 
 4145000   0.57847224   -8.4845428     650.2867  0.013073717  0.011858436            2 
 4146000   0.59190059   -8.4888041    650.56152  0.013076088  0.011854339            4 
 4147000   0.60114763   -8.4904106    650.74405  0.013076603  0.011850245            1 
 4148000    0.5936632   -8.4757742    649.91655  0.013056826  0.011846153            1 
 4149000   0.59194963   -8.5034019    651.56604  0.013086809   0.01184206            2 
 4150000   0.58308352   -8.4984943    650.35775  0.013059392  0.011837966            2 
 4151000   0.58973501   -8.4936773    650.63763  0.013061865  0.011833874            2 
 4152000   0.59076474   -8.4857791    650.54783  0.013056917  0.011829793            2 
 4153000    0.5965227   -8.5006548    651.28175    0.0130685  0.011825707            4 
 4154000   0.59011501   -8.4978856    649.99675  0.013039575  0.011821625            1 
 4155000   0.58512633   -8.4959002    650.72548  0.013051053  0.011817541            2 
 4156000   0.59374956   -8.4815607    650.44631  0.013042314  0.011813464            2 
 4157000   0.58208136   -8.4919221    650.77924  0.013045851  0.011809387            6 
 4158000   0.59722563   -8.5024714    651.02831  0.013047705  0.011805308            2 
 4159000   0.58977851   -8.4934345    649.25452  0.013009027  0.011801231            1 
 4160000   0.59015016   -8.5116595    650.24285  0.013025698  0.011797157            2 
 4161000   0.58165312   -8.4877176    649.39574  0.013005602  0.011793084            3 
 4162000   0.57847688   -8.4791897    650.74177  0.013029428  0.011789012            3 
 4163000   0.58745009   -8.4815177    650.94544  0.013030376  0.011784943            3 
 4164000   0.58027231   -8.4907751    649.96977   0.01300772  0.011780875            1 
 4165000   0.59519087   -8.4885313    649.91548  0.013003511  0.011776813            2 
 4166000   0.58842683   -8.4751302    651.92267   0.01304054  0.011772749            3 
 4167000   0.58593747   -8.4803112    651.08181  0.013020595  0.011768687            2 
 4168000    0.5885098   -8.4898768    651.14344  0.013018703   0.01176463            1 
 4169000   0.58287122   -8.4924006     650.2501  0.012997723  0.011760568            2 
 4170000   0.58424895   -8.5012928    650.43007  0.012998203   0.01175651            2 
 4171000   0.58895775   -8.4986795    649.66002  0.012979702  0.011752448            1 
 4172000   0.59445238   -8.4979733     649.9802  0.012982986  0.011748387            2 
 4173000   0.58095848   -8.4899069    649.80474  0.012976371  0.011744326            2 
 4174000   0.59430808   -8.5050492    650.44565  0.012986058  0.011740268            2 
 4175000   0.58580139   -8.4926435    649.59656  0.012965999  0.011736212            2 
 4176000   0.59116551   -8.5112729    649.55758  0.012962116  0.011732159            2 
 4177000   0.57391046   -8.5053775    650.18609  0.012971552  0.011728104            2 
 4178000   0.57259209   -8.5019476    650.18856  0.012968497  0.011724052            1 
 4179000   0.60282508   -8.4942902    650.32707  0.012968156  0.011720002            4 
 4180000   0.58339248   -8.4859442    650.96319  0.012977735  0.011715957            2 
 4181000   0.58676715   -8.4958465    650.82911  0.012971959  0.011711911            1 
 4182000   0.58760063   -8.5106696    650.11038  0.012954535  0.011707866            2 
 4183000   0.58703457    -8.500728    651.09709  0.012971095  0.011703825            3 
 4184000    0.5849543   -8.5096488    650.74857  0.012961053  0.011699786            5 
 4185000    0.5843383   -8.4821105    650.62141  0.012955424  0.011695745            2 
 4186000   0.56588089   -8.5120476    651.24997  0.012964843  0.011691706            2 
 4187000     0.596641   -8.5134401    649.82883  0.012933461  0.011687668            3 
 4188000   0.57831576    -8.510844    649.67879  0.012927388  0.011683634            2 
 4189000     0.576931   -8.5117615    649.81585  0.012927028  0.011679598            1 
 4190000   0.57928322   -8.5206249    649.89957  0.012925608  0.011675562            2 
 4191000   0.58490105   -8.5015902     650.5097  0.012934656  0.011671526            2 
 4192000   0.57496508   -8.4892488    650.34382  0.012928272  0.011667497            2 
 4193000   0.58601398   -8.5051184    650.70556  0.012932379  0.011663464            3 
 4194000   0.57516882     -8.53885    649.57329  0.012906797  0.011659429            2 
 4195000   0.57898687   -8.5158979    650.11813  0.012914544  0.011655401            3 
 4196000   0.59366845   -8.4832319    649.74515  0.012904058  0.011651379            3 
 4197000   0.57225011   -8.5003507    650.16833  0.012909386  0.011647353            4 
 4198000   0.57061555   -8.5161283    649.44018  0.012891857  0.011643328            3 
 4199000   0.56346319   -8.5215869    648.57977  0.012871711  0.011639309            2 
 4200000   0.58439687   -8.5103937    650.46449  0.012906042  0.011635286            3 
 4201000    0.5907884    -8.496219    650.49385  0.012903552  0.011631275            2 
 4202000   0.58005431   -8.4986647    650.39757  0.012898571  0.011627264            2 
 4203000   0.57616129   -8.5379346    650.06285  0.012888866  0.011623249            3 
 4204000   0.57584695     -8.51071    649.79312  0.012880454  0.011619231            1 
 4205000   0.57275399   -8.5172807    649.01233  0.012861917  0.011615223            1 
 4206000   0.58630792   -8.5054912    650.62335  0.012890778  0.011611215            2 
 4207000   0.58435671   -8.5159878    650.03878  0.012876135  0.011607211            4 
 4208000   0.57007667   -8.5019267    650.81245  0.012888396  0.011603202            7 
 4209000   0.59406531   -8.5061834    651.50144  0.012898975  0.011599196            2 
 4210000   0.56621828   -8.5096496    650.57867  0.012877646  0.011595194            3 
 4211000   0.58481605   -8.4916465     649.0874  0.012845076  0.011591194            2 
 4212000    0.5783068    -8.512411    650.69787   0.01287389  0.011587193            2 
 4213000   0.57295327   -8.5113868    648.55527  0.012828453  0.011583192            2 
 4214000   0.58433431   -8.5235354    649.80798  0.012850182  0.011579195            3 
 4215000   0.57603694   -8.5063416    649.67372  0.012844478  0.011575199            1 
 4216000   0.57715755   -8.5041197    648.76417  0.012823454  0.011571197            2 
 4217000   0.58045534   -8.5330277    649.49127  0.012834781  0.011567209            6 
 4218000   0.58400516   -8.5260067    649.60024  0.012833891  0.011563219            3 
 4219000   0.57542843   -8.5149194      651.264  0.012863712  0.011559228            3 
 4220000   0.56927838   -8.5179091    650.14143  0.012838496   0.01155524            2 
 4221000   0.57127277   -8.4941017    650.64258  0.012845348   0.01155126            2 
 4222000   0.56932778   -8.5439461    650.00168  0.012829656  0.011547278            2 
 4223000   0.57344031   -8.5290802    649.81607  0.012822955  0.011543293            2 
 4224000   0.57708247   -8.5227916    649.97076  0.012822971  0.011539315            4 
 4225000   0.56600775    -8.488761    649.14291  0.012803608  0.011535333            4 
 4226000    0.5767273   -8.5216075     648.9461  0.012796697  0.011531353            4 
 4227000   0.57403832    -8.512271    649.31912  0.012801024  0.011527371            6 
 4228000   0.57066941   -8.5114264    650.45329   0.01282035  0.011523392            6 
 4229000   0.57521935   -8.5072179    650.27675   0.01281384  0.011519419            1 
 4230000   0.58268378   -8.5127641    650.06152  0.012806571  0.011515447            3 
 4231000    0.5613802   -8.5158436    648.22894  0.012767449  0.011511471            6 
 4232000   0.57091525   -8.5294612    648.97886  0.012779199  0.011507504            3 
 4233000   0.58014891   -8.5061417    650.16396  0.012799511  0.011503532            5 
 4234000   0.58778789   -8.5214938    649.83089  0.012789933  0.011499566            5 
 4235000    0.5752081   -8.5098269    649.50747  0.012780548    0.0114956            4 
 4236000   0.58073151   -8.4991779    649.88145  0.012784888  0.011491638            4 
 4237000     0.570776   -8.5206484    649.85691  0.012781388  0.011487677            2 
 4238000   0.57043349   -8.5050366    649.83905  0.012778021  0.011483713            3 
 4239000     0.570985   -8.5144692    649.56418  0.012769603  0.011479754            5 
 4240000   0.58433327   -8.5308349    650.58514  0.012786658  0.011475793            5 
 4241000   0.56548148    -8.534501    650.69166  0.012785736  0.011471832            2 
 4242000   0.56991315   -8.5322426    649.16984  0.012752826  0.011467873            4 
 4243000   0.58296616   -8.4986872     649.7575  0.012761362  0.011463917            2 
 4244000   0.57714019   -8.5234307    649.92828  0.012761708  0.011459958            2 
 4245000   0.57171011   -8.5422628    649.41261  0.012748579  0.011456003            2 
 4246000   0.56659953   -8.5258734    649.16429  0.012740703  0.011452046            2 
 4247000   0.59453033   -8.5333334     649.0779  0.012736008  0.011448098            5 
 4248000   0.57356094   -8.5324172    649.91736  0.012749477  0.011444151            4 
 4249000   0.56202112   -8.5244273    650.17267  0.012751484  0.011440209            5 
 4250000   0.57656606   -8.5208714     650.1846  0.012748718   0.01143626            6 
 4251000   0.57649032   -8.5143213    649.43902  0.012731103  0.011432317            4 
 4252000   0.55046114   -8.5315843    649.76968  0.012734589  0.011428374            2 
 4253000   0.55940492   -8.5247174    649.53851  0.012727065  0.011424434            2 
 4254000   0.56933599    -8.520106    649.17472  0.012716947  0.011420499            2 
 4255000   0.56769344   -8.5178352    650.58094  0.012741499  0.011416561            4 
 4256000   0.57129624   -8.5129255    649.60994  0.012719493  0.011412629            3 
 4257000   0.56275437   -8.5338395    648.59656  0.012696667  0.011408696            3 
 4258000   0.56399226   -8.5385375    648.46684  0.012691147  0.011404761            4 
 4259000   0.57644763   -8.5175206    648.65758  0.012691899  0.011400824            3 
 4260000   0.57419387   -8.5380484    648.64521  0.012688678  0.011396892            5 
 4261000   0.57908285   -8.5171944    650.23044  0.012716703  0.011392963            3 
 4262000   0.56471409   -8.5153364    649.97801  0.012708783  0.011389035            3 
 4263000   0.56956478   -8.5111004    649.00931  0.012686866  0.011385112           11 
 4264000   0.56885313   -8.5213352    648.79202  0.012679644  0.011381187            2 
 4265000     0.579041    -8.525414    649.51698  0.012690836  0.011377261            4 
 4266000   0.57118304   -8.5165199     649.7438  0.012692292   0.01137334            2 
 4267000   0.56045329   -8.5243745    648.99978  0.012674787  0.011369423            2 
 4268000   0.56671294   -8.5249489    649.63239  0.012684169  0.011365506            5 
 4269000   0.56283541   -8.5399111    649.17694  0.012672307  0.011361588            3 
 4270000   0.57135011   -8.5514339    649.19867  0.012669763  0.011357669            3 
 4271000   0.56758142   -8.5436674    647.50032   0.01263366  0.011353748            5 
 4272000   0.57323268   -8.5303253    649.73349  0.012674264  0.011349835            2 
 4273000   0.57510774   -8.5349256    649.19895  0.012660874  0.011345924            2 
 4274000   0.56426997   -8.5266264    649.05944  0.012655191  0.011342014            6 
 4275000   0.56923739   -8.5330409    649.91475  0.012668903  0.011338107            3 
 4276000   0.57304079   -8.5337554    648.08311  0.012630245  0.011334197            2 
 4277000   0.56378138   -8.5301211    650.01151  0.012664865  0.011330297            2 
 4278000   0.58358482   -8.5185879     648.8938  0.012640132  0.011326389            2 
 4279000   0.56255374   -8.5326387    648.96223   0.01263851  0.011322489            2 
 4280000   0.56609591   -8.5265865    649.50033  0.012646035  0.011318594            3 
 4281000   0.57255861   -8.5433866    648.90898  0.012631569  0.011314702            4 
 4282000   0.58295073   -8.5502905    649.87748  0.012647468  0.011310813            3 
 4283000   0.57201774   -8.5271965    649.00774  0.012627592  0.011306923            5 
 4284000   0.56253301   -8.5347565    648.80441   0.01262069  0.011303031            5 
 4285000   0.57041081   -8.5311772    649.68978  0.012634963  0.011299142            3 
 4286000   0.57502073    -8.523538    649.17246  0.012621956  0.011295254            2 
 4287000   0.57960556   -8.5495662    648.68694  0.012609574  0.011291371            3 
 4288000   0.55889599   -8.5492495    649.29336  0.012618419  0.011287484            5 
 4289000   0.55112129   -8.5491465    649.56257  0.012620708  0.011283595            3 
 4290000   0.57853736   -8.5540234    648.20201  0.012591337   0.01127971            4 
 4291000   0.55556419   -8.5472439    649.38897  0.012611454  0.011275823            4 
 4292000   0.56206546   -8.5204114    648.95299   0.01260005  0.011271936            4 
 4293000   0.57773792   -8.5433829    648.25852  0.012583635  0.011268048            5 
 4294000   0.56558473   -8.5532364    649.56025  0.012605967  0.011264164            3 
 4295000   0.55795051   -8.5402489    648.85734  0.012589393  0.011260283            3 
 4296000   0.56039538   -8.5341516    648.93306  0.012587932  0.011256408            2 
 4297000   0.55822283   -8.5403883    647.70395  0.012561166  0.011252534            3 
 4298000   0.57138753   -8.5415473    649.87062  0.012600252  0.011248659            2 
 4299000    0.5573593   -8.5290285    649.46007  0.012589363  0.011244786            5 
 4300000   0.55385777   -8.5443908    649.08501  0.012579167  0.011240912            2 
 4301000   0.57606601   -8.5234615    648.91979  0.012573041  0.011237041            2 
 4302000   0.56967706    -8.509136    649.12825  0.012574156  0.011233169            3 
 4303000   0.55850986   -8.5462744    648.44569  0.012558016  0.011229298            2 
 4304000   0.56131809   -8.5425084    650.14624  0.012588024  0.011225431            2 
 4305000   0.55779252   -8.5435141     648.7607  0.012558279   0.01122157            2 
 4306000    0.5509883   -8.5335032     647.9807  0.012540267  0.011217702            2 
 4307000   0.55335532    -8.558102    648.21263  0.012541843  0.011213842            4 
 4308000   0.56346949   -8.5543059    648.87148  0.012551677  0.011209981            3 
 4309000    0.5721932    -8.537828    648.82827  0.012547928  0.011206122            4 
 4310000   0.55149599   -8.5386312    648.19506  0.012532774  0.011202263            4 
 4311000   0.56499889     -8.54802    649.87529  0.012562346  0.011198409            2 
 4312000   0.56890289   -8.5398357    648.14223   0.01252594  0.011194548            7 
 4313000   0.56625486   -8.5529329    649.08944  0.012541337  0.011190691            6 
 4314000   0.58170227    -8.554099    648.14626  0.012520211   0.01118684            4 
 4315000   0.56255576   -8.5488282    648.20033  0.012518353  0.011182988            3 
 4316000   0.56184148   -8.5457119    649.11855  0.012533182   0.01117914            3 
 4317000    0.5458294    -8.538743    648.57491  0.012519784  0.011175298            4 
 4318000    0.5652627   -8.5545374    648.44499  0.012514378  0.011171453            6 
 4319000   0.56352629   -8.5562215    649.13206  0.012524737  0.011167609            2 
 4320000   0.55593232   -8.5308207    649.31452  0.012525357  0.011163762            4 
 4321000   0.55704692   -8.5380537    648.81723  0.012512868  0.011159917            3 
 4322000   0.55635115   -8.5343511    649.01594  0.012513804  0.011156078            3 
 4323000   0.54727127   -8.5413301    649.64075  0.012522954  0.011152243            2 
 4324000   0.55319343   -8.5327534    648.59396  0.012499884  0.011148411            2 
 4325000    0.5703293   -8.5564411    647.86945  0.012483034  0.011144572            6 
 4326000   0.54978962   -8.5469185    649.03395   0.01250258   0.01114074            3 
 4327000    0.5520102   -8.5483527    649.68526  0.012512234  0.011136912            5 
 4328000   0.56048603   -8.5279279    649.65155  0.012508694  0.011133083            4 
 4329000   0.55923877   -8.5466388    648.84849  0.012490346  0.011129255            3 
 4330000   0.56611563   -8.5531567     648.9165   0.01248877   0.01112543            4 
 4331000   0.54579053   -8.5545802    648.74195  0.012482528  0.011121602            3 
 4332000   0.55253252   -8.5562654    649.04109  0.012485401  0.011117781            3 
 4333000   0.56159409   -8.5328618    649.10633  0.012483774  0.011113957            4 
 4334000   0.57821476   -8.5442641    649.44114  0.012487331  0.011110136            2 
 4335000   0.55854431   -8.5423762     649.4285  0.012484208  0.011106318            3 
 4336000   0.56422012   -8.5570323    649.25569  0.012478007  0.011102503            4 
 4337000   0.55759292    -8.561973    648.74974  0.012465409  0.011098684            1 
 4338000    0.5686205   -8.5484794     647.9012  0.012446235  0.011094869            5 
 4339000   0.57635098   -8.5557452    649.07626  0.012465934  0.011091053            3 
 4340000    0.5666313   -8.5476804    649.14083  0.012464302  0.011087244            4 
 4341000   0.54338427   -8.5434021     649.2548  0.012463618  0.011083436            2 
 4342000   0.56497136    -8.552162    649.53118  0.012466052  0.011079628            4 
 4343000   0.55670405   -8.5482839     648.5203  0.012443785  0.011075815            2 
 4344000   0.55857507   -8.5446838    649.17996  0.012453575  0.011072005            3 
 4345000   0.55470231   -8.5663481    648.72543  0.012441991  0.011068194            3 
 4346000   0.55013387   -8.5410375    647.63579  0.012418235  0.011064383            5 
 4347000   0.56349823   -8.5571889     647.8096   0.01241871  0.011060579            5 
 4348000   0.54554961   -8.5346866     648.5058  0.012429197  0.011056776            4 
 4349000   0.55808462   -8.5496943    648.19812  0.012420444  0.011052973            5 
 4350000   0.56113888   -8.5487213    647.40486  0.012402392  0.011049174            3 
 4351000   0.54398711    -8.563489    648.83113  0.012426858  0.011045381            3 
 4352000    0.5567113   -8.5451665    649.32802  0.012433517  0.011041588            3 
 4353000   0.55739308    -8.572643    648.54566  0.012415684  0.011037797            6 
 4354000   0.55723763   -8.5466843    648.23672  0.012406919  0.011034007            3 
 4355000   0.54998459   -8.5558322    649.20596  0.012422617  0.011030217            3 
 4356000    0.5505053   -8.5589844    649.35285  0.012422575  0.011026428            5 
 4357000   0.56149877   -8.5594501    648.55205  0.012404408   0.01102264            3 
 4358000    0.5511101   -8.5417679     648.9316  0.012408819  0.011018856            3 
 4359000   0.55032862   -8.5717517    648.44458  0.012396662  0.011015075            2 
 4360000    0.5556781   -8.5321706    649.70322  0.012417875  0.011011299            4 
 4361000   0.55897398    -8.580654    647.81023  0.012378855  0.011007522            6 
 4362000    0.5525362   -8.5606233     647.2154  0.012364653  0.011003744            3 
 4363000   0.56072767   -8.5513435    647.55985  0.012368398  0.010999968            4 
 4364000   0.56396647   -8.5563528    648.58378  0.012385116  0.010996196            5 
 4365000   0.54896027   -8.5572563    648.37726  0.012378336  0.010992426            5 
 4366000   0.54470326   -8.5603042    647.95505  0.012367443  0.010988653            4 
 4367000   0.55574802   -8.5631277    648.41946  0.012373473  0.010984884            5 
 4368000   0.55507904   -8.5500756    649.49227  0.012391107  0.010981121            4 
 4369000    0.5541692    -8.549439    648.21577  0.012363923  0.010977354            5 
 4370000   0.55352127    -8.567227    648.76616   0.01237159  0.010973591            3 
 4371000   0.56777646   -8.5610361    648.92879   0.01237186  0.010969831            4 
 4372000   0.55912366   -8.5769106    648.99881  0.012370365  0.010966066            3 
 4373000    0.5481264   -8.5403014    649.31076   0.01237348  0.010962306            3 
 4374000   0.56143283   -8.5562507     649.1706  0.012367981  0.010958548            3 
 4375000   0.55761106   -8.5574299    647.72704  0.012337658   0.01095479            3 
 4376000   0.54841079    -8.560128    648.17818   0.01234343  0.010951037            3 
 4377000   0.54618018    -8.559087    648.66664  0.012349909   0.01094728            3 
 4378000   0.54654783   -8.5666854     648.6531  0.012346831  0.010943523            2 
 4379000   0.55938621   -8.5419403    647.77562  0.012327312   0.01093977            2 
 4380000   0.54418233   -8.5670283    647.93889  0.012327604   0.01093602            2 
 4381000   0.55027038   -8.5599703    648.47019  0.012334897  0.010932275            2 
 4382000   0.54929677   -8.5572238    647.34993  0.012310778  0.010928524            3 
 4383000   0.55213926   -8.5626103    648.43806  0.012328657   0.01092478            3 
 4384000   0.55488493    -8.569682    648.40966  0.012325305  0.010921036            3 
 4385000    0.5428227   -8.5680778    648.20202  0.012318549  0.010917299            3 
 4386000   0.54821225   -8.5517549    647.57218  0.012303773   0.01091356            2 
 4387000   0.56177504   -8.5508117    648.10955  0.012311176  0.010909822            2 
 4388000   0.55572952   -8.5527331    648.59355  0.012317562  0.010906089            5 
 4389000   0.55034735    -8.551838    647.48899  0.012293783  0.010902353            4 
 4390000   0.55186148   -8.5536694    649.32631   0.01232586   0.01089862            3 
 4391000   0.54326484   -8.5486045    647.52336  0.012288836  0.010894889            3 
 4392000   0.55477816   -8.5567381    648.23443   0.01229953  0.010891158            4 
 4393000   0.55698031   -8.5581166     648.5308  0.012302352  0.010887434            4 
 4394000   0.54566359   -8.5622583    647.94095  0.012288366  0.010883705            3 
 4395000   0.55962601   -8.5567297    647.74631  0.012281879  0.010879979            6 
 4396000   0.54669583   -8.5603431    649.28342  0.012308224  0.010876258            3 
 4397000   0.54664447   -8.5635321    647.95697  0.012280285  0.010872535            2 
 4398000   0.53962589   -8.5513968    648.26556   0.01228334  0.010868813            2 
 4399000   0.55500008   -8.5521941    647.67961  0.012269448  0.010865094            1 
 4400000   0.54461011   -8.5669603    648.18485  0.012276228  0.010861373            3 
 4401000   0.53882993   -8.5760422    648.75543  0.012284243  0.010857653            2 
 4402000   0.54377336   -8.5782795    648.37039  0.012274163   0.01085394            4 
 4403000   0.55443319   -8.5492376    647.87062  0.012261917  0.010850226            1 
 4404000   0.53934039   -8.5583972    649.15173  0.012283374  0.010846516            5 
 4405000   0.55785433    -8.558574    648.93757  0.012276534  0.010842805            8 
 4406000    0.5581713   -8.5720061    647.36468  0.012243998  0.010839092            3 
 4407000   0.53318648   -8.5717536    648.29493   0.01225881  0.010835383            1 
 4408000    0.5498475   -8.5833609    648.08353  0.012252033  0.010831675            2 
 4409000   0.54325554     -8.57319    647.51872  0.012238579  0.010827964            6 
 4410000   0.55060089   -8.5705641    648.49108  0.012254178  0.010824253            4 
 4411000   0.55564842   -8.5561796    648.04984  0.012243063  0.010820549            2 
 4412000   0.53919522   -8.5585474    648.33848   0.01224574  0.010816847            5 
 4413000   0.54355543   -8.5611967    648.14186  0.012239253  0.010813143            5 
 4414000   0.54827003   -8.5936185    647.24495  0.012219547  0.010809436            4 
 4415000   0.54606496   -8.5771945    646.52377  0.012203167  0.010805735            3 
 4416000   0.53903681   -8.5843083     647.7789  0.012224088  0.010802034            2 
 4417000   0.55263563   -8.5740722    648.16869  0.012228675  0.010798332            4 
 4418000    0.5471995   -8.5751692    647.94693  0.012221724  0.010794633            3 
 4419000   0.55328216   -8.5733659    647.88593  0.012217808  0.010790935            4 
 4420000   0.54922108   -8.5781435    648.09126  0.012218915  0.010787238            3 
 4421000   0.53406715    -8.574099    647.51906  0.012205366  0.010783548            2 
 4422000   0.54150603   -8.5830719    647.21366   0.01219685  0.010779855            4 
 4423000   0.54669479   -8.5814614    648.48165  0.012217983  0.010776165            2 
 4424000   0.55226838   -8.5654554    647.95201  0.012205244  0.010772478            4 
 4425000   0.54537128   -8.5796839    647.48147  0.012193625  0.010768793            5 
 4426000   0.53639446   -8.5969082    647.50533  0.012191319  0.010765103            4 
 4427000   0.54241999   -8.5811137    646.87017  0.012176609  0.010761414            2 
 4428000    0.5296151    -8.586151    647.45229  0.012184814  0.010757724            2 
 4429000   0.54706021   -8.5791933    648.61734  0.012203984  0.010754039            2 
 4430000   0.54188482   -8.5922316     647.7962  0.012185783  0.010750354            3 
 4431000   0.55190695    -8.577914    646.80805  0.012164448  0.010746675            4 
 4432000   0.54203069   -8.5678144    647.61288  0.012176837  0.010742997            3 
 4433000   0.55916572   -8.5682337    647.14109  0.012165221   0.01073932            3 
 4434000   0.54053173   -8.5686265    649.05358  0.012198421  0.010735649            7 
 4435000   0.54850864   -8.5729021    648.11893  0.012178108  0.010731977            4 
 4436000   0.53846801   -8.5922611    647.68742  0.012167257  0.010728308            4 
 4437000    0.5370429    -8.607459    647.96817  0.012169788  0.010724641            2 
 4438000   0.53882611   -8.5868978    648.12106  0.012169916  0.010720976            3 
 4439000    0.5352714   -8.5748755    647.47745  0.012155092  0.010717312            3 
 4440000   0.53753056   -8.5688985     649.3193  0.012186924  0.010713649            5 
 4441000   0.54671626   -8.5679099    648.45735  0.012168006  0.010709989            2 
 4442000   0.54213821    -8.584461    647.28122  0.012143202  0.010706327            4 
 4443000   0.54820484   -8.5760252    648.16091  0.012156968  0.010702666            2 
 4444000   0.54013606   -8.5878298    648.09095  0.012152921  0.010699008            3 
 4445000   0.54291393   -8.5734294     647.1206  0.012131995  0.010695349            3 
 4446000   0.53672445   -8.5784992    647.70414  0.012140204  0.010691693            3 
 4447000    0.5434429   -8.5844518    647.32657  0.012130398   0.01068804            2 
 4448000   0.53835708   -8.5825525    646.66757  0.012115325  0.010684386            6 
 4449000   0.53959059   -8.6042478    646.64373  0.012112155  0.010680734            2 
 4450000   0.54221089    -8.573062    647.20786  0.012119997  0.010677084            4 
 4451000   0.54450434   -8.5839667     647.6207  0.012125004  0.010673433            1 
 4452000   0.55474913   -8.5760417    647.01823  0.012111003  0.010669783            2 
 4453000   0.54771356   -8.5872863    647.12033  0.012110194  0.010666137            4 
 4454000   0.53168553   -8.5769778     647.6419  0.012117234  0.010662489            2 
 4455000   0.53696237   -8.5708631    648.84093  0.012136942  0.010658851            2 
 4456000   0.52667229   -8.5907405    648.05478  0.012119516  0.010655208            2 
 4457000   0.53850954   -8.5842906    647.08551  0.012098674  0.010651571            3 
 4458000   0.54297482   -8.5850037    647.81896  0.012109671  0.010647936            1 
 4459000    0.5284754   -8.5943686    646.97686  0.012091217    0.0106443            4 
 4460000   0.52907759   -8.5951254    647.42035  0.012096793  0.010640665            2 
 4461000   0.53782914   -8.5860241    647.13967  0.012088838  0.010637034            2 
 4462000   0.53282249   -8.5752237    647.60626  0.012094843  0.010633401            2 
 4463000   0.53813294   -8.5849051    647.42342  0.012088719  0.010629773            6 
 4464000   0.54152434   -8.5702308    647.85119  0.012093996  0.010626144            2 
 4465000   0.53649683   -8.5864603     647.2982  0.012080967   0.01062252            9 
 4466000    0.5524776   -8.5834419    647.04396  0.012073518  0.010618893            3 
 4467000   0.52961536   -8.6068992     647.2328  0.012074338  0.010615272            2 
 4468000   0.53388945   -8.5776675    647.74542  0.012081196  0.010611648            1 
 4469000   0.53797638   -8.5759251    646.97362  0.012064101  0.010608025            2 
 4470000    0.5305988   -8.5742103    647.62649  0.012073574  0.010604404            4 
 4471000   0.52956442   -8.5841211    647.16751  0.012062318  0.010600786            2 
 4472000    0.5387753   -8.5687459    646.66198  0.012050201  0.010597169            2 
 4473000   0.52512248   -8.5963205    647.00509  0.012053899   0.01059356            2 
 4474000   0.53515926   -8.5951353    647.51325   0.01206067  0.010589947            4 
 4475000   0.53578972   -8.5826916    647.10067  0.012050292  0.010586335            3 
 4476000   0.54144634   -8.6078228    648.51887  0.012074003  0.010582728            2 
 4477000   0.52865439   -8.5839248    646.51975  0.012034096  0.010579118            2 
 4478000   0.52245927   -8.6040726    647.56868  0.012050928  0.010575511            1 
 4479000   0.55120508   -8.5857187    647.96013  0.012055521  0.010571906            2 
 4480000   0.54250429   -8.5858428    646.93735  0.012033805  0.010568299            3 
 4481000    0.5343179   -8.5889885    648.31996  0.012056832  0.010564696            3 
 4482000    0.5350868   -8.6030454    648.58807  0.012059127  0.010561095            1 
 4483000    0.5326431   -8.5907037    647.59861  0.012038044  0.010557495            3 
 4484000    0.5325598   -8.6025697    646.69372  0.012018542  0.010553898            4 
 4485000   0.53933903   -8.6028422    647.54968  0.012031767  0.010550301            4 
 4486000   0.52828741   -8.5972887    647.85626   0.01203478  0.010546708            9 
 4487000   0.53593376   -8.5897369    648.09265  0.012036488  0.010543115            2 
 4488000   0.53242102   -8.5777378    646.51836  0.012004574  0.010539523            3 
 4489000   0.52829644   -8.5939958    646.54759  0.012002443   0.01053593            6 
 4490000   0.53266528   -8.5824624    648.05719  0.012027787   0.01053234            2 
 4491000   0.52496774   -8.5929228    647.05194  0.012006456   0.01052875            2 
 4492000   0.53336411   -8.6007091    647.78632  0.012017407  0.010525159            1 
 4493000   0.53243723   -8.6040564    647.68547  0.012012862  0.010521572            3 
 4494000   0.52373855   -8.5790887    648.53262  0.012025898  0.010517988            2 
 4495000   0.54471404   -8.5983435    647.55833   0.01200516  0.010514403            2 
 4496000   0.52668335   -8.5851762    646.58827   0.01198451  0.010510821            4 
 4497000   0.52767921   -8.6026584    647.11662  0.011991635  0.010507239            2 
 4498000   0.52756305   -8.5766425    647.02405  0.011987255  0.010503658            5 
 4499000   0.53485323   -8.6001824    646.78686  0.011980197  0.010500082            2 
 4500000   0.52484067   -8.6000777    648.69024  0.012012782  0.010496506            5 
 4501000   0.53852247   -8.6004694    646.72965  0.011973814   0.01049293            6 
 4502000   0.52612819    -8.606079    647.74361  0.011989923  0.010489362            3 
 4503000   0.53318979   -8.6087353    647.60564  0.011984707  0.010485795            1 
 4504000   0.54061296   -8.6002278    648.42655  0.011997235  0.010482228            3 
 4505000   0.53411518   -8.5922456    646.52846  0.011959461  0.010478664            4 
 4506000   0.52141841   -8.5982973    646.21359  0.011950984  0.010475095            4 
 4507000   0.50940096   -8.6260294     647.8109  0.011977866  0.010471525            2 
 4508000   0.52370069   -8.6065427    646.64423  0.011953642   0.01046796            2 
 4509000   0.52760155    -8.588119     647.7693  0.011971784  0.010464397            2 
 4510000   0.53451011    -8.587557    647.70669  0.011967973  0.010460835            2 
 4511000   0.54053125   -8.5659696    646.45747  0.011942242  0.010457276            3 
 4512000   0.52581998   -8.6194541    647.17695  0.011952884  0.010453717            4 
 4513000   0.53242891   -8.5910682    645.82636  0.011925297  0.010450155            6 
 4514000   0.52833736   -8.5987342     647.0546  0.011945329  0.010446595            4 
 4515000   0.53473974   -8.5932323    646.77121  0.011937453  0.010443035            4 
 4516000   0.52872009   -8.6029759    646.69879  0.011933473  0.010439478            6 
 4517000   0.52009618   -8.6085396    646.56697    0.0119284  0.010435924            1 
 4518000   0.53273476   -8.6072744    646.48799  0.011924303  0.010432371            4 
 4519000   0.52625616     -8.59713    648.54875  0.011959666  0.010428823            3 
 4520000   0.54470198   -8.6024402    646.42487  0.011917863  0.010425276            2 
 4521000   0.52022624   -8.6098262    646.15841  0.011910315  0.010421728            8 
 4522000   0.53517852   -8.6077556    647.84106   0.01193869  0.010418183            2 
 4523000   0.52730682   -8.5991618    646.62286  0.011913606  0.010414637            1 
 4524000   0.51710617   -8.6178342    647.47611  0.011926689  0.010411096            2 
 4525000   0.52878019   -8.6189779    647.47452  0.011924024  0.010407556            2 
 4526000   0.52837657   -8.6024489    647.84598  0.011928229  0.010404017            5 
 4527000   0.52572011   -8.6069111    645.56938  0.011883686  0.010400477            2 
 4528000   0.52421189   -8.6172934    646.61798   0.01190036  0.010396937            2 
 4529000   0.53460617   -8.6180149    646.17674  0.011889614  0.010393396            3 
 4530000   0.52846432   -8.6149237    646.94585  0.011901138  0.010389864            1 
 4531000   0.52964238   -8.6036302    647.16741  0.011902586  0.010386327            4 
 4532000   0.53769463   -8.5883346    647.40087  0.011904253  0.010382796            5 
 4533000   0.52380855   -8.6002268    647.33885  0.011900486  0.010379263            4 
 4534000   0.52160896    -8.594098    647.92297  0.011908597  0.010375734            5 
 4535000   0.52600831   -8.6051649    646.83265  0.011885936  0.010372206            1 
 4536000   0.53048367   -8.6156091    647.46432  0.011894921  0.010368678            2 
 4537000   0.52214488   -8.5993434    646.55981  0.011875685  0.010365154            3 
 4538000   0.52529414   -8.5994406    646.65875  0.011874885  0.010361633            2 
 4539000   0.52803715   -8.6049052    646.52495  0.011869813  0.010358113            2 
 4540000   0.53243529   -8.5989988    647.34792  0.011882304  0.010354592            3 
 4541000    0.5170267   -8.5937679    647.63509  0.011884957  0.010351074            2 
 4542000   0.52780551    -8.606644    647.05494  0.011871696  0.010347558            1 
 4543000   0.52105817   -8.5997743    647.47636  0.011876813  0.010344042            3 
 4544000   0.52755729   -8.6064561     646.3899  0.011854275  0.010340526            1 
 4545000   0.50909772   -8.6121881    645.82571  0.011841322   0.01033701            1 
 4546000   0.52895555   -8.6033066    646.42418  0.011849688    0.0103335            2 
 4547000    0.5279053   -8.6117179     645.5745   0.01183151  0.010329987            2 
 4548000    0.5229899   -8.6203931    646.09532  0.011838451  0.010326477            5 
 4549000   0.52225183   -8.6085018    646.58874  0.011844888  0.010322969            2 
 4550000    0.5222691   -8.6044028    646.53678  0.011841333  0.010319461            5 
 4551000   0.52411493   -8.6032413    646.97969  0.011846841  0.010315954            2 
 4552000   0.51017513    -8.606662    645.83868   0.01182335  0.010312452            1 
 4553000   0.53005221   -8.5995051      647.433  0.011849934  0.010308951            2 
 4554000   0.52690528   -8.6106611    647.56219  0.011849696   0.01030545            1 
 4555000   0.52567363   -8.6203415    646.47153  0.011827141  0.010301951            3 
 4556000   0.52447899   -8.6067208    646.68681  0.011828483  0.010298449            2 
 4557000   0.52107052   -8.5935427    648.36621  0.011856598  0.010294954            2 
 4558000   0.51472715   -8.6014581    646.40936   0.01181822  0.010291458            2 
 4559000   0.51701154   -8.6033615    646.01257  0.011808375  0.010287965            1 
 4560000   0.52159059   -8.6058753    646.58287  0.011816207  0.010284476            3 
 4561000   0.51819129   -8.6225576     647.3203   0.01182709  0.010280988            2 
 4562000   0.52462286   -8.6056192    647.78879  0.011833056  0.010277498            4 
 4563000   0.52957909   -8.5986516    646.82545  0.011812869  0.010274015            6 
 4564000   0.52296471    -8.616503    646.77786  0.011809412   0.01027053            1 
 4565000   0.53078004   -8.6045457    646.73222  0.011805992  0.010267049            3 
 4566000   0.51181606   -8.6160475    647.33376  0.011814385  0.010263567            1 
 4567000   0.52261886   -8.6095264    646.15154  0.011790226  0.010260083            6 
 4568000   0.53917945    -8.622994    647.04799  0.011803999  0.010256604            6 
 4569000   0.52304357   -8.5931749    646.86621    0.0117981  0.010253129            2 
 4570000   0.50994424   -8.6301765    646.53484  0.011789475  0.010249651            1 
 4571000   0.51662193   -8.6008556    647.28421  0.011800558  0.010246177            2 
 4572000   0.52883526   -8.6127652    646.37614  0.011781426  0.010242707            2 
 4573000   0.53206245   -8.6231655    646.76421  0.011785921  0.010239236            1 
 4574000   0.53041503   -8.6184004    645.84169  0.011766537  0.010235767            6 
 4575000   0.52143242   -8.6087434    646.32094  0.011772695    0.0102323            3 
 4576000   0.51296241   -8.5986049    648.04224  0.011801469  0.010228836            2 
 4577000   0.50596616   -8.6125038    646.49817  0.011770777  0.010225371            8 
 4578000   0.51241327   -8.6143383    645.72948  0.011754214  0.010221907            4 
 4579000   0.52854711     -8.59249    645.91836  0.011755084  0.010218447            2 
 4580000    0.5125157   -8.6253631    646.74983  0.011767646  0.010214987            2 
 4581000   0.51625775   -8.6077219    646.72785  0.011764677  0.010211529            2 
 4582000   0.51825808   -8.5936692    646.31355  0.011754575  0.010208069            2 
 4583000   0.52258303   -8.6328187     647.2125  0.011768356  0.010204612            2 
 4584000   0.52612954   -8.6258661    647.09373  0.011763629  0.010201156            3 
 4585000   0.50941327   -8.6258923    646.76831  0.011755149  0.010197704            2 
 4586000   0.52874586   -8.6225946    646.84591  0.011753996  0.010194253            3 
 4587000   0.52176265   -8.6291546    647.68688  0.011766712  0.010190802            2 
 4588000    0.5209747   -8.6091559    647.12217   0.01175389  0.010187354            4 
 4589000   0.50801903   -8.6256001    647.17919  0.011752364  0.010183909            1 
 4590000   0.50489268   -8.6019805    646.33432  0.011734465  0.010180462            4 
 4591000   0.52671799   -8.6185058    647.25104  0.011748549  0.010177018            1 
 4592000   0.51872775   -8.6201059    646.27687  0.011728311  0.010173576            1 
 4593000   0.52094279   -8.6260507     646.8116   0.01173546  0.010170135            3 
 4594000    0.5151686   -8.6163413    646.53024  0.011727801  0.010166692            2 
 4595000   0.51204761   -8.6185586    646.49579  0.011724624  0.010163254            2 
 4596000   0.51281637   -8.6246478    646.92677  0.011729888  0.010159815            1 
 4597000   0.52927076    -8.610791    647.12777   0.01173098  0.010156381            1 
 4598000   0.51780752   -8.6383255    646.49272  0.011716919  0.010152949            1 
 4599000   0.51012413   -8.6134441    647.26893  0.011728436  0.010149519            2 
 4600000   0.51491763   -8.6233084     646.6274  0.011714265  0.010146083            3 
 4601000   0.51728667   -8.6219227    646.59416  0.011711116  0.010142651            4 
 4602000   0.49967166   -8.6189644    646.67514  0.011710038  0.010139222            1 
 4603000   0.50723369   -8.6148446    647.11629  0.011715481   0.01013579            2 
 4604000   0.51070092    -8.641884    646.58163  0.011703259  0.010132359            2 
 4605000   0.51577625   -8.6262362    646.36361  0.011696772  0.010128931            3 
 4606000    0.5240067   -8.6289325     646.5674  0.011697919  0.010125507            3 
 4607000   0.51410829   -8.6214637    646.82181  0.011699982  0.010122082            2 
 4608000    0.5082577   -8.6210484    646.69447   0.01169514  0.010118657            3 
 4609000   0.51729471   -8.6217977     646.8699  0.011695775  0.010115235            5 
 4610000   0.51838265   -8.6189381    645.24027  0.011663779  0.010111814            2 
 4611000   0.51040226   -8.6428307    646.52905  0.011684542  0.010108393            2 
 4612000   0.51955447   -8.6179394    646.13004  0.011674798  0.010104976            3 
 4613000   0.51220493   -8.6248977    646.88182  0.011685848   0.01010156            2 
 4614000   0.51085534   -8.6357055    646.39285  0.011674484  0.010098142            5 
 4615000   0.50661923   -8.6128998     645.9233  0.011663476  0.010094727            1 
 4616000   0.51253531   -8.6535169    646.19976   0.01166594  0.010091316            7 
 4617000   0.51545598   -8.6356681    646.19269  0.011663286  0.010087904            4 
 4618000   0.50522844   -8.6206315    646.89775  0.011673483  0.010084491            4 
 4619000   0.52006835    -8.637139    646.79537  0.011669109  0.010081084            4 
 4620000   0.51803468   -8.6233193    645.42756  0.011641911  0.010077672            3 
 4621000    0.5130465   -8.6219424    646.26763  0.011654541  0.010074263            2 
 4622000   0.52238773   -8.6170856    646.51128  0.011656413  0.010070857            3 
 4623000   0.50621182   -8.6147724    646.18827  0.011648069  0.010067454            2 
 4624000   0.50064609   -8.6434784    645.40326  0.011631402  0.010064051            2 
 4625000   0.51687749   -8.6193014    647.08169   0.01165913   0.01006065            6 
 4626000   0.51077601    -8.637112    645.61212  0.011630136  0.010057249            2 
 4627000   0.51400955   -8.6250214     646.5061  0.011643723  0.010053851            3 
 4628000   0.49705376   -8.6257543    645.84327  0.011629272  0.010050454            4 
 4629000   0.52149567   -8.6345132    646.39761   0.01163674  0.010047058            1 
 4630000   0.51073246   -8.6257649     647.6531  0.011656823  0.010043665            3 
 4631000   0.51358951   -8.6187627    645.42889  0.011614282  0.010040272            1 
 4632000   0.50963552   -8.6466871    646.54365   0.01163183   0.01003688            1 
 4633000   0.50889896   -8.6303716    646.93488  0.011636357  0.010033489            1 
 4634000   0.50794641   -8.6198294    646.66637  0.011629017  0.010030099            3 
 4635000   0.51458612   -8.6160676    646.51786  0.011623838  0.010026713            3 
 4636000   0.50148391   -8.6203752    645.22939   0.01159817  0.010023331            3 
 4637000   0.50608544   -8.6309395    646.50759   0.01161864  0.010019947            3 
 4638000   0.50628978    -8.633978    646.55623  0.011617009  0.010016567            3 
 4639000   0.50962841   -8.6412316    646.60021  0.011615294  0.010013185            1 
 4640000   0.50941205    -8.629131    646.50392  0.011611062  0.010009808            2 
 4641000   0.50646784    -8.637066     646.7267   0.01161256  0.010006432            2 
 4642000   0.50664805   -8.6353435    646.42268  0.011604601  0.010003054            4 
 4643000   0.50113202   -8.6205234     647.0752  0.011613813 0.0099996811            4 
 4644000   0.50612622   -8.6415205    646.21396  0.011595858 0.0099963084            3 
 4645000   0.51131022   -8.6182585    645.36022  0.011578045 0.0099929348            4 
 4646000   0.49637038   -8.6279639    646.09368  0.011588709 0.0099895613            9 
 4647000   0.50657018   -8.6386866    646.15479  0.011587311 0.0099861943            3 
 4648000   0.50868162   -8.6317847    645.88797  0.011580034 0.0099828278            5 
 4649000   0.50908898   -8.6204214    645.58992  0.011572201 0.0099794622            2 
 4650000   0.50794094   -8.6530394    645.52324  0.011568517 0.0099760977            3 
 4651000   0.49993966   -8.6388294    646.01248  0.011574795 0.0099727344            1 
 4652000   0.50935309   -8.6340558    646.33854  0.011578148 0.0099693761            3 
 4653000    0.4927187   -8.6218689    645.73034  0.011564767  0.009966018            5 
 4654000   0.50751931   -8.6345329    646.41422  0.011574528 0.0099626588            3 
 4655000   0.50227131   -8.6362921    646.19336  0.011568087 0.0099593039            2 
 4656000   0.51065301   -8.6419349    646.23393  0.011566329 0.0099559468            1 
 4657000   0.50442366   -8.6343534    646.47429  0.011568146 0.0099525955            2 
 4658000   0.50756744   -8.6415379    646.05922  0.011558237  0.009949246            1 
 4659000   0.50056485   -8.6383067    645.93894  0.011553605 0.0099458972            2 
 4660000   0.50308906    -8.633186    645.36741  0.011540905 0.0099425495            1 
 4661000   0.51090498   -8.6471042    646.06959  0.011550983 0.0099392014            2 
 4662000   0.50692123   -8.6329318    645.04995  0.011530279 0.0099358565            1 
 4663000    0.5135164   -8.6273274    646.15624  0.011547577 0.0099325125            3 
 4664000   0.49863733   -8.6327808    645.81398  0.011538986 0.0099291696            4 
 4665000   0.50511005   -8.6395097    646.01385  0.011540083 0.0099258249            2 
 4666000    0.4956522   -8.6305392    644.20361  0.011505279 0.0099224817            2 
 4667000    0.4988733   -8.6467212    645.24263  0.011521367 0.0099191386            2 
 4668000   0.51049977   -8.6323917    644.55406  0.011506606    0.0099158            2 
 4669000   0.50195256   -8.6566962    645.90199    0.0115282  0.009912463            3 
 4670000   0.51863606   -8.6393775    646.06442   0.01152863 0.0099091259            1 
 4671000      0.49964   -8.6444554    645.96415  0.011524373 0.0099057894            4 
 4672000   0.50908462   -8.6422495    645.28221  0.011509743 0.0099024519            4 
 4673000   0.49794385   -8.6369055    646.27018  0.011524898 0.0098991181            5 
 4674000   0.50009283   -8.6420992    645.20128  0.011503375   0.00989579            4 
 4675000   0.51490551   -8.6526056    646.33825  0.011521181 0.0098924596            3 
 4676000   0.51666005   -8.6288648    646.03713  0.011513351 0.0098891338            2 
 4677000   0.50644788   -8.6402383    646.56302  0.011520259 0.0098858113            2 
 4678000   0.50131046   -8.6340167    646.06276  0.011508885 0.0098824869            3 
 4679000   0.50293106   -8.6295773    645.49049  0.011496233 0.0098791636            2 
 4680000    0.5107507   -8.6385924    645.96943  0.011502305 0.0098758416            1 
 4681000   0.49773029   -8.6508583    645.91537  0.011498885 0.0098725207            2 
 4682000   0.49875512   -8.6560301    645.16102  0.011483003 0.0098691962            3 
 4683000   0.51314557   -8.6223004    645.49042  0.011486412 0.0098658766            3 
 4684000   0.50982723    -8.636035    646.05926   0.01149408 0.0098625571            2 
 4685000   0.48870619   -8.6467973    645.28208  0.011477803 0.0098592381            3 
 4686000   0.49829165   -8.6190661    646.69687  0.011500513 0.0098559238            4 
 4687000   0.50288736   -8.6332786    645.84345  0.011482886 0.0098526125            4 
 4688000   0.50708897    -8.633228    645.33847   0.01147146 0.0098493006            2 
 4689000   0.50515668   -8.6437406    645.63356  0.011474258 0.0098459912            5 
 4690000   0.51115554   -8.6427744    644.58279  0.011453141 0.0098426848            3 
 4691000   0.49254869   -8.6395807    645.75975  0.011471608 0.0098393742            5 
 4692000   0.50141991   -8.6387888    645.46728  0.011463969 0.0098360663            1 
 4693000   0.50249631   -8.6434341    645.59796  0.011463846 0.0098327621            2 
 4694000   0.49858934   -8.6482236    645.86075  0.011466069 0.0098294542            2 
 4695000   0.50790308   -8.6551064    645.82545  0.011463001  0.009826152            1 
 4696000    0.5067597   -8.6516732    646.20779  0.011467344 0.0098228523            2 
 4697000   0.50313652   -8.6426131    646.47594   0.01146966 0.0098195546            4 
 4698000    0.4912021   -8.6442209    646.17084  0.011461807  0.009816259            2 
 4699000   0.49880049   -8.6448611    645.91201  0.011454778 0.0098129612            1 
 4700000   0.49189955   -8.6592095    645.92112  0.011452502  0.009809665            3 
 4701000   0.50124341   -8.6410475    645.84747   0.01144876 0.0098063705            2 
 4702000   0.50563313   -8.6525306    645.06395  0.011432439 0.0098030744            2 
 4703000    0.5010225   -8.6529649    645.61375   0.01143975 0.0097997779            1 
 4704000   0.49592393    -8.644432    645.37912  0.011433162 0.0097964866            2 
 4705000   0.50157439   -8.6650612    645.48077  0.011432532 0.0097931937            2 
 4706000   0.49931356   -8.6559845    644.57857  0.011414127 0.0097899054            2 
 4707000   0.50165143   -8.6492355    645.58375  0.011429498 0.0097866218            2 
 4708000   0.49737535   -8.6566358    645.43513  0.011424439 0.0097833347            4 
 4709000   0.49535801   -8.6597003    646.23911  0.011436241 0.0097800533            2 
 4710000   0.49563219     -8.64853    645.73229  0.011424846 0.0097767694            2 
 4711000   0.49219403   -8.6461201    645.89583  0.011425314 0.0097734891            2 
 4712000   0.49746572   -8.6607217    645.18287   0.01141028 0.0097702053            4 
 4713000   0.49681719   -8.6649205    645.90693  0.011420662 0.0097669251            2 
 4714000   0.50118537   -8.6541631    645.13891  0.011404662 0.0097636453            3 
 4715000   0.49884851   -8.6505542    645.74095  0.011412884 0.0097603691            2 
 4716000   0.50092859   -8.6489778    645.57336  0.011407502 0.0097570925            2 
 4717000   0.48912427    -8.652309    645.56347  0.011404909 0.0097538191            3 
 4718000   0.48108228   -8.6464067    644.71621  0.011387527 0.0097505455            2 
 4719000   0.49533051   -8.6508877    645.87002  0.011405489 0.0097472721            2 
 4720000   0.47441866   -8.6597652    645.93877  0.011404286 0.0097439995            1 
 4721000   0.50355165   -8.6390438     644.9456   0.01138434 0.0097407294            3 
 4722000    0.4864801    -8.633384     645.3239  0.011388605 0.0097374627            2 
 4723000   0.49103289    -8.669294    645.76218  0.011393926 0.0097341955            1 
 4724000    0.4991942   -8.6551874    645.60072  0.011388666  0.009730929            2 
 4725000   0.49265481   -8.6468621     645.4305  0.011383254 0.0097276636            1 
 4726000   0.49205668   -8.6505534    646.16576   0.01139381 0.0097244004            2 
 4727000   0.49735926   -8.6541051    646.30456  0.011393847 0.0097211364            3 
 4728000   0.49742858   -8.6524499    644.93035  0.011367216 0.0097178764            3 
 4729000   0.49924402   -8.6479764     644.3565    0.0113547   0.00971462            3 
 4730000   0.48941709   -8.6578317    645.74414  0.011376747 0.0097113633            1 
 4731000   0.49828118   -8.6438728    645.56475  0.011371182 0.0097081056            1 
 4732000   0.48707623   -8.6623066    645.34668  0.011364939 0.0097048517            2 
 4733000   0.49912009   -8.6645752    643.91596  0.011337347 0.0097015975            2 
 4734000   0.47471925   -8.6366744      645.162  0.011356886  0.009698346            2 
 4735000   0.49122882   -8.6690707    645.57833  0.011361815 0.0096950941            3 
 4736000   0.49428063   -8.6754073    644.77715  0.011345319 0.0096918439            2 
 4737000   0.48411176   -8.6559459    644.97252   0.01134636 0.0096885932            3 
 4738000   0.50592394   -8.6513584    645.12462  0.011346641 0.0096853459            2 
 4739000   0.49376821   -8.6505998    645.17183  0.011345077 0.0096821031            1 
 4740000   0.49377672   -8.6528828    645.76437  0.011353101 0.0096788604            1 
 4741000   0.50308509   -8.6541169    645.56467  0.011347196 0.0096756175            4 
 4742000   0.50717986   -8.6613604     644.4491  0.011325199 0.0096723754            3 
 4743000   0.48922484   -8.6560467    645.24656  0.011336822 0.0096691343            3 
 4744000   0.49346421   -8.6550577    646.33616  0.011353572 0.0096658982            1 
 4745000   0.48403963   -8.6624504    644.27209   0.01131493 0.0096626603            1 
 4746000   0.48688268   -8.6549755    646.42743   0.01135039  0.009659422            1 
 4747000   0.49263045   -8.6616408    645.49513  0.011331633 0.0096561871            5 
 4748000   0.49784551   -8.6566441    645.09476  0.011322219 0.0096529547            4 
 4749000   0.49427261   -8.6412572    645.43323  0.011325774 0.0096497224            1 
 4750000   0.49134638   -8.6565654    645.02143  0.011316165 0.0096464908            2 
 4751000   0.49545591   -8.6610472    644.51629  0.011304923 0.0096432615            4 
 4752000   0.49539258   -8.6579465    645.21492  0.011314796 0.0096400371            3 
 4753000    0.5013964   -8.6775565    644.65706  0.011302634 0.0096368076            1 
 4754000   0.48884593   -8.6727816    645.67713  0.011318138 0.0096335816            1 
 4755000   0.48119755   -8.6654293    644.75185  0.011299542 0.0096303561            2 
 4756000   0.48218744   -8.6613747    644.59563  0.011294429 0.0096271297            2 
 4757000   0.49213668   -8.6684228    645.18322  0.011302348 0.0096239074            2 
 4758000   0.48200617   -8.6435018    645.02296  0.011297166 0.0096206883            5 
 4759000   0.48041602   -8.6587208    645.57305  0.011304424 0.0096174699            2 
 4760000   0.49804317   -8.6545624     644.3438  0.011280529 0.0096142525            4 
 4761000   0.48445707   -8.6587523    645.13679  0.011292039 0.0096110359            3 
 4762000    0.4944734   -8.6683373    645.67901  0.011299157 0.0096078191            3 
 4763000    0.4897891     -8.65501    645.13816  0.011287322  0.009604601            1 
 4764000   0.49253948   -8.6609524    644.86874   0.01128024 0.0096013831            4 
 4765000   0.48973539   -8.6791327    644.57287  0.011272698 0.0095981711            2 
 4766000   0.49424887   -8.6797789    643.42003  0.011250175 0.0095949596            2 
 4767000   0.48549588   -8.6709197     644.6956  0.011270114 0.0095917481            1 
 4768000    0.4906773   -8.6677507    645.97868  0.011290175 0.0095885418            3 
 4769000   0.49163174   -8.6628487    645.04646  0.011271519 0.0095853378            1 
 4770000   0.50391811   -8.6430388    643.21116  0.011237092 0.0095821327            3 
 4771000   0.49162206   -8.6672936    645.15088  0.011268617 0.0095789305            2 
 4772000   0.48512244   -8.6657927    645.11096  0.011265559 0.0095757278            6 
 4773000   0.47915453   -8.6561486    646.30508  0.011284047 0.0095725259            6 
 4774000   0.48321061   -8.6763279    644.95471  0.011258112 0.0095693248            3 
 4775000   0.49041039   -8.6703504    645.37975  0.011263172 0.0095661279            1 
 4776000    0.4877828   -8.6779979    644.03184  0.011237295 0.0095629282            3 
 4777000   0.47778607   -8.6717424    645.92127  0.011267903 0.0095597346            6 
 4778000   0.48713122   -8.6566919    644.18364  0.011235239 0.0095565412            2 
 4779000   0.48235274   -8.6690338     644.6195  0.011240488 0.0095533502            3 
 4780000   0.48460305   -8.6626519    645.19127  0.011248104 0.0095501588            3 
 4781000   0.47900239   -8.6604156    644.76955  0.011238401 0.0095469677            2 
 4782000   0.50034123   -8.6598984    644.95499  0.011239282 0.0095437826            3 
 4783000   0.48816795   -8.6671582    644.62351  0.011231157 0.0095405965            1 
 4784000   0.49110766   -8.6707926    645.34991  0.011241463 0.0095374095            3 
 4785000   0.48126569   -8.6585039    645.43117  0.011240529  0.009534226            1 
 4786000   0.47339458   -8.6722261    646.32417  0.011253729 0.0095310427            2 
 4787000   0.47825153   -8.6619559    645.26189  0.011232886 0.0095278593            2 
 4788000   0.48432182   -8.6600246     644.3121  0.011214009  0.009524675            3 
 4789000   0.48853059   -8.6678384    645.52996  0.011232859 0.0095214955            2 
 4790000     0.486116   -8.6697584    645.05378   0.01122223 0.0095183189            1 
 4791000   0.48990295   -8.6698214    644.54711  0.011211075 0.0095151415            2 
 4792000   0.49721021    -8.671644    645.46405  0.011224681 0.0095119675            2 
 4793000   0.48282957   -8.6827382    644.36694  0.011203264 0.0095087904            2 
 4794000   0.48010795   -8.6780692    643.75386   0.01119027 0.0095056195            3 
 4795000    0.4865426   -8.6727168    644.40368   0.01119923 0.0095024472            4 
 4796000    0.4900006   -8.6865439    644.24269  0.011194097 0.0094992745            4 
 4797000    0.4912578   -8.6775495    644.01907  0.011187879 0.0094961043            2 
 4798000   0.48674957   -8.6695701    644.52944  0.011194412 0.0094929337            1 
 4799000   0.47374959   -8.6633593    644.56812  0.011192751 0.0094897642            2 
 4800000   0.49095115   -8.6521922    644.92974  0.011196697 0.0094866003            4 
 4801000   0.48754809   -8.6839733    644.79473  0.011192021 0.0094834362            4 
 4802000    0.4927195   -8.6619868    643.82055  0.011172785 0.0094802734            2 
 4803000   0.47582312    -8.674561    645.07275  0.011192185 0.0094771093            2 
 4804000   0.47572374   -8.6800725    644.33573   0.01117707 0.0094739499            2 
 4805000   0.48481525    -8.667374    644.24786   0.01117322 0.0094707897            1 
 4806000   0.48918051     -8.66976    644.02367  0.011167008 0.0094676305            1 
 4807000   0.47896975   -8.6858673     644.6581  0.011175683 0.0094644748            1 
 4808000   0.48342171   -8.6800299    643.82101   0.01115885 0.0094613193            2 
 4809000   0.48488095   -8.6823039    645.32378  0.011182571 0.0094581654            2 
 4810000   0.47619531   -8.6555357    644.10441   0.01115912 0.0094550105            1 
 4811000   0.48753383   -8.6752777    644.91063  0.011170765 0.0094518573            7 
 4812000   0.49128323   -8.6740622    644.08272  0.011154106 0.0094487074            3 
 4813000   0.48075034   -8.6737636    644.66457  0.011161863 0.0094455618            3 
 4814000   0.48692172   -8.6921245    644.28353  0.011152949 0.0094424137            4 
 4815000   0.48678711   -8.6778239    644.64016  0.011156804 0.0094392652            1 
 4816000    0.4871127   -8.6944946    644.71421  0.011155769 0.0094361213            4 
 4817000   0.47608784   -8.6640853    645.38103  0.011164989 0.0094329777            2 
 4818000   0.48148719   -8.6754331    644.28191  0.011143661 0.0094298355            2 
 4819000   0.48551371   -8.6683879    644.82739  0.011150781 0.0094266983            1 
 4820000    0.4817906   -8.6761032    644.87461  0.011149284 0.0094235635            4 
 4821000    0.4891286    -8.674547    643.81271  0.011128616 0.0094204281            3 
 4822000   0.48127976   -8.6793935    645.04544  0.011147612 0.0094172955            2 
 4823000   0.49118117    -8.686388    646.15223  0.011164425 0.0094141621            2 
 4824000   0.48498129   -8.6773442    644.21421  0.011128631 0.0094110298            1 
 4825000   0.48473301   -8.6895285    644.38373  0.011129253 0.0094079007            1 
 4826000   0.48119384   -8.6806553     643.2259  0.011106954 0.0094047678            3 
 4827000   0.47725247   -8.6787446    644.11101  0.011119933  0.009401639            5 
 4828000   0.48692534   -8.6893031    643.92607  0.011114438 0.0093985101            1 
 4829000   0.48515526   -8.6748417    644.19195  0.011116725 0.0093953834            1 
 4830000   0.47562743   -8.6748746    643.78872  0.011107466 0.0093922588            2 
 4831000   0.48615588   -8.6701422    644.28339    0.0111137 0.0093891358            2 
 4832000   0.46166332   -8.6828497    644.63181  0.011117408 0.0093860116            3 
 4833000   0.46948534   -8.6821937    644.10221  0.011105976 0.0093828893            2 
 4834000   0.47978075   -8.6761099    644.02427  0.011102335 0.0093797685            1 
 4835000   0.49010365   -8.6811094     644.7019  0.011111718 0.0093766491            2 
 4836000   0.47910612   -8.6886794    644.52865  0.011106435 0.0093735329            3 
 4837000   0.47893253   -8.6824057    645.27347  0.011116971 0.0093704167            1 
 4838000   0.46910061   -8.6848551    643.93704  0.011091654 0.0093672983            2 
 4839000   0.48684768   -8.6959086    644.02545  0.011090884 0.0093641841            2 
 4840000    0.4834445   -8.6748426    644.05219  0.011089053 0.0093610692            3 
 4841000   0.48240356   -8.6866962    644.08286   0.01108729 0.0093579574            2 
 4842000   0.47701373   -8.6713955    644.29955   0.01108873 0.0093548458            2 
 4843000    0.4758972   -8.6783542    643.86088  0.011078892 0.0093517356            2 
 4844000   0.47801088   -8.6740753    644.54307  0.011088341 0.0093486296            5 
 4845000   0.47531649   -8.6773518    644.73708  0.011089389 0.0093455256            2 
 4846000   0.47622019   -8.6932907    644.77604  0.011087771 0.0093424227            1 
 4847000    0.4821992   -8.6901604    644.29152  0.011077153 0.0093393211            4 
 4848000   0.47924266   -8.6886846    644.71689   0.01108218 0.0093362201            2 
 4849000    0.4713642   -8.6736604    644.36971  0.011073928  0.009333117            1 
 4850000   0.48583968   -8.6853263    644.45367  0.011073087 0.0093300168            2 
 4851000   0.47704576   -8.6919233    644.96621  0.011079609  0.009326918            2 
 4852000   0.47364839   -8.6931243    645.03325  0.011078477 0.0093238242            1 
 4853000   0.46867191   -8.6817616    644.09245  0.011060039 0.0093207275            1 
 4854000   0.47390166   -8.6929535    644.96829  0.011072797 0.0093176393            2 
 4855000   0.47357595   -8.6719592    644.49986  0.011062476 0.0093145507            3 
 4856000   0.47543048   -8.6890885    643.16575  0.011037303 0.0093114618            7 
 4857000   0.47256195   -8.6897987    643.85112   0.01104679 0.0093083699            4 
 4858000    0.4686981   -8.6969392    644.46952  0.011055124 0.0093052827            2 
 4859000    0.4730052   -8.6730841    643.82932  0.011041869 0.0093021949            3 
 4860000   0.48467674   -8.6889055    644.37412  0.011048939 0.0092991094            4 
 4861000    0.4777255   -8.6807719    643.57601  0.011032984 0.0092960249            2 
 4862000   0.46109781   -8.6843703    643.92722  0.011036734 0.0092929398            3 
 4863000   0.46970575   -8.6847719    644.74006  0.011048394 0.0092898593            4 
 4864000   0.46927949   -8.6719079    643.58405  0.011026317 0.0092867783            1 
 4865000   0.46949663   -8.6813753    644.34372  0.011037063 0.0092837003            2 
 4866000   0.47036184   -8.6913775    643.97624  0.011028501 0.0092806208            1 
 4867000   0.48199941   -8.6672267    643.84499  0.011023988 0.0092775454            3 
 4868000   0.47526765   -8.6661844    644.57631  0.011034242 0.0092744716            2 
 4869000   0.46567598   -8.6854426    644.01779  0.011022417 0.0092713989            2 
 4870000   0.47449233   -8.6860006    644.21103   0.01102346 0.0092683263            2 
 4871000   0.48504172   -8.6825371     643.7505  0.011013319 0.0092652566            2 
 4872000   0.47184293   -8.6918919    644.08754  0.011016823 0.0092621857            2 
 4873000   0.46169338    -8.690493    645.90735  0.011045683 0.0092591162            2 
 4874000   0.48023633   -8.6890838    644.03609  0.011011423 0.0092560454            2 
 4875000   0.47547986   -8.7074171    644.87978  0.011023586 0.0092529795            4 
 4876000   0.47189245   -8.6825991    644.61035  0.011016721 0.0092499123            1 
 4877000   0.47469726   -8.6995774    645.01472  0.011021371 0.0092468454            2 
 4878000   0.46505809   -8.6881083     644.5763  0.011011622 0.0092437815            4 
 4879000   0.46234933   -8.6972062    643.87059  0.010997311 0.0092407185            3 
 4880000   0.46445059   -8.7073951    643.99615  0.010997202 0.0092376581            2 
 4881000   0.48061057   -8.6907485    643.81174    0.0109918 0.0092345958            1 
 4882000   0.47297353   -8.6930198    644.00698  0.010992882 0.0092315348            2 
 4883000    0.4696887   -8.6728675    644.16912  0.010993398 0.0092284775            3 
 4884000   0.46876096   -8.6885626     644.4439  0.010995835 0.0092254242            2 
 4885000   0.47590307   -8.6946177    644.15038  0.010988577 0.0092223695            2 
 4886000   0.47112635    -8.693118    644.65234  0.010994889  0.009219319            3 
 4887000   0.47459779     -8.69488    643.68895  0.010976211 0.0092162685            2 
 4888000   0.47814617   -8.6765208    644.68836  0.010991004 0.0092132192            2 
 4889000   0.46744195   -8.6930478    644.48847  0.010985349 0.0092101702            2 
 4890000   0.46467797   -8.6969499    643.37777  0.010964175 0.0092071224            3 
 4891000   0.46349315   -8.6932283    643.84742  0.010969935 0.0092040775            2 
 4892000   0.47033147   -8.6892911    643.82662  0.010967338 0.0092010344            3 
 4893000   0.46045133   -8.7042289    644.32288  0.010973549 0.0091979923            3 
 4894000   0.46757253   -8.6997415    643.87555  0.010963689 0.0091949508            4 
 4895000   0.47604376   -8.6857014    644.64745  0.010974591 0.0091919137            2 
 4896000   0.47278817   -8.6787166    643.00369  0.010944371 0.0091888754            4 
 4897000   0.47809528   -8.6798567     643.6386  0.010952941 0.0091858378            2 
 4898000   0.46597294   -8.7038825    643.61153  0.010950244 0.0091828027            5 
 4899000   0.48813609   -8.7038897    643.12544   0.01093974 0.0091797688            2 
 4900000   0.47016205   -8.6973839     644.2423  0.010956502 0.0091767344            2 
 4901000   0.46867396   -8.7105241    644.53239  0.010959199 0.0091737016            5 
 4902000   0.46376706   -8.6772805    644.06381  0.010948997 0.0091706698            2 
 4903000   0.47276531    -8.691691    643.72755  0.010941049 0.0091676424            4 
 4904000    0.4652833   -8.7198047    642.76112  0.010922395 0.0091646134            2 
 4905000   0.47174898   -8.6956053    644.13521  0.010943514  0.009161582            2 
 4906000   0.48230192   -8.6939841    643.99997  0.010938986 0.0091585565            2 
 4907000   0.48425571   -8.6985282    643.88847  0.010934863 0.0091555326            4 
 4908000   0.46693277   -8.7075398    642.80672  0.010914268 0.0091525095            3 
 4909000   0.46304915   -8.7003794    644.45523  0.010940029 0.0091494844            2 
 4910000   0.46212208   -8.7031938    644.04321  0.010930808 0.0091464625            2 
 4911000   0.46551843   -8.6901459    643.85406  0.010925373 0.0091434423            2 
 4912000   0.46595625   -8.7016188    643.44812  0.010916262 0.0091404219            2 
 4913000   0.46553782   -8.6915096    644.12335  0.010925493 0.0091374033            3 
 4914000   0.46096097     -8.68591    643.71391  0.010916326 0.0091343848            2 
 4915000   0.47121263   -8.7040158    644.46004  0.010926756 0.0091313681            2 
 4916000   0.46636126   -8.7100207     644.3016  0.010921847 0.0091283539            6 
 4917000   0.47866846   -8.7025362    643.24492  0.010901717 0.0091253411            1 
 4918000   0.46593267   -8.6966618    643.83101  0.010909431 0.0091223294            1 
 4919000   0.46150261   -8.6919936     644.0583  0.010911064   0.00911932            2 
 4920000   0.47241632   -8.7024732     644.3551  0.010913874 0.0091163095            2 
 4921000   0.47438773   -8.7018319    644.00688  0.010905759 0.0091133013            2 
 4922000   0.45975357   -8.6954572    643.77777  0.010899664 0.0091102951            2 
 4923000   0.46120882   -8.7118195    643.94808  0.010900333 0.0091072883            3 
 4924000   0.46428545   -8.7116909    643.64626  0.010893011 0.0091042815            2 
 4925000    0.4673866    -8.690341    644.29968  0.010901856 0.0091012785            2 
 4926000   0.47623601   -8.6994155    643.99416  0.010894474  0.009098277            3 
 4927000   0.45417092   -8.7063886     644.3756  0.010898714 0.0090952746            4 
 4928000   0.46809349    -8.697806    642.79898  0.010869842  0.009092274            2 
 4929000   0.45335811   -8.6907774    643.03307  0.010871594 0.0090892741            3 
 4930000   0.45921454    -8.696024    643.02696  0.010869286 0.0090862758            2 
 4931000   0.46740439   -8.7079293    643.13064  0.010868834 0.0090832777            2 
 4932000   0.46323338   -8.7056349    644.32735   0.01088685 0.0090802814            1 
 4933000   0.44305028   -8.6959219    643.23002  0.010866106 0.0090772867            3 
 4934000    0.4764099   -8.7052911    643.85624   0.01087448 0.0090742943            2 
 4935000   0.46804837   -8.6996778    643.73953  0.010870306 0.0090713037            3 
 4936000   0.46459083   -8.6957774    643.32464  0.010861099 0.0090683122            2 
 4937000   0.45991675   -8.7028942    643.27913  0.010858131 0.0090653246            3 
 4938000    0.4537095   -8.7148923    644.53037  0.010877048 0.0090623346            2 
 4939000   0.46516163   -8.7026095    644.10259  0.010867628 0.0090593486            4 
 4940000   0.46691906   -8.7062445     643.2047  0.010850282 0.0090563634            2 
 4941000   0.46109838    -8.716622    643.04575  0.010845405  0.009053379            1 
 4942000   0.45361853   -8.7002031    644.71557  0.010871367 0.0090503973            2 
 4943000   0.45336717   -8.7039006    643.55282  0.010849565 0.0090474176            2 
 4944000   0.46127288   -8.6969257    643.13086  0.010840258 0.0090444406            2 
 4945000   0.46614077   -8.7226807    644.40967  0.010859617 0.0090414618            2 
 4946000   0.46325803   -8.7022465    643.42961  0.010840909 0.0090384849            2 
 4947000   0.45440865   -8.7086236    643.83766  0.010845591 0.0090355076            2 
 4948000   0.45602805   -8.7138086    643.16833  0.010832126 0.0090325324            2 
 4949000   0.46608322   -8.7029798    642.45116  0.010817861 0.0090295591            3 
 4950000   0.45993349   -8.7081311    643.35012   0.01083081 0.0090265872            4 
 4951000    0.4660341    -8.708176    643.18226  0.010825797 0.0090236168            2 
 4952000   0.45946514   -8.7166328    643.86251  0.010835058 0.0090206488            3 
 4953000    0.4644798    -8.700805    643.08064  0.010819716 0.0090176799            3 
 4954000   0.46169397   -8.7078317    643.72886  0.010828436 0.0090147133            2 
 4955000   0.46593082   -8.7037895    643.14047  0.010816355 0.0090117469            1 
 4956000    0.4549142   -8.6936752    643.67706  0.010823195 0.0090087825            7 
 4957000   0.45666602   -8.7209587    644.12689  0.010828574 0.0090058184            5 
 4958000   0.45934628   -8.7107817    643.49737  0.010815809 0.0090028554            2 
 4959000   0.45556393   -8.7071936    643.00727  0.010805392 0.0089998951            2 
 4960000   0.45959928   -8.7059737    644.34186  0.010825636 0.0089969379            6 
 4961000   0.45799996   -8.7096626    643.68298  0.010812386 0.0089939779            1 
 4962000   0.45274064   -8.7078961    643.97418  0.010815098 0.0089910213            3 
 4963000   0.46737734   -8.7217803    643.55148  0.010805821 0.0089880669            2 
 4964000   0.45790414   -8.6924969    642.87608  0.010792306 0.0089851144            3 
 4965000   0.45977722    -8.709932    644.24153   0.01081305 0.0089821618            4 
 4966000   0.45953475   -8.7084617    643.15744  0.010792681 0.0089792073            2 
 4967000   0.45344532   -8.6963615    643.55189  0.010797126 0.0089762587            1 
 4968000   0.45722216   -8.7132115    643.94286  0.010801511 0.0089733081            2 
 4969000   0.46446092   -8.7117227    643.11354  0.010785429 0.0089703613            2 
 4970000    0.4569964   -8.7183481    643.27386  0.010785947 0.0089674147            4 
 4971000   0.45266539   -8.7259208    643.17819  0.010782173 0.0089644678            2 
 4972000   0.45309915   -8.7046725    644.15137  0.010796316 0.0089615215            6 
 4973000   0.45512454   -8.7116957    644.31472  0.010796882 0.0089585779            1 
 4974000   0.45412918   -8.7078909    643.80608   0.01078619 0.0089556322            5 
 4975000   0.45745362   -8.7166267    643.82072  0.010784267 0.0089526905            3 
 4976000   0.45840577   -8.7218414    642.38506  0.010758056 0.0089497495            3 
 4977000   0.46333989   -8.7095554    643.33667  0.010771828 0.0089468098            2 
 4978000   0.46315514   -8.7264396    643.04056  0.010764707 0.0089438704            2 
 4979000   0.44999464   -8.7073715    643.59508  0.010771826  0.008940932            1 
 4980000   0.46022167   -8.7231058    643.60698  0.010769862 0.0089379952            4 
 4981000   0.45078825   -8.7052314    644.12521   0.01077637 0.0089350582            2 
 4982000   0.45754525   -8.7097428    642.79022  0.010751877 0.0089321254            1 
 4983000    0.4583665   -8.7154622    642.53877  0.010745514 0.0089291919            1 
 4984000   0.45393102   -8.7176865    643.09623  0.010752679 0.0089262592            2 
 4985000   0.45007504   -8.6992397    643.54156  0.010757966  0.008923329            2 
 4986000   0.45188048    -8.725147    643.02986  0.010747257 0.0089203998            5 
 4987000   0.45133142   -8.7130214    643.87819  0.010759277 0.0089174716            2 
 4988000   0.46209837   -8.7095991    643.03322  0.010743004 0.0089145449            4 
 4989000   0.46105034   -8.7061155    642.88274  0.010738337 0.0089116188            3 
 4990000   0.45211151   -8.7166246    644.02511  0.010755262 0.0089086944            1 
 4991000   0.45332128   -8.7146586    642.73271  0.010731529 0.0089057707            2 
 4992000   0.45562816   -8.7289424    642.93554  0.010732765 0.0089028521            2 
 4993000   0.43969443   -8.7332341    643.71797  0.010743674 0.0088999315            2 
 4994000   0.45520356   -8.7246616    643.33303  0.010735099 0.0088970116            1 
 4995000   0.46639896   -8.7249852    643.07697  0.010728678 0.0088940926            3 
 4996000   0.45728184   -8.7210412    643.18149  0.010728274 0.0088911773            1 
 4997000   0.46380103   -8.7181248    644.94878    0.0107556 0.0088882607            6 
 4998000   0.45077327    -8.704215    643.19616  0.010724226 0.0088853467            2 
 4999000   0.45868504    -8.727455    643.08036   0.01072015  0.008882434            3 
 5000000   0.44441564   -8.7314328    643.71887  0.010728648 0.0088795239            1 
 5001000   0.44891795    -8.712713    643.52537  0.010723278 0.0088766135            2 
 5002000   0.46038688   -8.7138167    643.43492  0.010719628 0.0088737062            2 
 5003000   0.44658095   -8.7378317    642.98536  0.010709997  0.008870795            3 
 5004000   0.44050581   -8.7202349    642.49236  0.010699646 0.0088678851            5 
 5005000   0.44837852   -8.7240367    643.38161  0.010712315 0.0088649761            3 
 5006000   0.45987121   -8.7255983    642.85408  0.010701393 0.0088620714            2 
 5007000   0.45401175   -8.7104426    643.63375  0.010712232 0.0088591689            3 
 5008000   0.44632927   -8.7282872    642.99192  0.010699413  0.008856269            3 
 5009000   0.44229618   -8.7165258    641.82443  0.010677854 0.0088533662            1 
 5010000   0.44663069   -8.7210973    643.37062  0.010701441 0.0088504645            3 
 5011000   0.45064891   -8.7149228     642.7251   0.01068857 0.0088475651            4 
 5012000   0.44589799   -8.7164429    643.32936  0.010696484 0.0088446659            3 
Loop time of 12021.2 on 48 procs for 5000000 steps with 4000 atoms

Performance: 71873.068 tau/day, 415.932 timesteps/s
99.4% CPU use with 48 MPI tasks x no OpenMP threads

MPI task timing breakdown:
Section |  min time  |  avg time  |  max time  |%varavg| %total
---------------------------------------------------------------
Pair    | 774.27     | 829.27     | 900.82     | 101.8 |  6.90
Neigh   | 77.936     | 81.794     | 84.635     |  20.3 |  0.68
Comm    | 739.37     | 806.98     | 876.07     | 112.0 |  6.71
Output  | 34.787     | 34.792     | 34.867     |   0.2 |  0.29
Modify  | 10142      | 10164      | 10184      |  10.9 | 84.55
Other   |            | 104.5      |            |       |  0.87

Nlocal:        83.3333 ave          89 max          75 min
Histogram: 1 0 5 5 3 10 3 13 5 3
Nghost:        2078.62 ave        2112 max        2053 min
Histogram: 5 5 7 2 7 10 7 2 2 1
Neighs:        13534.6 ave       15186 max       11584 min
Histogram: 2 0 3 3 15 8 6 5 5 1
FullNghs:      27068.4 ave       29108 max       24112 min
Histogram: 1 0 3 7 6 6 8 7 7 3

Total # of neighbors = 1299281
Ave neighs/atom = 324.82025
Neighbor list builds = 267634
Dangerous builds = 0

#clear
#
#next RN
#
#jump SELF
Total wall time: 3:20:25
