
units lj                  # Use reduced LJ style units
atom_style atomic         # Uncharged point particles
atom_modify map hash      # Needed for indexing of clusters etc
                          # Used to be able to find where atoms are in relation to each other.

lattice fcc 1.0 spacing 1 1 1
Lattice spacing in x,y,z = 1.5874011 1.5874011 1.5874011
region box block 0 10 0 10 0 10 units lattice
create_box 2 box
Created orthogonal box = (0.0000000 0.0000000 0.0000000) to (15.874011 15.874011 15.874011)
  3 by 4 by 4 MPI processor grid
create_atoms 1 box
Created 4000 atoms
  using lattice units in orthogonal box = (0.0000000 0.0000000 0.0000000) to (15.874011 15.874011 15.874011)
  create_atoms CPU = 0.002 seconds
set type 1 type/fraction 2 0.08 78393
Setting atom values ...
  344 settings made for type/fraction
mass 1 1.0
mass 2 1.0
pair_style lj/cut  3.5
pair_modify tail  yes
pair_coeff 1  1  1.0  1.0   # Intearaction between 1 and 1 set with epsilon = 1 and sigma = 1
pair_coeff 1  2  1.5  0.8
pair_coeff 2  2  0.5  0.88

write_data data.0
System init for write_data ...
Neighbor list info ...
  update every 1 steps, delay 10 steps, check yes
  max neighbors/atom: 2000, page size: 100000
  master list distance cutoff = 3.8
  ghost atom cutoff = 3.8
  binsize = 1.9, bins = 9 9 9
  1 neighbor lists, perpetual/occasional/extra = 1 0 0
  (1) pair lj/cut, perpetual
      attributes: half, newton on
      pair build: half/bin/atomonly/newton
      stencil: half/bin/3d
      bin: standard
WARNING: Not all mixed pair coeffs generated from mixing. Use write_data with 'pair ij' option to store all pair coeffs. (../write_data.cpp:312)


#############################
#   M E L T   S Y S T E M   #
#############################

velocity all create 2.4 5300450 mom yes dist gaussian # Assign velocities
                                                    # Temperature 2.4, random number seed, zero linear momentum
                                                                                # Gaussian distribution

timestep 0.002   # simulation timestep
thermo 1000       # output thermodynamic data every 1000 steps bf 100

# Define a fix  in this case with index 1 applied to all
# particles in the simulation. This fix is for simulations
# in the anisotropic NPT ensemble. Note that we use the MTK
# correction.
fix 1 all npt temp 2.4 2.4 0.1 iso 5.68 5.68 0.5 mtk yes tchain 5 pchain 5 # Use NPT ensemble
                                                                         # Set temperature and pressure and damping
                                                                         # Numbers of thermostats in chain and in barostat
run 10000          # run for 10000 steps
Per MPI rank memory allocation (min/avg/max) = 3.642 | 3.644 | 3.648 Mbytes
Step Temp E_pair E_mol TotEng Press Volume 
       0          2.4   -7.8205278            0   -4.2214278   -2.8943486         4000 
    1000    2.4138912   -4.5846394            0  -0.96470783    5.7807077    4893.6821 
    2000    2.3546751   -4.5160771            0  -0.98494745    5.8081513    4920.6873 
    3000    2.4106798   -4.5703391            0  -0.95522339    5.5778532    4916.1634 
    4000    2.4224423   -4.5359802            0  -0.90322515    5.7965242    4913.6155 
    5000    2.3844731   -4.5623585            0  -0.98654311    5.8551895     4887.891 
    6000    2.3967913   -4.5442829            0  -0.94999481    5.6014564    4925.0271 
    7000    2.3269355   -4.5976814            0   -1.1081507    5.5552625    4893.2143 
    8000    2.3902194   -4.5938767            0   -1.0094439    5.5234525    4913.8206 
    9000    2.3723064   -4.5400299            0  -0.98245993    5.5631415    4940.4284 
   10000      2.42287   -4.5669618            0  -0.93356538    5.5010057    4929.4073 
Loop time of 2.18266 on 48 procs for 10000 steps with 4000 atoms

Performance: 791693.245 tau/day, 4581.558 timesteps/s
99.6% CPU use with 48 MPI tasks x no OpenMP threads

MPI task timing breakdown:
Section |  min time  |  avg time  |  max time  |%varavg| %total
---------------------------------------------------------------
Pair    | 0.87533    | 0.95313    | 1.1069     |   3.7 | 43.67
Neigh   | 0.19046    | 0.19707    | 0.22657    |   1.2 |  9.03
Comm    | 0.60096    | 0.76186    | 0.84417    |   5.0 | 34.91
Output  | 0.00024593 | 0.00025094 | 0.00031933 |   0.0 |  0.01
Modify  | 0.21186    | 0.25577    | 0.30995    |   6.1 | 11.72
Other   |            | 0.01459    |            |       |  0.67

Nlocal:        83.3333 ave          93 max          74 min
Histogram: 1 3 6 6 10 7 6 4 4 1
Nghost:        1424.73 ave        1447 max        1390 min
Histogram: 1 0 1 2 8 15 5 9 4 3
Neighs:        7730.29 ave        8853 max        6726 min
Histogram: 2 2 6 10 7 5 8 3 4 1

Total # of neighbors = 371054
Ave neighs/atom = 92.763500
Neighbor list builds = 902
Dangerous builds = 200

# Equilibrate just above the melting temperature to avoid step fn in T

fix 1 all npt temp 1.25 1.25 0.1 iso 5.68 5.68 0.5 mtk yes tchain 5 pchain 5
run 2000
Per MPI rank memory allocation (min/avg/max) = 3.642 | 3.644 | 3.648 Mbytes
Step Temp E_pair E_mol TotEng Press Volume 
   10000      2.42287   -4.5669618            0  -0.93356538    5.5010057    4929.4073 
   11000    1.2693052   -6.1699235            0   -4.2664417    5.6500349     4042.395 
   12000    1.2605747   -6.1022533            0    -4.211864    5.8556436    4050.0458 
Loop time of 0.47907 on 48 procs for 2000 steps with 4000 atoms

Performance: 721398.350 tau/day, 4174.759 timesteps/s
99.6% CPU use with 48 MPI tasks x no OpenMP threads

MPI task timing breakdown:
Section |  min time  |  avg time  |  max time  |%varavg| %total
---------------------------------------------------------------
Pair    | 0.20329    | 0.22439    | 0.26231    |   1.9 | 46.84
Neigh   | 0.032643   | 0.033938   | 0.038978   |   0.6 |  7.08
Comm    | 0.12908    | 0.16525    | 0.18732    |   2.6 | 34.49
Output  | 5.1954e-05 | 5.3176e-05 | 6.8667e-05 |   0.0 |  0.01
Modify  | 0.04015    | 0.050938   | 0.061787   |   3.2 | 10.63
Other   |            | 0.0045     |            |       |  0.94

Nlocal:        83.3333 ave          90 max          74 min
Histogram: 2 3 1 2 3 10 15 2 8 2
Nghost:        1628.38 ave        1656 max        1599 min
Histogram: 3 4 3 5 12 3 1 10 2 5
Neighs:        9421.35 ave       10316 max        8189 min
Histogram: 3 2 2 3 5 7 10 9 3 4

Total # of neighbors = 452225
Ave neighs/atom = 113.05625
Neighbor list builds = 144
Dangerous builds = 8

#############################
# L I N E A R  Q U E N C H  #
#############################

# Define solid atoms. This closely follows ten Wolde  Ruiz-Montero and Frenkel  Faraday Discuss  1996  104  93-110
# Compute components of the per-atom q6 vector
compute q6 all orientorder/atom degrees 1 6 components 6 nnn NULL cutoff 1.3 # compute the Q6 parameter.
                                                                             # Use all neighbours within 1.3 unit cell.

# get number of connections
compute coord_number all coord/atom orientorder q6 0.5

# An atom is solid if it has 8 or more connections (of a possible 14)
variable is_solid atom c_coord_number>=8
group solid dynamic all var is_solid    # Must be dynamic to update
dynamic group solid defined

# do clustering
compute cluster solid cluster/atom 1.3 # Create a cluster where all atoms within are solid and max 1.3 units from another member

# define chunks one chunk per cluster
compute clus_chunks solid chunk/atom c_cluster nchunk every compress yes  # Says which atoms are in which chunk

# count the size of each chunk
compute size_chunks solid property/chunk clus_chunks count


# Find the maximum entry in the vector of chunk sizes
variable max_n equal max(c_size_chunks)


# Thermo style which includes this variable
# thermo_style custom step temp pe vol v_max_n

thermo ${N}  # Print the thermo information every 100 steps
thermo 1000  

# Reset the npt fix at a lower temperature (below freezing)
fix 1  all npt temp  ${temp} ${temp}  0.1  iso  5.68  5.68  0.5  mtk yes tchain  5  pchain  5
fix 1  all npt temp  0.45 ${temp}  0.1  iso  5.68  5.68  0.5  mtk yes tchain  5  pchain  5
fix 1  all npt temp  0.45 0.45  0.1  iso  5.68  5.68  0.5  mtk yes tchain  5  pchain  5

dump dmp2 all dcd ${N} traj.dcd
dump dmp2 all dcd 1000 traj.dcd


compute msd all msd com yes
variable twopoint equal c_msd[4]/6/(step*dt+1.0e-6)
fix 9 all vector 10 c_msd[4]
variable fit equal slope(f_9)/6/(10*dt)
thermo_style custom step temp pe c_msd[4] v_twopoint v_fit v_max_n

fix 1 all npt temp 1.25 ${temp} 0.1 iso 5.68 5.68 0.5 mtk yes tchain 5 pchain 5
fix 1 all npt temp 1.25 0.45 0.1 iso 5.68 5.68 0.5 mtk yes tchain 5 pchain 5
run 500000 # 5000000  # Run for this many steps
Neighbor list info ...
  update every 1 steps, delay 10 steps, check yes
  max neighbors/atom: 2000, page size: 100000
  master list distance cutoff = 3.8
  ghost atom cutoff = 3.8
  binsize = 1.9, bins = 9 9 9
  4 neighbor lists, perpetual/occasional/extra = 1 3 0
  (1) pair lj/cut, perpetual
      attributes: half, newton on
      pair build: half/bin/atomonly/newton
      stencil: half/bin/3d
      bin: standard
  (2) compute orientorder/atom, occasional
      attributes: full, newton on
      pair build: full/bin/atomonly
      stencil: full/bin/3d
      bin: standard
  (3) compute coord/atom, occasional
      attributes: full, newton on
      pair build: full/bin/atomonly
      stencil: full/bin/3d
      bin: standard
  (4) compute cluster/atom, occasional
      attributes: full, newton on
      pair build: full/bin/atomonly
      stencil: full/bin/3d
      bin: standard
Per MPI rank memory allocation (min/avg/max) = 9.745 | 9.751 | 9.757 Mbytes
Step Temp PotEng c_msd[4] v_twopoint v_fit v_max_n 
   12000    1.2605747   -6.1022533 1.1519341e-30 7.9995423e-33 8.3333333e+20            2 
   13000    1.2431599   -6.1022367   0.58122507 0.0037258016  0.047272924            8 
   14000    1.2721279    -6.163822    1.1821732 0.0070367447  0.047792488            2 
   15000    1.2585375   -6.1371369    1.7786349 0.0098813048  0.049176033            2 
   16000    1.2581004   -6.1626871    2.3606519  0.012295062  0.049354925            2 
   17000    1.2684828   -6.1948182     2.883521  0.014134906  0.048933191            2 
   18000    1.2329413   -6.1509254    3.4656518  0.016044684  0.048182325            3 
   19000    1.2261338    -6.173353    4.0320492  0.017684426  0.047967599            2 
   20000    1.2295778   -6.1395203     4.553548  0.018973116  0.047670454            4 
   21000    1.2107941   -6.1547095    5.0562775  0.020064593  0.047181318            2 
   22000    1.2315088    -6.162134    5.5523606  0.021031668  0.046586119            2 
   23000    1.2230997    -6.161432    6.0195258  0.021809875  0.046103157            2 
   24000    1.2271063   -6.1466307    6.4716912  0.022471149  0.045467704            2 
   25000    1.2245085   -6.1798992    7.0440402  0.023480133  0.044998105            2 
   26000    1.2252239   -6.1816422     7.434756  0.023829346  0.044583805            1 
   27000     1.218038   -6.1725203    7.8799074  0.024320702  0.044074638            4 
   28000    1.2522286   -6.1663393    8.3285698   0.02478741   0.04356144            4 
   29000    1.2004147   -6.1700318    8.8615445  0.025464208  0.043091661            1 
   30000    1.2317803   -6.2008008    9.3448765   0.02595799  0.042800272            4 
   31000    1.2179436   -6.2233917    9.8279798    0.0264193  0.042549984            3 
   32000    1.2105864   -6.2023581    10.431646  0.027165745   0.04239932            1 
   33000    1.2176566   -6.1978774     10.95975  0.027676137  0.042337298            4 
   34000    1.2217226   -6.2165223    11.452038   0.02806872   0.04229918            2 
   35000    1.2041631   -6.2032203    11.922406  0.028386682  0.042217506            3 
   36000    1.2015758   -6.2062247    12.396598  0.028695829  0.042158604            6 
   37000    1.2071833   -6.2356581    12.904038  0.029063147  0.042098228            4 
   38000    1.1921895   -6.2228147    13.379566  0.029341153  0.042057506            1 
   39000    1.2086095   -6.2212397    13.980714  0.029873321  0.042010454            3 
   40000    1.1957058   -6.1705464    14.530327  0.030271514  0.042016681            2 
   41000    1.1940017   -6.2238379    14.928145  0.030341757  0.042020008            5 
   42000    1.2223744    -6.239511    15.374909  0.030505771  0.041977744            2 
   43000    1.2027111   -6.2069818    15.916219  0.030845385  0.041920676            3 
   44000    1.2081906   -6.2917412    16.281523  0.030836218  0.041857054            1 
   45000    1.2361198   -6.2240085    16.753505  0.031025008  0.041761422            2 
   46000    1.2006774   -6.2438915    17.187842  0.031137394  0.041673613            1 
   47000    1.1970926   -6.2351144    17.712343  0.031404864  0.041616574            3 
   48000    1.1999771   -6.2467275    18.350732  0.031858909   0.04158611            1 
   49000    1.1970053   -6.2310257    18.980123   0.03227912  0.041590958            4 
   50000    1.2162476   -6.2137944    19.433485  0.032389142  0.041619803            4 
   51000    1.1720676   -6.2603753    19.991913  0.032666524  0.041649537            4 
   52000    1.1876991   -6.2469996    20.254587  0.032459274  0.041641064            6 
   53000     1.173392   -6.2658784    20.861849  0.032801649  0.041610364            2 
   54000    1.1940365   -6.2729843    21.261664   0.03281121  0.041605274            3 
   55000    1.1793955   -6.2550316    21.788111   0.03301229  0.041587876            3 
   56000    1.1930921   -6.2587095    22.237742  0.033091878  0.041567106            3 
   57000    1.1722962   -6.2739907    22.821754  0.033365138  0.041539903            3 
   58000    1.1482657   -6.2492759    23.170905   0.03329153  0.041503357            2 
   59000    1.1612021   -6.2439323    23.703884  0.033480062  0.041473655            2 
   60000    1.1831138   -6.2568648    24.158208  0.033553067  0.041442545            3 
   61000    1.1699311    -6.283502    24.570311  0.033565998  0.041407196            3 
   62000    1.1660154   -6.2902002    25.031347  0.033644284  0.041360075            5 
   63000    1.1474335    -6.285218     25.63116  0.033903651  0.041331851            2 
   64000    1.1650794   -6.2643228     26.16802  0.034072942  0.041308664            2 
   65000    1.1623893   -6.3201092    26.570368  0.034064574  0.041282304            2 
   66000    1.1894241   -6.2586905    26.966787  0.034048974  0.041256709            4 
   67000    1.1562801   -6.3111779    27.295154  0.033949196  0.041204541            8 
   68000    1.1272452   -6.2638446    27.803691   0.03407315  0.041153762            3 
   69000    1.1713234   -6.2978479     28.36736  0.034260096  0.041108178            2 
   70000    1.1395851   -6.3075229     28.88221  0.034383583  0.041067757            6 
   71000    1.1698954   -6.3379009    29.122475  0.034181309  0.041016168            3 
   72000    1.1608348   -6.2829347    29.529533    0.0341777  0.040939889            2 
   73000    1.1245628   -6.3402758    29.802004  0.034020552  0.040855908            9 
   74000     1.139536   -6.3163623    30.319845   0.03414397   0.04076733            3 
   75000    1.1582619   -6.2963932    30.861022  0.034290024  0.040694725            5 
   76000    1.1352467   -6.3233822    31.212159  0.034223859  0.040635852            4 
   77000    1.1391501   -6.2881918     31.72749  0.034337111  0.040570861            2 
   78000    1.1727885    -6.332531    32.283179  0.034490575  0.040511911            2 
   79000    1.1232526   -6.3262682    32.624076  0.034413582  0.040446865            3 
   80000    1.1325119   -6.3315287    33.032129  0.034408467  0.040388577            3 
   81000    1.1324865   -6.3120667    33.541728   0.03450795  0.040323345            3 
   82000    1.1590647    -6.334339    33.876555  0.034427393  0.040248966            4 
   83000     1.128222   -6.3362728    34.171004  0.034308236  0.040173232            2 
   84000    1.1593494   -6.3458631    34.655148  0.034380107   0.04009348            3 
   85000     1.144227   -6.3687484    35.111948  0.034423479  0.040010982            3 
   86000    1.1293373   -6.3522197    35.744669  0.034636307  0.039953952            5 
   87000    1.1268858   -6.3113011    36.129668  0.034606962  0.039898959            2 
   88000    1.1013927   -6.3449045    36.532185  0.034594872  0.039839627            2 
   89000    1.1241641   -6.3551842    36.914147  0.034563808  0.039785184            3 
   90000    1.1360497   -6.3401879    37.527628  0.034747804  0.039732862            2 
   91000    1.1339464   -6.3634807     38.10263  0.034892518  0.039691938            7 
   92000    1.1183058    -6.405788    38.590487  0.034955151  0.039658829            4 
   93000    1.1093366   -6.3449253    38.988472  0.034935906  0.039627772            4 
   94000    1.0981082   -6.4088734     39.26637  0.034810611  0.039588357            3 
   95000    1.1115124   -6.3722606    39.629954  0.034763118  0.039541469            3 
   96000     1.111301   -6.3442306    40.010864  0.034731653  0.039489152            3 
   97000    1.1258171   -6.3652215    40.249482  0.034578593  0.039425888            2 
   98000    1.1169285   -6.4073833    40.651306  0.034567437  0.039358369            4 
   99000    1.1262935   -6.3816244    41.224507  0.034700764  0.039297321            4 
  100000    1.1197585   -6.3765608    41.597946  0.034664955  0.039237225            4 
  101000      1.12116   -6.3843667    41.857175  0.034535623  0.039171314            4 
  102000    1.1060602   -6.4394335    42.270452  0.034534683  0.039106391            7 
  103000    1.1114622   -6.4472191    42.673934  0.034525836  0.039044941            2 
  104000    1.0991515   -6.3967748    43.221422  0.034632549  0.038986255            3 
  105000    1.0981111   -6.4205859    43.567904  0.034577701  0.038930581            3 
  106000    1.0989974   -6.4592997    43.792702  0.034428225  0.038865438            4 
  107000    1.0928818   -6.4335403    43.894829  0.034186004  0.038791058            7 
  108000    1.0924029   -6.4419762    44.095895  0.034024611  0.038706282            3 
  109000    1.0855293   -6.4294138    44.437472  0.033973602  0.038611328            3 
  110000    1.0869567   -6.4130845     44.75027   0.03390172  0.038516959            3 
  111000    1.0829362   -6.4215072    45.060894    0.0338295  0.038418727            6 
  112000    1.0787956   -6.4147521    45.485365  0.033843278  0.038320612            2 
  113000    1.0809041   -6.4212805    45.779286  0.033760535  0.038227821            4 
  114000    1.0911307   -6.4466608    46.143298  0.033730481  0.038134828            6 
  115000    1.0711201    -6.452666    46.775804   0.03389551   0.03805106            3 
  116000    1.1049177   -6.4582825    47.198258  0.033906794  0.037968515            5 
  117000    1.0805482   -6.4058019    47.341416  0.033718957  0.037885761            3 
  118000    1.0864623   -6.4203585    47.973907  0.033879878  0.037803817            4 
  119000    1.0774658   -6.4248756    48.284479   0.03381266  0.037721953            3 
  120000    1.0970001   -6.4699673    48.258873  0.033513106  0.037636039            2 
  121000    1.0690543   -6.4595877    48.624754  0.033488122  0.037545286            4 
  122000    1.0576635   -6.4897757    49.072212   0.03351927  0.037450673            3 
  123000    1.0588323   -6.4712838    49.301537  0.033402125  0.037360424            6 
  124000    1.0601696   -6.4568417    49.847038  0.033499353  0.037270916            5 
  125000     1.065496    -6.463992    50.172169  0.033448113  0.037187487            2 
  126000    1.0826709   -6.4608468    50.527998  0.033417988   0.03710562            3 
  127000    1.0771237   -6.4926452    50.685961  0.033258504  0.037020452            3 
  128000    1.0660829   -6.4383101    51.098295  0.033267119  0.036932717            7 
  129000    1.0573823    -6.490161    51.387545  0.033196089  0.036845442            4 
  130000    1.0505771   -6.4927536    51.657957  0.033114075  0.036756361            6 
  131000     1.098471   -6.4704658    51.945454  0.033044182  0.036667459            3 
  132000    1.0695964   -6.4872466    52.244394  0.032982572   0.03657839            9 
  133000    1.0507948   -6.4732932    52.650585  0.032989088   0.03648825            4 
  134000    1.0624269   -6.4723488    52.909088  0.032903661  0.036399395            2 
  135000    1.0248835   -6.5188907     53.08301   0.03276729  0.036309753            4 
  136000    1.0462508   -6.4828168    53.539574  0.032806111  0.036223253            2 
  137000    1.0497715   -6.5161409    53.946678  0.032814281  0.036139131            3 
  138000    1.0439339   -6.5360891     54.21634  0.032739335  0.036054897            5 
  139000    1.0540594   -6.5237801    54.578093  0.032720679  0.035969587            9 
  140000    1.0487316   -6.5233481    54.931591  0.032697375  0.035884617            4 
  141000    1.0614311   -6.4849614     55.09697  0.032563221  0.035801912            3 
  142000    1.0537422   -6.5000693    55.332523  0.032472138  0.035719069            4 
  143000    1.0613989   -6.5049457    55.809902  0.032523253  0.035636228            4 
  144000     1.061319   -6.5524863    56.041572  0.032431465   0.03555388            2 
  145000    1.0417756   -6.5041679    56.486107   0.03246328   0.03547449            2 
  146000    1.0245568   -6.5161685    56.683901  0.032353825  0.035393384            2 
  147000    1.0783517    -6.549581    57.063462  0.032348901  0.035311775            4 
  148000    1.0480335    -6.534376     57.65618  0.032464065  0.035233277            4 
  149000    1.0313642   -6.5455313    57.728602   0.03228669  0.035158901            5 
  150000    1.0277941   -6.5695917    58.247706  0.032359836    0.0350853            6 
  151000    1.0098145   -6.5164105    58.552873  0.032313948  0.035010446            3 
  152000    1.0320129   -6.5382821    58.809019  0.032241786  0.034937329            3 
  153000    1.0204164   -6.5614893    59.175949  0.032230909  0.034863583            3 
  154000    1.0180386   -6.5722424     59.39148  0.032138246  0.034790282            5 
  155000    1.0258941   -6.5595751    59.828607  0.032165917  0.034715231            5 
  156000    1.0154432   -6.5471784    59.899756  0.031997733  0.034640915            5 
  157000    1.0137679   -6.5554698     60.44506  0.032083365   0.03456708            5 
  158000    1.0328074    -6.563451     60.34836  0.031829304  0.034490115            4 
  159000    1.0117876   -6.5666945    60.509055  0.031713341  0.034409909            3 
  160000    1.0112288   -6.5765725    61.016362  0.031779355  0.034329666            4 
  161000     1.026134   -6.5657656    61.200774  0.031677419  0.034251711            3 
  162000    1.0312507   -6.5947381    61.485052  0.031628113  0.034174191            6 
  163000   0.99256677   -6.6037865    61.590992  0.031488237  0.034094387            6 
  164000   0.99993415   -6.5709937    61.864697  0.031435314  0.034016025            5 
  165000    1.0356664   -6.5963964    62.161642  0.031394769  0.033938907            9 
  166000    1.0017375   -6.5485152    62.475359  0.031363132  0.033860089            3 
  167000   0.97865976   -6.5780498    62.575178  0.031225138  0.033779914            3 
  168000   0.99740754   -6.5635902    62.836173  0.031168736  0.033698849            3 
  169000    1.0103144   -6.5852194    63.325513  0.031225598  0.033621519            4 
  170000    1.0064918   -6.5876558    63.673117  0.031212312   0.03354727            3 
  171000    1.0139636    -6.592946    64.013499  0.031195662  0.033472883            2 
  172000    1.0211594   -6.6018861    64.015691  0.031015354  0.033396954            4 
  173000   0.96940196   -6.6188392    64.202415  0.030926018  0.033319199            5 
  174000   0.98985833   -6.5679241      64.8151  0.031041714  0.033243576            4 
  175000   0.99241856   -6.6068907    64.879483  0.030894992  0.033168346            4 
  176000    0.9873096   -6.6132089    64.759839  0.030662802   0.03308815            4 
  177000   0.96896596    -6.614135    64.895803  0.030553579  0.033004309           10 
  178000   0.98405944   -6.5818112    65.399501  0.030617744  0.032919576            5 
  179000    0.9966808   -6.5843589    65.530649  0.030507751  0.032837595            3 
  180000   0.98499168   -6.5891725    65.754639  0.030441962  0.032755178            3 
  181000   0.99895341   -6.6244403    65.802576  0.030295845  0.032672706            4 
  182000   0.98467977   -6.6210691     66.25045  0.030334455  0.032590861            4 
  183000   0.98257873   -6.6385867     66.31761  0.030199276  0.032506729            5 
  184000   0.98143987   -6.6363428    66.323552   0.03003784  0.032420039            4 
  185000   0.97206718   -6.6295862    66.881869  0.030126968  0.032334543            6 
  186000   0.99410596   -6.6663577    66.809304  0.029932484  0.032250111            8 
  187000   0.97830881   -6.6253673     67.08796  0.029896595  0.032165535            3 
  188000   0.97465664   -6.6237781    67.428618  0.029888572  0.032079942            5 
  189000   0.95719019    -6.626141    67.556472  0.029786804  0.031994483            4 
  190000   0.95806252   -6.6636261    67.847371  0.029757619  0.031909767            3 
  191000   0.98429471   -6.6939574    68.049584  0.029690045  0.031826428            7 
  192000   0.94925569   -6.6507904    68.387665  0.029682146  0.031745885            4 
  193000   0.94370729   -6.6781884    68.721765   0.02967261  0.031665187            4 
  194000    0.9879111   -6.6707708    68.666734   0.02949602  0.031584615           13 
  195000   0.95330047   -6.6822696    69.039515  0.029504066  0.031503719            3 
  196000   0.97028236   -6.6622454     69.11954  0.029387559  0.031422733            5 
  197000   0.94310206   -6.6863479    69.312763   0.02932012  0.031341261            5 
  198000   0.97853898   -6.6815473    69.683105  0.029327906  0.031260691            5 
  199000   0.95323344   -6.6750526    69.791561  0.029225947  0.031180627            5 
  200000   0.95857876    -6.723384    69.936367  0.029140153  0.031100661            3 
  201000   0.93023801   -6.6895601    70.112389  0.029068154   0.03101968           10 
  202000   0.95471427   -6.7399235    70.366257  0.029028984  0.030939237            8 
  203000   0.94745181    -6.746754    70.361552  0.028884052  0.030857329            3 
  204000   0.92628092   -6.7183527    70.643301  0.028857557  0.030775278           10 
  205000   0.91805494   -6.7282082    70.679537  0.028731519  0.030694061            4 
  206000    0.9308023   -6.7388416    71.239526  0.028818578   0.03061376            4 
  207000    0.9390417   -6.7218541    71.523216  0.028793565  0.030534646            3 
  208000   0.95831798   -6.7518538    71.358793   0.02858926  0.030455668            6 
  209000   0.93707611   -6.7102718    71.678044  0.028579762  0.030375061            7 
  210000   0.93111475   -6.7111619    71.794454  0.028489863  0.030295112            6 
  211000   0.96363372   -6.7261548    72.158695  0.028498695  0.030216151            8 
  212000   0.92972177   -6.7244354    72.376945  0.028450057  0.030137652            8 
  213000   0.94590471    -6.733404    72.651376  0.028423856  0.030060251            9 
  214000   0.91787132   -6.7539197    72.594452  0.028268868  0.029982633            6 
  215000   0.93463276   -6.7434945    73.036306  0.028308646  0.029905346            6 
  216000   0.92269039   -6.7571687    73.182408  0.028233953  0.029829539            6 
  217000   0.92902525   -6.7432054    73.545033    0.0282431  0.029755139            5 
  218000   0.92226117   -6.7283505    73.670286  0.028161424  0.029681855            9 
  219000   0.93818557   -6.7401953    74.056078  0.028179634  0.029608061            3 
  220000    0.9295964   -6.7586663    74.061623  0.028053645  0.029534918           11 
  221000    0.9033703   -6.7528986    74.064877  0.027927932  0.029459767            9 
  222000    0.9357754   -6.7446712    74.341361  0.027905916  0.029386039            4 
  223000   0.89768769   -6.7566788      74.7693  0.027940695  0.029312945            9 
  224000   0.90615128   -6.7586899    75.081595  0.027932141  0.029241751            4 
  225000   0.88676238    -6.728841    75.179085  0.027844105  0.029169213            5 
  226000   0.91488261   -6.7702689    75.293597  0.027763126  0.029096558            6 
  227000   0.90737955   -6.7676834    75.345234  0.027659778  0.029023822            5 
  228000   0.89629909   -6.7679908    75.258035  0.027506592  0.028948933            5 
  229000   0.89531167   -6.7894182    75.268326   0.02739022  0.028874252            9 
  230000    0.9229488   -6.7895057    75.651753  0.027410055  0.028799815            4 
  231000   0.90741984   -6.7762352    75.827361  0.027354748  0.028726152            5 
  232000   0.89159263   -6.8018018    76.152094  0.027353482  0.028652521            7 
  233000   0.88702177   -6.7978348    76.309615  0.027292423  0.028579185           11 
  234000   0.89242021   -6.8411161    76.223787  0.027145223  0.028504687            7 
  235000   0.89416883   -6.7824977    76.345271  0.027072791  0.028430979            5 
  236000   0.88922722   -6.7944876    76.596452   0.02704677  0.028358293           10 
  237000   0.87501359   -6.7999685      76.7561  0.026988783  0.028284806            2 
  238000   0.88515652   -6.7956339    76.724277  0.026864242  0.028211081            5 
  239000   0.89108528   -6.7941878    76.769811  0.026767716  0.028136321            4 
  240000   0.88601293   -6.8255391     76.99212  0.026733375  0.028060536           25 
  241000   0.87243385   -6.8447068    77.129254  0.026669866  0.027985884            6 
  242000   0.87975239   -6.8055039    77.249295  0.026600997  0.027910368           19 
  243000   0.90211539   -6.8520088    77.511306  0.026581381  0.027836121            5 
  244000   0.88325321   -6.8525773    77.468628  0.026457865  0.027761629           17 
  245000   0.89697891   -6.8609339    77.630073  0.026404787  0.027687174            7 
  246000   0.89693597   -6.8457533    77.985325  0.026417793  0.027611804            6 
  247000   0.86580301   -6.8360222    78.117415  0.026355403  0.027537152            7 
  248000    0.8733717   -6.8084195    78.101194  0.026243681  0.027462826            8 
  249000   0.88286289   -6.8246514    78.248342  0.026187531  0.027387981           13 
  250000   0.88551271   -6.8382708    78.744928  0.026248309  0.027315814           12 
  251000   0.86508653   -6.8556561    78.837846  0.026174584  0.027243866           11 
  252000   0.89988822   -6.8417037    79.069257  0.026147241  0.027173161            7 
  253000    0.8620634   -6.8533627    78.836361  0.025967181  0.027101642           11 
  254000   0.86670442   -6.8588621    79.161276  0.025971547  0.027029394           15 
  255000   0.87714559    -6.871356    79.171014   0.02587288  0.026956619            8 
  256000   0.85249422   -6.8780093     79.13184  0.025759062  0.026884721            6 
  257000   0.85087513    -6.854057    79.349482  0.025729404  0.026812291            6 
  258000   0.86961803    -6.869898    79.304056  0.025615005  0.026739587            6 
  259000   0.84442096    -6.862017    79.812899  0.025679826  0.026667338            3 
  260000   0.86570363   -6.8704697    79.912294  0.025612915  0.026596202            6 
  261000   0.85736318   -6.8863084    79.938832  0.025523254  0.026525468            4 
  262000    0.8586696   -6.8841451    80.037051  0.025457077  0.026454297            6 
  263000   0.84878092    -6.918771    80.016566  0.025353791  0.026382885            6 
  264000   0.83019423   -6.9061815    80.172313  0.025306917  0.026310701            9 
  265000   0.85335279   -6.9226754    80.004883  0.025158768  0.026238254           11 
  266000   0.84224678   -6.9294433    80.335074   0.02516763  0.026164892            7 
  267000   0.84628044   -6.9128972    80.254561   0.02504824  0.026092255           14 
  268000   0.84384658    -6.907702    80.458471  0.025018181  0.026018963           15 
  269000   0.82989775   -6.9284222      80.4571  0.024924752  0.025945556            8 
  270000   0.83279923   -6.9114211    80.507765  0.024848076  0.025871977            5 
  271000   0.82515186   -6.9140762    80.629831  0.024793921  0.025799401           22 
  272000   0.84087133   -6.8978568    80.811391  0.024758392  0.025726667            5 
  273000   0.84076554   -6.9362918    80.879364  0.024688451  0.025654188           22 
  274000   0.83242755   -6.9172547    80.748279  0.024558479  0.025581532            9 
  275000   0.83896573    -6.938198    80.958818  0.024532975  0.025508969            7 
  276000   0.83326675   -6.9339513    81.073397  0.024478683  0.025436674            6 
  277000   0.84117882   -6.9319344    81.057349  0.024385484  0.025364748            4 
  278000   0.83823212   -6.9677796    81.478674  0.024424063  0.025292795           18 
  279000   0.84714631   -6.9335524    81.565526  0.024362463   0.02522057           16 
  280000   0.83186577   -6.9560426    81.474824  0.024248459  0.025149011           11 
  281000     0.828653   -6.9484629    81.830855  0.024267751  0.025077725            6 
  282000   0.80987919   -6.9509552    81.769795  0.024163651  0.025005936           11 
  283000   0.80890185   -6.9812413    81.585693  0.024024056  0.024933166           15 
  284000   0.81054743    -6.971711    81.761205  0.023990964  0.024859926           12 
  285000   0.80774701   -6.9877683    81.600502  0.023859796   0.02478681           22 
  286000   0.80494565    -6.948649     81.86942  0.023854726  0.024713771           10 
  287000   0.80960242   -6.9589004    81.997048  0.023808667  0.024641671           12 
  288000   0.81249386   -6.9644114    82.060406   0.02374433  0.024570358           15 
  289000   0.79862712   -7.0104425    82.430882  0.023768997  0.024499371            7 
  290000    0.8118001   -6.9648028    82.440929  0.023689922  0.024428828            8 
  291000   0.78784257   -6.9664326     82.42749  0.023604665  0.024357908           12 
  292000    0.8080186   -6.9935075    82.230065  0.023467484  0.024286741            7 
  293000   0.79760951   -6.9925282    82.400217  0.023435784  0.024216068           23 
  294000   0.79266558   -6.9858266    82.543856  0.023396784  0.024145808            9 
  295000   0.80516681   -6.9876257     82.63758  0.023343949  0.024075778            8 
  296000   0.82563319   -7.0098685    82.745746  0.023295537  0.024006199            4 
  297000   0.80289569   -7.0095898    82.768856  0.023223585  0.023936568            7 
  298000   0.79850756   -6.9887393    82.700339  0.023126493    0.0238674            6 
  299000   0.78148838   -6.9898971    82.790627  0.023074311  0.023798166            3 
  300000   0.79237181   -7.0061424    83.055463  0.023070962  0.023729203            4 
  301000    0.7923606   -7.0156192    83.293478   0.02306021  0.023660631            7 
  302000    0.7864365   -6.9890486    83.316093  0.022990092  0.023592367           10 
  303000   0.78389071   -7.0287422    83.317157   0.02291451  0.023524022            8 
  304000   0.78735067   -7.0182714     83.59396  0.022915011   0.02345628           16 
  305000   0.77573118   -7.0477491    83.549346   0.02282769  0.023388221           31 
  306000   0.76794277   -7.0466239    83.756932  0.022809622  0.023320638           11 
  307000   0.78413445   -7.0443367    83.635551  0.022702376  0.023253428            6 
  308000   0.79194157   -7.0190073    83.866238  0.022691082  0.023186691           14 
  309000   0.75964872   -7.0340281    83.733579  0.022581871  0.023119861            8 
  310000   0.76077606   -7.0378521    83.648342  0.022486113  0.023052461           14 
  311000   0.76946263   -7.0686933    83.527166  0.022381341   0.02298442            6 
  312000   0.76965246   -7.0768769    83.755072  0.022370478  0.022916571            6 
  313000   0.77398786   -7.0471761    84.003023  0.022365022  0.022849531            7 
  314000   0.76761016   -7.0190746    84.236616   0.02235579  0.022782966           12 
  315000   0.75413502   -7.0606633    84.277518   0.02229564  0.022716964            5 
  316000   0.75510135   -7.0456568    84.546382  0.022295987  0.022651605           10 
  317000   0.77723619   -7.0827135    84.447648  0.022199697    0.0225865           30 
  318000   0.75326861   -7.0805577    84.430632  0.022125428  0.022521241            8 
  319000   0.77183533   -7.0808707    84.733109  0.022135086  0.022456448           11 
  320000   0.74706948   -7.0811741    84.631457  0.022039442  0.022392181           12 
  321000   0.75855196    -7.084458    84.595484  0.021961445  0.022327773            8 
  322000    0.7439075   -7.0718225    84.750693  0.021933409  0.022263469           12 
  323000   0.75350033   -7.0879172    84.635099  0.021835681  0.022198695            8 
  324000   0.76076455   -7.0880771    84.730726  0.021792882  0.022133992            7 
  325000   0.74074027   -7.1059552    84.566342  0.021683677  0.022069361           15 
  326000   0.76084487   -7.1086493    84.765967  0.021668192  0.022004532           12 
  327000   0.74503325    -7.097497    84.820524  0.021615832  0.021939934            4 
  328000   0.76391024   -7.1001521    84.837777  0.021554313  0.021875172           12 
  329000   0.75312155   -7.0925854    84.863422  0.021495294   0.02181067           10 
  330000   0.72476441   -7.1012408    84.850237  0.021426828  0.021746524           23 
  331000   0.75525882   -7.1105971    85.167732  0.021442027  0.021682576           13 
  332000   0.73822578   -7.0898587    85.089323  0.021357762  0.021619335            9 
  333000   0.75023607   -7.0929324    85.077044  0.021290551  0.021555797           15 
  334000   0.74126318   -7.1074669    85.310951  0.021285167  0.021492792           15 
  335000    0.7319537    -7.133747    85.389489  0.021241166  0.021430334           24 
  336000   0.72985347   -7.1076303    85.457623  0.021194847  0.021367886           21 
  337000   0.73181403   -7.1213877    85.591474  0.021165053  0.021305578            6 
  338000   0.72206184   -7.1324825    85.236066  0.021014809  0.021242977            9 
  339000   0.72991148   -7.1372922    85.141637  0.020929606  0.021180407           21 
  340000   0.72768656   -7.1387546    85.424923  0.020937481  0.021117772           10 
  341000   0.73024723   -7.1419669    85.422309  0.020875442  0.021055255           13 
  342000    0.7313701   -7.1637131    85.507004   0.02083504  0.020993108            7 
  343000   0.71872588   -7.1593587    85.648363   0.02080864  0.020931618            4 
  344000   0.71120265   -7.1687937    85.596294  0.020735536  0.020870205           21 
  345000    0.7197046   -7.1605386    85.506649   0.02065378  0.020808506           16 
  346000   0.70575753   -7.1355699    85.654911  0.020629795  0.020747054           13 
  347000   0.71647134   -7.1821791    85.727283  0.020587724  0.020685656           10 
  348000    0.7010099   -7.1836383    85.730667  0.020529374  0.020624196            7 
  349000   0.70841014    -7.172022    85.658337   0.02045328  0.020562712            6 
  350000   0.71668823   -7.1781299    85.559457  0.020371299  0.020501254           13 
  351000   0.69662712   -7.1945185    85.535999  0.020307692  0.020439604           22 
  352000   0.70021345    -7.191183      85.8274  0.020318987  0.020378298           11 
  353000   0.70602011   -7.1536878    85.770678  0.020248035  0.020317082            9 
  354000   0.70334088   -7.2108397    85.664642  0.020165876  0.020255707           24 
  355000   0.69580361   -7.1885562    85.469029  0.020063152  0.020194107           31 
  356000   0.70939379   -7.2042168    85.768902   0.02007699  0.020132888           16 
  357000   0.69562286    -7.185281    85.754826  0.020017466  0.020071883           14 
  358000   0.69672377   -7.1940214    85.723965  0.019954368  0.020011041           19 
  359000   0.69817631   -7.1854029    85.870636  0.019932831  0.019950561           19 
  360000   0.69624972    -7.214174    85.806388   0.01986259  0.019890058           59 
  361000    0.6921417   -7.2162939    85.827142   0.01981236  0.019829645           22 
  362000    0.6880997   -7.2374479     85.61456  0.019708692  0.019769019           22 
  363000   0.68086724   -7.2163725    85.716455   0.01967779  0.019708545           37 
  364000   0.68162753   -7.2088813    85.758166   0.01963328  0.019648445           25 
  365000   0.69038439   -7.2152419    85.865235  0.019603935  0.019588707           20 
  366000   0.68373262   -7.2411672    85.709875  0.019514999  0.019528742           14 
  367000   0.69538758   -7.2279372    85.863773   0.01949677  0.019468996           36 
  368000   0.67554209   -7.2222796    85.801155  0.019429609  0.019409256           30 
  369000   0.67835784   -7.2446055     85.72656  0.019360108   0.01934958           50 
  370000   0.68793156    -7.243767    85.845256  0.019334517  0.019289957           31 
  371000   0.67619145   -7.2416247    85.957682  0.019307655  0.019230666           22 
  372000    0.6823194   -7.2501294    86.053828  0.019277291  0.019171675           27 
  373000   0.66448747   -7.2676389    86.086953   0.01923301  0.019113075           36 
  374000   0.66664074   -7.2380621    86.111025  0.019186949  0.019054757           24 
  375000   0.68396829   -7.2484333    86.010591  0.019113465  0.018996717           26 
  376000   0.68107597    -7.261273    86.109584  0.019084571  0.018938531           61 
  377000   0.67616303   -7.2783828    86.161646  0.019045457  0.018880865           35 
  378000   0.68272483   -7.2705328    86.078225  0.018976681  0.018823387           38 
  379000   0.66077448   -7.2879366    86.274856  0.018969845  0.018765792           49 
  380000   0.67441479   -7.2838864    86.191581  0.018901662  0.018708679           44 
  381000   0.64236776   -7.2656679    86.236106   0.01886179  0.018651679           51 
  382000   0.64758885   -7.2965494    86.102483  0.018783264  0.018594706           40 
  383000   0.64844609   -7.2921427    86.091325  0.018731794  0.018537616           82 
  384000   0.64394563   -7.2906634    86.030697  0.018669856  0.018480603           72 
  385000   0.66891289   -7.3180101    85.963928  0.018606911  0.018423759           82 
  386000   0.66352258   -7.3262484    86.191992  0.018607943  0.018366793           47 
  387000   0.65139386   -7.2961381    86.097949   0.01853961  0.018310247           97 
  388000   0.64065981   -7.3197106    86.129386   0.01849858  0.018253366           88 
  389000   0.62860398   -7.3308261    85.771639  0.018374387  0.018196551          143 
  390000   0.64302775   -7.3242655    86.110728  0.018399728  0.018140044           76 
  391000   0.64292188   -7.3131711    86.179005  0.018367222  0.018083921           61 
  392000   0.64478478   -7.3215499    86.134906  0.018310992  0.018027949           67 
  393000   0.63133965   -7.3199782    86.296507  0.018298666   0.01797228           67 
  394000   0.63484822   -7.3220668    86.303297  0.018253658  0.017916821           53 
  395000   0.65464956   -7.3403025    86.091031  0.018162665  0.017861447           64 
  396000   0.63460589   -7.3600852    86.342101  0.018169634   0.01780609           65 
  397000   0.62924148   -7.3369482    86.130205  0.018079388  0.017750851           79 
  398000   0.61808569   -7.3639865    86.189089  0.018046292  0.017695813           35 
  399000   0.64417359   -7.3307364      86.3761  0.018040121  0.017641044           57 
  400000   0.62485805   -7.3368839    86.365242  0.017992759   0.01758669           55 
  401000   0.61320528   -7.3585047    86.366724  0.017948197  0.017532433           54 
  402000   0.62444405   -7.3553099    86.129352  0.017854343  0.017477903           95 
  403000   0.62199295   -7.3472781    86.077042  0.017799223   0.01742346           83 
  404000    0.6316627   -7.3599946    86.159744  0.017772224  0.017369114           69 
  405000   0.61353292   -7.3640194    85.976626  0.017690664  0.017314872           97 
  406000   0.61427951   -7.3478127     86.05761  0.017663713  0.017260628           68 
  407000   0.61937889   -7.3752155    85.822545  0.017572184  0.017206485           76 
  408000   0.61456055     -7.38078    86.128503  0.017591606  0.017152444           71 
  409000     0.610772   -7.3835858    86.000678   0.01752255  0.017098678           53 
  410000   0.61037761   -7.3737668    86.113038   0.01750265  0.017044967           63 
  411000   0.61257796   -7.3691382    85.904727  0.017417828  0.016991387           61 
  412000   0.61151141   -7.3892995    86.014851  0.017397826  0.016937907           83 
  413000     0.612086   -7.4023666    86.157677  0.017384519  0.016884646           93 
  414000   0.60586006   -7.4034669    85.994607  0.017309703  0.016831607           62 
  415000   0.59867522   -7.4002103    86.179974  0.017305216  0.016778581           58 
  416000   0.60584388   -7.4152479     86.02053  0.017231677  0.016725775           80 
  417000    0.6048622   -7.4165431    86.009143  0.017188078  0.016673114           68 
  418000   0.59632083   -7.3983769    86.142799  0.017173604  0.016620688           70 
  419000   0.58914815   -7.4066289    86.188183  0.017141643  0.016568504           61 
  420000   0.59694432   -7.4093131    86.030983  0.017069639  0.016516363           62 
  421000   0.60112484   -7.4183956    86.201383  0.017062823  0.016464607           72 
  422000   0.60130172   -7.4153783    86.122151  0.017006744  0.016413062           57 
  423000   0.60223922   -7.4124429    86.164816  0.016974944  0.016361783           98 
  424000   0.59130594   -7.4294438     86.25484  0.016952602   0.01631069          101 
  425000   0.58971884   -7.4291949    86.069467  0.016876366  0.016259761          112 
  426000    0.6009796   -7.4037448    86.299366  0.016881723  0.016209013          103 
  427000   0.56587741   -7.4333581    86.032066  0.016790021  0.016158432           74 
  428000   0.59024551   -7.4398546    86.019429  0.016748331  0.016107823           88 
  429000   0.58249841    -7.444464    85.966443  0.016698998  0.016057518          129 
  430000   0.57433649   -7.4340016    86.058452  0.016677995  0.016007329          123 
  431000   0.58555195   -7.4493581    86.067029  0.016640957  0.015957277          183 
  432000   0.57531544   -7.4409564    86.115466   0.01661178  0.015907461           93 
  433000   0.57456801   -7.4468265     86.06164  0.016563056  0.015857777           91 
  434000   0.56410456   -7.4460709    86.058035    0.0165242  0.015808201          106 
  435000   0.56085152   -7.4629692    86.059634   0.01648652  0.015758809          100 
  436000   0.57788282   -7.4715884    86.102825  0.016456962  0.015709654          129 
  437000   0.57037189   -7.4716012    86.103533  0.016419438  0.015660561          164 
  438000   0.56622476   -7.4499179     86.16764  0.016394148  0.015611679          134 
  439000   0.57373288   -7.4741953    86.032558  0.016331161  0.015562888          131 
  440000   0.57673727   -7.4607452    85.970665  0.016282323  0.015514261           94 
  441000   0.56957749   -7.4777602    85.994245  0.016249857   0.01546586          146 
  442000   0.55575947   -7.4606011     86.11784  0.016236395  0.015417672          118 
  443000   0.57765482   -7.4858165     86.15935  0.016207553   0.01536957          118 
  444000   0.56257964    -7.499029    85.963552    0.0161343  0.015321735          114 
  445000   0.55696976   -7.4926594     85.98562  0.016102176  0.015273841          154 
  446000   0.54490548    -7.471986     86.09359  0.016086246  0.015226247          104 
  447000   0.54608962   -7.4959745    86.053073  0.016042706   0.01517873          131 
  448000   0.55771082   -7.4753025    85.769436  0.015954136   0.01513139          156 
  449000   0.55578718   -7.5270708    85.970977  0.015956009  0.015084216          131 
  450000   0.55770532   -7.5100994    85.899734  0.015907358  0.015037105          127 
  451000   0.54864043   -7.5056298    85.856229  0.015864048  0.014990225          143 
  452000   0.53449597   -7.5176851     86.10345   0.01587453  0.014943399          140 
  453000   0.53553812   -7.5172272    85.922244  0.015806152  0.014896883          179 
  454000    0.5432728   -7.5223784      85.9943  0.015784563  0.014850461          176 
  455000   0.54135505   -7.5325207     86.10975  0.015771016  0.014804165          158 
  456000   0.53193316   -7.5164675    85.956963  0.015708509  0.014758038          147 
  457000    0.5386393    -7.546234    85.961411  0.015674947  0.014712143          115 
  458000   0.54867083   -7.5383361    85.837087  0.015618102  0.014666266          181 
  459000   0.53718327   -7.5280453    85.867595  0.015589614  0.014620572          218 
  460000   0.52048928   -7.5420753    85.942341  0.015569265  0.014575033          162 
  461000   0.53942845   -7.5559646    86.004349  0.015546701  0.014529777          126 
  462000   0.52267492   -7.5250257    85.862933  0.015487542  0.014484542          147 
  463000   0.53641503   -7.5425965    85.771547  0.015437643  0.014439443          204 
  464000   0.52025679   -7.5288268    85.855143  0.015419386  0.014394497           94 
  465000   0.54147418   -7.5519205    85.866794  0.015388314  0.014349702          235 
  466000   0.52883186   -7.5380663    85.903336  0.015361827  0.014305104          188 
  467000   0.52808662   -7.5535326    85.952008  0.015337617  0.014260555          154 
  468000   0.52375759    -7.544918    85.767236  0.015271944  0.014216242          209 
  469000   0.52476287   -7.5663953    85.754027  0.015237034  0.014172036          157 
  470000   0.52341926   -7.5548965    85.852621  0.015222096  0.014128127          167 
  471000    0.5193771   -7.5509986    85.885838  0.015195654  0.014084307          183 
  472000   0.51723747   -7.5620319    85.963263   0.01517713  0.014040727          106 
  473000   0.49842145   -7.5592301    85.790054  0.015114527  0.013997316          124 
  474000   0.50013405   -7.5729277    85.884358  0.015099219  0.013953903          168 
  475000   0.50355928   -7.5833957    85.800673   0.01505275  0.013910731          203 
  476000   0.51656014   -7.5770832    85.764057  0.015014716  0.013867603          211 
  477000   0.49972125   -7.5720027    85.642893  0.014962071  0.013824665          229 
  478000   0.50525772    -7.577097    85.786676  0.014955836  0.013781773          112 
  479000   0.50363598   -7.5864102    85.723132  0.014913558  0.013739082          209 
  480000   0.50199014   -7.5873101    85.858508  0.014905991  0.013696476          205 
  481000   0.50683313   -7.5916748    85.613136  0.014832491  0.013654052          166 
  482000   0.50271436   -7.5963374    85.622519   0.01480334  0.013611749           99 
  483000   0.50232521   -7.5958882    85.646952  0.014776907  0.013569684          277 
  484000   0.48613546   -7.5971372    85.687422  0.014753344  0.013527721          212 
  485000   0.49528958   -7.5867805    85.672348  0.014720335  0.013485919          266 
  486000   0.49429195   -7.6077121    85.659052  0.014687766  0.013444236          195 
  487000   0.48987852   -7.6109309    85.695364   0.01466382  0.013402735          229 
  488000   0.48996926   -7.6036433    85.605166  0.014618368  0.013361384          268 
  489000   0.49775751   -7.6013298    85.739056  0.014611291  0.013320229          266 
  490000   0.48349824   -7.6122617    85.774818  0.014587554    0.0132792          227 
  491000   0.48588998   -7.6122115    85.654771   0.01453747  0.013238392          322 
  492000    0.4835083   -7.6130509    85.606899  0.014499814  0.013197714          247 
  493000   0.47318898   -7.6170743    85.594818   0.01446836  0.013157247          258 
  494000   0.47606946   -7.6307047    85.589557  0.014438184  0.013116855          141 
  495000   0.48877705   -7.6227085    85.646475  0.014418599  0.013076599          397 
  496000   0.48259059   -7.6161937    85.597457  0.014381293  0.013036459          299 
  497000   0.48045452    -7.624771     85.61238  0.014354859  0.012996474          226 
  498000   0.48398633   -7.6329913    85.674493  0.014336428  0.012956565          299 
  499000    0.4638416   -7.6315041     85.63388  0.014300915  0.012916793          349 
  500000   0.46291331   -7.6356822    85.428244  0.014238041  0.012877197          313 
  501000    0.4640076   -7.6228249     85.47624  0.014217605  0.012837708          204 
  502000   0.47122072   -7.6208087    85.481664  0.014190183  0.012798355          273 
  503000   0.46586039   -7.6168472    85.525761  0.014169278  0.012759181          397 
  504000   0.46316607   -7.6438334    85.587263  0.014151333  0.012720146          268 
  505000   0.45772263   -7.6309252    85.497954  0.014108573  0.012681192          285 
  506000   0.45910151    -7.649848    85.445842  0.014072108  0.012642401          264 
  507000   0.46444105    -7.656207    85.555225  0.014062332  0.012603758          357 
  508000   0.43950577   -7.6617978    85.432259  0.014014478  0.012565262          271 
  509000   0.44889859   -7.6480442    85.398747  0.013981458  0.012526876          291 
  510000   0.45873814    -7.650506    85.351774  0.013946368  0.012488597          168 
  511000   0.44579458    -7.647611    85.412758  0.013929021  0.012450407          354 
  512000   0.44996668   -7.6671233     85.41381  0.013901987   0.01241245          351 
Loop time of 1066.71 on 48 procs for 500000 steps with 4000 atoms

Performance: 80996.641 tau/day, 468.731 timesteps/s
99.4% CPU use with 48 MPI tasks x no OpenMP threads

MPI task timing breakdown:
Section |  min time  |  avg time  |  max time  |%varavg| %total
---------------------------------------------------------------
Pair    | 67.865     | 70.49      | 73.189     |  16.3 |  6.61
Neigh   | 6.6761     | 6.8598     | 7.1401     |   3.2 |  0.64
Comm    | 57.453     | 61.453     | 65.854     |  23.0 |  5.76
Output  | 0.82637    | 0.82696    | 0.83634    |   0.2 |  0.08
Modify  | 909.18     | 915.04     | 918.84     |   7.6 | 85.78
Other   |            | 12.05      |            |       |  1.13

Nlocal:        83.3333 ave          90 max          78 min
Histogram: 4 6 4 7 2 14 4 4 1 2
Nghost:        1790.10 ave        1806 max        1770 min
Histogram: 2 1 4 2 6 8 15 3 5 2
Neighs:        10946.4 ave       12053 max       10071 min
Histogram: 2 4 11 4 8 5 8 3 2 1
FullNghs:      21893.4 ave       23925 max       20176 min
Histogram: 2 2 9 8 4 8 9 4 0 2

Total # of neighbors = 1050881
Ave neighs/atom = 262.72025
Neighbor list builds = 26959
Dangerous builds = 0

#clear
#
#next RN
#
#jump SELF
Total wall time: 0:17:49
