
units lj                  # Use reduced LJ style units
atom_style atomic         # Uncharged point particles
atom_modify map hash      # Needed for indexing of clusters etc
                          # Used to be able to find where atoms are in relation to each other.

lattice fcc 1.0 spacing 1 1 1
Lattice spacing in x,y,z = 1.5874011 1.5874011 1.5874011
region box block 0 10 0 10 0 10 units lattice
create_box 2 box
Created orthogonal box = (0.0000000 0.0000000 0.0000000) to (15.874011 15.874011 15.874011)
  3 by 4 by 4 MPI processor grid
create_atoms 1 box
Created 4000 atoms
  using lattice units in orthogonal box = (0.0000000 0.0000000 0.0000000) to (15.874011 15.874011 15.874011)
  create_atoms CPU = 0.027 seconds
set type 1 type/fraction 2 0.98 78393
Setting atom values ...
  3920 settings made for type/fraction
mass 1 1.0
mass 2 1.0
pair_style lj/cut  3.5
pair_modify tail  yes
pair_coeff 1  1  1.0  1.0   # Intearaction between 1 and 1 set with epsilon = 1 and sigma = 1
pair_coeff 1  2  1.5  0.8
pair_coeff 2  2  0.5  0.88

write_data data.0
System init for write_data ...
Neighbor list info ...
  update every 1 steps, delay 10 steps, check yes
  max neighbors/atom: 2000, page size: 100000
  master list distance cutoff = 3.8
  ghost atom cutoff = 3.8
  binsize = 1.9, bins = 9 9 9
  1 neighbor lists, perpetual/occasional/extra = 1 0 0
  (1) pair lj/cut, perpetual
      attributes: half, newton on
      pair build: half/bin/atomonly/newton
      stencil: half/bin/3d
      bin: standard
WARNING: Not all mixed pair coeffs generated from mixing. Use write_data with 'pair ij' option to store all pair coeffs. (../write_data.cpp:312)


#############################
#   M E L T   S Y S T E M   #
#############################

velocity all create 2.4 3143649 mom yes dist gaussian # Assign velocities
                                                    # Temperature 2.4, random number seed, zero linear momentum
                                                                                # Gaussian distribution

timestep 0.002   # simulation timestep
thermo 1000       # output thermodynamic data every 1000 steps bf 100

# Define a fix  in this case with index 1 applied to all
# particles in the simulation. This fix is for simulations
# in the anisotropic NPT ensemble. Note that we use the MTK
# correction.
fix 1 all npt temp 2.4 2.4 0.1 iso 5.68 5.68 0.5 mtk yes tchain 5 pchain 5 # Use NPT ensemble
                                                                         # Set temperature and pressure and damping
                                                                         # Numbers of thermostats in chain and in barostat
run 10000          # run for 10000 steps
Per MPI rank memory allocation (min/avg/max) = 3.642 | 3.644 | 3.648 Mbytes
Step Temp E_pair E_mol TotEng Press Volume 
       0          2.4   -2.7962588            0   0.80284124   -1.8826162         4000 
    1000    2.4139053   -1.5745766            0    2.0453761    5.7904827    4205.5145 
    2000    2.3855533   -1.5980048            0    1.9794305    5.4842492     4235.806 
    3000    2.3595104   -1.5824178            0     1.955963    5.5540482    4245.0235 
    4000    2.3860383   -1.5661984            0    2.0119642    5.5075717    4263.2207 
    5000    2.3033032   -1.5976598            0    1.8564312    5.5250218    4225.1411 
    6000    2.3894526   -1.5930693            0    1.9902136    5.6242792    4217.5716 
    7000    2.3422431     -1.58718            0    1.9253063    5.7309399    4189.6361 
    8000    2.4278769    -1.567188            0    2.0737168    5.6485009    4242.9233 
    9000    2.3782729   -1.5874474            0    1.9790701    5.7456738    4192.3187 
   10000    2.4385752   -1.5775688            0    2.0793795    5.5475224    4268.2433 
Loop time of 2.37878 on 48 procs for 10000 steps with 4000 atoms

Performance: 726421.285 tau/day, 4203.827 timesteps/s
99.6% CPU use with 48 MPI tasks x no OpenMP threads

MPI task timing breakdown:
Section |  min time  |  avg time  |  max time  |%varavg| %total
---------------------------------------------------------------
Pair    | 1.0555     | 1.1029     | 1.1606     |   2.4 | 46.36
Neigh   | 0.20675    | 0.2137     | 0.22715    |   0.9 |  8.98
Comm    | 0.72335    | 0.81098    | 0.86965    |   3.8 | 34.09
Output  | 0.00024882 | 0.00025347 | 0.00032271 |   0.0 |  0.01
Modify  | 0.21229    | 0.2362     | 0.25806    |   2.9 |  9.93
Other   |            | 0.01478    |            |       |  0.62

Nlocal:        83.3333 ave          96 max          74 min
Histogram: 2 6 6 4 11 12 3 3 0 1
Nghost:        1568.88 ave        1599 max        1543 min
Histogram: 4 0 8 6 8 11 5 2 3 1
Neighs:        8940.48 ave       10353 max        7646 min
Histogram: 5 2 6 3 8 8 6 8 1 1

Total # of neighbors = 429143
Ave neighs/atom = 107.28575
Neighbor list builds = 918
Dangerous builds = 293

# Equilibrate just above the melting temperature to avoid step fn in T

fix 1 all npt temp 1.25 1.25 0.1 iso 5.68 5.68 0.5 mtk yes tchain 5 pchain 5
run 2000
Per MPI rank memory allocation (min/avg/max) = 3.643 | 3.645 | 3.649 Mbytes
Step Temp E_pair E_mol TotEng Press Volume 
   10000    2.4385752   -1.5775688            0    2.0793795    5.5475224    4268.2433 
   11000     1.245426   -2.4197583            0  -0.55208642     5.750144    3293.1572 
   12000     1.243537   -2.4364154            0  -0.57157626    5.5602512    3302.6356 
Loop time of 0.584927 on 48 procs for 2000 steps with 4000 atoms

Performance: 590842.586 tau/day, 3419.228 timesteps/s
99.6% CPU use with 48 MPI tasks x no OpenMP threads

MPI task timing breakdown:
Section |  min time  |  avg time  |  max time  |%varavg| %total
---------------------------------------------------------------
Pair    | 0.25281    | 0.27894    | 0.305      |   2.4 | 47.69
Neigh   | 0.038241   | 0.040851   | 0.042752   |   0.5 |  6.98
Comm    | 0.18799    | 0.21433    | 0.24223    |   2.8 | 36.64
Output  | 5.3607e-05 | 5.4789e-05 | 7.1886e-05 |   0.0 |  0.01
Modify  | 0.042419   | 0.046035   | 0.049603   |   0.8 |  7.87
Other   |            | 0.004717   |            |       |  0.81

Nlocal:        83.3333 ave          93 max          75 min
Histogram: 3 3 3 11 7 10 4 4 1 2
Nghost:        1867.06 ave        1886 max        1833 min
Histogram: 1 0 2 4 5 7 7 8 11 3
Neighs:        11562.1 ave       13131 max        9460 min
Histogram: 1 1 4 3 7 7 14 5 4 2

Total # of neighbors = 554982
Ave neighs/atom = 138.74550
Neighbor list builds = 144
Dangerous builds = 17

#############################
# L I N E A R  Q U E N C H  #
#############################

# Define solid atoms. This closely follows ten Wolde  Ruiz-Montero and Frenkel  Faraday Discuss  1996  104  93-110
# Compute components of the per-atom q6 vector
compute q6 all orientorder/atom degrees 1 6 components 6 nnn NULL cutoff 1.3 # compute the Q6 parameter.
                                                                             # Use all neighbours within 1.3 unit cell.

# get number of connections
compute coord_number all coord/atom orientorder q6 0.5

# An atom is solid if it has 8 or more connections (of a possible 14)
variable is_solid atom c_coord_number>=8
group solid dynamic all var is_solid    # Must be dynamic to update
dynamic group solid defined

# do clustering
compute cluster solid cluster/atom 1.3 # Create a cluster where all atoms within are solid and max 1.3 units from another member

# define chunks one chunk per cluster
compute clus_chunks solid chunk/atom c_cluster nchunk every compress yes  # Says which atoms are in which chunk

# count the size of each chunk
compute size_chunks solid property/chunk clus_chunks count


# Find the maximum entry in the vector of chunk sizes
variable max_n equal max(c_size_chunks)


# Thermo style which includes this variable
# thermo_style custom step temp pe vol v_max_n

thermo ${N}  # Print the thermo information every 100 steps
thermo 1000  

# Reset the npt fix at a lower temperature (below freezing)
fix 1  all npt temp  ${temp} ${temp}  0.1  iso  5.68  5.68  0.5  mtk yes tchain  5  pchain  5
fix 1  all npt temp  0.45 ${temp}  0.1  iso  5.68  5.68  0.5  mtk yes tchain  5  pchain  5
fix 1  all npt temp  0.45 0.45  0.1  iso  5.68  5.68  0.5  mtk yes tchain  5  pchain  5

dump dmp2 all dcd ${N} traj.dcd
dump dmp2 all dcd 1000 traj.dcd


compute msd all msd com yes
variable twopoint equal c_msd[4]/6/(step*dt+1.0e-6)
fix 9 all vector 10 c_msd[4]
variable fit equal slope(f_9)/6/(10*dt)
thermo_style custom step temp pe c_msd[4] v_twopoint v_fit v_max_n

fix 1 all npt temp 1.25 ${temp} 0.1 iso 5.68 5.68 0.5 mtk yes tchain 5 pchain 5
fix 1 all npt temp 1.25 0.45 0.1 iso 5.68 5.68 0.5 mtk yes tchain 5 pchain 5
run 500000 # 5000000  # Run for this many steps
Neighbor list info ...
  update every 1 steps, delay 10 steps, check yes
  max neighbors/atom: 2000, page size: 100000
  master list distance cutoff = 3.8
  ghost atom cutoff = 3.8
  binsize = 1.9, bins = 8 8 8
  4 neighbor lists, perpetual/occasional/extra = 1 3 0
  (1) pair lj/cut, perpetual
      attributes: half, newton on
      pair build: half/bin/atomonly/newton
      stencil: half/bin/3d
      bin: standard
  (2) compute orientorder/atom, occasional
      attributes: full, newton on
      pair build: full/bin/atomonly
      stencil: full/bin/3d
      bin: standard
  (3) compute coord/atom, occasional
      attributes: full, newton on
      pair build: full/bin/atomonly
      stencil: full/bin/3d
      bin: standard
  (4) compute cluster/atom, occasional
      attributes: full, newton on
      pair build: full/bin/atomonly
      stencil: full/bin/3d
      bin: standard
Per MPI rank memory allocation (min/avg/max) = 9.810 | 9.817 | 9.821 Mbytes
Step Temp PotEng c_msd[4] v_twopoint v_fit v_max_n 
   12000     1.243537   -2.4364154 3.9443045e-34 2.7391003e-36 8.3333333e+20            1 
   13000    1.2381145   -2.4466533    1.1341959 0.0072704863  0.095794609            1 
   14000    1.2377624   -2.4296105    2.4062766  0.014323075   0.10304637            1 
   15000    1.2334087   -2.4020431    3.6895248  0.020497359   0.10460534            2 
   16000    1.2519498   -2.4718336    4.8855402  0.025445521   0.10413801            1 
   17000    1.2392957   -2.4153411    6.1652789  0.030221954   0.10339177            1 
   18000    1.2414668   -2.4327335    7.3557197  0.034054257   0.10312152            2 
   19000    1.2472508   -2.4643448    8.5382406  0.037448423   0.10281856            2 
   20000    1.2341399   -2.4289104     9.758894  0.040662057   0.10241333            2 
   21000    1.2515111   -2.4521021    10.990743   0.04361406   0.10235722            1 
   22000    1.2481738    -2.450037    12.295149  0.046572531   0.10219719            1 
   23000    1.2516734   -2.4319226    13.564291  0.049145982   0.10221228            2 
   24000    1.2326855   -2.4384861    14.952262  0.051917576   0.10269289            1 
   25000    1.2298919   -2.4874272     16.29851  0.054328364   0.10344689            1 
   26000    1.2542835   -2.4501637    17.559849  0.056281565   0.10404753            1 
   27000    1.2376362   -2.4523907    18.805856  0.058042763   0.10449261            1 
   28000    1.2023414   -2.4677548    20.185591  0.060076163   0.10492098            1 
   29000    1.2255422   -2.4608666    21.403544  0.061504436   0.10526119            1 
   30000    1.2214024    -2.478782    22.639302  0.062886948   0.10549889            1 
   31000    1.2014883   -2.4604372    23.967799  0.064429567   0.10551231            1 
   32000    1.2165687   -2.4747217    24.857706  0.064733609   0.10537663            1 
   33000    1.1992792   -2.4794324    25.895245  0.065392032   0.10496271            2 
   34000    1.2330265   -2.4811723    27.074067  0.066358005   0.10461701            2 
   35000    1.2091516   -2.4430347    28.773855  0.068509177   0.10445139            1 
   36000    1.2014878   -2.4531179    30.066709  0.069598862   0.10450349            1 
   37000    1.1900503   -2.4919209    31.287902  0.070468246   0.10457169            4 
   38000    1.1926705    -2.512538    32.298372  0.070829762   0.10453911            2 
   39000    1.2044392   -2.4864671     33.27506  0.071100554   0.10446596            2 
   40000     1.220663   -2.4668452    34.866485   0.07263851   0.10435988            1 
   41000    1.2158056   -2.4704309    36.028915    0.0732295   0.10423296            1 
   42000    1.1786795   -2.4884943    36.886529  0.073187557   0.10404796            1 
   43000    1.2048798   -2.4875411    37.843744  0.073340587   0.10376995            1 
   44000    1.2102443   -2.4981628    39.176207  0.074197362   0.10345233            1 
   45000    1.1993459   -2.4804223    40.167585  0.074384416   0.10316418            2 
   46000    1.1753531   -2.4664251    41.593574  0.075350677   0.10291779            1 
   47000     1.184284   -2.4808288    42.824594   0.07593013   0.10270845            3 
   48000    1.1936605   -2.5098698    44.048761  0.076473542   0.10251882            1 
   49000    1.2055895   -2.5067983    45.180417  0.076837444   0.10233424            1 
   50000    1.2075263    -2.502115    46.308653  0.077181087   0.10220744            1 
   51000    1.2178031    -2.500653    47.372627  0.077406253   0.10205054            2 
   52000    1.1649408   -2.5135393    48.625311  0.077925177   0.10189386            1 
   53000    1.1857558   -2.4761963    49.701939  0.078147701   0.10169307            1 
   54000    1.1777583   -2.4871115    51.092712  0.078846777   0.10155368            1 
   55000    1.1936516   -2.4722508    52.437342  0.079450518   0.10145675            1 
   56000    1.1836902    -2.542416    53.589772  0.079746684   0.10134916            1 
   57000    1.1625823   -2.4849441    54.488584  0.079661672   0.10122953            2 
   58000    1.1615849   -2.5176488    54.979683  0.078993796   0.10103596            1 
   59000    1.1562211   -2.5002684    56.397811  0.079657924   0.10081181            4 
   60000    1.1567361   -2.4969625    57.477198  0.079829441   0.10063889            2 
   61000    1.1621728   -2.4996914    58.825988  0.080363371   0.10044923            1 
   62000    1.2046497   -2.5122018    59.769691  0.080335605    0.1002953            1 
   63000    1.1755024   -2.5080376     61.48821   0.08133361   0.10017604            2 
   64000    1.1523401   -2.5179348    62.686105  0.081622532   0.10009598            1 
   65000     1.152431   -2.5375716    63.508171  0.081420731   0.10004637            5 
   66000    1.1675947   -2.5321682     64.76955  0.081779734  0.099962038            1 
   67000    1.1736927   -2.5102304    66.542359  0.082764127  0.099892763            1 
   68000    1.1414091   -2.5360587     67.11464  0.082248333  0.099848534            1 
   69000    1.1386535   -2.5380874    68.539961   0.08277773  0.099791722            3 
   70000    1.1616119   -2.5101223    69.269108  0.082463223  0.099720772            3 
   71000    1.1705049   -2.5625905    70.267217  0.082473259  0.099600911            1 
   72000    1.1475452   -2.5413803    71.210295  0.082419323  0.099476259            2 
   73000    1.1546849   -2.5343444    72.594004  0.082869867  0.099361464            1 
   74000    1.1665381   -2.5383838    74.030725  0.083367933  0.099258977            1 
   75000     1.146498   -2.5391827    75.035738  0.083373042  0.099155532            2 
   76000    1.1440001   -2.5564228     76.03378  0.083370372  0.099033257            2 
   77000    1.1525487   -2.5167585    76.956055  0.083285773  0.098927359            2 
   78000    1.1405352   -2.5393078    77.947354  0.083277087  0.098823467            1 
   79000    1.1509722   -2.5660453    79.279041   0.08362768  0.098719375            1 
   80000    1.1414411   -2.5366476     80.32354  0.083670354  0.098601765            1 
   81000     1.151349    -2.555354    81.083876  0.083419625  0.098480784            1 
   82000    1.1274572    -2.554291    82.184825  0.083521163  0.098334873            1 
   83000    1.1300957   -2.5701946    82.842335  0.083175035  0.098181249            2 
   84000     1.144439   -2.5639487    84.652547  0.083980701  0.098038133            1 
   85000     1.135471   -2.5511081    85.488252  0.083812012  0.097913678            1 
   86000    1.1324978   -2.5311528     86.39105  0.083712257  0.097784915            1 
   87000    1.1268832   -2.5832305    86.765443  0.083108661  0.097604721            1 
   88000    1.1244349   -2.5397782    87.692473  0.083042114  0.097409899            1 
   89000    1.1407928   -2.5609554    89.064612  0.083393831  0.097222165            1 
   90000    1.1238935   -2.5344924    90.258354   0.08357255  0.097050053            1 
   91000    1.0979377   -2.5543586    91.384935  0.083685837  0.096888178            3 
   92000    1.1215833   -2.5810139    91.793022  0.083145852  0.096721166            3 
   93000    1.1125248   -2.5684548    93.138924  0.083457817  0.096550299            1 
   94000    1.1119641   -2.5917972    94.203217   0.08351349  0.096393281            2 
   95000    1.1256049   -2.5644837    95.484908  0.083758691  0.096242787            4 
   96000    1.1268327   -2.5786181    96.552391  0.083812839   0.09610461            2 
   97000    1.1235466   -2.6127042    98.559811  0.084673376  0.095989185            1 
   98000    1.1139296   -2.6108774    99.546156  0.084648091  0.095906309            1 
   99000    1.1102502   -2.5607449    100.86591  0.084903964  0.095854669            2 
  100000    1.0854968    -2.592985    102.12856  0.085107134  0.095810485            3 
  101000    1.1302913   -2.5503908    103.05456  0.085028518  0.095761764            2 
  102000    1.1363947   -2.6093985    104.38833  0.085284586  0.095698637            3 
  103000    1.1203563   -2.5564899    104.67468  0.084688248  0.095625477            1 
  104000     1.089631   -2.6048875    106.35967  0.085224097  0.095550137            1 
  105000    1.1114283   -2.6002782    107.20672  0.085084702    0.0954759            1 
  106000     1.109979   -2.5885099    108.28296   0.08512811  0.095404985            2 
  107000    1.1014637   -2.5877006    109.11889   0.08498356  0.095331754            1 
  108000    1.0671071   -2.6125288    109.71642  0.084657732   0.09524605            1 
  109000    1.0817692   -2.6179852    110.94566  0.084820844  0.095150368            1 
  110000     1.094586   -2.6381806    111.19602   0.08423941  0.095038992            2 
  111000    1.0929534   -2.5983564    113.01505  0.084846131   0.09492763            1 
  112000    1.0877702   -2.6121972    114.16935  0.084947431  0.094819224            2 
  113000      1.08905   -2.5970114    115.44781    0.0851385  0.094727599            2 
  114000    1.1028068   -2.6000916    116.66668   0.08528266  0.094639774            3 
  115000    1.0767556   -2.6019593    117.76378  0.085336071  0.094557078            1 
  116000    1.0501115   -2.6025488    118.58505  0.085190409  0.094473985            2 
  117000    1.0908591   -2.6141503    119.34135  0.085000959  0.094392333            1 
  118000     1.083543   -2.6042581    120.26232  0.084931013  0.094298899            2 
  119000    1.0693639   -2.6262216    120.89791  0.084662401  0.094201312            1 
  120000    1.0573578   -2.5844692    122.26943  0.084909326  0.094092298            2 
  121000    1.0768919   -2.6104121    123.26807  0.084895366  0.093987329            2 
  122000    1.0732385    -2.604088    124.71977  0.085191098  0.093882303            2 
  123000    1.0800103    -2.608048    124.24506  0.084176872  0.093764517            2 
  124000    1.0794549   -2.6156353    124.98251  0.083993623  0.093639054            1 
  125000    1.0533508   -2.6215075    126.54377  0.084362511  0.093505825            4 
  126000    1.0660363   -2.6371803    126.88416  0.083918097  0.093373274            3 
  127000    1.0636757   -2.6383591    128.30565   0.08419006  0.093235134            2 
  128000     1.061178   -2.6407493    129.23554   0.08413772  0.093105702            1 
  129000    1.0555887   -2.6206412    129.75523   0.08382121  0.092984133            3 
  130000    1.0744257   -2.6485361    129.98508  0.083323767  0.092850547            5 
  131000    1.0456082   -2.6786065    131.36781   0.08356731  0.092699839            2 
  132000    1.0542162   -2.6143007    132.19338  0.083455419  0.092552779            1 
  133000    1.0582794   -2.6440016    133.02012  0.083345938  0.092400657            2 
  134000     1.051517   -2.6673302    134.21199  0.083465169  0.092245967            4 
  135000    1.0591636   -2.6589092    134.45384  0.082996196  0.092102779            3 
  136000    1.0488853   -2.6234629    135.98708  0.083325415   0.09195825            1 
  137000    1.0327024   -2.6366166    136.66364  0.083128734  0.091808991            1 
  138000     1.040456   -2.6631765    137.42697  0.082987298  0.091664433            4 
  139000    1.0378296   -2.6411003     138.4856  0.083024939  0.091517739            3 
  140000    1.0275915   -2.6791695    138.15181  0.082233219   0.09136406            3 
  141000    1.0504311   -2.6532903    140.04109  0.082766601  0.091208417            2 
  142000    1.0435285   -2.6692009    140.65728   0.08254535  0.091050186            3 
  143000     1.048282    -2.624071    141.89831  0.082691324  0.090901064            2 
  144000    1.0315508   -2.6697454    142.81857  0.082649634  0.090753246            2 
  145000    1.0207149   -2.6862426    143.10168  0.082242347  0.090605445            2 
  146000    1.0464832   -2.6554837    144.46178  0.082455352  0.090467441            3 
  147000    1.0516279   -2.6851555    145.93141  0.082727557  0.090328156            2 
  148000    1.0100657   -2.6820006    146.88972  0.082708175  0.090188559            2 
  149000    1.0543017   -2.6709113    147.83859  0.082683775  0.090050879            1 
  150000    1.0084307   -2.6647116    148.47868  0.082488155  0.089920967            3 
  151000    1.0365733    -2.675965    149.69382  0.082612484  0.089797496            3 
  152000    1.0187341   -2.6767366    150.65654  0.082596786  0.089676492            2 
  153000    1.0468066    -2.672436    150.83152  0.082152244  0.089547563            2 
  154000     1.017749   -2.6779991    151.97131  0.082235554  0.089415688            3 
  155000    1.0155018   -2.6962976     152.5669  0.082025213  0.089279284            2 
  156000    1.0343294   -2.6818069    153.52769  0.082012655  0.089144576            5 
  157000    1.0295318   -2.6891981     154.0863  0.081786783  0.089016292            4 
  158000   0.99747529   -2.6962107    154.98277  0.081741967  0.088878983            3 
  159000    1.0071261   -2.7333688     155.8916   0.08170419  0.088737417            2 
  160000    1.0062925   -2.6938574    156.02095  0.081260911    0.0885932            3 
  161000    1.0382927   -2.7005895    156.65318  0.081083428  0.088451031            2 
  162000    1.0138807   -2.6927868    157.73849  0.081141201  0.088302929            2 
  163000    1.0339662   -2.6976741    157.80947  0.080679687  0.088150859            3 
  164000    1.0098075   -2.6945484    158.72949  0.080655228  0.088000299            2 
  165000    1.0151169   -2.6756742    160.61261  0.081117478  0.087847891            2 
  166000    1.0077924   -2.7298212    160.83782  0.080741879  0.087698623            5 
  167000   0.99275255   -2.6904738    161.18136  0.080429822  0.087548606            1 
  168000    1.0046169   -2.6782462     161.8457  0.080280603  0.087396858            5 
  169000   0.98853299   -2.6982331    163.03752  0.080393254  0.087242226            2 
  170000    0.9849114   -2.7510311    162.68213   0.07974614  0.087076977            2 
  171000   0.99772868   -2.7339127    164.01681  0.079930218  0.086905108            2 
  172000   0.99306174   -2.6920406    163.98844  0.079451764  0.086732974            2 
  173000   0.99531909   -2.6953163    164.64633  0.079309409  0.086558683            1 
  174000   0.97231469   -2.7157708    165.50696  0.079265784  0.086383694            3 
  175000   0.98336863    -2.721849     166.5281  0.079299093   0.08621024            8 
  176000   0.96304475     -2.73617    167.03367  0.079087909   0.08604227            3 
  177000   0.98107781   -2.7529924    168.38405  0.079276862  0.085868931            2 
  178000   0.98287238   -2.7547161    168.66376  0.078962436  0.085700731            3 
  179000   0.98512367   -2.7173279    168.97162  0.078664627  0.085532185            1 
  180000   0.98513332   -2.7120449    170.16211  0.078778753  0.085370177            5 
  181000   0.98101515   -2.7248545    170.70434   0.07859316  0.085202614            4 
  182000   0.96842167   -2.7268773    171.92275  0.078719206  0.085035189            2 
  183000   0.97554061   -2.7330863    172.27226  0.078448208  0.084869525            2 
  184000    0.9735283   -2.7396175    173.10584  0.078399383  0.084699122            2 
  185000   0.95573553   -2.7615806    173.98365  0.078371014  0.084540934            2 
  186000   0.94887731   -2.7204863    174.72081  0.078279933  0.084383293            2 
  187000   0.97122483   -2.7266714    175.54837  0.078230109  0.084223667            2 
  188000   0.97046567   -2.7592311    175.51924  0.077801082  0.084066778            3 
  189000   0.98075314   -2.7512701    177.11186   0.07809165  0.083906428            2 
  190000   0.94563522   -2.7462534     177.3804  0.077798421  0.083749088            3 
  191000   0.95790033   -2.7258792    178.60673  0.077926146  0.083595215            3 
  192000   0.94600864   -2.7557818    179.00586  0.077693517  0.083439783            3 
  193000   0.97394882   -2.7665796    179.12902  0.077344136  0.083285897            2 
  194000   0.96642536   -2.7598705    179.95505  0.077300279  0.083131984            2 
  195000   0.95400718   -2.7524871    180.48387   0.07712986  0.082977671            4 
  196000   0.94278378   -2.7811485    181.66748  0.077239574  0.082821756            5 
  197000   0.97777845   -2.7736301    182.26974   0.07710226  0.082667919            4 
  198000    0.9542738   -2.7602423    182.70512  0.076896092  0.082518889            1 
  199000   0.97245157    -2.732299    184.26767  0.077164014  0.082364015            1 
  200000   0.95166788   -2.7748451    184.77024  0.076987599  0.082210544            2 
  201000   0.94857484   -2.7887669    184.75465  0.076598112  0.082060614            2 
  202000   0.94867944   -2.7882989     185.1019  0.076362169  0.081909478            3 
  203000   0.91467442   -2.7934021    186.63639  0.076615923  0.081762896            2 
  204000   0.95229525   -2.8084451    187.54357  0.076610937  0.081617893            1 
  205000   0.92653153   -2.7753889    188.48077    0.0766182  0.081477255            2 
  206000   0.94984633    -2.780325    189.52511  0.076668732  0.081334645            5 
  207000   0.92507929   -2.7884137    188.77172  0.075995055  0.081195212            1 
  208000   0.93218368   -2.7892931    189.71484  0.076007549  0.081049096            5 
  209000   0.93618066   -2.7763021    190.55422  0.075978556  0.080904962            8 
  210000   0.94362567   -2.8100297    192.42615  0.076359583  0.080764077            2 
  211000    0.9217879   -2.7906539    192.45492  0.076009051  0.080628994            4 
  212000    0.9141017    -2.781344    194.30252  0.076376777  0.080496237            2 
  213000   0.91529164    -2.813579    193.38995  0.075661169  0.080363903            2 
  214000   0.90988429   -2.8053835    194.69101  0.075814254  0.080230976            6 
  215000   0.92616379   -2.8120108    194.87017  0.075531074  0.080094775            3 
  216000   0.92541679   -2.8208381    195.42144  0.075394073  0.079959407            3 
  217000   0.90542952   -2.8167453    196.52421  0.075470126  0.079823922            3 
  218000   0.94088117   -2.7992872    197.27149  0.075409593  0.079685555            5 
  219000   0.91383687   -2.7931785    198.01697  0.075348925  0.079554431            2 
  220000   0.92448029   -2.8179269    198.56462  0.075213873   0.07942067            2 
  221000    0.9045544   -2.8031043    199.45459  0.075209123  0.079289205            4 
  222000   0.91607925   -2.8289784    199.73183  0.074974409  0.079158262            4 
  223000   0.91899242   -2.8396188    200.75836  0.075021808  0.079028229            1 
  224000   0.90383338   -2.7955264    201.57448  0.074990505  0.078899596            3 
  225000   0.90157089   -2.7984685     202.5102  0.075003778  0.078774303            2 
  226000   0.90053665   -2.8350559    202.99213  0.074849606  0.078648099            3 
  227000   0.93570221   -2.8337276    203.00888  0.074526019  0.078523352            6 
  228000   0.91843102   -2.8237487    203.36901  0.074330779  0.078400786            2 
  229000   0.89994361   -2.8193832    205.49994  0.074781636  0.078282276            5 
  230000   0.89925903   -2.8102296    206.18853  0.074705988  0.078161694            2 
  231000   0.89215805   -2.8474638    206.30007  0.074422825  0.078039967            2 
  232000   0.92415993    -2.844224    205.58044   0.07384355  0.077918468            5 
  233000   0.90378372   -2.8227551    207.26457  0.074128959   0.07779439            4 
  234000    0.9035794    -2.837045    206.98129  0.073711286  0.077670046            1 
  235000   0.89201399   -2.8426273    208.18986  0.073826191  0.077545103            5 
  236000   0.87459616   -2.8451073    210.30328  0.074259631  0.077421511            3 
  237000   0.88214268   -2.8194971    209.95285  0.073823082  0.077299508            4 
  238000   0.87695616   -2.8413878    210.79539  0.073807908  0.077177854            2 
  239000    0.8722336   -2.8455302    211.28269  0.073668999  0.077053152            2 
  240000   0.89778541   -2.8406677    211.77216  0.073531998  0.076930451            3 
  241000   0.87697376    -2.854467    211.97707  0.073297741  0.076807642            4 
  242000   0.89168199   -2.8629071    213.16167   0.07340278  0.076688468            2 
  243000    0.8984902    -2.879579    213.30365  0.073149399  0.076569008            4 
  244000   0.87053091   -2.8787493    214.08333  0.073115891  0.076444565           10 
  245000   0.89652306    -2.854506    214.21579  0.072862512  0.076317458            3 
  246000   0.85915082    -2.863003    214.76548  0.072752532  0.076190723            6 
  247000   0.87307078   -2.8701258    214.33417  0.072312472  0.076063174            4 
  248000   0.86595215   -2.8690963    215.50956  0.072415847  0.075934262            4 
  249000   0.86296547    -2.897001    215.88438   0.07225046  0.075807678            5 
  250000   0.86319273   -2.8777311    217.49424  0.072498081  0.075681109            1 
  251000   0.86694846   -2.8688204    217.99097  0.072374161  0.075556873            4 
  252000   0.87353235   -2.8727382    217.97954  0.072083182  0.075434007            4 
  253000   0.86016053   -2.8597248     219.7991  0.072397595  0.075309956            2 
  254000   0.86109545   -2.9015554    219.26967  0.071938868  0.075188644            4 
  255000   0.83418058   -2.8869763     219.6825  0.071791666  0.075065265            4 
  256000   0.86583266   -2.8843674     220.3606  0.071731965  0.074940735            4 
  257000   0.84404357   -2.8815448     220.3922  0.071463098  0.074817647            5 
  258000   0.85087662   -2.9081902    221.22794  0.071456054  0.074692242            4 
  259000   0.85050943   -2.8811531    221.23504  0.071182447  0.074564431            4 
  260000   0.86019278   -2.9147449    221.34456  0.070943768   0.07443716            6 
  261000   0.85428222   -2.9073274    221.94957  0.070865123  0.074306837            4 
  262000   0.84983047   -2.9104129    222.51322  0.070773925  0.074176387            4 
  263000   0.83964013   -2.8913861    222.63326  0.070542857  0.074045291            2 
  264000   0.82730714   -2.8846152    224.13031  0.070748203  0.073913153            3 
  265000   0.84028641   -2.8994825    223.32777  0.070228859  0.073780117            3 
  266000   0.84674439    -2.893375    224.10072  0.070206993  0.073645503            3 
  267000   0.84882046   -2.9247804    225.05802  0.070242826   0.07351001            5 
  268000   0.85095932   -2.9205005    225.83941  0.070223698  0.073373807            8 
  269000   0.83139959   -2.9101853    225.06761  0.069723547  0.073238346            3 
  270000   0.83453895   -2.9295567    225.06195  0.069463566  0.073102018            2 
  271000   0.82347477   -2.9197929    225.79882   0.06943383  0.072963319            7 
  272000   0.83470746   -2.9137918    227.45975  0.069687423  0.072826857            2 
  273000   0.82911166   -2.8978807    226.86384  0.069250256  0.072688891            8 
  274000     0.845107   -2.9342434    226.26876  0.068816533  0.072550078            6 
  275000   0.80348144   -2.9287918     228.1243  0.069128575  0.072407068            4 
  276000   0.82991196   -2.9273842      228.196  0.068899759  0.072265824            6 
  277000   0.81720429    -2.958939    227.26306  0.068370355  0.072122375            2 
  278000   0.80552654    -2.935351    228.20901  0.068407975  0.071978948            2 
  279000   0.82463467   -2.9346703    228.01739  0.068105554  0.071835616            7 
  280000   0.83271884    -2.933509     228.6959  0.068064256  0.071690996            4 
  281000    0.8169953    -2.935861    229.03195  0.067921694  0.071546107            7 
  282000   0.82970275   -2.9152177    230.32708  0.068063559  0.071402937            4 
  283000   0.80521835   -2.9329702    231.05959  0.068038749  0.071261226            3 
  284000    0.8202473   -2.9285385    231.14714  0.067824864  0.071120575            3 
  285000   0.81979373   -2.9264343    232.59686  0.068010777  0.070983002            7 
  286000    0.8064088   -2.9467835    232.26128  0.067675199  0.070844096            7 
  287000   0.79519273   -2.9584039    232.21654  0.067426404  0.070705422            4 
  288000   0.80483265   -2.9652775    233.12897  0.067456299  0.070568102            3 
  289000   0.80515243   -2.9528361    233.72993  0.067396173  0.070432169            2 
  290000   0.80524138   -2.9498309    234.43266  0.067365707  0.070295578            6 
  291000   0.79278459   -2.9557736    234.38381   0.06712022   0.07015715            4 
  292000   0.79912707   -2.9592042    234.60264  0.066952807  0.070018635            5 
  293000   0.81269467   -2.9680425    234.59734  0.066722794  0.069878905            3 
  294000   0.79278953   -2.9774053    234.86018  0.066570345  0.069740137            6 
  295000   0.77788704   -2.9676638    236.28127  0.066746122  0.069601784            3 
  296000   0.79729477   -2.9637618    236.78196  0.066661589  0.069466071            8 
  297000   0.79899441   -2.9938038    237.35919  0.066599098  0.069331653            4 
  298000    0.7936407   -2.9585939    238.38872  0.066663511  0.069198003            2 
  299000   0.80096557   -2.9619216    237.53483  0.066202573  0.069063518            2 
  300000   0.81008867   -3.0069008    237.90764  0.066085456  0.068929305            5 
  301000    0.7829909   -2.9641331    238.35535  0.065989853  0.068796401            3 
  302000   0.76469003   -2.9917353    239.50074  0.066087401  0.068663185            3 
  303000   0.80084857   -2.9914897    239.39417  0.065839982  0.068527699            5 
  304000   0.79453254   -2.9832293    239.80777  0.065736779  0.068392867            2 
  305000   0.78437397   -2.9926415    240.53344  0.065719518  0.068260368            2 
  306000   0.78566705   -2.9834235    240.25026  0.065427631  0.068129542            6 
  307000   0.77752806   -3.0112419    242.01708  0.065694105  0.067997474            3 
  308000   0.78198741   -3.0211508      242.271  0.065549512  0.067865388            6 
  309000   0.78235739   -2.9936084    241.69858  0.065183005    0.0677339            4 
  310000    0.7679573   -2.9992637    242.13257    0.0650894  0.067603434            3 
  311000   0.74713358    -3.033716    243.00163  0.065112977  0.067474178            5 
  312000   0.76378518   -3.0095394     243.4817  0.065032506  0.067342848            3 
  313000   0.75737517   -2.9904003     243.8904  0.064933547  0.067214277            3 
  314000   0.76434883   -3.0170714    244.18908  0.064806018  0.067086058            6 
  315000   0.75062038   -3.0253624    244.79615  0.064760886  0.066958407            5 
  316000   0.76659832   -3.0279281    244.79752  0.064556307  0.066829208           10 
  317000   0.76135871   -3.0274061    245.29431  0.064483256  0.066701697            2 
  318000   0.76703959   -3.0281089    245.32881  0.064289521  0.066574235            5 
  319000   0.76601605   -3.0307938    245.97024   0.06425555  0.066447926            3 
  320000   0.75544392    -3.062951    246.45231  0.064180288  0.066322439            5 
  321000   0.73918638   -3.0192004    247.18431  0.064170383  0.066194835            5 
  322000   0.75489564   -3.0354758    246.35429  0.063756287  0.066066177            3 
  323000   0.75552687    -3.055036    246.53903   0.06360656  0.065936333           10 
  324000   0.73605815    -3.024864    247.41074  0.063634449   0.06580717            4 
  325000    0.7445832    -3.030014    248.15728  0.063630072  0.065681729            3 
  326000   0.75150178   -3.0432486    249.14326  0.063686929  0.065556753            3 
  327000   0.75167204   -3.0475582    248.73716  0.063388675  0.065431747            5 
  328000   0.75053466   -3.0384948    249.67536   0.06343378  0.065307317           11 
  329000   0.73989783   -3.0495427    250.14397  0.063359669  0.065183801           13 
  330000    0.7453103   -3.0557092    250.33564  0.063216069  0.065059085            4 
  331000    0.7443173   -3.0493136    249.17158  0.062732019  0.064933088           11 
  332000     0.726195   -3.0493852    249.93374  0.062734372  0.064806844            4 
  333000   0.73293163   -3.0830973    250.59171  0.062710638  0.064680547            7 
  334000   0.73544839   -3.0642344    250.60165  0.062525363  0.064555357            4 
  335000   0.72869634   -3.0677911    252.04508   0.06269778   0.06443165            4 
  336000    0.7356435   -3.0762873    252.10703  0.062526545  0.064307855            7 
  337000   0.73703347   -3.0398999    252.24668   0.06237554  0.064182286            7 
  338000   0.73233791   -3.0898675    252.31515  0.062207878  0.064057892            4 
  339000   0.72673216   -3.0632443    252.98192   0.06218828  0.063932903            5 
  340000   0.73621405   -3.0624789    252.99883  0.062009516  0.063810283            4 
  341000    0.7205795   -3.0774317    252.82264  0.061784614  0.063687848            5 
  342000   0.72014788    -3.081032    253.50861  0.061771103  0.063563826            5 
  343000   0.71785011   -3.1083598    253.62614  0.061619567  0.063441533            8 
  344000   0.71863773   -3.0982634    254.91981  0.061753831  0.063318855            3 
  345000   0.71463285   -3.0947545    254.98158  0.061589754   0.06319737            9 
  346000    0.7209146   -3.0780979    255.53218   0.06154436  0.063077459            8 
  347000   0.70665654   -3.0741679    255.78237  0.061427081  0.062956352            2 
  348000   0.69821461   -3.0847457    256.77762  0.061488894  0.062834763            5 
  349000    0.7053432   -3.0834418    255.88486  0.061099538  0.062715236            8 
  350000    0.7183884   -3.1053559    256.39503  0.061046437  0.062593838            5 
  351000   0.69886052   -3.0868942    256.23158  0.060833708  0.062471565            2 
  352000   0.70955552    -3.099985    256.58126  0.060743671  0.062348305            6 
  353000   0.71010947   -3.1146224    256.72344  0.060605157  0.062225206            7 
  354000   0.69825206   -3.1186045    257.96448  0.060726102  0.062104843            6 
  355000   0.70993708   -3.1112889    257.35344  0.060411605  0.061982649            3 
  356000   0.70579318   -3.0938837    257.03402  0.060167139  0.061862447            6 
  357000   0.69258667   -3.1020028    257.86757  0.060193177  0.061739949            8 
  358000   0.68341035   -3.1274939    257.54495  0.059949941  0.061617643            8 
  359000   0.69053933   -3.0985905    258.70674  0.060052631  0.061495188            7 
  360000   0.68544555   -3.1089585    259.03326  0.059961403  0.061373279            4 
  361000    0.6945385   -3.1216242    259.45119   0.05989178  0.061250275            4 
  362000   0.67951428   -3.1274063    259.44663  0.059725283  0.061127988            5 
  363000   0.69964376   -3.1256479    259.47888  0.059568154  0.061004881            5 
  364000   0.68875861   -3.1315431    259.45419  0.059398853  0.060881634            8 
  365000   0.68196971   -3.1362618    259.64935  0.059280673  0.060760083            5 
  366000   0.68929216   -3.1488732    259.89467   0.05917456   0.06063795            8 
  367000   0.69098413    -3.144022     259.5193  0.058928089  0.060515391            5 
  368000   0.68339045     -3.13441    259.66138  0.058800132  0.060392539           16 
  369000   0.66326755   -3.1270905    261.25299  0.059000223  0.060272342            6 
  370000   0.68703699   -3.1653695    260.59497  0.058692561   0.06015112           16 
  371000   0.67304212   -3.1476247    260.77154  0.058574021  0.060029167            8 
  372000   0.66471314   -3.1474683    260.94758  0.058455998  0.059907014            3 
  373000   0.65720439   -3.1580303    261.58303  0.058441248  0.059785037            6 
  374000   0.68080302   -3.1548274    261.32696  0.058227933   0.05966277            7 
  375000   0.65698804   -3.1648009    262.78849  0.058397441  0.059541522            7 
  376000   0.66182483   -3.1633896    261.43508  0.057942172  0.059419562           15 
  377000   0.66443813   -3.1519034    261.39228  0.057779018   0.05929756            7 
  378000   0.66141595   -3.1781357    261.81118  0.057718514  0.059175025           14 
  379000   0.66449288   -3.1783406    261.47993  0.057493389  0.059051205            6 
  380000   0.66861759   -3.1588966    262.85942   0.05764461  0.058928522            5 
  381000   0.64716155   -3.1777604     262.6179  0.057440486  0.058805792            6 
  382000   0.66105037   -3.1679519    261.83278  0.057118843  0.058682077           13 
  383000   0.65008926    -3.178308    262.20467  0.057050624  0.058559122            8 
  384000   0.64874166   -3.2018197    262.68503    0.0570063  0.058435371            4 
  385000   0.65757787   -3.1806427    262.59113  0.056837908  0.058312463           10 
  386000   0.64945502   -3.1897583    262.76758  0.056728753   0.05818952            3 
  387000   0.63947112   -3.1927557    263.53278  0.056746937  0.058066291           10 
  388000   0.64851468   -3.1843097    263.48752  0.056590962  0.057943459           11 
  389000   0.63728288    -3.195571    263.29035  0.056403245  0.057819185            7 
  390000   0.64853432   -3.1712849     264.3328  0.056481368  0.057696647            3 
  391000   0.63933242   -3.2113038    263.32642  0.056122426  0.057574139            4 
  392000   0.63944121   -3.1980262    263.75397  0.056070147  0.057450516            4 
  393000   0.65136065   -3.2299875     264.3635  0.056056721  0.057326842            4 
  394000   0.66005463   -3.2347678    264.37389  0.055916644  0.057204133            7 
  395000   0.64386984   -3.2145315    264.13338  0.055724342  0.057081928            9 
  396000   0.64715618   -3.2203129     264.7424  0.055711785  0.056960268            7 
  397000   0.62720148   -3.2102789    264.65376  0.055552847  0.056838724            8 
  398000   0.63700289   -3.2356896    264.43692  0.055367865  0.056715383            7 
  399000   0.62927484   -3.2109681    264.79531   0.05530395  0.056592976            8 
  400000   0.62845236   -3.2333824    265.48063  0.055308465  0.056470406            9 
  401000   0.62308314   -3.2331428    264.63758  0.054995342  0.056347786            5 
  402000   0.63600509     -3.23367     265.3865  0.055013785  0.056225901           12 
  403000   0.63222743   -3.2143038    265.05392  0.054808504   0.05610336            9 
  404000   0.61006188   -3.2276196    266.31169  0.054932279  0.055980367           10 
  405000   0.63121789   -3.2295832     265.8115  0.054693724  0.055857682            5 
  406000   0.62065792   -3.2539301    264.69529  0.054329903  0.055734471           14 
  407000   0.61648346   -3.2370802    266.46861  0.054559503  0.055611652           11 
  408000   0.60469453   -3.2380147    265.99095  0.054328217  0.055488713            3 
  409000   0.61200107   -3.2480708    265.38491  0.054071906  0.055365947            7 
  410000   0.61268973   -3.2624558    265.70295  0.054004665  0.055243008            4 
  411000   0.60836033   -3.2666088    265.67266  0.053867125  0.055121178           15 
  412000    0.6063951   -3.2602129    266.41568  0.053886667   0.05499865            9 
  413000   0.58980809    -3.227781    267.46908  0.053968742  0.054876828            4 
  414000   0.61914072   -3.2543625    266.07887  0.053558549  0.054754875            3 
  415000   0.60280705   -3.2611178    266.43315  0.053500632  0.054632878           10 
  416000   0.61047202   -3.2824768    266.90967  0.053467482  0.054510887            6 
  417000   0.59329979   -3.2820556    266.35528  0.053228473  0.054388451            7 
  418000   0.59869292   -3.2823087    266.19537  0.053069252   0.05426612           10 
  419000   0.60097343   -3.2718267     267.2225  0.053146878  0.054144434            9 
  420000   0.59200789   -3.2903986    266.70049  0.052916764  0.054022691           13 
  421000   0.59504102   -3.2703757    267.06904  0.052864022   0.05390075           11 
  422000   0.58419309   -3.2982084    266.76874  0.052679452  0.053778245            7 
  423000   0.59018602   -3.2726787    267.00635  0.052601724  0.053655412            7 
  424000   0.58782952   -3.2863318    267.29873  0.052535127  0.053533951           10 
  425000   0.60414033   -3.2804612    267.61376  0.052473286  0.053412288            6 
  426000   0.60403096   -3.2854593    267.27015  0.052282893   0.05329126            8 
  427000    0.5770379   -3.3022805    266.92387  0.052092871  0.053169809            9 
  428000   0.58370471   -3.2971085    267.96955  0.052174757  0.053048744           15 
  429000    0.5773974   -3.3090486    267.97536  0.052054266  0.052929081            7 
  430000   0.57501129   -3.3001141    268.49349  0.052033622  0.052809438           25 
  431000   0.57290796   -3.3069344    267.70464   0.05176037  0.052690189            7 
  432000   0.57013127   -3.2899947    268.81664  0.051855062  0.052571233           14 
  433000   0.57788551   -3.2973856    268.78372  0.051728969  0.052452706            9 
  434000   0.58392046   -3.3129827    269.22289  0.051694103   0.05233385            6 
  435000   0.56091953   -3.3313567     268.5503  0.051446417  0.052215343           11 
  436000   0.55012127   -3.3048451     268.8183  0.051379645  0.052097229            8 
  437000   0.56150551   -3.3169167    268.31639  0.051166359   0.05197851            9 
  438000   0.55942218   -3.3066959     269.1623  0.051210483  0.051859886           11 
  439000   0.55982039   -3.3267179    268.70139  0.051006337  0.051741835           19 
  440000   0.57258315   -3.3203426    268.77089  0.050903578  0.051623181           10 
  441000   0.56294177   -3.3381802    268.43541  0.050724757  0.051504327            7 
  442000   0.55102333   -3.3315791    268.81193  0.050680983  0.051385723            7 
  443000   0.56370268   -3.3354437    268.28296  0.050467073  0.051265987           15 
  444000   0.55392389   -3.3433428    268.30362  0.050357285   0.05114641            5 
  445000   0.55336595   -3.3288329     267.6239  0.050116835  0.051026948           10 
  446000   0.55938057   -3.3457034    268.77769  0.050220047  0.050908021           10 
  447000   0.55403471   -3.3384867    268.70173  0.050093536   0.05078987            6 
  448000   0.55385604   -3.3343738    268.09331  0.049868546   0.05067121           13 
  449000    0.5552715   -3.3431587    267.95704   0.04973219  0.050552345            7 
  450000   0.54420786   -3.3555187    268.39803  0.049703338   0.05043382            9 
  451000   0.54903508   -3.3583522    268.78906  0.049665384  0.050316102           10 
  452000   0.54842869   -3.3516804    268.60789  0.049522104  0.050198265           10 
  453000   0.54329085   -3.3557079    269.19475  0.049520742  0.050080965            8 
  454000   0.54542003   -3.3753532     269.6371  0.049492859  0.049964153           19 
  455000   0.53411414    -3.377009    270.16933  0.049481562  0.049847827           10 
  456000   0.54000058   -3.3592812    269.64439  0.049277119  0.049732665           14 
  457000    0.5440787   -3.3763715    269.65936   0.04917202  0.049617389           10 
  458000   0.53288022   -3.3767768    270.31509  0.049183968  0.049502593            6 
  459000   0.53297756   -3.3763012    270.13653  0.049044395  0.049388942            8 
  460000   0.52996171   -3.3780286    270.02554   0.04891767  0.049275552            6 
  461000   0.53680275   -3.3793772    269.87583  0.048784495  0.049162503            9 
  462000   0.53019171   -3.3822807    270.65116  0.048818753  0.049049868           11 
  463000   0.52114797   -3.3811801    270.75729  0.048732414  0.048937702            5 
  464000   0.52316467   -3.3864147    271.09199  0.048687499    0.0488253           10 
  465000    0.5201433   -3.3771967    270.94565  0.048556567  0.048713942           17 
  466000   0.52553369   -3.4078977    271.19464  0.048496896  0.048602612           34 
  467000   0.52888435   -3.3863471    270.83034  0.048328041   0.04849151            9 
  468000   0.52559197   -3.3971621    270.98356  0.048252058  0.048381131           13 
  469000   0.51475431   -3.3886074    271.16169  0.048180827  0.048270788           14 
  470000   0.51198072   -3.4015521    271.53102  0.048143798  0.048160187           19 
  471000   0.50812152   -3.4180694    270.74609  0.047902704  0.048049155           26 
  472000   0.51813795   -3.4061217     271.4255  0.047921168  0.047938469           25 
  473000   0.51068558   -3.4162784    271.51202  0.047835099  0.047827764           13 
  474000   0.50812273   -3.4270392    271.41878  0.047717789  0.047717012           16 
  475000   0.51239808    -3.421822    271.36432  0.047607776  0.047605932           14 
  476000   0.51815689   -3.4223095    271.11855  0.047464733  0.047495875           11 
  477000   0.50483168   -3.4222156    271.63185    0.0474549   0.04738637           14 
  478000   0.50386365   -3.4073816    272.35231  0.047481225  0.047277819           24 
  479000   0.50735056   -3.4383616    271.82181  0.047289806  0.047168814           11 
  480000   0.50520915   -3.4376488    271.93156   0.04721034  0.047060142           14 
  481000   0.49171568   -3.4307606    271.87146  0.047101778  0.046951238           11 
  482000   0.49635301   -3.4418439    271.18253  0.046884946  0.046842521           25 
  483000   0.50709735    -3.452559    271.59266  0.046858637  0.046733326           25 
  484000   0.49574982    -3.434814    271.40138  0.046728888  0.046624295           13 
  485000   0.49311511   -3.4413975     271.9796  0.046731889  0.046516038           15 
  486000   0.49363137   -3.4604798    271.18615  0.046499682  0.046408115           16 
  487000   0.49049872   -3.4575331    272.05834  0.046553446  0.046300233           14 
  488000   0.48227691   -3.4609849    271.67543  0.046392661  0.046192135           11 
  489000    0.4863882    -3.468887    271.46536  0.046261991  0.046083719           18 
  490000   0.47933775   -3.4432061    271.75823  0.046217386   0.04597584            9 
  491000   0.48783062   -3.4594527    272.03475  0.046170188  0.045868632           15 
  492000   0.47607143   -3.4490791    271.45803  0.045978663  0.045761158            6 
  493000   0.48653426   -3.4753183    271.80992  0.045944881  0.045654111           20 
  494000   0.46796433   -3.4705397     272.0574  0.045893624  0.045547318           31 
  495000   0.47262224   -3.4790989    271.87834  0.045770764   0.04544052           27 
  496000   0.47965667   -3.4889675    271.85394  0.045674385  0.045333851           27 
  497000   0.46667861   -3.4717252    271.94105  0.045597091  0.045227576           16 
  498000   0.46878565   -3.4791871    271.08191  0.045361765  0.045121215           32 
  499000   0.46484239   -3.4887329    271.67773  0.045370363   0.04501472           16 
  500000   0.47067032   -3.4969345     271.1298  0.045188301  0.044907293           20 
  501000   0.45956101   -3.5104914    271.26835  0.045121149  0.044799949           36 
  502000   0.47012962   -3.5037014    271.21492  0.045022396  0.044693039           18 
  503000   0.46395588   -3.4995955    270.35282  0.044790063  0.044586189           16 
  504000   0.46027201   -3.4977921    270.65117  0.044750524  0.044479677           12 
  505000   0.45933899   -3.5079246    270.91896  0.044706099   0.04437321           17 
  506000   0.46226716   -3.4981737    271.01747  0.044633971  0.044266962           24 
  507000   0.46097016   -3.5292572    271.00694  0.044544204  0.044160583           89 
  508000   0.45329426   -3.5126799    271.23883  0.044494559  0.044054305           91 
  509000   0.45303275   -3.5340447    271.26695  0.044411747  0.043948324           33 
  510000   0.45818999   -3.5470156    271.15839  0.044306927  0.043842198           61 
  511000   0.45239958   -3.5251677    271.08485  0.044208227  0.043736502           26 
  512000   0.45022257   -3.5337327    270.98693  0.044105946  0.043631286           35 
Loop time of 1204.16 on 48 procs for 500000 steps with 4000 atoms

Performance: 71751.140 tau/day, 415.227 timesteps/s
99.4% CPU use with 48 MPI tasks x no OpenMP threads

MPI task timing breakdown:
Section |  min time  |  avg time  |  max time  |%varavg| %total
---------------------------------------------------------------
Pair    | 77.491     | 83.047     | 90.045     |  31.3 |  6.90
Neigh   | 8.0663     | 8.4323     | 8.8521     |   6.9 |  0.70
Comm    | 76.898     | 83.123     | 89.564     |  33.5 |  6.90
Output  | 0.87481    | 0.87538    | 0.88473    |   0.1 |  0.07
Modify  | 1014.6     | 1018.2     | 1020.4     |   3.4 | 84.56
Other   |            | 10.46      |            |       |  0.87

Nlocal:        83.3333 ave          89 max          77 min
Histogram: 3 3 3 4 6 13 5 1 4 6
Nghost:        2178.98 ave        2207 max        2161 min
Histogram: 3 3 7 14 12 2 5 0 1 1
Neighs:        14394.7 ave       15898 max       13028 min
Histogram: 2 5 6 7 4 11 3 7 0 3
FullNghs:      28789.2 ave       30938 max       26616 min
Histogram: 3 3 3 7 8 8 5 3 5 3

Total # of neighbors = 1381882
Ave neighs/atom = 345.47050
Neighbor list builds = 27130
Dangerous builds = 0

#clear
#
#next RN
#
#jump SELF
Total wall time: 0:20:07
