
units lj                  # Use reduced LJ style units
atom_style atomic         # Uncharged point particles
atom_modify map hash      # Needed for indexing of clusters etc
                          # Used to be able to find where atoms are in relation to each other.

lattice fcc 1.0 spacing 1 1 1
Lattice spacing in x,y,z = 1.5874011 1.5874011 1.5874011
region box block 0 10 0 10 0 10 units lattice
create_box 2 box
Created orthogonal box = (0.0000000 0.0000000 0.0000000) to (15.874011 15.874011 15.874011)
  3 by 4 by 4 MPI processor grid
create_atoms 1 box
Created 4000 atoms
  using lattice units in orthogonal box = (0.0000000 0.0000000 0.0000000) to (15.874011 15.874011 15.874011)
  create_atoms CPU = 0.002 seconds
set type 1 type/fraction 2 0.57 78393
Setting atom values ...
  2292 settings made for type/fraction
mass 1 1.0
mass 2 1.0
pair_style lj/cut  3.5
pair_modify tail  yes
pair_coeff 1  1  1.0  1.0   # Intearaction between 1 and 1 set with epsilon = 1 and sigma = 1
pair_coeff 1  2  1.5  0.8
pair_coeff 2  2  0.5  0.88

write_data data.0
System init for write_data ...
Neighbor list info ...
  update every 1 steps, delay 10 steps, check yes
  max neighbors/atom: 2000, page size: 100000
  master list distance cutoff = 3.8
  ghost atom cutoff = 3.8
  binsize = 1.9, bins = 9 9 9
  1 neighbor lists, perpetual/occasional/extra = 1 0 0
  (1) pair lj/cut, perpetual
      attributes: half, newton on
      pair build: half/bin/atomonly/newton
      stencil: half/bin/3d
      bin: standard
WARNING: Not all mixed pair coeffs generated from mixing. Use write_data with 'pair ij' option to store all pair coeffs. (../write_data.cpp:312)


#############################
#   M E L T   S Y S T E M   #
#############################

velocity all create 2.4 8172548 mom yes dist gaussian # Assign velocities
                                                    # Temperature 2.4, random number seed, zero linear momentum
                                                                                # Gaussian distribution

timestep 0.002   # simulation timestep
thermo 1000       # output thermodynamic data every 1000 steps bf 100

# Define a fix  in this case with index 1 applied to all
# particles in the simulation. This fix is for simulations
# in the anisotropic NPT ensemble. Note that we use the MTK
# correction.
fix 1 all npt temp 2.4 2.4 0.1 iso 5.68 5.68 0.5 mtk yes tchain 5 pchain 5 # Use NPT ensemble
                                                                         # Set temperature and pressure and damping
                                                                         # Numbers of thermostats in chain and in barostat
run 10000          # run for 10000 steps
Per MPI rank memory allocation (min/avg/max) = 3.642 | 3.644 | 3.648 Mbytes
Step Temp E_pair E_mol TotEng Press Volume 
       0          2.4   -4.8904957            0   -1.2913957   -4.1230707         4000 
    1000    2.4146781    -4.612635            0  -0.99152342    5.7868476    3625.6419 
    2000    2.4453147   -4.5858087            0  -0.91875366    5.6590318    3650.2153 
    3000    2.3885796    -4.630442            0   -1.0484683    6.0044176    3586.1254 
    4000    2.3958262   -4.5952527            0   -1.0024119      5.34715    3664.5385 
    5000    2.3934585   -4.5688867            0  -0.97959648    5.7279491    3652.0329 
    6000    2.4520651   -4.6589525            0  -0.98177437    5.6230445     3615.915 
    7000    2.3955166   -4.6984301            0   -1.1060535    5.7669454    3581.0397 
    8000    2.3686379   -4.5822863            0   -1.0302176     5.587591    3642.8527 
    9000    2.3869166   -4.6503455            0   -1.0708658    5.8152499    3599.4394 
   10000    2.3911271   -4.6777123            0   -1.0919184    5.5560066    3603.6152 
Loop time of 2.66167 on 48 procs for 10000 steps with 4000 atoms

Performance: 649216.288 tau/day, 3757.039 timesteps/s
99.6% CPU use with 48 MPI tasks x no OpenMP threads

MPI task timing breakdown:
Section |  min time  |  avg time  |  max time  |%varavg| %total
---------------------------------------------------------------
Pair    | 1.2092     | 1.2773     | 1.3536     |   2.6 | 47.99
Neigh   | 0.21831    | 0.22646    | 0.23836    |   0.8 |  8.51
Comm    | 0.81016    | 0.89538    | 0.98404    |   3.5 | 33.64
Output  | 0.00025093 | 0.00025566 | 0.00032707 |   0.0 |  0.01
Modify  | 0.21766    | 0.24647    | 0.27814    |   3.5 |  9.26
Other   |            | 0.01581    |            |       |  0.59

Nlocal:        83.3333 ave          97 max          73 min
Histogram: 1 7 8 5 7 8 7 4 0 1
Nghost:        1767.48 ave        1787 max        1725 min
Histogram: 1 0 0 1 3 6 14 11 8 4
Neighs:        10592.2 ave       12488 max        9326 min
Histogram: 7 4 6 5 10 4 8 2 1 1

Total # of neighbors = 508427
Ave neighs/atom = 127.10675
Neighbor list builds = 907
Dangerous builds = 207

# Equilibrate just above the melting temperature to avoid step fn in T

fix 1 all npt temp 1.25 1.25 0.1 iso 5.68 5.68 0.5 mtk yes tchain 5 pchain 5
run 2000
Per MPI rank memory allocation (min/avg/max) = 3.644 | 3.646 | 3.650 Mbytes
Step Temp E_pair E_mol TotEng Press Volume 
   10000    2.3911271   -4.6777123            0   -1.0919184    5.5560066    3603.6152 
   11000    1.2344685   -6.6958119            0    -4.844572    5.9082163    2791.5454 
   12000    1.2445582   -6.8447591            0   -4.9783884    5.6222035    2760.7037 
Loop time of 0.660597 on 48 procs for 2000 steps with 4000 atoms

Performance: 523162.823 tau/day, 3027.563 timesteps/s
99.7% CPU use with 48 MPI tasks x no OpenMP threads

MPI task timing breakdown:
Section |  min time  |  avg time  |  max time  |%varavg| %total
---------------------------------------------------------------
Pair    | 0.29437    | 0.32688    | 0.35925    |   2.4 | 49.48
Neigh   | 0.040918   | 0.044424   | 0.048419   |   0.7 |  6.72
Comm    | 0.2065     | 0.23765    | 0.27384    |   3.3 | 35.97
Output  | 5.3495e-05 | 5.5115e-05 | 7.3438e-05 |   0.0 |  0.01
Modify  | 0.039885   | 0.046557   | 0.051925   |   1.7 |  7.05
Other   |            | 0.005034   |            |       |  0.76

Nlocal:        83.3333 ave          89 max          77 min
Histogram: 4 2 5 5 3 12 1 8 3 5
Nghost:        2106.98 ave        2137 max        2083 min
Histogram: 5 4 4 11 7 4 3 5 3 2
Neighs:        13817.2 ave       15395 max       12499 min
Histogram: 4 4 6 5 8 7 6 3 3 2

Total # of neighbors = 663225
Ave neighs/atom = 165.80625
Neighbor list builds = 143
Dangerous builds = 9

#############################
# L I N E A R  Q U E N C H  #
#############################

# Define solid atoms. This closely follows ten Wolde  Ruiz-Montero and Frenkel  Faraday Discuss  1996  104  93-110
# Compute components of the per-atom q6 vector
compute q6 all orientorder/atom degrees 1 6 components 6 nnn NULL cutoff 1.3 # compute the Q6 parameter.
                                                                             # Use all neighbours within 1.3 unit cell.

# get number of connections
compute coord_number all coord/atom orientorder q6 0.5

# An atom is solid if it has 8 or more connections (of a possible 14)
variable is_solid atom c_coord_number>=8
group solid dynamic all var is_solid    # Must be dynamic to update
dynamic group solid defined

# do clustering
compute cluster solid cluster/atom 1.3 # Create a cluster where all atoms within are solid and max 1.3 units from another member

# define chunks one chunk per cluster
compute clus_chunks solid chunk/atom c_cluster nchunk every compress yes  # Says which atoms are in which chunk

# count the size of each chunk
compute size_chunks solid property/chunk clus_chunks count


# Find the maximum entry in the vector of chunk sizes
variable max_n equal max(c_size_chunks)


# Thermo style which includes this variable
# thermo_style custom step temp pe vol v_max_n

thermo ${N}  # Print the thermo information every 100 steps
thermo 1000  

# Reset the npt fix at a lower temperature (below freezing)
fix 1  all npt temp  ${temp} ${temp}  0.1  iso  5.68  5.68  0.5  mtk yes tchain  5  pchain  5
fix 1  all npt temp  0.45 ${temp}  0.1  iso  5.68  5.68  0.5  mtk yes tchain  5  pchain  5
fix 1  all npt temp  0.45 0.45  0.1  iso  5.68  5.68  0.5  mtk yes tchain  5  pchain  5

dump dmp2 all dcd ${N} traj.dcd
dump dmp2 all dcd 1000 traj.dcd


compute msd all msd com yes
variable twopoint equal c_msd[4]/6/(step*dt+1.0e-6)
fix 9 all vector 10 c_msd[4]
variable fit equal slope(f_9)/6/(10*dt)
thermo_style custom step temp pe c_msd[4] v_twopoint v_fit v_max_n

fix 1 all npt temp 1.25 ${temp} 0.1 iso 5.68 5.68 0.5 mtk yes tchain 5 pchain 5
fix 1 all npt temp 1.25 0.45 0.1 iso 5.68 5.68 0.5 mtk yes tchain 5 pchain 5
run 500000 # 5000000  # Run for this many steps
Neighbor list info ...
  update every 1 steps, delay 10 steps, check yes
  max neighbors/atom: 2000, page size: 100000
  master list distance cutoff = 3.8
  ghost atom cutoff = 3.8
  binsize = 1.9, bins = 8 8 8
  4 neighbor lists, perpetual/occasional/extra = 1 3 0
  (1) pair lj/cut, perpetual
      attributes: half, newton on
      pair build: half/bin/atomonly/newton
      stencil: half/bin/3d
      bin: standard
  (2) compute orientorder/atom, occasional
      attributes: full, newton on
      pair build: full/bin/atomonly
      stencil: full/bin/3d
      bin: standard
  (3) compute coord/atom, occasional
      attributes: full, newton on
      pair build: full/bin/atomonly
      stencil: full/bin/3d
      bin: standard
  (4) compute cluster/atom, occasional
      attributes: full, newton on
      pair build: full/bin/atomonly
      stencil: full/bin/3d
      bin: standard
Per MPI rank memory allocation (min/avg/max) = 9.845 | 9.851 | 9.857 Mbytes
Step Temp PotEng c_msd[4] v_twopoint v_fit v_max_n 
   12000    1.2445582   -6.8447591 9.8725942e-31 6.8559679e-33 8.3333333e+20            2 
   13000    1.2724894   -6.8217393   0.47740977 0.0030603189  0.039271396            3 
   14000    1.2479455    -6.782681   0.88931412 0.0052935363  0.035886449            3 
   15000    1.2221405   -6.8568545    1.3050838 0.0072504653  0.035275183            3 
   16000    1.2536696   -6.8885293    1.7508664 0.0091190956   0.03539851            4 
   17000     1.249512    -6.875896    2.1544701  0.010561127   0.03526037            2 
   18000    1.2504545   -6.8583346    2.5591583  0.011847955  0.035155948            2 
   19000    1.2338722    -6.883397    2.9732532  0.013040584  0.034970363            2 
   20000    1.2285727   -6.8559373    3.3854582  0.014106075  0.034833321            2 
   21000    1.2538011   -6.8302509     3.778448  0.014993841  0.034774839            8 
   22000    1.2195124   -6.8389914    4.1620876  0.015765483  0.034517666            1 
   23000    1.2475363    -6.897166    4.5349699   0.01643105  0.034235963            1 
   24000    1.2491306   -6.8840769    4.9371442  0.017142862  0.033989951            2 
   25000    1.2131875   -6.8709792    5.2850436  0.017616812  0.033776398            2 
   26000    1.2160339   -6.8910962    5.6535726  0.018120425  0.033459273            2 
   27000    1.2326799   -6.8842225    6.1005174  0.018828757  0.033362393            4 
   28000    1.2427372   -6.8816897    6.4760867  0.019274067  0.033322781            2 
   29000    1.2264865   -6.8911697    6.8922371  0.019805279  0.033271605            3 
   30000    1.2197365   -6.9008558    7.3469097  0.020408082  0.033239896            3 
   31000    1.2350016   -6.9431987    7.7809738  0.020916596  0.033337978            2 
   32000    1.2050955   -6.9239466    8.1815014  0.021305993  0.033414183            1 
   33000    1.1652666   -6.9203585    8.5350173  0.021553074  0.033433752            4 
   34000     1.212126   -6.9083472    8.9131963  0.021846069  0.033422674            4 
   35000    1.1927595   -6.9137633    9.4226448  0.022434868  0.033409387            2 
   36000    1.2119702   -6.9363041    9.8085567  0.022704992  0.033482767            2 
   37000    1.2067982   -6.8889998    10.272516  0.023136298   0.03355665            2 
   38000    1.2276335   -6.9439974    10.610145  0.023267861  0.033610315            3 
   39000    1.1894867   -6.9346148    11.054163  0.023620005    0.0336068            2 
   40000      1.18868   -6.9247589    11.432111  0.023816897  0.033636067            1 
   41000    1.1862894   -6.9297885    11.844519  0.024074226  0.033663348            1 
   42000    1.2163833    -6.987154      12.1277  0.024062896  0.033653597            2 
   43000    1.1774806   -6.9599527    12.571395  0.024363169  0.033636361            2 
   44000     1.239946   -6.9659677    12.874274  0.024383095  0.033598692            2 
   45000    1.1863698   -6.9662054      13.2485   0.02453426  0.033521471            2 
   46000    1.1952453    -6.973179    13.535377   0.02452061  0.033422872            6 
   47000    1.1763995   -6.9560583    13.880118  0.024610138  0.033325878            3 
   48000    1.2223456    -7.022878    14.119232  0.024512555   0.03320038            4 
   49000    1.1675435   -7.0113058    14.567781  0.024775137  0.033076755            4 
   50000    1.1848713   -6.9914233    14.882926  0.024804877  0.032952193            2 
   51000    1.1762517   -6.9814131    15.243738  0.024908069  0.032847821            3 
   52000    1.1840595   -6.9339504    15.529924  0.024887699  0.032730848            2 
   53000    1.2100002   -6.9570062    15.956239  0.025088427  0.032626596            2 
   54000    1.1720723   -6.9407754    16.457682  0.025397657  0.032546767            2 
   55000    1.1757126   -6.9739112    16.732301  0.025351971  0.032484135            4 
   56000    1.1714149   -6.9975424    17.074738  0.025408836  0.032405221            1 
   57000    1.1720068   -7.0391023    17.264232  0.025240105  0.032298718            4 
   58000    1.1767199   -7.0033464    17.750608  0.025503747  0.032210689            2 
   59000    1.1794914   -7.0047711    18.059853  0.025508267  0.032134176            4 
   60000     1.160067   -7.0046407    18.363881   0.02550539  0.032038317            2 
   61000    1.1690337   -7.0505159    18.642105  0.025467356  0.031933577            4 
   62000    1.1896547   -7.0813703      19.0425  0.025594757  0.031835731            2 
   63000    1.1698228   -7.0339396    19.300013  0.025529117   0.03174838            1 
   64000    1.1542724   -7.0903488    19.600405  0.025521361  0.031649196            2 
   65000    1.1755702   -7.0647009    20.025945  0.025674289  0.031555713            4 
   66000    1.1868928   -7.0462711    20.327339  0.025665832  0.031460218            3 
   67000    1.1893063   -7.0374115    20.608782  0.025632814  0.031365903            2 
   68000    1.1684795   -7.0669196    20.822708  0.025518025  0.031261909            3 
   69000    1.1488214   -7.0702367    20.998601  0.025360629  0.031141054            2 
   70000    1.1738701   -7.0645574    21.320697  0.025381781  0.031015969            2 
   71000      1.14725   -7.0513569     21.67867  0.025444448  0.030892222            2 
   72000    1.1420206   -7.0837704    21.949541  0.025404561  0.030777091            8 
   73000    1.1584513   -7.0355984    22.276094  0.025429331  0.030654359            3 
   74000    1.1209211   -7.0926757     22.55439  0.025399088  0.030534818            2 
   75000    1.1624596   -7.1170773    22.918031  0.025464479  0.030435435            2 
   76000    1.1284609   -7.0670883    23.291399  0.025538815  0.030347056            9 
   77000    1.1557788   -7.1162263     23.70449   0.02565421  0.030259728            3 
   78000    1.1169251   -7.0983262    23.974494  0.025613775  0.030182413            2 
   79000    1.1292486   -7.1108408    24.148939  0.025473564  0.030092313            4 
   80000    1.1432017   -7.0876702    24.459408  0.025478549  0.029998283            2 
   81000    1.1545586   -7.1207552    24.659957  0.025370326  0.029901632            2 
   82000    1.1373675   -7.0304538    25.077589  0.025485355  0.029801141            2 
   83000     1.163623   -7.1610099     25.09981  0.025200613   0.02970454            2 
   84000    1.1286038   -7.1348066    25.445257  0.025243311  0.029602797            2 
   85000    1.1353256   -7.1516611    25.644854  0.025142014  0.029498499            1 
   86000    1.1407374   -7.1737132    25.947565  0.025142989  0.029398332            3 
   87000    1.1144844   -7.1658236    26.244532  0.025138441  0.029298101            1 
   88000    1.1335383   -7.1293486    26.492042  0.025087161  0.029197127            2 
   89000    1.1366528   -7.1563989    26.849151  0.025139655  0.029105806            8 
   90000    1.1299923   -7.1349988    26.967214  0.024969643  0.029006882            1 
   91000     1.142772   -7.1516465    27.291997  0.024992671  0.028906051            3 
   92000    1.1356478   -7.1777578    27.557113  0.024961153  0.028808951            5 
   93000    1.1127586   -7.1811385    27.832693  0.024939689  0.028709652            2 
   94000    1.1424873    -7.176669    28.161267  0.024965662  0.028615066            2 
   95000    1.1346333   -7.1891025    28.492664  0.024993564  0.028523693            2 
   96000    1.1224751   -7.1966389    28.894224  0.025081791  0.028436942            2 
   97000    1.1024972   -7.2021779    29.077516  0.024980684  0.028352919            4 
   98000    1.1180092   -7.2143821    29.429249  0.025024872  0.028272437            3 
   99000    1.1123257   -7.1981966    29.591574  0.024908732  0.028197209            4 
  100000    1.1205567   -7.2135029    29.779054  0.024815878  0.028118252            3 
  101000    1.1094558   -7.1703675     30.18808  0.024907657  0.028035343            5 
  102000    1.1368294   -7.1941735    30.383985  0.024823517  0.027954562            5 
  103000    1.1328435   -7.1916678    30.858294  0.024966257  0.027882583            3 
  104000    1.1491145   -7.1925899    31.242542  0.025034088  0.027819101            3 
  105000    1.0996376    -7.244916    31.326129  0.024862007  0.027751924            5 
  106000    1.0864372   -7.2422352    31.442208  0.024718717  0.027681887            4 
  107000    1.1134214   -7.2618361    31.850918  0.024806011  0.027612099            4 
  108000    1.1089743   -7.2363721    32.385747  0.024989002  0.027548644            4 
  109000      1.07497   -7.2569594    32.634106  0.024949622  0.027492885            5 
  110000    1.0895992   -7.2362407    32.823976  0.024866649  0.027435079            6 
  111000    1.0944451   -7.2689478    33.091874  0.024843749  0.027383165            3 
  112000    1.1003956   -7.2708695     33.51737  0.024938519  0.027331469            3 
  113000     1.058704   -7.2274131    33.804727  0.024929739  0.027281926            3 
  114000     1.072995   -7.2382575    34.002145  0.024855369   0.02722921            3 
  115000    1.0665279   -7.2739755    34.212367   0.02479157  0.027175694            8 
  116000    1.0767115   -7.2774307    34.341945  0.024670937  0.027123308            3 
  117000    1.0831482   -7.2636011     34.84604  0.024819117  0.027070547            5 
  118000    1.0590699   -7.2608752    34.990335  0.024710689   0.02701642            2 
  119000    1.0962742   -7.2853143    35.066906  0.024556657  0.026959282            4 
  120000    1.0774559   -7.2918319    35.419021  0.024596543  0.026902857            8 
  121000    1.0699272   -7.3499895    35.464597  0.024424654  0.026844377            3 
  122000    1.0727884   -7.2990717    35.597659  0.024315341  0.026781634            2 
  123000    1.0637736   -7.2714117    35.913927  0.024331929  0.026713572            4 
  124000    1.0579923   -7.2960442    36.045041  0.024223818  0.026645778            3 
  125000    1.0801011   -7.3383524    36.258966  0.024172644  0.026578006            2 
  126000    1.0636684   -7.3406848    36.512375  0.024148396  0.026510215            3 
  127000     1.066439   -7.3029389    36.633336  0.024037622  0.026439426            2 
  128000    1.0625953   -7.3088063    36.776139  0.023942799  0.026366741            3 
  129000    1.0693746   -7.2926293    36.976231  0.023886454  0.026291126            4 
  130000    1.0632711   -7.3253702    37.112296  0.023789933  0.026212688            3 
  131000    1.0434911   -7.3038414    37.149061  0.023631718  0.026131039            3 
  132000    1.0777793   -7.3675022    37.264257  0.023525415  0.026047368            5 
  133000    1.0633321   -7.3463383    37.480204  0.023483837  0.025961902            3 
  134000    1.0660353    -7.367786    37.619178  0.023395011  0.025873579            3 
  135000    1.0626019   -7.3519558    37.785809  0.023324573  0.025785396            4 
  136000    1.0474933    -7.386594    37.958892  0.023259125  0.025696774            2 
  137000    1.0463419   -7.3642749    38.184515   0.02322659  0.025607182            1 
  138000    1.0480346   -7.3895179    38.285144  0.023119048  0.025517265            4 
  139000    1.0663156   -7.3260094    38.529557  0.023099255  0.025431037            2 
  140000    1.0421605   -7.4002926    38.618498  0.022987201  0.025341083            5 
  141000    1.0473906   -7.3587923    38.877336  0.022977149  0.025255271            7 
  142000    1.0160576    -7.392513    38.878865  0.022816235  0.025167399            4 
  143000    1.0542339   -7.3709467    39.229652  0.022861103  0.025079056            1 
  144000    1.0770768   -7.3992708    39.352684  0.022773544  0.024993305            2 
  145000    1.0516628   -7.3694881    39.413637  0.022651515  0.024905565            4 
  146000    1.0377254   -7.3913596    39.556171  0.022577723  0.024815824            3 
  147000    1.0376139   -7.4331772    39.821968  0.022574812  0.024726747            8 
  148000     1.032629   -7.4286134     40.10995  0.022584431  0.024640651            4 
  149000    1.0265589   -7.3774549    40.108786  0.022432207  0.024554609            3 
  150000    1.0352301   -7.4565229    40.289256   0.02238292  0.024469387            2 
  151000    1.0293802    -7.414373    40.455956  0.022326686   0.02438279            4 
  152000    1.0364459   -7.4218206    40.620151  0.022269819  0.024295972            1 
  153000    1.0150294   -7.4296113    40.563199  0.022093245   0.02420791            2 
  154000    1.0090432   -7.4492582    40.681379  0.022013733  0.024118138            5 
  155000    1.0434063   -7.4989664    40.841407  0.021957746  0.024030965           11 
  156000    1.0104864   -7.4622854    41.056468  0.021931874   0.02394276            6 
  157000    1.0131999   -7.4373607    41.132204   0.02183238  0.023853439            8 
  158000    1.0126454    -7.481065    41.197104   0.02172843  0.023761926            2 
  159000    1.0116751   -7.4705743     41.33373   0.02166338  0.023670145            6 
  160000    1.0483544   -7.4582454     41.57963  0.021656057  0.023579263            3 
  161000    1.0229766    -7.447088    41.874626  0.021674237  0.023491515            2 
  162000    1.0121726   -7.4651217    41.993886  0.021601793  0.023406114            3 
  163000    1.0116008   -7.4445962    42.308195  0.021629956  0.023322591           15 
  164000    1.0009916   -7.4897131    42.400714  0.021545078  0.023240292            3 
  165000    1.0206591   -7.4984639    42.553049  0.021491439  0.023159306            5 
  166000    1.0113141    -7.495975    42.705041  0.021438273  0.023077475            3 
  167000    0.9964699   -7.5321966    42.639252  0.021277072  0.022994619            7 
  168000   0.99736486   -7.5092347    42.891594  0.021275592  0.022911717            2 
  169000    1.0147335   -7.5268153    42.958643  0.021182763  0.022827044            5 
  170000    1.0034323   -7.5334775    43.122103  0.021138286  0.022744621            4 
  171000   0.98185272   -7.5431886     43.24548  0.021074795  0.022663168            7 
  172000   0.98885518   -7.5143153    43.462545  0.021057435  0.022580919            4 
  173000    1.0015791   -7.5378924    43.643393  0.021022829   0.02250179            2 
  174000   0.99062037   -7.5454913    43.672154  0.020915783  0.022422702            4 
  175000   0.98320359   -7.5294029    43.862445  0.020886879  0.022343989            4 
  176000   0.98794084   -7.5084232    43.964092  0.020816332  0.022265263            9 
  177000   0.99550525   -7.5732234    44.054246   0.02074117  0.022185731            5 
  178000   0.98319778   -7.5542536    44.188635  0.020687563  0.022106408            5 
  179000   0.98793969   -7.5576215    44.107821  0.020534367   0.02202658            3 
  180000   0.97619219   -7.5812008    44.220846  0.020472614  0.021945534            3 
  181000    0.9594414   -7.6095127    44.332363  0.020410848  0.021865342            3 
  182000    1.0038319   -7.5484478    44.492752  0.020372139  0.021783109            5 
  183000   0.98783462   -7.5473239    44.557332  0.020290224   0.02170053            4 
  184000   0.98710306   -7.5787146    44.689814  0.020239952  0.021618484            4 
  185000   0.94050482   -7.5926094    44.842112   0.02019915  0.021537645            6 
  186000   0.97940425   -7.5629128    44.833719  0.020086792  0.021457052            5 
  187000   0.97648178   -7.5943463     45.02859  0.020066217  0.021377505            5 
  188000   0.96485947   -7.6152772    44.995386  0.019944763  0.021296675            8 
  189000   0.97290885   -7.5944399    45.125213  0.019896478  0.021215334            8 
  190000   0.95449404   -7.6234137    45.049736  0.019758656  0.021133703            2 
  191000   0.94778757   -7.6455684    45.070171  0.019664123  0.021050714            5 
  192000   0.97985259   -7.6168251    45.443827  0.019723883  0.020969271            4 
  193000   0.98208179   -7.6197561    45.389632  0.019598287  0.020889828            5 
  194000   0.96683211   -7.6226624    45.610542  0.019592157   0.02081033            5 
  195000   0.96353916   -7.6196088    45.829682  0.019585334  0.020732707            6 
  196000     0.939679   -7.6321143     45.90565  0.019517708  0.020654873           10 
  197000   0.96731443   -7.6792887    45.934053  0.019430648  0.020577477            7 
  198000   0.95852273   -7.6735946    45.998357  0.019359578  0.020500329            8 
  199000   0.94375144   -7.6298699    46.259084  0.019371475  0.020424009            6 
  200000   0.94239644   -7.6567433    46.296244  0.019290102   0.02034698            5 
  201000   0.93782937   -7.6276845    46.288686  0.019190997  0.020269232            3 
  202000   0.97660963   -7.6933963    46.302626  0.019101743  0.020191888            5 
  203000   0.93190109   -7.6924542     46.31068  0.019010952  0.020112742            4 
  204000   0.92636213   -7.6861257    46.392446  0.018951162  0.020033253            6 
  205000   0.93428878   -7.6995448    46.471733  0.018890948  0.019954953           15 
  206000    0.9313773   -7.7360648    46.472863  0.018799702  0.019877606            6 
  207000   0.94354279   -7.7434922    46.598003  0.018759261  0.019800674           10 
  208000   0.95941047   -7.7650497    46.716526  0.018716557  0.019723504            4 
  209000   0.93999435   -7.7110884    46.761139  0.018644792  0.019645978            8 
  210000   0.93586094   -7.7176596    46.871002  0.018599604   0.01956924            6 
  211000   0.92211544   -7.7363424    46.897547  0.018521938  0.019492258            5 
  212000   0.92964838   -7.7023682    47.101863  0.018514883  0.019415853            5 
  213000   0.93165681   -7.7060914    47.176005  0.018456966  0.019341047            5 
  214000   0.91539695   -7.7420899     47.21568  0.018386168  0.019266106           14 
  215000   0.92786035   -7.7507455    47.226083  0.018304683  0.019191927           14 
  216000   0.92262221    -7.753757    47.262366  0.018233937  0.019116722           14 
  217000    0.9093871   -7.7166336    47.450208  0.018222046  0.019042876            7 
  218000   0.92074969   -7.7453365    47.424633  0.018128682  0.018968755            7 
  219000   0.92790337   -7.7171763    47.504424  0.018076265  0.018894427           10 
  220000   0.92470754   -7.7738085    47.540102  0.018007614  0.018820527            6 
  221000   0.91186026   -7.7466628    47.668122  0.017974405  0.018746886           10 
  222000    0.9245642   -7.8149722    47.451795  0.017812235  0.018673151           13 
  223000    0.9246907   -7.8056232     47.62256  0.017796174  0.018599232           12 
  224000   0.90244376   -7.8156214    47.875841  0.017810953  0.018526463            7 
  225000   0.89599572   -7.7842235    47.921662  0.017748764  0.018454716            7 
  226000    0.8947718   -7.7912435    47.925533  0.017671657   0.01838235            8 
  227000   0.90269398   -7.8429704    48.031329  0.017632646  0.018310906           41 
  228000   0.91392006   -7.8242918     48.15922  0.017602054  0.018239351           17 
  229000   0.89649664   -7.8143113    48.095017  0.017501826  0.018168045           26 
  230000   0.91379872   -7.7974957    48.431927  0.017547799  0.018098031           11 
  231000   0.89125045   -7.8401421    48.366231  0.017448135  0.018029244           18 
  232000   0.88460454   -7.8333134    48.543907  0.017436748   0.01796103           28 
  233000   0.89827183    -7.809126    48.720751  0.017425161   0.01789398           27 
  234000   0.89589476   -7.7908214     48.72528  0.017352308  0.017826822           14 
  235000   0.89840114   -7.7960219    48.658503  0.017254788  0.017758694           30 
  236000   0.88641287   -7.8040914    48.802656  0.017232576   0.01769092           44 
  237000   0.89400601   -7.8320571    48.719961  0.017130788  0.017623593           42 
  238000   0.88309148   -7.8614434    48.782263  0.017080624  0.017556555           32 
  239000   0.88962212   -7.8565192    48.957974  0.017070423  0.017490242           30 
  240000   0.88478954   -7.9119222     48.96945  0.017003281  0.017424405           42 
  241000   0.87571338   -7.8294931    49.231989  0.017023509  0.017358667           58 
  242000   0.87647439    -7.888925    49.090562  0.016904464  0.017293437           55 
  243000   0.89037982   -7.8973696    49.093459  0.016835891  0.017227807           43 
  244000   0.85755728   -7.9004955    49.118374  0.016775401  0.017162554           26 
  245000   0.88934192   -7.8758579    49.285204  0.016763675  0.017097456           46 
  246000   0.89647775   -7.8870242    49.261275  0.016687424  0.017033225           50 
  247000   0.86576532   -7.9147943    49.421646   0.01667397  0.016968919           76 
  248000   0.87994356   -7.8866647    49.509218  0.016636162  0.016905245           53 
  249000   0.85558842    -7.902686    49.484673  0.016561135  0.016841294           63 
  250000   0.87273078   -7.9328672    49.500593  0.016500198  0.016777471           30 
  251000   0.84272754   -7.9265399    49.488419  0.016430418  0.016713961           24 
  252000   0.85685939   -7.9392924     49.61523  0.016407153  0.016650788           23 
  253000   0.87747444   -7.9245478     49.51339  0.016308758  0.016587595           33 
  254000   0.84646676   -7.9298033    49.818114  0.016344526  0.016524254           18 
  255000    0.8548722   -7.9447947     49.65375  0.016226716  0.016461716           13 
  256000   0.87057739   -7.9242108    49.724538  0.016186373  0.016398784           11 
  257000    0.8724846   -7.9456529     49.68451  0.016110412  0.016335484           15 
  258000   0.85329975   -7.9668202    49.623249  0.016028181  0.016271923           24 
  259000    0.8574901   -7.9481008    49.646911  0.015973909    0.0162082           18 
  260000   0.84779607   -7.9424938    49.665097    0.0159183  0.016145054           22 
  261000   0.85001548   -7.9605564    49.808974  0.015903248   0.01608258           13 
  262000   0.86766887   -7.9810111    49.760633  0.015827173  0.016020549           27 
  263000   0.86836208   -7.9552018    49.914485  0.015815743  0.015958827           32 
  264000   0.86480104    -7.994795    49.971939  0.015773971  0.015897946           37 
  265000   0.84687109   -7.9868196    49.994174  0.015721438  0.015836943           40 
  266000   0.84046227   -7.9603518     50.25567  0.015744257  0.015776554           44 
  267000   0.82416704   -7.9625426    50.163005  0.015656369  0.015716875           52 
  268000   0.84972896    -8.004419    50.191386  0.015606774  0.015657477            8 
  269000   0.81985741    -7.982398     50.35819   0.01560043  0.015598917           22 
  270000   0.84028635   -7.9923299      50.3501  0.015540154  0.015540584           13 
  271000   0.82115896   -7.9982067    50.283858  0.015462441  0.015481783           16 
  272000   0.83940182   -7.9968371    50.313948  0.015414813  0.015422788           20 
  273000   0.83860096   -8.0491913    50.230891  0.015332995  0.015363946            9 
  274000   0.82081392   -8.0218997    50.274244   0.01529022  0.015305229           21 
  275000   0.84436893   -8.0573457    50.284422  0.015237703  0.015246504           21 
  276000   0.85142404   -8.0390469    50.313545  0.015191288  0.015188062           32 
  277000   0.82374202   -8.0391732    50.350433  0.015147543  0.015129667           24 
  278000   0.81000601   -8.0455883    50.289119  0.015074676  0.015071082           25 
  279000   0.82324177   -8.0359934    50.396231  0.015052638  0.015012734           37 
  280000   0.81175641   -8.0731031    50.353511  0.014986164  0.014954649           17 
  281000   0.80634288   -8.0570354    50.487975  0.014972709  0.014896828           41 
  282000   0.80987221   -8.0847653     50.43094   0.01490276  0.014838723           39 
  283000   0.82380261   -8.0754314    50.422215  0.014847531   0.01478106           57 
  284000   0.82471935   -8.0949644    50.357998  0.014776408  0.014724072           61 
  285000   0.82663865    -8.103161    50.509267  0.014768791  0.014667082           30 
  286000   0.81776091   -8.0826771     50.69923  0.014772503  0.014610417           43 
  287000   0.81476147   -8.0901022    50.507094  0.014665242   0.01455414           46 
  288000   0.78892287   -8.1190347    50.499602  0.014612153  0.014497991           64 
  289000   0.79914577   -8.1508966    50.470108  0.014553088  0.014441723           73 
  290000   0.79930609   -8.1067812    50.527123  0.014519288   0.01438506           73 
  291000   0.79714057   -8.1237914    50.452174  0.014447931  0.014328511           55 
  292000    0.8082469   -8.1377936    50.455973  0.014399536  0.014271869          104 
  293000   0.79944224    -8.167945    50.389644  0.014331526  0.014215665          103 
  294000    0.7863035   -8.1138044     50.66264  0.014360159  0.014159866          117 
  295000    0.8030136   -8.1557403     50.72984  0.014330463  0.014104508           83 
  296000   0.78756843   -8.1678278    50.569743  0.014236977    0.0140491           78 
  297000   0.78492248    -8.194589    50.604333  0.014198747  0.013994019           72 
  298000   0.79444694   -8.1974107    50.572408  0.014142172   0.01393916           73 
  299000   0.77608661    -8.177991    50.677948  0.014124289  0.013884413          105 
  300000   0.78502456   -8.2136455    50.725935  0.014090538   0.01382987           85 
  301000   0.79316806   -8.1896468    50.622729  0.014015152  0.013775582          111 
  302000     0.790411   -8.1978334    50.662873  0.013979822  0.013721673          104 
  303000   0.80339996   -8.1933006    50.716912  0.013948546  0.013667925          114 
  304000   0.78854013   -8.2074674    50.528231  0.013850941  0.013614144          103 
  305000   0.77245362   -8.2139068    50.709287  0.013854996  0.013560262          128 
  306000   0.78061011   -8.2194507    50.665635  0.013797831  0.013506796          106 
  307000   0.77698383   -8.2423065    50.485622  0.013704023  0.013453303          123 
  308000   0.77572543   -8.2270965    50.755768  0.013732621  0.013399906          106 
  309000   0.79349906   -8.2196022    50.723012  0.013679345  0.013347055          102 
  310000   0.76055243   -8.2404336    50.770015  0.013647853  0.013294149          137 
  311000   0.78526817   -8.2125658    50.826949  0.013619225   0.01324154          121 
  312000   0.77173802   -8.2528308    50.658962  0.013530706  0.013189511          188 
  313000   0.75564916   -8.2586992    50.758414  0.013513955  0.013137422          231 
  314000   0.75511296   -8.2401998    50.710802  0.013458281  0.013085379          243 
  315000   0.77100563   -8.2508449    50.689318  0.013409872    0.0130337          276 
  316000   0.76033198   -8.2743251    50.738397  0.013380379  0.012982001          167 
  317000   0.75446306   -8.2974779    50.665068  0.013318893  0.012930196          164 
  318000    0.7516387   -8.2986738    50.716027  0.013290364  0.012878687          333 
  319000   0.75217675    -8.256116    50.852804  0.013284431  0.012827363          258 
  320000   0.76532736   -8.2941088    50.733343  0.013211808  0.012776263          274 
  321000   0.76231565   -8.2944402    50.794877  0.013186624  0.012725597          271 
  322000    0.7606968   -8.3051449    50.690471  0.013118652  0.012675134          213 
  323000   0.74544035   -8.2988291    50.657135  0.013069436  0.012624606          247 
  324000   0.74133392   -8.2961577    50.732988  0.013048608  0.012574246          253 
  325000   0.73902236   -8.3134833    50.728313   0.01300726  0.012523679          309 
  326000   0.75249504   -8.3472866    50.545042  0.012920512  0.012473379          311 
  327000   0.75975396   -8.3285882    50.534017   0.01287819  0.012423434          289 
  328000   0.75157906    -8.323106    50.622774  0.012861477  0.012373494          318 
  329000   0.75064793   -8.3179793    50.674139  0.012835395   0.01232404          315 
  330000    0.7603355   -8.3441665    50.583794  0.012773685  0.012274829          336 
  331000   0.73279762   -8.3305972    50.559933  0.012729087  0.012225483          310 
  332000   0.73664691   -8.3476253    50.677626  0.012720288  0.012176248          275 
  333000   0.74197979   -8.3436257    50.605124  0.012663945  0.012127278          287 
  334000     0.735313   -8.3599057    50.707004  0.012651448  0.012078485          310 
  335000   0.73848332   -8.3863954    50.544978  0.012573378  0.012029902          366 
  336000   0.72926816   -8.3707386    50.642628  0.012560175  0.011981603          338 
  337000   0.74587067   -8.3217237     50.74989  0.012549429  0.011933516          268 
  338000   0.71373378   -8.3460523    50.726711  0.012506585  0.011885813          297 
  339000   0.72498985   -8.3667373    50.688067  0.012460193  0.011838167          319 
  340000   0.71717736   -8.3725229     50.68534  0.012422878   0.01179069          320 
  341000   0.73014325   -8.3884635    50.615902  0.012369477  0.011743276          362 
  342000   0.72416108   -8.3837977    50.548648  0.012316922  0.011696102          326 
  343000   0.72099157   -8.3823505    50.576614  0.012287807  0.011649164          376 
  344000   0.70724842   -8.3919913    50.677632  0.012276558  0.011602251          351 
  345000   0.70061667   -8.4181784    50.602275  0.012222772  0.011555752          322 
  346000   0.72654794   -8.3991173    50.512665  0.012165863   0.01150947          356 
  347000   0.70128489   -8.4235432    50.565334  0.012143452  0.011463202          380 
  348000   0.72452756    -8.431244     50.49375  0.012091415  0.011417143          343 
  349000    0.7153453   -8.4096055    50.470258   0.01205116  0.011371569          339 
  350000    0.7041472   -8.4171649    50.536194  0.012032427  0.011325999          375 
  351000   0.70008039   -8.4422669    50.430737  0.011973109   0.01128051          386 
  352000    0.7016577   -8.4419931    50.565839  0.011971079  0.011235322          361 
  353000   0.70556127   -8.4502287     50.53435  0.011929733  0.011190412          429 
  354000   0.68826968   -8.4137561    50.534386  0.011896042   0.01114569          489 
  355000   0.71855768     -8.43945    50.556113  0.011867632  0.011101282          424 
  356000   0.70033707   -8.4180239    50.697113  0.011867302  0.011057174          456 
  357000   0.68763964    -8.423919     50.76597  0.011850133  0.011013281          401 
  358000   0.71179291   -8.4626653    50.634476  0.011786424  0.010969592          440 
  359000   0.69094222   -8.4269136    50.584119  0.011741903  0.010926028          462 
  360000    0.7021381   -8.4357665    50.637422  0.011721625  0.010882767          418 
  361000   0.69204246   -8.4423204    50.632702  0.011688066  0.010839727          468 
  362000   0.68627548   -8.4647748    50.654497  0.011660796  0.010796723          478 
  363000    0.6797168   -8.4548162    50.555463  0.011605937  0.010753933          459 
  364000   0.68889216   -8.4649716     50.45996  0.011552189  0.010711295          457 
  365000   0.68711743   -8.4699288    50.512743   0.01153259  0.010668618          389 
  366000   0.68155502   -8.4754711    50.451954  0.011487239  0.010626276          385 
  367000   0.67075166   -8.4806973    50.469382  0.011459896  0.010584124          488 
  368000   0.67786724   -8.4721406    50.495623  0.011434697  0.010542129          478 
  369000   0.69236002   -8.4759977    50.447401  0.011392819  0.010500256          510 
  370000   0.68744398    -8.468686    50.514787  0.011377204  0.010458629          535 
  371000   0.66353994   -8.4863016    50.310087  0.011300558  0.010417162          553 
  372000   0.65077039   -8.5045745    50.479307  0.011308089  0.010375628          591 
  373000   0.67765966    -8.517884    50.438408  0.011268634  0.010334307          579 
  374000    0.6652122   -8.5073072     50.45118   0.01124135  0.010293185          556 
  375000   0.67615267   -8.5027706    50.505418  0.011223426  0.010252369          528 
  376000   0.67502521   -8.5056432    50.567128  0.011207254  0.010211759          488 
  377000    0.6653517   -8.5325671    50.402287  0.011141089  0.010171213          529 
  378000   0.66665091   -8.5144424    50.368087  0.011104075  0.010130775          532 
  379000   0.66971463   -8.5184783    50.356531  0.011072236  0.010090589          528 
  380000   0.66202441   -8.5497991     50.34913  0.011041476  0.010050596          551 
  381000   0.66081827   -8.5168652    50.403515  0.011024391   0.01001071          485 
  382000   0.67517794    -8.504438    50.416198  0.010998298 0.0099711536          521 
  383000   0.65065761   -8.5392194     50.48311  0.010984141 0.0099316018          565 
  384000   0.65260632   -8.5351549    50.401752   0.01093788 0.0098923914          528 
  385000   0.65802484   -8.5698296    50.378222  0.010904377 0.0098533636          527 
  386000   0.65179207   -8.5535533    50.298455  0.010858906 0.0098144187          516 
  387000   0.64528576   -8.5547101    50.366237  0.010845443 0.0097757068          586 
  388000    0.6532925   -8.5675963    50.350442  0.010814098 0.0097370568          531 
  389000   0.64212711   -8.5461197    50.294839  0.010774387 0.0096986387          527 
  390000   0.65573673   -8.5665417    50.309449  0.010749882 0.0096604124          615 
  391000   0.62625609   -8.5700167    50.390162  0.010739591 0.0096223385          565 
  392000    0.6289861   -8.5859095    50.277484  0.010688241 0.0095844533          577 
  393000   0.63449143   -8.5935137    50.241024  0.010653313 0.0095467745          638 
  394000   0.63484686   -8.5773834    50.288308  0.010636275 0.0095093372          508 
  395000    0.6346784   -8.5844643    50.319861  0.010616005 0.0094720995          593 
  396000   0.65282367    -8.575916    50.276312  0.010580032 0.0094350554          598 
  397000   0.63212634   -8.6122362     50.21824  0.010541192 0.0093981464          588 
  398000   0.64477587   -8.5940936    50.238759  0.010519003 0.0093613048          593 
  399000   0.62876532   -8.6275909    50.164123  0.010477051 0.0093247477          605 
  400000   0.62926026   -8.6099744    50.234798  0.010465583 0.0092883911          560 
  401000   0.63878644   -8.6065494    50.242716   0.01044113 0.0092522281          603 
  402000    0.6235832   -8.6110093     50.20812  0.010407985  0.009216159          610 
  403000   0.61637333   -8.6183414    50.242991  0.010389369 0.0091802863          616 
  404000   0.62610633   -8.6150855    50.268913     0.010369 0.0091445513          627 
  405000   0.62297106   -8.6310179    50.150776   0.01031909 0.0091089764          617 
  406000   0.60838083   -8.6218054    50.275979  0.010319372 0.0090736143          650 
  407000   0.61853852   -8.6300104    50.203619  0.010279201 0.0090384397          664 
  408000    0.5996834   -8.6231247    50.188816  0.010250984 0.0090034184          534 
  409000   0.60692797   -8.6365273    50.182052  0.010224542 0.0089685512          587 
  410000   0.61471916   -8.6650078    50.149454  0.010192978 0.0089338494          526 
  411000   0.61056023   -8.6308493    50.269567  0.010192532 0.0088993115          540 
  412000    0.6041079   -8.6323153     50.23481  0.010160763  0.008864951          613 
  413000    0.6041464   -8.6526021     50.17378  0.010123846 0.0088306802          653 
  414000   0.60637981   -8.6674397    50.222389  0.010109176 0.0087965763          558 
  415000   0.60416912   -8.6387221    50.229979  0.010086341 0.0087626218          646 
  416000   0.61786351   -8.6222108    50.220287  0.010060154 0.0087288435          659 
  417000   0.60566342   -8.6565068    50.141589  0.010020301 0.0086952051          676 
  418000   0.60936734   -8.6677375      50.1493 0.0099978668 0.0086618093          666 
  419000   0.59814138   -8.6558138    50.232315  0.009990516 0.0086285519          710 
  420000   0.60704164   -8.6770019    50.161381  0.009952655 0.0085954315          540 
  421000   0.58634767   -8.6868982    50.166047 0.0099299381 0.0085624286          627 
  422000   0.58803294   -8.6704147     50.14805 0.0099028534 0.0085296456          610 
  423000   0.59684951   -8.6779228     50.10078   0.00987013 0.0084970009          607 
  424000   0.58361989   -8.6707491    50.112309 0.0098491173 0.0084645777          626 
  425000   0.58363174   -8.6774209    50.088898 0.0098213526 0.0084322394          643 
  426000   0.59490132   -8.6506853    50.082613 0.0097970682 0.0084000544          661 
  427000   0.58723478   -8.6895941    50.020476 0.0097619977 0.0083680338          685 
  428000   0.58852549   -8.6946756    50.056572 0.0097462173 0.0083362115          687 
  429000    0.6025543   -8.6713917    50.160786 0.0097437423 0.0083045177          685 
  430000   0.59014075   -8.6806279     50.06984 0.0097034574 0.0082729646          659 
  431000   0.57549833   -8.6991236    50.073098 0.0096815735 0.0082415206          693 
  432000   0.56461727   -8.6963991    50.115084 0.0096672616 0.0082102376          700 
  433000   0.56889155   -8.6942952    50.104055 0.0096428127  0.008179171          691 
  434000   0.58247679   -8.7009075    50.071488 0.0096143409   0.00814823          660 
  435000   0.57486681   -8.7141338     50.06072 0.0095901763 0.0081173087          674 
  436000   0.58628789   -8.7204363    49.941286 0.0095453527 0.0080865866          730 
  437000   0.57424729   -8.7165216    49.999177 0.0095345493 0.0080560145          701 
  438000   0.56788608   -8.7074292    50.071544 0.0095265494 0.0080255512          665 
  439000   0.56862443   -8.7071785    50.032738 0.0094974825 0.0079952675          651 
  440000   0.56664856   -8.7198915    49.979201 0.0094657577 0.0079652135          733 
  441000   0.54836107   -8.7266367    49.995303 0.0094473361 0.0079352193          627 
  442000   0.55662219   -8.7181226    50.106233 0.0094468765 0.0079054374          654 
  443000   0.55402529   -8.7215703    49.996173 0.0094048483 0.0078757574          653 
  444000   0.55427463    -8.722268    49.971069 0.0093789544 0.0078462075          670 
  445000   0.54274875   -8.7310415    49.982465 0.0093600121 0.0078168143          613 
  446000   0.55409653   -8.7353455    49.986847 0.0093398443 0.0077875841          715 
  447000    0.5522315   -8.7233066     49.98232 0.0093181058 0.0077584005          674 
  448000   0.54534214   -8.7535955    49.902751 0.0092825058 0.0077294076          666 
  449000   0.56286619   -8.7340046    49.912208 0.0092635872 0.0077005145          721 
  450000   0.55605876   -8.7513519    49.959408 0.0092517422 0.0076717198          765 
  451000   0.53292653   -8.7493006    49.872256 0.0092151249 0.0076430831          719 
  452000   0.53356052   -8.7589603    49.844133 0.0091895526  0.007614565          749 
  453000   0.53459319   -8.7723477    49.906074 0.0091806611 0.0075862109          747 
  454000   0.54239658   -8.7621963    49.943484 0.0091673062 0.0075579928          740 
  455000   0.54233741   -8.7569051    49.926483 0.0091440446 0.0075298722          727 
  456000   0.54425106    -8.744086    49.910952 0.0091211536 0.0075019388          715 
  457000   0.53423682   -8.7741632    49.846174 0.0090893825 0.0074741888          739 
  458000   0.54001947   -8.7441458    49.974461 0.0090928786 0.0074465527          705 
  459000   0.52603733   -8.7775278    49.803463  0.009042023  0.007419006          765 
  460000   0.54734293   -8.7753592    49.866433  0.009033774  0.007391548          742 
  461000   0.53282804   -8.7792685    49.807624 0.0090035474 0.0073642546          701 
  462000   0.53650991    -8.780285    49.901773 0.0090010413 0.0073370333          766 
  463000   0.53599824   -8.8045238    49.828109 0.0089683421 0.0073099418          723 
  464000   0.53327384   -8.7873698    49.915516 0.0089647119 0.0072830398          770 
  465000   0.51631106   -8.7903335    49.821452 0.0089285756 0.0072562012          727 
  466000   0.51859418   -8.7955432     49.77337 0.0089008172 0.0072294481          758 
  467000   0.52329792   -8.7912513    49.796978 0.0088859703 0.0072028455          746 
  468000   0.52320215   -8.7960806    49.818933 0.0088708927 0.0071763495          746 
  469000   0.52339522   -8.8206642    49.819671 0.0088521092 0.0071500354          748 
  470000   0.51359058   -8.8183601    49.769363 0.0088243552 0.0071238159          694 
  471000   0.51402198   -8.8127437    49.870753 0.0088235586 0.0070977669          780 
  472000   0.51565072   -8.8237027    49.741549 0.0087820531 0.0070718126          715 
  473000   0.51743704   -8.7960405    49.771007 0.0087686763 0.0070459481          738 
  474000   0.49484683   -8.8017414    49.761028 0.0087484227 0.0070202362          785 
  475000   0.50870168    -8.795225    49.808526  0.008738338 0.0069946229          692 
  476000   0.50844772   -8.8158821    49.759504 0.0087113978 0.0069691808          766 
  477000   0.50764712    -8.831362    49.736942 0.0086891931  0.006943838          777 
  478000   0.50542983   -8.8329294    49.779899 0.0086785041 0.0069186581          742 
  479000   0.49881591   -8.8267025    49.698469 0.0086462193 0.0068935453          807 
  480000    0.5078222   -8.8491453    49.719103 0.0086317887 0.0068685936          667 
  481000   0.49231255   -8.8388224    49.798209 0.0086275484 0.0068436857          750 
  482000    0.4932694   -8.8287706    49.741022 0.0085997617 0.0068189193          752 
  483000   0.49948379   -8.8371458    49.775142 0.0085878437 0.0067942724          745 
  484000   0.49646982   -8.8367426    49.727007 0.0085618126 0.0067697747          746 
  485000    0.4927021   -8.8388092    49.701205  0.008539726  0.006745333          780 
  486000   0.48486107    -8.845791    49.722573 0.0085258184 0.0067210692          734 
  487000   0.50409705   -8.8431443     49.70758  0.008505746  0.006696938          716 
  488000   0.48680859   -8.8552718    49.681742  0.008483904 0.0066729375          715 
  489000     0.484088   -8.8447031    49.637313 0.0084589831 0.0066490183          772 
  490000   0.49226138   -8.8479865    49.702589 0.0084528213 0.0066252046          732 
  491000   0.49903028   -8.8597236    49.750391 0.0084437187 0.0066015211          779 
  492000   0.48792012   -8.8630756    49.695864 0.0084173211 0.0065779317          732 
  493000   0.47628969   -8.8781622    49.651158 0.0083926906 0.0065544385          746 
  494000   0.48266122   -8.8663509    49.686901  0.008381731 0.0065310249          731 
  495000   0.47619068    -8.855959    49.552366 0.0083421491 0.0065077396          745 
  496000   0.47687713   -8.8619514    49.610101 0.0083350305 0.0064845633          794 
  497000   0.48155158   -8.8860646    49.676055 0.0083293184 0.0064614758          765 
  498000   0.47491052    -8.883875     49.60212 0.0083002209 0.0064385422          747 
  499000   0.46650205   -8.8617847    49.646055 0.0082909243   0.00641573          707 
  500000   0.46736821   -8.8795591     49.64993 0.0082749883  0.006393029          763 
  501000   0.46395075   -8.8880137    49.549959 0.0082418428 0.0063703615          770 
  502000   0.47384193    -8.881658    49.598884 0.0082335464 0.0063478684          762 
  503000   0.46901607   -8.8879508    49.581976 0.0082143764 0.0063254654          741 
  504000   0.46874774    -8.898029    49.533224 0.0081900171 0.0063031524          717 
  505000   0.45113601    -8.901945    49.610208 0.0081865029 0.0062809134          706 
  506000    0.4613267   -8.9034595    49.617307 0.0081714932 0.0062587982          786 
  507000   0.45265352    -8.893766    49.581605 0.0081495077  0.006236796          760 
  508000   0.45938541   -8.9068675    49.611855 0.0081384277  0.006214923          775 
  509000   0.45061286   -8.8932441    49.604611 0.0081212527 0.0061931038          787 
  510000   0.44628468   -8.9079396     49.60743 0.0081057892 0.0061714343          800 
  511000   0.45262295   -8.8991329    49.631168 0.0080937977 0.0061498716          772 
  512000   0.45205505   -8.9136306    49.566395 0.0080674471 0.0061284106          809 
Loop time of 1310.7 on 48 procs for 500000 steps with 4000 atoms

Performance: 65918.744 tau/day, 381.474 timesteps/s
99.4% CPU use with 48 MPI tasks x no OpenMP threads

MPI task timing breakdown:
Section |  min time  |  avg time  |  max time  |%varavg| %total
---------------------------------------------------------------
Pair    | 92.646     | 100.58     | 109.53     |  34.8 |  7.67
Neigh   | 8.9639     | 9.3291     | 9.8946     |   7.4 |  0.71
Comm    | 83.527     | 92.622     | 99.829     |  37.3 |  7.07
Output  | 1.1373     | 1.1382     | 1.1653     |   0.4 |  0.09
Modify  | 1091.3     | 1094.4     | 1097.6     |   4.4 | 83.50
Other   |            | 12.59      |            |       |  0.96

Nlocal:        83.3333 ave          91 max          78 min
Histogram: 2 3 9 17 4 2 6 2 0 3
Nghost:        2387.58 ave        2406 max        2365 min
Histogram: 2 2 4 3 8 6 6 10 5 2
Neighs:        16486.6 ave       19974 max       14145 min
Histogram: 5 4 9 6 7 10 5 0 0 2
FullNghs:      32972.0 ave       36266 max       30753 min
Histogram: 2 4 14 8 8 2 5 2 0 3

Total # of neighbors = 1582654
Ave neighs/atom = 395.66350
Neighbor list builds = 26632
Dangerous builds = 0

#clear
#
#next RN
#
#jump SELF
Total wall time: 0:21:54
