
units lj                  # Use reduced LJ style units
atom_style atomic         # Uncharged point particles
atom_modify map hash      # Needed for indexing of clusters etc
                          # Used to be able to find where atoms are in relation to each other.

lattice fcc 1.0 spacing 1 1 1
Lattice spacing in x,y,z = 1.5874011 1.5874011 1.5874011
region box block 0 10 0 10 0 10 units lattice
create_box 2 box
Created orthogonal box = (0.0000000 0.0000000 0.0000000) to (15.874011 15.874011 15.874011)
  3 by 4 by 4 MPI processor grid
create_atoms 1 box
Created 4000 atoms
  using lattice units in orthogonal box = (0.0000000 0.0000000 0.0000000) to (15.874011 15.874011 15.874011)
  create_atoms CPU = 0.002 seconds
set type 1 type/fraction 2 0.46 78393
Setting atom values ...
  1843 settings made for type/fraction
mass 1 1.0
mass 2 1.0
pair_style lj/cut  3.5
pair_modify tail  yes
pair_coeff 1  1  1.0  1.0   # Intearaction between 1 and 1 set with epsilon = 1 and sigma = 1
pair_coeff 1  2  1.5  0.8
pair_coeff 2  2  0.5  0.88

write_data data.0
System init for write_data ...
Neighbor list info ...
  update every 1 steps, delay 10 steps, check yes
  max neighbors/atom: 2000, page size: 100000
  master list distance cutoff = 3.8
  ghost atom cutoff = 3.8
  binsize = 1.9, bins = 9 9 9
  1 neighbor lists, perpetual/occasional/extra = 1 0 0
  (1) pair lj/cut, perpetual
      attributes: half, newton on
      pair build: half/bin/atomonly/newton
      stencil: half/bin/3d
      bin: standard
WARNING: Not all mixed pair coeffs generated from mixing. Use write_data with 'pair ij' option to store all pair coeffs. (../write_data.cpp:312)


#############################
#   M E L T   S Y S T E M   #
#############################

velocity all create 2.4 1741580 mom yes dist gaussian # Assign velocities
                                                    # Temperature 2.4, random number seed, zero linear momentum
                                                                                # Gaussian distribution

timestep 0.002   # simulation timestep
thermo 1000       # output thermodynamic data every 1000 steps bf 100

# Define a fix  in this case with index 1 applied to all
# particles in the simulation. This fix is for simulations
# in the anisotropic NPT ensemble. Note that we use the MTK
# correction.
fix 1 all npt temp 2.4 2.4 0.1 iso 5.68 5.68 0.5 mtk yes tchain 5 pchain 5 # Use NPT ensemble
                                                                         # Set temperature and pressure and damping
                                                                         # Numbers of thermostats in chain and in barostat
run 10000          # run for 10000 steps
Per MPI rank memory allocation (min/avg/max) = 3.642 | 3.644 | 3.648 Mbytes
Step Temp E_pair E_mol TotEng Press Volume 
       0          2.4   -5.5244938            0   -1.9253938   -4.2019961         4000 
    1000    2.4096723   -5.0715864            0   -1.4579816    5.6788244    3718.5668 
    2000    2.3827068   -5.0228705            0   -1.4497038    5.6333793    3742.8201 
    3000    2.3741151   -5.0780019            0   -1.5177196    5.3733526    3736.9331 
    4000    2.4005206   -4.9172222            0   -1.3173415    5.8294715    3780.4178 
    5000     2.369677    -5.009178            0   -1.4555511    5.6168814    3747.5021 
    6000    2.4675373   -4.9855496            0   -1.2851689    6.1298861    3731.8675 
    7000    2.3955655   -4.9184016            0   -1.3259517    5.6501169    3790.1418 
    8000    2.4707595   -4.9491058            0   -1.2438931    5.7166588    3784.0458 
    9000     2.361567   -4.9103974            0   -1.3689325    5.5854695    3800.3136 
   10000    2.3547882   -4.9959572            0   -1.4646579    5.7163264    3744.6613 
Loop time of 2.69704 on 48 procs for 10000 steps with 4000 atoms

Performance: 640701.794 tau/day, 3707.765 timesteps/s
99.5% CPU use with 48 MPI tasks x no OpenMP threads

MPI task timing breakdown:
Section |  min time  |  avg time  |  max time  |%varavg| %total
---------------------------------------------------------------
Pair    | 1.1321     | 1.2177     | 1.3177     |   3.3 | 45.15
Neigh   | 0.21206    | 0.21844    | 0.23669    |   0.9 |  8.10
Comm    | 0.77685    | 0.86619    | 0.96877    |   4.4 | 32.12
Output  | 0.00023851 | 0.00024515 | 0.00031385 |   0.0 |  0.01
Modify  | 0.29487    | 0.37917    | 0.42162    |   4.5 | 14.06
Other   |            | 0.01535    |            |       |  0.57

Nlocal:        83.3333 ave          92 max          73 min
Histogram: 1 1 3 9 6 8 11 3 4 2
Nghost:        1713.81 ave        1740 max        1688 min
Histogram: 4 2 10 2 6 6 5 5 5 3
Neighs:        10189.5 ave       11806 max        8269 min
Histogram: 1 0 1 9 7 13 9 5 2 1

Total # of neighbors = 489098
Ave neighs/atom = 122.27450
Neighbor list builds = 903
Dangerous builds = 193

# Equilibrate just above the melting temperature to avoid step fn in T

fix 1 all npt temp 1.25 1.25 0.1 iso 5.68 5.68 0.5 mtk yes tchain 5 pchain 5
run 2000
Per MPI rank memory allocation (min/avg/max) = 3.644 | 3.645 | 3.649 Mbytes
Step Temp E_pair E_mol TotEng Press Volume 
   10000    2.3547882   -4.9959572            0   -1.4646579    5.7163264    3744.6613 
   11000    1.2584167   -7.0453915            0   -5.1582384    5.5912748    2962.7211 
   12000    1.2466766   -7.0948953            0   -5.2253479    5.9740296    2935.7253 
Loop time of 0.616894 on 48 procs for 2000 steps with 4000 atoms

Performance: 560225.804 tau/day, 3242.047 timesteps/s
99.7% CPU use with 48 MPI tasks x no OpenMP threads

MPI task timing breakdown:
Section |  min time  |  avg time  |  max time  |%varavg| %total
---------------------------------------------------------------
Pair    | 0.26739    | 0.30386    | 0.33983    |   2.2 | 49.26
Neigh   | 0.039303   | 0.04188    | 0.047525   |   0.7 |  6.79
Comm    | 0.18621    | 0.22351    | 0.26607    |   3.1 | 36.23
Output  | 4.8356e-05 | 4.9511e-05 | 6.242e-05  |   0.0 |  0.01
Modify  | 0.037377   | 0.04287    | 0.046618   |   1.2 |  6.95
Other   |            | 0.004722   |            |       |  0.77

Nlocal:        83.3333 ave          92 max          74 min
Histogram: 1 1 6 7 6 7 9 8 2 1
Nghost:        2029.75 ave        2056 max        2012 min
Histogram: 4 3 9 11 7 6 4 3 0 1
Neighs:        13009.2 ave       14315 max       11509 min
Histogram: 4 2 3 5 4 7 12 5 2 4

Total # of neighbors = 624444
Ave neighs/atom = 156.11100
Neighbor list builds = 142
Dangerous builds = 10

#############################
# L I N E A R  Q U E N C H  #
#############################

# Define solid atoms. This closely follows ten Wolde  Ruiz-Montero and Frenkel  Faraday Discuss  1996  104  93-110
# Compute components of the per-atom q6 vector
compute q6 all orientorder/atom degrees 1 6 components 6 nnn NULL cutoff 1.3 # compute the Q6 parameter.
                                                                             # Use all neighbours within 1.3 unit cell.

# get number of connections
compute coord_number all coord/atom orientorder q6 0.5

# An atom is solid if it has 8 or more connections (of a possible 14)
variable is_solid atom c_coord_number>=8
group solid dynamic all var is_solid    # Must be dynamic to update
dynamic group solid defined

# do clustering
compute cluster solid cluster/atom 1.3 # Create a cluster where all atoms within are solid and max 1.3 units from another member

# define chunks one chunk per cluster
compute clus_chunks solid chunk/atom c_cluster nchunk every compress yes  # Says which atoms are in which chunk

# count the size of each chunk
compute size_chunks solid property/chunk clus_chunks count


# Find the maximum entry in the vector of chunk sizes
variable max_n equal max(c_size_chunks)


# Thermo style which includes this variable
# thermo_style custom step temp pe vol v_max_n

thermo ${N}  # Print the thermo information every 100 steps
thermo 1000  

# Reset the npt fix at a lower temperature (below freezing)
fix 1  all npt temp  ${temp} ${temp}  0.1  iso  5.68  5.68  0.5  mtk yes tchain  5  pchain  5
fix 1  all npt temp  0.45 ${temp}  0.1  iso  5.68  5.68  0.5  mtk yes tchain  5  pchain  5
fix 1  all npt temp  0.45 0.45  0.1  iso  5.68  5.68  0.5  mtk yes tchain  5  pchain  5

dump dmp2 all dcd ${N} traj.dcd
dump dmp2 all dcd 1000 traj.dcd


compute msd all msd com yes
variable twopoint equal c_msd[4]/6/(step*dt+1.0e-6)
fix 9 all vector 10 c_msd[4]
variable fit equal slope(f_9)/6/(10*dt)
thermo_style custom step temp pe c_msd[4] v_twopoint v_fit v_max_n

fix 1 all npt temp 1.25 ${temp} 0.1 iso 5.68 5.68 0.5 mtk yes tchain 5 pchain 5
fix 1 all npt temp 1.25 0.45 0.1 iso 5.68 5.68 0.5 mtk yes tchain 5 pchain 5
run 5000000 # 5000000  # Run for this many steps
Neighbor list info ...
  update every 1 steps, delay 10 steps, check yes
  max neighbors/atom: 2000, page size: 100000
  master list distance cutoff = 3.8
  ghost atom cutoff = 3.8
  binsize = 1.9, bins = 8 8 8
  4 neighbor lists, perpetual/occasional/extra = 1 3 0
  (1) pair lj/cut, perpetual
      attributes: half, newton on
      pair build: half/bin/atomonly/newton
      stencil: half/bin/3d
      bin: standard
  (2) compute orientorder/atom, occasional
      attributes: full, newton on
      pair build: full/bin/atomonly
      stencil: full/bin/3d
      bin: standard
  (3) compute coord/atom, occasional
      attributes: full, newton on
      pair build: full/bin/atomonly
      stencil: full/bin/3d
      bin: standard
  (4) compute cluster/atom, occasional
      attributes: full, newton on
      pair build: full/bin/atomonly
      stencil: full/bin/3d
      bin: standard
Per MPI rank memory allocation (min/avg/max) = 9.834 | 9.839 | 9.844 Mbytes
Step Temp PotEng c_msd[4] v_twopoint v_fit v_max_n 
   12000    1.2466766   -7.0948953 9.7858195e-31 6.7957077e-33 8.3333333e+20            1 
   13000    1.2411167   -7.1516294   0.45862335 0.0029398932  0.037414909            1 
   14000    1.2405538   -7.1117301   0.90488386 0.0053862133  0.036547388            3 
   15000    1.2542717   -7.1312381    1.3226217 0.0073478979  0.036495819            2 
   16000    1.2743169   -7.1526865    1.6911199  0.008807916  0.035415663            2 
   17000    1.2649693   -7.1517225     2.142781  0.010503828  0.034971029            1 
   18000    1.2406291   -7.1275801    2.5113283  0.011626519  0.034608368            3 
   19000    1.2482562   -7.1438918    2.8827615   0.01264369  0.034202662            3 
   20000    1.2450436   -7.1660725    3.2791734  0.013663222  0.033743786            3 
   21000    1.2593446   -7.1060067    3.7158672  0.014745504  0.033594372            3 
   22000    1.2302982    -7.138885    4.1458591  0.015704011  0.033632827            2 
   23000    1.2339153   -7.1378604    4.4903558  0.016269405  0.033653919            1 
   24000    1.2611896   -7.0954125    4.9719922  0.017263861  0.033702042            1 
   25000    1.2433074   -7.1731694    5.3757956  0.017919318  0.033859445            1 
   26000    1.2431196   -7.1161941     5.848781  0.018746093  0.034001781            3 
   27000    1.2432035   -7.1709452    6.2384925  0.019254606  0.034152119            1 
   28000    1.2570713   -7.1340224    6.7455394   0.02007601  0.034292645            1 
   29000    1.2031424   -7.1079056    7.1415988  0.020521835  0.034525127            1 
   30000    1.2559614   -7.1685844    7.5144085  0.020873356  0.034580313            2 
   31000    1.2450392   -7.1522747    7.9053113  0.021250836  0.034618144            2 
   32000    1.2346371   -7.1452098    8.2749782  0.021549422  0.034543504            2 
   33000    1.2578181   -7.1330413    8.7107713  0.021996897  0.034489155            2 
   34000    1.2431451   -7.1710345    9.0922249  0.022284865  0.034471744            1 
   35000    1.2632534   -7.1479422    9.4580791  0.022519236  0.034398373            2 
   36000    1.2351915   -7.1208193    9.9863377  0.023116522  0.034377522            1 
   37000    1.2539245   -7.1555687    10.366857  0.023348776  0.034407461            2 
   38000    1.2260844   -7.1770766    10.698937  0.023462581  0.034403348            2 
   39000    1.2243777    -7.162831    11.105563  0.023729836  0.034363745            1 
   40000    1.2172084   -7.1548092    11.525828  0.024012141  0.034343846            2 
   41000    1.2629032   -7.1177602    11.713658  0.023808247  0.034239154            2 
   42000     1.254248   -7.2195229    11.955091  0.023720418  0.034070151            1 
   43000    1.2694617   -7.1758139    12.209353  0.023661537  0.033854814            1 
   44000    1.2477994   -7.1402996    12.653419  0.023964808  0.033634039            1 
   45000    1.2167253    -7.154361    13.065104  0.024194636  0.033458255            2 
   46000    1.2304658   -7.1421919    13.537098  0.024523729  0.033333092            2 
   47000     1.233641   -7.1956173    13.939738  0.024715848  0.033234822            1 
   48000    1.2752591   -7.1442526    14.388538    0.0249801  0.033159913            4 
   49000    1.2530608   -7.1590491    14.750205  0.025085382  0.033109831            1 
   50000    1.2543538   -7.1449306     15.20175   0.02533625  0.033073681            1 
   51000    1.2324318   -7.1614162    15.542722  0.025396604  0.033048574            2 
   52000    1.2639373   -7.1584807    15.990396  0.025625635  0.033018449            2 
   53000     1.226869   -7.2142491    16.302693  0.025633165  0.032991838            4 
   54000    1.2236978   -7.1211235    16.823846  0.025962725  0.032979514            2 
   55000    1.2284318   -7.1367413    17.186898  0.026040754  0.032968635            1 
   56000    1.2462247   -7.1859144    17.655566  0.026273163  0.032965968            1 
   57000    1.2731559   -7.1583267    17.995494  0.026309202  0.032974998            1 
   58000    1.2517966   -7.1905451    18.343175  0.026355136  0.032960714            2 
   59000       1.2404    -7.138785    18.748909   0.02648151   0.03293642            1 
   60000    1.2308645   -7.1551101    19.102458  0.026531191  0.032917061            2 
   61000    1.2279667   -7.1336296    19.474524   0.02660454  0.032911295            1 
   62000    1.2530351   -7.1080332    19.778389  0.026583857  0.032892739            1 
   63000    1.2399052   -7.1551002    20.249736  0.026785364  0.032855028            1 
   64000    1.2573299   -7.1783112    20.636834  0.026870878  0.032829646            1 
   65000    1.2617578   -7.1481443    20.945549  0.026853268  0.032798676            1 
   66000    1.2105383   -7.1318971    21.265037  0.026849794  0.032760009            1 
   67000    1.2573309   -7.1362109    21.711146  0.027003913  0.032724188            4 
   68000    1.2377945   -7.1420617    22.041747  0.027011945  0.032686615            2 
   69000    1.2656749   -7.1568603    22.403071  0.027056849  0.032639496            3 
   70000    1.2514289   -7.1797735    22.690881  0.027012954  0.032597258            1 
   71000    1.2120306   -7.1643489    23.140981  0.027160775  0.032557805            2 
   72000    1.2547833    -7.180802    23.506571  0.027206679  0.032531887            1 
   73000    1.2412714   -7.2070324    23.925431  0.027312136  0.032512839            2 
   74000    1.2568552   -7.1565724    24.306781  0.027372501  0.032485812            2 
   75000    1.2276159   -7.1741039     24.59775  0.027330833  0.032451187            2 
   76000    1.2398728   -7.1965048    24.888397  0.027289909  0.032416441            1 
   77000    1.2603165   -7.1578779    25.266377  0.027344564   0.03237494            1 
   78000    1.2444807     -7.12238    25.714679  0.027472947   0.03233658            2 
   79000    1.2572876    -7.159528    26.076834  0.027507209  0.032306111            4 
   80000    1.2096835   -7.1902491     26.41994   0.02752077  0.032270486            1 
   81000    1.2192839   -7.1943797    26.604859  0.027371254  0.032232673            4 
   82000    1.2386078   -7.2039665    27.008699  0.027447865  0.032187608            2 
   83000    1.2575631   -7.1879646    27.316592  0.027426297  0.032143118            2 
   84000    1.2484514   -7.1666152    27.750246  0.027530006  0.032101419            1 
   85000    1.1985858    -7.171611    28.207048  0.027653969  0.032064935            3 
   86000    1.2251378   -7.1600965    28.780117  0.027887711  0.032042219            1 
   87000    1.2481392   -7.1834393    29.129434  0.027901757  0.032033061            2 
   88000    1.2859254   -7.1847944    29.688352  0.028113969  0.032031144            2 
   89000    1.2394218    -7.193611    30.173002  0.028251875  0.032042002            1 
   90000    1.2432485   -7.2176167     30.55315  0.028289954  0.032059619            2 
   91000    1.2608433   -7.1599864     30.85368  0.028254285  0.032070926            2 
   92000    1.2186372   -7.2090576    31.127851  0.028195517  0.032071517            1 
   93000    1.2203955   -7.1708071    31.496228  0.028222426  0.032067553            3 
   94000    1.2481129   -7.1883559    31.912004  0.028290784  0.032060325            2 
   95000    1.2346673   -7.1525775    32.403593  0.028424205  0.032058253            3 
   96000    1.2814139   -7.2017771     32.70867  0.028392943  0.032059998            3 
   97000    1.2474384   -7.1502492     33.05633  0.028398908  0.032059018            3 
   98000     1.270925   -7.1372495    33.692804  0.028650343  0.032063424            2 
   99000     1.239349   -7.1785995    33.885001  0.028522728  0.032065711            2 
  100000    1.2232105   -7.2244626     34.13392  0.028444933  0.032057989            5 
  101000     1.216708   -7.2380444    34.256701  0.028264604  0.032041998            2 
  102000    1.2466629   -7.1897184    34.723142   0.02836858  0.032022571            1 
  103000    1.2193441   -7.1693679    35.198629  0.028477855  0.032003572            3 
  104000    1.2317122   -7.1551011    35.606799  0.028531089  0.031989098            1 
  105000    1.2496053   -7.2095516    35.909996  0.028499996  0.031978772            1 
  106000    1.2266286   -7.1785537    36.551304  0.028735301   0.03196637            2 
  107000    1.2246963   -7.1679356    36.855898   0.02870397   0.03196714            1 
  108000    1.2239249   -7.1831295    37.427412  0.028879176  0.031962102            2 
  109000    1.2566689   -7.2034775    37.901572  0.028976737   0.03196825            3 
  110000    1.2402199   -7.1720275    38.166193  0.028913782  0.031976987            1 
  111000    1.2397448   -7.1846227    38.767414  0.029104665  0.031986628            2 
  112000    1.2417245   -7.1448786    39.292449  0.029235453   0.03200307            3 
  113000    1.2268265   -7.1836968    39.780242  0.029336462   0.03202671            1 
  114000     1.224725   -7.1898975    40.201034  0.029386721  0.032053853            2 
  115000    1.2517378    -7.156506    40.501795  0.029349126  0.032079434            1 
  116000    1.2514334   -7.1345362     40.75694  0.029279411  0.032097945            1 
  117000     1.228975   -7.1517262    41.059875  0.029244925  0.032111006            1 
  118000     1.230845   -7.1800582    41.319273  0.029180278  0.032118562            2 
  119000    1.2508766   -7.1736871    41.699096  0.029201048  0.032121092            2 
  120000    1.2326869   -7.1909086    42.158216  0.029276539  0.032125165            2 
  121000    1.2261552   -7.1882437    42.831734   0.02949844  0.032137013            2 
  122000    1.2072771   -7.1701337     43.14109  0.029467957  0.032153591            3 
  123000    1.2130832   -7.2085829    43.427639  0.029422519  0.032165948            2 
  124000    1.2223721   -7.1998939    43.804539  0.029438534  0.032174418            2 
  125000    1.2380213   -7.1615223    44.240079  0.029493386  0.032180946            2 
  126000    1.2253277   -7.1492466    44.574194  0.029480287  0.032187705            3 
  127000    1.2118551   -7.2334251    44.587783  0.029257075   0.03218568            2 
  128000    1.2202927   -7.1740542    45.266649  0.029470474   0.03218138            2 
  129000    1.2207416    -7.227266    45.430433  0.029347825  0.032180541            1 
  130000    1.2196597   -7.2304101    45.885146  0.029413555  0.032183082            2 
  131000    1.2480615   -7.1659815    46.551938  0.029613192  0.032186486            2 
  132000    1.2015683   -7.1968302    46.676504   0.02946749  0.032190356            1 
  133000    1.2312894     -7.16465    47.280463   0.02962435  0.032191586            1 
  134000    1.2279711   -7.1229723    47.905814  0.029792173  0.032198295            1 
  135000    1.2237265   -7.1966706    48.131144  0.029710582  0.032208252            1 
  136000      1.22459   -7.1961494    48.768933  0.029882925  0.032221067            1 
  137000    1.2331703   -7.1676873    49.283652   0.02997789  0.032237314            3 
  138000    1.2022344   -7.1955826    49.670214  0.029994091  0.032254779            1 
  139000    1.2204747   -7.1532306    50.284003  0.030146284  0.032271525            2 
  140000    1.2030453   -7.2213367     50.46031  0.030035899  0.032290076            1 
  141000     1.238875   -7.1950216    51.026948   0.03015777  0.032308022            1 
  142000    1.2162807   -7.2015334    51.446084  0.030191364  0.032328851       -1e+20 
  143000     1.216099   -7.1997623     51.67747  0.030115076  0.032347826            1 
  144000    1.2229052   -7.2289305    52.027962  0.030108774  0.032362673            4 
  145000    1.2336884   -7.2063945    52.355226   0.03008921  0.032377729            2 
  146000    1.2165886   -7.2041011    52.781701  0.030126542  0.032392225            2 
  147000    1.2261086   -7.2327038    53.188053  0.030151958  0.032405876            4 
  148000    1.2247361   -7.2335214    53.720669  0.030248124  0.032419978            3 
  149000    1.2276691   -7.1702954     54.24816  0.030340134  0.032436417            1 
  150000     1.248425   -7.1724721    54.697929  0.030387738  0.032453067            1 
  151000    1.2337524     -7.24282    55.110755  0.030414324  0.032472003            4 
  152000    1.2545637   -7.2204877     55.49698  0.030425976  0.032492102            2 
  153000    1.2292065   -7.1671798    55.998254  0.030500138  0.032510302            1 
  154000    1.2450941   -7.1800016    56.392261  0.030515292  0.032529472            2 
  155000    1.2366658   -7.2150789      56.7739  0.030523602  0.032547012            2 
  156000    1.2393187   -7.1806996    57.424174  0.030675307  0.032566418            3 
  157000    1.2177298   -7.1577488    58.010337  0.030791049  0.032588018            1 
  158000    1.2206883    -7.233052    57.929163  0.030553356  0.032608197            3 
  159000    1.2291843    -7.230944    58.432242  0.030624865  0.032625589            3 
  160000    1.2194437   -7.2239671     58.42084  0.030427521  0.032638394            1 
  161000    1.2079664   -7.2110457    58.881101   0.03047676  0.032644763            1 
  162000    1.1936942   -7.1955462    59.138312  0.030420942  0.032651519            1 
  163000    1.2096947   -7.2055975    59.526057  0.030432545  0.032656952            3 
  164000      1.23799   -7.2081823     60.04959  0.030513003    0.0326627            1 
  165000     1.229456   -7.1682712    60.666865  0.030639831  0.032669749            1 
  166000    1.2431914   -7.1821291    60.957373  0.030601091   0.03267876            3 
  167000    1.2261565   -7.2475073    61.259511  0.030568618  0.032687715            1 
  168000    1.2257029   -7.2045339    61.606688  0.030558873  0.032698131            1 
  169000    1.2244355   -7.1899849    62.073425  0.030608198  0.032705116            1 
  170000    1.2307907   -7.2291024    62.102567  0.030442435  0.032710338            1 
  171000    1.2170273   -7.1886286    62.792857  0.030600808  0.032716772            1 
  172000    1.2266866   -7.1627605    62.847352  0.030449298  0.032721813            1 
  173000    1.2072967   -7.1874175    63.712861  0.030690203  0.032723558            1 
  174000    1.2458997   -7.2051825     63.92429  0.030615081  0.032728198            1 
  175000    1.2443408   -7.2294887    64.348632  0.030642206  0.032734848            1 
  176000     1.219714   -7.2190012    64.954913  0.030755167  0.032738757            2 
  177000    1.2480327   -7.2525775    65.090006  0.030645012  0.032743958            2 
  178000    1.2195699   -7.1845336    65.690186  0.030753833  0.032747069            1 
  179000    1.2556346   -7.2471346    65.607987  0.030543755  0.032748667            3 
  180000    1.2183288   -7.2308602    66.163942  0.030631454  0.032748989            4 
  181000    1.2022128   -7.1981999    66.839118  0.030773074  0.032752237            1 
  182000    1.2296112   -7.1882414    67.397873  0.030859832  0.032757897            2 
  183000    1.2454131   -7.2066878    67.435568  0.030708364  0.032759292            1 
  184000    1.2161047   -7.2221918    67.893015  0.030748648  0.032763701            3 
  185000    1.2422229   -7.1973245    68.216421  0.030728118  0.032768773            1 
  186000    1.2109617   -7.2243528    68.595174  0.030732605  0.032772407            7 
  187000    1.2338751   -7.2021226    69.059717  0.030775275   0.03277723            2 
  188000    1.2289535    -7.225818    69.539919  0.030824432  0.032782244            2 
  189000    1.2248632   -7.1717241    70.026974  0.030876091  0.032786522            2 
  190000    1.2038923   -7.1769651    70.729516  0.031021717  0.032792003            3 
  191000    1.1992845   -7.1723585    71.075728  0.031010352  0.032799405            1 
  192000    1.2321186   -7.2139018    71.209398  0.030906857  0.032804044            2 
  193000    1.2064323   -7.2177631    71.823498  0.031011873  0.032810123            1 
  194000    1.2047822   -7.2067257    72.027314  0.030939568  0.032816237            2 
  195000    1.1947774   -7.2377248    72.424997  0.030950853  0.032824425            6 
  196000    1.2149878   -7.2607404    72.612519  0.030872669  0.032830857            2 
  197000    1.1843021   -7.2131865    73.097336  0.030921039  0.032834333            2 
  198000    1.2044178   -7.2402879    73.378554   0.03088323  0.032836367            2 
  199000    1.2172421   -7.1932395    74.132875  0.031043917  0.032839254            1 
  200000    1.2109069   -7.1907608    74.376557  0.030990232  0.032844757            2 
  201000    1.2032352   -7.1950644    74.693102  0.030967289  0.032848361            2 
  202000     1.227453   -7.1750663    75.134767  0.030996191  0.032849562            3 
  203000    1.2146285    -7.197781    75.230545  0.030882818  0.032849441            1 
  204000    1.1856572   -7.1855544    75.601147  0.030882821  0.032849054            2 
  205000    1.2205496   -7.1845319     76.01435  0.030900142  0.032850048            1 
  206000    1.2399197   -7.1932782    76.691649   0.03102413   0.03285135            1 
  207000    1.2140046   -7.2060439    77.061146  0.031023005  0.032851656            2 
  208000    1.2478736   -7.2136383    77.562669  0.031074787  0.032853436            2 
  209000    1.2151033    -7.152012    78.159398  0.031164034  0.032855678            1 
  210000    1.2034817   -7.1939034    78.449022  0.031130564  0.032858777            3 
  211000    1.2294972   -7.2518565    78.735814  0.031096293  0.032862785            3 
  212000    1.1997008   -7.2228522    79.564845  0.031275489   0.03286869            1 
  213000    1.2093724   -7.2224447    79.699159  0.031181205  0.032875041            1 
  214000    1.2178148     -7.16202    80.378884  0.031300188  0.032881659            7 
  215000    1.2034204   -7.2356903    80.387774  0.031158052  0.032888171            1 
  216000    1.2351548   -7.1938323    80.734438  0.031147546  0.032891306            2 
  217000    1.2138482     -7.24119    81.086675  0.031139276  0.032894018            1 
  218000    1.2100098   -7.1965532    81.506413  0.031156885  0.032896163            2 
  219000    1.2300442   -7.1811908     81.68766  0.031083584  0.032896064            2 
  220000    1.2002171   -7.1791347    82.272881   0.03116397  0.032898946            2 
  221000    1.2049317   -7.2363675    82.480049  0.031101074  0.032901483            3 
  222000    1.2038371   -7.2106733    83.235489  0.031244553  0.032904273            2 
  223000     1.217259   -7.1806176    83.177591  0.031082807  0.032906816            2 
  224000    1.2059385   -7.2411043    83.859993  0.031197914  0.032908114            1 
  225000    1.2120007   -7.2014084    84.374131  0.031249678  0.032910452            3 
  226000    1.2267317   -7.1979258    84.686637  0.031226636  0.032911496            2 
  227000    1.1927177   -7.2289239    85.005486  0.031206125  0.032912899            1 
  228000    1.2036695    -7.217659    85.351793  0.031195831  0.032913793            3 
  229000    1.2289876   -7.2088371    85.485248  0.031108169   0.03291137            1 
  230000      1.20326    -7.162101    85.899612  0.031123048  0.032908033            2 
  231000    1.2191583   -7.1983644    86.560019  0.031226558  0.032905385            1 
  232000     1.234047   -7.2162731    86.642796  0.031121694  0.032902517            5 
  233000    1.1927157   -7.2114225    87.008455  0.031118904  0.032899735            1 
  234000    1.2169754   -7.2290679    87.191203  0.031050998  0.032895704            1 
  235000    1.1919225   -7.2110349    87.496277  0.031027048  0.032891526            4 
  236000    1.2228735   -7.2567893    88.118101  0.031115149  0.032887042            1 
  237000    1.1717249   -7.2135413    88.586523  0.031148566  0.032882477            2 
  238000    1.2114196   -7.2279236    88.740277  0.031071526  0.032877756            2 
  239000    1.2287551   -7.1905077    89.007813  0.031034802   0.03287343            2 
  240000    1.1812022   -7.2366452    89.391664  0.031038772  0.032869125            2 
  241000    1.2154178   -7.2138863     89.98598  0.031115484  0.032866119            1 
  242000    1.2158264   -7.2591429    90.173128  0.031051352  0.032861435            1 
  243000    1.2482256    -7.236396    90.765664  0.031126771  0.032857076            2 
  244000     1.209912   -7.2145464    91.126377  0.031122396  0.032852926            1 
  245000    1.2186831   -7.2195433    91.656788  0.031175778  0.032849161            1 
  246000     1.211923   -7.2122536    91.953042  0.031149405  0.032845721            3 
  247000    1.2316172   -7.1948278    92.394846   0.03117235  0.032842998            2 
  248000    1.2123295   -7.2068366    92.979887  0.031243242   0.03284073            2 
  249000     1.180186    -7.228283    93.229336   0.03120125  0.032837784            2 
  250000    1.2049472   -7.2029271    93.637046  0.031212349  0.032834487            1 
  251000    1.2103842   -7.2637132     93.62002  0.031082344  0.032829377            2 
  252000    1.2054595   -7.2509402    94.206507  0.031152945  0.032823796            3 
  253000    1.2299499   -7.2282569    94.311094   0.03106426  0.032817838            4 
  254000     1.196897    -7.206422    94.735656  0.031081252  0.032811324            1 
  255000    1.1988226   -7.2377647    94.789892  0.030977089  0.032804789            2 
  256000    1.2162754   -7.2428508    95.170211  0.030979886  0.032796897            2 
  257000    1.2129826   -7.2208855    95.335937  0.030913079  0.032787847            2 
  258000    1.2135649   -7.2713422    95.771103  0.030933819  0.032777371            2 
  259000    1.2068238   -7.2441171    95.858146  0.030842389  0.032765615            2 
  260000     1.216443   -7.2549848     95.98085  0.030763093   0.03275483            2 
  261000     1.217146   -7.2251696    96.959061  0.030957554  0.032744735            1 
  262000    1.2205553   -7.2552291    97.157271   0.03090244  0.032737215            1 
  263000    1.2186581   -7.2720907     97.17341  0.030790054  0.032727889            2 
  264000    1.2052619   -7.2727121    97.638815  0.030820333  0.032717246            2 
  265000    1.2155155   -7.2299342    97.999099  0.030817327  0.032706633            2 
  266000    1.1968768   -7.2253154    99.022019  0.031021936  0.032696814            1 
  267000    1.2295682   -7.2640029    98.725422  0.030813178  0.032687257            3 
  268000    1.2101122   -7.2341385    98.974734  0.030775726  0.032676999            1 
  269000      1.21815    -7.222182    99.614491  0.030859508  0.032666479            2 
  270000    1.1899643   -7.2647135    99.696707  0.030770589   0.03265524            2 
  271000    1.2109296   -7.2454506    100.17761  0.030804924  0.032644592            3 
  272000    1.2024386   -7.2513223    100.43882  0.030771696  0.032634303            3 
  273000    1.2249756   -7.2504929    101.15492  0.030877569   0.03262298            1 
  274000     1.195979   -7.2615092    101.17128  0.030769854  0.032612157            1 
  275000    1.2404213   -7.2320001    101.63661  0.030798974  0.032601084            3 
  276000    1.2144186   -7.2794779    101.93574  0.030777701  0.032589902            1 
  277000     1.210501   -7.2574893    102.32177  0.030782722  0.032579208            2 
  278000    1.1981378   -7.1820649     102.9487  0.030859921  0.032567891            6 
  279000    1.2293195   -7.2456175    103.07971  0.030788443  0.032556852            2 
  280000    1.2165389   -7.2530649    103.24245  0.030726921  0.032544993            2 
  281000     1.194548   -7.2080421     103.7763   0.03077589  0.032532732            2 
  282000    1.1984024   -7.2616764    103.95286  0.030718931  0.032521368            3 
  283000    1.2296285   -7.2527889    104.40479   0.03074346  0.032509694            3 
  284000    1.2013946   -7.2016889     105.1426  0.030851702  0.032498136            1 
  285000    1.2130425   -7.2339536    104.90414  0.030673727  0.032486835            2 
  286000    1.2116612   -7.2486244    105.65394  0.030784947  0.032474637            1 
  287000    1.1965613    -7.245466    105.92443  0.030756224  0.032462993            2 
  288000    1.2212841   -7.2138016    106.13648  0.030710786  0.032452567            5 
  289000    1.2264691   -7.2558159    106.31672  0.030656494  0.032441189            4 
  290000    1.1926208   -7.2996265    106.20072  0.030517449  0.032428906            2 
  291000    1.2120794   -7.2516345    107.11656  0.030674846  0.032416413            2 
  292000    1.2320437   -7.2620898    107.28176   0.03061694  0.032402739            1 
  293000    1.2231094   -7.2656361     107.1522  0.030475598  0.032388323            5 
  294000    1.2036797   -7.3144947    107.88749  0.030580353  0.032374163            1 
  295000    1.2063445   -7.2174492    108.46497  0.030639823  0.032361232            1 
  296000    1.1880361   -7.2501298    108.98472  0.030682635  0.032347784            3 
  297000     1.209957    -7.293229    108.50779  0.030445508  0.032334217            2 
  298000     1.199827   -7.2699521    109.16703  0.030527692  0.032320317            2 
  299000    1.1976541   -7.2460002    109.29036  0.030459967   0.03230464            3 
  300000    1.1894042   -7.2157821    110.05916   0.03057199  0.032290451            1 
  301000    1.1800585   -7.2528729    110.55708  0.030608271  0.032278245            2 
  302000    1.1995583   -7.2637712     110.3729  0.030456099  0.032265546            1 
  303000    1.1698866   -7.2557082    110.94003  0.030511559  0.032252234            1 
  304000     1.186873   -7.2739417    111.32588  0.030516962  0.032239328            3 
  305000    1.1789914   -7.2549947    111.36243  0.030426895  0.032225824            1 
  306000    1.1948064   -7.2419841    112.04364  0.030512974  0.032211968            2 
  307000    1.2368918   -7.2211809     112.6429   0.03057625  0.032198292            5 
  308000    1.1750268    -7.269649     112.6138  0.030469102  0.032184457            1 
  309000    1.1870115   -7.1971499    113.30844  0.030557832  0.032170395            2 
  310000    1.1902872   -7.2372528     113.8297  0.030599381  0.032157732            1 
  311000    1.1873071   -7.2802469    113.85084  0.030506657  0.032145086            3 
  312000    1.2011932   -7.2458315    113.91104  0.030424956   0.03213189            1 
  313000    1.2397729   -7.2786063    114.17686  0.030398524  0.032117682            5 
  314000    1.1857202   -7.2581566    114.48023  0.030382226  0.032102414            3 
  315000     1.195197   -7.2727764    114.52495  0.030297607  0.032087505            1 
  316000    1.2099331    -7.227256     115.4274  0.030439716  0.032073453            1 
  317000    1.2020379   -7.2524454    115.07943  0.030252216    0.0320591            1 
  318000    1.1906864   -7.2606769    115.61116  0.030296426  0.032044053            1 
  319000    1.2296783   -7.2708413    116.18745  0.030351998  0.032028267            2 
  320000    1.1750775   -7.2312505    116.24224  0.030271416  0.032012826            1 
  321000    1.1895359   -7.2549361    117.06843  0.030391598  0.031998036            2 
  322000    1.2195173   -7.2619761    117.23185  0.030339505   0.03198413            5 
  323000    1.2099744   -7.2436144    118.12541  0.030476111  0.031971017            2 
  324000    1.2172476   -7.2699136    118.07846  0.030369975  0.031958335            2 
  325000    1.2012388   -7.2684115    118.44921  0.030371593  0.031945335            1 
  326000    1.1900864   -7.2438551    119.14713  0.030456832  0.031933441            2 
  327000    1.2028475   -7.2736591     119.7032  0.030505403  0.031921269            2 
  328000    1.2215761   -7.2783692    119.70549  0.030412981  0.031910022            1 
  329000    1.2101133   -7.2300947    119.73794  0.030328759  0.031898065            1 
  330000    1.1709315   -7.2446372    120.72956  0.030487262  0.031884863            2 
  331000    1.2015366   -7.2661998    120.53821  0.030346982  0.031871859            1 
  332000    1.1806052   -7.2832628    120.58714  0.030267858  0.031859449            2 
  333000    1.2030072    -7.279634    121.19273   0.03032851  0.031847055            5 
  334000     1.209164   -7.2658992    121.81821  0.030393766  0.031834971            2 
  335000    1.2115558   -7.2941984     121.9223   0.03032893   0.03182258            1 
  336000    1.1849314   -7.2680107    122.25628  0.030321497  0.031811026            2 
  337000    1.2158236   -7.2836992    122.72598   0.03034767  0.031797653            2 
  338000    1.2076866    -7.283489    122.55134  0.030214826  0.031783952            2 
  339000     1.223175   -7.2769683    122.77648  0.030181042  0.031770056            1 
  340000    1.1978565   -7.2553265    123.85421  0.030356423  0.031757149            1 
  341000    1.1992693   -7.2361977     124.1124  0.030330498  0.031745069            2 
  342000    1.1997499   -7.2921642    124.33587  0.030296265  0.031734321            1 
  343000    1.1796687   -7.2292135    125.24043  0.030427705  0.031723639            1 
  344000    1.1858508   -7.3277415    125.04717  0.030292435  0.031713496            2 
  345000    1.1867634   -7.3110292    125.01922  0.030197879  0.031701684            1 
  346000    1.1957614    -7.269969    125.82442  0.030304533  0.031689698            1 
  347000    1.1875337   -7.2773342    125.80151  0.030211699  0.031678154            4 
  348000     1.188162    -7.281748    126.68531   0.03033652  0.031667228            3 
  349000    1.2227455   -7.2886214    127.20883    0.0303746   0.03165732            2 
  350000    1.1769984   -7.2711236    127.54887  0.030368779  0.031648381            2 
  351000    1.1985092   -7.2622405    128.16667  0.030428934  0.031638942            3 
  352000    1.1969299   -7.3095053    127.94252  0.030289422  0.031629075            2 
  353000    1.1951669   -7.2694168    128.81966  0.030410685   0.03161971            2 
  354000    1.1696905   -7.2872813    129.35595  0.030451025  0.031611044            1 
  355000    1.2048991   -7.2938967    129.37272  0.030369183  0.031601686            5 
  356000    1.1925867   -7.2841005    130.02269  0.030436024   0.03159307            3 
  357000    1.1925021   -7.2621079    130.65838  0.030499156  0.031584615            3 
  358000    1.1775635   -7.2825139    130.35402  0.030343115  0.031576281            2 
  359000    1.1898059   -7.2927053    130.92553  0.030391255  0.031567976            1 
  360000    1.2196831   -7.3094899    130.79942  0.030277642  0.031558763            2 
  361000    1.1682144   -7.3480326    131.25305  0.030298488  0.031548801            1 
  362000    1.1989942   -7.2684429    132.07225  0.030403372  0.031540067            4 
  363000    1.1703365   -7.2481227    132.24135  0.030358438  0.031530794            2 
  364000    1.2083351   -7.2963753    132.53486  0.030342231  0.031523118            2 
  365000    1.1798585   -7.2917641     132.5295  0.030257878  0.031514036            2 
  366000    1.2034679   -7.2661692    132.89033  0.030257361  0.031504874            4 
  367000     1.194674   -7.2867941    133.66882  0.030351685  0.031494934            3 
  368000    1.2119825   -7.2491431    133.86569  0.030313789  0.031485434            1 
  369000    1.1939438   -7.3289414    133.51114  0.030151567  0.031474588            2 
  370000    1.1581004   -7.3186738    133.27491  0.030016871  0.031462934            1 
  371000    1.2170194   -7.2930169    133.71054  0.030033814   0.03145049            1 
  372000    1.1684675   -7.3198909    133.71782  0.029954708  0.031438057            1 
  373000    1.2060288   -7.2530879    134.63104  0.030078428  0.031426135            1 
  374000    1.1970414   -7.2620367    135.27749  0.030142044  0.031413991            3 
  375000    1.1761617   -7.3008275    135.38199  0.030084886  0.031401809            2 
  376000    1.1923741    -7.285376    135.83094  0.030104375  0.031389401            3 
  377000     1.157727   -7.2944446    136.11539  0.030087398  0.031377654            1 
  378000    1.2136398   -7.2730991    135.88572   0.02995717  0.031365545            4 
  379000    1.1791222   -7.2937595    136.93027  0.030107799  0.031352486            3 
  380000    1.1891675   -7.2573845    137.06703  0.030058558  0.031339219            6 
  381000    1.1790796   -7.3345396    137.32038  0.030035078  0.031327346            2 
  382000    1.1869453   -7.2724484     138.2594  0.030161301  0.031316656            1 
  383000     1.195394   -7.3203679    138.18221  0.030065756  0.031306007            1 
  384000    1.1972224   -7.3143908    138.47825  0.030051703  0.031296482            1 
  385000    1.2153512   -7.2786262    139.41552  0.030176518   0.03128655            1 
  386000    1.2106478   -7.2714184    139.86579   0.03019555    0.0312778            1 
  387000    1.1909763   -7.2900818    139.96916  0.030139785  0.031268906            3 
  388000    1.2005807   -7.3202914    140.18436  0.030108326  0.031259697            1 
  389000    1.1897794   -7.2706021    140.96132  0.030197368  0.031251211            2 
  390000    1.1813923    -7.302096    140.96128  0.030119931  0.031242779            2 
  391000    1.1894125   -7.2893105     141.5476  0.030167861  0.031234609            1 
  392000    1.1728762   -7.2467487    142.17404  0.030224072  0.031227188            2 
  393000    1.1902204   -7.3103332    142.02436  0.030115428  0.031219745            1 
  394000    1.1962525   -7.2748042     142.8682   0.03021747  0.031211901            1 
  395000    1.1974288   -7.3403456    142.99559  0.030167845  0.031203424            1 
  396000    1.2013682   -7.2911339    143.82436  0.030266069  0.031194981            5 
  397000    1.1602732   -7.2371367    144.34022  0.030298116  0.031187598            3 
  398000     1.179708   -7.3474701    144.35114  0.030224275  0.031180649            2 
  399000    1.1754012   -7.3230658    144.59799  0.030200081  0.031172755            2 
  400000    1.1776917   -7.2892673    144.51564  0.030107425  0.031165407            2 
  401000    1.1683675   -7.3136328    145.32888  0.030201347  0.031158717            1 
  402000       1.1742   -7.2823056    145.83087   0.03023028  0.031151085            2 
  403000    1.1688827   -7.2363585    146.81134  0.030358011  0.031143843            1 
  404000    1.1732415   -7.3115705     146.4051  0.030199072  0.031137182            1 
  405000    1.1655543   -7.2649784    147.12552  0.030272741  0.031129801            2 
  406000    1.1676101   -7.3072587    146.76816  0.030124828  0.031122227            2 
  407000    1.2163086   -7.2481544    147.24949  0.030149364  0.031113558            2 
  408000    1.1703759   -7.3463095    147.17405  0.030060059  0.031105093            4 
  409000     1.184607   -7.3195178    147.25301  0.030002651  0.031096509            2 
  410000    1.1879952   -7.2974992    148.27829  0.030137864  0.031087991            1 
  411000    1.1781401   -7.3121011    147.88447  0.029984686  0.031079021            2 
  412000    1.1856007   -7.2978218    148.99313   0.03013615  0.031070089            2 
  413000    1.1731972   -7.2353321    149.60055  0.030185745  0.031062697            1 
  414000    1.1816194   -7.2617883    150.11005  0.030215389  0.031056341            2 
  415000    1.1844495   -7.2998916    150.28881  0.030178477  0.031049082            1 
  416000    1.1496862   -7.2925519    151.03535  0.030255479  0.031043317            2 
  417000    1.1532353   -7.2967163    150.75446   0.03012679  0.031037146            1 
  418000    1.1822536   -7.2923009     151.5577  0.030214852  0.031031046            6 
  419000    1.1996355   -7.2917574    151.30074  0.030091635  0.031024173            1 
  420000     1.194865   -7.3390645     151.7248  0.030104127  0.031017016            1 
  421000    1.1787105   -7.3004135    152.17573  0.030121879  0.031009867            1 
  422000    1.2155906   -7.3220408    152.10308  0.030036153  0.031002436            4 
  423000    1.1911171   -7.3066299     152.1092  0.029966352  0.030994311            2 
  424000    1.1823752   -7.3071822    153.03906  0.030078432  0.030986432            1 
  425000    1.1686062   -7.2708393    153.22349  0.030043821   0.03097925            2 
  426000    1.1848631   -7.3137098    153.97371  0.030120053  0.030972346            1 
  427000    1.1693622   -7.2932049    154.13833  0.030081642  0.030965741            2 
  428000    1.1728179   -7.3251702    154.14947  0.030013527  0.030957661            1 
  429000    1.1834767   -7.3087255    154.74454  0.030059158  0.030949795            1 
  430000    1.1548633   -7.2915323    155.10757  0.030059606  0.030941748            2 
  431000    1.1774584   -7.3326643    154.95643   0.02996064  0.030933383            2 
  432000    1.1584247   -7.3262342    155.19771  0.029937829  0.030924305            3 
  433000    1.1947227   -7.3359178    155.35912  0.029899753  0.030915798            1 
  434000    1.1701246   -7.2956811    156.09883  0.029972894  0.030907602            2 
  435000    1.1930672   -7.3182461    156.50307  0.029981431  0.030899326            3 
  436000    1.1870383    -7.293246    157.07343   0.03002168   0.03089069            3 
  437000    1.1727469   -7.3374409    156.87103  0.029914385  0.030881897            1 
  438000    1.1885101   -7.2811251    157.24043  0.029916368   0.03087284            4 
  439000    1.1779812   -7.3075443     157.9936  0.029991193  0.030863555            3 
  440000    1.1701484   -7.2761464    157.53549  0.029836266  0.030854594            2 
  441000    1.1869521   -7.3157515    157.49832  0.029761588  0.030845502            2 
  442000    1.1878593   -7.3683038    157.99095  0.029787133  0.030835792            1 
  443000    1.1607191   -7.3079221    158.47265  0.029810506  0.030825818            4 
  444000    1.1863458   -7.3046095    159.16796  0.029873866  0.030816495            2 
  445000    1.2045521   -7.3097992    159.56671  0.029881406  0.030807174            1 
  446000    1.1789985    -7.307626    160.73805  0.030033267  0.030798915            3 
  447000    1.1735786   -7.3120657     160.2433  0.029873844  0.030789804            2 
  448000    1.1698509   -7.3144553    160.31375  0.029820266  0.030779999            1 
  449000    1.1644299   -7.3436405     160.0149  0.029698385  0.030770002            3 
  450000    1.2003301   -7.3217235    160.59613  0.029740024  0.030759351            2 
  451000    1.1989342   -7.3099759    160.65239  0.029684478  0.030748737            2 
  452000    1.1930174   -7.3353835    160.84798  0.029654863  0.030737804            2 
  453000    1.2173165   -7.3718673    160.76714  0.029574528  0.030726675            4 
  454000    1.1846745   -7.3221358    161.82211  0.029703031  0.030715857            1 
  455000    1.1718719   -7.3064609    162.20289   0.02970749  0.030705895            4 
  456000    1.1725304   -7.3612384    161.84283   0.02957654  0.030695212            4 
  457000    1.1471566   -7.2605607    162.97021  0.029717397  0.030685167            4 
  458000     1.192989    -7.324134    163.44814  0.029739473  0.030675518            1 
  459000    1.1591139   -7.3331025    163.36368  0.029659346   0.03066547            1 
  460000    1.1994312   -7.3194111    163.81303  0.029676274  0.030654755            2 
  461000    1.1985461   -7.2984381    163.14448  0.029491049   0.03064416            1 
  462000     1.151324   -7.3236419    163.57843  0.029505488  0.030632675            3 
  463000    1.1826828   -7.3190589    163.88154  0.029496318   0.03062056            2 
  464000    1.1934602   -7.3306261    164.15874  0.029482532  0.030608253            1 
  465000    1.2002887   -7.3366575    164.15187  0.029417898  0.030595915            2 
  466000    1.1614366   -7.3051145    164.58007  0.029431344  0.030583729            1 
  467000    1.1639882   -7.3211886    165.41443  0.029517207  0.030571846       -1e+20 
  468000    1.1793218   -7.2815879    165.29738  0.029433294   0.03056017            2 
  469000    1.2081597   -7.3129082    165.80598  0.029460907  0.030548531            1 
  470000    1.2002819   -7.2875368    167.21848  0.029648666  0.030537066            2 
  471000     1.208492   -7.3007535    167.01996  0.029550594  0.030526519            1 
  472000    1.1637737   -7.2595918    168.01833  0.029664253  0.030516311            1 
  473000    1.1599791   -7.3221448    166.62462  0.029355993  0.030505822            1 
  474000    1.2276507   -7.3231605    167.52498  0.029452352  0.030494567            3 
  475000      1.15815   -7.3361675    168.36742  0.029538145  0.030483975            1 
  476000    1.1608928   -7.3363715    168.55071  0.029508178  0.030473211            2 
  477000    1.1896329   -7.3515666     168.5012  0.029437666  0.030462191            2 
  478000    1.1545075   -7.3607738    168.36151  0.029351728  0.030451942            1 
  479000    1.1871182   -7.3287531    169.50916  0.029490111  0.030441423            1 
  480000    1.1812906   -7.2944471    170.50207  0.029601053  0.030431388            1 
  481000    1.1751685   -7.3202527    170.01878  0.029455783  0.030421376            4 
  482000    1.1688951   -7.3605661    170.42015  0.029464064  0.030411207            2 
  483000    1.1907288   -7.2924137    171.18673  0.029535323  0.030400743            1 
  484000    1.1857462   -7.2869423    171.10892  0.029460902  0.030390874            1 
  485000    1.1857209    -7.322945    171.88072   0.02953277  0.030380853            2 
  486000    1.1797165   -7.3380895    172.11702   0.02951252  0.030371148            2 
  487000    1.1853256   -7.3012843    172.13223  0.029454523  0.030361791            2 
  488000    1.1522802   -7.2652812    172.78753  0.029506068  0.030352457            3 
  489000    1.1897034   -7.3362114    172.74951  0.029439248  0.030342533            2 
  490000     1.181104   -7.3129221    172.80392  0.029388422  0.030332413            2 
  491000    1.1820702   -7.3706787    172.64705  0.029301944  0.030322308            1 
  492000    1.1823821    -7.309583    173.07728  0.029315257  0.030311461            2 
  493000    1.1645124   -7.2951625    173.78354  0.029375176  0.030301175            6 
  494000     1.183247   -7.3347873    173.99321  0.029351081  0.030290726            2 
  495000    1.1783176   -7.3337675    174.01779  0.029295924  0.030280017            2 
  496000    1.1611077   -7.3442813    173.99295  0.029232686   0.03026928            1 
  497000    1.1560638    -7.306785    174.75164  0.029301079  0.030258419            2 
  498000    1.1633536   -7.3200017    175.37235   0.02934611  0.030247625            1 
  499000    1.1790716   -7.3422191    175.54642  0.029316369  0.030237078            2 
  500000    1.1963448   -7.3056541    175.63636  0.029272726   0.03022634            3 
  501000    1.1764495   -7.3581978     175.7499  0.029233184  0.030216113            1 
  502000    1.1792004   -7.3485766    177.30225  0.029432644  0.030205873            2 
  503000    1.1885572   -7.3320473    176.88135  0.029304399  0.030196295            1 
  504000    1.1644788   -7.3291424    177.93908  0.029421143  0.030187383            6 
  505000    1.1782004   -7.3452905    178.24508   0.02941338  0.030178898            1 
  506000    1.1882734   -7.3474593    178.63335  0.029419195  0.030170542            4 
  507000    1.1631553   -7.3549423    178.98862  0.029419562  0.030162508            1 
  508000    1.1570835   -7.2855328    179.62266   0.02946566  0.030154368            1 
  509000    1.1487789   -7.3439424    179.72863  0.029425119  0.030146388            1 
  510000    1.1833705   -7.3798002    178.72136  0.029202837  0.030137898            2 
  511000    1.1962498   -7.3391928    179.94472  0.029345192  0.030128403            1 
  512000    1.1801094   -7.3004753    180.38471  0.029359491  0.030119305            1 
  513000    1.1516902    -7.358525    180.78563  0.029367386  0.030110668            3 
  514000    1.1781279   -7.3009093     181.5663   0.02943682  0.030101923            1 
  515000    1.1754117   -7.3984803    180.94248  0.029278719  0.030093354            4 
  516000    1.1670741   -7.3639145    180.56971  0.029161774  0.030083778            2 
  517000    1.1671182   -7.3623646    181.61961  0.029274599  0.030074213            3 
  518000    1.1867053   -7.3900701    181.62427  0.029218834  0.030065402            3 
  519000    1.1866839   -7.3431587    183.09569  0.029398794  0.030056497            3 
  520000    1.1629737    -7.320646    183.05969  0.029336488  0.030047993            3 
  521000    1.1787015   -7.3605793    182.77036  0.029233902  0.030039692            2 
  522000    1.1676869   -7.3889349     183.3497  0.029270386   0.03003092            2 
  523000    1.1876192   -7.3906894     184.2059  0.029350844  0.030022711            2 
  524000    1.1504767   -7.3623712     184.2739  0.029305645  0.030015029            4 
  525000    1.1745825   -7.3258286    185.10997  0.029382536  0.030007717            2 
  526000    1.1953138   -7.3558966    185.40656  0.029373663  0.030000972            3 
  527000    1.1481973    -7.346228    185.23705   0.02929112  0.029993761            5 
  528000    1.1622123   -7.3217892    185.88679  0.029338193  0.029986739            3 
  529000     1.174428   -7.3525767    186.20609  0.029333033  0.029978943            4 
  530000    1.1661659   -7.3257078    186.44848  0.029315799  0.029971154            4 
  531000    1.1645729   -7.3249664    186.49512  0.029267909  0.029962884            2 
  532000    1.1273901   -7.3680813    186.53601    0.0292193  0.029954104            1 
  533000    1.1561405   -7.3645916    186.89672  0.029220875  0.029945267            1 
  534000     1.169428   -7.3615192    186.61361  0.029121974  0.029936387            3 
  535000    1.1692187   -7.3447355     187.2741   0.02917042  0.029927553            1 
  536000    1.1345381   -7.3527919    187.22648  0.029108594  0.029918475            1 
  537000     1.166921   -7.3530248    187.38779  0.029079422  0.029909022            4 
  538000    1.1606407   -7.3925268    187.38742  0.029025313  0.029898937            2 
  539000     1.150342   -7.3215956    188.09543  0.029080926  0.029888344            1 
  540000    1.1649237    -7.378565     187.6833  0.028963473  0.029877913            4 
  541000    1.1627041   -7.3369514    187.81285   0.02892989  0.029866789            2 
  542000    1.1737491   -7.3476761    188.22735  0.028940244  0.029855658            2 
  543000    1.1720049   -7.3372177    188.63534  0.028949561   0.02984482            1 
  544000    1.1669094   -7.3503148     188.6606  0.028900215  0.029834178            3 
  545000    1.1585363   -7.3211346    189.69763  0.029005753  0.029823923            3 
  546000    1.1643231   -7.3578482    189.68355  0.028950481  0.029814455            1 
  547000    1.1594395   -7.3554222    190.08144  0.028958171  0.029804417            3 
  548000    1.1727037   -7.3630276    190.03644  0.028898485  0.029794357            2 
  549000    1.1488688   -7.3592202     190.4209  0.028904204  0.029783569            3 
  550000    1.1749403   -7.3351274    190.96217  0.028933663  0.029772664            5 
  551000     1.154244   -7.3772283    190.83352  0.028861694  0.029761519            2 
  552000    1.1717822   -7.3732198    191.74299  0.028946708   0.02975096            1 
  553000    1.1607229   -7.3803451    191.74597  0.028894812  0.029741042            5 
  554000    1.1705464   -7.3304949    192.11258  0.028897801  0.029730659            2 
  555000    1.1648878   -7.3530497     192.5685   0.02891419    0.0297203            2 
  556000    1.1639531   -7.3428236    192.83435  0.028902031    0.0297103            4 
  557000    1.1752212   -7.3335901    193.32534  0.028923599  0.029700931            3 
  558000    1.1541015   -7.3413219    193.74009  0.028933705  0.029691336            2 
  559000    1.1617208   -7.3654013    194.34731  0.028972468  0.029681725            3 
  560000    1.1686318   -7.3476108    194.23879  0.028904582  0.029672292            2 
  561000    1.1904136   -7.3474302    195.46854   0.02903573   0.02966348            1 
  562000    1.1667625   -7.3470647    195.31201  0.028960856  0.029654378            1 
  563000    1.1632342   -7.3548807    195.78231  0.028979027  0.029645518            3 
  564000    1.1715261   -7.3601594    196.07895  0.028971476  0.029635777            1 
  565000     1.177972   -7.3432714    195.88352  0.028891375  0.029626256            1 
  566000     1.169667   -7.3389036    195.97418  0.028853678  0.029616726            1 
  567000    1.1788424   -7.3521941    196.96957  0.028949085  0.029607433            2 
  568000    1.1578214    -7.358384    196.84233  0.028879449  0.029598597            2 
  569000    1.1931764   -7.3833098    196.97317  0.028847857  0.029589083            2 
  570000    1.1695073   -7.3519768    197.70553  0.028904317  0.029579454            1 
  571000     1.151061   -7.3510094    197.62574  0.028842051  0.029569859            1 
  572000    1.1388039   -7.3573806    197.04955  0.028707685   0.02956038            2 
  573000    1.1426127   -7.3361036    198.03538  0.028800956  0.029550232            1 
  574000    1.1703719   -7.3446418    198.00276  0.028746045   0.02954023            1 
  575000    1.1521008   -7.3487832    198.12981  0.028714465  0.029529831            1 
  576000    1.1789244   -7.3743216    198.67917  0.028744092  0.029518887            1 
  577000    1.1457547   -7.3613442    198.44265  0.028660117  0.029508396            2 
  578000    1.1677191   -7.4034414    198.02683  0.028550581  0.029497737            3 
  579000    1.1540805   -7.3136504    199.06106  0.028650123    0.0294869            4 
  580000    1.1539657   -7.3389551     198.8597  0.028571796  0.029475805            2 
  581000    1.1718288   -7.3609747    199.61043  0.028630297  0.029464958            2 
  582000    1.1578445   -7.3627731    199.53092  0.028569719  0.029454766            2 
  583000     1.161987   -7.3838697    200.89126  0.028715159  0.029444739            2 
  584000    1.1326453    -7.343019    201.42021  0.028741468  0.029435174            1 
  585000    1.1586659   -7.3564852    201.26099  0.028669657  0.029425436            3 
  586000    1.1521555   -7.3736044    201.51101  0.028656288  0.029415405            2 
  587000    1.1612913   -7.4118772    201.51157  0.028607548   0.02940583            2 
  588000    1.1523846   -7.3677466    202.16661   0.02865173   0.02939593            3 
  589000    1.1481375   -7.3693269     202.5553  0.028658079  0.029386338            1 
  590000    1.1509305   -7.3810393    203.08625  0.028684498  0.029376367            1 
  591000    1.1704707   -7.3884738    202.78093  0.028592912  0.029366858            2 
  592000    1.1470438   -7.3537484     204.2505  0.028751479  0.029357327            1 
  593000    1.1720267   -7.3869128    203.80022  0.028639716  0.029348151            1 
  594000    1.1747329   -7.3879287    203.61581   0.02856563  0.029338862            2 
  595000    1.1720497   -7.3783097    204.96796  0.028706997  0.029328974            1 
  596000    1.1636866   -7.3762866    204.82796  0.028639256  0.029319914            2 
  597000    1.1576086   -7.3957213    204.64525   0.02856578  0.029310771            1 
  598000    1.1306592     -7.32242    205.99307  0.028705834  0.029301063            1 
  599000    1.1613191   -7.3488885    205.98813  0.028657225  0.029291901            3 
  600000    1.1478966   -7.3973846    205.93342  0.028601864  0.029283116            2 
  601000    1.1311961   -7.3432252     207.0399  0.028707695  0.029274792            1 
  602000     1.157792    -7.361414    206.61637   0.02860138  0.029265736            3 
  603000    1.1289116     -7.37081     206.8458  0.028585655  0.029256441            1 
  604000    1.1656774   -7.3544737    207.80863  0.028671169  0.029246812            2 
  605000    1.1461867    -7.372493    207.08147  0.028523619  0.029237068            2 
  606000    1.1468487   -7.3847378    207.57141  0.028543924  0.029227061            4 
  607000    1.1472773   -7.3790106    207.64418   0.02850689  0.029217345            2 
  608000    1.1495088   -7.3474684    208.38203  0.028561133  0.029207913            2 
  609000    1.1320109   -7.3210177    208.97007    0.0285947  0.029198539            3 
  610000    1.1488264   -7.3445327    208.70066  0.028511019  0.029189266            4 
  611000    1.1666791   -7.4171483    207.94784   0.02836168  0.029179427            1 
  612000    1.1302805   -7.3589296    208.96431  0.028453746  0.029169704            3 
  613000    1.1620586   -7.3910777     209.7416  0.028512996  0.029160105            2 
  614000    1.1289155   -7.3750169      209.508  0.028434853   0.02915037            1 
  615000    1.1437483   -7.3814856    210.14144  0.028474449  0.029140288            1 
  616000    1.1701581   -7.3639984    210.01824  0.028411558   0.02913064            2 
  617000    1.1646153   -7.3775173    210.61013  0.028445452  0.029120829            1 
  618000    1.1427283   -7.3778011     210.6808  0.028408954  0.029111045            1 
  619000    1.1319852   -7.3961966    210.24798   0.02830479  0.029101039            2 
  620000    1.1696467   -7.3844428    210.54604  0.028299199  0.029091564            3 
  621000    1.1538998   -7.3623482    211.57061  0.028391118  0.029081967            2 
  622000    1.1507231   -7.3794778    212.16411  0.028424988  0.029072399            2 
  623000    1.1343797   -7.3576824    212.42336   0.02841404   0.02906342            3 
  624000    1.1551327   -7.3809708     213.0656  0.028454273  0.029054059            2 
  625000    1.1345371   -7.3667726    213.20093  0.028426791  0.029044756            3 
  626000     1.145763   -7.3435071    213.32386  0.028397745  0.029035807            1 
  627000    1.1478983   -7.4058126    213.62998   0.02839314  0.029026992            1 
  628000    1.1487259    -7.369694     214.7549    0.0284972  0.029018115            2 
  629000     1.185326   -7.4119932    214.78295  0.028455611  0.029009341            2 
  630000    1.1432674   -7.3831599    214.93189  0.028430145  0.029001003            2 
  631000    1.1723808   -7.4100722    215.05596  0.028401474  0.028992141            4 
  632000    1.1330273     -7.37772    215.48279  0.028412815   0.02898381            2 
  633000    1.1688662   -7.3855203     216.3828  0.028486414  0.028975443            3 
  634000    1.1525992   -7.4093974    215.85405  0.028371983  0.028967121            2 
  635000    1.1444267   -7.4329021    215.81806   0.02832258  0.028958605            2 
  636000    1.1116996   -7.3987378    216.95981  0.028427648   0.02895006            1 
  637000    1.1488133   -7.3898183    217.19137  0.028413314   0.02894182            3 
  638000    1.1721035   -7.3974839    217.38968  0.028394681   0.02893405            2 
  639000    1.1565693   -7.3722453    217.94463  0.028422618  0.028926634            1 
  640000     1.140198   -7.3694405    218.35042  0.028431044  0.028918914            3 
  641000    1.1617205   -7.3878427    219.11182  0.028485676  0.028911291            2 
  642000    1.1663679   -7.3941439    219.45606  0.028485989  0.028903661            4 
  643000    1.1363237   -7.4443832    218.56312  0.028325962  0.028895931            1 
  644000    1.1548379   -7.3786679    219.89516  0.028454342  0.028888141            3 
  645000    1.1146458   -7.3634941    220.69432  0.028513478  0.028881126            4 
  646000    1.1576013   -7.4043982    220.16049  0.028400476  0.028873529            2 
  647000    1.1370965   -7.3831787    220.11883  0.028351215  0.028865557            2 
  648000    1.1742577   -7.4422958    220.48383  0.028354403  0.028857906            2 
  649000    1.1492707   -7.3616005    222.04773  0.028511521  0.028850536            2 
  650000    1.1602701   -7.4034706     221.2426  0.028364435    0.0288431            1 
  651000    1.1523926   -7.3930689    221.75613  0.028386601   0.02883579            3 
  652000    1.1468861   -7.3738548    222.33031   0.02841645  0.028828307            2 
  653000    1.1473116   -7.4310397    222.07942  0.028340916  0.028820756            5 
  654000    1.1508424   -7.3853474    223.46484  0.028474113  0.028813287            3 
  655000    1.1784535   -7.3918306    223.62705  0.028451278  0.028806193            1 
  656000    1.1473252   -7.3900736    223.69793  0.028416911  0.028798936            3 
  657000    1.1548475   -7.3884623    223.94424  0.028404901  0.028791741            1 
  658000    1.1223545   -7.4165646    223.39906  0.028292688  0.028784092            3 
  659000    1.1448396    -7.361864     224.5409  0.028394145  0.028776573            1 
  660000    1.1527113   -7.4345895    223.94452  0.028275824  0.028768716            2 
  661000    1.1477627    -7.441037    224.62275  0.028318552  0.028760567            2 
  662000    1.1391745   -7.4283234    223.99791  0.028197119  0.028752333            1 
  663000    1.1376317   -7.3774939    224.75226  0.028249405   0.02874488            2 
  664000    1.1395236   -7.4140868    225.60739   0.02831418  0.028737267            1 
  665000    1.1431389   -7.4001398     226.2282  0.028349399  0.028730149            2 
  666000    1.1502946   -7.3929416    226.40576  0.028329049  0.028722803            1 
  667000    1.1532924   -7.3977024    226.33701  0.028277987   0.02871521            2 
  668000    1.1353577   -7.4336732    226.75417  0.028287696  0.028707682            2 
  669000    1.1292441   -7.4046041    227.19081  0.028299802  0.028699858            4 
  670000     1.132071   -7.3618037    228.53365  0.028424583  0.028692834            1 
  671000    1.1801332   -7.3922291    228.97912  0.028437546  0.028685911            1 
  672000    1.1464596   -7.3872677     228.2722  0.028307564  0.028679101            1 
  673000    1.1125565   -7.3908771    228.43223  0.028285318  0.028672129            3 
  674000    1.1454169   -7.3491584    228.86429  0.028296772   0.02866486            2 
  675000    1.1525019   -7.3897378    229.17666  0.028293415  0.028658015            2 
  676000    1.1316727    -7.399326    229.03702  0.028234347  0.028650491            3 
  677000    1.1438436   -7.4191857    229.21934  0.028215083  0.028642924            2 
  678000    1.1480057   -7.3936721    230.20862  0.028295062  0.028635225            2 
  679000    1.1698105   -7.4099529    230.12454  0.028243071  0.028627888            2 
  680000    1.1584467   -7.3987716    230.48382  0.028245566  0.028620665            1 
  681000    1.1249356   -7.4079576    230.19217  0.028168401  0.028613294            1 
  682000    1.1316445   -7.4085374    230.72739  0.028192497  0.028606094            3 
  683000    1.1329455   -7.3659953    231.27674  0.028218246  0.028598806            3 
  684000     1.108943   -7.3930085    231.28712  0.028178255  0.028590912            1 
  685000    1.1347967   -7.3905219    231.13661  0.028118809   0.02858296            4 
  686000     1.135876   -7.4020837    230.52009  0.028002927  0.028574942            4 
  687000     1.126036   -7.4172527    231.91113  0.028130899  0.028566481            2 
  688000     1.132759   -7.3945522    231.93383   0.02809276  0.028558418            2 
  689000    1.1277603    -7.354361    232.28867  0.028094904  0.028550473            1 
  690000    1.1788225   -7.4267821    232.50089  0.028079817  0.028542759            2 
  691000    1.1469817   -7.4277234    232.61882  0.028053403  0.028534443            2 
  692000    1.1621323   -7.4061379    232.77724  0.028031941  0.028525906            1 
  693000    1.1427132    -7.381096    233.34335  0.028059566  0.028517931            2 
  694000     1.132254   -7.4473953    233.21376  0.028003574  0.028509947            1 
  695000    1.1548604   -7.3646376    234.60053   0.02812956  0.028501697            2 
  696000    1.1346922   -7.3871418     234.3358  0.028057448  0.028494064            1 
  697000    1.1377064   -7.3946125    234.70139  0.028060902  0.028486605            1 
  698000    1.1406898   -7.4325411    234.97887  0.028053829  0.028479075            1 
  699000     1.120253   -7.4084047    234.74389  0.027985681  0.028471378            3 
  700000    1.1435939   -7.4026168    235.85841  0.028078382  0.028463347            2 
  701000    1.1229367   -7.4103404    235.89854  0.028043098  0.028455815            2 
  702000    1.1632633   -7.3879231    236.70575  0.028098973  0.028448224            2 
  703000    1.1257148    -7.417752     236.9376  0.028086487  0.028440701            2 
  704000    1.1406725   -7.3886352    236.73484   0.02802259  0.028433315            2 
  705000    1.1227895   -7.3876971    237.86655  0.028116614  0.028426227            1 
  706000    1.1265201   -7.4159782      238.491  0.028150496   0.02841898            1 
  707000    1.1552697      -7.3521     237.8204  0.028031636   0.02841118            3 
  708000     1.146478   -7.4318003    238.27956  0.028046088  0.028403523            5 
  709000    1.1062488   -7.4186874    238.22124  0.027999676  0.028395984            1 
  710000    1.1325584   -7.3910171    238.78182  0.028026035   0.02838857            3 
  711000    1.1326556   -7.4146349    237.61998  0.027850443  0.028380891            2 
  712000    1.0949844   -7.4262405    238.83717  0.027953789  0.028372963            3 
  713000    1.1341441   -7.4640532    238.33157   0.02785549  0.028365114            2 
  714000    1.1245413   -7.4100422    238.90777  0.027883727  0.028357144            2 
  715000    1.1344946   -7.4261608     239.1774  0.027876154  0.028349225            2 
  716000    1.1164244    -7.430869    239.56593   0.02788244  0.028341127            1 
  717000    1.1305602    -7.461316    238.78475  0.027752761  0.028332841            1 
  718000    1.1456038    -7.443839    239.57553  0.027805888  0.028324657            4 
  719000    1.1343773    -7.422854    240.55858  0.027881152  0.028316129            3 
  720000    1.1421615   -7.4082813    240.11249  0.027790798  0.028307484            2 
  721000    1.1127342     -7.44291    240.27274  0.027770774  0.028298862            3 
  722000     1.103883   -7.4378397    240.69914  0.027781525  0.028290349            2 
  723000    1.1159777   -7.4190205    241.30075  0.027812443  0.028281572            4 
  724000     1.147158   -7.4401287    241.56248  0.027804153  0.028273003            2 
  725000    1.1351706   -7.4456619    241.41124  0.027748419  0.028264725            2 
  726000     1.127329    -7.448917    241.27819  0.027694925  0.028256303            2 
  727000    1.1234235   -7.4206371    242.00714  0.027740388  0.028247641            4 
  728000    1.1269519   -7.3997784     242.8296  0.027796429  0.028239381            5 
  729000    1.1242477   -7.4233814    243.01243  0.027779198   0.02823115            1 
  730000    1.1457815   -7.4507913    242.56602  0.027690185  0.028222408            1 
  731000    1.1415646   -7.4185086    243.61707  0.027772123  0.028213699            1 
  732000    1.1637936   -7.4254264    244.03611  0.027781889  0.028205276            3 
  733000    1.1455522   -7.3898416    243.97125  0.027736614  0.028197056            2 
  734000    1.1264084   -7.4375082     244.4537  0.027753599  0.028188718            1 
  735000    1.1522453   -7.3973981    244.22631  0.027690058  0.028180484            5 
  736000    1.1223348   -7.4403394    244.17817  0.027646985  0.028172032            1 
  737000    1.1308822   -7.4644882    243.48289  0.027530856  0.028163069            2 
  738000    1.1364811   -7.4047015    245.15744  0.027682638  0.028153957            2 
  739000    1.1238365   -7.4025867     245.2488   0.02765548  0.028145311            5 
  740000    1.1233701    -7.417611    244.77224  0.027564442  0.028136667            2 
  741000    1.1328141    -7.440501    245.57064  0.027617031  0.028127568            1 
  742000     1.128865   -7.4015014    245.50696  0.027572659  0.028118685            4 
  743000    1.1160393   -7.3919595     246.5294  0.027650224    0.0281098            1 
  744000    1.1457869   -7.4036814    246.25143  0.027581926  0.028100854            1 
  745000    1.1202824   -7.4564492    245.90128  0.027505736  0.028091864            1 
  746000    1.1464551   -7.3880594    247.57814  0.027656181  0.028082934            2 
  747000    1.1398131   -7.4132994    247.20989  0.027578077  0.028074259            2 
  748000     1.143951   -7.3864494    248.02654   0.02763219  0.028065617            3 
  749000    1.1334528    -7.490162     246.8401  0.027463295  0.028056919            2 
  750000    1.1518109   -7.4632795    247.61935  0.027513261  0.028048143            1 
  751000     1.138955   -7.4696034    247.51915  0.027465507  0.028039425            3 
  752000     1.152078   -7.4308615    248.56553  0.027544939  0.028030404            2 
  753000    1.1569485   -7.4473095    248.14307  0.027461606   0.02802132            2 
  754000    1.1303868   -7.4048498    249.83251  0.027611904  0.028012399            2 
  755000    1.1213472   -7.4564068    249.00195  0.027483659   0.02800345            2 
  756000    1.1222913   -7.4493235    249.13923  0.027462437   0.02799452            1 
  757000    1.1410917   -7.5044351    249.12008  0.027424051   0.02798559            4 
  758000    1.1495999    -7.465287    249.89346  0.027472896  0.027976763            2 
  759000    1.1329226   -7.4483385    249.93993  0.027441802  0.027968167            1 
  760000    1.1123523   -7.4800013    249.56011  0.027364048  0.027959469            4 
  761000    1.1208457   -7.4331627    251.20255  0.027507945  0.027950674            1 
  762000     1.139841   -7.4613939    250.77833  0.027425451  0.027941673            3 
  763000    1.1419881   -7.4533092    251.13877  0.027428874  0.027932514            2 
  764000    1.1495101   -7.4496336    251.22821  0.027402728  0.027923546            2 
  765000    1.1315955   -7.4562195     251.9743  0.027448181    0.0279145            1 
  766000    1.1478427   -7.4303093    252.12481  0.027428721  0.027905721            2 
  767000    1.0947171   -7.4050245     252.6653  0.027451684  0.027897079            1 
  768000    1.1073126   -7.4503096    251.94906  0.027338223  0.027888364            2 
  769000    1.1321666   -7.4668345    252.60347  0.027373588  0.027879392            2 
  770000    1.1352914   -7.4434764    253.48069  0.027432975  0.027870449            2 
  771000    1.1352443   -7.4655295    253.82006  0.027434075  0.027861424            1 
  772000     1.139896    -7.450543    253.36501  0.027349418  0.027852657            3 
  773000    1.1103291   -7.4139048     254.3839  0.027423879  0.027843894            2 
  774000     1.139239   -7.4938186    253.47189  0.027290255  0.027834869            3 
  775000    1.1125349   -7.4399746    254.44059  0.027359203  0.027825871            8 
  776000    1.1223886   -7.4563366    254.71283  0.027353182  0.027816943            2 
  777000    1.1342244   -7.4560742    254.66792  0.027313162  0.027807898            3 
  778000    1.1535463   -7.4331142    255.24818  0.027340208  0.027798793            3 
  779000     1.129403   -7.4111651    255.18858  0.027298735  0.027789917            1 
  780000    1.1352635    -7.458898    254.30794  0.027169652  0.027780959            4 
  781000    1.1352586   -7.4580609    255.54589  0.027266954  0.027771974            2 
  782000    1.1287046   -7.4619723    255.78117  0.027257158  0.027762918            1 
  783000    1.1126452   -7.4168967    256.60425  0.027309946  0.027753955            1 
  784000    1.1120046   -7.4354923    256.59984  0.027274643  0.027745329            2 
  785000    1.1383496   -7.4804937     255.8084  0.027155881  0.027736276            4 
  786000    1.1350454    -7.446602    256.84988  0.027231752  0.027727124            1 
  787000    1.1232219   -7.4553667    257.45953  0.027261704  0.027718309            3 
  788000    1.1178064   -7.4420644     257.5193  0.027233429  0.027709292            3 
  789000    1.1150833   -7.4868998    257.38628  0.027184862  0.027700164            2 
  790000    1.1023215   -7.4951604    256.83653  0.027092461  0.027691234            1 
  791000    1.1294244   -7.4815317    257.78477  0.027158109  0.027682542            3 
  792000    1.1372682   -7.4731046    258.51636  0.027200796  0.027673747            1 
  793000    1.1207689   -7.4391827    259.50041  0.027269904   0.02766507            4 
  794000    1.1225403   -7.4324994    259.78718  0.027265657  0.027656986            1 
  795000    1.1252018   -7.4809132    259.49712  0.027200956  0.027648648            3 
  796000    1.1170229   -7.3913487    261.55483  0.027382206  0.027640435            2 
  797000    1.1294751     -7.42643    260.79355   0.02726825  0.027632605            5 
  798000    1.1107737   -7.4451662    261.85942  0.027345387  0.027624702            1 
  799000    1.0939924   -7.4438465    262.03424  0.027329395  0.027616981            1 
  800000    1.1093968   -7.4626574    261.59708  0.027249695  0.027609297            1 
  801000    1.1146574   -7.4753611    262.27701  0.027286414  0.027601511            4 
  802000    1.1253726   -7.4553669    262.43077  0.027268367  0.027593393            2 
  803000    1.1173335   -7.4739578    262.27197   0.02721793  0.027585509            3 
  804000    1.1205715   -7.4609983    262.10738  0.027167016  0.027577536            2 
  805000    1.1244836   -7.4172688    262.36819  0.027160268  0.027569613            1 
  806000    1.1394495   -7.4451164    263.59583  0.027253497  0.027561454            2 
  807000    1.1278215   -7.4758787    262.72287  0.027129582  0.027553331            3 
  808000    1.0993939   -7.4881144    263.14982  0.027140039  0.027545265            2 
  809000    1.1117601   -7.4243718    264.02219  0.027196352  0.027536965            4 
  810000    1.1166823   -7.4236174     264.6624  0.027228642  0.027528748            2 
  811000    1.1232324   -7.4560041     264.0601  0.027133179  0.027520607            3 
  812000    1.1258105   -7.4855926    264.01705  0.027095346   0.02751219            3 
  813000    1.1182157   -7.4547182    264.21588  0.027082399   0.02750392            2 
  814000    1.1018686   -7.4405757    264.59541  0.027087983  0.027495563            2 
  815000    1.1122477   -7.4580938    265.07911  0.027104204  0.027487284            2 
  816000    1.1138452   -7.4946785    265.20351  0.027083692  0.027479005            1 
  817000    1.1065391   -7.4499457    265.58884  0.027089845  0.027470797            2 
  818000    1.1172417    -7.473846    264.97522  0.026994215   0.02746261            3 
  819000    1.1154497   -7.4659874    266.16982  0.027082806   0.02745424            4 
  820000    1.1358839   -7.4609258    266.04536   0.02703713  0.027445611            1 
  821000    1.1144675   -7.4781063    266.77931  0.027078695  0.027436826            2 
  822000    1.1118074   -7.4455772    266.52954  0.027020431  0.027428024            5 
  823000    1.0921406   -7.3861843    266.54167  0.026988828  0.027419336            1 
  824000    1.1199625   -7.4485328     266.1965  0.026921167   0.02741058            2 
  825000    1.1224928   -7.4850116    266.62799   0.02693212  0.027401531            1 
  826000    1.1262078    -7.430785    266.97421  0.026934444  0.027392641            2 
  827000    1.1295353   -7.4888407    265.74558  0.026778071  0.027383519            1 
  828000    1.1186829   -7.4470518    267.59204  0.026931566  0.027374407            2 
  829000    1.1174594   -7.4866689    267.33653  0.026873394   0.02736531            2 
  830000    1.1231341    -7.417083    268.03066  0.026910709  0.027356388            4 
  831000    1.0939807   -7.4736455    267.77749  0.026852937  0.027347375            2 
  832000    1.0956382   -7.4698155    267.85787  0.026828712   0.02733841            3 
  833000     1.103764   -7.4256059    269.21084  0.026931856  0.027329568            2 
  834000    1.1128649   -7.4595046    269.11326  0.026889814  0.027320847            3 
  835000    1.0869633   -7.4760808    269.20041  0.026866308  0.027312334            2 
  836000     1.128919   -7.4893277     269.0141    0.0268156   0.02730375            1 
  837000    1.1086084   -7.5138528    269.23481  0.026805536  0.027294936            4 
  838000    1.1143775   -7.4944942    268.36683  0.026687235  0.027285826       -1e+20 
  839000     1.132577   -7.5180227     269.0817   0.02672643  0.027276229            1 
  840000    1.1104828   -7.4798615     270.2768  0.026813174  0.027266674            2 
  841000    1.0937679   -7.4771916    269.60833  0.026715055   0.02725724            1 
  842000    1.0993877   -7.4528447    270.60245  0.026781715  0.027248069            1 
  843000    1.1326897   -7.4999267    269.78219   0.02666886  0.027239023            1 
  844000    1.1187196   -7.4067993    271.41277  0.026798259  0.027229828            2 
  845000    1.0966877   -7.4742725    270.97512  0.026723384  0.027220652            1 
  846000    1.1204104   -7.4662691    271.92909  0.026785765   0.02721147            1 
  847000    1.0991144   -7.4764935    271.61108  0.026722853  0.027202306            5 
  848000    1.0855691   -7.4673975    272.12851  0.026742189  0.027193296            1 
  849000    1.1160024   -7.4531074    272.07411  0.026705351  0.027184109            3 
  850000    1.1105988   -7.4818099    272.59889  0.026725382  0.027175077            2 
  851000    1.1220923   -7.4631546    272.84939  0.026718507  0.027166294            2 
  852000    1.1215225   -7.4842747    273.02176  0.026704006   0.02715722            5 
  853000    1.1185172   -7.5099313    272.29989  0.026602177  0.027148014            2 
  854000    1.1125748     -7.44783     273.6344  0.026701249  0.027139106            2 
  855000    1.1213602   -7.4674055    273.82057  0.026688165  0.027130203            2 
  856000    1.1271442   -7.4361071    275.17778  0.026789114  0.027121552            1 
  857000    1.1213762   -7.4766763    274.14412  0.026657344   0.02711259            3 
  858000    1.1054538   -7.4770118    274.09098  0.026621113  0.027103653            4 
  859000    1.1269276   -7.5110714    273.75886  0.026557902  0.027094384            1 
  860000    1.1390749   -7.5336395    274.31844  0.026581244  0.027085081            1 
  861000    1.1020782   -7.5152931    274.82861  0.026599749  0.027075958            2 
  862000    1.1074793   -7.5007663    274.47473   0.02653468  0.027066828            3 
  863000    1.0961813   -7.5126851    275.71149  0.026623357  0.027057747            2 
  864000     1.128007   -7.4618277    275.61123  0.026582874  0.027048518            1 
  865000    1.1232672   -7.5121369    275.12184  0.026504994  0.027039418            2 
  866000    1.1031211   -7.4736117     276.2057  0.026578685  0.027030335            1 
  867000    1.0890448   -7.4648053    276.75118  0.026600459  0.027021224            4 
  868000    1.1218188   -7.5135121    276.47138  0.026542951  0.027012201            1 
  869000    1.1197935    -7.454154    277.90307    0.0266497  0.027003192            3 
  870000     1.116593   -7.4865496    276.93082   0.02652594  0.026994364            2 
  871000    1.1116438    -7.467145    278.00392  0.026598155  0.026985496            1 
  872000    1.0911892   -7.5085216    278.41938  0.026607357  0.026976847            3 
  873000    1.1324533   -7.4634519    277.35655  0.026475424  0.026968119            5 
  874000    1.1086894   -7.4569273    279.07792   0.02660926  0.026959388            3 
  875000    1.1127768   -7.5077319    278.85663  0.026557775  0.026950683            1 
  876000    1.1210536    -7.434695    278.89214  0.026530835  0.026942111            1 
  877000    1.1076263   -7.4673281    280.09624  0.026614998  0.026933699            1 
  878000     1.133291    -7.490198     280.3734  0.026610991  0.026925404            2 
  879000    1.1228868   -7.4489857    280.96967  0.026637246  0.026917054            1 
  880000    1.1362831    -7.520859    281.11636  0.026620868  0.026908764            1 
  881000     1.107557   -7.5328932    280.35512  0.026518645  0.026900451            1 
  882000    1.1245949   -7.5016464    280.60879  0.026512546  0.026892159            4 
  883000    1.1166556   -7.5016249    281.00049  0.026519487  0.026883971            1 
  884000    1.0838363   -7.4839998      281.401  0.026527243  0.026875778            3 
  885000     1.100819   -7.4894008    282.39703  0.026591057  0.026867462            4 
  886000    1.1147172   -7.4887209    281.41619  0.026468791  0.026859296            5 
  887000    1.1183031   -7.4796755    282.79665  0.026568644  0.026850938            2 
  888000    1.0840448   -7.4661933    283.20959  0.026577476  0.026842667            5 
  889000    1.0794581   -7.5457173    282.00596  0.026434755  0.026834556            4 
  890000    1.1150075   -7.4669867    283.00594  0.026498684   0.02682624            4 
  891000    1.0895733   -7.4943901     282.0985  0.026384072  0.026817846            1 
  892000    1.1200973   -7.4683901    284.21244  0.026551985  0.026809493            2 
  893000    1.1277729   -7.4672516    284.03588  0.026505775  0.026801312            2 
  894000     1.081874   -7.5021696     284.0896  0.026481134  0.026793053            5 
  895000    1.1139716   -7.5230801    283.83087  0.026427455  0.026784978            1 
  896000    1.1126784   -7.4689343    284.72416  0.026481041  0.026776905            1 
  897000    1.1290142   -7.4760649    285.32373  0.026507221  0.026769058            2 
  898000    1.1028473   -7.5145847    284.86018  0.026434687  0.026760993            1 
  899000    1.0926345   -7.4945917    286.43846  0.026551581  0.026753069            2 
  900000     1.078045   -7.4303022    286.21276  0.026501182  0.026745035            2 
  901000    1.1099296   -7.4714891    285.89998  0.026442839   0.02673709            1 
  902000    1.0902116   -7.4724078    287.16858  0.026530726  0.026729139            3 
  903000    1.1197642   -7.5090958    285.64643  0.026360874  0.026720948            3 
  904000    1.1307659   -7.5476571    286.21899  0.026384494  0.026712569            3 
  905000    1.1145264   -7.5473009    285.97319  0.026332706  0.026704141            3 
  906000     1.104702   -7.5295561    286.48794  0.026350988  0.026695865            1 
  907000    1.1281715   -7.4672041    286.91491  0.026361164  0.026687707            2 
  908000    1.1048031   -7.4837947    287.78972   0.02641242  0.026679713            1 
  909000    1.1290451   -7.5131465    288.55983  0.026453963  0.026672025            2 
  910000    1.1207566   -7.4378861    288.88812  0.026454956  0.026664273            1 
  911000    1.1121431   -7.5353918    288.89398  0.026426453  0.026656411            2 
  912000    1.1062402    -7.517384    289.06715  0.026413299  0.026648568            3 
  913000    1.0771732   -7.4408077    289.88631  0.026459137  0.026640926            4 
  914000    1.0971438   -7.4922544    289.29075  0.026375889  0.026633444            1 
  915000     1.106894      -7.4778    290.26179    0.0264355  0.026625599            5 
  916000    1.1196625    -7.513695    289.37035  0.026325542  0.026618133            2 
  917000    1.0912279   -7.5482958    289.27894  0.026288526  0.026610311            1 
  918000    1.0869754   -7.5232248    289.65059  0.026293626  0.026602374            2 
  919000     1.107778   -7.5106575    291.24695  0.026409771  0.026594538            1 
  920000    1.0875527    -7.499336    291.15836   0.02637304  0.026586678            5 
  921000    1.0948332   -7.5311111    290.66611  0.026299866  0.026578857            1 
  922000    1.1143795   -7.5743362    290.28368  0.026236775  0.026571029           12 
  923000    1.0969446   -7.5050703    291.76611  0.026342191  0.026563174            1 
  924000    1.1062912    -7.484586    291.89819  0.026325594  0.026555571            1 
  925000     1.120571   -7.4887301    291.88673  0.026296101  0.026547791            2 
  926000    1.1104461   -7.5232658    292.29618  0.026304552  0.026540088            2 
  927000     1.089862   -7.4662549    292.15198  0.026263213  0.026532301            2 
  928000     1.095166   -7.5076513    292.81986  0.026294887  0.026524424            2 
  929000    1.0790544    -7.517841    292.01396  0.026194292  0.026516668            3 
  930000    1.1081987   -7.4907878    293.07806  0.026261475   0.02650866            2 
  931000    1.1045507   -7.5299624    293.44269  0.026265905  0.026500868            1 
  932000    1.0967984    -7.516489     293.4507  0.026238439  0.026493054            2 
  933000    1.1026163   -7.4925426    293.81892  0.026243205  0.026485019            1 
  934000    1.1132908    -7.509271    292.92055  0.026134953  0.026477108            3 
  935000    1.0898081    -7.496185    293.78308  0.026183875  0.026469248            3 
  936000     1.114883   -7.5517638    293.81561  0.026158797  0.026461078            3 
  937000    1.1153773   -7.5395383    293.68274  0.026119063  0.026452886            3 
  938000     1.076734   -7.5343262    294.34331  0.026149903  0.026444653            1 
  939000    1.1103934   -7.5078666    293.95754  0.026087818   0.02643648            4 
  940000    1.0929178   -7.5298973     294.1103  0.026073608  0.026428249            5 
  941000    1.0873037   -7.5386107    293.84679  0.026022564  0.026420024            3 
  942000    1.1165126   -7.5004157    295.80436  0.026168114  0.026411842            3 
  943000    1.1086481    -7.490611    294.76045  0.026048113  0.026403663            3 
  944000    1.1113118   -7.4964229    295.62646  0.026096969  0.026395665            6 
  945000    1.0801581   -7.5082859    295.67908  0.026073993  0.026387722            1 
  946000    1.0804189   -7.5141663    296.66951  0.026133678  0.026379645            2 
  947000     1.080375   -7.5361659    295.85245  0.026034182  0.026371748            1 
  948000    1.0982382   -7.4930244    296.47591  0.026061525  0.026363717            2 
  949000    1.0857507   -7.4971058    297.43696  0.026118455  0.026355966            1 
  950000    1.1024813   -7.5266638     296.1741  0.025980184  0.026347866            2 
  951000    1.1277053   -7.5224078    297.27629  0.026049447  0.026339446            3 
  952000    1.0791198   -7.5476282    296.57202  0.025960436   0.02633127            3 
  953000    1.0869137   -7.5130233    297.70937  0.026032649  0.026322938            1 
  954000    1.1155901   -7.5094929    297.10052  0.025952177  0.026314549            2 
  955000    1.0977024   -7.5150415    297.48241  0.025958326  0.026306157            3 
  956000    1.0868468   -7.5240586    297.72208  0.025952064  0.026297858            2 
  957000    1.1169539   -7.4958258    297.95072  0.025944856  0.026289454            1 
  958000    1.0921552   -7.5095716    297.65831  0.025892338  0.026281268            1 
  959000    1.1120178   -7.5400405    297.81265  0.025878749  0.026272984            2 
  960000    1.1161074   -7.5578757    298.21565  0.025886775  0.026264231            3 
  961000    1.0955321   -7.5344885    298.18422  0.025857113  0.026255726            4 
  962000    1.1162528   -7.4998827    298.73382  0.025877843  0.026247156            2 
  963000    1.0809105   -7.5401695     298.5233  0.025832753  0.026238543            1 
  964000    1.0960427   -7.5403281    298.52433  0.025806046  0.026229906            2 
  965000    1.0850065   -7.5076635      299.946  0.025902072   0.02622128            1 
  966000    1.1254887   -7.5589624    299.94482  0.025875157  0.026212843            2 
  967000    1.1072991   -7.5276098    300.26974    0.0258764   0.02620414            2 
  968000    1.0960903    -7.531111    298.96148  0.025737042  0.026195497            3 
  969000    1.1098301   -7.5689339    299.42915  0.025750701  0.026186731            2 
  970000    1.0909962    -7.552294    300.02388  0.025775247  0.026177891            3 
  971000    1.1031278   -7.4730284    302.17219  0.025933075  0.026169316            2 
  972000    1.1033467    -7.528271    302.01929  0.025893286  0.026160851            2 
  973000    1.0862639   -7.5585121    299.95988  0.025690294  0.026152253            4 
  974000    1.0786237   -7.5234379    301.86184  0.025826646  0.026143425            2 
  975000    1.0982743   -7.5570698    301.43968  0.025764075  0.026134818            3 
  976000    1.0873209   -7.5681897    301.78205   0.02576691  0.026126112            3 
  977000    1.0850674   -7.5251098     301.8525  0.025746545  0.026117332            1 
  978000    1.0953371   -7.5323181    302.60843  0.025784631  0.026108328            2 
  979000    1.1100443   -7.5386668    302.14844  0.025719138  0.026099571            1 
  980000    1.0926989   -7.5340758    303.30022  0.025790835  0.026090975            2 
  981000    1.0929048   -7.5074332    303.21626  0.025757413  0.026082609            2 
  982000    1.1192389   -7.5438656    303.28541  0.025737051  0.026074204            2 
  983000      1.07795   -7.5332158    302.94909  0.025682358  0.026065906            2 
  984000    1.0995422   -7.5284644    304.46985  0.025785049  0.026057526            1 
  985000    1.0900655   -7.5337435    304.87347  0.025793018  0.026049391            2 
  986000    1.1080716     -7.52708    305.51861  0.025821384  0.026041487            2 
  987000     1.074249   -7.5463954    306.65154  0.025890876  0.026033424            3 
  988000    1.1116556   -7.5361897    305.32078  0.025752427  0.026025314            1 
  989000    1.1080299   -7.5395259    306.06326   0.02578895  0.026017321            3 
  990000    1.0990707   -7.5015161    307.11988  0.025851841  0.026009357            2 
  991000     1.097259   -7.5681181    306.32597  0.025758995  0.026001438            2 
  992000    1.0902534   -7.5274465    305.19052  0.025637645  0.025993346            2 
  993000     1.092295   -7.5342562    306.26725  0.025702186   0.02598517            2 
  994000    1.0899469   -7.5639688    306.17301  0.025668428  0.025976974            2 
  995000    1.0815216   -7.5471893    306.61706  0.025679821   0.02596889            2 
  996000     1.063947   -7.5394113    307.47478  0.025725801   0.02596083            3 
  997000    1.0790778   -7.5226981    307.44374  0.025697404  0.025952853            3 
  998000    1.0662322   -7.5741419     306.6795  0.025607841  0.025945038            2 
  999000    1.0797805   -7.5000182    308.68633  0.025749611  0.025937218            2 
 1000000    1.0789797   -7.5390543    308.71432  0.025726193   0.02592925            2 
 1001000    1.0944961   -7.5421317     308.0851   0.02564811  0.025921431            5 
 1002000    1.0790599   -7.5602354    308.43764  0.025651833  0.025913282            2 
 1003000    1.0883374   -7.5914597    308.01318  0.025590992  0.025905042            5 
 1004000     1.096879   -7.5311973    309.66615  0.025702702  0.025896844            2 
 1005000    1.0832792   -7.5846448    309.82241  0.025690084  0.025888984            2 
 1006000    1.0984081   -7.5364841       309.54  0.025641153   0.02588093            3 
 1007000    1.0907373   -7.5677892    309.95054  0.025649664  0.025873038            5 
 1008000    1.0915668    -7.574215    309.41582  0.025580012  0.025865132            4 
 1009000    1.1099035   -7.5528647    310.71003  0.025661548  0.025857219            1 
 1010000    1.0978508   -7.5708738     310.5636  0.025624059  0.025849242            1 
 1011000    1.0966275   -7.5684571    309.47877  0.025509295  0.025841189            1 
 1012000    1.1147431   -7.5712233    311.18201  0.025624342  0.025833253            4 
 1013000    1.1135182   -7.5432973     310.8347  0.025570475  0.025825354            3 
 1014000    1.0697052   -7.5529497    311.90677  0.025633364  0.025817528            3 
 1015000    1.1087523   -7.5806135    311.30821  0.025558966  0.025809691            2 
 1016000    1.0696543   -7.4988761    312.33425  0.025617967  0.025801739            3 
 1017000    1.0918402   -7.4886281    312.70681  0.025623304  0.025793832            1 
 1018000    1.1176393   -7.5862638    310.91969  0.025451841  0.025785903            2 
 1019000    1.0990239   -7.5747042     312.3618  0.025544799  0.025777856            1 
 1020000    1.0989626    -7.575903    312.32505  0.025516753  0.025769923            2 
 1021000     1.097227   -7.5453529    312.87433  0.025536593  0.025761735            3 
 1022000    1.0698344   -7.5258092    312.71601  0.025498696  0.025753735            2 
 1023000    1.1028104    -7.547673    313.17324  0.025511017   0.02574576            2 
 1024000    1.1168946   -7.5627508    313.69795  0.025528805  0.025737722            4 
 1025000    1.0637201   -7.5707718    313.34456  0.025475167   0.02572974            4 
 1026000    1.1125499   -7.5243992     314.3166  0.025529288  0.025721866            3 
 1027000    1.0646483   -7.5742767    313.95808  0.025475339  0.025714181            5 
 1028000    1.0755953    -7.530758    314.88961  0.025526071  0.025706303            2 
 1029000     1.111761   -7.5563518     315.0214  0.025511937   0.02569864            1 
 1030000    1.0654815   -7.5519469    315.84198  0.025553559  0.025690992            2 
 1031000    1.0784388   -7.5392956     315.9325  0.025536089   0.02568313            1 
 1032000    1.0947323   -7.5305916    315.55324  0.025480721  0.025675353            2 
 1033000    1.1191314   -7.5250464    316.38607  0.025523239  0.025667682            3 
 1034000    1.0919037   -7.5439785    316.58526  0.025514608  0.025659844            3 
 1035000    1.0867021   -7.5528665    316.06348  0.025447945  0.025651989            6 
 1036000     1.098501   -7.5757548    315.41629  0.025371323   0.02564437            3 
 1037000    1.0657812    -7.570477    316.86897  0.025463594  0.025636716            4 
 1038000    1.0751313    -7.530734    317.25863  0.025470346  0.025629358            5 
 1039000     1.076732   -7.5380461    318.22762   0.02552355  0.025621938            1 
 1040000    1.0896945   -7.5744245    317.17759  0.025414871  0.025614412            2 
 1041000    1.1060545   -7.5175164    318.97037  0.025533971  0.025607024            2 
 1042000    1.0756667   -7.5536822    318.47121  0.025469546  0.025599722            2 
 1043000    1.0964122   -7.5666644    318.91439  0.025480536  0.025592705            3 
 1044000    1.0855402   -7.5332516    320.04394  0.025546292  0.025585664            2 
 1045000    1.0974794   -7.5612766    318.56505  0.025403911  0.025578339            4 
 1046000    1.0758772   -7.5548883     319.8949  0.025485572  0.025571299            2 
 1047000    1.0893789   -7.5439149    320.24001  0.025488699  0.025564485            1 
 1048000    1.0893328   -7.5757344    320.64071   0.02549624  0.025557803            2 
 1049000    1.0876843     -7.53126    322.34065  0.025606979  0.025551168            4 
 1050000    1.0869789   -7.5629594    321.77172  0.025537438  0.025544482            2 
 1051000    1.0857073      -7.5573    321.13097  0.025462335  0.025537639            3 
 1052000    1.0899337   -7.5851426    320.82082  0.025413563  0.025530562            1 
 1053000    1.0687444   -7.5290561    322.29225  0.025505876  0.025523814            2 
 1054000    1.0659745   -7.5673192    322.57921  0.025504365  0.025517058            2 
 1055000     1.094814   -7.5364395    322.75411  0.025494006  0.025510219            4 
 1056000    1.0792586    -7.588465    323.31844  0.025514397  0.025503477            2 
 1057000    1.0841943   -7.5721152    323.01219  0.025466114  0.025496482            2 
 1058000    1.1006427   -7.5419205    323.81752  0.025505476  0.025489576            2 
 1059000    1.0732727   -7.5759115    322.75093  0.025397461  0.025482671            1 
 1060000    1.0639027   -7.5783953    323.17223  0.025406622  0.025475722            4 
 1061000    1.0671338   -7.5422809    323.74821  0.025427915  0.025468729            2 
 1062000    1.0751257   -7.5749292    324.47851  0.025461277  0.025461765            3 
 1063000    1.0932053   -7.5790828    323.45306  0.025356935  0.025454772            5 
 1064000    1.0941341   -7.5163282    324.68044  0.025429232  0.025447828            3 
 1065000    1.0913279   -7.5685247    324.51937  0.025392752  0.025440824            4 
 1066000    1.0531858   -7.6025217    323.70921  0.025305598  0.025433857            3 
 1067000    1.0727002   -7.5432057    324.68648  0.025358206  0.025426779            4 
 1068000    1.0924427    -7.557077    325.02716  0.025361046  0.025419993            1 
 1069000    1.0714362   -7.5610027    325.37362   0.02536433  0.025413172            2 
 1070000    1.0507824   -7.5858052    325.46392  0.025347658  0.025406454            2 
 1071000    1.0656554   -7.5766849    325.95619  0.025362293  0.025399748            2 
 1072000    1.0497524   -7.5698624    326.28507    0.0253642  0.025393053            3 
 1073000    1.0729508   -7.5737384    327.09737  0.025403648  0.025386255            5 
 1074000    1.0817974   -7.5485752    326.44943   0.02532972  0.025379662            1 
 1075000    1.0823881    -7.585536    326.99692  0.025348599  0.025373151            3 
 1076000    1.0701321    -7.582847    327.27161  0.025346314  0.025366498            5 
 1077000     1.091594   -7.5722594    327.29521  0.025324606    0.0253598            3 
 1078000    1.0644027   -7.5653123    327.63465  0.025327354  0.025353146            2 
 1079000    1.0836573   -7.5920636    327.41817  0.025287162  0.025346239            3 
 1080000    1.0994792   -7.5814047     328.2936  0.025331296  0.025339425            2 
 1081000    1.0660361   -7.5837326    327.46391  0.025243903  0.025332869            6 
 1082000    1.0947413   -7.5891646    328.52728  0.025302471  0.025326117            3 
 1083000    1.0832959   -7.5615151    329.55137  0.025357908   0.02531933            3 
 1084000    1.0821992   -7.5547814    328.44363  0.025249357  0.025312596            1 
 1085000    1.0782728   -7.5833551    328.64801  0.025241783  0.025305859            2 
 1086000    1.0808906   -7.6106948    328.36899  0.025197129  0.025299011            2 
 1087000    1.0718598   -7.6036239     329.2735  0.025243292  0.025292054            2 
 1088000    1.0862268   -7.5549481    330.16098  0.025288065  0.025285121            1 
 1089000    1.0707962   -7.5430752    330.99999  0.025329047  0.025278576            4 
 1090000     1.061589   -7.5627592    330.94236  0.025301403  0.025272192            4 
 1091000    1.0771244   -7.5703221    330.60235  0.025252242  0.025265442            2 
 1092000    1.0947332   -7.5977592    330.09253  0.025190211  0.025258734            3 
 1093000    1.0838762   -7.5532261    332.12694  0.025322274  0.025252167            1 
 1094000      1.07372   -7.5978431    330.74426  0.025193804  0.025245616            1 
 1095000    1.0603519    -7.561333    331.71529  0.025244695  0.025239038            3 
 1096000    1.0794772   -7.5921034    331.91842  0.025237106  0.025232272            3 
 1097000    1.0854764    -7.602288    331.95524  0.025216897  0.025225679            2 
 1098000    1.0881744   -7.5867432    332.34074  0.025223189  0.025219164            2 
 1099000    1.0556923   -7.5687005    333.12898  0.025260007  0.025212506            3 
 1100000    1.0897835   -7.5930316    332.53445  0.025192004  0.025205905            6 
 1101000    1.1038843   -7.5753973     332.9361  0.025199523  0.025199357            2 
 1102000    1.0846616   -7.5584675    334.10867  0.025265326  0.025192907            2 
 1103000    1.0635514   -7.5433871    334.13269  0.025244235  0.025186621            2 
 1104000    1.0632537   -7.5764274    334.69093  0.025263506  0.025180326            1 
 1105000    1.0757124    -7.621149    333.00017  0.025113135  0.025173786            1 
 1106000    1.0538492   -7.5973492    333.82923  0.025152896  0.025167205            5 
 1107000    1.0691302   -7.5726359    335.29635  0.025240616  0.025160937            2 
 1108000     1.070472   -7.5274755    335.74219  0.025251368  0.025154757            5 
 1109000    1.0599767   -7.5714767    333.81233  0.025083583  0.025148284            5 
 1110000    1.0832647   -7.5983133    334.94246   0.02514583  0.025141647            3 
 1111000    1.0574979    -7.557734    336.14936  0.025213723  0.025135372            2 
 1112000    1.0766793    -7.513542    337.13267  0.025264738  0.025128961            2 
 1113000    1.0648349   -7.6157511    335.05566  0.025086527  0.025122534            3 
 1114000    1.0659771   -7.5884022      335.476  0.025095452  0.025115949            2 
 1115000    1.0755767   -7.5712034     336.4999  0.025149469  0.025109419            2 
 1116000    1.0650534    -7.570637    337.15663  0.025175973  0.025102948            3 
 1117000    1.0779183   -7.6115921    336.37343  0.025095004  0.025096502            4 
 1118000    1.0598697   -7.5809688    336.96959  0.025116994  0.025090099            3 
 1119000    1.0564761   -7.5500009    337.87064  0.025161651  0.025083645            2 
 1120000    1.0895816   -7.5882192      337.071  0.025079688   0.02507723            1 
 1121000    1.0896059   -7.5865082    338.17524  0.025139402   0.02507073            1 
 1122000    1.0695644   -7.6109623    337.51181  0.025067722  0.025064259            1 
 1123000    1.0712518   -7.5725834    338.84706  0.025144484   0.02505783            2 
 1124000    1.0725316   -7.6278867    337.99095  0.025058641    0.0250513            6 
 1125000    1.0821966   -7.6026727    338.44439  0.025069955  0.025044698            3 
 1126000    1.0803881   -7.6061794    338.60439  0.025059531  0.025038399            4 
 1127000    1.0671597   -7.5846184    339.78431  0.025124542  0.025032007            2 
 1128000    1.0748988   -7.5489374    340.29222  0.025139791  0.025025797            5 
 1129000    1.0726461   -7.5995294    339.63145  0.025068752  0.025019553            1 
 1130000    1.0474748   -7.5344344     341.0127   0.02514843  0.025013374            2 
 1131000    1.0600254   -7.5771187     340.5278  0.025090466  0.025007189            4 
 1132000    1.0807156   -7.5809072     340.7999  0.025088332  0.025000993            2 
 1133000    1.0531036   -7.6159324    340.52706  0.025046121  0.024994731            1 
 1134000    1.0870749   -7.5931985    340.78416  0.025042928  0.024988399            8 
 1135000    1.0573639    -7.551637    340.77531  0.025020214  0.024981928            3 
 1136000    1.0499208   -7.6265953    340.46514  0.024975436  0.024975474            2 
 1137000    1.0555555   -7.6119823    341.07228  0.024997968  0.024968917            3 
 1138000    1.0534406   -7.5726455    341.19977  0.024985337  0.024962446            3 
 1139000    1.0700224   -7.6041987    341.17305  0.024961446   0.02495591            3 
 1140000    1.0664553   -7.6296006    340.55004  0.024894009  0.024949222            1 
 1141000    1.0583154   -7.5644989     341.4152  0.024935378  0.024942479            1 
 1142000    1.0598211   -7.5983843    340.46183  0.024843975  0.024935752            2 
 1143000    1.0802288   -7.5739906    342.06222  0.024938919  0.024928926            3 
 1144000    1.0574627   -7.5984202    342.97917  0.024983914  0.024922136            3 
 1145000    1.0730273   -7.6209031    341.70699  0.024869505  0.024915397            1 
 1146000    1.0374847   -7.6233467    342.06975  0.024874182  0.024908552            2 
 1147000    1.0681848   -7.6125517    342.52485   0.02488556  0.024901751            3 
 1148000     1.077404   -7.6143724    342.08683  0.024832087  0.024894924            5 
 1149000    1.0654133   -7.6337213    342.59496  0.024847328  0.024888362            1 
 1150000    1.0688819   -7.6396183    344.13347  0.024937208  0.024881776            2 
 1151000    1.0702441   -7.6088265    343.75466  0.024888116  0.024875193            2 
 1152000    1.0697444   -7.5925585    343.59417  0.024854903  0.024868617            3 
 1153000    1.0605349    -7.534178    344.70274  0.024913468  0.024862005            4 
 1154000    1.0810541   -7.6057064    343.92832  0.024835956  0.024855494            2 
 1155000    1.0663059   -7.6168586    344.85153  0.024881063  0.024848977            3 
 1156000    1.0676347   -7.5729388     344.5408   0.02483714  0.024842428            2 
 1157000    1.0942316   -7.6019675    345.44258  0.024880624  0.024835849            7 
 1158000    1.0637314   -7.6469702    344.73676  0.024808345  0.024829358            2 
 1159000    1.0775271   -7.6164802    345.14468   0.02481627  0.024823041            3 
 1160000    1.0482665   -7.6138135    346.04384  0.024859472  0.024816588            5 
 1161000    1.0905647   -7.6112804     346.0346  0.024837396  0.024810208            3 
 1162000    1.0677469   -7.6296997     345.7974   0.02479901  0.024803798            5 
 1163000    1.0768756   -7.5887968    346.44771  0.024824284  0.024797339            1 
 1164000    1.0679308   -7.6393052    345.53073  0.024737309  0.024790859            1 
 1165000    1.0545134    -7.590777    347.05188  0.024824884  0.024784322            8 
 1166000    1.0829338    -7.593019    347.20529  0.024814558  0.024777731            4 
 1167000    1.0851121   -7.6805261    346.46549  0.024740467  0.024771088            3 
 1168000    1.0468246   -7.6063496    348.48544  0.024863402  0.024764493            1 
 1169000    1.0718727    -7.618847    347.81676  0.024794465  0.024758077            2 
 1170000     1.063261   -7.6229963     347.5286  0.024752749  0.024751721            5 
 1171000    1.0755964   -7.6312278     348.6773  0.024813357  0.024745349            2 
 1172000    1.0692476   -7.5772898    349.19342  0.024828884  0.024738963            5 
 1173000    1.0573455   -7.6007188    348.29436  0.024743845  0.024732459            2 
 1174000    1.0754112   -7.6338483    348.25332  0.024719855  0.024725821            2 
 1175000    1.0858925   -7.6299488    348.27358  0.024700254  0.024719039            4 
 1176000    1.0567324   -7.6074985    348.27023  0.024679013  0.024712398            4 
 1177000    1.0510327   -7.6260605    348.45791  0.024671333  0.024705773            3 
 1178000    1.0608975   -7.5886992    349.58347  0.024730013  0.024699295            2 
 1179000    1.0520114   -7.6056784    349.65029  0.024713761  0.024692804            2 
 1180000    1.0869453   -7.5957822    350.07034  0.024722481  0.024686502            1 
 1181000    1.0832601   -7.6679728    350.14344  0.024706706  0.024679971            3 
 1182000    1.0686186   -7.6458137    350.25885  0.024693941  0.024673454            1 
 1183000    1.0649559   -7.6404252    349.68329  0.024632522  0.024666958            3 
 1184000    1.0518071   -7.5727128    351.51872  0.024740901  0.024660401            2 
 1185000    1.0553833   -7.6172659    350.31618  0.024635456  0.024653819            2 
 1186000    1.0504426   -7.6615126    351.27164  0.024681818  0.024647119            1 
 1187000    1.0640329   -7.6288399    350.02218  0.024573307  0.024640401            4 
 1188000    1.0751733   -7.6180358     350.7298  0.024602259  0.024633716            1 
 1189000    1.0578265   -7.6100439    351.22213  0.024616073  0.024626956            2 
 1190000    1.0533139   -7.5992798    351.59048  0.024621182  0.024620075            2 
 1191000    1.0725943   -7.6252231    351.15542  0.024570069  0.024613199            4 
 1192000    1.0589805   -7.5927427     352.5819  0.024649182  0.024606429            2 
 1193000    1.0544709   -7.5997424     351.8086  0.024574504  0.024599558            1 
 1194000    1.0832878   -7.6056048    352.55643  0.024606116  0.024592676            2 
 1195000    1.0539155   -7.6543667    351.18684  0.024490017  0.024585802            1 
 1196000    1.0640692   -7.6390376      352.186  0.024539159  0.024579201            3 
 1197000    1.0561344   -7.6110227    354.28976  0.024665118    0.0245726            1 
 1198000     1.066471   -7.5910463    354.04068  0.024627204  0.024566004            1 
 1199000    1.0477498   -7.6121638    353.98321  0.024602669  0.024559431            2 
 1200000    1.1015145   -7.6081829    353.78736  0.024568567  0.024552761            2 
 1201000    1.0722997   -7.5774037    354.47184  0.024595604  0.024546063            3 
 1202000    1.0731851   -7.6060476    354.19262  0.024555783  0.024539398            2 
 1203000    1.0505482    -7.590359    354.33106  0.024544961  0.024532734            3 
 1204000    1.0645282   -7.6194731    353.48566  0.024466062  0.024526027            2 
 1205000    1.0718042   -7.6162063    353.94749  0.024477696  0.024519398            2 
 1206000    1.0636472   -7.6276778    354.67083  0.024507382  0.024512622            1 
 1207000    1.0540605   -7.6189222    353.83331  0.024429253  0.024505862            2 
 1208000    1.0458075   -7.5872608    354.70612  0.024469241   0.02449929            5 
 1209000    1.0588695   -7.6375392    355.21266  0.024483917  0.024492715            3 
 1210000    1.0410573   -7.6284665    356.09814  0.024524665  0.024486185            3 
 1211000    1.0576309   -7.6058916    356.30268  0.024518489  0.024479719            2 
 1212000    1.0619784   -7.6253297    356.68073  0.024524252  0.024473345            4 
 1213000    1.0571119   -7.5887765    357.31922  0.024547899  0.024466828            4 
 1214000    1.0689782   -7.6380968    356.75888  0.024489215  0.024460385            2 
 1215000    1.0463971   -7.6478079    357.64726   0.02452999  0.024453821            3 
 1216000    1.0525398   -7.6299536     356.9659  0.024463123  0.024447294            2 
 1217000    1.0689069    -7.655001    356.95415  0.024442218  0.024440742            4 
 1218000    1.0536811   -7.5955017    358.31349  0.024515154   0.02443428            1 
 1219000    1.0789982   -7.6440378    357.72104  0.024454542  0.024427853            2 
 1220000    1.0757053   -7.6161354    359.45643  0.024553035  0.024421381            1 
 1221000    1.0595368   -7.6580786    357.72988  0.024415089  0.024414933            3 
 1222000    1.0494179   -7.6381443    357.86227  0.024404137  0.024408182            2 
 1223000    1.0563017   -7.6315636    358.87829  0.024453413  0.024401505            3 
 1224000    1.0529101   -7.5896092    359.52612  0.024477541  0.024395036            2 
 1225000    1.0494665   -7.6317354    357.87416  0.024345181  0.024388385            6 
 1226000    1.0748666   -7.6424546    358.54985  0.024371251  0.024381732            2 
 1227000    1.0400538   -7.6229305     358.3642   0.02433878  0.024374835            2 
 1228000    1.0732456   -7.5944302    359.91746  0.024424366    0.0243679            4 
 1229000    1.0558165   -7.5956409    359.41442  0.024370384  0.024361219            1 
 1230000    1.0671982   -7.6099364    360.25373  0.024407434  0.024354755            2 
 1231000    1.0655533   -7.6221099    358.73994   0.02428513  0.024348043            1 
 1232000    1.0706048   -7.6337091    359.82642  0.024338908  0.024341295            1 
 1233000    1.0614902   -7.6232234     359.8218  0.024318857  0.024334771            2 
 1234000    1.0418332   -7.6524011    359.11145  0.024251178  0.024328198            2 
 1235000    1.0252156   -7.6260955    361.44886  0.024389262  0.024321627            2 
 1236000    1.0667754   -7.5938165    360.84508  0.024328821    0.0243151            1 
 1237000    1.0664738   -7.5909523     361.1287   0.02432826   0.02430849            2 
 1238000    1.0402896   -7.6508835    360.40555  0.024259932  0.024301945            2 
 1239000    1.0453778   -7.6180965    361.66574   0.02432511  0.024295262            1 
 1240000    1.0547116   -7.6712015    361.64974  0.024304418  0.024288714            3 
 1241000    1.0479141   -7.6482414    362.05543  0.024312076  0.024282146            2 
 1242000    1.0532431   -7.6097903    362.30668  0.024309358  0.024275451            4 
 1243000    1.0368676    -7.671718    361.56552  0.024240113  0.024268755            2 
 1244000    1.0461426   -7.6730296     361.9247  0.024244688  0.024262059            3 
 1245000    1.0463726   -7.6417153    362.90022   0.02429051  0.024255286            2 
 1246000    1.0544077   -7.6733436    361.95812  0.024208007  0.024248506            5 
 1247000    1.0647636    -7.658541    361.33489  0.024146946  0.024241635            2 
 1248000    1.0541424   -7.6187045     362.3225  0.024193543  0.024234804            6 
 1249000    1.0411393   -7.6271804    361.96087  0.024150045  0.024227912            4 
 1250000     1.048937   -7.6049185    363.11697  0.024207798  0.024221084            2 
 1251000    1.0392811    -7.639405    362.27304   0.02413223  0.024214179            3 
 1252000    1.0474949   -7.6156451    363.31664  0.024182417   0.02420717            3 
 1253000    1.0324729   -7.6425921    363.56661  0.024179743   0.02420031            2 
 1254000    1.0524203   -7.6445047    362.47539  0.024087944  0.024193442            2 
 1255000    1.0303137   -7.6534236    363.86296  0.024160887  0.024186662            2 
 1256000    1.0592974   -7.6484491     365.2649  0.024234667  0.024179793            2 
 1257000    1.0287646   -7.6528858    364.63914  0.024173902  0.024172913            2 
 1258000    1.0596222   -7.6913473    363.35012  0.024069298  0.024166038            2 
 1259000    1.0420183   -7.6137233    365.41236   0.02418668  0.024159134            1 
 1260000    1.0734965   -7.5776529    365.44896  0.024169905  0.024152298            2 
 1261000    1.0349805   -7.6037453    364.46418  0.024085658  0.024145712            4 
 1262000     1.052892    -7.638184    365.32126  0.024123168  0.024138914            4 
 1263000    1.0735262   -7.6401162    365.23368   0.02409829   0.02413218            1 
 1264000    1.0444877   -7.6377679    366.82926  0.024184419  0.024125435            4 
 1265000    1.0428232   -7.6698971     364.2241  0.023993682  0.024118533            1 
 1266000    1.0472049   -7.6542051    366.64762  0.024134256  0.024111647            2 
 1267000    1.0478991   -7.6487826    365.91387  0.024066948  0.024104785            3 
 1268000    1.0395009   -7.6446705    366.19251   0.02406628  0.024097859            2 
 1269000    1.0493534   -7.6760768    365.30989  0.023989354  0.024090801            2 
 1270000    1.0461048   -7.7177169    365.81337  0.024003502   0.02408369            2 
 1271000    1.0721121   -7.6896287    364.95463  0.023928313  0.024076546            1 
 1272000    1.0740897   -7.6420645    366.95933  0.024040836  0.024069391            1 
 1273000     1.082333   -7.6296916      366.657   0.02400216  0.024062354            2 
 1274000    1.0482644    -7.611232    367.23922  0.024021404  0.024055585            4 
 1275000    1.0271773   -7.6730599    366.59234  0.023960284  0.024048777            6 
 1276000    1.0466644   -7.6581091    366.52395   0.02393704  0.024041697            4 
 1277000    1.0340543   -7.6791174    367.22979  0.023964356  0.024034588            2 
 1278000    1.0507112    -7.661661    366.22172  0.023879872  0.024027466            2 
 1279000    1.0468317   -7.6687168     367.1967  0.023924726  0.024020434            4 
 1280000    1.0674079   -7.6843902    366.93328  0.023888886  0.024013245            1 
 1281000    1.0504101   -7.6578658    367.20483  0.023887902  0.024006015            2 
 1282000    1.0574465   -7.6706635    367.36418  0.023879627  0.023998843            2 
 1283000    1.0474035   -7.6420449    367.20114  0.023850425  0.023991682            3 
 1284000    1.0408307   -7.6508952    368.94697  0.023945156  0.023984621            2 
 1285000     1.063051   -7.6875762    368.79871  0.023916907  0.023977539            2 
 1286000    1.0608195   -7.6936416     367.5553  0.023817736  0.023970391            3 
 1287000    1.0383076    -7.686925    368.55725  0.023864106  0.023963198            6 
 1288000    1.0576526   -7.6527129    369.27146  0.023891787  0.023956086            5 
 1289000    1.0229412   -7.6402145    368.96379  0.023853361  0.023948971            2 
 1290000     1.038206   -7.6440425    369.81532  0.023889879  0.023941931            2 
 1291000    1.0460412   -7.6986532    368.73655  0.023801739   0.02393474            4 
 1292000    1.0525684   -7.6776701    370.18081  0.023876471  0.023927671            7 
 1293000    1.0415512   -7.6910066    369.08606  0.023787449  0.023920288            2 
 1294000    1.0130125   -7.6857944     368.9688  0.023761515  0.023912942            1 
 1295000    1.0427373     -7.71067    370.25124  0.023825691  0.023905789            1 
 1296000     1.036888    -7.649879    370.02807  0.023792957   0.02389866            2 
 1297000    1.0405691   -7.6784148    369.80904   0.02376054  0.023891539            2 
 1298000    1.0412651    -7.652697    369.95363  0.023751517  0.023884424            6 
 1299000    1.0508886   -7.6909698    369.70256  0.023717126  0.023877287            6 
 1300000    1.0492378   -7.6776214    370.59627  0.023756171  0.023870084            1 
 1301000    1.0304015     -7.68717    370.31547  0.023719925  0.023862892            1 
 1302000    1.0249259   -7.6694468     370.6012  0.023719995  0.023855747            3 
 1303000    1.0420852   -7.6793394    371.30201  0.023746611  0.023848488            3 
 1304000    1.0369582   -7.6580385    370.69571  0.023689654  0.023841232            2 
 1305000    1.0276304   -7.6762897    372.24187  0.023770234  0.023833931            2 
 1306000    1.0393521    -7.609785    373.19823  0.023813057  0.023826737            2 
 1307000    1.0390313   -7.6804469    372.47779  0.023748903  0.023819648            5 
 1308000    1.0673355   -7.6298464    373.66659  0.023806485  0.023812455            2 
 1309000    1.0336263   -7.7021083    371.50554  0.023650722  0.023805184            3 
 1310000    1.0674593   -7.6797947    371.37697  0.023624489  0.023797674            3 
 1311000    1.0717206   -7.7065211    372.39924   0.02367145   0.02379019            3 
 1312000    1.0451773   -7.6785052    372.86701  0.023683118  0.023782868            4 
 1313000    1.0324083   -7.6545835    373.14991  0.023683036  0.023775719            3 
 1314000    1.0425874   -7.6808921    373.32627  0.023676197  0.023768668            2 
 1315000    1.0301533   -7.7195204    373.39016  0.023662241  0.023761496            2 
 1316000    1.0238992   -7.6628028    373.99493  0.023682556  0.023754405            2 
 1317000    1.0833444   -7.6465555    374.93703  0.023724186  0.023747493            2 
 1318000    1.0499587   -7.6337319    374.77489  0.023695934  0.023740564            2 
 1319000    1.0345551   -7.6846976    374.45865  0.023657989  0.023733521            6 
 1320000    1.0420102   -7.6577485     374.5856  0.023648081  0.023726464            2 
 1321000    1.0527141   -7.6622751    374.89778  0.023649872  0.023719421            1 
 1322000    1.0353627    -7.665481    375.38656  0.023662794  0.023712388            1 
 1323000    1.0208485   -7.7068179    375.04688  0.023623512  0.023705275            8 
 1324000    1.0492937   -7.6363442    376.17033   0.02367638  0.023698211            3 
 1325000    1.0430076   -7.6279639    375.63344  0.023624745  0.023691159            2 
 1326000    1.0314453   -7.6650952    377.00303  0.023693001  0.023684153            4 
 1327000    1.0321783   -7.6889908    375.19128  0.023561371  0.023677122            1 
 1328000    1.0554769   -7.6216764    376.23675  0.023609234  0.023670085            2 
 1329000    1.0332723   -7.6512998    376.24695  0.023592109  0.023663129            2 
 1330000    1.0287936    -7.634416    377.25165  0.023637321  0.023656002            3 
 1331000    1.0587174   -7.7072629    376.14106  0.023550029  0.023648986            4 
 1332000    1.0379177   -7.7042992    377.05095  0.023589274  0.023641735            2 
 1333000    1.0259157   -7.6753114    375.88726  0.023498829  0.023634657            3 
 1334000    1.0179334    -7.654332     378.3715    0.0236364  0.023627653            4 
 1335000    1.0282726   -7.6775089    377.18251  0.023544476  0.023620745            2 
 1336000    1.0388531   -7.6607422    378.19771  0.023590177  0.023613867            1 
 1337000    1.0371844   -7.6854532      378.005  0.023560521  0.023606924            5 
 1338000    1.0224608   -7.6559207    378.89818  0.023598542  0.023600014            1 
 1339000    1.0445418   -7.6550393    379.98817  0.023648753  0.023593051            2 
 1340000    1.0220284    -7.684304    378.45263  0.023535611   0.02358622            5 
 1341000    1.0317746   -7.6585792    378.90179  0.023545973  0.023579352            2 
 1342000    1.0355886   -7.6758986    379.41204  0.023560112  0.023572575            3 
 1343000    1.0707982   -7.6534613    380.07129  0.023583475  0.023565803            5 
 1344000    1.0540903   -7.6639315    380.06735  0.023565684   0.02355904            1 
 1345000     1.041619    -7.653007    379.99428  0.023543636   0.02355221            2 
 1346000    1.0439103    -7.701392    379.28722  0.023482369   0.02354534            3 
 1347000    1.0361953   -7.6904165    379.72932  0.023492287  0.023538498            2 
 1348000    1.0223257   -7.6883779    380.25204  0.023507173  0.023531608            2 
 1349000    1.0341516   -7.6765043    380.20707   0.02348697  0.023524612            2 
 1350000    1.0451442   -7.6807049    379.90293  0.023450798  0.023517633            1 
 1351000    1.0410177   -7.6972439    381.33033  0.023521486   0.02351046            4 
 1352000    1.0278841   -7.6863009    379.81963  0.023410973  0.023503281            2 
 1353000    1.0212662   -7.6849534    379.61307  0.023380948  0.023496165            1 
 1354000     1.024973   -7.6596981    380.35352  0.023409251  0.023489013            1 
 1355000    1.0320187    -7.677916    380.82936   0.02342124  0.023482037            1 
 1356000    1.0539862   -7.6854573    381.60909  0.023451886  0.023474966            4 
 1357000     1.059005   -7.7079897    381.44822  0.023424725  0.023467884            2 
 1358000    1.0463339   -7.6780751    381.19762  0.023392098  0.023460815            1 
 1359000    1.0047353   -7.6625597    381.44862  0.023390276  0.023453907            2 
 1360000    1.0273761   -7.6445308    380.84308  0.023335973  0.023447011            3 
 1361000    1.0381499   -7.6719118    382.06487  0.023393637  0.023439991            1 
 1362000    1.0426845   -7.6955306     381.6762   0.02335268  0.023432898            2 
 1363000    1.0212761   -7.7193759    381.72676  0.023338638  0.023425835            4 
 1364000    1.0348897   -7.6790071    382.83596  0.023389294  0.023418752            2 
 1365000    1.0501757   -7.6645942      382.368   0.02334359  0.023411621            1 
 1366000    1.0251053   -7.6495949    383.34432  0.023386062  0.023404597            1 
 1367000    1.0159804   -7.6718786    383.61303  0.023385334  0.023397624            4 
 1368000    1.0420795   -7.7152689    382.12921  0.023277851  0.023390661            1 
 1369000    1.0418194   -7.6779829    384.20763  0.023387365  0.023383654            4 
 1370000    1.0545157   -7.7192828     381.8702  0.023228114  0.023376613            3 
 1371000    1.0381544   -7.6852577    383.70558  0.023322732  0.023369467            1 
 1372000    1.0381696   -7.7089524    383.91207  0.023318274   0.02336237            4 
 1373000     1.006732   -7.6938628    384.44531  0.023333656  0.023355455            3 
 1374000    1.0252621   -7.6554165    384.55742  0.023323473  0.023348607            2 
 1375000    1.0492786   -7.6777739    385.90494  0.023388178  0.023341806            1 
 1376000    1.0350946   -7.7091043    384.50373  0.023286321  0.023334954            1 
 1377000    1.0159309   -7.7024291    385.63474  0.023337856   0.02332807            3 
 1378000    1.0253029   -7.7676276    385.04072  0.023284997  0.023321147            2 
 1379000    1.0425498   -7.7228051    384.59042    0.0232409  0.023314139            3 
 1380000    1.0182029   -7.6472697    386.86047  0.023361139  0.023307247            3 
 1381000    1.0389544   -7.6603678    386.55716  0.023325921  0.023300528            4 
 1382000    1.0174881   -7.6854315    385.05006  0.023218166  0.023293739            2 
 1383000    1.0460473   -7.6613469    386.30925  0.023277251  0.023286878            4 
 1384000    1.0197627   -7.6716513    386.90551  0.023296334  0.023280117            3 
 1385000    1.0193178   -7.7187379    386.33081  0.023244935   0.02327324            4 
 1386000    1.0484627    -7.707488    386.92834  0.023264089  0.023266447            5 
 1387000    1.0093254   -7.6713285    386.93793  0.023247893  0.023259667            2 
 1388000    1.0446577   -7.6953113    387.44439  0.023261551  0.023252936            2 
 1389000    1.0247265   -7.6914089    387.98709  0.023277363  0.023246293            2 
 1390000    1.0274043   -7.7036803     387.6212  0.023238681  0.023239476            5 
 1391000    1.0241779     -7.69581    388.21406  0.023257492  0.023232538            2 
 1392000     1.042719   -7.7261226    387.13823  0.023176379    0.0232257            8 
 1393000    1.0214621   -7.7427932    389.53453  0.023303095  0.023218821            3 
 1394000    1.0319907   -7.7039618    388.79225  0.023242005  0.023212157            4 
 1395000    1.0517374   -7.7214958     388.7834  0.023224815  0.023205572            4 
 1396000    1.0258518   -7.7067453    388.38641   0.02318448  0.023198837            5 
 1397000    1.0476973   -7.7395652    387.66301  0.023124732  0.023192047            4 
 1398000    1.0307234   -7.7439652    388.96501  0.023185802  0.023185222            3 
 1399000    1.0187995   -7.6628147    389.79977  0.023218952  0.023178484            2 
 1400000    1.0236587   -7.6730591    389.08191  0.023159637  0.023171727            1 
 1401000    1.0073519   -7.6804933    389.23368  0.023152134     0.023165            4 
 1402000    1.0262784   -7.7102928    390.32958   0.02320076  0.023158242            3 
 1403000    1.0462058   -7.6789685    390.13932  0.023172922  0.023151493            2 
 1404000   0.99009326   -7.6591463    390.53583  0.023179952  0.023144756            1 
 1405000    1.0086486   -7.7019547     391.2026  0.023203001   0.02313805            2 
 1406000    1.0129181   -7.7248379    389.95652  0.023112644  0.023131278            2 
 1407000    1.0224759   -7.7326943    389.35624  0.023060664   0.02312452            4 
 1408000    1.0537285    -7.693915    390.89171  0.023135163  0.023117763            3 
 1409000    1.0255173   -7.7030706    389.35849  0.023028063  0.023111088            3 
 1410000    1.0255469   -7.7059862    389.68436   0.02303099  0.023104271            1 
 1411000    1.0033671   -7.7359723    390.27609  0.023049616  0.023097359            4 
 1412000    1.0231703   -7.7276747    390.40235  0.023040743  0.023090428            2 
 1413000    1.0116362   -7.6965873    391.88654  0.023111968  0.023083486            1 
 1414000    1.0406217   -7.7169182     390.6403  0.023022177  0.023076699            2 
 1415000    1.0455894   -7.6831048    389.81965  0.022957577  0.023069849            3 
 1416000    1.0170871   -7.7025324    391.50142  0.023040338   0.02306294            4 
 1417000    1.0434321   -7.7004268     391.8405  0.023044019  0.023056148            3 
 1418000    1.0177701   -7.6985407    392.66434  0.023076183   0.02304925            2 
 1419000    1.0220281   -7.7230435    390.93171  0.022958169  0.023042457            3 
 1420000     1.037482   -7.6919487    393.67689  0.023103104  0.023035731            3 
 1421000    1.0368141   -7.7007934    393.28988   0.02306415  0.023029052            2 
 1422000    1.0112312   -7.7082478    393.25925  0.023046135  0.023022213            1 
 1423000    1.0330816   -7.7029786     394.0536  0.023076458  0.023015346            2 
 1424000    1.0200282   -7.7163462    393.45535  0.023025243  0.023008625            8 
 1425000    1.0340911   -7.7379306    392.79888  0.022970695  0.023001885            2 
 1426000    1.0120207   -7.7157817    394.02402  0.023026182  0.022995029            2 
 1427000    1.0392831   -7.7258588    393.58148  0.022984202  0.022988203            2 
 1428000    1.0133073   -7.6901497    394.18173  0.023003135  0.022981388            1 
 1429000    1.0441781    -7.705491    394.52316  0.023006949  0.022974663            6 
 1430000    1.0527576   -7.7216068    394.22219  0.022973321  0.022967907            2 
 1431000    1.0142496   -7.7094787    395.07314  0.023006822  0.022961255            1 
 1432000    1.0548215   -7.6718243    395.70581  0.023027572   0.02295453            3 
 1433000    1.0002015   -7.7160308    394.62312  0.022948542  0.022947756            3 
 1434000     1.018362   -7.7316902    395.10613  0.022960607  0.022940935            2 
 1435000    1.0324777   -7.7404292    393.98602   0.02287956  0.022934048            2 
 1436000     1.031944   -7.7434324    392.95254  0.022803653  0.022927184            2 
 1437000    1.0306886   -7.7435703    394.61926  0.022884439  0.022920249            3 
 1438000    1.0219609   -7.7243409     393.7678  0.022819182    0.0229133            5 
 1439000    1.0241873   -7.6979369    395.61123  0.022910078  0.022906347            4 
 1440000    1.0263515    -7.703135    395.51252  0.022888456  0.022899529            3 
 1441000    1.0151135   -7.7060576    395.23971  0.022856795  0.022892654            1 
 1442000    1.0214245   -7.7277524     396.3849  0.022907125  0.022885829            3 
 1443000    1.0151171   -7.7275385    394.99516  0.022810993  0.022878976            3 
 1444000    1.0469355   -7.7119428    395.55204  0.022827334  0.022872081            3 
 1445000    1.0145384   -7.7049149    397.05467  0.022898193  0.022865161            3 
 1446000    1.0066331   -7.7390658    395.64241  0.022800969  0.022858259            2 
 1447000   0.99176663   -7.7537887    396.35742  0.022826389  0.022851264            3 
 1448000    1.0141615   -7.7097608    395.72071  0.022773982  0.022844263            2 
 1449000    1.0188638   -7.6774978     397.5926  0.022865919  0.022837353            3 
 1450000    1.0143367   -7.7156765    395.65179  0.022738608  0.022830377            2 
 1451000   0.98886002   -7.7287352     396.0453  0.022745537  0.022823355            2 
 1452000    1.0122741   -7.7144969    397.19152  0.022795657  0.022816367            3 
 1453000    1.0276492   -7.7109242    397.08091  0.022773624  0.022809361            2 
 1454000    1.0411616   -7.7417767    395.15487  0.022647574  0.022802209            2 
 1455000    1.0383651   -7.7442345    396.67419  0.022719026  0.022795093            4 
 1456000    1.0049572   -7.7375822    396.66642  0.022702977  0.022787889            2 
 1457000    0.9965391   -7.7211898    396.69695  0.022689142  0.022780757            5 
 1458000    1.0205317   -7.7348213    396.70611  0.022674103  0.022773569            1 
 1459000    1.0213976   -7.7155757    397.46171   0.02270172  0.022766379            2 
 1460000    1.0123942   -7.7192086    396.72113    0.0226439  0.022759266            5 
 1461000    1.0186315   -7.6869101    399.14791  0.022766821  0.022752237            3 
 1462000    1.0275529   -7.7086051     398.8977  0.022736987  0.022745381            3 
 1463000    1.0026761   -7.7733573    396.28411  0.022572574  0.022738359            2 
 1464000    1.0039897   -7.7392282    399.01572  0.022712644   0.02273129            8 
 1465000    1.0122184   -7.7455996    397.91285  0.022634405  0.022724303            5 
 1466000    1.0332606   -7.7077055    398.85768  0.022672674  0.022717415            6 
 1467000    1.0060683   -7.7229328    400.67678  0.022760553  0.022710536            1 
 1468000    1.0166109   -7.7267905    398.60074  0.022627199  0.022703788            3 
 1469000     1.010942   -7.7582452    398.98359  0.022633514  0.022696842            3 
 1470000    1.0125828   -7.7611022    399.09658  0.022624523  0.022689963            1 
 1471000   0.99157031   -7.7145963    399.90641   0.02265502  0.022683056            5 
 1472000   0.99993269   -7.7663772    400.45739  0.022670822  0.022676133            1 
 1473000    1.0138161     -7.71427    401.46619  0.022712502  0.022669217            2 
 1474000    1.0102858   -7.7418657    400.85736  0.022662673  0.022662329            2 
 1475000    1.0054641   -7.7545164    400.55576  0.022630269  0.022655388            3 
 1476000    1.0554715   -7.7748177    400.32989  0.022602184   0.02264851            4 
 1477000   0.99683569   -7.7589768    400.01203  0.022568948  0.022641574            3 
 1478000    1.0082135    -7.715869    401.08651   0.02261426  0.022634601            7 
 1479000    1.0300877   -7.7414674    401.37465  0.022615205   0.02262755            3 
 1480000    1.0437114   -7.7083803    401.26299  0.022593637  0.022620595            2 
 1481000    1.0029156   -7.7452461    402.50321  0.022648166  0.022613662            2 
 1482000    1.0077564   -7.7554875    401.88413  0.022598073  0.022606661            3 
 1483000    1.0361342    -7.756867    401.05141  0.022536042  0.022599593            5 
 1484000    1.0212279   -7.7487652    402.51456  0.022603019  0.022592618            1 
 1485000      1.00992   -7.7798063    402.38378  0.022580459   0.02258561            2 
 1486000    1.0192121   -7.7359636    401.83025  0.022534222  0.022578686            4 
 1487000    1.0275412   -7.7025612    403.95421  0.022638097  0.022571841            2 
 1488000    1.0164894   -7.7207356    403.07589  0.022573695  0.022564983            2 
 1489000    1.0147712   -7.7315871    401.75095  0.022484383  0.022558076            1 
 1490000    1.0155492   -7.7438892    401.99916  0.022483175  0.022551183            3 
 1491000    1.0012797   -7.7624293    402.59056  0.022501149  0.022544216            2 
 1492000    1.0491944   -7.7702671    403.03722  0.022511015   0.02253716            1 
 1493000     1.032087   -7.7810663    402.33938  0.022456987  0.022530077            3 
 1494000    1.0098268   -7.7779808    402.95498  0.022476293   0.02252302            2 
 1495000    1.0128382   -7.7508271    402.92647  0.022459669   0.02251595            1 
 1496000    1.0176142   -7.7430182    402.39712  0.022415169  0.022508992            1 
 1497000    1.0324951   -7.7761714    403.20984  0.022445438  0.022502082            6 
 1498000    1.0108722   -7.7990224    403.31799   0.02243647  0.022495069            3 
 1499000    1.0018987   -7.7384557    403.83055  0.022449997  0.022488172            2 
 1500000    1.0012369   -7.7332142    404.46208  0.022470116  0.022481353            1 
 1501000    1.0242175   -7.7800394    403.63888  0.022409443  0.022474523            4 
 1502000   0.98062297   -7.7521641    404.65364  0.022450823  0.022467635            4 
 1503000    1.0179752   -7.7727787    403.74004  0.022385232   0.02246076            3 
 1504000     1.020015   -7.7752313     403.7197  0.022369221   0.02245377            2 
 1505000    1.0020818   -7.7871381    404.19467  0.022380657  0.022446824            5 
 1506000    1.0140825   -7.7350632    405.13647   0.02241791  0.022439915            5 
 1507000    1.0093268    -7.765606    404.59939  0.022373335    0.0224331           10 
 1508000    1.0153741    -7.776628    406.41994  0.022459103  0.022426318            3 
 1509000     1.031671   -7.7509476    405.16466  0.022374898  0.022419499            3 
 1510000    1.0038123   -7.7204358    406.24146  0.022419507  0.022412684            2 
 1511000   0.99658127    -7.775126    406.14065  0.022399109  0.022405839            3 
 1512000    1.0124236   -7.7558969     405.6246  0.022355853  0.022398946            2 
 1513000   0.99869591    -7.766751    405.82486  0.022352107  0.022392077            2 
 1514000    1.0003667   -7.7772261    405.88125  0.022340448  0.022385124            2 
 1515000    1.0154839   -7.7625052    406.41862   0.02235526  0.022378264            4 
 1516000    1.0110084   -7.7524601    407.00353  0.022372666  0.022371372            1 
 1517000    1.0228611   -7.7929592    406.48217  0.022329278  0.022364513            2 
 1518000    1.0222801   -7.7474185    406.17563   0.02229774  0.022357556            3 
 1519000    1.0145705   -7.7595871    406.39426  0.022295055  0.022350676            4 
 1520000    1.0102509   -7.7721329    406.74286  0.022299499  0.022343832            5 
 1521000   0.99701144   -7.8057255    407.72125  0.022338442  0.022336938            2 
 1522000   0.99600637   -7.7755203    407.21266  0.022295919  0.022330138            4 
 1523000   0.99159144   -7.7465388    406.90748  0.022264581  0.022323282            7 
 1524000    1.0142824   -7.7519604    407.97048  0.022308097  0.022316465            3 
 1525000    1.0177708   -7.7861536    408.27475  0.022310096  0.022309714            1 
 1526000     1.020619   -7.8204941    406.87895  0.022219252  0.022302883            2 
 1527000    1.0189994   -7.8071063    408.19323  0.022276426  0.022295894            2 
 1528000    1.0117271   -7.7486481    408.42582  0.022274532  0.022288988            3 
 1529000    1.0014499   -7.7356006    408.81948  0.022281419   0.02228216            3 
 1530000    1.0330282   -7.7464071    408.76522  0.022263901  0.022275359            1 
 1531000     1.013311   -7.7429728     409.0458  0.022264631   0.02226846            3 
 1532000    1.0164313   -7.7274075    409.03746  0.022249644  0.022261583            3 
 1533000    1.0123868    -7.741629    410.18999  0.022297781  0.022254642            4 
 1534000    1.0009953   -7.8116526    408.18287  0.022174211  0.022247675            3 
 1535000     1.025369   -7.7910949     408.2799  0.022165033  0.022240653            5 
 1536000    1.0158216   -7.7765516    409.47167   0.02221526  0.022233662            4 
 1537000    1.0003771   -7.7411866    409.42831  0.022198455  0.022226726            1 
 1538000    1.0116609   -7.7589803    410.12327  0.022221677  0.022219787            2 
 1539000    1.0154626   -7.7388058    409.66189  0.022182255  0.022212863            2 
 1540000     1.019532   -7.7465635    410.81701  0.022230358   0.02220598            2 
 1541000     1.007042   -7.7297257    409.42125  0.022140453  0.022199125            1 
 1542000   0.97832417   -7.7765528    410.93683     0.022208  0.022192223            4 
 1543000    1.0129273   -7.7755504      410.302  0.022159322  0.022185217            2 
 1544000    1.0082615   -7.7474102    409.38176  0.022095303  0.022178275            2 
 1545000    1.0053388   -7.7818061    409.73793  0.022100212  0.022171256            2 
 1546000    1.0170146   -7.7652332    411.65659  0.022189337  0.022164361            1 
 1547000   0.98346174   -7.7818392    410.80005  0.022128854   0.02215753            5 
 1548000   0.99203776   -7.7828755    410.53131  0.022100092  0.022150572            6 
 1549000    1.0088719   -7.7708091    410.83412  0.022102115  0.022143571            5 
 1550000   0.99724006   -7.7773755    410.52992  0.022071501  0.022136598            7 
 1551000    1.0111593   -7.8072725    411.71386  0.022120882  0.022129743            2 
 1552000   0.99033668    -7.727249    413.23837  0.022188486  0.022122741            3 
 1553000    1.0146169   -7.8407373    411.02235  0.022055288  0.022115891            1 
 1554000    1.0235159    -7.813249    410.71688  0.022024715  0.022108894            5 
 1555000    0.9809917   -7.7952779    411.75137   0.02206599  0.022101917            1 
 1556000   0.99051889    -7.786541    411.21582  0.022023126  0.022094894            1 
 1557000   0.99448989    -7.769065    412.44968   0.02207502  0.022087966            3 
 1558000   0.99410786   -7.7193085    413.45438   0.02211459  0.022081111            1 
 1559000    1.0000872   -7.7768337    412.03514  0.022024542  0.022074223            2 
 1560000      1.02452   -7.6938594    414.47095  0.022140542   0.02206732            2 
 1561000   0.99056579   -7.7634949    414.33487  0.022119094  0.022060425            3 
 1562000     1.004125   -7.8107265    412.45205  0.022004484  0.022053449            2 
 1563000    1.0039409   -7.7787608    412.21142  0.021977576   0.02204642            4 
 1564000    1.0065482   -7.7971968    411.28916  0.021914384  0.022039348            3 
 1565000    1.0110558    -7.793284    412.07963  0.021942472  0.022032218            3 
 1566000   0.99510676   -7.7798116    413.20103  0.021988135  0.022025093            4 
 1567000   0.99596667   -7.7911582    412.02457  0.021911539  0.022017957            4 
 1568000   0.98645514   -7.8326798    412.13069  0.021903204  0.022010768            2 
 1569000    1.0044518    -7.767994    414.63967  0.022022502  0.022003651            3 
 1570000    1.0078719   -7.7903163    413.19352  0.021931715  0.021996617            2 
 1571000   0.99251697   -7.7758681    412.50894  0.021881442  0.021989439            3 
 1572000   0.98771575   -7.7363022    413.67828   0.02192951  0.021982361            2 
 1573000   0.97878776   -7.7629009    414.77855  0.021973858  0.021975411            7 
 1574000    1.0034884   -7.7665561    413.01139  0.021866338  0.021968402            2 
 1575000    1.0154341   -7.7914711    413.74457  0.021891247  0.021961394            2 
 1576000    0.9906188   -7.7981393    413.56463  0.021867842  0.021954337            5 
 1577000   0.98658783    -7.800254    414.03826  0.021879003  0.021947212            7 
 1578000    1.0103344   -7.7873311    413.85819  0.021855629  0.021940001            6 
 1579000    1.0059895   -7.8051592    413.80243  0.021838845   0.02193279            2 
 1580000   0.98725283   -7.8314337    414.49645  0.021861627  0.021925527            2 
 1581000    1.0048155   -7.7415242    414.84077  0.021865948  0.021918409            1 
 1582000   0.99975863   -7.7693064    414.10817  0.021813536  0.021911272            2 
 1583000    1.0066114   -7.8156847    415.04095   0.02184886  0.021904121            2 
 1584000    1.0182142   -7.7582855    416.26241  0.021899327  0.021896988            1 
 1585000    0.9799935    -7.789803    416.11263  0.021877636  0.021889918            7 
 1586000   0.99067887   -7.7873905    415.72585  0.021843519  0.021882866            3 
 1587000   0.97727331   -7.7682587    417.01882  0.021897649  0.021875881            2 
 1588000   0.99478371   -7.7746486     415.0584  0.021780982  0.021868884            5 
 1589000   0.99465625   -7.7875459    415.95608  0.021814353  0.021861875            3 
 1590000   0.99990692   -7.7818085    416.07746  0.021806995  0.021854902            3 
 1591000   0.98838964   -7.7623189    416.83624  0.021833031  0.021847987            3 
 1592000   0.98031638   -7.8275967    416.30256  0.021791382  0.021840956            2 
 1593000    1.0012328   -7.8010336    416.82343   0.02180495  0.021833925            4 
 1594000   0.99680468   -7.8010195    416.29242   0.02176351  0.021826872            2 
 1595000   0.98775917   -7.8154296    417.13169  0.021793714  0.021819796            2 
 1596000    1.0034112   -7.8177795    417.03926  0.021775233  0.021812752            1 
 1597000    1.0131869   -7.8211337    417.44333  0.021782683  0.021805742            1 
 1598000   0.98008701     -7.81896    417.75507  0.021785308  0.021798787            2 
 1599000   0.99367753   -7.8122714    417.88397  0.021778402  0.021791776            2 
 1600000   0.98593671   -7.8087963     417.7543  0.021758036  0.021784805            3 
 1601000   0.99799143   -7.7598595    417.94381   0.02175431  0.021777937            3 
 1602000    1.0000464   -7.7880746    417.66127  0.021726034  0.021770963            6 
 1603000    1.0156846   -7.7791313    419.34707  0.021800118  0.021764023            4 
 1604000   0.99495352   -7.7772465    418.72988  0.021754462  0.021757118            5 
 1605000   0.99721198   -7.7638237    419.16603  0.021763553  0.021750264            1 
 1606000   0.97731041   -7.7623629    419.54988  0.021769919  0.021743416            2 
 1607000   0.99022944   -7.7949992    418.79853   0.02171741  0.021736566            3 
 1608000   0.98095583   -7.7708728    420.18937  0.021775983  0.021729716            1 
 1609000   0.98915771   -7.8220411    419.45067   0.02172419   0.02172282            3 
 1610000   0.98612556   -7.8020341    419.56281  0.021716502  0.021715965            2 
 1611000    1.0022189   -7.8125283    418.68225  0.021657472  0.021709132            3 
 1612000   0.98143077   -7.7798264    420.91726  0.021759577  0.021702363            2 
 1613000    0.9817557   -7.7830538    419.78337  0.021687506  0.021695549            2 
 1614000   0.99036435   -7.7949772    420.23594  0.021697436  0.021688673            2 
 1615000   0.99431152   -7.8112478    419.09489  0.021625123  0.021681677            2 
 1616000    1.0041355   -7.8190282    421.10934  0.021715622  0.021674689            3 
 1617000   0.97832636   -7.8131544    419.48502  0.021618482   0.02166775            1 
 1618000   0.98292542    -7.814674    419.60266  0.021611179  0.021660882            4 
 1619000    0.9933631   -7.8076171    420.49292  0.021643654  0.021653959            5 
 1620000   0.96513802   -7.8078385    420.16145  0.021613243  0.021646994            2 
 1621000     1.001969   -7.8239995    420.68408  0.021626778  0.021640105            3 
 1622000   0.97254675   -7.7897262     421.6669  0.021663939  0.021633107            2 
 1623000   0.97904291   -7.8283678    420.16421  0.021573434  0.021626174            2 
 1624000   0.99698457   -7.7863493    421.99209  0.021653946  0.021619193            3 
 1625000   0.99093611   -7.8189566    420.42949  0.021560487  0.021612204            3 
 1626000   0.98093774   -7.8112441    421.07755   0.02158044  0.021605126            6 
 1627000    0.9900198   -7.8304898    420.28531  0.021526599  0.021598004            2 
 1628000   0.98045012   -7.8143672    421.43252  0.021572099  0.021590874            2 
 1629000    0.9925149   -7.7936217    421.33463  0.021553848  0.021583821            2 
 1630000   0.98879407   -7.7938986    420.81321  0.021513968  0.021576763            2 
 1631000    1.0130711   -7.8088553    421.83166  0.021552813  0.021569756            3 
 1632000    1.0121274   -7.8234309    420.76338  0.021485058  0.021562667            3 
 1633000   0.98405492    -7.798479    420.51512  0.021459233   0.02155552            2 
 1634000   0.99433373    -7.836827    420.87586  0.021464497  0.021548351            4 
 1635000   0.99720683   -7.8158616    421.85194  0.021501118  0.021541263            1 
 1636000   0.98299417   -7.7995978    421.64855  0.021477616  0.021534198            2 
 1637000   0.98955659   -7.8290686    420.75132  0.021418821  0.021527161            4 
 1638000    1.0101122   -7.8428201    421.27018  0.021432142  0.021520136            4 
 1639000     1.001581   -7.8185207    421.89256   0.02145071  0.021513185            2 
 1640000    1.0015607   -7.8150001    423.33258  0.021510802  0.021506226            4 
 1641000   0.99245657   -7.8193386    423.05576  0.021483636  0.021499189            6 
 1642000    1.0157763   -7.8250677    422.75497  0.021455287  0.021492188            4 
 1643000   0.98990751    -7.818944    422.98564  0.021453928  0.021485177            3 
 1644000    0.9838803   -7.8339114    422.49104  0.021415807  0.021478178            3 
 1645000    1.0047971   -7.8362591    421.85133  0.021370381  0.021471086            4 
 1646000   0.98197329   -7.7783526    423.79676  0.021455891  0.021464114            4 
 1647000   0.98081193    -7.841832    422.80116  0.021392489  0.021457135            4 
 1648000    1.0008875   -7.8354335    423.55049  0.021417399  0.021450112            1 
 1649000    1.0117764   -7.8133726    423.68795  0.021411358   0.02144307            3 
 1650000   0.98433218   -7.8139491    423.90138  0.021409161  0.021436069            2 
 1651000   0.98823438   -7.8528787    423.30951  0.021366319  0.021429041            2 
 1652000    0.9921698   -7.8066861    424.55318  0.021416121  0.021421993            6 
 1653000   0.98511426   -7.8075237    425.37462  0.021444577  0.021415021            3 
 1654000   0.99878597   -7.8586161    423.71577  0.021348034  0.021407995            3 
 1655000   0.99214265   -7.8122311    424.04914  0.021351921  0.021401003            2 
 1656000   0.96009289   -7.8416862    425.27836  0.021400884  0.021394031            2 
 1657000   0.96944166   -7.7741442    425.49299  0.021398762  0.021387025            2 
 1658000   0.99507999   -7.8470963    425.04996  0.021363589  0.021380076            4 
 1659000   0.98184776   -7.8042396    425.05083  0.021350755  0.021373149            3 
 1660000   0.97380574   -7.8166117    424.83625  0.021327121  0.021366121            3 
 1661000    1.0026119   -7.8768337    423.79656  0.021262119  0.021359134            6 
 1662000    0.9734912   -7.8513525    424.32768  0.021275957  0.021352112            3 
 1663000   0.98419042   -7.8740256    424.40549  0.021267062  0.021345017            1 
 1664000   0.98537054   -7.7936006    425.45941  0.021307062  0.021337942            4 
 1665000   0.98192679   -7.8241216    426.05376  0.021324012  0.021330863            5 
 1666000   0.98859078   -7.8041751    425.42358  0.021279691  0.021323926            3 
 1667000   0.96978973   -7.8359779    426.31686  0.021311581  0.021316978            3 
 1668000   0.96508173   -7.7939608    425.92021  0.021278987  0.021310003            2 
 1669000   0.96686667   -7.8218714    427.13272  0.021326779  0.021302992            4 
 1670000   0.98019455   -7.8512794    425.80979  0.021247993   0.02129593            3 
 1671000   0.99656905   -7.8231958    426.00914   0.02124522  0.021288901            6 
 1672000    1.0056498   -7.8391668    426.26245  0.021245138  0.021281958            6 
 1673000   0.98059473   -7.8280838    425.59069  0.021198979   0.02127499            2 
 1674000   0.98323633   -7.8492481    426.11583  0.021212457  0.021268056            9 
 1675000   0.99126557   -7.8859015    425.82606  0.021185376  0.021261096            3 
 1676000    0.9817758   -7.8254693    427.89622  0.021275667  0.021254138            2 
 1677000   0.98727016   -7.8480443    427.06873  0.021221861   0.02124722            3 
 1678000   0.97325268   -7.8198222    427.50055  0.021230659  0.021240333            6 
 1679000   0.97659057   -7.8506971    427.31266  0.021208689  0.021233456            3 
 1680000   0.96785618   -7.8396274    426.85642  0.021173434  0.021226441            5 
 1681000   0.98945171   -7.8229158      426.867  0.021161362  0.021219522            4 
 1682000   0.96184931   -7.8138111    428.23305  0.021216461  0.021212596            4 
 1683000   0.99763338   -7.7860797    428.01201   0.02119291  0.021205725            4 
 1684000    0.9628401   -7.8403585      428.665  0.021212639  0.021198835            1 
 1685000    0.9769374   -7.8308285    427.05416  0.021120384  0.021191853            3 
 1686000   0.97918597   -7.8659452    427.88981   0.02114916  0.021184783            5 
 1687000   0.98102514   -7.8064797    428.72788  0.021178022  0.021177699            2 
 1688000   0.97701503   -7.8603684     428.4086  0.021149714   0.02117069            2 
 1689000   0.97803144   -7.8406332    427.63976  0.021099258  0.021163701            5 
 1690000    1.0074122   -7.8240757    428.52041  0.021130198  0.021156805            2 
 1691000   0.98302393   -7.8188478    428.37662  0.021110616  0.021149845            4 
 1692000    0.9667163   -7.8018095    429.44482  0.021150749  0.021142939            2 
 1693000   0.99116076   -7.8261543    428.66586  0.021099915  0.021135979            2 
 1694000   0.98220788   -7.8561381    428.63681   0.02108603  0.021129061            2 
 1695000   0.98033634   -7.8236044    428.93892  0.021088442   0.02112211            2 
 1696000   0.94891407   -7.8349531    429.50238  0.021103694  0.021115208            4 
 1697000   0.95622301   -7.8391072    428.53567  0.021043787  0.021108273            1 
 1698000   0.98097201   -7.8523077    429.25174  0.021066536  0.021101317            5 
 1699000   0.97337803   -7.7840602    430.56507  0.021118554  0.021094368            3 
 1700000   0.99065718   -7.8423737    428.85469  0.021022289  0.021087431            1 
 1701000    0.9499894   -7.8300811    428.80239  0.021007368  0.021080473            3 
 1702000   0.98347458   -7.7923799    429.72803  0.021040346  0.021073598            2 
 1703000   0.98577536   -7.7872128    431.51788  0.021115574  0.021066722            1 
 1704000   0.99314156   -7.8390936     429.8998  0.021024051  0.021059735           11 
 1705000    0.9892076   -7.7959315    430.47076  0.021039627   0.02105283            4 
 1706000   0.97251498   -7.8230145    430.88565   0.02104756  0.021045939            6 
 1707000   0.96692002    -7.847919    429.89349  0.020986794  0.021039003            3 
 1708000    1.0038472    -7.850484    428.99016  0.020930433  0.021032032            7 
 1709000   0.97401484   -7.8107876    431.05529  0.021018885  0.021024906            3 
 1710000   0.98428589   -7.8392193    429.89643  0.020950118  0.021017704            8 
 1711000     0.968856   -7.8256829    431.11619  0.020997282  0.021010492            1 
 1712000   0.98351378   -7.8476842     429.8107  0.020921471  0.021003362            4 
 1713000   0.93986351   -7.8273869    429.56327  0.020897221  0.020996182            1 
 1714000   0.95952831   -7.8318999    428.96866  0.020856119  0.020988984            2 
 1715000   0.98181379   -7.8294829    431.50796  0.020967345  0.020981876            3 
 1716000   0.96589349   -7.8329683    430.11049  0.020887262  0.020974761            2 
 1717000   0.97132878   -7.8228344    430.57099  0.020897447  0.020967678            1 
 1718000   0.95818591   -7.8392968    431.59986  0.020935189  0.020960557            4 
 1719000   0.97883743   -7.8287911    431.64688   0.02092529  0.020953388            6 
 1720000    0.9791001    -7.834209    430.86482  0.020875233  0.020946238            1 
 1721000   0.97125341   -7.8112499    431.20348  0.020879502  0.020939036            1 
 1722000   0.97412684      -7.8121    430.88895  0.020852156  0.020931892            2 
 1723000    1.0060112   -7.8523092    430.63781  0.020827907   0.02092465            2 
 1724000   0.98083653   -7.8879645     430.2354  0.020796375  0.020917336            2 
 1725000   0.95792675   -7.8298593    430.86844  0.020814901  0.020910104            3 
 1726000   0.97872381   -7.8529737    429.51045  0.020737275  0.020902891            2 
 1727000   0.94832237   -7.8187675    431.61985  0.020827053  0.020895705            3 
 1728000   0.96107449    -7.821722    431.42794  0.020805746  0.020888496            1 
 1729000   0.97502274   -7.8085663    431.78795  0.020811064  0.020881345            3 
 1730000   0.96156742   -7.8448731    432.05375  0.020811838  0.020874125            2 
 1731000   0.96990189   -7.8375531    432.93051  0.020842023  0.020866957            6 
 1732000   0.97883182   -7.8113114    432.36813  0.020802932  0.020859746            7 
 1733000   0.96005991   -7.8465571     431.6452  0.020756165  0.020852552            8 
 1734000   0.96479683   -7.8402639    432.66833  0.020793365  0.020845282            2 
 1735000   0.98573703   -7.8590419    431.46376  0.020723524  0.020838054            5 
 1736000   0.98413571   -7.8864889    432.46679  0.020759734  0.020830805            1 
 1737000   0.99289734   -7.9005227    430.91823   0.02067349  0.020823571            2 
 1738000    0.9689747   -7.8869331    430.68722  0.020650519  0.020816247            1 
 1739000   0.97196429   -7.9022273    430.38006  0.020623925  0.020808922            8 
 1740000     0.975893   -7.8690533    431.90766  0.020685233  0.020801615            4 
 1741000   0.99094524   -7.8444474    431.95836  0.020675778  0.020794335            4 
 1742000   0.96598087    -7.889439    432.37133  0.020683665  0.020787043            9 
 1743000   0.96472844   -7.8476896    432.04604  0.020656246  0.020779716            2 
 1744000   0.95878144   -7.8613902    433.36293  0.020707327  0.020772474            2 
 1745000   0.95744553    -7.880866    433.08547   0.02068221  0.020765277            2 
 1746000   0.95412557   -7.8622902    433.41631  0.020686154  0.020758125            3 
 1747000   0.95554445    -7.819477    434.10592  0.020707209   0.02075099            8 
 1748000   0.98424217   -7.8419864    434.94263  0.020735251  0.020743892            2 
 1749000   0.96156989   -7.8789297     434.7497  0.020714203  0.020736817            4 
 1750000   0.97004705   -7.8549134    433.23018  0.020630009  0.020729661            3 
 1751000   0.98958813    -7.880918    434.74225  0.020690189  0.020722557            2 
 1752000   0.97045856   -7.8193715    434.64531  0.020673769  0.020715463            1 
 1753000   0.94449643   -7.8608038    433.92601  0.020627781  0.020708404            7 
 1754000   0.96184176   -7.8529367    434.06916  0.020622822   0.02070128            3 
 1755000   0.97366079   -7.8370902    435.31627  0.020670288  0.020694178            4 
 1756000   0.98105135   -7.8537774    435.35544  0.020660376  0.020687076            2 
 1757000   0.98100085   -7.8684277    435.35791  0.020648734  0.020679924            2 
 1758000   0.96001635   -7.8330262    436.22313  0.020678002  0.020672832            4 
 1759000   0.96023155   -7.8591595    435.56585  0.020635108   0.02066577            4 
 1760000   0.96202239   -7.8512509    435.45438  0.020618105  0.020658691            3 
 1761000   0.98754492   -7.8699123    435.33731  0.020600857  0.020651648            4 
 1762000    0.9611537   -7.8597331    436.49142  0.020643749   0.02064457            3 
 1763000   0.97143234   -7.8616357    435.55866  0.020587949  0.020637505            2 
 1764000   0.96200303   -7.8606752    436.15415   0.02060441  0.020630463            1 
 1765000   0.97746517   -7.8610678     436.4265  0.020605595  0.020623396            3 
 1766000   0.97577601   -7.8966391    435.46099  0.020548367  0.020616282            2 
 1767000   0.97755197     -7.90423    434.66356   0.02049913  0.020609132            7 
 1768000   0.98142613   -7.8652788    436.62735  0.020580098  0.020601982            5 
 1769000   0.97172789    -7.875008    435.99204  0.020538536  0.020594937            4 
 1770000   0.93207511   -7.8775464    436.17373  0.020535486  0.020587748            3 
 1771000   0.96961124   -7.8410876    436.32135  0.020530837  0.020580701            2 
 1772000   0.95918164   -7.8703943    435.95513  0.020502028   0.02057359            2 
 1773000   0.96394473   -7.8567631     436.8006  0.020530203  0.020566422            2 
 1774000   0.97941249   -7.8499521    435.97139  0.020479678  0.020559376            3 
 1775000   0.94975297   -7.8594341    437.99935   0.02056335  0.020552293            2 
 1776000   0.98401284   -7.8637093    435.70884  0.020444296  0.020545216            4 
 1777000   0.96060469   -7.8919516    437.17543  0.020501568   0.02053815            1 
 1778000   0.97647666   -7.8881173    436.73225  0.020469266  0.020531056            2 
 1779000   0.96815145   -7.8971505     437.0134  0.020470929  0.020523985            1 
 1780000    0.9785343   -7.8915684    436.87714  0.020453049  0.020516983            6 
 1781000   0.95216172   -7.8866931     436.4207  0.020420209  0.020509901            7 
 1782000   0.98561809   -7.8470119    440.75855  0.020611605  0.020502928            2 
 1783000   0.96624584   -7.8511044    438.08438   0.02047506  0.020495956            1 
 1784000   0.96590693   -7.8757521    437.34186  0.020428898  0.020488951            2 
 1785000   0.98403058   -7.8690535    438.53536  0.020473173   0.02048196            4 
 1786000   0.96814604   -7.8618671    438.32436  0.020451865  0.020474993            3 
 1787000   0.96215356   -7.8665177    439.73471  0.020506189  0.020468134            3 
 1788000   0.94797816   -7.8357743    440.10636  0.020512041  0.020461208            2 
 1789000   0.97593059   -7.8734021    440.34417  0.020511653  0.020454311            6 
 1790000   0.94938328   -7.8512475    440.36759  0.020501284  0.020447377            2 
 1791000   0.96180179   -7.9007222    439.24111  0.020437424  0.020440577            6 
 1792000   0.94956292   -7.8863253    439.43824  0.020435186  0.020433689            3 
 1793000   0.96251176   -7.8569198    441.35977  0.020513096  0.020426827            2 
 1794000   0.95155092   -7.8789165    439.09111   0.02039628  0.020420027            5 
 1795000   0.96187726   -7.8784277    439.12011  0.020386263  0.020413165            5 
 1796000   0.96841875    -7.832919    440.98018  0.020461218  0.020406351            3 
 1797000   0.97981099   -7.8787537    439.47622  0.020380088  0.020399532            2 
 1798000    0.9553762   -7.8610048    440.83915  0.020431922  0.020392585            6 
 1799000   0.97069177   -7.8925631    439.75306  0.020370255  0.020385674            3 
 1800000   0.92999228   -7.9021056    440.46008  0.020391671  0.020378756            3 
 1801000   0.97259085   -7.8700022    439.62743  0.020341821  0.020371805            2 
 1802000   0.95630904   -7.9008345    439.94427  0.020345184  0.020364874            2 
 1803000   0.98962609   -7.8778676    441.13469  0.020388921  0.020357933            2 
 1804000   0.95371567   -7.8782997     440.5937  0.020352628  0.020351079            2 
 1805000   0.95177378   -7.8882416    441.23032  0.020370744  0.020344234            4 
 1806000   0.95505564   -7.8381852    441.10517   0.02035369   0.02033745            1 
 1807000   0.95885704   -7.8392651    441.54736  0.020362819  0.020330644            8 
 1808000   0.96650274   -7.8940676    440.59184  0.020307515  0.020323806            3 
 1809000   0.96567333     -7.84742    441.25354  0.020326771  0.020317054            3 
 1810000   0.95527484   -7.8800691    442.00629  0.020350198  0.020310229            3 
 1811000   0.96515597   -7.8908468    442.46217  0.020359938  0.020303423            2 
 1812000   0.96985814   -7.8897845    441.62514  0.020310207   0.02029659            2 
 1813000   0.95633462   -7.8944992    441.94711  0.020313804  0.020289657            4 
 1814000   0.96669048   -7.8858526    441.92112  0.020301411  0.020282825            2 
 1815000   0.94728855   -7.8650324    441.81668   0.02028543  0.020275934            1 
 1816000   0.96029502   -7.8889064    442.67667  0.020313724  0.020269063            6 
 1817000   0.96019008   -7.8685244    441.42548   0.02024516  0.020262156            3 
 1818000    0.9600198   -7.8915752     441.6443  0.020244055   0.02025524            4 
 1819000   0.97101489   -7.8791083    444.33443  0.020356168  0.020248394            3 
 1820000   0.95284437   -7.8687614    443.01011  0.020284346  0.020241591            4 
 1821000   0.94384473   -7.8831403     442.6629  0.020257318  0.020234807            1 
 1822000    0.9678172   -7.8488069    442.95134  0.020259392  0.020228037            3 
 1823000    0.9593171   -7.8745802    443.00735  0.020250839  0.020221244            3 
 1824000   0.96217701   -7.8769518    442.68247  0.020224894  0.020214458            2 
 1825000   0.95843992   -7.9124318    443.57743  0.020254677   0.02020762            3 
 1826000   0.95679684   -7.8844868    443.00426  0.020217427  0.020200781            2 
 1827000   0.94370376   -7.8673045    442.18799  0.020169129  0.020193984            3 
 1828000   0.97503857   -7.9248917    442.77223   0.02018473  0.020187062            2 
 1829000   0.94652101   -7.9341295    442.86529  0.020177934  0.020180135            3 
 1830000   0.95377936    -7.928037    442.16821  0.020135165  0.020173127            4 
 1831000   0.94457879   -7.8761743    443.28857  0.020175158   0.02016614            4 
 1832000   0.95408006   -7.9334058    442.35072  0.020121485  0.020159231            4 
 1833000   0.96258796   -7.9470882    442.71126  0.020126898  0.020152329            6 
 1834000   0.96123304   -7.9016822    443.76013  0.020163583  0.020145334            4 
 1835000   0.95868915   -7.8864668    444.10441  0.020168229  0.020138401            2 
 1836000   0.95977592   -7.9066963    442.79108  0.020097634  0.020131436            1 
 1837000   0.98207088   -7.9164184    443.59825   0.02012331  0.020124493            1 
 1838000   0.96178743   -7.9023052    444.32348  0.020145243  0.020117492            3 
 1839000   0.94695619   -7.9053628     443.8799  0.020114188  0.020110506            5 
 1840000    0.9518439   -7.8830044    444.28906  0.020121787  0.020103587            7 
 1841000   0.96005674   -7.9476534     441.8478  0.020000353  0.020096514            3 
 1842000    0.9512197   -7.9354152    443.44048  0.020061549  0.020089471            4 
 1843000   0.94783714   -7.9462762    443.78402  0.020066197  0.020082454            4 
 1844000   0.96977239   -7.9311428     443.2803  0.020032552  0.020075453            4 
 1845000   0.94630262   -7.9273893    443.01333  0.020009635  0.020068399            4 
 1846000   0.96241354   -7.9157519    444.68662  0.020074333  0.020061335            3 
 1847000    0.9743794   -7.9029573    444.28729  0.020045447  0.020054394           11 
 1848000   0.93896392   -7.9354199     443.6549  0.020006083  0.020047443            8 
 1849000   0.94040784   -7.9003666    445.81927   0.02009281  0.020040486            6 
 1850000   0.92767637   -7.9417071    444.31295  0.020014097  0.020033597            3 
 1851000   0.95871462   -7.8701811    445.53309  0.020058216  0.020026648            3 
 1852000   0.97069702   -7.9202746    445.38181  0.020040578  0.020019734            2 
 1853000   0.96379536   -7.8936121    444.22599  0.019977783  0.020012894            2 
 1854000    0.9617546   -7.9101409     445.5073    0.0200246   0.02000603            3 
 1855000   0.95334137   -7.9064086     445.1965  0.019999843  0.019999184            4 
 1856000   0.97428358   -7.8591028    445.81548  0.020016859  0.019992339            4 
 1857000   0.97432539   -7.9099144    446.16611  0.020021815  0.019985492            2 
 1858000   0.96059742   -7.9271086    446.72369  0.020036047  0.019978596            5 
 1859000   0.95100074   -7.8924854    445.96004  0.019991037  0.019971751            5 
 1860000   0.93336606   -7.9178894     446.0186  0.019982912  0.019964883            2 
 1861000   0.95019752   -7.9176123    446.63676  0.019999855  0.019958075            3 
 1862000   0.95537562   -7.9322262    447.53677  0.020029393  0.019951195            1 
 1863000    0.9390174   -7.9376717    445.96233  0.019948216   0.01994436            3 
 1864000   0.96897375   -7.8906233     447.8903  0.020023708  0.019937584            2 
 1865000   0.96241055   -7.8782781    447.16567  0.019980593  0.019930847            3 
 1866000   0.96796401   -7.9039342    446.30673  0.019931526  0.019924043            8 
 1867000   0.95103412   -7.9096523    446.44865  0.019927185  0.019917307            3 
 1868000   0.94783516   -7.9143801    448.37365  0.020002394  0.019910476            2 
 1869000   0.96065963    -7.895221    447.86937  0.019969207  0.019903739            4 
 1870000   0.96454585   -7.8942497    448.19738  0.019973145  0.019897029            3 
 1871000   0.93960989   -7.8950332    447.26573  0.019920975  0.019890285            2 
 1872000   0.94771324   -7.8768562    448.25326  0.019954294  0.019883561            4 
 1873000   0.94772833   -7.9468188    447.74875  0.019921194  0.019876843            3 
 1874000   0.94016449   -7.9114053    448.78865  0.019956806   0.01987013            5 
 1875000    0.9609233   -7.8867181    449.48272   0.01997701  0.019863487            3 
 1876000   0.94140213    -7.889964    449.98431  0.019988642  0.019856819            6 
 1877000   0.95698898   -7.9113139    448.65338  0.019918904  0.019850155            3 
 1878000   0.93835528   -7.9210544    449.85592  0.019961658  0.019843432            6 
 1879000   0.94316954   -7.9067637    449.49545  0.019935048  0.019836786            4 
 1880000   0.93610561   -7.8951681    449.00626   0.01990276  0.019830142            1 
 1881000   0.95732371   -7.8831664    450.19967   0.01994505  0.019823533           10 
 1882000   0.95041319   -7.8985898    451.29035  0.019982746  0.019816979            4 
 1883000   0.95933665   -7.9183849    449.69986  0.019901746  0.019810353            3 
 1884000   0.95514435   -7.9162063    448.75879  0.019849557  0.019803738            2 
 1885000    0.9402097   -7.9385399    450.11314  0.019898901   0.01979706            3 
 1886000   0.96434002    -7.921619    450.17546  0.019891104  0.019790431            2 
 1887000   0.93946549   -7.9112179    450.91984  0.019913436  0.019783824            4 
 1888000   0.94535157    -7.873367    451.05263  0.019908749  0.019777283            2 
 1889000    0.9335277   -7.9129354    449.99044  0.019851352  0.019770749            7 
 1890000   0.95845744   -7.8864213    451.79524  0.019920425  0.019764288            3 
 1891000   0.95014755   -7.9343062    452.12089  0.019924242  0.019757796            2 
 1892000    0.9710785   -7.9466857    450.77208  0.019854302  0.019751284            4 
 1893000   0.92217555   -7.9545237    451.70124  0.019884717  0.019744768            2 
 1894000   0.97473107   -7.9245706    451.29054  0.019856148  0.019738264            1 
 1895000   0.94373216   -7.9286367      451.424  0.019851539  0.019731758            5 
 1896000    0.9421146   -7.9197935    451.92579  0.019863124   0.01972526            4 
 1897000   0.95268131   -7.8923064     452.5836   0.01988155    0.0197188            4 
 1898000    0.9577595   -7.9013789    452.36854  0.019861632  0.019712296            5 
 1899000   0.92451438   -7.9225251    452.32396  0.019849217  0.019705793            3 
 1900000    0.9574839   -7.8842947    452.84917  0.019861806  0.019699326            4 
 1901000   0.95954837   -7.8983812    453.15473  0.019864752  0.019692874            3 
 1902000   0.93553228    -7.943731    452.82886  0.019840031  0.019686407            8 
 1903000   0.94434322   -7.9141583    452.21916  0.019802906  0.019679885            4 
 1904000    0.9498222    -7.903917    452.10603  0.019787554  0.019673405            4 
 1905000   0.95558479    -7.934094     452.6531  0.019801098   0.01966692            4 
 1906000   0.92116821   -7.9450094    451.99102  0.019761762  0.019660471            2 
 1907000    0.9685407   -7.9404151    454.15258  0.019845857  0.019654033            5 
 1908000   0.94098376   -7.8876881    454.04867  0.019830917  0.019647622            3 
 1909000   0.94369358    -7.948198    452.85827  0.019768564  0.019641172            5 
 1910000   0.95306429   -7.8839744    453.97992  0.019807152  0.019634797            2 
 1911000   0.95899347    -7.922869     454.1659  0.019804897  0.019628465            5 
 1912000   0.93904323   -7.9730031    453.64585  0.019771873  0.019622072            5 
 1913000   0.92912481   -7.8953495    454.89582  0.019815988  0.019615687            8 
 1914000    0.9501978   -7.8964573     455.0673  0.019813101  0.019609419           10 
 1915000   0.94889094   -7.9618126    454.16693  0.019763574  0.019603145            5 
 1916000   0.92960308   -7.9599644    453.64751  0.019730667  0.019596758            2 
 1917000   0.97022887   -7.9402829    454.29367  0.019748464  0.019590408            2 
 1918000   0.96271637   -7.9160745    454.70302  0.019755953  0.019584065            4 
 1919000   0.95178981   -7.9312824    455.83469  0.019794802  0.019577754            3 
 1920000   0.94854985   -7.8915653    455.49191  0.019769614  0.019571425            2 
 1921000   0.92165308   -7.9050195    454.56651  0.019719179  0.019565112            2 
 1922000   0.93658536   -7.9453961    455.75053  0.019760255  0.019558805            3 
 1923000   0.94935814    -7.940981    455.24407  0.019728032   0.01955243            4 
 1924000   0.95332634   -7.9436689    456.00718  0.019750831  0.019546124            3 
 1925000   0.92632306   -7.9426606    454.88381   0.01969194  0.019539812            3 
 1926000      0.93791   -7.9133892    456.03692  0.019731608  0.019533498            2 
 1927000   0.92464457   -7.9113263    456.57577  0.019744671  0.019527225            4 
 1928000   0.95714667    -7.946179    457.21097  0.019761885  0.019520935            5 
 1929000   0.94588434   -7.9276876    456.53818  0.019722576  0.019514639            8 
 1930000   0.94074692   -7.9534278    455.64278  0.019673695  0.019508313            3 
 1931000   0.92511197   -7.9372485    456.66482  0.019707614  0.019501951            3 
 1932000   0.95782636   -7.9582747    455.55315  0.019649463  0.019495629            2 
 1933000   0.92131498   -7.9274878    456.94305  0.019699218  0.019489286            4 
 1934000   0.94643603   -7.9579576    456.46261   0.01966833  0.019482906            2 
 1935000    0.9411756   -7.9216511    456.33774  0.019652788  0.019476569            3 
 1936000   0.96030447   -7.9547011    455.61762   0.01961164  0.019470236            2 
 1937000   0.96005809   -7.9381917     457.3868  0.019677628  0.019463918            4 
 1938000   0.94216036   -7.9394277    457.40792  0.019668383  0.019457633            3 
 1939000   0.93544304   -7.9292636    458.62632  0.019710604  0.019451393            4 
 1940000    0.9442773   -7.9643801    457.80734  0.019665264  0.019445172            5 
 1941000   0.90850737   -7.9376301    458.24023  0.019673718  0.019438917            5 
 1942000   0.96346481   -7.9345863    457.72334  0.019641407  0.019432653            2 
 1943000   0.93744659   -7.9447082    457.55294   0.01962399  0.019426409            2 
 1944000   0.95122294   -7.9770887    457.36464  0.019605823  0.019420158            3 
 1945000   0.93394764   -7.9013148    457.55082   0.01960372  0.019413795            2 
 1946000   0.94967156   -7.9719919    456.27776   0.01953913  0.019407553            8 
 1947000   0.95819882   -7.9469706    458.17629  0.019610353  0.019401222            3 
 1948000   0.95261622   -7.9659819    457.78048  0.019583354  0.019394926            4 
 1949000   0.93970418   -7.9522431    458.47156  0.019602855  0.019388638            1 
 1950000   0.95382198   -7.9346431    458.94369  0.019612978  0.019382428            3 
 1951000   0.92715085   -7.9179187    459.12624  0.019610723  0.019376262            3 
 1952000   0.94089085   -7.9632123    458.07926  0.019555979  0.019370087            3 
 1953000   0.95080492   -7.9713868     458.1591  0.019549373  0.019363874            3 
 1954000    0.9613176   -7.9622642    458.54418  0.019555791  0.019357665            3 
 1955000   0.93694649   -7.9752384    459.21848   0.01957453  0.019351438            3 
 1956000   0.92192408    -7.960488    459.57948  0.019579903  0.019345214            6 
 1957000   0.94099363   -7.9817636    458.30717   0.01951572  0.019338963            4 
 1958000   0.94509949   -7.9720615    459.42983  0.019553534  0.019332698            8 
 1959000   0.94098975   -7.9369795    460.25928  0.019578836  0.019326511            2 
 1960000   0.95061754   -7.9293262    460.29794   0.01957049  0.019320369            3 
 1961000   0.93544983   -7.9558303    459.96192  0.019546231  0.019314197            5 
 1962000   0.94230148   -7.9637356    458.91584  0.019491838  0.019307979            2 
 1963000   0.92789353   -7.9540488    460.05134  0.019530113  0.019301786            1 
 1964000   0.93963005   -7.9227133    461.06484  0.019563172  0.019295657            2 
 1965000   0.94961065   -7.9220554    461.68274  0.019579421  0.019289518            2 
 1966000   0.93508439   -7.9324409    460.77309  0.019530904  0.019283388            2 
 1967000   0.93722893   -7.9550947    461.01163  0.019531081  0.019277246            2 
 1968000   0.92969322   -7.9677093    459.94578  0.019476024  0.019271064            2 
 1969000    0.9478108   -7.9933483    459.99527  0.019468227  0.019264911            3 
 1970000   0.91061954     -7.99418    460.46701    0.0194783  0.019258626            2 
 1971000   0.94296053   -7.9565422    460.66557  0.019476812  0.019252433            3 
 1972000   0.94602156   -7.9638077    461.62993  0.019507688  0.019246243            2 
 1973000   0.93409171   -8.0011214    460.10039  0.019433198  0.019240101            1 
 1974000   0.94256217   -7.9980303    461.41549  0.019478871  0.019233931            4 
 1975000   0.94661792   -7.9598373    460.90239  0.019447358  0.019227772            4 
 1976000    0.9474367   -7.9419853    461.66789  0.019469799  0.019221672            2 
 1977000   0.93878004   -7.9725127    462.85468  0.019509976  0.019215578            3 
 1978000    0.9185182   -7.8773222    463.58357  0.019530821  0.019209543            3 
 1979000   0.92521472   -7.9657326    462.37221  0.019469943  0.019203523            6 
 1980000   0.94594341   -7.9681006    462.36538  0.019459822  0.019197452            2 
 1981000   0.93288889   -7.9897483    462.06649  0.019437426  0.019191306            3 
 1982000   0.92955217   -7.9386331    462.21625  0.019433916  0.019185224            9 
 1983000   0.95805234   -7.9928287    462.01149  0.019415511  0.019179108            1 
 1984000   0.97472055   -7.9763655    461.94836  0.019403073  0.019172984            4 
 1985000   0.93345567   -7.9632666     461.6575  0.019381087   0.01916685            6 
 1986000   0.93273068   -8.0010306    463.46487  0.019447166   0.01916072            2 
 1987000   0.91657615   -7.9714602    462.20369  0.019384486  0.019154558            3 
 1988000   0.92390901   -7.9624217    462.84969  0.019401815  0.019148484            5 
 1989000   0.93248363    -7.966854    462.71661  0.019386484  0.019142377            2 
 1990000   0.92206876    -7.999923    462.25146  0.019357264  0.019136236            2 
 1991000   0.96139054   -7.9659381    464.14929  0.019426975  0.019130035            3 
 1992000    0.9372464   -7.9712703    463.12405  0.019374333  0.019123934            2 
 1993000   0.92699932   -7.9647235    463.55933  0.019382812  0.019117795            2 
 1994000   0.92376101   -7.9437593    464.29287  0.019403748  0.019111673            2 
 1995000   0.93907461   -7.9678345    463.11932  0.019345001   0.01910556            2 
 1996000   0.92800887   -7.9478475    463.03515  0.019331795  0.019099423            1 
 1997000   0.92252573   -7.9548983    465.47755  0.019424034  0.019093282            3 
 1998000    0.9394284   -7.9450782     463.9705  0.019351456  0.019087146            3 
 1999000   0.94003999   -7.9683954    463.81683  0.019335369   0.01908094            4 
 2000000   0.95570679   -7.9732902    462.34387  0.019264328  0.019074703            4 
 2001000   0.93833476   -7.9868499    463.62305  0.019307973  0.019068513            3 
 2002000   0.90792359   -7.9460985    463.45666  0.019291403  0.019062336            5 
 2003000   0.91532217   -7.9817706    463.62537  0.019288791  0.019056172            2 
 2004000   0.92812991   -7.9667108    462.92859  0.019250191  0.019049967            2 
 2005000   0.92405563   -8.0154532    462.97376  0.019242467  0.019043744            2 
 2006000   0.94704816   -7.9796309    463.11598  0.019238783  0.019037516            8 
 2007000   0.92480984    -8.011852    462.64655  0.019209706  0.019031286            5 
 2008000   0.92803243   -7.9323707    464.15749  0.019262844  0.019025094            4 
 2009000   0.92550277     -7.95532    463.38885  0.019221373  0.019018966            2 
 2010000    0.9171581   -7.9573131    464.52953  0.019259102  0.019012847            3 
 2011000   0.91596485   -7.9845703    464.22331  0.019236835  0.019006699            2 
 2012000   0.94530291   -7.9509084    464.19125  0.019225947  0.019000589            3 
 2013000   0.91884424   -7.9753202    464.05282  0.019210665  0.018994453            3 
 2014000   0.92480064   -7.9342287      465.038   0.01924189  0.018988297            6 
 2015000   0.93304527   -7.9307027    465.55747  0.019253824  0.018982154            6 
 2016000   0.92842332   -7.9573953    463.92669  0.019176864  0.018975998            4 
 2017000   0.92418517    -7.952044    464.60739   0.01919548  0.018969789            3 
 2018000   0.95446214   -7.9889971    463.90451  0.019156942  0.018963457            2 
 2019000   0.91920494   -7.9726083    463.80875  0.019143501  0.018957199            5 
 2020000   0.94037302   -7.9972445    464.40682  0.019158697  0.018950945            1 
 2021000   0.94994443   -7.9702067    465.12701  0.019178913  0.018944725            1 
 2022000   0.90785244   -7.9333835    465.39594  0.019180512  0.018938487            7 
 2023000   0.93227035   -7.9595654    464.89022  0.019150199  0.018932289            3 
 2024000   0.93693408   -7.9992127    464.56756  0.019127452  0.018926054            5 
 2025000   0.92925256   -7.9993832    463.20607  0.019061978  0.018919803            4 
 2026000   0.94008416   -7.9736687    464.57243   0.01910877   0.01891356            3 
 2027000   0.92517228   -8.0004851    465.69226  0.019145382  0.018907352            8 
 2028000   0.93949409   -7.9651954     465.4036   0.01912408  0.018901125            4 
 2029000   0.92530072   -7.9819983    465.56671  0.019121353   0.01889494            4 
 2030000   0.93378655   -7.9973498    466.15947  0.019136267  0.018888793            4 
 2031000   0.91781956   -7.9816886    465.18484  0.019086856  0.018882639            3 
 2032000   0.93093568   -7.9441542    468.11655  0.019197693  0.018876486            3 
 2033000   0.90389566   -7.9514546    467.55194  0.019165106  0.018870403            5 
 2034000    0.9196787   -7.9750192    465.89309  0.019087721  0.018864251            4 
 2035000   0.92612111   -7.9848037    466.48156  0.019102439  0.018858137            2 
 2036000    0.9091723   -7.9696121    466.10588   0.01907768  0.018852012            4 
 2037000   0.93272942   -7.9897334    466.65322  0.019090706  0.018845844            3 
 2038000   0.92173391   -8.0014576    467.60694  0.019120336  0.018839718            6 
 2039000   0.89722312   -8.0053068    466.37554  0.019060632  0.018833545            1 
 2040000   0.94594598   -8.0098921    466.73236  0.019065864  0.018827378            3 
 2041000   0.92508332   -7.9912881    465.11729   0.01899058  0.018821216            2 
 2042000   0.91624348    -7.994951    466.61992  0.019042602  0.018815027            3 
 2043000   0.92846786    -8.016064    466.15283  0.019014229  0.018808758            3 
 2044000   0.91561667   -8.0026201    465.71194  0.018986951  0.018802595            3 
 2045000    0.9111121    -7.991833    467.83885  0.019064338  0.018796436            2 
 2046000   0.93617031    -7.980671    466.77619  0.019011738  0.018790308            3 
 2047000   0.93237386   -7.9769393    467.20183  0.019019778  0.018784154            5 
 2048000   0.90667245   -8.0113475    466.93754  0.018999737  0.018777955            7 
 2049000   0.92540239   -8.0094501    465.72929  0.018941325  0.018771779            4 
 2050000   0.91951557   -7.9994793     467.5408  0.019005724  0.018765597            3 
 2051000   0.93621223   -7.9533947    469.29734  0.019067826  0.018759442            4 
 2052000   0.93528272   -8.0007561    466.84167  0.018958807   0.01875331            4 
 2053000   0.94201952   -7.9786518    467.81978  0.018989275  0.018747135            3 
 2054000   0.91512518   -7.9744404    468.14458  0.018993208  0.018740956            3 
 2055000   0.91708824   -8.0075704    467.19237  0.018945351  0.018734789            1 
 2056000   0.93124464   -7.9628854     468.8914  0.019005002  0.018728624            2 
 2057000    0.9119663     -7.99843    467.43703  0.018936843  0.018722458            4 
 2058000   0.93288417   -8.0059498    467.32059  0.018922926  0.018716281            3 
 2059000   0.91334098   -7.9840307    468.60135  0.018965572  0.018710166            3 
 2060000   0.95958227   -8.0005839    467.70899  0.018920267  0.018704055            5 
 2061000   0.91072609   -7.9882136    468.35684  0.018937281  0.018697909            3 
 2062000   0.92998146   -7.9873674    467.79603  0.018905433  0.018691718            4 
 2063000   0.91635062   -8.0020561    469.03817  0.018946444   0.01868555            6 
 2064000   0.92916421    -7.987816    468.40101  0.018911539  0.018679431            3 
 2065000   0.93384606    -7.944288    470.96702  0.019005933  0.018673357           10 
 2066000   0.92186228   -7.9739258    469.28946  0.018929068   0.01866725            3 
 2067000   0.91343951   -8.0215516    467.29932  0.018839676    0.0186611            8 
 2068000   0.92398241   -7.9992515    468.86612  0.018893702  0.018654951            3 
 2069000   0.91763999   -8.0207092    468.88363  0.018885276   0.01864878            4 
 2070000     0.930753   -7.9844009    469.30359  0.018893059  0.018642638            4 
 2071000   0.91210137   -7.9923453    469.39537   0.01888763  0.018636531            4 
 2072000   0.94467436   -8.0096779    467.79474  0.018814139  0.018630355            4 
 2073000   0.92483866   -8.0267968    469.04632  0.018855376  0.018624203            5 
 2074000   0.92055806   -7.9949247    469.09305  0.018848162  0.018617993            5 
 2075000    0.9288101   -7.9786108     469.2803  0.018846598  0.018611839            5 
 2076000   0.92746622   -8.0198669    469.29246  0.018838008  0.018605681            3 
 2077000   0.90764315   -7.9852203    469.41748  0.018833954  0.018599549            5 
 2078000   0.92989624   -7.9519898    470.00978  0.018848644  0.018593455            3 
 2079000   0.93874175   -7.9676025     470.5222  0.018860117  0.018587331            3 
 2080000   0.91327803   -7.9758903     469.1249  0.018795068  0.018581224            3 
 2081000   0.91656545   -8.0212478    469.40529  0.018797265  0.018575123            4 
 2082000   0.91814788   -8.0025337    469.53454  0.018793409  0.018569001            1 
 2083000   0.92353597   -8.0078616    468.63608  0.018748443  0.018562891            4 
 2084000   0.92022443   -7.9854835    469.60271  0.018778099   0.01855678            2 
 2085000   0.90211533   -8.0161642    470.75659  0.018815211  0.018550699            5 
 2086000   0.91933084   -7.9788071    471.97138  0.018854721  0.018544628            8 
 2087000   0.91011195   -7.9985152    470.43699  0.018784419  0.018538571            3 
 2088000   0.90730199   -7.9762791    471.50835  0.018818181  0.018532506            3 
 2089000   0.90930014   -8.0132549      471.637  0.018814305  0.018526418            3 
 2090000   0.90605599   -7.9658114    470.22952  0.018749184  0.018520294            4 
 2091000   0.93499284    -8.013077    470.62879  0.018756129  0.018514183            3 
 2092000    0.9036803   -8.0177765    470.30098  0.018734105  0.018508055            3 
 2093000   0.92000572   -8.0142108    470.16979  0.018719931  0.018501926            3 
 2094000   0.93707897   -8.0141408    469.53225   0.01868562  0.018495773            6 
 2095000   0.90623402   -8.0220681    470.94323  0.018732825  0.018489629            4 
 2096000   0.92736762   -8.0337195    470.33726  0.018699796  0.018483464            2 
 2097000   0.91728002   -8.0243161    470.46244  0.018695853  0.018477338            9 
 2098000   0.91907152   -8.0370599    470.91143  0.018704776   0.01847119            6 
 2099000   0.91010614   -7.9933717    471.94165  0.018736766  0.018465056            5 
 2100000   0.89971314   -8.0084527    471.09756  0.018694347  0.018458949            3 
 2101000   0.90032703    -8.014755    471.79274  0.018713023  0.018452848            2 
 2102000   0.92512464   -8.0139119    470.89622  0.018668578   0.01844679            5 
 2103000   0.90338758   -7.9777105    472.03105   0.01870467  0.018440742            4 
 2104000   0.89425906   -8.0323203    471.13742  0.018660386  0.018434643            3 
 2105000   0.92194836   -8.0385324    471.10081  0.018650072  0.018428506            3 
 2106000   0.88609217   -8.0189457    470.65744  0.018623672   0.01842233            3 
 2107000   0.92743107   -8.0286703    471.12822  0.018633453  0.018416172            9 
 2108000   0.92726243   -8.0419063    470.35195  0.018593926  0.018409994            3 
 2109000   0.90851716   -8.0695472     470.7133  0.018599388  0.018403819            3 
 2110000   0.91929339   -8.0085241    472.11113  0.018645779  0.018397592            3 
 2111000   0.93035926   -8.0414233     471.0275  0.018594169   0.01839139            3 
 2112000   0.90872855   -8.0455539    470.99046  0.018583904  0.018385208            3 
 2113000   0.89864564    -8.026309    471.35676  0.018589555  0.018379053            2 
 2114000   0.93758945   -8.0221892    471.12386  0.018571581  0.018372872            2 
 2115000   0.92315954   -8.0408016    469.78636  0.018510101   0.01836665            7 
 2116000   0.92225873   -8.0308149    471.61553   0.01857339  0.018360472            3 
 2117000    0.9322412   -8.0069549    471.92083  0.018576635  0.018354264            8 
 2118000   0.91631099   -8.0365659    472.25074  0.018580844  0.018348065            4 
 2119000   0.93314805   -8.0072272    472.33164  0.018575257   0.01834192            6 
 2120000   0.91994351   -8.0235604    472.50608  0.018573352  0.018335745            2 
 2121000   0.91434899   -8.0407117    472.10652  0.018548897  0.018329632            3 
 2122000   0.90974099   -8.0074427    472.04172  0.018537611  0.018323422            3 
 2123000   0.91031986   -8.0334489    472.43709  0.018544398  0.018317251            8 
 2124000   0.90869895   -8.0092934    473.23803  0.018567092  0.018311061            2 
 2125000   0.91935723   -7.9720399    472.42072  0.018526303  0.018304905            2 
 2126000    0.9153121   -8.0204159       473.79  0.018571261  0.018298757            2 
 2127000   0.90123557   -8.0156246    473.89619   0.01856669  0.018292617            2 
 2128000   0.90402719   -8.0145042    473.76086  0.018552665  0.018286466            3 
 2129000   0.91018719   -8.0414956    472.37885  0.018489856  0.018280282            6 
 2130000   0.90461666   -8.0259344    473.92363  0.018541613  0.018274122            2 
 2131000   0.93674671   -8.0793942    471.13004  0.018423668  0.018267984            2 
 2132000   0.91478902    -8.019895    473.45943  0.018506075  0.018261806            3 
 2133000   0.91963711   -8.0092895    473.02313  0.018480354  0.018255659            2 
 2134000   0.91520867    -8.043848    472.58538  0.018454599  0.018249514            5 
 2135000   0.91512238   -8.0616841    471.64683  0.018409322   0.01824335            2 
 2136000   0.89843803   -8.0166007    473.76347  0.018483281  0.018237188            2 
 2137000   0.92614904   -8.0443566    473.46024  0.018462808  0.018231038            3 
 2138000   0.89029844   -8.0476724    473.09828  0.018440064  0.018224919            3 
 2139000   0.92390485   -8.0208869    474.17423  0.018473361  0.018218789            5 
 2140000   0.91546814   -8.0387476    473.06572  0.018421562  0.018212678            2 
 2141000   0.90737119   -7.9783171    474.74813  0.018478442  0.018206553            5 
 2142000   0.93570303   -8.0470579    473.10708  0.018405971  0.018200452            2 
 2143000   0.89770713   -8.0139071    474.59205  0.018455127  0.018194274            3 
 2144000   0.90097319   -8.0182693    474.25789  0.018433531  0.018188142            2 
 2145000   0.90824805   -8.0191423      473.155   0.01838209  0.018182029            4 
 2146000   0.88983945   -8.0660173    473.86547  0.018401113  0.018175845            3 
 2147000   0.89807926   -8.0475663    474.24046  0.018407098  0.018169652            4 
 2148000   0.91048739   -8.0415125    475.64608   0.01845306  0.018163467            5 
 2149000    0.8901923    -8.038302     473.4912  0.018360912  0.018157324            6 
 2150000   0.91678256   -8.0146162    474.14599  0.018377752  0.018151233            3 
 2151000   0.90756907   -8.0297685    475.10886  0.018406511  0.018145127            5 
 2152000   0.89597671   -8.0477476    474.04754   0.01835686  0.018138985            4 
 2153000   0.91978606   -8.0424854    474.11489   0.01835094  0.018132873            5 
 2154000    0.9166459   -8.0320695    475.67155  0.018402644  0.018126777            5 
 2155000   0.90456033   -8.0406821    475.33648  0.018381148  0.018120656            3 
 2156000   0.89039015    -8.048896     474.0153  0.018321556  0.018114475            4 
 2157000   0.90120834   -8.0251289    475.11862  0.018355688   0.01810829            5 
 2158000   0.92265184   -8.0438009    476.00379  0.018381363  0.018102139            6 
 2159000   0.88877182   -8.0315943     475.8794  0.018368049  0.018096001            8 
 2160000   0.88086723    -8.038307    476.12976  0.018369204  0.018089896            4 
 2161000   0.89772329   -8.0807099    475.51608  0.018337038  0.018083747            3 
 2162000   0.92081314   -8.0326443    475.34217  0.018321854  0.018077613            4 
 2163000    0.8978027   -8.0565926    475.81706  0.018331679  0.018071495            3 
 2164000   0.89948472   -8.0296794    475.23193  0.018300675  0.018065362            2 
 2165000   0.90573189   -8.0229193    476.55189  0.018343029  0.018059234            2 
 2166000   0.90485276   -8.0550166    475.92824  0.018310566  0.018053142           11 
 2167000   0.89734757   -8.0248273    475.57647  0.018288589  0.018047033            6 
 2168000   0.91819866   -8.0279054    475.73006  0.018286057  0.018040938            3 
 2169000   0.88486544   -8.0398269    475.50199  0.018268864  0.018034873            2 
 2170000   0.91037852   -8.0373905    476.99743  0.018317874  0.018028834            3 
 2171000   0.90149571   -8.0517187    475.92339  0.018268209  0.018022785            6 
 2172000   0.87831845   -8.0440576    476.47316  0.018280892  0.018016727            5 
 2173000   0.91727453   -8.0339855    476.28309   0.01826519  0.018010666            6 
 2174000   0.91169153   -8.0367272    476.24921   0.01825549  0.018004609            7 
 2175000   0.91361115    -8.038284    477.39628  0.018291045  0.017998563            5 
 2176000   0.90000616   -8.0559651    476.03198  0.018230392  0.017992561            4 
 2177000   0.89503151   -8.0282914    477.55619  0.018280362  0.017986582            4 
 2178000   0.89668317   -8.0119457    477.18413  0.018257734  0.017980605            2 
 2179000   0.89878526   -8.0653704    477.27773  0.018252935  0.017974635            3 
 2180000   0.92180773   -8.0372278    477.95111  0.018270303  0.017968645            4 
 2181000   0.91112609   -8.0684846    477.06057  0.018227899  0.017962712            2 
 2182000   0.91162709   -8.0712821    476.68803  0.018205317  0.017956748            4 
 2183000   0.91009908   -8.0698867    478.43058  0.018263498  0.017950706            4 
 2184000   0.92441437   -8.0779201    476.80986  0.018193294  0.017944737            2 
 2185000   0.88800634   -8.0301721    477.94538  0.018228275  0.017938808            4 
 2186000   0.90791953   -8.0067897     479.4233  0.018276277  0.017932876            2 
 2187000   0.89291988   -8.0651794    479.19475  0.018259212   0.01792694            4 
 2188000   0.88001568   -8.0286034    479.07271  0.018246219  0.017920981            3 
 2189000   0.90820342   -8.0612255    478.86464  0.018229962  0.017915031            4 
 2190000    0.9075031   -8.0514763    479.37941  0.018241226  0.017909128            1 
 2191000   0.92421056   -8.0631589    479.77038   0.01824777  0.017903201            4 
 2192000   0.91058975    -8.100205    477.83537  0.018165882   0.01789724            4 
 2193000   0.91337868   -8.0395565    478.51475  0.018183415   0.01789129            5 
 2194000   0.88884013   -8.0615728    480.03981  0.018233053  0.017885372            4 
 2195000   0.91162735   -8.0751924     478.1258  0.018152081  0.017879387            4 
 2196000   0.91678295   -8.0850849    478.39954  0.018154202  0.017873428            4 
 2197000   0.89374093   -8.0390424    479.28298  0.018179448  0.017867518            4 
 2198000   0.88872241   -8.0279393    478.59859   0.01814523  0.017861577            2 
 2199000   0.89180544   -8.0380412    480.05932  0.018192334   0.01785568            4 
 2200000   0.90210057   -8.0273699    480.93488   0.01821723  0.017849782            4 
 2201000   0.88687895   -8.0509654    479.41551  0.018151428  0.017843823            4 
 2202000   0.89726355   -8.0607515    479.50484  0.018146565  0.017837888            3 
 2203000   0.90555541   -8.0655826    479.67733  0.018144853  0.017831994            4 
 2204000   0.89856964    -8.042205    480.84336  0.018180708  0.017826114            2 
 2205000   0.91625898   -8.0466747    479.58535  0.018124919  0.017820212            4 
 2206000   0.91330523   -8.0624511    478.90998   0.01809119  0.017814295            3 
 2207000   0.89702282   -8.0374491    479.77616  0.018115698   0.01780834            6 
 2208000   0.89442917   -8.0483622    481.40782  0.018169075  0.017802464            5 
 2209000   0.91203086   -8.0685242    479.28712  0.018080848  0.017796526            3 
 2210000     0.895782   -8.0665338    480.30121  0.018110905  0.017790622           13 
 2211000   0.88649081   -8.0552374    479.11107  0.018057857   0.01778473            2 
 2212000   0.91123286   -8.0860099    479.63004  0.018069245  0.017778836            4 
 2213000    0.9058112   -8.0296175    480.37149     0.018089  0.017772937            5 
 2214000   0.89334735   -8.0604439    480.37559  0.018080984  0.017767043            6 
 2215000   0.93895145   -8.0584393     480.8158  0.018089383  0.017761123            3 
 2216000   0.88876847   -8.0796141    480.45626  0.018067699  0.017755273            4 
 2217000   0.87859476   -8.0461591    480.86515  0.018074919  0.017749403            4 
 2218000    0.9101824   -8.0466928    480.37183  0.018048235  0.017743561            2 
 2219000   0.88256403   -8.0669667    480.97233  0.018062653  0.017737681            2 
 2220000   0.89555241   -8.0444213    480.70011  0.018044298  0.017731808            2 
 2221000   0.90375237   -8.0779883    481.40315  0.018062552  0.017725909            6 
 2222000   0.91307954   -8.0606657    480.33546  0.018014381  0.017720018            6 
 2223000   0.88718536   -8.0565445    481.10581  0.018035156  0.017714123            4 
 2224000   0.87306908   -8.0467337    481.60373  0.018045703  0.017708246            2 
 2225000   0.89141992   -8.1075619    480.07398  0.017980299  0.017702358            2 
 2226000   0.88989379   -8.0549379    481.55313  0.018027596  0.017696481            3 
 2227000   0.89434717   -8.0932961      479.962  0.017959961  0.017690581            4 
 2228000    0.8766572   -8.1058022    479.18124  0.017922697  0.017684657            4 
 2229000   0.88088997   -8.1329252    479.61969  0.017931049  0.017678709            2 
 2230000   0.90691227   -8.0898299    481.64798  0.017998803  0.017672769            3 
 2231000    0.8701906   -8.0740067    482.45329  0.018020816  0.017666846            5 
 2232000   0.89182161   -8.0969993    479.52657  0.017903471  0.017660902            3 
 2233000   0.91067186   -8.0652423    481.16027  0.017956421  0.017654983            3 
 2234000   0.89515006   -8.0321183    481.37019  0.017956214   0.01764915            7 
 2235000   0.88697472   -8.0519126    481.50274  0.017953122  0.017643288            1 
 2236000   0.89426747   -8.0414548    481.81527  0.017956741  0.017637354            8 
 2237000   0.89534941   -8.0889162    480.88348  0.017914002  0.017631427            6 
 2238000   0.90312094    -8.056678    482.38979  0.017962086  0.017625473            3 
 2239000   0.90573009   -8.0673696    482.73216  0.017966807  0.017619529            2 
 2240000   0.88636606   -8.0849971    480.90292  0.017890734  0.017613609            3 
 2241000   0.89516725   -8.1020102    480.95927  0.017884846  0.017607631            4 
 2242000   0.90050737   -8.1121674     481.3701  0.017892139  0.017601713            4 
 2243000   0.88907859   -8.0827075    481.02854  0.017871472  0.017595783            5 
 2244000   0.89844176   -8.1394641    480.30085  0.017836484  0.017589797            6 
 2245000   0.87233502   -8.0681077    482.38131  0.017905765   0.01758384            3 
 2246000   0.88458349   -8.0677721      481.846  0.017877931  0.017577906            4 
 2247000   0.89339646    -8.075148    482.02083  0.017876459     0.017572            4 
 2248000   0.90011164   -8.0860256    481.39933  0.017845468  0.017566153            3 
 2249000    0.9013596   -8.0405592    484.15242  0.017939544  0.017560341            4 
 2250000   0.91219866    -8.047422    482.91613  0.017885783  0.017554548            9 
 2251000   0.88670227   -8.0688537    482.46235  0.017861038  0.017548746            5 
 2252000   0.88514074   -8.0535642    483.64651  0.017896925  0.017542949            3 
 2253000   0.89292621   -8.0366333    484.03638  0.017903402  0.017537137            4 
 2254000   0.89825833   -8.0436226    483.84911  0.017888536  0.017531383            2 
 2255000   0.89734273   -8.0540606    484.07638  0.017889002  0.017525643            1 
 2256000   0.89355201   -8.0487524    483.30749   0.01785267  0.017519852            4 
 2257000   0.88795428    -8.042753    484.40762   0.01788538  0.017514042            5 
 2258000   0.88897879   -8.0742923    484.36683  0.017875953  0.017508283            3 
 2259000   0.87557699   -8.0694177    483.65293  0.017841704  0.017502456            7 
 2260000   0.89929187    -8.065637    482.61829   0.01779566  0.017496608            7 
 2261000   0.88303012   -8.1144404    483.45784  0.017818732   0.01749078            3 
 2262000   0.88106029   -8.0612232    484.17395  0.017837237  0.017485004            5 
 2263000   0.86421926   -8.0619252    483.47115  0.017803474  0.017479233            4 
 2264000   0.89262659   -8.0629667     484.4367  0.017831151  0.017473463           13 
 2265000   0.89536536    -8.083606    483.07484  0.017773173  0.017467684            9 
 2266000   0.89289706   -8.0821994    483.64279  0.017786216  0.017461854            4 
 2267000   0.87607019   -8.0764248    485.43502  0.017844252  0.017456026            3 
 2268000   0.88484435   -8.0819343    482.24348  0.017719117  0.017450199            7 
 2269000   0.89081809   -8.0815474    482.67651  0.017727211  0.017444356            2 
 2270000   0.89176009   -8.0832887    483.83648  0.017761985  0.017438548           11 
 2271000   0.90403643   -8.0397641    485.68142  0.017821863   0.01743276            2 
 2272000   0.89862838   -8.0569684    483.97315  0.017751363   0.01742699            3 
 2273000   0.86776119   -8.0772557    484.55171  0.017764764  0.017421177            2 
 2274000   0.88803543   -8.0541003      483.915  0.017733619  0.017415337            2 
 2275000   0.87848067   -8.0922325     484.1409  0.017734099   0.01740952            3 
 2276000   0.88546838   -8.0968502    484.90078  0.017754129  0.017403701            2 
 2277000   0.88831997   -8.0915286    483.79334  0.017705802  0.017397893            3 
 2278000   0.87887275   -8.0855731     485.2979  0.017753069  0.017392107            6 
 2279000    0.8932182   -8.0788596    484.64101   0.01772126   0.01738632            1 
 2280000   0.88176151    -8.105127    484.61303  0.017712465  0.017380518            4 
 2281000   0.87540173   -8.0740697    484.80582  0.017711743  0.017374691            4 
 2282000   0.89511415   -8.0765015    484.33972   0.01768696  0.017368918            2 
 2283000   0.88409037   -8.0650102    485.89493  0.017735981  0.017363105            4 
 2284000    0.8972346   -8.1193217    484.37404  0.017672725  0.017357289            2 
 2285000   0.91117298   -8.0652824     486.2844  0.017734661  0.017351483            2 
 2286000   0.88292502   -8.1255388    485.11523  0.017684282  0.017345759            2 
 2287000   0.89635265   -8.1181329    485.25277  0.017681561  0.017340006            3 
 2288000   0.88758773   -8.0786496    485.53534  0.017684125  0.017334264            4 
 2289000   0.89896903   -8.0984635    484.52984  0.017639793  0.017328465            4 
 2290000   0.88563677   -8.1165369    485.92067  0.017682703   0.01732272            7 
 2291000   0.88563254   -8.0868613    485.07398  0.017644187  0.017316997            4 
 2292000    0.8885712   -8.1020824    486.02304  0.017670995  0.017311247            8 
 2293000    0.8877655   -8.0993675    486.61761  0.017684896   0.01730554            2 
 2294000    0.8886323   -8.0800784    486.55833  0.017675034  0.017299846            4 
 2295000   0.89650316   -8.1055748    485.76936  0.017638684   0.01729412            6 
 2296000   0.88659567   -8.0775515    487.43485  0.017691451  0.017288365            3 
 2297000   0.89413574   -8.1102403     486.4446  0.017647823  0.017282601            2 
 2298000   0.89027987   -8.0878504    486.11867  0.017628324  0.017276812            5 
 2299000   0.89440396   -8.1051469    485.67564  0.017604598  0.017271032            8 
 2300000    0.8674119   -8.1020741    486.79407  0.017637466  0.017265266           10 
 2301000   0.88517221   -8.0940477    485.97644   0.01760019  0.017259488            3 
 2302000   0.88908472   -8.1174898    485.18298  0.017563821  0.017253661            7 
 2303000    0.8803207   -8.1163648    485.98713  0.017585292  0.017247865            2 
 2304000   0.88046797   -8.1147211    485.59921  0.017563629  0.017242082            3 
 2305000   0.88402772    -8.078952    487.37656  0.017620266  0.017236308            4 
 2306000   0.87940022    -8.112222    485.66318  0.017550708  0.017230538            3 
 2307000   0.88316086   -8.0664583    487.19717  0.017598511  0.017224752            3 
 2308000   0.88221725   -8.1276836    485.80098  0.017540474   0.01721895            5 
 2309000   0.89570676   -8.1144571    485.92937  0.017537512  0.017213109            1 
 2310000    0.8773669   -8.1391736    485.96439  0.017531183  0.017207257            6 
 2311000   0.86405634   -8.0720086    486.21623  0.017532678  0.017201411            4 
 2312000   0.87530121   -8.1296852    485.48169  0.017498619  0.017195543            5 
 2313000    0.8751166   -8.1010461    486.28727  0.017520078  0.017189643            4 
 2314000    0.8787952   -8.1187205    486.46833  0.017519026  0.017183748            4 
 2315000   0.87337857   -8.1157907    485.70542  0.017483996  0.017177924            4 
 2316000   0.90609067   -8.1311774    485.03628  0.017452371  0.017172035            5 
 2317000    0.8820303    -8.118389    484.81647  0.017436932  0.017166143            2 
 2318000    0.8809875   -8.1532628    485.97165  0.017470939  0.017160257            2 
 2319000   0.88076986   -8.1259768    485.96667  0.017463227  0.017154412            3 
 2320000    0.8770606   -8.0909874    487.06323  0.017495087  0.017148526            7 
 2321000    0.8829654    -8.079073    486.47167   0.01746631  0.017142712            4 
 2322000   0.87207584   -8.1019444    486.92403  0.017475023  0.017136869            6 
 2323000   0.87977481   -8.1289352    485.37534  0.017411943  0.017131023            3 
 2324000   0.85774794   -8.1241559    486.38125  0.017440521  0.017125191            7 
 2325000   0.88019428   -8.1122443    486.19133  0.017426212  0.017119364            2 
 2326000   0.88597975   -8.1144861    487.24195  0.017456361  0.017113543            2 
 2327000   0.87960726   -8.1192977    487.17323  0.017446399  0.017107715            4 
 2328000   0.88505315   -8.1171887    486.74176  0.017423459  0.017101868            3 
 2329000   0.88111468   -8.1227993    486.73391  0.017415697  0.017095993            2 
 2330000   0.85583785   -8.0958774    487.26232  0.017427122  0.017090098            4 
 2331000    0.8617115   -8.1112322    484.10707  0.017306845  0.017084215            1 
 2332000    0.8790791   -8.0794613    487.54469  0.017422266   0.01707832            5 
 2333000   0.86431562   -8.1400451    485.82261  0.017353286  0.017072411            1 
 2334000   0.88865295   -8.1112875    487.40895   0.01740249  0.017066565            7 
 2335000   0.85789437   -8.1505429    485.51831  0.017327563  0.017060685            3 
 2336000   0.87765926   -8.1409257    485.46245  0.017318152  0.017054719            3 
 2337000   0.90346986   -8.1280762    486.56659  0.017350114  0.017048796            5 
 2338000   0.86886127   -8.1178056     487.1521  0.017363562  0.017042868            3 
 2339000   0.87372189    -8.154299    486.49139  0.017332599  0.017036941            3 
 2340000   0.88375494     -8.11479    486.76446  0.017334917  0.017031015            6 
 2341000   0.86626045    -8.109674    486.70499  0.017325395  0.017025095            2 
 2342000   0.88269554   -8.0994721    487.39812   0.01734266  0.017019221            3 
 2343000   0.86300262   -8.1175219    485.89586  0.017281827  0.017013301            5 
 2344000   0.87236322   -8.1361967    485.96265  0.017276829  0.017007313            5 
 2345000   0.88478071   -8.2105983    485.91009  0.017267594  0.017001342            7 
 2346000   0.88540122   -8.1373077     486.9221  0.017296181  0.016995391            5 
 2347000   0.86709702   -8.1104558    487.66059  0.017315033  0.016989494           20 
 2348000   0.89294777    -8.114608    487.82146  0.017313368  0.016983596            6 
 2349000   0.87914785   -8.1035496    487.21955  0.017284644  0.016977719            3 
 2350000   0.86452611   -8.1002876    487.69272  0.017294068  0.016971858            3 
 2351000   0.88616941   -8.1279061     487.5297  0.017280934  0.016965987            4 
 2352000   0.87321351   -8.1240522    487.69148  0.017279318  0.016960071            5 
 2353000   0.86909926   -8.1272404    487.14079  0.017252472   0.01695418            3 
 2354000   0.86032553   -8.1317737    485.48346  0.017186472  0.016948263            2 
 2355000    0.8607095   -8.1070464    487.38556  0.017246481  0.016942402            5 
 2356000   0.87002889   -8.1603405    486.24562  0.017198841  0.016936491            2 
 2357000    0.8848537   -8.1022786     486.0537  0.017184758  0.016930573            1 
 2358000   0.87324591   -8.1197125    488.22492  0.017254203    0.0169247            2 
 2359000   0.89111941   -8.0967031    488.14889  0.017244203   0.01691882            2 
 2360000   0.87192231   -8.1118756    487.85419   0.01722649  0.016912967            2 
 2361000   0.87350333   -8.1598281    486.39843  0.017167811  0.016907105            4 
 2362000   0.87595306   -8.0780339    488.88097  0.017248129  0.016901176            3 
 2363000   0.85851674   -8.1437275    486.95179  0.017172796  0.016895296            3 
 2364000   0.86945625   -8.0958448    488.16314  0.017208233  0.016889379            3 
 2365000   0.88313792   -8.0793651    488.09722  0.017198633  0.016883548            4 
 2366000   0.87096114   -8.1291495    486.95962  0.017151297  0.016877697           11 
 2367000   0.86895238   -8.1126999    488.63002   0.01720286  0.016871841            4 
 2368000   0.88093661   -8.1200456    487.62706  0.017160299  0.016865995            6 
 2369000   0.87148471    -8.096847    489.16647  0.017207206  0.016860143           10 
 2370000   0.87366908   -8.1266699    487.28864  0.017133919  0.016854259            4 
 2371000   0.87859071   -8.1000285    486.96024   0.01711515  0.016848343            6 
 2372000   0.86176077    -8.119644    488.95845  0.017178135   0.01684244            3 
 2373000   0.87092846   -8.1021013    487.97308  0.017136293  0.016836568            3 
 2374000   0.85875558   -8.1322533    488.07297  0.017132581  0.016830685            4 
 2375000   0.87353006   -8.1248366    488.55417  0.017142252   0.01682482            6 
 2376000   0.86276195   -8.1159479    488.83795   0.01714499  0.016818928            4 
 2377000   0.87003006    -8.153093    486.27281  0.017047848  0.016813001            4 
 2378000   0.85852319   -8.0959953    488.42818  0.017116211  0.016807079            3 
 2379000   0.86675281   -8.1664454    488.18784  0.017100597  0.016801178            4 
 2380000   0.87557028   -8.1169529    488.20043  0.017093853  0.016795257            4 
 2381000   0.85643895   -8.1228917    487.77742  0.017071868  0.016789369            8 
 2382000   0.85931509   -8.1316754    487.27228  0.017047029   0.01678347            5 
 2383000   0.86553477   -8.1679685    485.81161  0.016988796  0.016777542            3 
 2384000   0.86512306   -8.1549741    485.49458  0.016970588  0.016771548            2 
 2385000   0.85486793   -8.1644498    487.33301  0.017027708  0.016765548            4 
 2386000   0.85694539   -8.1644024    487.80157  0.017036937  0.016759575            2 
 2387000   0.87111492   -8.1212523      487.429  0.017016792  0.016753618           12 
 2388000   0.85493807   -8.1297481    488.10047  0.017033098  0.016747695            2 
 2389000   0.86587314   -8.1274903    488.19581  0.017029294  0.016741781            4 
 2390000    0.8942229   -8.1519711    488.56439  0.017035021  0.016735864            2 
 2391000   0.86683727   -8.1313581    487.44181  0.016988771  0.016729924            2 
 2392000   0.87633169   -8.1238144    487.89085  0.016997312  0.016724011            2 
 2393000    0.8731543   -8.1618213    487.79659  0.016986927  0.016718112            9 
 2394000   0.86045049   -8.1540016    487.95716   0.01698542  0.016712148            6 
 2395000   0.85479695   -8.1596593    487.72675  0.016970311  0.016706247            2 
 2396000   0.87716269   -8.1972849    486.67339  0.016926592  0.016700317            1 
 2397000   0.88228318   -8.1577106    487.24069  0.016939254  0.016694366            3 
 2398000     0.853083   -8.1680435    488.58172  0.016978792  0.016688434            3 
 2399000   0.86301856   -8.1652449    487.05595  0.016918715   0.01668249            2 
 2400000   0.87672452   -8.1346223    488.29885  0.016954821  0.016676574            4 
 2401000   0.85583257   -8.1501031    488.23618  0.016945584  0.016670655            4 
 2402000   0.87082278   -8.1433959    488.59235  0.016950886  0.016664756            4 
 2403000   0.86778624   -8.1400412     489.0645  0.016960206   0.01665884            4 
 2404000   0.85972376   -8.1380183    487.79422  0.016909118  0.016652935            4 
 2405000   0.88248942   -8.1280135    487.90137  0.016905799  0.016647019            6 
 2406000   0.86882892   -8.1639193    489.13124   0.01694137  0.016641123            4 
 2407000   0.85549487      -8.1521     489.7223  0.016954795  0.016635223            4 
 2408000   0.86208714   -8.1661783     487.8087   0.01688153  0.016629286            4 
 2409000   0.85051136   -8.1325349    489.97526  0.016949469  0.016623372            2 
 2410000    0.8462646   -8.1820335    487.72206  0.016864525  0.016617446            6 
 2411000   0.86247882   -8.1487506    488.00096   0.01686717  0.016611508            9 
 2412000   0.87797791   -8.1610562    488.48775  0.016876995  0.016605594            9 
 2413000   0.85677097    -8.158704     488.4997  0.016870414   0.01659968            5 
 2414000    0.8467617   -8.2093258    488.46533  0.016862239  0.016593762            4 
 2415000   0.86479851   -8.1234971    489.60447  0.016894564  0.016587878            4 
 2416000   0.86516307   -8.1555369    487.89476    0.0168286  0.016582015            2 
 2417000   0.87964531   -8.1431027    488.58933  0.016845584  0.016576109            3 
 2418000   0.86985819   -8.1407181     489.7432  0.016878384  0.016570259            3 
 2419000   0.86311969    -8.133108    489.40549  0.016859773  0.016564412            6 
 2420000   0.85912877   -8.1337915    488.71738  0.016829111  0.016558559            9 
 2421000   0.85246414   -8.1395657    490.22969  0.016874215  0.016552719            5 
 2422000   0.87906186   -8.1574419    489.66745  0.016847903  0.016546849            4 
 2423000   0.86588189   -8.1451435    489.94802  0.016850599  0.016541005            5 
 2424000   0.84513683   -8.1654367    490.18847  0.016851914  0.016535158            4 
 2425000   0.85894263   -8.1222027    490.86529  0.016868223  0.016529304            3 
 2426000   0.85201654   -8.1443392     489.2346  0.016805256  0.016523443            4 
 2427000   0.85674348   -8.1463024    489.90766  0.016821442  0.016517585            3 
 2428000   0.86090959   -8.1833338    489.45912  0.016799119  0.016511736            3 
 2429000   0.85754939   -8.1800292    489.40198  0.016790242  0.016505824            5 
 2430000   0.85368141   -8.1325994    490.61038  0.016824773  0.016499964            7 
 2431000   0.86607322   -8.1640202    489.93553  0.016794719  0.016494109            1 
 2432000   0.86941379   -8.1611752    488.79178  0.016748622  0.016488206            5 
 2433000   0.86329168   -8.1272578    490.95436  0.016815809  0.016482342            3 
 2434000     0.830478   -8.1742464    490.55141  0.016795104  0.016476462            5 
 2435000   0.85391172   -8.1660616    489.83559   0.01676371  0.016470579            6 
 2436000    0.8499725   -8.1462891    490.80499   0.01678999   0.01646473            2 
 2437000   0.85560208   -8.1659386    489.14373  0.016726294  0.016458917            2 
 2438000   0.85912464   -8.1554111    490.19203  0.016755265  0.016453067            2 
 2439000   0.86842575   -8.1494876    490.20701  0.016748907  0.016447235            3 
 2440000   0.85612475   -8.1548756     490.8436  0.016763784   0.01644138            3 
 2441000   0.85357458   -8.1747813    490.86869  0.016757773  0.016435537            4 
 2442000   0.85622704   -8.1684905     491.0316   0.01675647  0.016429694            7 
 2443000    0.8663542   -8.1695852    491.19421  0.016755158  0.016423877            4 
 2444000   0.85985891   -8.1771997    491.10246  0.016745174  0.016418037           10 
 2445000   0.85264594   -8.1491633    490.75755   0.01672657  0.016412201            7 
 2446000   0.83820431   -8.1327406    491.42561  0.016742492  0.016406382            6 
 2447000   0.87350132   -8.1972069    489.62687  0.016674393  0.016400556            3 
 2448000    0.8493501   -8.1598947    490.73898  0.016705439   0.01639471            3 
 2449000   0.84516077   -8.1741002    491.56861  0.016726848  0.016388887            7 
 2450000   0.86075608   -8.1670365     490.1332  0.016671197    0.0163831            4 
 2451000   0.86059457   -8.1534345    490.11063  0.016663628  0.016377283            8 
 2452000   0.87371576   -8.1710361    491.27235  0.016696314  0.016371446            2 
 2453000   0.85453249   -8.1363381     492.2868  0.016723971  0.016365643            5 
 2454000   0.87711777    -8.164416    490.11709  0.016643476  0.016359824            4 
 2455000   0.86078466   -8.1742168    491.46998   0.01668262  0.016354037            3 
 2456000   0.86893803   -8.1809269    490.32604  0.016637013  0.016348234            3 
 2457000   0.86999635   -8.1848125    491.26774  0.016662181   0.01634239            3 
 2458000   0.85121715   -8.1702447    492.03104   0.01668128  0.016336584            4 
 2459000   0.87227795   -8.1673587    489.94621  0.016603843  0.016330821            9 
 2460000   0.86270155   -8.1736545    492.56031  0.016685647   0.01632509            2 
 2461000   0.86375383    -8.157749    492.84604  0.016688543   0.01631933            4 
 2462000   0.83722208   -8.1816025    492.34716  0.016664878  0.016313579           16 
 2463000   0.87375461   -8.1921856     491.8193  0.016640252  0.016307809            6 
 2464000   0.85116133   -8.1844163    490.85509  0.016600889  0.016302025            5 
 2465000   0.86548429   -8.1601357    492.08815   0.01663584  0.016296245            3 
 2466000    0.8305786   -8.1640016    491.98518  0.016625614  0.016290472            2 
 2467000   0.86130089   -8.1753205    491.96999  0.016618362  0.016284689            3 
 2468000   0.84375307   -8.1537671    491.03001   0.01657989  0.016278909            3 
 2469000   0.86515977   -8.1736015    492.19886  0.016612625  0.016273143            3 
 2470000   0.85357368   -8.1650283    493.06982  0.016635284  0.016267389            3 
 2471000   0.87120078   -8.1621199    491.88361  0.016588547  0.016261636           12 
 2472000   0.85702898   -8.1928999    491.26603  0.016561018   0.01625587            3 
 2473000   0.85731572   -8.2350715    490.21696   0.01651897  0.016250078            6 
 2474000   0.86616863   -8.2238413    491.66716  0.016561141   0.01624425            6 
 2475000   0.84712366   -8.2094401    491.98323  0.016565092  0.016238429            4 
 2476000   0.86094198   -8.2578333    491.79191  0.016551963  0.016232611            5 
 2477000   0.86239712   -8.2063173    492.22741  0.016559932  0.016226842            5 
 2478000   0.87535429   -8.1614959    492.89241  0.016575612  0.016221088            4 
 2479000   0.84634108   -8.2019187    491.78476  0.016531691  0.016215356            5 
 2480000   0.85511793   -8.1981596     491.8201  0.016526213  0.016209609            6 
 2481000   0.85244074   -8.2146647    492.47268  0.016541471  0.016203856            6 
 2482000   0.85361503   -8.1842809    493.75818  0.016577968  0.016198123            3 
 2483000    0.8341333   -8.1725275    493.02309   0.01654662  0.016192398            6 
 2484000   0.86560177   -8.1839024    493.68836  0.016562277  0.016186682            9 
 2485000   0.84437472   -8.1470736    494.21789   0.01657337  0.016181003           13 
 2486000   0.84789618   -8.1965154    493.85483  0.016554533  0.016175315            4 
 2487000   0.83596079   -8.1866415    493.80457  0.016546193  0.016169649            7 
 2488000   0.84860455   -8.1653043    492.94155  0.016510636  0.016163945            4 
 2489000   0.85514671   -8.2047078    493.00722  0.016506201  0.016158215           24 
 2490000   0.83642295   -8.1809307    492.86235  0.016494724  0.016152484            8 
 2491000     0.843689   -8.2103332    491.99735  0.016459165  0.016146743            5 
 2492000   0.85234592   -8.2128457    493.56824  0.016505091   0.01614101            7 
 2493000   0.85237908    -8.257889    490.58913  0.016398888  0.016135242            3 
 2494000   0.84068848    -8.201964    492.41851  0.016453439  0.016129487            4 
 2495000   0.87796974   -8.2116975    493.61322  0.016486747  0.016123732            6 
 2496000   0.85737491   -8.1960376    493.74472  0.016484533  0.016117976            5 
 2497000   0.86660043   -8.1941947     493.5298  0.016470758  0.016112251            4 
 2498000   0.84847971   -8.2117807    493.55627  0.016465048  0.016106551            3 
 2499000   0.84705946   -8.1766328    493.56267  0.016458672  0.016100873            3 
 2500000   0.85769641   -8.1554956    494.23603  0.016474534  0.016095198            7 
 2501000   0.85789229   -8.2068159    494.06621  0.016462289  0.016089528            4 
 2502000   0.84527318   -8.1808791    494.60687  0.016473717  0.016083867            8 
 2503000   0.87516713     -8.17986    493.86539  0.016442449  0.016078179            3 
 2504000   0.83567268   -8.1711042    494.37994  0.016453007  0.016072497            4 
 2505000   0.85223875   -8.1760864    493.72938  0.016424796  0.016066798            4 
 2506000    0.8518907   -8.1788976     493.8716  0.016422972  0.016061143            3 
 2507000   0.86576939    -8.210099    494.48687  0.016436872  0.016055504            2 
 2508000   0.83581125   -8.2134633    494.33972  0.016425429  0.016049825            3 
 2509000   0.83623156   -8.2155818    493.27779  0.016383612  0.016044145            3 
 2510000   0.87003864    -8.194945    493.23111  0.016375535  0.016038446            7 
 2511000   0.85123606    -8.210824     494.3076  0.016404739  0.016032785            2 
 2512000    0.8521905   -8.1542566    494.57784  0.016407173  0.016027186            5 
 2513000    0.8630052   -8.1698412    494.55197  0.016399787  0.016021569            5 
 2514000   0.83333471   -8.1680565    495.39962  0.016421361  0.016015933            4 
 2515000   0.82681098   -8.2076257    494.45985  0.016383693  0.016010299            1 
 2516000   0.85740085   -8.2354302    494.00588  0.016362145  0.016004634            4 
 2517000   0.83787356   -8.1963557    495.28254  0.016397912  0.015998939            4 
 2518000   0.84026018    -8.176964    493.75929  0.016340988  0.015993255            2 
 2519000   0.82940085   -8.2449454    493.74977  0.016334186  0.015987582            2 
 2520000   0.83437614   -8.1986201    495.38855  0.016381896  0.015981916            2 
 2521000   0.85756127   -8.2099131    493.53277  0.016314054  0.015976275            2 
 2522000   0.85236789   -8.2064104    494.70388  0.016346282  0.015970598            7 
 2523000   0.84995294   -8.2234976    494.46437  0.016331892   0.01596495            3 
 2524000   0.84723514    -8.165649    495.84535  0.016371016  0.015959362            4 
 2525000   0.83913058   -8.2068035    496.16616  0.016375121   0.01595377            3 
 2526000   0.84499318   -8.2101042    494.27179  0.016306143  0.015948142            5 
 2527000   0.85359032   -8.2339992    494.02736  0.016291629  0.015942522            5 
 2528000   0.83659924   -8.2206046    493.84993  0.016279336  0.015936854            4 
 2529000   0.84310636    -8.203935    495.86499  0.016339297  0.015931214            3 
 2530000   0.84263768   -8.2152432    494.71308  0.016294897  0.015925594            3 
 2531000   0.85807215   -8.2059172    496.04459  0.016332299  0.015919955            3 
 2532000   0.83753735   -8.1907355     496.1714  0.016330022  0.015914341            2 
 2533000   0.85626304   -8.2122409    495.52823  0.016302416  0.015908725            4 
 2534000   0.84718989   -8.1993168     495.0005  0.016278627  0.015903123            6 
 2535000   0.83633041   -8.2109658     496.1358  0.016309527    0.0158975            4 
 2536000   0.85207538   -8.2232765    495.05902  0.016267712  0.015891907            3 
 2537000   0.84384675   -8.1862812    496.95564  0.016323599  0.015886307            5 
 2538000   0.85687449   -8.2145721    495.66287   0.01627472  0.015880727            2 
 2539000   0.83712217   -8.2019034    496.55015  0.016297432   0.01587518            8 
 2540000   0.85642076   -8.1910404    495.97097  0.016272013  0.015869667            5 
 2541000   0.85468661   -8.2405427    495.27024  0.016242629  0.015864103            4 
 2542000   0.85267244   -8.2219317    497.40972  0.016306377  0.015858568            3 
 2543000   0.84787805   -8.1913919    497.69519  0.016309319  0.015853018            3 
 2544000   0.84305928   -8.1915509    497.37481  0.016292414  0.015847481            8 
 2545000   0.84499796   -8.1979346    496.12223  0.016244998  0.015841914            3 
 2546000    0.8410648   -8.2087648    495.84161  0.016229432  0.015836356            8 
 2547000   0.85371419   -8.2063864    496.22647  0.016235652  0.015830806            6 
 2548000   0.83395981   -8.2504216    496.13567   0.01622631  0.015825237           23 
 2549000   0.82228163    -8.233489    495.85887  0.016210895  0.015819642           15 
 2550000   0.84385215    -8.226926    496.44501  0.016223693  0.015814094           11 
 2551000   0.84996927   -8.2290787     496.7471  0.016227202  0.015808566           10 
 2552000   0.83988908   -8.2297702    496.78071  0.016221941  0.015803014            3 
 2553000   0.84721776   -8.2228304      496.881   0.01621886  0.015797499            6 
 2554000    0.8233097   -8.2147308    497.10171  0.016219711  0.015791975            8 
 2555000   0.85167014   -8.2277819    498.12711  0.016246807  0.015786461            6 
 2556000   0.82890304   -8.1989473    498.90178  0.016265708  0.015780945            4 
 2557000    0.8582021   -8.2281948    497.17585  0.016203098  0.015775445            8 
 2558000   0.84304422    -8.208842    497.28898  0.016200449  0.015769963            6 
 2559000   0.86826163   -8.2274939    497.48453  0.016200486  0.015764419            8 
 2560000   0.83870436   -8.2138238    497.50065  0.016194683  0.015758892            2 
 2561000   0.84401547   -8.2325107    498.26401  0.016213198  0.015753346            2 
 2562000   0.83247286   -8.2561566    497.15958  0.016170947  0.015747801            2 
 2563000   0.85308297   -8.2072281    497.37119  0.016171517   0.01574226            3 
 2564000   0.84419402   -8.2413039    496.88469  0.016149398  0.015736709            3 
 2565000   0.84243053   -8.2167628    498.03142  0.016180358  0.015731156            2 
 2566000   0.84301994   -8.1883579    497.30565  0.016150482  0.015725674            5 
 2567000   0.84117586   -8.1758571    498.34897   0.01617806  0.015720172            4 
 2568000   0.83771922   -8.2254945    495.57477  0.016081736  0.015714651            7 
 2569000   0.83887397   -8.2029156     498.3641  0.016165956  0.015709164            4 
 2570000   0.84874719   -8.2120671    497.59915  0.016134862  0.015703662            6 
 2571000   0.85857216   -8.2207129    497.70586  0.016132045  0.015698135            5 
 2572000    0.8523889   -8.2172754    497.70277  0.016125673  0.015692597            5 
 2573000   0.84086791   -8.2601832    497.59906  0.016116047  0.015687098            4 
 2574000   0.84973122   -8.2443977    497.83319  0.016117366  0.015681582            5 
 2575000   0.83731404   -8.2175824    497.32509  0.016094663  0.015676057            4 
 2576000   0.83622655   -8.1767991    497.95204  0.016108697  0.015670573            4 
 2577000   0.85725807   -8.1895432    498.44168   0.01611828  0.015665079            5 
 2578000   0.85668005   -8.2085834    496.70839  0.016055999  0.015659588           10 
 2579000   0.85730995   -8.2069949    499.11128  0.016127416  0.015654134            8 
 2580000   0.85424901   -8.2167181     498.9561  0.016116153  0.015648642            5 
 2581000    0.8403476   -8.2353296    498.09104  0.016081979  0.015643146            5 
 2582000   0.80574652   -8.2149104    498.19756  0.016079188  0.015637694            2 
 2583000   0.84640165   -8.2256729    499.09105  0.016101789  0.015632227           10 
 2584000   0.82651692   -8.2574554    498.96154  0.016091381  0.015626749            3 
 2585000   0.83964285   -8.2279902    498.72237  0.016077446   0.01562128            4 
 2586000   0.85238854   -8.2475888    498.93222  0.016077991  0.015615775            3 
 2587000   0.84560621   -8.2106843    499.44215  0.016088202  0.015610311            3 
 2588000   0.84767843   -8.2148521    499.41637  0.016081156  0.015604881            7 
 2589000   0.83469818   -8.2211539    500.07148  0.016096031  0.015599432            8 
 2590000    0.8466663   -8.2180664    497.50347   0.01600719  0.015593968            3 
 2591000   0.84390521   -8.2387446    497.70228  0.016007407  0.015588501            8 
 2592000   0.83230107   -8.2371442     498.2689  0.016019448  0.015583036            3 
 2593000   0.84804262   -8.2321982    499.19315  0.016042973  0.015577572            8 
 2594000   0.83177701   -8.2733998    497.57722  0.015984876  0.015572097           18 
 2595000   0.83663188   -8.1990128    499.18881  0.016030469  0.015566637            5 
 2596000   0.84736755   -8.2179807    498.83659  0.016012988  0.015561175           14 
 2597000   0.84633054    -8.207329    498.96835   0.01601105   0.01555572            6 
 2598000    0.8331762   -8.2020947    499.65802  0.016027009  0.015550259           10 
 2599000   0.84980527    -8.238189    499.11676  0.016003487  0.015544804           24 
 2600000   0.82954316   -8.2479488    499.39631  0.016006292  0.015539355           14 
 2601000   0.84534414   -8.2827508    497.27585  0.015932201  0.015533886            4 
 2602000   0.85389689   -8.2598769    499.95179  0.016011779  0.015528395            3 
 2603000   0.82240653    -8.250123    498.46271  0.015957956  0.015522918            4 
 2604000   0.83610045   -8.2371787    498.16975  0.015942452  0.015517438            2 
 2605000   0.84247225   -8.2640129     498.8855  0.015959229  0.015511995           10 
 2606000   0.82510996   -8.2333103    497.96452  0.015923654  0.015506521            5 
 2607000   0.82202467   -8.2299558    497.88292  0.015914938  0.015501051            3 
 2608000    0.8108179   -8.2648289    499.12388  0.015948488  0.015495564            4 
 2609000   0.83656564    -8.243698    498.69414  0.015928649  0.015490083            6 
 2610000   0.82470543   -8.2356461    499.67471  0.015953854  0.015484618            4 
 2611000   0.81829799   -8.2306023    498.15457  0.015899227  0.015479118            1 
 2612000   0.83599812   -8.2302419    499.09056  0.015923002  0.015473585            4 
 2613000   0.82493223   -8.2668131    498.38747  0.015894485  0.015468081            5 
 2614000   0.84628304   -8.2266299     498.6999  0.015898365  0.015462582           11 
 2615000   0.82585065   -8.2526957    498.60542  0.015889274  0.015457079            6 
 2616000   0.83573657   -8.2531772     498.7773  0.015888676  0.015451562            3 
 2617000   0.81915927   -8.2313515    498.11364  0.015861471   0.01544606            3 
 2618000   0.84206907   -8.2235864     499.4272  0.015897224  0.015440567            3 
 2619000   0.84437079   -8.2016826    499.53621  0.015894623  0.015435076            4 
 2620000   0.83139329   -8.2134877    499.83075  0.015897925  0.015429592            5 
 2621000   0.83705803   -8.2224541    498.57178  0.015851831  0.015424092            3 
 2622000   0.83976072   -8.2227586    499.08165   0.01586199  0.015418591            4 
 2623000   0.83156997   -8.2280498    497.81035  0.015815553  0.015413093            3 
 2624000   0.81580628   -8.2544359    498.09644  0.015818611  0.015407598            7 
 2625000   0.80998956   -8.2441254    499.12488  0.015845234  0.015402078            8 
 2626000   0.82907833   -8.2342414    498.53787  0.015820572  0.015396583            3 
 2627000   0.83537725   -8.2151804    499.05051  0.015830812  0.015391091            5 
 2628000     0.830061   -8.2286032    498.55403  0.015809044  0.015385608            3 
 2629000   0.84022959   -8.2151965    498.92255  0.015814712  0.015380122            7 
 2630000   0.83015861   -8.2470841     499.1529  0.015815998  0.015374653            3 
 2631000    0.8238741   -8.2316723    499.26737  0.015813612  0.015369173            5 
 2632000   0.83018202   -8.2113524    499.89964  0.015827623  0.015363697            5 
 2633000   0.83049218   -8.2749392    498.23787  0.015769017  0.015358224            4 
 2634000   0.82773239    -8.249663    498.66103  0.015776418   0.01535274            9 
 2635000   0.82789828   -8.2406412    499.05384  0.015782854  0.015347242            5 
 2636000   0.83667743   -8.2458178    498.69286  0.015765454  0.015341738            3 
 2637000    0.8285032   -8.2623637    498.04061  0.015738864  0.015336225            4 
 2638000   0.82016664    -8.254172    498.16491  0.015736824  0.015330722            3 
 2639000   0.83557642     -8.24532    498.20865  0.015732242  0.015325239            4 
 2640000   0.83023562   -8.2666215    498.27542  0.015728391  0.015319753            5 
 2641000   0.83184733   -8.2539667    497.19723  0.015688414  0.015314242            2 
 2642000   0.83686686   -8.2340098     498.6837  0.015729362    0.0153087            9 
 2643000   0.82687814   -8.2759223    498.66257  0.015722745  0.015303175            3 
 2644000   0.83575624   -8.2657367    498.52018   0.01571231  0.015297656            4 
 2645000   0.82325785   -8.2729951    499.09564    0.0157245  0.015292153            6 
 2646000   0.83053406   -8.2657903    499.31452  0.015725451  0.015286675            4 
 2647000   0.83482594   -8.2093647    499.77172  0.015733904  0.015281211            2 
 2648000   0.83581076   -8.2487103    498.76664  0.015696332  0.015275745            4 
 2649000   0.81982786   -8.2782235     499.1899  0.015703722   0.01527027           13 
 2650000   0.83591887    -8.213842    499.77747  0.015716273  0.015264816            5 
 2651000   0.83817758   -8.2677602     500.2169  0.015724157  0.015259368            3 
 2652000    0.8053896   -8.2569711    498.70228  0.015670635  0.015253889            6 
 2653000    0.8170911   -8.2566534    500.34516  0.015716332   0.01524841           14 
 2654000   0.84891101   -8.2703861    498.93973  0.015666281  0.015242953            9 
 2655000   0.82662281   -8.3029354      498.325  0.015641086  0.015237477           10 
 2656000   0.83512642   -8.3094243    499.94133   0.01568591  0.015232009            5 
 2657000   0.81614694   -8.2665107    499.62454  0.015670071  0.015226535            3 
 2658000   0.82917145    -8.267839    500.37043  0.015687561  0.015221074            9 
 2659000   0.82271469   -8.2622941    499.41596  0.015651747  0.015215603            2 
 2660000   0.82131934   -8.2745407     499.3403  0.015643493  0.015210147           10 
 2661000   0.79705533   -8.2875748    498.37347  0.015607337  0.015204674            6 
 2662000   0.82395176   -8.2857414    498.94968  0.015619512  0.015199163            5 
 2663000   0.83453734   -8.2989853    498.45189  0.015598069   0.01519365            3 
 2664000   0.81028231   -8.2959116    498.31844  0.015588039  0.015188158            7 
 2665000   0.81666966   -8.2686081    499.96908  0.015633805  0.015182671            9 
 2666000   0.82451155   -8.2637122    500.02494  0.015629687  0.015177188            8 
 2667000   0.81442516   -8.2786366    498.46788  0.015575174  0.015171702           10 
 2668000   0.82092843   -8.3061574    498.50009  0.015570343  0.015166216            6 
 2669000   0.82711963   -8.2966669    498.67469   0.01556996  0.015160709            4 
 2670000   0.82311042   -8.2831329    499.92161  0.015603046  0.015155224            4 
 2671000   0.79919147   -8.2905405     499.2217  0.015575368  0.015149744            5 
 2672000   0.81522396   -8.2584084    498.93978  0.015560747  0.015144261            5 
 2673000   0.81162333   -8.2940086    499.22934  0.015563953  0.015138799            6 
 2674000   0.81617062   -8.3149427    498.43119  0.015533258  0.015133303            4 
 2675000   0.80949512   -8.2950376    498.83251  0.015539953  0.015127825            3 
 2676000   0.82366849    -8.270936    500.89183  0.015598276  0.015122367            4 
 2677000   0.83683934   -8.3149308    498.89856    0.0155304  0.015116932            4 
 2678000   0.84330151   -8.2902224    500.59729  0.015577461  0.015111478            4 
 2679000   0.83842497    -8.271624    501.29999  0.015593505  0.015106056            4 
 2680000   0.81376622   -8.2614875    500.55923  0.015564653  0.015100669            2 
 2681000   0.80985009   -8.2583463    501.51332  0.015588503  0.015095275            3 
 2682000   0.83109879   -8.2897143    499.76877  0.015528485  0.015089868            4 
 2683000   0.81057521   -8.2836894    500.10297  0.015533078  0.015084472            2 
 2684000   0.79644273    -8.266236    500.85765  0.015550722  0.015079076            2 
 2685000   0.81615796   -8.3017823    500.23202  0.015525513  0.015073667            2 
 2686000    0.8229073   -8.2822446    501.19508  0.015549612  0.015068262            4 
 2687000   0.81912497   -8.3181611    500.84258  0.015532892  0.015062856            5 
 2688000   0.81540397   -8.2976817    501.13318  0.015536123  0.015057471            9 
 2689000   0.82103793   -8.3189365    501.24921  0.015533941  0.015052061           20 
 2690000   0.81512184    -8.289842    500.03301   0.01549049  0.015046627           24 
 2691000   0.82762653   -8.2966267    500.16474  0.015488813  0.015041208            6 
 2692000   0.82835997   -8.3018927    500.43774   0.01549151  0.015035795           13 
 2693000   0.81778894    -8.263922    501.06409   0.01550514  0.015030424            7 
 2694000   0.83174733   -8.2751161    501.12365  0.015501227  0.015025062            7 
 2695000   0.83239724   -8.2948849    501.14562  0.015496154  0.015019674           13 
 2696000   0.83895215   -8.2921218      500.273  0.015463433  0.015014319           11 
 2697000   0.81911661   -8.2642437    501.13509  0.015484337  0.015008939            3 
 2698000   0.82924045   -8.2643682    501.16856  0.015479632  0.015003565            9 
 2699000    0.8230356   -8.2794054    502.39613  0.015511798   0.01499821            3 
 2700000    0.7997329   -8.3101661     500.3748  0.015443667  0.014992875            4 
 2701000   0.83186868   -8.2436108    502.74754  0.015511154  0.014987527           14 
 2702000   0.81057954   -8.2923392    499.98591  0.015420241  0.014982191           12 
 2703000   0.82631327   -8.2848563    501.97515  0.015475865  0.014976817           12 
 2704000   0.84824693    -8.305821    499.97688  0.015408558  0.014971435            8 
 2705000   0.79970929    -8.281144    500.89773   0.01543123   0.01496607            5 
 2706000   0.82866949   -8.2893479     501.2087  0.015435104  0.014960715            7 
 2707000   0.83312637   -8.2695708    502.02046  0.015454392   0.01495537            5 
 2708000   0.82022447   -8.3123122       500.01  0.015386817  0.014950006            6 
 2709000   0.83177692   -8.2796821     500.8949  0.015408358  0.014944671            2 
 2710000   0.81959378   -8.2809438    500.49001  0.015390222  0.014939336            5 
 2711000   0.81043971    -8.316582    500.20142  0.015375674  0.014933967            2 
 2712000   0.82072301   -8.2818432    501.78123  0.015418548  0.014928595            3 
 2713000   0.79855536   -8.3015521    500.53512  0.015374589  0.014923206            3 
 2714000   0.82969472   -8.2912871    501.00794  0.015383442  0.014917844            2 
 2715000   0.80755915   -8.3047453    502.05828  0.015410015  0.014912482            6 
 2716000   0.80632051   -8.3296051    501.88248  0.015398947  0.014907116            5 
 2717000   0.82223467   -8.3120297    500.72601  0.015357809  0.014901733           10 
 2718000   0.81527618   -8.3162616    499.81955  0.015324367  0.014896362            5 
 2719000    0.8085916   -8.2919099    500.90905  0.015352122  0.014890998            6 
 2720000   0.81540653   -8.2845571    501.80211  0.015373839  0.014885606            3 
 2721000   0.81254115   -8.2980354    502.44588  0.015387905  0.014880249            4 
 2722000   0.81201796   -8.3120462    501.24626  0.015345526  0.014874891            4 
 2723000   0.83461994   -8.3316714    501.02253  0.015333043  0.014869523            4 
 2724000   0.82675257   -8.2874694    501.18388  0.015332351   0.01486414           12 
 2725000   0.80449348   -8.3071862    501.37565  0.015332589   0.01485878            2 
 2726000   0.82183537   -8.3106254    501.25801  0.015323368   0.01485343            2 
 2727000   0.80454506   -8.3004271    501.65481  0.015329874  0.014848083            3 
 2728000   0.82182827    -8.331742    500.31985  0.015283475   0.01484272            4 
 2729000    0.8004327   -8.3144566    502.04186  0.015330459  0.014837364            3 
 2730000   0.81342993   -8.3022497    501.92703  0.015321338  0.014832033            4 
 2731000   0.81129851   -8.3207765    501.08177  0.015289936  0.014826688            4 
 2732000   0.81767844   -8.2957147    501.42452  0.015294794  0.014821339            4 
 2733000   0.83199591    -8.292931    502.02555  0.015307524  0.014816011            5 
 2734000   0.82000508    -8.284411    503.11183  0.015335035  0.014810704            7 
 2735000   0.80965542   -8.3026912    502.35471  0.015306359  0.014805393            3 
 2736000   0.81679555   -8.3178836    502.74883  0.015312769  0.014800072            4 
 2737000   0.82075392   -8.2908181    502.94946  0.015313283  0.014794762            9 
 2738000   0.80336401   -8.2877034    502.41851   0.01529153  0.014789469            3 
 2739000   0.80809594    -8.290449    501.95769  0.015271927  0.014784148            4 
 2740000   0.79657959    -8.278631    502.24066  0.015274959  0.014778848            4 
 2741000    0.8243287   -8.3194516    500.92907  0.015229511  0.014773524            8 
 2742000   0.82202096   -8.3229502    501.85095  0.015251974  0.014768194            6 
 2743000   0.82353134   -8.3095878    501.56734  0.015237797  0.014762835            4 
 2744000   0.80147904   -8.3254136    502.69453  0.015266476   0.01475747            9 
 2745000   0.81676071    -8.299193    501.58341  0.015227183  0.014752114           11 
 2746000   0.82326549   -8.3008458    501.45358  0.015217698   0.01474676            9 
 2747000   0.80411876   -8.2867467    502.16288  0.015233675  0.014741445            3 
 2748000   0.79842786   -8.2865186    502.39272  0.015235102  0.014736142           12 
 2749000   0.82573443   -8.3107207    501.07522  0.015189621   0.01473083            6 
 2750000   0.80218993   -8.3058773    501.92591  0.015209876    0.0147255           11 
 2751000   0.81511675   -8.3140638    502.19586  0.015212525  0.014720153           12 
 2752000   0.80398973   -8.3084041    501.13623   0.01517491   0.01471481            6 
 2753000   0.82032683   -8.3295102    500.21466  0.015141502  0.014709452            5 
 2754000   0.82284765   -8.2974513    501.68193  0.015180402  0.014704091            6 
 2755000   0.81996913   -8.3215439    500.91676  0.015151747  0.014698731           10 
 2756000   0.81057192    -8.311021    501.63581  0.015167991  0.014693383            7 
 2757000   0.81305406   -8.2891297    501.13156  0.015147248  0.014688011            7 
 2758000   0.80771658   -8.3358517     500.5224   0.01512335  0.014682643           13 
 2759000   0.81458013   -8.3061796     501.9739   0.01516171  0.014677296            5 
 2760000   0.79658822   -8.3118714    501.24873  0.015134322  0.014671973            2 
 2761000   0.80050595   -8.3238156    500.99309  0.015121124  0.014666638            4 
 2762000    0.7983952   -8.3442505    501.63507  0.015135019    0.0146613            4 
 2763000   0.80774664   -8.3484084    501.24474  0.015117769   0.01465595            4 
 2764000   0.81023041   -8.3434535    501.41078  0.015117305  0.014650617           16 
 2765000   0.83655859    -8.339832    500.99124  0.015099193  0.014645287            4 
 2766000   0.80252426   -8.3533713    501.39541  0.015105911   0.01463993           10 
 2767000   0.81019481   -8.3422366    502.48132  0.015133156   0.01463462            5 
 2768000   0.80275495   -8.3215173     502.2875  0.015121854  0.014629317            7 
 2769000    0.7965533   -8.3435235    502.24108  0.015114996  0.014623993            9 
 2770000   0.79533735   -8.3335271    501.75479  0.015094909  0.014618683            6 
 2771000   0.79689991   -8.3243619    501.46592  0.015080775  0.014613361            4 
 2772000   0.80385836   -8.3099803    502.52065  0.015107042  0.014608065            8 
 2773000   0.80523165   -8.3291806    502.13199  0.015089914  0.014602739            7 
 2774000   0.79594639    -8.316003    500.76263  0.015043338  0.014597402            4 
 2775000   0.80765907   -8.3130262    502.85829  0.015100849  0.014592062            6 
 2776000   0.82288611   -8.3313999    502.95436  0.015098294   0.01458672            4 
 2777000   0.80608037   -8.3183936    501.91213  0.015061581  0.014581381           13 
 2778000   0.81409825     -8.32784    501.73185  0.015050751  0.014576034           12 
 2779000   0.80872086   -8.2929141    502.01258  0.015053754  0.014570698           14 
 2780000   0.81507629   -8.2989251    501.79869  0.015041927  0.014565378            1 
 2781000    0.8103386   -8.3024965     501.7572  0.015035275   0.01456008            7 
 2782000   0.81429001   -8.3096179    502.18368  0.015042646  0.014554778            9 
 2783000   0.80543059   -8.2991963    502.70127  0.015052739  0.014549481            6 
 2784000   0.82033614   -8.3165499    501.93565  0.015024415  0.014544183            4 
 2785000   0.80369803   -8.3367085    501.83893  0.015016126  0.014538881            2 
 2786000   0.80183496   -8.3188136    503.59138  0.015063154  0.014533595            6 
 2787000   0.78761776    -8.309266    503.27833  0.015048389  0.014528321            2 
 2788000   0.81158377   -8.3188446    503.44373  0.015047936   0.01452303            5 
 2789000   0.82028265   -8.3236488    503.50519  0.015044376  0.014517764            9 
 2790000   0.81587766   -8.3109817    504.09977  0.015056743  0.014512524            9 
 2791000   0.79582513   -8.3040581    502.84941  0.015014016  0.014507273            3 
 2792000   0.80052945    -8.317561    502.46909  0.014997287  0.014502042            7 
 2793000   0.80082651   -8.3284322    503.28676  0.015016313  0.014496814            3 
 2794000   0.82459525   -8.3255621    501.72382  0.014964323  0.014491572            5 
 2795000   0.80803783   -8.3487859    502.74493  0.014989413  0.014486294            5 
 2796000   0.80891842    -8.328335    501.66084  0.014951742  0.014481001            4 
 2797000   0.79698571   -8.3030239    504.25647   0.01502373  0.014475731            4 
 2798000   0.81844976   -8.3422132    501.86408  0.014947107  0.014470448            6 
 2799000   0.78815965   -8.3167076     503.2844  0.014984054   0.01446518           12 
 2800000   0.81065721   -8.3263329    504.06359  0.015001893  0.014459944            4 
 2801000   0.78584684   -8.3113695    502.82039   0.01495955   0.01445472            8 
 2802000   0.80550048   -8.3265805    502.53882  0.014945837  0.014449461            9 
 2803000   0.80447315   -8.2983507    502.75552  0.014946947  0.014444213            3 
 2804000   0.79451846   -8.3256117    503.42279  0.014961448  0.014438964           12 
 2805000   0.81334054   -8.3453199    503.53176  0.014959351  0.014433713            7 
 2806000   0.80239738    -8.316157    503.16591  0.014943155  0.014428474           12 
 2807000   0.81945372   -8.3423521    503.36495   0.01494374  0.014423244            5 
 2808000   0.79242494   -8.3184726    503.92133   0.01495493  0.014418007            4 
 2809000    0.8032658   -8.3459451    503.15449  0.014926857  0.014412766            4 
 2810000   0.79861517   -8.3500566    503.60275  0.014934838  0.014407526            3 
 2811000   0.77758958   -8.3360116    503.48189  0.014925942  0.014402298            7 
 2812000   0.80807482   -8.3082299    503.13579  0.014910378  0.014397082            4 
 2813000   0.78848752   -8.3403981    503.84923  0.014926212  0.014391875            6 
 2814000   0.80698367   -8.3242627    502.03508  0.014867184  0.014386633            4 
 2815000   0.79627102   -8.3577708    503.41988  0.014902898  0.014381389            5 
 2816000   0.80354834   -8.3259266    502.83671  0.014880348  0.014376135            4 
 2817000   0.80581083   -8.3237506    503.57089  0.014896784  0.014370907            7 
 2818000   0.78408098    -8.373128     502.3674  0.014855909  0.014365676            4 
 2819000   0.82968517   -8.3326577    505.21231  0.014934738  0.014360453            6 
 2820000   0.80142251   -8.3385811    503.43195  0.014876831  0.014355222            6 
 2821000    0.7813088   -8.3397394    502.63677  0.014848067  0.014349984           13 
 2822000   0.81390464   -8.3745867     504.0034  0.014883162  0.014344744           10 
 2823000   0.78706156   -8.3416892    503.05106  0.014849778  0.014339524            6 
 2824000    0.7957897   -8.3602457    503.17916  0.014848299  0.014334294           14 
 2825000   0.80624132   -8.3425539    504.40262  0.014879133  0.014329062            3 
 2826000   0.82139645   -8.3808597     502.8607    0.0148284  0.014323828            3 
 2827000   0.80429807   -8.3732287    503.05709  0.014828944  0.014318624            5 
 2828000   0.79995337   -8.3824589    503.10235  0.014825034  0.014313393            5 
 2829000   0.81732874    -8.375989    502.42903   0.01479996  0.014308165            7 
 2830000   0.78102022   -8.3528618     503.6208  0.014829823  0.014302943            7 
 2831000   0.79154141    -8.376262    503.46936  0.014820127  0.014297714            8 
 2832000   0.78376152   -8.3439167    503.55099  0.014817296  0.014292469            6 
 2833000   0.78885194   -8.3488826    504.43663  0.014838117  0.014287211            6 
 2834000   0.80796045   -8.3601465     503.1678  0.014795572  0.014281994           16 
 2835000   0.79158978   -8.3353288    503.87789  0.014811225  0.014276777            9 
 2836000   0.77512105   -8.3727123    503.73681  0.014801858  0.014271525            7 
 2837000   0.80129375   -8.3273826    503.53589  0.014790738  0.014266299            4 
 2838000   0.79147086   -8.3671625    503.18092  0.014775103   0.01426107            3 
 2839000   0.79679444   -8.3987039    502.30616  0.014744222  0.014255846            3 
 2840000   0.80424002   -8.3809285    502.20544  0.014736075  0.014250596            3 
 2841000   0.79488142   -8.3790904     503.5296  0.014769729  0.014245373            4 
 2842000   0.81285753   -8.3756608    503.50258   0.01476374   0.01424014            4 
 2843000   0.79584646   -8.3873575    502.20195  0.014720423  0.014234929            2 
 2844000    0.7973727   -8.3665843    504.18275  0.014773287  0.014229731            6 
 2845000   0.78478245   -8.3531357    505.13638  0.014796028  0.014224546            7 
 2846000   0.80235825   -8.3486653    504.69914  0.014778026  0.014219374            3 
 2847000   0.80459431    -8.351243    504.10595  0.014755472    0.0142142            9 
 2848000     0.790087   -8.3570211    502.99183  0.014717692  0.014209026            6 
 2849000   0.78592957   -8.3889485    504.32846  0.014751622  0.014203851            7 
 2850000   0.79071183   -8.3464537     505.0542  0.014767667  0.014198687            4 
 2851000   0.79756827   -8.3694256    505.20744  0.014766966  0.014193524            5 
 2852000   0.78977215   -8.3941751    503.94526  0.014724908   0.01418832            9 
 2853000   0.79192259   -8.3747941    504.42283  0.014733697   0.01418313            3 
 2854000   0.79251681   -8.3882647    503.92805  0.014714087   0.01417792            7 
 2855000   0.79892216   -8.3737378    504.27532   0.01471907  0.014172741            5 
 2856000   0.79031327   -8.3750017    503.79009  0.014699758   0.01416754            8 
 2857000    0.8025354   -8.3761943    503.91222  0.014698175  0.014162329            4 
 2858000   0.79014377   -8.3834303    503.35433  0.014676765  0.014157119            3 
 2859000   0.78121859   -8.4020367    503.46189  0.014674767  0.014151907            3 
 2860000   0.77743794   -8.3726048    504.13758  0.014689324  0.014146699            8 
 2861000   0.81524132   -8.4017636    503.76723  0.014673402  0.014141484            8 
 2862000   0.78159097   -8.3885543    504.13586  0.014679008  0.014136261            4 
 2863000   0.79446467   -8.3877575    503.75251  0.014662723  0.014131065            6 
 2864000   0.78246899   -8.3875239    504.10143  0.014667756  0.014125862            6 
 2865000   0.79120382   -8.3939914     503.2435  0.014637682  0.014120643            8 
 2866000   0.80041834   -8.3886757    505.17292  0.014688675  0.014115437            8 
 2867000   0.80595578   -8.3720386     504.0879  0.014652014  0.014110251            6 
 2868000   0.78473454   -8.3721968    503.56056  0.014631583   0.01410507           16 
 2869000   0.79708031   -8.4098126    503.31013  0.014619209  0.014099902           14 
 2870000   0.79715593   -8.3757466    504.75738  0.014656138  0.014094715           12 
 2871000   0.78580432   -8.3777555    503.52375  0.014615225  0.014089547            8 
 2872000    0.7771332   -8.3831323    503.76832  0.014617233  0.014084371            9 
 2873000   0.79063424   -8.3621589    504.18669   0.01462428  0.014079218            6 
 2874000    0.8038207   -8.3925475    504.62484  0.014631896  0.014074037            7 
 2875000   0.79514662    -8.386609    504.19707  0.014614408  0.014068853            7 
 2876000   0.79175767   -8.3803222    503.33717   0.01458441  0.014063669           24 
 2877000   0.78284557   -8.4043344    504.29727  0.014607151  0.014058476            5 
 2878000   0.79191024    -8.405234    503.46093  0.014577859  0.014053294           10 
 2879000    0.7926174   -8.4121379    503.96123  0.014587277  0.014048111            5 
 2880000   0.76702117   -8.3995817    503.76231  0.014576456  0.014042946           12 
 2881000   0.78675438   -8.3711024    505.27381  0.014615116  0.014037785           15 
 2882000   0.80072049   -8.4081091    503.97261  0.014572421  0.014032609            3 
 2883000   0.80652394   -8.3839513     505.0941  0.014599783  0.014027443            5 
 2884000   0.80664493    -8.397398    503.65277  0.014553073   0.01402226            6 
 2885000   0.80400878   -8.4060659    503.97287  0.014557275   0.01401708            7 
 2886000   0.79459755   -8.3877789    504.24326  0.014560039  0.014011906           14 
 2887000   0.78761506   -8.4064453    502.83583   0.01451437  0.014006737           10 
 2888000   0.77541384   -8.3916509    503.27482  0.014522011   0.01400155            8 
 2889000   0.79606635   -8.4047039    502.95171  0.014507664  0.013996359            8 
 2890000   0.78815554   -8.4186601    502.59507  0.014492361  0.013991176            8 
 2891000   0.81193616   -8.4309201    503.18342  0.014504307  0.013985999            3 
 2892000   0.77512609   -8.3610052    503.92445  0.014520644   0.01398085            9 
 2893000   0.81272939   -8.3836176     504.0311  0.014518697  0.013975709            5 
 2894000   0.80427881   -8.3823242    505.29203  0.014549989  0.013970557           14 
 2895000   0.79208807   -8.3950901    504.82159  0.014531422  0.013965437            2 
 2896000   0.79190559   -8.3919329    504.46536  0.014516153  0.013960307            1 
 2897000   0.78677445   -8.4005502    504.75219  0.014519393  0.013955171            3 
 2898000   0.78997745   -8.4055366    504.10303  0.014495716  0.013950038            6 
 2899000   0.78519487   -8.3833203    504.45859  0.014500937  0.013944913           13 
 2900000   0.78095297   -8.3796104    504.70851  0.014503118  0.013939776            8 
 2901000   0.79360633   -8.3668687     504.4474  0.014490618   0.01393463            5 
 2902000   0.79671195   -8.3905983    504.71636  0.014493348    0.0139295            5 
 2903000   0.80203162   -8.3791678    504.43016   0.01448014  0.013924391            4 
 2904000   0.79552045   -8.4023874      504.472  0.014476354   0.01391928            3 
 2905000   0.77291894   -8.3641674    504.26726  0.014465498  0.013914157            2 
 2906000   0.79419978   -8.4007842    503.91532  0.014450428  0.013909022            4 
 2907000   0.78567227   -8.4053744    504.73818  0.014469045  0.013903886            5 
 2908000   0.77568525   -8.3741443    504.21268  0.014449011  0.013898762           12 
 2909000   0.78105511   -8.4018286    504.48743  0.014451914  0.013893624            3 
 2910000   0.77326343    -8.412484    504.26829  0.014440673  0.013888497           10 
 2911000   0.78954285   -8.4222696    504.14547  0.014432196  0.013883383            2 
 2912000   0.77172713   -8.4032479    504.37008  0.014433668  0.013878262            3 
 2913000   0.78672204   -8.4059039    504.84918  0.014442419  0.013873129            3 
 2914000   0.79854156   -8.3940233    504.70984  0.014433478  0.013868008            7 
 2915000   0.78805935   -8.3881395    503.93836  0.014406471  0.013862886            4 
 2916000   0.77144063   -8.3840438     503.3728  0.014385368  0.013857763            3 
 2917000   0.77794198   -8.4063446    504.31095  0.014407238  0.013852656           10 
 2918000   0.77080522   -8.3920674    504.57835  0.014409937  0.013847541            7 
 2919000   0.77855467   -8.4032662    503.77063  0.014381941  0.013842419           11 
 2920000   0.79334664   -8.4196604    504.77035  0.014405547  0.013837294            6 
 2921000    0.7704658   -8.4296255    503.12268  0.014353608   0.01383215           10 
 2922000   0.78930385   -8.4251315     503.1497  0.014349467  0.013827003           15 
 2923000   0.79822148   -8.4198547    503.28928  0.014348537  0.013821866            5 
 2924000   0.78196828   -8.3742608    504.16422  0.014368565  0.013816755            7 
 2925000   0.78247218   -8.3979096    503.09875  0.014333298  0.013811633            7 
 2926000   0.81846366   -8.4050719    504.55701  0.014369931  0.013806509            6 
 2927000   0.77292685   -8.4062853    504.70223  0.014369156   0.01380141            4 
 2928000   0.77586097   -8.3591767    504.62084  0.014361932  0.013796329            7 
 2929000   0.77548314   -8.3921418    503.81407  0.014334075  0.013791263            6 
 2930000   0.78995408   -8.3876922    504.67236  0.014353594  0.013786188            3 
 2931000    0.7845684   -8.4005266    505.24184  0.014364888  0.013781101            4 
 2932000   0.77322433   -8.3802486    504.43719  0.014337119  0.013776018            5 
 2933000   0.79298197    -8.365532    505.14775  0.014352419  0.013770962            6 
 2934000   0.76896652   -8.4090849    503.98076  0.014314382  0.013765881            6 
 2935000   0.77634966   -8.3918494    504.16089  0.014314619  0.013760798            4 
 2936000   0.78016877   -8.3992718    504.87413  0.014329988  0.013755743            4 
 2937000   0.77822107   -8.3964078    505.43198  0.014340937  0.013750697            4 
 2938000   0.78539566   -8.4100024    504.50433  0.014309744  0.013745645           10 
 2939000   0.77341162   -8.4046786    505.26339  0.014326398  0.013740593            6 
 2940000   0.77964667   -8.3856837    506.49532  0.014356443  0.013735559            6 
 2941000   0.78919331   -8.4001047    505.48995  0.014323075  0.013730517            7 
 2942000   0.79175097   -8.3608867    505.05015  0.014305749  0.013725473           10 
 2943000   0.78427316    -8.394971    506.14032  0.014331757   0.01372045            6 
 2944000   0.77770252   -8.4046667    504.36194   0.01427655  0.013715408            4 
 2945000   0.80392113   -8.3740687    506.41919  0.014329915  0.013710379            5 
 2946000   0.76713524   -8.3912016    505.71058  0.014305006  0.013705357            3 
 2947000    0.7817677   -8.3942203    504.88625  0.014276842  0.013700316           12 
 2948000   0.78138054   -8.3798084     506.7793  0.014325512  0.013695293            3 
 2949000   0.78266216   -8.3778344    507.01633  0.014327352  0.013690278            2 
 2950000   0.77170811    -8.414316    505.28457  0.014273575  0.013685259            5 
 2951000   0.77108449   -8.3830482    505.91349  0.014286499  0.013680264            6 
 2952000   0.76568994   -8.3853117    505.73695  0.014276675  0.013675257            3 
 2953000   0.79210638   -8.4017848    505.82891  0.014274436  0.013670231            3 
 2954000   0.77776332   -8.3822563    506.36605  0.014284757  0.013665224           12 
 2955000   0.77066362   -8.4167238    506.21008  0.014275524  0.013660211            8 
 2956000   0.78412242   -8.4189939    505.55661  0.014252272  0.013655198            2 
 2957000   0.77519505   -8.3993067    506.14029  0.014263902  0.013650183            5 
 2958000   0.77589457   -8.3532662    505.17258  0.014231817  0.013645182            3 
 2959000   0.77853865   -8.3926336    505.14191  0.014226144  0.013640184            7 
 2960000   0.78186842    -8.387542      506.832  0.014268919  0.013635201           10 
 2961000   0.78002748   -8.4093423    505.11673  0.014215826   0.01363018            5 
 2962000    0.7730855   -8.4142915    504.88066  0.014204385  0.013625167            4 
 2963000   0.78923999   -8.3699614    507.54068  0.014274403  0.013620167            4 
 2964000   0.78006113   -8.3744119    505.23035  0.014204632  0.013615153            4 
 2965000   0.77232724   -8.3901302    505.78884  0.014215538  0.013610155            4 
 2966000   0.76425937   -8.4402172    506.05109  0.014218113  0.013605152            6 
 2967000   0.77845728   -8.4339103    504.75006   0.01417678  0.013600121            6 
 2968000   0.78607688    -8.404699    506.02744  0.014207868  0.013595104            5 
 2969000   0.77734457   -8.3955012    506.25955  0.014209598  0.013590088            4 
 2970000   0.78788752   -8.4418272    505.18875  0.014174768  0.013585048            6 
 2971000   0.76133155   -8.4329473    505.03387  0.014165653  0.013580009            7 
 2972000   0.78373906   -8.4353703    504.13925  0.014135802  0.013574959           13 
 2973000   0.77496505   -8.4212777    505.80726  0.014177802   0.01356991           20 
 2974000   0.79683742   -8.4396962    504.94845   0.01414897  0.013564881           19 
 2975000   0.77593625   -8.4396977    505.15535   0.01415001  0.013559845           10 
 2976000     0.767495   -8.4462738    505.26587   0.01414835  0.013554813            9 
 2977000   0.78659891   -8.4263785    505.47736  0.014149517  0.013549774           21 
 2978000   0.75622634    -8.418437     505.0659  0.014133252   0.01354475            7 
 2979000   0.77187661   -8.3960931    505.18317  0.014131788  0.013539737           12 
 2980000   0.77368317   -8.4282184    505.94167  0.014148257  0.013534725           12 
 2981000   0.77133312   -8.4366028    506.01835  0.014145654  0.013529706           17 
 2982000   0.77130389   -8.4461112      504.543  0.014099681  0.013524687            9 
 2983000    0.7543407   -8.4274021    504.89975  0.014104921   0.01351966           13 
 2984000   0.78186664   -8.4552606    506.04858  0.014132277  0.013514645           14 
 2985000   0.76916717   -8.4462446    504.71131   0.01409021  0.013509643           12 
 2986000   0.78408184   -8.4415142    505.38323  0.014104243  0.013504626           14 
 2987000   0.78378309   -8.4528145    505.10801  0.014091843  0.013499616           12 
 2988000   0.77907696   -8.4429332     505.8508  0.014107843  0.013494627            8 
 2989000   0.76680974   -8.4026063    506.54626  0.014122512  0.013489621            7 
 2990000   0.77952586   -8.4308014    505.93836  0.014100846  0.013484631           13 
 2991000   0.77055884   -8.4157706    505.14128  0.014073924  0.013479648            7 
 2992000   0.77619629   -8.4248784    505.20697   0.01407105  0.013474666            5 
 2993000   0.76383424   -8.4126365    506.31153  0.014097102  0.013469684            8 
 2994000    0.7815862   -8.4134298    505.07917  0.014058093  0.013464713           19 
 2995000   0.76572813   -8.4282355    505.89769  0.014076174  0.013459732           14 
 2996000   0.77074047   -8.4450961    506.13888  0.014078184  0.013454769            8 
 2997000   0.77934693   -8.4137977    506.09078  0.014072149  0.013449797           10 
 2998000   0.77524603   -8.4536202    504.62394  0.014026683   0.01344483            9 
 2999000   0.76859238   -8.4257675    506.49565  0.014074015  0.013439858           20 
 3000000   0.77824995   -8.4388369    506.03798   0.01405661  0.013434894           37 
 3001000   0.78622039   -8.4252346    507.19031  0.014083925  0.013429952           10 
 3002000   0.77046683   -8.4059082     506.0801  0.014048415   0.01342501           24 
 3003000   0.76149953   -8.4623845     506.1636  0.014046054  0.013420067           33 
 3004000    0.7716566   -8.4160503     507.2272  0.014070883  0.013415156           23 
 3005000   0.76906467     -8.40315    508.17854  0.014092583  0.013410219           20 
 3006000   0.77485783   -8.4200445    507.62258  0.014072482  0.013405299            9 
 3007000    0.7716788   -8.4283895    506.48541  0.014036288  0.013400372           18 
 3008000   0.78798631   -8.4146786    506.92759  0.014043872  0.013395449           17 
 3009000   0.76212413   -8.4319863    506.08743  0.014015936  0.013390526           11 
 3010000   0.76808825   -8.4434866     506.9577  0.014035374  0.013385604            7 
 3011000   0.75645196   -8.4102959    507.21598  0.014037861  0.013380697           10 
 3012000   0.76313743   -8.4480909    506.85166   0.01402312  0.013375789            5 
 3013000   0.77038363   -8.4474768    507.42961  0.014034451  0.013370889            7 
 3014000   0.76960911   -8.4324807    507.02055  0.014018485  0.013365982            9 
 3015000   0.74452012   -8.4184189    507.73821  0.014033671  0.013361098            8 
 3016000   0.77138705   -8.4125005    506.95699  0.014007432  0.013356228            4 
 3017000   0.76819195   -8.4375692     506.5493  0.013991528  0.013351339            3 
 3018000    0.7525491   -8.3970107    508.07099   0.01402891  0.013346464            4 
 3019000   0.77010688   -8.4400671    507.66379  0.014013023  0.013341584            5 
 3020000   0.74140117    -8.449811    506.51932  0.013976802  0.013336702            6 
 3021000   0.79115869   -8.4719825    505.90202  0.013955148  0.013331813            6 
 3022000   0.75882189   -8.4502207    507.01421  0.013981199  0.013326917            6 
 3023000   0.76225296   -8.4235427    506.71576  0.013968347  0.013322021            6 
 3024000   0.77773801   -8.4379842    506.70611  0.013963462   0.01331714            5 
 3025000   0.77076242   -8.4169948    507.28863  0.013974893  0.013312271            5 
 3026000   0.77418668   -8.4320128    508.55042  0.014005024  0.013307406            5 
 3027000   0.75507934   -8.4570503    506.94671  0.013956247  0.013302526            9 
 3028000   0.77828111   -8.4571389    506.81106  0.013947905  0.013297655            6 
 3029000   0.76838054   -8.4244226    506.79687  0.013942909  0.013292776            4 
 3030000   0.76328013   -8.4262914     507.7247  0.013963826  0.013287901           12 
 3031000   0.77075914   -8.4622688    506.69013  0.013930774  0.013283038           12 
 3032000    0.7649428   -8.4668153    506.21379  0.013913088  0.013278158            5 
 3033000   0.77271488   -8.4631854    507.09049  0.013932588  0.013273269           10 
 3034000   0.76031701   -8.4579773    507.03842  0.013926566  0.013268394            8 
 3035000   0.76361731   -8.4524533    507.65533  0.013938916  0.013263538            7 
 3036000   0.76687983   -8.4407975    507.27645  0.013923925  0.013258671            4 
 3037000    0.7588725   -8.4238569    507.46083    0.0139244   0.01325382            5 
 3038000   0.76176055   -8.4545604    506.32053  0.013888538  0.013248944            7 
 3039000   0.76993955   -8.4355129     506.5788   0.01389105  0.013244069            5 
 3040000   0.74397858   -8.4676058    506.66227  0.013888768  0.013239207            8 
 3041000   0.75547114   -8.4392205    507.13865  0.013897255   0.01323433            4 
 3042000   0.78944607   -8.4560755    506.36819  0.013871581  0.013229468            6 
 3043000   0.76900672   -8.4592248    505.75802  0.013850313  0.013224606           10 
 3044000   0.76855794    -8.455289    506.47405  0.013865365  0.013219743            4 
 3045000   0.77022227    -8.441029    506.96955  0.013874372  0.013214869            8 
 3046000   0.75989768   -8.4420751    509.05531   0.01392688  0.013210016            5 
 3047000   0.75225925   -8.4286525    507.61897  0.013883026  0.013205171            5 
 3048000   0.75807237   -8.4562596    507.72171   0.01388128  0.013200325            5 
 3049000   0.77582569   -8.4777592    508.39539   0.01389514  0.013195458            6 
 3050000     0.774321   -8.4590119    506.62723  0.013842274  0.013190603            5 
 3051000   0.78302022   -8.4632035     506.4783  0.013833669  0.013185732           12 
 3052000   0.77951465   -8.4633884    508.98897  0.013897689  0.013180875           11 
 3053000   0.76131806   -8.4496229    506.63703   0.01382894  0.013176023            7 
 3054000   0.76562214   -8.4535688    506.95711  0.013833145  0.013171167            3 
 3055000    0.7638861   -8.4812054    506.32742  0.013811441  0.013166314            9 
 3056000   0.77545816    -8.452319    507.01667  0.013825716  0.013161462            3 
 3057000   0.75846288   -8.4721399     506.9961  0.013820633  0.013156611            4 
 3058000   0.76266281   -8.4765044    505.67239  0.013780041  0.013151772            2 
 3059000   0.75176115   -8.4698631    507.54494  0.013826548  0.013146935            3 
 3060000   0.77065656   -8.4381219    507.68641  0.013825883  0.013142116            4 
 3061000   0.75199149   -8.4321826    508.40106  0.013840822  0.013137296           11 
 3062000   0.75576686   -8.4410703    507.14005  0.013801983  0.013132463            3 
 3063000   0.76912779   -8.4144919    507.55578  0.013808787  0.013127646            7 
 3064000   0.75406961   -8.4437415     506.8204   0.01378428  0.013122828            6 
 3065000   0.77456879   -8.4599654    506.20506  0.013763052     0.013118            3 
 3066000   0.77276962   -8.4555612    506.44525  0.013765092  0.013113161            2 
 3067000   0.75962863   -8.4670868    506.75457  0.013769008  0.013108335            3 
 3068000   0.76563572   -8.4640264    506.10882   0.01374698  0.013103476            5 
 3069000   0.75411155   -8.4786205     505.9002  0.013736836   0.01309865            5 
 3070000   0.74998377   -8.4850403    507.65088  0.013779883  0.013093819            4 
 3071000    0.7490684   -8.4457664    507.40004  0.013768589  0.013088977            5 
 3072000   0.76182336   -8.4790286    506.18698  0.013731201  0.013084163            4 
 3073000    0.7625812     -8.46077    504.90028   0.01369184  0.013079334            7 
 3074000   0.74443234   -8.4734723    507.18204  0.013749242  0.013074516            4 
 3075000   0.74469754   -8.4745776    508.14517  0.013770872  0.013069714           11 
 3076000   0.75886211   -8.4778996    507.89779  0.013759693   0.01306489           21 
 3077000   0.75880896    -8.471407    507.63593  0.013748129  0.013060081           13 
 3078000   0.75885041   -8.4764765    506.22078  0.013705349  0.013055261           10 
 3079000   0.76089178   -8.4670298    507.26492  0.013729158   0.01305044           12 
 3080000   0.76287027   -8.4780858     506.5815  0.013706209  0.013045627           12 
 3081000   0.75608466   -8.4811958    506.52392  0.013700203  0.013040825            7 
 3082000    0.7574082   -8.4693478    506.95141  0.013707317  0.013036026           13 
 3083000   0.75241061   -8.4906347    506.26478  0.013684311  0.013031216           14 
 3084000   0.77870894   -8.4753693     507.0589  0.013701332  0.013026399            7 
 3085000   0.74960041   -8.4768656    507.60091  0.013711532  0.013021589            9 
 3086000   0.76329638   -8.4818046    506.51008  0.013677632  0.013016776            4 
 3087000   0.75759952   -8.4682441    506.29342  0.013667353  0.013011961            6 
 3088000   0.76284808   -8.4788698    506.38971  0.013665525  0.013007135           10 
 3089000   0.74753738   -8.4946738    505.73272  0.013643378  0.013002312           11 
 3090000   0.76252303   -8.5035424    506.89257  0.013670242  0.012997497            7 
 3091000    0.7642842   -8.4831239    505.93133  0.013639904  0.012992687            5 
 3092000   0.77589686   -8.4606928    507.72192  0.013683752  0.012987867            5 
 3093000   0.76939807   -8.4612507      507.626  0.013676743  0.012983059            4 
 3094000   0.77114958   -8.5070264    506.32396  0.013637254  0.012978253            5 
 3095000   0.76375306   -8.4676597    507.82326  0.013673216  0.012973459           10 
 3096000   0.76096716   -8.4822804    506.25764  0.013626659  0.012968675            7 
 3097000   0.75064006   -8.4939283    507.18002  0.013647078  0.012963877            6 
 3098000   0.74399705   -8.4809464    506.93915  0.013636194  0.012959065           10 
 3099000   0.75488425   -8.4652632     506.7733  0.013627334   0.01295425            4 
 3100000   0.76925757   -8.4697975    506.47947   0.01361504  0.012949438            9 
 3101000   0.75150373   -8.4636808    505.74048   0.01359079   0.01294464           10 
 3102000   0.76341341   -8.4724957    506.13884   0.01359711  0.012939844            8 
 3103000   0.76564296   -8.4745797    507.11422  0.013618923  0.012935064            6 
 3104000   0.76561668   -8.4642733      507.523   0.01362551  0.012930277            5 
 3105000   0.75180934   -8.4822412    507.58851   0.01362288  0.012925487            3 
 3106000   0.76177894    -8.494765    507.39632  0.013613338  0.012920703           10 
 3107000   0.75706335   -8.4898316    505.99865  0.013571469  0.012915908            7 
 3108000   0.77432447   -8.4544464    507.41545   0.01360509  0.012911131           10 
 3109000   0.77151958   -8.4603111     509.0286  0.013643953  0.012906375           10 
 3110000   0.75196451   -8.4579633    507.51441  0.013598993  0.012901615            9 
 3111000    0.7612964   -8.4588339     506.7998  0.013575479  0.012896849           10 
 3112000   0.76441103   -8.4453462    508.54602  0.013617878  0.012892081           18 
 3113000   0.74748801   -8.4567722    507.40858  0.013583054  0.012887319            7 
 3114000   0.75618347   -8.4827707    507.03739  0.013568759  0.012882547            7 
 3115000   0.76296365   -8.4619368    507.89312  0.013587296  0.012877777            7 
 3116000   0.77642708   -8.5073573    506.91595  0.013556802  0.012873015            9 
 3117000   0.77858707   -8.4788613    506.74656  0.013547924  0.012868263            7 
 3118000    0.7646011   -8.4670544    507.57659  0.013565763  0.012863504           12 
 3119000   0.75170427   -8.4821892    506.74121  0.013539094  0.012858748            9 
 3120000   0.74320023   -8.4722459    507.38747  0.013552016  0.012853997            8 
 3121000   0.75062733   -8.4827619    507.81891  0.013559193  0.012849236            9 
 3122000   0.74985261   -8.4769866    508.00551  0.013559831  0.012844495           10 
 3123000   0.76654274   -8.4820338    507.58922  0.013544381  0.012839738            9 
 3124000   0.74893136   -8.4826374    507.69718  0.013542925  0.012834991           11 
 3125000   0.75114947    -8.483064    506.96538  0.013519077  0.012830259            9 
 3126000    0.7446503   -8.4835957    508.32211   0.01355092  0.012825512            8 
 3127000   0.76476871    -8.461839    507.10568  0.013514169  0.012820773           10 
 3128000    0.7519294   -8.4602881    507.07942  0.013509149  0.012816044           15 
 3129000   0.74837533   -8.4452377    507.98767  0.013529021  0.012811327            5 
 3130000   0.75702141   -8.4522932    507.82059   0.01352025  0.012806631            5 
 3131000   0.74448432   -8.4594843    508.66465  0.013538397  0.012801932            4 
 3132000   0.73930231   -8.4758378    507.17995  0.013494571  0.012797226           12 
 3133000   0.76081239   -8.4717398    508.42911   0.01352349  0.012792507           13 
 3134000   0.74853481   -8.4680694    507.15834  0.013485385  0.012787794            6 
 3135000   0.75267745   -8.4702024    507.64554  0.013494033  0.012783079           10 
 3136000   0.76141553   -8.4488893     509.3372  0.013534683  0.012778369           18 
 3137000   0.75191894   -8.4945924    506.96882  0.013467454  0.012773659            8 
 3138000    0.7578292   -8.4793502    507.46598  0.013476364  0.012768946           16 
 3139000   0.74275346   -8.4629731    508.60939  0.013502426  0.012764222           20 
 3140000    0.7422098   -8.4756241    507.99232   0.01348175  0.012759508           11 
 3141000   0.75093647   -8.4577893    507.72906  0.013470473  0.012754793           10 
 3142000   0.75854916   -8.4874117    506.12123  0.013423542  0.012750071           16 
 3143000   0.74772634   -8.4808967    507.50173  0.013455874  0.012745341           16 
 3144000    0.7523913   -8.5098399    507.37171  0.013448148  0.012740609            7 
 3145000   0.74323762   -8.4996735    507.38082  0.013444113  0.012735896           14 
 3146000   0.74610292   -8.5126647    507.03288  0.013430623  0.012731188           16 
 3147000   0.73715657   -8.4774124    508.18275  0.013456804   0.01272648           18 
 3148000   0.74105051   -8.4862444    508.66021  0.013465169  0.012721766            9 
 3149000   0.74655884   -8.4751199    506.94153   0.01341541  0.012717069            6 
 3150000   0.73506394   -8.4970117    507.65892   0.01343013  0.012712364            7 
 3151000   0.74811043   -8.4720841     507.4915   0.01342144  0.012707653           24 
 3152000   0.74587048   -8.4968903    507.23582  0.013410423  0.012702946            7 
 3153000   0.74682782   -8.4922604    507.51515  0.013413552  0.012698241           16 
 3154000   0.75942163   -8.4972791    507.50525  0.013409038  0.012693542           17 
 3155000   0.75249381   -8.4691099    508.26506  0.013424856  0.012688858           12 
 3156000   0.74498582   -8.4976582    507.44136  0.013398853  0.012684178           23 
 3157000   0.73594781   -8.4912985    507.94439  0.013407887  0.012679486           11 
 3158000   0.75308237   -8.4628635    507.76966   0.01339903  0.012674807            9 
 3159000    0.7417349   -8.4933296    508.50879  0.013414287  0.012670138            8 
 3160000   0.75798667   -8.5119309    508.42748  0.013407898  0.012665467           16 
 3161000   0.75333649   -8.5172673    506.99662  0.013365934  0.012660787           18 
 3162000     0.748172   -8.4892906    508.61464  0.013404349  0.012656105           17 
 3163000   0.74214152   -8.5103629    508.63093  0.013400541  0.012651428           13 
 3164000   0.74981801   -8.4983583    507.53524  0.013367447  0.012646753           16 
 3165000   0.72514522   -8.4906291    508.31966  0.013383877  0.012642076           17 
 3166000   0.73709541   -8.4823138    508.25682  0.013377996  0.012637378           37 
 3167000   0.75278825   -8.5159034    508.67948  0.013384893  0.012632689           18 
 3168000   0.74468508   -8.5071909    507.06579   0.01333822  0.012628014           16 
 3169000   0.74931354   -8.5454931    507.18165  0.013337058  0.012623321           24 
 3170000   0.76051442   -8.5338013    507.48347  0.013340785  0.012618644           13 
 3171000   0.73907425   -8.5153291    508.64753  0.013367169  0.012613967           22 
 3172000   0.74403613   -8.4967456    507.70186  0.013338111    0.0126093           37 
 3173000   0.73539288   -8.5304247    507.54517  0.013329792  0.012604624           40 
 3174000    0.7538713   -8.5412472     508.4278  0.013348766  0.012599949           52 
 3175000   0.74965547   -8.4918224    507.30283  0.013315035  0.012595274           20 
 3176000   0.74743892     -8.51499    507.28385  0.013310344  0.012590614           15 
 3177000   0.74731776   -8.5050458    506.41935  0.013283479  0.012585933           29 
 3178000   0.72958085   -8.4982712    507.12026  0.013297678  0.012581271           25 
 3179000   0.74748991   -8.4783183    508.02662  0.013317254  0.012576591           26 
 3180000   0.74295166    -8.513813    507.13389  0.013289672   0.01257191           25 
 3181000   0.74510005   -8.5374586    507.99273  0.013307994  0.012567225           25 
 3182000   0.75654888   -8.5440603    507.64309  0.013294655  0.012562552           23 
 3183000   0.74605967   -8.5290857    506.92644  0.013271715  0.012557862           35 
 3184000   0.74975996   -8.5305466    506.58945  0.013258727  0.012553178           33 
 3185000   0.75188018   -8.5174982    507.14794  0.013269177  0.012548484           29 
 3186000   0.74574109   -8.5173548    507.22275  0.013266969  0.012543797           23 
 3187000   0.73635917   -8.5407962    506.93615  0.013255312  0.012539102           24 
 3188000   0.73303251   -8.5385462    507.40588  0.013263433  0.012534419           26 
 3189000    0.7389389   -8.5282775    507.66431  0.013266027  0.012529741           36 
 3190000   0.74153383   -8.5441333    507.21399  0.013250104  0.012525061           22 
 3191000   0.73118487   -8.5152189    507.41762   0.01325127  0.012520387           35 
 3192000   0.75015285     -8.53749     507.7678   0.01325626  0.012515716           31 
 3193000   0.74562839   -8.5422151    506.55442  0.013220441  0.012511055           29 
 3194000   0.74944642   -8.5362202    507.26265   0.01323478  0.012506379           21 
 3195000   0.73623662   -8.5574306    506.72018  0.013216489   0.01250171           52 
 3196000   0.73166379   -8.5612181     507.2696  0.013226679  0.012497038           41 
 3197000   0.74682735   -8.5659429    507.82399  0.013236993   0.01249237           28 
 3198000   0.73224677   -8.5116473    507.10709  0.013214173  0.012487709           42 
 3199000   0.74863044   -8.5475629    507.25667  0.013213938  0.012483058           19 
 3200000   0.74782866   -8.5181374    507.27248  0.013210221  0.012478417           24 
 3201000   0.74307126   -8.5275843    507.63618  0.013215562  0.012473779           33 
 3202000   0.73135125   -8.5349002     508.4925  0.013233721  0.012469144           35 
 3203000   0.72696717   -8.5329645    507.38787   0.01320085  0.012464508           21 
 3204000   0.73889675   -8.5410473    506.82749  0.013182155  0.012459882           32 
 3205000   0.72190505   -8.5152321    507.46157  0.013194529  0.012455248           23 
 3206000   0.75651753   -8.5450411    507.84469  0.013200371  0.012450608           17 
 3207000   0.71899475   -8.5466159    507.73286  0.013193349  0.012445961           16 
 3208000   0.75632504   -8.5510919    507.35039  0.013179301   0.01244131           21 
 3209000   0.74916698   -8.5592555    506.13284  0.013143576  0.012436661           37 
 3210000   0.73114803   -8.5596977     507.4668  0.013174112   0.01243201           26 
 3211000   0.73324048   -8.5451781     507.0381  0.013158883  0.012427366           30 
 3212000   0.73443136   -8.5562767    506.28381  0.013135217  0.012422713           29 
 3213000    0.7442453   -8.5554798    507.33302  0.013158342  0.012418066           25 
 3214000   0.73684263   -8.5448778    508.06996  0.013173355  0.012413431           20 
 3215000   0.73467147   -8.5506729    507.34476   0.01315046  0.012408789           20 
 3216000   0.73754984   -8.5244193    507.78221  0.013157706  0.012404153           48 
 3217000    0.7502555   -8.5487712    507.79978  0.013154072  0.012399522           42 
 3218000   0.72128543   -8.5593339    507.77344  0.013149302  0.012394898           46 
 3219000   0.73040127    -8.546673    508.07418  0.013153003  0.012390271           43 
 3220000   0.74166314    -8.553766    507.40524  0.013131606  0.012385669           33 
 3221000   0.73089247   -8.5278422    508.55129  0.013157179  0.012381063           22 
 3222000   0.72211008    -8.552898    507.85878  0.013135185  0.012376458           35 
 3223000   0.75901139   -8.5516572    507.32308  0.013117258  0.012371853           37 
 3224000   0.71470609   -8.5377416    507.13453  0.013108316  0.012367248           34 
 3225000   0.73606692   -8.5494826     507.7431  0.013119977  0.012362639           19 
 3226000   0.73445899   -8.5319424    508.80638  0.013143376  0.012358053           33 
 3227000   0.73714601   -8.5430055    508.36459  0.013127895  0.012353483           31 
 3228000   0.73761085   -8.5447833    508.61613  0.013130321  0.012348898           14 
 3229000   0.74873339   -8.5440501      508.902  0.013133633  0.012344329            9 
 3230000   0.73112291   -8.5345407    508.59525  0.013121652  0.012339756           16 
 3231000   0.72590597   -8.5625764    507.68181  0.013094032  0.012335181           16 
 3232000    0.7407777   -8.5518934    507.16432  0.013076638  0.012330599           23 
 3233000   0.74001778    -8.534099    507.32261  0.013076673  0.012326021            8 
 3234000   0.72609011   -8.5350552    508.18852  0.013094942  0.012321452           12 
 3235000   0.73651204   -8.5513874    507.45763  0.013072067   0.01231688           14 
 3236000   0.74075836   -8.5583444    508.51705  0.013095309  0.012312299           22 
 3237000   0.73517387   -8.5685559    506.84658  0.013048259  0.012307709           19 
 3238000   0.72324718   -8.5520095    508.08454   0.01307609  0.012303129           19 
 3239000   0.73425726   -8.5409732    508.56121  0.013084316  0.012298547           26 
 3240000   0.74442874   -8.5293932      508.549  0.013079964  0.012293979           26 
 3241000   0.71992076   -8.5687105    510.00783  0.013113438  0.012289416           30 
 3242000   0.73997488   -8.5353744    508.31541  0.013065891  0.012284861           19 
 3243000   0.72976839   -8.5435885     507.5552  0.013042327  0.012280301           21 
 3244000    0.7332403   -8.5270564    507.97743  0.013049153  0.012275751           25 
 3245000    0.7297301   -8.5308302    508.18571  0.013050481  0.012271198           22 
 3246000   0.73669197   -8.5241406    508.85998   0.01306377  0.012266663           21 
 3247000   0.73022529   -8.5346433    508.84796  0.013059438  0.012262118           21 
 3248000   0.72516768   -8.5696479    507.64775  0.013024624  0.012257559           16 
 3249000   0.72953911   -8.5238875    508.72047  0.013048129  0.012253004           21 
 3250000    0.7219612   -8.5671475    507.79194  0.013020306   0.01224845           21 
 3251000   0.71669516   -8.5186834    508.38221  0.013031431    0.0122439           22 
 3252000    0.7201507   -8.5755442    507.30981  0.012999944  0.012239344           25 
 3253000   0.72439259   -8.5644056    507.43035  0.012999036  0.012234795           20 
 3254000   0.74181562   -8.5654278    507.72975  0.013002708  0.012230242           37 
 3255000   0.72629958   -8.5626093    508.24627  0.013011937  0.012225693           19 
 3256000   0.73826494   -8.5443475    508.55904  0.013015946  0.012221138           13 
 3257000   0.73614714   -8.5438667    508.43733  0.013008836  0.012216593           29 
 3258000   0.73924541   -8.5389991    508.56568  0.013008126  0.012212049           24 
 3259000   0.71686367   -8.5449676    508.18014  0.012994276  0.012207505           15 
 3260000   0.72209133   -8.5286269    509.32599  0.013019581  0.012202966           31 
 3261000   0.72682546   -8.5661389    507.12504  0.012959344  0.012198426           37 
 3262000   0.73300432   -8.5732804    507.76821  0.012971802  0.012193901           25 
 3263000   0.71803844   -8.5501564    507.01856  0.012948681  0.012189379           18 
 3264000   0.74177653   -8.5424413    507.76224  0.012963701  0.012184852           32 
 3265000     0.723413   -8.5574847    506.69048  0.012932376  0.012180319           33 
 3266000   0.71673412   -8.5630693     508.1809  0.012966445  0.012175794           34 
 3267000   0.72265183   -8.5506264    508.02387   0.01295847   0.01217126           40 
 3268000   0.71712628   -8.5736972    506.82891  0.012924034  0.012166716           29 
 3269000   0.73225477   -8.5581806    507.46263  0.012936235  0.012162164           53 
 3270000   0.72422899   -8.5856164    507.03947  0.012921495  0.012157618           47 
 3271000   0.72533373   -8.5547604    506.92098  0.012914526  0.012153084           39 
 3272000   0.72877767   -8.5533364    506.81893   0.01290798  0.012148547           57 
 3273000   0.73318034   -8.5563533    507.74146  0.012927525  0.012144016           54 
 3274000   0.71823754   -8.5444545    507.28505  0.012911959  0.012139481           59 
 3275000    0.7424043   -8.5511602    507.63994  0.012917047   0.01213495           48 
 3276000   0.72917059   -8.5525464    507.93284  0.012920554  0.012130436           57 
 3277000   0.73092483   -8.5393965    508.50994  0.012931287  0.012125914           52 
 3278000   0.72503277   -8.5656758     508.1043   0.01291703  0.012121392           65 
 3279000   0.73505794   -8.5821846    507.30672  0.012892821  0.012116876           50 
 3280000   0.72303967    -8.560719    507.83417  0.012902291  0.012112368           68 
 3281000   0.73100433   -8.5445696     507.4938  0.012889713  0.012107855           67 
 3282000   0.72073482   -8.5254635    507.21803  0.012878784  0.012103346           50 
 3283000   0.72213074   -8.5509719    507.58635   0.01288421  0.012098827           65 
 3284000   0.72549665   -8.5554558    507.28373  0.012872608  0.012094327           69 
 3285000   0.72401472   -8.5692538    508.31144   0.01289476  0.012089812           50 
 3286000    0.7279375   -8.5446524    508.73833  0.012901662  0.012085317           60 
 3287000   0.72879915   -8.5867263    506.95251  0.012852462  0.012080815           71 
 3288000   0.69915273   -8.5536263    507.36544  0.012859019  0.012076307           67 
 3289000   0.73378594   -8.5545576    508.08053  0.012873227  0.012071807           65 
 3290000   0.72466301    -8.581933     507.7509  0.012860965  0.012067321           50 
 3291000   0.72665428   -8.5666793    508.39373  0.012873335  0.012062819           57 
 3292000   0.72420181   -8.5697836    507.72264  0.012852436  0.012058314           50 
 3293000    0.7218352   -8.5854783    506.83093  0.012825967  0.012053811           38 
 3294000   0.71697845   -8.5622172    508.17736  0.012856136  0.012049305           51 
 3295000   0.72543602   -8.5657706    507.62927  0.012838373   0.01204481           43 
 3296000   0.72401391   -8.5764521    507.14991  0.012822358  0.012040322           47 
 3297000   0.74109058   -8.5450332    507.81869  0.012835373  0.012035828           44 
 3298000   0.71418497   -8.5667451    508.02816  0.012836774  0.012031341           41 
 3299000   0.72890075   -8.5658536    507.56122  0.012821088  0.012026847           46 
 3300000   0.71964432   -8.5740471    507.55529  0.012817053  0.012022356           69 
 3301000    0.7253561   -8.5760294     508.1143  0.012827282  0.012017888           77 
 3302000   0.72899458   -8.6029799      508.103  0.012823112  0.012013416           64 
 3303000   0.71403371   -8.5673671    507.74613  0.012810226  0.012008932           63 
 3304000   0.72579298   -8.5930099    507.61232  0.012802974  0.012004448           52 
 3305000   0.71481521   -8.5822442    508.47848   0.01282094  0.011999953           48 
 3306000   0.72711862   -8.5966635    507.21147  0.012785125  0.011995466           57 
 3307000   0.72236027   -8.5736753    507.94445  0.012799729   0.01199098           59 
 3308000   0.73087898    -8.599053     506.9231  0.012770131  0.011986485           65 
 3309000   0.71918405   -8.5555344    507.66182  0.012784875     0.011982           52 
 3310000   0.70515706   -8.5674124    507.67127   0.01278125  0.011977514           66 
 3311000   0.72561608   -8.5833428    508.22898  0.012791427  0.011973025           55 
 3312000   0.71391804   -8.5697073    508.35509  0.012790738  0.011968546           35 
 3313000    0.7182136   -8.5914162    507.93686  0.012776357  0.011964066           48 
 3314000   0.71704569   -8.6027513    507.47141  0.012760798  0.011959587           54 
 3315000   0.72502024   -8.5954849    506.73437  0.012738421  0.011955113           57 
 3316000   0.71743095   -8.5774195    508.26644  0.012773081  0.011950648           56 
 3317000   0.70793867   -8.5724843    507.55996  0.012751481  0.011946189           58 
 3318000   0.72657689   -8.5585374    508.42163  0.012769279  0.011941729           76 
 3319000   0.71703971   -8.5735831    509.00177  0.012779998  0.011937274           51 
 3320000   0.73202992   -8.5539457    507.82139  0.012746521  0.011932823           49 
 3321000   0.70648634   -8.5925522    507.75578  0.012741036  0.011928366           41 
 3322000   0.70344104   -8.6028934    507.95166  0.012742115  0.011923901           49 
 3323000   0.72887896   -8.5989563    507.65144  0.012730751   0.01191944           50 
 3324000   0.72269348    -8.606432    506.93985  0.012709082  0.011914984           67 
 3325000    0.7377439   -8.5872555    507.13691  0.012710198   0.01191052           62 
 3326000   0.71707853   -8.6129103    508.47292  0.012739851  0.011906066           53 
 3327000   0.71058704   -8.6036083    506.77329   0.01269345  0.011901613           50 
 3328000   0.71371953   -8.6148079    506.70991  0.012688049   0.01189716           65 
 3329000    0.7278934   -8.5983205    507.57688   0.01270594  0.011892696           47 
 3330000   0.70656441   -8.5992236    507.96509  0.012711839  0.011888243           68 
 3331000   0.74530742   -8.5995526    507.26856  0.012690597  0.011883803           55 
 3332000   0.71910373   -8.5799185    507.20085  0.012685095  0.011879356           49 
 3333000   0.71496734   -8.6399303    506.44728  0.012662448  0.011874914           55 
 3334000   0.71376205   -8.5976689    507.41182  0.012682759  0.011870462           50 
 3335000    0.7280547   -8.5863338    506.69323     0.012661  0.011866014           47 
 3336000   0.71737781   -8.5894432    507.34499  0.012673486   0.01186158           30 
 3337000   0.72080505    -8.579926     508.0404  0.012687054  0.011857141           51 
 3338000   0.71733542   -8.6167188    507.90234  0.012679807  0.011852699           50 
 3339000   0.71970404   -8.5959184    506.81902  0.012648972  0.011848259           41 
 3340000   0.72934481   -8.5844525    507.12085  0.012652716  0.011843825           40 
 3341000   0.70745816   -8.6034945    507.70022   0.01266338  0.011839381           54 
 3342000   0.71290402   -8.6010732    508.91742  0.012689942  0.011834947           50 
 3343000    0.7313524   -8.5887775    507.68849  0.012655511  0.011830517           34 
 3344000   0.71307341   -8.6023032    506.99414  0.012634423  0.011826093           37 
 3345000   0.71304553   -8.5919092    507.66897  0.012647458  0.011821659           53 
 3346000   0.73689327   -8.6161496    507.39727  0.012636912  0.011817238           49 
 3347000   0.70604274   -8.5804643    508.24378  0.012654212  0.011812813           45 
 3348000   0.71484955    -8.578724    507.98687  0.012644038  0.011808395           48 
 3349000   0.70304055    -8.571929    509.13569  0.012668849  0.011803985           54 
 3350000   0.69835354   -8.6154977     507.2597  0.012618401  0.011799568           48 
 3351000   0.73482836   -8.6179758    507.22728  0.012613829  0.011795158           73 
 3352000    0.7160152   -8.6231449    507.97888  0.012628751  0.011790739           44 
 3353000   0.71062658   -8.6171861    507.32051  0.012608622  0.011786317           44 
 3354000   0.71653261   -8.6155283    508.02349  0.012622329  0.011781898           49 
 3355000   0.70881457   -8.6077814    508.01545  0.012618367  0.011777494           45 
 3356000    0.7029507    -8.593899    506.95693  0.012588323  0.011773082           60 
 3357000   0.71976587   -8.6183581     507.5696  0.012599782  0.011768668           53 
 3358000   0.72294182   -8.6113011    506.65329   0.01257329  0.011764263           59 
 3359000   0.71747453   -8.5835338    507.77552  0.012597388  0.011759864           50 
 3360000   0.71132021   -8.5930237    507.09726  0.012576817  0.011755472           54 
 3361000   0.71633695   -8.5905171    507.33919  0.012579074  0.011751079           38 
 3362000   0.70979999   -8.6143666    507.00692  0.012567096  0.011746688           44 
 3363000    0.7039497   -8.5967318      507.242  0.012569184  0.011742291           48 
 3364000   0.71243156   -8.6275564     507.0628  0.012561009  0.011737897           37 
 3365000   0.71633833   -8.6021246    508.64315  0.012596413  0.011733514           56 
 3366000   0.70778848   -8.6033736    507.01552  0.012552375  0.011729121           51 
 3367000   0.73186198   -8.6247404     507.2962  0.012555594  0.011724723           67 
 3368000   0.71107911   -8.6088425    507.55778  0.012558338   0.01172033           51 
 3369000   0.70516456   -8.6099223     508.0403  0.012566545  0.011715954           55 
 3370000   0.71114554    -8.622011    508.16327  0.012565857  0.011711572           40 
 3371000    0.7194473    -8.594556    507.50205  0.012545784  0.011707195           62 
 3372000    0.7205963   -8.6183637     508.7725   0.01257346  0.011702833           53 
 3373000   0.71355344   -8.6100625    508.48204  0.012562556  0.011698458           65 
 3374000   0.70664915   -8.6041984    508.00816  0.012547129  0.011694082           45 
 3375000   0.71144867   -8.6182228    507.86149   0.01253979  0.011689717           63 
 3376000   0.72009225   -8.5842924    507.78719  0.012534242  0.011685344           37 
 3377000   0.71748474   -8.6070818    508.53748  0.012549045  0.011680979           48 
 3378000   0.70694662   -8.6416958    507.10075  0.012509886  0.011676602           56 
 3379000   0.70677372   -8.6109279    507.43116  0.012514333  0.011672235           44 
 3380000   0.70730126   -8.6098322    507.57714  0.012514229  0.011667867           44 
 3381000   0.70419228   -8.6135517    507.35766  0.012505118  0.011663502           45 
 3382000   0.71036361    -8.623874    506.56708  0.012481941  0.011659133           61 
 3383000   0.72167355   -8.6299651    507.09917  0.012491358   0.01165476           48 
 3384000   0.69952352   -8.6229395    508.41979  0.012520188  0.011650383           59 
 3385000   0.70695746   -8.6217648    507.29593  0.012488822  0.011646008           51 
 3386000    0.7156451   -8.6026441    507.67784  0.012494532  0.011641643           63 
 3387000   0.71932233   -8.6300289    506.84886  0.012470447  0.011637274           49 
 3388000   0.71337643   -8.6057723    507.99167  0.012494876  0.011632911           60 
 3389000   0.69472637   -8.6391368    507.12565  0.012469894  0.011628552           57 
 3390000   0.72107139    -8.621616    507.94997  0.012486479  0.011624195           76 
 3391000   0.71829313   -8.6304873    508.06904  0.012485723  0.011619848           44 
 3392000   0.69172172   -8.6337006    507.00747  0.012455962  0.011615499           70 
 3393000   0.72367659   -8.6331766    507.90574  0.012474353  0.011611151           53 
 3394000   0.69527112   -8.6351882    507.77566  0.012467483  0.011606806           67 
 3395000   0.71339581   -8.6316428    508.39985  0.012479132   0.01160246           72 
 3396000   0.69481852   -8.6219454    507.34829  0.012449654  0.011598121           69 
 3397000   0.70923999   -8.6279729    507.80026  0.012457076  0.011593784           64 
 3398000   0.72260092   -8.6199485    508.59132   0.01247281  0.011589436           46 
 3399000   0.69801615   -8.6303866    508.59217  0.012469162  0.011585103           52 
 3400000   0.70285309   -8.6220933    508.68204  0.012467697  0.011580773           66 
 3401000   0.71387624   -8.6205079    507.13063  0.012426018   0.01157645           60 
 3402000   0.70977075   -8.6212311    507.94526   0.01244232  0.011572121           64 
 3403000    0.7123871   -8.6220947    507.44389  0.012426386  0.011567793           63 
 3404000    0.7052525   -8.6388464    507.49153  0.012423902  0.011563456           52 
 3405000   0.71275374   -8.6196172    507.65443   0.01242424  0.011559115           63 
 3406000   0.71047803   -8.6141038    507.37392  0.012413729  0.011554787           75 
 3407000   0.70897125   -8.6216398    507.80724  0.012420684  0.011550462           66 
 3408000   0.71001765   -8.6343269    507.09797  0.012399696  0.011546133           65 
 3409000   0.71316037   -8.6391872    507.69564  0.012410669  0.011541802           53 
 3410000   0.71759923   -8.6266058    507.72583  0.012407767   0.01153749           55 
 3411000    0.7087411    -8.623435    507.84962  0.012407154  0.011533176           74 
 3412000    0.7161143    -8.612306    508.00369  0.012407281  0.011528863           59 
 3413000   0.69002062   -8.6282893    507.54442  0.012392431  0.011524549           64 
 3414000   0.70185565   -8.6376698    507.60501   0.01239028  0.011520234           64 
 3415000   0.67511496   -8.6256642    507.39632   0.01238156  0.011515928           57 
 3416000   0.69295869   -8.6210468    507.32284  0.012376143  0.011511624           80 
 3417000   0.71342076   -8.6080753      508.018  0.012389474  0.011507325           61 
 3418000   0.71298099   -8.6507659    506.80253  0.012356215  0.011503025           65 
 3419000   0.70168846   -8.6463275    508.23361  0.012387482  0.011498725           65 
 3420000   0.68897387   -8.6184963    508.47229  0.012389676  0.011494412           59 
 3421000   0.70302257   -8.6501651    506.59417  0.012340304  0.011490122           53 
 3422000   0.70292105   -8.6181768    507.59106  0.012360975  0.011485823           59 
 3423000   0.71109839   -8.6313675    507.84149   0.01236346  0.011481523           65 
 3424000   0.70364963    -8.641884    507.88756  0.012360971  0.011477219           58 
 3425000   0.71877712   -8.6370835    508.06278  0.012361625   0.01147292           55 
 3426000   0.70537609   -8.6483485    507.65211  0.012348028  0.011468618           69 
 3427000   0.69317828   -8.6417024    508.19082  0.012357524  0.011464327           59 
 3428000   0.70792387   -8.6368554    507.85109   0.01234566  0.011460034           59 
 3429000   0.69664459   -8.6406326    508.29674  0.012352891  0.011455748           66 
 3430000   0.70874633   -8.6442632    507.81839  0.012337667  0.011451468           54 
 3431000   0.70590813   -8.6594091    508.39768  0.012348141   0.01144718           57 
 3432000   0.69738797   -8.6516811    507.70821  0.012327802  0.011442891           65 
 3433000   0.70753707   -8.6435724    507.79619  0.012326347  0.011438603           45 
 3434000   0.69187356   -8.6396718    508.01132  0.012327978  0.011434322           63 
 3435000   0.70883122   -8.6242123    507.40895  0.012309776   0.01143004           56 
 3436000   0.70412533   -8.6249692    508.19672  0.012325299  0.011425761           67 
 3437000   0.69472591   -8.6688982    507.87125  0.012313821  0.011421476           84 
 3438000    0.7185999   -8.6440147    507.91123  0.012311209  0.011417189           76 
 3439000   0.68671358   -8.6582144    507.63987  0.012301053  0.011412915           71 
 3440000   0.71264142   -8.6316472    508.10968  0.012308858  0.011408644           80 
 3441000   0.69718174   -8.6510265    508.26716  0.012309095  0.011404369           65 
 3442000      0.70437   -8.6245636    507.67249  0.012291122  0.011400103           78 
 3443000   0.73308017   -8.6630672    507.16168  0.012275188  0.011395826           75 
 3444000   0.70810829    -8.646494    506.44954  0.012254393  0.011391552           78 
 3445000   0.70711794   -8.6469764    507.49038  0.012276013  0.011387287           69 
 3446000   0.70125754   -8.6514404    508.37663  0.012293882   0.01138302           78 
 3447000    0.7012853    -8.679729     506.8056  0.012252335  0.011378753           68 
 3448000   0.71075606    -8.647234    507.32948  0.012261443  0.011374483           79 
 3449000   0.70196456   -8.6743804    506.27364  0.012232377  0.011370226           72 
 3450000   0.70935463    -8.644625    508.09573  0.012272844  0.011365966           71 
 3451000   0.70684646   -8.6577169    507.93084  0.012265306  0.011361711           77 
 3452000   0.69716396   -8.6516523    507.45483  0.012250262  0.011357465           77 
 3453000   0.69198635   -8.6579089    507.20556  0.012240698  0.011353209           71 
 3454000   0.68657582   -8.6567196    507.10303   0.01223468  0.011348956           93 
 3455000   0.68536355   -8.6583674    507.69703  0.012245466   0.01134469           82 
 3456000   0.69045162   -8.6852425    507.15799  0.012228925   0.01134044           60 
 3457000   0.70738918   -8.6554028    507.26993  0.012228086  0.011336175           66 
 3458000   0.71063144    -8.665854    507.82228  0.012237861  0.011331925           68 
 3459000   0.71715189   -8.6975932    506.46618  0.012201652  0.011327668          120 
 3460000   0.69274188   -8.6594148    506.85369  0.012207459  0.011323414           86 
 3461000   0.69919435   -8.6554032    506.34326  0.012191642  0.011319154           77 
 3462000   0.70492863   -8.6570767     507.7552  0.012222107  0.011314901           81 
 3463000   0.69625687   -8.6665554    506.45957  0.012187399  0.011310649           74 
 3464000   0.70014113   -8.6745416    507.06932   0.01219855  0.011306385           81 
 3465000   0.69971378   -8.6657081    507.66442  0.012209341  0.011302128           80 
 3466000   0.68423911   -8.6850395    506.90046  0.012187451  0.011297877           82 
 3467000   0.71769228   -8.6531818     507.0599  0.012187768  0.011293624           81 
 3468000   0.70362254   -8.6717806    507.11499  0.012185577  0.011289375           73 
 3469000   0.69671833   -8.6662725    506.91282  0.012177208  0.011285125           80 
 3470000   0.68626578   -8.6842575    506.74425  0.012169651  0.011280871           93 
 3471000   0.69124499   -8.6770453    506.02097   0.01214878  0.011276618           86 
 3472000   0.70564117   -8.6776803    507.03065  0.012169514  0.011272369           79 
 3473000   0.70866058   -8.7204866     506.5447   0.01215435  0.011268119          103 
 3474000   0.69238699    -8.697464    505.38764  0.012123096  0.011263876           95 
 3475000   0.70038258   -8.7023318     506.8148  0.012153832  0.011259634          107 
 3476000    0.6917235   -8.6857142    507.43166  0.012165124   0.01125539          103 
 3477000   0.70159726   -8.6962543     506.1268  0.012130352  0.011251149          109 
 3478000   0.71184451   -8.6992021    506.29806  0.012130968  0.011246913           81 
 3479000   0.71072228   -8.6655669    507.77913  0.012162957  0.011242679           83 
 3480000   0.69447134    -8.700227    506.70885  0.012133833  0.011238453           95 
 3481000   0.69051448    -8.676261     506.4043  0.012123056  0.011234225          102 
 3482000   0.69797694    -8.676393    506.56867  0.012123508  0.011229991           97 
 3483000   0.69894111   -8.6815823    506.85074  0.012126776   0.01122577           94 
 3484000   0.68988014    -8.654296      506.958  0.012125861  0.011221553          118 
 3485000   0.70145622   -8.6716876    507.56698  0.012136944  0.011217343          136 
 3486000   0.70109957   -8.6712028    506.89549   0.01211741  0.011213135          115 
 3487000   0.69803308   -8.6689308    508.74319  0.012158092  0.011208936          106 
 3488000   0.68243761    -8.686797    507.35198  0.012121368  0.011204733          104 
 3489000   0.68827065   -8.6813365    506.49398  0.012097401  0.011200529          114 
 3490000   0.70159809   -8.6886588      507.584  0.012119962  0.011196324          120 
 3491000   0.70474852   -8.7011268    507.84161  0.012122639  0.011192129           99 
 3492000   0.69935667   -8.6455263    507.54774  0.012112155  0.011187923           85 
 3493000   0.67833831    -8.679372    507.56087  0.012109001  0.011183735           80 
 3494000    0.7153447   -8.6785148    507.23066  0.012097659  0.011179548           87 
 3495000    0.6863678   -8.7018945    506.59952  0.012079149  0.011175353          105 
 3496000   0.69021263   -8.6967995    507.33123  0.012093136  0.011171156           85 
 3497000   0.69850881   -8.6558388    507.22285  0.012087095  0.011166955           72 
 3498000   0.69260339   -8.7042534    506.55108  0.012067636  0.011162763          107 
 3499000   0.68883768   -8.6738232    506.75152  0.012068961  0.011158569          112 
 3500000    0.7045451   -8.6839367    507.43893  0.012081879   0.01115438           96 
 3501000   0.67983883   -8.6865884    507.44143  0.012078488  0.011150189          107 
 3502000   0.69249355   -8.6638269    507.74881  0.012082353  0.011145996          100 
 3503000   0.70569913   -8.6681963    507.64586  0.012076455  0.011141802           85 
 3504000   0.69334346    -8.703297    507.08252  0.012059611  0.011137613           85 
 3505000   0.69198555   -8.6835278     506.0135  0.012030754  0.011133419           83 
 3506000   0.67446048   -8.6774141    506.88915  0.012048135  0.011129231           90 
 3507000   0.69891869   -8.7078921    506.54159  0.012036441  0.011125049          100 
 3508000   0.68886313   -8.6793122    507.06037  0.012045334  0.011120863           72 
 3509000   0.67475754   -8.6967666    507.33154  0.012048341   0.01111668           75 
 3510000   0.70727455   -8.6665775    506.85585  0.012033615  0.011112497           80 
 3511000   0.69115333   -8.6752554    507.44697  0.012044218   0.01110832           70 
 3512000   0.67789419   -8.6814193    507.58151   0.01204398  0.011104147           78 
 3513000   0.68285042    -8.690315       506.86  0.012023437  0.011099964           73 
 3514000    0.6977521   -8.6939092    507.53298  0.012035975  0.011095794           76 
 3515000   0.67956548   -8.6820936     506.6043  0.012010533  0.011091629           91 
 3516000   0.69124513   -8.7009422     507.5384  0.012029257  0.011087459           87 
 3517000    0.6970745   -8.6882641    507.34238  0.012021192  0.011083298           92 
 3518000   0.68606139   -8.7006446    506.48148  0.011997382  0.011079132           95 
 3519000     0.704009   -8.7081565    507.27981  0.012012878  0.011074967          119 
 3520000   0.70206212   -8.6834251    507.69303  0.012019248  0.011070813           88 
 3521000   0.69920752   -8.6708193    507.56367  0.012012773  0.011066662           96 
 3522000   0.68604945   -8.6836314    507.49775  0.012007802   0.01106251           89 
 3523000   0.67801844    -8.664687    507.96339  0.012015408  0.011058359           86 
 3524000   0.69034461   -8.6785064    506.88447  0.011986485  0.011054202          115 
 3525000   0.68029597   -8.7178637    506.46906  0.011973264  0.011050044           85 
 3526000   0.69448375   -8.6731768    507.13741  0.011985664  0.011045892           87 
 3527000   0.68834867   -8.6773832    507.48848   0.01199056  0.011041744           94 
 3528000   0.68299147   -8.6899662    506.67988  0.011968062  0.011037598           96 
 3529000   0.68626779   -8.7047817    506.23207  0.011954096  0.011033451           94 
 3530000   0.69909035   -8.6800165     506.7851  0.011963765  0.011029304          114 
 3531000   0.68720445   -8.6906821    506.04693  0.011942956  0.011025155           88 
 3532000   0.69058084   -8.7065791    506.42426  0.011948477  0.011021009           88 
 3533000   0.69578211   -8.7011046    506.29742  0.011942103  0.011016855          124 
 3534000   0.69620061   -8.6797003    507.58065  0.011968983  0.011012713           82 
 3535000   0.69140787   -8.7077615    505.85514  0.011924921  0.011008569           94 
 3536000   0.68770206   -8.7127698     506.1601  0.011928735  0.011004414           91 
 3537000   0.70004317   -8.6726465     506.9588  0.011944181  0.011000274          133 
 3538000   0.68680938   -8.7096918    506.54973  0.011931169  0.010996136          129 
 3539000    0.6848331   -8.7030755    506.85275  0.011934933  0.010991993          114 
 3540000   0.67928476   -8.6936381    506.66229  0.011927078   0.01098784           95 
 3541000   0.70264714   -8.7081374    507.14977  0.011935182  0.010983692           95 
 3542000   0.68633196   -8.6860579    507.60444   0.01194251  0.010979548          117 
 3543000   0.68538075   -8.7051502     506.1484  0.011904892  0.010975408          100 
 3544000   0.67108047    -8.712193     506.3659  0.011906647  0.010971263          114 
 3545000   0.67843212   -8.7104834    506.80627  0.011913641  0.010967131           76 
 3546000   0.69120094   -8.7187638    506.77742  0.011909603  0.010963004          131 
 3547000   0.67312106   -8.7179385    506.43639  0.011898233  0.010958878          119 
 3548000   0.67879218   -8.6983639    506.27962  0.011891197  0.010954746           92 
 3549000   0.69254494   -8.7068702    507.63106   0.01191958  0.010950621          141 
 3550000   0.68227165   -8.6712334    506.66684  0.011893588  0.010946494          161 
 3551000   0.68549617   -8.7040309    506.38539  0.011883633  0.010942372          150 
 3552000    0.6937435   -8.7208346     505.6458  0.011862936   0.01093825           96 
 3553000    0.6876274   -8.7189331    505.35505  0.011852778  0.010934131           93 
 3554000   0.69073471   -8.7107866    506.37968  0.011873468  0.010930012          100 
 3555000   0.68187129   -8.6978715    506.81396  0.011880308  0.010925908           87 
 3556000   0.68192148   -8.7001969    506.80069  0.011876657  0.010921797          103 
 3557000   0.68676325   -8.6935622    507.05526  0.011879282  0.010917699          113 
 3558000   0.68938049     -8.68363    506.15087  0.011854761  0.010913608          191 
 3559000    0.6948085   -8.6843395    506.32096  0.011855413  0.010909515          129 
 3560000   0.68095627   -8.6798902    507.97987  0.011890915  0.010905421           97 
 3561000   0.68076348   -8.7086299    506.86327  0.011861445  0.010901329           90 
 3562000   0.68566764   -8.6835085    507.02148  0.011861817   0.01089724          169 
 3563000   0.68334038   -8.7205891    507.02665  0.011858608  0.010893145          155 
 3564000   0.69344881   -8.6944911    507.23427  0.011860135  0.010889058          160 
 3565000   0.66781094    -8.716017     507.0055  0.011851461  0.010884967          160 
 3566000     0.690128    -8.713656     506.1962  0.011829225  0.010880875           85 
 3567000   0.68076953   -8.6816313    506.99382  0.011844543  0.010876791          100 
 3568000   0.67920781   -8.6854695    506.59985  0.011832022   0.01087271           99 
 3569000   0.69624343   -8.7109219    506.64547  0.011829772  0.010868631           95 
 3570000   0.69397569   -8.7109653    506.74312  0.011828738  0.010864541           88 
 3571000   0.66704848   -8.7164603    506.03627   0.01180893   0.01086046          123 
 3572000   0.67594607    -8.701282    507.78046  0.011846315  0.010856372          120 
 3573000   0.69334486   -8.7008744    507.12051  0.011827608  0.010852283          140 
 3574000   0.69237418    -8.705594    507.00926  0.011821704  0.010848206           97 
 3575000   0.68073322   -8.7025374    506.85442  0.011814788  0.010844131          106 
 3576000   0.67333251    -8.691196    506.09607  0.011793812   0.01084006           99 
 3577000   0.69131501   -8.6858044    507.45749  0.011822232  0.010835996          103 
 3578000   0.66376436   -8.6890084    506.77509  0.011803035  0.010831928          147 
 3579000   0.69230345   -8.7052062    507.94667  0.011827016  0.010827866           99 
 3580000   0.65823784   -8.7020601    507.29675  0.011808584  0.010823799          143 
 3581000   0.67747388   -8.7147445    506.40127  0.011784447  0.010819728          112 
 3582000   0.67227041   -8.6803124    505.79041  0.011766946   0.01081566          103 
 3583000   0.67536428   -8.6830697    507.28953  0.011798529  0.010811607          100 
 3584000   0.66954482   -8.6957316    506.88391  0.011785805  0.010807548          148 
 3585000   0.68893125   -8.7017408    507.17852  0.011789366  0.010803498          120 
 3586000   0.68270307   -8.6990862    507.01231  0.011782216   0.01079944          104 
 3587000   0.67677465   -8.6975304    506.02116  0.011755905  0.010795394          105 
 3588000   0.67353519   -8.6892043    507.42424  0.011785215  0.010791347           99 
 3589000   0.66887443   -8.6815713    507.06417  0.011773571  0.010787299           92 
 3590000   0.67999832   -8.7076032    506.70894  0.011762046  0.010783253          101 
 3591000   0.68265488   -8.6906324    506.33807  0.011750164  0.010779204          101 
 3592000   0.67322137   -8.7091098    506.69434  0.011755158  0.010775157          116 
 3593000   0.69436888   -8.6910229    507.09746  0.011761236  0.010771117          105 
 3594000   0.67175377   -8.7329167    507.16097  0.011759436  0.010767078          126 
 3595000   0.68240148   -8.6844657    507.06948  0.011754045  0.010763043          106 
 3596000   0.67870308   -8.7239614    506.68651  0.011741901  0.010759008          113 
 3597000    0.6703883    -8.681866    507.03364  0.011746679  0.010754978          103 
 3598000   0.67947049   -8.7044092    507.26807  0.011748844  0.010750943          139 
 3599000   0.66177295   -8.6939465     506.2432  0.011721849  0.010746911          103 
 3600000   0.68587014   -8.6773837    506.89397  0.011733657  0.010742884          171 
 3601000   0.66394581   -8.6998785    506.41271  0.011719261  0.010738858          134 
 3602000   0.67426713   -8.7018624     506.9859  0.011729268  0.010734838          121 
 3603000   0.68422605   -8.6784871    507.42659  0.011736206  0.010730823          110 
 3604000   0.67366022   -8.7040447     508.2132  0.011751138  0.010726806          106 
 3605000   0.70678293   -8.7183994    506.84474  0.011716245  0.010722796          106 
 3606000    0.6734368   -8.6995099    505.91445  0.011691497  0.010718777          119 
 3607000   0.68326708   -8.6971001    507.18646  0.011717643   0.01071476          118 
 3608000   0.67410268   -8.7016685    507.62722  0.011724575  0.010710749          171 
 3609000    0.6648287   -8.7194377    506.31604  0.011691051  0.010706736          118 
 3610000   0.66791401    -8.718933    507.61536  0.011717806  0.010702725          127 
 3611000   0.67025934   -8.6975291    507.17704  0.011704446  0.010698717          180 
 3612000   0.67799007   -8.7123991    506.94154  0.011695772  0.010694712          120 
 3613000   0.67689056   -8.7015384    507.09845  0.011696154  0.010690705          135 
 3614000   0.68597283   -8.7098769    506.29593  0.011674413  0.010686702          113 
 3615000   0.68584541   -8.7075646    507.59797  0.011701198  0.010682695          119 
 3616000   0.64994203   -8.7171714    505.88282  0.011658435   0.01067869          116 
 3617000   0.67318222   -8.6798739    507.48162  0.011692047  0.010674687          128 
 3618000   0.65980131   -8.7077795    506.99673  0.011677647  0.010670701          151 
 3619000   0.66775946   -8.6858912    507.39198  0.011683522  0.010666711          132 
 3620000   0.66317573   -8.7253519    506.83637  0.011667504  0.010662715           98 
 3621000   0.66817714   -8.7101948     506.6803   0.01166069   0.01065872          174 
 3622000   0.68034062   -8.7028181    506.98078  0.011664384  0.010654717          113 
 3623000   0.68072276   -8.7021477    506.83541  0.011657821  0.010650724          142 
 3624000   0.67848418   -8.7070042    507.76177  0.011675905  0.010646736          135 
 3625000   0.66090076   -8.7024793    506.00537  0.011632307  0.010642746          121 
 3626000   0.69148016   -8.7479273    506.57801   0.01164226  0.010638758          120 
 3627000   0.66788967   -8.7029256    506.85481   0.01164541  0.010634764          155 
 3628000     0.670036   -8.7007686    507.73676  0.011662458  0.010630779          107 
 3629000   0.67699664   -8.7246388    506.38868  0.011628288  0.010626797          117 
 3630000   0.67138318   -8.7013494    505.78054  0.011611124  0.010622807          115 
 3631000   0.66623778   -8.7254618    506.02731  0.011613589  0.010618817          155 
 3632000   0.66879173   -8.7101709    506.77672  0.011627586  0.010614828          122 
 3633000    0.6708604   -8.7209862    506.34422  0.011614465  0.010610842          126 
 3634000   0.66200471   -8.7134223    507.21041  0.011631132  0.010606862          137 
 3635000   0.66298256   -8.7542808    505.76595  0.011594818  0.010602884          129 
 3636000   0.67526097   -8.7053733    506.92701  0.011618239   0.01059891          142 
 3637000   0.66280199   -8.7254701    507.09913  0.011618988  0.010594935          141 
 3638000   0.66904556   -8.7387784    506.62102  0.011604843  0.010590958          138 
 3639000   0.67918807   -8.7163237    507.09632  0.011612538  0.010586986          160 
 3640000   0.66126971   -8.7198207    505.97744  0.011583733  0.010583017          128 
 3641000   0.69269766   -8.7259427    507.05005    0.0116051  0.010579042          156 
 3642000   0.65661028   -8.7183564    506.88081  0.011598042  0.010575074          126 
 3643000   0.67735215   -8.7522949    506.01176  0.011574978  0.010571102          127 
 3644000    0.6684369   -8.7239534    506.98526  0.011594065  0.010567137          132 
 3645000   0.64557715   -8.7366037    506.17459   0.01157235  0.010563173          177 
 3646000   0.66535135   -8.7289969    506.49572  0.011576516  0.010559215          141 
 3647000   0.66951613    -8.736006     507.7372  0.011601709  0.010555266          141 
 3648000   0.67350058   -8.7062565    506.93222   0.01158014  0.010551318          182 
 3649000   0.68418718   -8.7540247    506.25193  0.011561431   0.01054736          147 
 3650000   0.66441773   -8.7281063    507.23017  0.011580597  0.010543406          190 
 3651000   0.66464186   -8.7270776    507.02434  0.011572728  0.010539453          141 
 3652000   0.68087025   -8.7347193    505.93107  0.011544612  0.010535496          135 
 3653000   0.66715019   -8.7496562    506.17535  0.011547024  0.010531545          105 
 3654000   0.65351602   -8.7409582    507.03066   0.01156337  0.010527596          133 
 3655000   0.67670764   -8.7293973    506.84454  0.011555963  0.010523651          131 
 3656000   0.66857315   -8.7229451      506.712  0.011549781  0.010519708          131 
 3657000   0.67541267   -8.7336227     506.5392  0.011542685   0.01051576          209 
 3658000   0.65641432   -8.7152938    506.94113  0.011548686  0.010511817          203 
 3659000   0.66139107    -8.742769    506.97246  0.011546244  0.010507879          123 
 3660000     0.671923   -8.7285903    507.08734  0.011545704  0.010503947          130 
 3661000   0.67198764   -8.7222108    506.18738  0.011522066  0.010500013          143 
 3662000   0.65993734   -8.7254678    506.34468  0.011522499  0.010496085          131 
 3663000   0.67969421   -8.7297442    506.93347  0.011532748  0.010492148          161 
 3664000   0.67522909   -8.7408064    505.90489  0.011506207  0.010488213          141 
 3665000    0.6587591   -8.7314382    505.61294  0.011496429  0.010484283          144 
 3666000   0.66836146   -8.7424965    506.03276  0.011502836  0.010480355          119 
 3667000   0.66323773   -8.7323232    507.09446  0.011523827  0.010476424          176 
 3668000   0.67027538   -8.7379885    506.14689  0.011499157  0.010472492          162 
 3669000   0.67715327   -8.7110568    506.37409  0.011501183  0.010468569          123 
 3670000   0.66323864   -8.7300536    505.99918  0.011489536  0.010464648          143 
 3671000   0.65982873   -8.7301685    506.50994  0.011498001  0.010460726          122 
 3672000   0.65454836   -8.7507151    505.93805  0.011481891  0.010456798          147 
 3673000   0.67662586   -8.7404133    506.04705  0.011481238  0.010452879          133 
 3674000   0.67180962   -8.7459264    506.12971  0.011479988  0.010448961          149 
 3675000   0.67777488   -8.7199931     507.4283  0.011506311  0.010445041          142 
 3676000   0.66080458   -8.7441062    505.98648  0.011470495  0.010441127          162 
 3677000   0.65831142   -8.7494828    506.42767  0.011477374  0.010437209          150 
 3678000   0.67551254   -8.7252934    505.86902  0.011461596  0.010433297          135 
 3679000   0.66075909    -8.721749    506.99799  0.011484053  0.010429385          150 
 3680000   0.66983673   -8.7417973    507.32055  0.011488237  0.010425476          138 
 3681000   0.65719715   -8.7598947    505.87286  0.011452342  0.010421565          148 
 3682000   0.65920075   -8.7381388    507.35119   0.01148269  0.010417656          135 
 3683000   0.64712472   -8.7318818    505.89741  0.011446679  0.010413751          141 
 3684000   0.67514671   -8.7444591    506.80975  0.011464209  0.010409846          125 
 3685000   0.66632115   -8.7267874    506.61916  0.011456788  0.010405947          140 
 3686000   0.66269308    -8.739368    505.75068  0.011434045  0.010402051          142 
 3687000    0.6690449   -8.7374405    506.91799  0.011457327  0.010398162          186 
 3688000   0.66657871   -8.7707139    506.31226  0.011440534  0.010394273          190 
 3689000   0.65552858   -8.7248837    505.65965   0.01142269  0.010390384          138 
 3690000   0.65840182   -8.7156239    506.24276  0.011432763  0.010386493          163 
 3691000   0.65179887   -8.7242404    505.90759  0.011422099  0.010382606          231 
 3692000   0.65493519   -8.7327441    505.96703  0.011420346  0.010378717          220 
 3693000   0.65173297   -8.7448686    505.88969  0.011415509  0.010374823          225 
 3694000   0.67291516   -8.7545656    505.90352  0.011412731   0.01037093          228 
 3695000   0.66315616   -8.7507986    505.58334  0.011402421  0.010367037          181 
 3696000   0.65330033   -8.7316834    506.15382  0.011412198  0.010363146          161 
 3697000   0.66340952   -8.7551458    506.43851  0.011415529  0.010359253          190 
 3698000   0.64514217   -8.7442317    506.61254  0.011416363  0.010355362          179 
 3699000   0.64420218    -8.757907     505.5936  0.011390322  0.010351475          164 
 3700000   0.66282444   -8.7436396    506.35813  0.011404462  0.010347588          176 
 3701000    0.6547878   -8.7472075    506.11252  0.011395851  0.010343696          170 
 3702000   0.65576529   -8.7725899    505.62985  0.011381907  0.010339807          178 
 3703000   0.65950075   -8.7451016    506.43646  0.011396986  0.010335923          168 
 3704000   0.63967293   -8.7642198    505.05873  0.011362912  0.010332045          179 
 3705000   0.67225804   -8.7462942    505.78826  0.011376254  0.010328163          187 
 3706000   0.65341586   -8.7617472    505.89653  0.011375619  0.010324283          182 
 3707000   0.64880424   -8.7797188    505.55283  0.011364824  0.010320398          185 
 3708000   0.65392745   -8.7731164    506.00575  0.011371938  0.010316515          223 
 3709000   0.64698164   -8.7692239    506.31956  0.011375923  0.010312637          173 
 3710000    0.6404647   -8.7648278    505.30589  0.011350087  0.010308755          237 
 3711000   0.65480089    -8.793313    504.99114  0.011339961  0.010304874          184 
 3712000   0.67244508   -8.7680936    505.77374  0.011354475  0.010300992          189 
 3713000   0.66162824   -8.7839444    504.82466  0.011330116  0.010297102          207 
 3714000   0.66094215   -8.7842185    504.66667  0.011323521  0.010293222          224 
 3715000   0.66457259   -8.7648543    506.18735  0.011354584  0.010289341          196 
 3716000   0.64543972   -8.7725289    504.96153  0.011324039  0.010285471          184 
 3717000   0.64391023   -8.7756118    504.97774  0.011321356  0.010281592          192 
 3718000   0.64705861   -8.7621505    505.37226  0.011327153  0.010277715          158 
 3719000   0.66387912   -8.7479928    505.51206   0.01132724  0.010273841          179 
 3720000   0.66165653   -8.7691252    505.42592  0.011322265  0.010269969          166 
 3721000    0.6439321   -8.7593551    505.87973  0.011329386  0.010266105          224 
 3722000   0.65418746   -8.7835688    504.57874  0.011297213   0.01026224          176 
 3723000   0.66701107   -8.7742445    505.01187  0.011303874  0.010258386          175 
 3724000   0.65342237   -8.7718511    505.28848  0.011307028  0.010254524          221 
 3725000   0.66541869   -8.7531318    505.01112  0.011297788  0.010250665          176 
 3726000    0.6606273   -8.7796491    505.67941  0.011309702  0.010246807          180 
 3727000   0.64642385   -8.7680197    506.10104  0.011316095  0.010242948          200 
 3728000   0.65185388    -8.774317    505.95102  0.011309706  0.010239086          177 
 3729000   0.65011544    -8.764605    505.14387  0.011288636   0.01023523          198 
 3730000   0.65366773   -8.7753052     505.3256  0.011289669  0.010231375          194 
 3731000   0.65793761     -8.78484    506.13348  0.011304688  0.010227517          183 
 3732000   0.65479438   -8.7727487    505.53015  0.011288187   0.01022366          169 
 3733000   0.64720197   -8.7774849    505.11674  0.011275934  0.010219813          183 
 3734000   0.65152246    -8.757389    505.33953  0.011277886  0.010215964          196 
 3735000   0.66560409   -8.7939778    504.76798  0.011262115  0.010212119          181 
 3736000   0.65831472     -8.76295    505.54093  0.011276341  0.010208276          180 
 3737000    0.6494689   -8.7618142    505.71933  0.011277302  0.010204432          180 
 3738000   0.66661665   -8.7745857    505.23037  0.011263384  0.010200588          178 
 3739000   0.66662294   -8.7522917    505.43085   0.01126484  0.010196743          198 
 3740000   0.67256731   -8.7728313    505.48252  0.011262979  0.010192913          200 
 3741000   0.65693154   -8.7814335    505.53116  0.011261052  0.010189077          182 
 3742000   0.65473778   -8.7574554    504.15069    0.0112273  0.010185237          204 
 3743000   0.67843965   -8.8049598    506.33021  0.011272825  0.010181403          243 
 3744000   0.64633181   -8.7871781    504.72812  0.011234155  0.010177565          207 
 3745000    0.6603237   -8.7976892    504.64301  0.011229262  0.010173726          206 
 3746000   0.65329083   -8.7957227    504.88022  0.011231541  0.010169893          186 
 3747000   0.65835727   -8.7795078    505.33932  0.011238754  0.010166058          181 
 3748000   0.66778392   -8.8050403    504.92424  0.011226526  0.010162223          242 
 3749000   0.64294879    -8.783499    505.59869  0.011238523  0.010158388          194 
 3750000    0.6618256   -8.7771905    505.19669  0.011226593  0.010154558          206 
 3751000   0.64745844   -8.8218886     504.9497  0.011218113  0.010150733          226 
 3752000   0.65477016   -8.7926419    505.40246  0.011225179  0.010146902          201 
 3753000   0.65721358   -8.7949556    505.54964  0.011225456  0.010143077          202 
 3754000   0.65059228    -8.794609    504.32048   0.01119518   0.01013925          221 
 3755000    0.6535888   -8.7779219    504.85348  0.011204028  0.010135424          242 
 3756000   0.64129283   -8.7892393    504.79211  0.011199683  0.010131601          228 
 3757000   0.65684971   -8.7912237    505.20998  0.011205971  0.010127778          198 
 3758000   0.64492497   -8.8040841      505.383  0.011206825  0.010123958          215 
 3759000   0.64092317   -8.8091832    504.67186  0.011188079  0.010120138          210 
 3760000   0.65095341   -8.7880444    505.31173  0.011199285  0.010116317          198 
 3761000   0.64861384   -8.7637792    504.92799  0.011187804    0.0101125          189 
 3762000   0.63399719   -8.7943536    504.56007  0.011176681  0.010108684          222 
 3763000     0.650563   -8.7795142     504.9931    0.0111833  0.010104878          199 
 3764000   0.64742358   -8.8066632      504.944  0.011179242  0.010101075          207 
 3765000   0.63771341   -8.8018271    505.45117  0.011187498  0.010097271          301 
 3766000   0.63739443   -8.7985499    504.67408  0.011167332  0.010093465          225 
 3767000   0.64689206   -8.7694839     504.9737  0.011170996  0.010089658          193 
 3768000   0.64768294   -8.8027325     504.4202   0.01115579   0.01008585          218 
 3769000   0.64633644   -8.7834465    505.18612  0.011169765  0.010082045          221 
 3770000   0.64734827   -8.8022221    505.17523  0.011166561  0.010078243          215 
 3771000   0.64936018   -8.7947603    505.13072  0.011162616  0.010074445          206 
 3772000   0.62281206   -8.7994179    504.86622  0.011153814  0.010070652          185 
 3773000   0.63816611   -8.7797392    505.32776  0.011161051   0.01006685          207 
 3774000   0.64645935   -8.8010783    504.61555  0.011142368  0.010063049          209 
 3775000   0.64040186   -8.7846325    505.63535  0.011161928  0.010059252          288 
 3776000   0.66064517   -8.7857081    505.00773  0.011145121  0.010055458          212 
 3777000   0.64403819   -8.7941908    505.00203  0.011142045  0.010051661          215 
 3778000   0.63981144   -8.8040869     504.7613  0.011133785  0.010047873          220 
 3779000   0.63820969   -8.8073843    503.99206  0.011113876  0.010044083          219 
 3780000   0.65437399   -8.7878806    504.53979  0.011123011  0.010040296          219 
 3781000   0.65606365   -8.7981101    505.15846  0.011133705  0.010036516          291 
 3782000   0.64260845   -8.8016862    504.89489  0.011124954  0.010032731          202 
 3783000   0.64252652   -8.8074405    504.82976  0.011120578  0.010028947          285 
 3784000   0.65309658    -8.817888    504.47217  0.011109764  0.010025167          295 
 3785000   0.65938506   -8.7956443    504.55604  0.011108676  0.010021385          219 
 3786000   0.64852815   -8.8015129    504.61584  0.011107058  0.010017606          211 
 3787000   0.63938473   -8.8018949     504.0208  0.011091031  0.010013832          292 
 3788000   0.64405509   -8.8158839    503.95575  0.011086672  0.010010051          226 
 3789000   0.63978982   -8.8202931    504.67705   0.01109961  0.010006274          307 
 3790000   0.65523034   -8.8132366    505.23137  0.011108869  0.010002505          230 
 3791000   0.66778634   -8.8021594    505.31855  0.011107855 0.0099987349          226 
 3792000   0.63493387   -8.8118924    504.63688  0.011089946 0.0099949644          230 
 3793000   0.65328079   -8.8093061    503.89852    0.0110708 0.0099911941          236 
 3794000   0.63354658   -8.8017425    504.32058  0.011077152 0.0099874288          228 
 3795000   0.64459042   -8.8054141    503.63934  0.011059274 0.0099836655          243 
 3796000   0.64958476   -8.8106693    504.82117  0.011082305 0.0099799044          236 
 3797000   0.63205195   -8.8082041    505.26266  0.011089076 0.0099761405          224 
 3798000   0.65210988   -8.8148269    504.57541  0.011071077 0.0099723792          242 
 3799000   0.64404594   -8.8181259    504.49804  0.011066466 0.0099686168          236 
 3800000   0.65337557   -8.7951403     505.2482  0.011080004 0.0099648565          239 
 3801000   0.65105491   -8.8133048    505.40105  0.011080441 0.0099611055          297 
 3802000   0.64611697   -8.8127067     504.4718  0.011057159 0.0099573489          237 
 3803000   0.65310553   -8.8114059    505.97568  0.011087205 0.0099535942          244 
 3804000   0.64063266   -8.7970603    504.87333  0.011060141 0.0099498454          238 
 3805000   0.63551835   -8.8304565    504.95655  0.011059057 0.0099460947          228 
 3806000   0.64824934   -8.8105352    504.84624  0.011053736  0.009942347          237 
 3807000   0.63624481   -8.8325223    505.05187  0.011055334 0.0099385991          227 
 3808000   0.65427158   -8.8222788    505.43544  0.011060825 0.0099348533          234 
 3809000    0.6483913   -8.8189621    504.53645  0.011038253 0.0099311038          224 
 3810000   0.63770645   -8.8121363    504.59075  0.011036543  0.009927366          227 
 3811000   0.63988866   -8.8040151    505.49594   0.01105344 0.0099236321          232 
 3812000   0.63723837   -8.8301874    503.67094  0.011010645 0.0099198941          229 
 3813000   0.64198201    -8.827386    504.89087  0.011034419 0.0099161598          327 
 3814000   0.63815102   -8.8401713    504.53022  0.011023646 0.0099124187          250 
 3815000   0.64996495   -8.8196461     503.3698  0.010995408 0.0099086812          247 
 3816000   0.63700001   -8.7905658    505.19483  0.011032382 0.0099049457          206 
 3817000   0.64254182   -8.8187894    504.33012  0.011010613 0.0099012175          242 
 3818000   0.64115858   -8.8131525    504.27525  0.011006532 0.0098974907          240 
 3819000   0.63850911    -8.807854    504.35141  0.011005311 0.0098937572          231 
 3820000   0.63179308    -8.827248    504.58528  0.011007532  0.009890027          235 
 3821000   0.63537711   -8.8283547    503.97639  0.010991372 0.0098862944          236 
 3822000   0.63469434   -8.8290046    504.88646  0.011008339 0.0098825673          226 
 3823000   0.64784962   -8.8252732     504.4026  0.010994912 0.0098788361          235 
 3824000   0.64568004   -8.7988581    504.13947  0.010986303 0.0098751089          224 
 3825000    0.6401583   -8.8063198    503.63519  0.010972444 0.0098713889          235 
 3826000    0.6375737    -8.825688    504.50466  0.010988514   0.00986767          226 
 3827000   0.63992072   -8.8050395    504.38991  0.010983144 0.0098639535          206 
 3828000   0.64252427   -8.8031685    504.42697  0.010981082 0.0098602366          224 
 3829000   0.64305817   -8.8102872    504.19587  0.010973184 0.0098565231          235 
 3830000   0.63491662   -8.8146432    504.93206  0.010986337  0.009852812          234 
 3831000   0.62593445   -8.8243752    504.78175    0.0109802 0.0098491046          307 
 3832000   0.64203044   -8.8196726    504.79154  0.010977547 0.0098453925          236 
 3833000   0.63705617   -8.8266352    504.75789  0.010973952  0.009841685          232 
 3834000    0.6274836   -8.8231668    504.06629  0.010956057 0.0098379705          246 
 3835000   0.64847079     -8.83092    504.07784  0.010953451  0.009834269          241 
 3836000   0.64134373   -8.8390108    503.43726   0.01093668  0.009830563          240 
 3837000   0.63157348    -8.839905    504.26599  0.010951829  0.009826855          231 
 3838000   0.63763759    -8.855821    504.46261  0.010953244 0.0098231461          222 
 3839000   0.64494581   -8.8304883    504.40192  0.010949074 0.0098194402          300 
 3840000   0.64446072   -8.8258632    504.47969   0.01094791 0.0098157407          258 
 3841000   0.64757985   -8.8144213    505.03269  0.010957057 0.0098120385          291 
 3842000   0.62832496   -8.8354425    503.59703  0.010923066 0.0098083403          261 
 3843000   0.63953777   -8.8342174    503.46591   0.01091738 0.0098046452          285 
 3844000   0.63426262   -8.8083308    504.48651  0.010936666 0.0098009558          232 
 3845000   0.64069045   -8.8354741    504.08204  0.010925055 0.0097972664          239 
 3846000   0.63902405   -8.8308417    503.48298  0.010909234 0.0097935804          251 
 3847000   0.63141899   -8.8277469    504.41496  0.010926587 0.0097898894          285 
 3848000   0.60915907   -8.8371746    503.94633  0.010913599 0.0097861988          241 
 3849000    0.6266447    -8.827566    504.05219  0.010913055   0.00978251          255 
 3850000   0.64421019   -8.8259746    504.74148   0.01092514  0.009778822          236 
 3851000   0.63369777    -8.810362    503.84809  0.010902971 0.0097751414          244 
 3852000   0.63767156   -8.8278394    504.02974   0.01090407 0.0097714568          238 
 3853000   0.63346244   -8.8456786    503.83508   0.01089703 0.0097677717          249 
 3854000   0.62289317   -8.8263322    504.44901  0.010907477   0.00976409          246 
 3855000   0.63669292   -8.8376236     504.7297  0.010910716 0.0097604084          240 
 3856000   0.62553607   -8.8424196    504.59939   0.01090507  0.009756728          223 
 3857000   0.62487267   -8.8416655    504.38847  0.010897685 0.0097530524          239 
 3858000   0.64848591   -8.8416127    504.24231  0.010891704 0.0097493768          261 
 3859000   0.65350129   -8.8500935    502.26788  0.010846244 0.0097456986          262 
 3860000   0.62311893   -8.8504248    503.16971  0.010862904 0.0097420248          241 
 3861000   0.62360037   -8.8456751    504.89404  0.010897307 0.0097383524          275 
 3862000   0.63296361   -8.8483691    504.22186  0.010879981 0.0097346836          266 
 3863000   0.63019812   -8.8401664    504.13165  0.010875219 0.0097310172          268 
 3864000   0.62818523   -8.8549887    503.67705    0.0108626  0.009727354          290 
 3865000   0.63707988   -8.8209965    503.83302  0.010863153 0.0097236967          273 
 3866000   0.62521512   -8.8536488    504.13928  0.010866944 0.0097200347          273 
 3867000   0.63468293   -8.8529498     504.5052   0.01087202 0.0097163716          269 
 3868000   0.62877418   -8.8245756    503.42695  0.010845979  0.009712706          270 
 3869000   0.62757111   -8.8294409    504.19496  0.010859717 0.0097090393          242 
 3870000   0.62797047   -8.8405269    504.59623  0.010865552 0.0097053766          250 
 3871000   0.61919299   -8.8651558    503.80032  0.010845611 0.0097017132          261 
 3872000   0.61965898   -8.8251774    504.25916  0.010852685 0.0096980472          248 
 3873000   0.61799865   -8.8460297    503.36976  0.010830746 0.0096943897          275 
 3874000   0.63635931   -8.8461568    504.21897  0.010846218 0.0096907309          279 
 3875000   0.62996277   -8.8361966    503.35587  0.010824857  0.009687071          263 
 3876000   0.63312685   -8.8512677    503.82756  0.010832206 0.0096834113          279 
 3877000   0.62957467   -8.8426184    503.53503  0.010823124 0.0096797598          247 
 3878000   0.63052725   -8.8130069    504.46822  0.010840386 0.0096761043          253 
 3879000   0.63489845   -8.8602566    504.01215  0.010827794 0.0096724564          260 
 3880000   0.64029075   -8.8525534    503.90346  0.010822669 0.0096688089          273 
 3881000   0.64129841   -8.8540871    503.64747  0.010814384 0.0096651644          298 
 3882000   0.62687993    -8.848107    502.95209   0.01079667 0.0096615165          270 
 3883000   0.63408311   -8.8503467    504.06581  0.010817791  0.009657872          285 
 3884000   0.63129669   -8.8397839    504.04079  0.010814469 0.0096542254          297 
 3885000   0.62983307   -8.8271974    503.46716  0.010799381 0.0096505828          293 
 3886000   0.62774028   -8.8477635    502.89317  0.010784293 0.0096469444          302 
 3887000   0.61640657   -8.8513456    503.31881  0.010790644 0.0096433015          354 
 3888000   0.63556423   -8.8459599    503.54931  0.010792809 0.0096396652          304 
 3889000   0.62716702   -8.8408467    503.89569  0.010797456 0.0096360265          355 
 3890000    0.6431323   -8.8494182    504.06912  0.010798396 0.0096323965          295 
 3891000   0.63885521   -8.8346541    504.47396  0.010804291 0.0096287704          349 
 3892000   0.63636091   -8.8381747      504.255  0.010796827 0.0096251455          348 
 3893000    0.6353127   -8.8273125    503.74284   0.01078309 0.0096215226          334 
 3894000   0.63957385   -8.8404173    503.92097  0.010784133 0.0096179021          336 
 3895000   0.62258791   -8.8595656    503.66428  0.010775872 0.0096142794          346 
 3896000   0.62191653   -8.8683875    503.95777  0.010779384 0.0096106534          341 
 3897000   0.62327604   -8.8362149    504.31084  0.010784168  0.009607037          346 
 3898000   0.62751935   -8.8445431    504.22665  0.010779602 0.0096034183          280 
 3899000   0.63295181    -8.863113     504.1969  0.010776201 0.0095998009          337 
 3900000   0.61568321   -8.8521069    503.67686  0.010762326 0.0095961858          305 
 3901000   0.62649706   -8.8633246    502.57374  0.010736002 0.0095925682          338 
 3902000   0.63412031   -8.8454799    503.97661  0.010763211 0.0095889564          332 
 3903000   0.63885141   -8.8551114    502.97353  0.010739037 0.0095853471          284 
 3904000   0.60435236   -8.8514836    503.92274  0.010756548 0.0095817349          287 
 3905000    0.6364128   -8.8633161    504.20431  0.010759802 0.0095781248          305 
 3906000   0.63151772   -8.8373943    504.11348  0.010755109 0.0095745148          339 
 3907000   0.62649619   -8.8490493    503.91928  0.010748214 0.0095709048          282 
 3908000   0.62844667   -8.8569543     503.2573  0.010731348 0.0095672972          333 
 3909000   0.60537616   -8.8502267    503.28493  0.010729192 0.0095636939          285 
 3910000   0.63073983   -8.8587609    503.50674  0.010731175 0.0095600874          339 
 3911000   0.64568923   -8.8515386    503.30027  0.010724032 0.0095564849          364 
 3912000   0.63264984   -8.8582049    503.33977  0.010722132 0.0095528839          310 
 3913000   0.62250988   -8.8311032    503.67022  0.010726429 0.0095492865          316 
 3914000   0.62642514   -8.8461968    503.43703  0.010718724 0.0095456889          362 
 3915000   0.62737193   -8.8478825    504.00704  0.010728119 0.0095420936          360 
 3916000   0.64215901    -8.839076    503.62105  0.010717166 0.0095384977          296 
 3917000      0.61845   -8.8718602    503.58278  0.010713615 0.0095349057          310 
 3918000   0.62324322   -8.8423024    504.00115  0.010719779 0.0095313193          311 
 3919000   0.61740099   -8.8386129    503.52637  0.010706948 0.0095277402          312 
 3920000   0.63560011   -8.8532331    503.84027   0.01071089 0.0095241638          307 
 3921000   0.63756176   -8.8505907    503.08269  0.010692057 0.0095205832          300 
 3922000   0.64293929   -8.8555052    503.67393  0.010701894 0.0095170062          306 
 3923000   0.64252934    -8.844543    504.67953  0.010720527 0.0095134316          365 
 3924000   0.62241382    -8.853207    503.34658  0.010689487 0.0095098548          338 
 3925000   0.62749241   -8.8294668    504.79525  0.010717521 0.0095062824          382 
 3926000   0.62195306   -8.8512366    503.45494  0.010686342 0.0095027141          305 
 3927000   0.61657657   -8.8340721    504.10703  0.010697458 0.0094991432          371 
 3928000   0.62342967   -8.8454055    503.37104  0.010679121 0.0094955742          296 
 3929000   0.62989523    -8.844494    503.87646  0.010687123 0.0094920105          303 
 3930000   0.62141578   -8.8448659    502.83515  0.010662323 0.0094884479          325 
 3931000   0.62568774   -8.8601424    503.76504  0.010679323 0.0094848812          363 
 3932000   0.61569375   -8.8307996     503.9896  0.010681366 0.0094813174          383 
 3933000   0.61764866   -8.8593077    503.11234  0.010660063 0.0094777535          366 
 3934000   0.62463339    -8.843122    503.44904  0.010664486 0.0094741905          332 
 3935000   0.62700686   -8.8379586    503.64994   0.01066603 0.0094706342          342 
 3936000   0.61918726   -8.8542804    504.13314   0.01067355 0.0094670761          296 
 3937000   0.62020041   -8.8576991    503.28555  0.010652899 0.0094635184          346 
 3938000   0.62700074   -8.8609141    503.45552   0.01065379 0.0094599606          360 
 3939000   0.62705155   -8.8455829    502.96502  0.010640709  0.009456405          365 
 3940000    0.6222981   -8.8489034    503.22843  0.010643579 0.0094528554          387 
 3941000   0.61608148    -8.861609    503.25027   0.01064134 0.0094493009          326 
 3942000   0.61482161   -8.8502167    502.20162  0.010616473 0.0094457481          314 
 3943000   0.62139626   -8.8574341    502.91225  0.010628799 0.0094422009          312 
 3944000   0.61241684   -8.8521661     503.6334  0.010641341 0.0094386563          367 
 3945000   0.60450429   -8.8477352    503.37013  0.010633083 0.0094351116          293 
 3946000    0.6279846   -8.8616076    503.12277  0.010625164 0.0094315742          365 
 3947000   0.62184261   -8.8562243    502.63368  0.010612146 0.0094280302          312 
 3948000   0.63304883   -8.8652399    503.67678  0.010631475 0.0094244918          318 
 3949000   0.61782481   -8.8216509       504.74   0.01065122 0.0094209645          320 
 3950000    0.6154401   -8.8501437    503.96194  0.010632108 0.0094174327          300 
 3951000   0.61226064   -8.8414753    503.14674  0.010612224 0.0094138997          305 
 3952000   0.61404411   -8.8656798    503.64848  0.010620118  0.009410366          319 
 3953000   0.62202049    -8.862209    503.28765  0.010609825 0.0094068386          365 
 3954000   0.62267794   -8.8536698    503.46599    0.0106109 0.0094033076          313 
 3955000   0.61916667   -8.8632405    503.83837  0.010616063 0.0093997756          312 
 3956000   0.60875413   -8.8880886    503.45753  0.010605358 0.0093962474          296 
 3957000   0.60879636   -8.8547891    503.19178  0.010597081 0.0093927206          317 
 3958000   0.62237776    -8.887286    501.92031  0.010567633 0.0093891939          304 
 3959000   0.61730033   -8.8475807    503.04768  0.010588694 0.0093856709          361 
 3960000   0.62853537   -8.8778057    502.90202  0.010582955 0.0093821431          334 
 3961000   0.61526914   -8.8481795    503.86212  0.010600482 0.0093786167          359 
 3962000   0.61023851   -8.8635289    502.33262  0.010565637 0.0093750948          406 
 3963000   0.62457843   -8.8743754    502.72147  0.010571147 0.0093715785          350 
 3964000   0.61429182   -8.8722891    502.62911  0.010566539 0.0093680612          374 
 3965000   0.61695455   -8.8703748     503.1531  0.010574886 0.0093645458          419 
 3966000   0.62034247   -8.8934711    502.40297  0.010556458 0.0093610294          425 
 3967000   0.60642046    -8.884431    502.78901  0.010561907 0.0093575097          419 
 3968000   0.61727178   -8.8566547    503.68862  0.010578138 0.0093539959          404 
 3969000   0.60303771   -8.8791454    502.19845  0.010544185 0.0093504811          398 
 3970000   0.62016345   -8.8775615    503.32781  0.010565235 0.0093469696          383 
 3971000   0.60642221    -8.868614    503.71375  0.010570674 0.0093434599          398 
 3972000    0.6153185   -8.8896453    502.68809  0.010546494 0.0093399508          379 
 3973000   0.61718048   -8.8747881    503.51894  0.010561266 0.0093364381          407 
 3974000   0.61520961   -8.8629973     502.7005  0.010541446 0.0093329361          349 
 3975000   0.63060276   -8.8927867    502.86705  0.010542286 0.0093294326          426 
 3976000   0.61387019   -8.8820999    502.02753  0.010522039 0.0093259304          412 
 3977000   0.62394167   -8.8766791    502.40365  0.010527274 0.0093224306          395 
 3978000   0.61757276   -8.8627848    503.12677  0.010539776 0.0093189299          339 
 3979000   0.60912678   -8.8588428    503.41015  0.010543062 0.0093154323          417 
 3980000   0.62770995   -8.8505973    502.61267  0.010523716 0.0093119426          410 
 3981000   0.60145718   -8.8688451    502.65728  0.010522006 0.0093084519          406 
 3982000    0.6205656   -8.8817569    502.58081  0.010517764 0.0093049622          336 
 3983000   0.62480646   -8.8662118    502.44637   0.01051231 0.0093014793          424 
 3984000   0.61065008   -8.8869938    502.54058  0.010511642 0.0092979902          393 
 3985000   0.61087702    -8.865036    503.05515  0.010519765  0.009294508          380 
 3986000   0.60848311   -8.8636185    503.73449  0.010531328 0.0092910277          400 
 3987000   0.61150199   -8.8998592    502.74143  0.010507931  0.009287546          426 
 3988000   0.61715516   -8.8618023    502.98995  0.010510489 0.0092840641          447 
 3989000   0.62416873   -8.8812481    502.43489  0.010496258 0.0092805822          363 
 3990000   0.61220632   -8.8810048    502.55542  0.010496145 0.0092771061          327 
 3991000   0.60594357   -8.8682367    503.36524  0.010510424 0.0092736262          343 
 3992000   0.60827593   -8.8580841     502.7194  0.010494309 0.0092701502          427 
 3993000   0.60821158   -8.8729477    502.86398  0.010494699 0.0092666803          359 
 3994000   0.60435801   -8.8643281      502.486  0.010484185 0.0092632134          362 
 3995000   0.60827034   -8.8884029     502.1566  0.010474689 0.0092597473          416 
 3996000   0.60814641   -8.8872525     502.5413   0.01048009 0.0092562798          429 
 3997000   0.60857672   -8.8809136    502.50242  0.010476658 0.0092528164          402 
 3998000   0.60555532     -8.85331    502.74477  0.010479089  0.009249353          439 
 3999000   0.61659961    -8.879793    502.35311  0.010468307 0.0092458928          446 
 4000000   0.59030753   -8.8846204    502.67577  0.010472412 0.0092424336          418 
 4001000   0.62703182   -8.8827846    503.73445  0.010491845 0.0092389773          396 
 4002000   0.61018308   -8.8742425    503.41853  0.010482645  0.009235522          354 
 4003000   0.59342914   -8.8480615    503.98212  0.010491759 0.0092320704          437 
 4004000   0.61101802   -8.8775134    503.14766  0.010471771 0.0092286176          377 
 4005000   0.60494688   -8.8848827    501.97999   0.01044486 0.0092251658          403 
 4006000   0.62250588   -8.8804221    503.27623  0.010469218 0.0092217145          421 
 4007000   0.62472843   -8.8689702    502.88058  0.010458377 0.0092182658          406 
 4008000   0.61360056   -8.8741837    503.33435  0.010465202 0.0092148178          401 
 4009000   0.60102375   -8.8984255    503.52656  0.010466587 0.0092113709          451 
 4010000   0.62148513   -8.8601416    503.18072   0.01045679 0.0092079248          421 
 4011000    0.6267564   -8.9021429    502.61154  0.010442357 0.0092044812          344 
 4012000   0.60222713   -8.8894583    502.45444  0.010436491 0.0092010389          419 
 4013000   0.60734385   -8.8811751    502.26608  0.010429979 0.0091975931          422 
 4014000   0.61790442   -8.8726791    502.94149  0.010441403 0.0091941526          418 
 4015000    0.6162356   -8.8731308    503.22429  0.010444672  0.009190713          427 
 4016000    0.6082038   -8.8748996    503.55542  0.010448942 0.0091872697          349 
 4017000   0.60619344   -8.8837856    502.83649  0.010431427 0.0091838289          389 
 4018000   0.60431414   -8.8811759    502.25122  0.010416692 0.0091803907          412 
 4019000   0.60829535    -8.888023    501.49265  0.010398371 0.0091769548          406 
 4020000   0.62745623   -8.8631177    503.05771  0.010428228 0.0091735207          446 
 4021000   0.59713762   -8.8648497    502.76292  0.010419525  0.009170093          409 
 4022000    0.6075868   -8.8911367     502.7899  0.010417493 0.0091666633          408 
 4023000   0.61431547   -8.8982962    502.50391   0.01040898 0.0091632363          426 
 4024000   0.60268574    -8.884102    502.88856  0.010414359 0.0091598126          435 
 4025000   0.62156845   -8.8693349    502.09282  0.010395296 0.0091563858          428 
 4026000   0.61709771   -8.8827265     503.2689  0.010417058  0.009152961          412 
 4027000   0.61898815   -8.8791676    503.10861  0.010411154 0.0091495446          414 
 4028000   0.62089771   -8.8925403    502.16516  0.010389051 0.0091461269          436 
 4029000   0.60493699   -8.8904734     503.1315  0.010406459 0.0091427048          442 
 4030000   0.60600868   -8.8970357    502.99628  0.010401081  0.009139282          438 
 4031000   0.61532358   -8.9044516    502.67358  0.010391829 0.0091358637          405 
 4032000   0.61348838   -8.8845902    502.62468  0.010388242 0.0091324473          437 
 4033000    0.5939804     -8.92088     502.6875  0.010386964 0.0091290347          446 
 4034000   0.61738614   -8.9082217     502.1835  0.010373978  0.009125615          364 
 4035000   0.61445093   -8.8895695    502.57965  0.010379588 0.0091222023          379 
 4036000   0.60233477   -8.9072711    502.97616  0.010385203 0.0091187892          445 
 4037000   0.59859202    -8.904305    501.83345  0.010359042 0.0091153788          431 
 4038000   0.60242444   -8.8973462    502.54532  0.010371168 0.0091119748          417 
 4039000   0.59206191    -8.869957     503.0348  0.010378699 0.0091085778          431 
 4040000   0.60856706   -8.8934258    502.72232  0.010369685 0.0091051772          410 
 4041000   0.60694686   -8.8756697     502.6755  0.010366153 0.0091017831          419 
 4042000   0.60523964    -8.894535    502.75532  0.010365234 0.0090983821          423 
 4043000   0.60850241   -8.8707055    502.49848  0.010357377 0.0090949831          430 
 4044000   0.61765878   -8.8803478    502.70079  0.010358984 0.0090915918          336 
 4045000   0.60310507   -8.8938137    502.63398  0.010355047  0.009088202          425 
 4046000   0.61316912   -8.8823539     501.9811  0.010339041 0.0090848084          426 
 4047000   0.59662069   -8.8973801    502.85332  0.010354446 0.0090814153          413 
 4048000   0.60870069    -8.885248    502.80731  0.010350941 0.0090780229          373 
 4049000    0.5988623   -8.8947285    502.44404  0.010340908 0.0090746337          454 
 4050000   0.61256627   -8.9097358     501.9636  0.010328469 0.0090712474          409 
 4051000   0.59759533   -8.8984919    502.58139  0.010338628 0.0090678627          378 
 4052000   0.60347886   -8.8723072    502.58378  0.010336126 0.0090644768          407 
 4053000   0.60715065   -8.9104781    502.35104   0.01032879 0.0090610929          456 
 4054000   0.60031281   -8.9131347    501.71215   0.01031311  0.009057706          439 
 4055000   0.60585847    -8.910849    503.15856  0.010340291 0.0090543208          432 
 4056000   0.60860756   -8.8800116    502.13452  0.010316702 0.0090509387          406 
 4057000   0.60362232   -8.8822769    502.35634  0.010318715 0.0090475607          437 
 4058000   0.60048519   -8.9072252    502.22577  0.010313491 0.0090441824          424 
 4059000   0.60358447   -8.9016177    502.62262  0.010319098 0.0090408067          349 
 4060000   0.60424677   -8.8829546       502.42  0.010312397 0.0090374333          436 
 4061000   0.59981414   -8.8906564    502.88171  0.010319332   0.00903406          423 
 4062000   0.59247316    -8.892602    503.29561  0.010325283 0.0090306897          457 
 4063000   0.59410608   -8.9058223     502.1046  0.010298314 0.0090273163          453 
 4064000    0.6075353   -8.8975423    502.65284  0.010307022 0.0090239447          405 
 4065000   0.60513911   -8.8987135    502.28754  0.010296997 0.0090205782          390 
 4066000   0.59657099   -8.9093833    502.08161  0.010290245 0.0090172064          457 
 4067000   0.60211754   -8.9262541    502.41669   0.01029458 0.0090138403          442 
 4068000    0.6115137   -8.9063993    502.46568  0.010293053  0.009010474          446 
 4069000   0.60997718   -8.9047958    502.08205  0.010282667 0.0090071078          424 
 4070000   0.58531917   -8.9080699    502.83808   0.01029562 0.0090037459          410 
 4071000   0.60413273   -8.9110207    502.26678  0.010281396 0.0090003841          359 
 4072000   0.60687462   -8.9260383    502.49818  0.010283607 0.0089970215          420 
 4073000   0.59772112   -8.9076008    502.17825  0.010274536 0.0089936609          420 
 4074000   0.58910208   -8.9052245     502.9763  0.010288339 0.0089903064          368 
 4075000   0.59920638   -8.9056246    501.57011  0.010257058 0.0089869504          450 
 4076000   0.60553484   -8.9108043    502.63237  0.010276259 0.0089836006          426 
 4077000   0.60486832   -8.9087486    502.71076  0.010275341  0.008980249          431 
 4078000   0.58413627   -8.9141556    502.17325  0.010261837 0.0089768995          438 
 4079000   0.61007903   -8.9020209       502.28  0.010261502 0.0089735488          448 
 4080000   0.59239955     -8.90137    502.41843  0.010261814 0.0089702035          412 
 4081000   0.59008693   -8.9405816    501.70416  0.010244715 0.0089668553          446 
 4082000   0.59118442   -8.9225293    502.76028  0.010263765 0.0089635114          423 
 4083000   0.59722399   -8.9119468    502.35875  0.010253056 0.0089601671          429 
 4084000   0.60697953   -8.8963897    501.88421  0.010240863 0.0089568243          417 
 4085000    0.5928691     -8.91748    502.13613  0.010243495 0.0089534829          412 
 4086000   0.59966693   -8.9334944    501.60342  0.010230124 0.0089501408          416 
 4087000   0.60375569    -8.921879    502.06933   0.01023712 0.0089468004          446 
 4088000   0.59968161   -8.9046548    502.17692  0.010236809 0.0089434612          436 
 4089000   0.61192883   -8.9203079    503.95291    0.0102705 0.0089401262          456 
 4090000   0.58932869   -8.9073688    501.70342  0.010222156 0.0089367913          448 
 4091000   0.61584891    -8.880677    501.89359  0.010223531 0.0089334589          444 
 4092000   0.61613927   -8.9101436     502.3256  0.010229831 0.0089301288          450 
 4093000   0.60477014   -8.9165292    501.78866  0.010216399  0.008926797          452 
 4094000   0.60932943    -8.905987    502.48936  0.010228166  0.008923464          440 
 4095000   0.59473479   -8.9181753    501.82709  0.010212191  0.008920136          364 
 4096000    0.6050334   -8.9290677     501.8471  0.010210105 0.0089168027          370 
 4097000   0.58839881   -8.9230501    501.18059  0.010194056 0.0089134753          422 
 4098000   0.59554883   -8.9166928    501.12363  0.010190411 0.0089101508          417 
 4099000   0.59829786   -8.9177049    501.90243  0.010203758 0.0089068295          446 
 4100000   0.59100953    -8.914776     501.3125  0.010189279 0.0089035103          455 
 4101000   0.59065487   -8.9150332    501.22834  0.010185084 0.0089001896          427 
 4102000   0.59058227   -8.9113203    502.04663  0.010199225 0.0088968693          434 
 4103000   0.58978715   -8.9339161    502.23308  0.010200526  0.008893547          402 
 4104000   0.58542647   -8.9221457    502.02721   0.01019386 0.0088902301          467 
 4105000   0.59420864   -8.9320813    502.96366  0.010210387 0.0088869176          472 
 4106000   0.60021811   -8.9062461     502.2506  0.010193428 0.0088836081          415 
 4107000   0.60757819   -8.9406687    501.19793  0.010169587 0.0088802983          441 
 4108000   0.58964619   -8.9337565    501.89972  0.010181348 0.0088769875          471 
 4109000   0.59305268   -8.9297023    501.53863  0.010171547 0.0088736783          433 
 4110000   0.59318799   -8.9340481    502.26738  0.010183848 0.0088703705          376 
 4111000   0.59347189   -8.9157504    500.25746  0.010140628 0.0088670625          352 
 4112000    0.6068204   -8.9422392    501.51435  0.010163634 0.0088637596          458 
 4113000   0.60068165   -8.9331809    501.86549  0.010168277 0.0088604571          446 
 4114000   0.59524213    -8.914284    501.79192  0.010164315 0.0088571551          443 
 4115000   0.59987699   -8.9286854    502.11302  0.010168348 0.0088538584          436 
 4116000   0.58101813   -8.9182751    501.87705    0.0101611 0.0088505665          431 
 4117000   0.59300913   -8.9276392    501.79507  0.010156972 0.0088472747          433 
 4118000   0.59460439   -8.9339731    501.43985  0.010147318 0.0088439791          424 
 4119000   0.60014301   -8.9317578    501.68305  0.010149775 0.0088406834          437 
 4120000   0.57329334   -8.9364412    502.13381  0.010156428 0.0088373881          428 
 4121000   0.59599397   -8.9302262    502.22285  0.010155764 0.0088340975          407 
 4122000   0.58832954   -8.9381254     502.0806  0.010150425 0.0088308092          434 
 4123000   0.60068226   -8.9554417    500.50312  0.010116079 0.0088275191          357 
 4124000   0.59887503   -8.9323612     501.9337  0.010142533 0.0088242266          355 
 4125000   0.58903999   -8.9295289    502.09244  0.010143282 0.0088209387          418 
 4126000   0.58236563   -8.9275599    501.98429  0.010138639 0.0088176482          442 
 4127000   0.58708341   -8.9136983    501.39563  0.010124296 0.0088143628          440 
 4128000   0.59622631   -8.9139021    502.48089  0.010143752 0.0088110756          436 
 4129000   0.57776425   -8.9456024    501.68013  0.010125134 0.0088077919          373 
 4130000   0.58800266   -8.9179456    502.26785  0.010134541 0.0088045088          418 
 4131000   0.59649586   -8.9160559    502.11914  0.010129088 0.0088012306          437 
 4132000   0.59519789   -8.9356737    501.22536  0.010108611 0.0087979523          426 
 4133000   0.58837585   -8.9326569    502.10901  0.010123982 0.0087946752          439 
 4134000   0.58861562    -8.934283    501.02908  0.010099764 0.0087914042          449 
 4135000   0.59810497   -8.9303545    501.55075  0.010107834 0.0087881346          429 
 4136000   0.58812902   -8.9388021    500.83533  0.010090976 0.0087848623          435 
 4137000   0.58556657   -8.9269652    500.69357  0.010085682 0.0087815928          371 
 4138000   0.57207072   -8.9218719    501.29092  0.010095274 0.0087783278          437 
 4139000   0.58904862   -8.9403198    501.56292  0.010098311 0.0087750629          420 
 4140000    0.5884655   -8.9436827    502.08236  0.010106328 0.0087717966          398 
 4141000   0.59146776   -8.8950867    501.59303   0.01009404 0.0087685341          443 
 4142000   0.58881832   -8.9502334    502.45506  0.010108946 0.0087652702          433 
 4143000   0.58715762   -8.9400297    501.02924  0.010077827 0.0087620128          417 
 4144000   0.59530346   -8.9518345    502.00412  0.010094999 0.0087587574          387 
 4145000   0.58872038   -8.9345589     501.2789  0.010077984 0.0087555017          382 
 4146000   0.57386489   -8.9296805     501.9061  0.010088159 0.0087522441          439 
 4147000    0.5902063   -8.9124894     501.7552  0.010082694 0.0087489935          454 
 4148000   0.58037214   -8.9206322    502.01093  0.010085401 0.0087457452          412 
 4149000   0.58839576   -8.9386022    501.07991  0.010064271 0.0087424932          436 
 4150000   0.60203725   -8.9452737    501.29219  0.010066108  0.008739245          406 
 4151000   0.58304203   -8.9458388    501.36616  0.010065168 0.0087359986          429 
 4152000   0.58401997   -8.9146159    502.85145  0.010092555 0.0087327566          407 
 4153000    0.5899001   -8.9504072    502.39516  0.010080969 0.0087295138          428 
 4154000   0.57848283     -8.92464    502.31978   0.01007703 0.0087262679          446 
 4155000    0.5840471   -8.9357541    501.35304  0.010055215 0.0087230228          451 
 4156000   0.59454909   -8.9266909     502.0296  0.010066362 0.0087197875          414 
 4157000   0.59029395   -8.9529408    501.83788  0.010060097 0.0087165493          435 
 4158000   0.57738817   -8.9531936    502.36193   0.01006818 0.0087133102          403 
 4159000    0.5733644   -8.9350956    502.28417  0.010064202 0.0087100731          459 
 4160000    0.5901574   -8.9400297    501.51981  0.010046471 0.0087068372          430 
 4161000   0.57950765    -8.952899    501.36775  0.010041011 0.0087036074          405 
 4162000   0.58156675   -8.9362248    501.16828  0.010034604 0.0087003738          415 
 4163000   0.58454485   -8.9396693    500.89271  0.010026678  0.008697138          444 
 4164000   0.58575604   -8.9596002    500.92498  0.010024916  0.008693904          389 
 4165000   0.59411362    -8.942652    501.39416  0.010031896 0.0086906756          452 
 4166000   0.57292712   -8.9394926    500.75499  0.010016702 0.0086874485          398 
 4167000   0.58370596   -8.9511778    501.16713  0.010022541 0.0086842212          460 
 4168000   0.58644173    -8.945744    501.83545  0.010033498 0.0086809998          356 
 4169000   0.58787498   -8.9545911    500.77833  0.010009961 0.0086777744          443 
 4170000   0.58662023   -8.9272169    501.06203   0.01001323 0.0086745531          459 
 4171000   0.57891035   -8.9626509    501.75267  0.010024628 0.0086713288          426 
 4172000    0.5814012   -8.9512204    502.08883  0.010028939 0.0086681171          413 
 4173000   0.57580518   -8.9394503    501.14967  0.010007782 0.0086649011          391 
 4174000   0.57583955   -8.9474936     500.6811 0.0099960289 0.0086616853          379 
 4175000    0.5836124   -8.9424939    501.39178   0.01000782 0.0086584714          423 
 4176000   0.58108202   -8.9465581    500.85421 0.0099946962  0.008655259          371 
 4177000   0.58848229   -8.9387435    500.54754 0.0099861851 0.0086520475          370 
 4178000   0.57707068   -8.9435548    500.94458 0.0099917142 0.0086488381          399 
 4179000   0.57072186   -8.9566859     501.8314  0.010007007 0.0086456291          397 
 4180000   0.57618242   -8.9499243    500.63403 0.0099807422 0.0086424186          391 
 4181000   0.58619771   -8.9380145     501.1297 0.0099882345 0.0086392128          388 
 4182000   0.57822493   -8.9471387    501.06801 0.0099846168 0.0086360107          380 
 4183000   0.58259408   -8.9267042      501.342 0.0099876882 0.0086328109          436 
 4184000   0.57827819   -8.9271785    501.49426 0.0099883337 0.0086296092          438 
 4185000   0.59547003   -8.9297666     501.3004 0.0099820868 0.0086264127          407 
 4186000   0.59163852   -8.9448572    502.39775  0.010001548 0.0086232166          423 
 4187000    0.5731562   -8.9633412    501.12205 0.0099737689 0.0086200203          436 
 4188000   0.58282531   -8.9480843    502.02281 0.0099893109 0.0086168267          429 
 4189000   0.57557273   -8.9333752    501.53853 0.0099772924 0.0086136333          438 
 4190000   0.58187019   -8.9558319    501.57665 0.0099756693 0.0086104425          390 
 4191000   0.58704292   -8.9452676    501.98502  0.009981409 0.0086072513          431 
 4192000   0.57658361   -8.9532648    501.53701 0.0099701219 0.0086040636          428 
 4193000   0.58096425   -8.9558949    500.82455 0.0099535844 0.0086008799          434 
 4194000   0.58779668   -8.9454383    501.13906 0.0099574603 0.0085976933          463 
 4195000   0.57713603   -8.9717519    500.56972 0.0099437768 0.0085945115          413 
 4196000   0.57348591   -8.9460377    501.64237 0.0099627099  0.008591332          410 
 4197000   0.57619508   -8.9731312    501.26489 0.0099528412 0.0085881533          439 
 4198000   0.57329603    -8.947077    501.53826 0.0099558968 0.0085849752          461 
 4199000   0.58626479   -8.9553643    502.00937 0.0099628756 0.0085818002          418 
 4200000   0.58640772   -8.9400072    501.67222 0.0099538139 0.0085786245          457 
 4201000   0.57600128   -8.9704765     501.9421 0.0099567979 0.0085754509          465 
 4202000   0.57893271    -8.942838    501.37482 0.0099431783 0.0085722781          432 
 4203000   0.56708144   -8.9449682     501.6939 0.0099471389 0.0085691054          424 
 4204000   0.59271255    -8.966929    501.58466 0.0099426074 0.0085659344          446 
 4205000   0.57958058   -8.9556417    501.40967  0.009936775  0.008562763          426 
 4206000   0.57982084   -8.9616238    501.35309 0.0099332915 0.0085595985          438 
 4207000   0.57832994   -8.9346563    501.83593 0.0099404946 0.0085564323          428 
 4208000    0.5746469   -8.9395603    501.43116 0.0099301165 0.0085532642          435 
 4209000   0.57219943   -8.9608006    500.02906 0.0098999972 0.0085500995          441 
 4210000   0.58726598   -8.9558586    501.54213 0.0099275956 0.0085469346          444 
 4211000    0.5846542   -8.9534397     500.4237 0.0099031049 0.0085437716          438 
 4212000   0.57031522   -8.9509059    501.31725 0.0099184325  0.008540611          442 
 4213000   0.59185389   -8.9402616    500.19621  0.009893904 0.0085374521          437 
 4214000   0.57951001    -8.948818    500.72356 0.0099019846 0.0085342946          437 
 4215000   0.56867163   -8.9398984    501.57962 0.0099165604 0.0085311389          443 
 4216000   0.57467564   -8.9466668    501.05163  0.009903772 0.0085279843          440 
 4217000   0.58085543   -8.9536237    501.25886 0.0099055185 0.0085248366          427 
 4218000   0.57290626   -8.9456502    501.26002 0.0099031931 0.0085216859          440 
 4219000   0.59061139   -8.9553382    500.90485 0.0098938305 0.0085185342          420 
 4220000   0.57030021   -8.9503313     501.4084 0.0099014298 0.0085153845          423 
 4221000   0.57364712   -8.9517067    500.91925 0.0098894268 0.0085122403          437 
 4222000   0.57394533   -8.9695102    500.77178 0.0098841738 0.0085090947          460 
 4223000   0.56786397    -8.936617    501.04408 0.0098872066   0.00850595          450 
 4224000   0.57541105   -8.9451176    501.46526 0.0098931751 0.0085028079          466 
 4225000   0.56602449   -8.9395171    502.40487 0.0099093663 0.0084996659          447 
 4226000   0.56987963   -8.9606313    501.37607 0.0098867344 0.0084965252          465 
 4227000   0.58083081   -8.9415609    501.56966 0.0098882119 0.0084933863          414 
 4228000   0.58979985   -8.9603941    500.44597 0.0098637254 0.0084902495          438 
 4229000   0.58084708   -8.9585257    500.61271 0.0098646785 0.0084871167          433 
 4230000   0.57195658   -8.9506151    500.83685 0.0098667623 0.0084839806          381 
 4231000   0.57703302   -8.9535088    501.48537 0.0098772034 0.0084808462          452 
 4232000   0.56778545   -8.9741301     502.1264  0.009887492 0.0084777141          464 
 4233000   0.57516358   -8.9560528    500.38323 0.0098508393 0.0084745833          460 
 4234000   0.58067976   -8.9578774    500.51127 0.0098510327 0.0084714547          458 
 4235000   0.57496959   -8.9623299    500.80789 0.0098545433 0.0084683295          449 
 4236000   0.57487585   -8.9647455    501.08585 0.0098576851 0.0084652057          455 
 4237000   0.58522066   -8.9564362    501.44402 0.0098624031  0.008462082          453 
 4238000    0.5706675   -8.9700801    501.79832 0.0098670427 0.0084589592          447 
 4239000   0.56849457   -8.9575309    501.32227 0.0098553565  0.008455839          449 
 4240000   0.56142573   -8.9500683    501.35543 0.0098536838 0.0084527211          428 
 4241000    0.5761055   -8.9508829    500.88148 0.0098420475 0.0084496043          453 
 4242000   0.57421355   -8.9412505    500.75794 0.0098373004 0.0084464839          456 
 4243000   0.56589457    -8.948895    501.12207 0.0098421335 0.0084433665          433 
 4244000   0.58473704    -8.968144    501.41989 0.0098456623 0.0084402475          393 
 4245000   0.57076621   -8.9394638    500.90157 0.0098331678 0.0084371336          466 
 4246000   0.56902704   -8.9504313    500.31239 0.0098192885 0.0084340224          444 
 4247000   0.56729752   -8.9652301    500.80918 0.0098267243 0.0084309134          387 
 4248000   0.56315449   -8.9485729    501.14688 0.0098310359 0.0084278088          401 
 4249000   0.57593482   -8.9373135    501.59771 0.0098375639  0.008424704          458 
 4250000   0.57777315   -8.9769508    501.30111 0.0098294335 0.0084215976          434 
 4251000   0.56119263   -8.9603225    500.32676 0.0098080209 0.0084184916          395 
 4252000   0.57938112   -8.9451907    501.09705 0.0098208107 0.0084153865          436 
 4253000    0.5752849   -8.9753808    500.35316  0.009803926 0.0084122822          469 
 4254000   0.56423272   -8.9623545    501.59718 0.0098259908 0.0084091811          438 
 4255000   0.57303417   -8.9673507    500.56764 0.0098035182  0.008406081          440 
 4256000   0.57284388   -8.9760868    500.73388 0.0098044699  0.008402984          462 
 4257000   0.57059687   -8.9561566    501.03676 0.0098080957 0.0083998857          459 
 4258000   0.56735807   -8.9820549    500.54407 0.0097961498 0.0083967859          459 
 4259000   0.55743307   -8.9581701    500.92274  0.009801259 0.0083936912          455 
 4260000   0.57160577   -8.9449811    501.11106 0.0098026421 0.0083905982          460 
 4261000   0.56548228   -8.9620459    501.31382 0.0098043068 0.0083875037          459 
 4262000     0.579506   -8.9664945    501.02118 0.0097962845 0.0083844121          453 
 4263000   0.56713217   -8.9472048    500.67001 0.0097871219 0.0083813193          449 
 4264000    0.5813215   -8.9656575    500.04755 0.0097726616 0.0083782321          444 
 4265000   0.57076781   -8.9902676    500.46709 0.0097785676 0.0083751455          451 
 4266000   0.55897909   -8.9590863    500.49606 0.0097768413 0.0083720547          445 
 4267000   0.56760896   -8.9677324     500.4981 0.0097745898 0.0083689686          373 
 4268000   0.56839014   -8.9697385    500.56143 0.0097735362 0.0083658872          460 
 4269000   0.57329378   -8.9853517    499.84869 0.0097573337 0.0083628034          475 
 4270000   0.58158264   -8.9635234    501.21041 0.0097816239  0.008359723          473 
 4271000   0.57276674   -8.9854872    499.80807  0.009751972 0.0083566435          444 
 4272000   0.57632684   -8.9722484    500.72835 0.0097676411 0.0083535653          452 
 4273000   0.56058573   -8.9797803    500.99088 0.0097704751 0.0083504886          462 
 4274000   0.58116633   -8.9747939    500.19176 0.0097526081 0.0083474138          466 
 4275000   0.57292385   -8.9731899    501.85895 0.0097828255 0.0083443395          471 
 4276000   0.56065406   -8.9670999    500.90111 0.0097618707 0.0083412688          454 
 4277000   0.56815253   -8.9430267    500.81795 0.0097579681 0.0083382027          454 
 4278000   0.56565685   -8.9676615    500.65409 0.0097524951 0.0083351356          481 
 4279000   0.55473255   -8.9548547    501.33013 0.0097633818 0.0083320683          460 
 4280000   0.57796827    -8.969126    500.76892 0.0097501737 0.0083290025          448 
 4281000   0.57158133   -8.9710413    501.16163 0.0097555406 0.0083259362          413 
 4282000    0.5652862   -8.9755589    500.65192 0.0097433426 0.0083228728          469 
 4283000    0.5714185    -8.980485     500.1778  0.009731843  0.008319815          450 
 4284000   0.56705588   -8.9662288    500.87997   0.00974323 0.0083167549          478 
 4285000   0.57331173   -8.9875003    499.55314 0.0097151524 0.0083136933          478 
 4286000   0.55801104   -8.9621397    500.38602 0.0097290796 0.0083106359          449 
 4287000   0.57144248   -8.9573898    501.69329 0.0097522217 0.0083075788          439 
 4288000   0.56096293   -8.9823113    500.92802 0.0097350751 0.0083045225          446 
 4289000   0.57876797   -8.9695717    501.60919 0.0097460401 0.0083014659          483 
 4290000   0.55572704   -8.9808493    500.26445 0.0097176467 0.0082984128          468 
 4291000    0.5560552     -8.97632    500.79602 0.0097257053  0.008295358          459 
 4292000   0.55448985   -8.9779124    500.76424 0.0097228222 0.0082923057          450 
 4293000   0.55795563   -8.9687738    500.63858 0.0097181183 0.0082892555          442 
 4294000   0.55830411   -8.9984621    501.53641 0.0097332792  0.008286206          441 
 4295000   0.55843274   -8.9683239    500.24659 0.0097059874 0.0082831601          475 
 4296000   0.56876401    -8.965505    500.70111 0.0097125447 0.0082801158          448 
 4297000   0.56734161   -8.9765577    500.30256 0.0097025553 0.0082770751          455 
 4298000   0.56195775   -8.9660884    500.76538 0.0097092713 0.0082740327          441 
 4299000   0.54950818   -8.9759009    500.41493 0.0097002196 0.0082709932          404 
 4300000   0.56776059    -8.973347    500.60493 0.0097016459 0.0082679566          452 
 4301000   0.56302569   -8.9905163    500.58561  0.009699016 0.0082649174          437 
 4302000   0.56472017   -8.9697998    501.84877 0.0097212298 0.0082618837          459 
 4303000   0.56705603   -8.9645815    501.17032 0.0097058315 0.0082588498          410 
 4304000   0.55330921     -8.98058    501.24447 0.0097050122 0.0082558184          449 
 4305000   0.56933553   -8.9853961      501.001 0.0096980448 0.0082527878          430 
 4306000   0.55468625   -8.9693193    500.05702  0.009677524 0.0082497561          429 
 4307000   0.55851376   -8.9821992    500.92055  0.009691985 0.0082467264          452 
 4308000   0.56904189   -8.9718852    500.57183 0.0096829896  0.008243699          432 
 4309000   0.55899027   -8.9876382    499.92429 0.0096682193  0.008240673          477 
 4310000   0.55390521   -8.9802842    500.03202 0.0096680591 0.0082376502          477 
 4311000   0.56930127    -8.980428    501.66059 0.0096972974 0.0082346259          423 
 4312000   0.56200035   -8.9883236    500.76268 0.0096776956 0.0082316043          421 
 4313000   0.57481591   -8.9899814    500.44757 0.0096693633 0.0082285833          444 
 4314000   0.55647228   -8.9766332    501.24776 0.0096825793 0.0082255654          451 
 4315000   0.56839369    -8.979859    500.50811 0.0096660507 0.0082225448          449 
 4316000   0.55613018   -8.9871643    500.69716 0.0096674614 0.0082195279          470 
 4317000   0.57836838   -8.9902728    500.05513 0.0096528285  0.008216511          377 
 4318000   0.57107486   -8.9813453    501.02679 0.0096693451 0.0082134988          391 
 4319000   0.56343547   -8.9716813    501.02933 0.0096671554 0.0082104884          450 
 4320000   0.55533929   -8.9984838    500.42891 0.0096533355 0.0082074764          474 
 4321000   0.54464014   -8.9948437     500.8564 0.0096593459 0.0082044655          435 
 4322000   0.55652756    -8.986108    500.29872 0.0096463581 0.0082014549          440 
 4323000   0.56652755   -8.9824774    500.24706 0.0096431309 0.0081984445          430 
 4324000   0.56725029   -8.9927042     499.5939 0.0096283129 0.0081954388          464 
 4325000   0.55602753   -8.9779463    500.36916 0.0096410244 0.0081924353          474 
 4326000   0.55497969   -8.9922657    500.49338 0.0096411885 0.0081894295          496 
 4327000   0.56684464   -8.9823445     500.0432 0.0096302904 0.0081864257          443 
 4328000   0.56677164   -8.9883142    499.94972 0.0096262654 0.0081834258          433 
 4329000   0.56485618    -8.965771    500.17927 0.0096284605 0.0081804278          453 
 4330000   0.55899132   -8.9933443     500.2578 0.0096277483 0.0081774289          441 
 4331000   0.55623737   -8.9725363    499.11351 0.0096035079 0.0081744333          477 
 4332000   0.56715894   -8.9934934    499.76074 0.0096137416 0.0081714379          469 
 4333000   0.55014988   -8.9816351    500.23602 0.0096206634 0.0081684461          479 
 4334000   0.55029369   -8.9884868    500.60336 0.0096255068 0.0081654548          459 
 4335000   0.56079849   -8.9878962    500.05692  0.009612782 0.0081624636          455 
 4336000   0.55216498   -8.9990197    500.27068 0.0096146733  0.008159474          392 
 4337000   0.54401186   -8.9802173    500.30578 0.0096131308 0.0081564843          422 
 4338000   0.56016853   -8.9753319    499.65041  0.009598325 0.0081534957          448 
 4339000   0.55593035   -8.9874312    500.76976 0.0096176108 0.0081505115          475 
 4340000   0.56144763   -8.9874362    500.37455 0.0096078063 0.0081475288          454 
 4341000   0.56920978    -8.967817    500.21214 0.0096024751 0.0081445465          418 
 4342000   0.56147345   -8.9807555    499.82183 0.0095927726 0.0081415665          399 
 4343000   0.55036367   -9.0012074    500.98805 0.0096129413  0.008138586          421 
 4344000   0.56925449   -8.9936164    500.13365  0.009594338 0.0081356056          460 
 4345000   0.55090054   -8.9776942    500.50769 0.0095993035 0.0081326266          458 
 4346000   0.54937011   -8.9816695    500.44129 0.0095958216 0.0081296499          448 
 4347000   0.55523438   -8.9849524    499.97679 0.0095847097 0.0081266732          468 
 4348000   0.56299556   -8.9926323    500.40565 0.0095907246 0.0081236992          455 
 4349000   0.55458187   -8.9966158    500.14647  0.009583553 0.0081207267          438 
 4350000   0.55633123   -8.9808544    500.63031  0.009590619 0.0081177537          454 
 4351000   0.56330071   -8.9947955    500.50962 0.0095861032 0.0081147845          450 
 4352000   0.56584382     -8.99419    499.65626   0.00956756 0.0081118116          425 
 4353000   0.56476012   -8.9801228    500.23727  0.009576485 0.0081088403          478 
 4354000   0.55593625   -9.0072006    500.27024 0.0095749166 0.0081058718          416 
 4355000   0.55941546   -8.9958149    500.67944  0.009580548 0.0081029065          454 
 4356000   0.56178593   -8.9896978    500.66091 0.0095779942 0.0080999409          466 
 4357000   0.55043974   -9.0099352    499.97742 0.0095627232 0.0080969734          440 
 4358000   0.54480059   -8.9934164    500.17077 0.0095642261 0.0080940129          448 
 4359000   0.55879531   -8.9895512     500.6742 0.0095716563 0.0080910535          425 
 4360000   0.56735985   -9.0049109    500.20559 0.0095605044 0.0080880969          465 
 4361000   0.53796849   -8.9864361    499.32609 0.0095415059 0.0080851392          474 
 4362000   0.55650214   -8.9977963    500.64826 0.0095645779 0.0080821821          434 
 4363000    0.5610698   -8.9918244    499.88617 0.0095478296 0.0080792291          451 
 4364000   0.56230376   -9.0004367    499.89232 0.0095457592 0.0080762766          400 
 4365000   0.55016273   -8.9936242    499.87711  0.009543282 0.0080733227          463 
 4366000   0.54994174   -9.0071599    499.53225 0.0095345139 0.0080703722          474 
 4367000   0.55952685   -8.9992845    499.80528 0.0095375407 0.0080674204          462 
 4368000   0.54860702   -8.9992565    499.79222 0.0095351081 0.0080644752          460 
 4369000   0.54792046   -8.9911954    500.14002 0.0095395593 0.0080615284          492 
 4370000   0.54819286   -9.0074707    499.80144 0.0095309198 0.0080585839          498 
 4371000   0.54602208   -8.9994345     500.4477 0.0095410604  0.008055642          470 
 4372000   0.56686049   -9.0027042    499.76838 0.0095259298 0.0080527008          404 
 4373000   0.54955935   -9.0153464    499.93563 0.0095269386 0.0080497643          431 
 4374000   0.55573569   -8.9984535    500.40391 0.0095336823 0.0080468257          471 
 4375000   0.55717816   -9.0040417     499.2418 0.0095093676 0.0080438873          473 
 4376000   0.54523454   -9.0106059    500.03429 0.0095222861 0.0080409483          481 
 4377000   0.55305227   -9.0049684    499.54675 0.0095108284 0.0080380104          457 
 4378000   0.56037032   -9.0209937    500.26995 0.0095224218 0.0080350738          467 
 4379000   0.55152912   -8.9974195    499.50429 0.0095056765 0.0080321398          453 
 4380000   0.54241659   -9.0165818    499.42463 0.0095019906  0.008029207          483 
 4381000   0.55240102   -8.9956188    500.23166 0.0095151727 0.0080262742          416 
 4382000   0.53975752   -9.0222593    499.05157 0.0094905593 0.0080233436          448 
 4383000    0.5589539   -8.9831018    500.26094 0.0095113875 0.0080204131          468 
 4384000   0.56711179    -9.016038    499.73563 0.0094992327 0.0080174838          468 
 4385000   0.56242667   -8.9979389    500.37203 0.0095091605 0.0080145586          460 
 4386000   0.55517815   -8.9972431    498.85392 0.0094781487 0.0080116351          443 
 4387000   0.56187249   -8.9963741    499.37096 0.0094858096 0.0080087134          480 
 4388000   0.54664727   -9.0165395    499.69846 0.0094898674 0.0080057916          477 
 4389000   0.55284484   -9.0125625    499.57187 0.0094853016 0.0080028703          453 
 4390000   0.54613734   -9.0054493      499.623 0.0094841116 0.0079999494          442 
 4391000   0.54790237   -8.9953104    500.20428 0.0094929834 0.0079970319          451 
 4392000   0.55437614   -8.9984142    499.63912 0.0094800986 0.0079941147          482 
 4393000   0.56261023   -9.0014975    499.57329 0.0094766919 0.0079911971          466 
 4394000   0.55098809   -9.0020019    500.24277 0.0094872321  0.007988284          416 
 4395000   0.54153887   -9.0099396    499.66313 0.0094740829 0.0079853687          467 
 4396000    0.5473976   -9.0240757    499.41775 0.0094672761 0.0079824577          463 
 4397000   0.55434316   -9.0077286    499.32229 0.0094633138 0.0079795453          386 
 4398000   0.56071288   -9.0128496    500.14349 0.0094767222 0.0079766348          443 
 4399000   0.55391747    -9.010607    499.80187 0.0094680964 0.0079737254          451 
 4400000   0.54846723   -9.0023386    499.60174 0.0094621541 0.0079708173          445 
 4401000    0.5444753   -9.0055325    499.56001  0.009459214 0.0079679119          453 
 4402000   0.55034189   -9.0204506     500.0617 0.0094665626 0.0079650084          443 
 4403000   0.53724259   -9.0072196    499.72252  0.009457993 0.0079621086          455 
 4404000   0.52969989   -9.0184481    499.64877 0.0094544499 0.0079592074          429 
 4405000   0.53894012   -9.0114841    499.80804 0.0094553166 0.0079563078          435 
 4406000   0.55188069   -8.9985774    499.52705 0.0094478561 0.0079534099          436 
 4407000   0.53939629   -9.0145553    499.30628 0.0094415378 0.0079505124          444 
 4408000   0.53874811    -9.016301      499.929 0.0094511683 0.0079476173          452 
 4409000   0.55145545   -9.0154747    499.77427 0.0094461003 0.0079447238          449 
 4410000   0.55109872   -8.9971941    499.29144 0.0094348345 0.0079418286          389 
 4411000   0.54806183   -9.0125488    498.96543 0.0094265364  0.007938936          434 
 4412000   0.54790898   -9.0046574    499.53124 0.0094350869 0.0079360455          415 
 4413000   0.55672258   -9.0065932    500.02377 0.0094422495 0.0079331562          402 
 4414000   0.55314883   -9.0071308    499.96995 0.0094390943 0.0079302704          461 
 4415000   0.54095246   -9.0001023    500.03679  0.009438218 0.0079273843          457 
 4416000   0.53493821   -9.0078465     500.4099 0.0094431216 0.0079245009          437 
 4417000   0.54499273   -8.9858136    499.87701   0.00943093 0.0079216194          447 
 4418000   0.52599338   -9.0319561    498.97471 0.0094117758 0.0079187342          457 
 4419000   0.55461236    -9.019089    499.35644 0.0094168447 0.0079158528          407 
 4420000   0.54711077   -9.0223402    499.54998 0.0094183632 0.0079129741          444 
 4421000   0.55351144   -9.0088771    500.19756 0.0094284393 0.0079100943          404 
 4422000   0.54577601   -9.0094862    498.96559 0.0094030904 0.0079072152          416 
 4423000   0.54031266   -9.0189192    500.56664 0.0094311297 0.0079043409          442 
 4424000   0.55475286   -9.0213081    500.16558 0.0094214432 0.0079014646          463 
 4425000   0.54372739   -9.0179241    498.62519 0.0093903049 0.0078985898          451 
 4426000   0.55028561   -9.0116373    499.70215 0.0094084604 0.0078957165          447 
 4427000   0.53734239   -9.0123998    500.12036 0.0094142075  0.007892844          409 
 4428000   0.53779306   -9.0276927    499.84991 0.0094069918 0.0078899722          439 
 4429000   0.54642615   -9.0112564    499.47569 0.0093978266 0.0078871011          393 
 4430000   0.53549349    -9.010886    499.96679 0.0094049434 0.0078842335          448 
 4431000   0.54284011   -9.0203732     499.3032 0.0093903408  0.007881368          451 
 4432000   0.53198135   -9.0095396     499.7714 0.0093970254  0.007878505          440 
 4433000   0.54505406   -9.0104021    499.44892 0.0093888435 0.0078756392          473 
 4434000   0.54499951   -9.0131571    499.26681 0.0093833035 0.0078727754          435 
 4435000   0.54283708   -9.0323919    500.44518 0.0094033292 0.0078699135          453 
 4436000   0.54989244   -9.0394972    500.17318 0.0093960996 0.0078670507          414 
 4437000   0.55741083    -9.042976    499.36453 0.0093787944 0.0078641926          469 
 4438000   0.53092942   -9.0287353    499.96165 0.0093878933 0.0078613356          456 
 4439000   0.54270193   -9.0208006     499.4616 0.0093763911 0.0078584777          438 
 4440000   0.53453955   -9.0169636    500.37001 0.0093913289 0.0078556226          458 
 4441000   0.54293995   -9.0489027    499.58711 0.0093745236 0.0078527681          429 
 4442000   0.54579094   -9.0119772    498.65899 0.0093550013 0.0078499181          391 
 4443000   0.53480056   -9.0284909    500.78291 0.0093927322 0.0078470653          405 
 4444000   0.53988712   -9.0245154    499.72501  0.009370781 0.0078442168          435 
 4445000   0.53769632   -9.0090408    499.40304 0.0093626367 0.0078413688          471 
 4446000   0.55375983   -9.0319626    499.47204 0.0093618241  0.007838522          432 
 4447000   0.53793257   -9.0167982    499.68415 0.0093636937 0.0078356774          384 
 4448000    0.5288846   -9.0182758    499.05402  0.009349783 0.0078328348          443 
 4449000   0.54523339   -9.0462316    500.00943  0.009365577  0.007829991          487 
 4450000   0.53901563   -9.0253589    499.41825 0.0093524017 0.0078271506          408 
 4451000   0.53421579   -9.0225935    498.31055 0.0093295617 0.0078243092          461 
 4452000   0.55065342   -9.0300932    499.88431  0.009356924 0.0078214732          438 
 4453000   0.52547505   -9.0097628    499.89357  0.009354996 0.0078186359          439 
 4454000   0.53905749   -9.0329998    499.71237 0.0093495055 0.0078158022          453 
 4455000   0.54129505   -9.0356171    499.28474 0.0093394078 0.0078129698          387 
 4456000   0.55019507   -9.0088905     499.8883 0.0093485993 0.0078101348          448 
 4457000    0.5337831   -9.0313414     499.2607 0.0093347674 0.0078073046          443 
 4458000    0.5400226   -9.0299729    499.72209 0.0093412982  0.007804473          404 
 4459000   0.53041114   -9.0251419    498.40995 0.0093146811 0.0078016435          466 
 4460000   0.54230502   -9.0305152    499.28736 0.0093289865 0.0077988138          464 
 4461000   0.54599142     -9.03391    499.52698 0.0093313715 0.0077959866          450 
 4462000   0.54369781    -9.034571    499.25992 0.0093242925 0.0077931598          452 
 4463000   0.53717208    -9.019863    500.09788 0.0093378497 0.0077903378          428 
 4464000   0.53815581   -9.0374659    499.69971 0.0093283249 0.0077875157          465 
 4465000    0.5283681   -9.0301794    499.95561 0.0093310118 0.0077846942          441 
 4466000   0.54547326   -9.0247291    499.84853 0.0093269244 0.0077818741          487 
 4467000   0.53305885   -9.0106551    498.74275 0.0093042078 0.0077790548          472 
 4468000   0.53457372   -9.0408949    499.58456 0.0093178261 0.0077762342          473 
 4469000   0.52924814   -9.0413539    499.89834 0.0093215922 0.0077734181          469 
 4470000   0.53527945   -9.0335562    500.05058 0.0093223449  0.007770603          454 
 4471000   0.54213252   -9.0356481    499.07639 0.0093021023 0.0077677883          456 
 4472000   0.54038505   -9.0366069    498.84733 0.0092957537  0.007764973          416 
 4473000   0.53401087   -9.0308451     499.8305 0.0093119923   0.00776216          483 
 4474000   0.53199328   -9.0323738    498.62782 0.0092875097 0.0077593496          439 
 4475000   0.54606236   -9.0286256    499.09261 0.0092940896 0.0077565401          456 
 4476000   0.52965476   -9.0340614    499.37047 0.0092971863  0.007753736          386 
 4477000   0.52638776   -9.0046164    499.59019 0.0092991995 0.0077509341          468 
 4478000   0.54438226   -9.0196266    498.58658 0.0092784462 0.0077481303          432 
 4479000   0.52461727   -9.0412454    499.43394   0.00929214 0.0077453256          416 
 4480000   0.54053966    -9.024181    499.69448 0.0092949122 0.0077425228          460 
 4481000    0.5267466   -9.0293606    499.38161 0.0092870194 0.0077397252          456 
 4482000   0.52914372   -9.0239902    498.90223 0.0092760343 0.0077369258          443 
 4483000   0.52608295   -9.0334509    499.26865 0.0092807765 0.0077341277          443 
 4484000   0.53205454   -9.0362376    499.24375  0.009278244  0.007731331          438 
 4485000    0.5291024    -9.033909     499.1475 0.0092743868 0.0077285346          440 
 4486000   0.53199103   -9.0185276    500.39123 0.0092954233 0.0077257396          447 
 4487000   0.53431301   -9.0224936    500.04127 0.0092868523 0.0077229488          447 
 4488000   0.53125555   -9.0240874    500.33933 0.0092903173 0.0077201588          384 
 4489000   0.53481456   -9.0194798    498.89294 0.0092613972 0.0077173677          469 
 4490000    0.5185161   -9.0442415    499.30024 0.0092668939 0.0077145759          460 
 4491000   0.52932074    -9.041704    498.27041 0.0092457212 0.0077117822          482 
 4492000   0.54284012   -9.0285683    499.03463 0.0092578404 0.0077089936          402 
 4493000   0.53884499   -9.0438566    498.91756 0.0092536086 0.0077062097          449 
 4494000   0.53114766   -9.0199073    499.56782 0.0092636074 0.0077034271          449 
 4495000   0.53549936   -9.0233274    498.56818  0.009243014 0.0077006442          432 
 4496000   0.52945499   -9.0559508    498.74462 0.0092442286 0.0076978634          432 
 4497000    0.5322004    -9.020671    499.81907 0.0092620834 0.0076950821          442 
 4498000   0.51672959    -9.034012    499.79207  0.009259524 0.0076923007          427 
 4499000   0.54569834   -9.0288462    499.37261 0.0092496963 0.0076895238          426 
 4500000   0.53361965   -9.0463104    498.61308 0.0092335755  0.007686749          408 
 4501000   0.53130966   -9.0348318     499.3183 0.0092445808 0.0076839737          391 
 4502000   0.53828838   -9.0442383    499.96715 0.0092545378 0.0076812021          438 
 4503000   0.53081095   -9.0585968    499.27009 0.0092395828 0.0076784316          477 
 4504000   0.52367293   -9.0377735    498.69564 0.0092269028  0.007675656          436 
 4505000   0.52360753   -9.0215875    499.07061 0.0092317909 0.0076728859          396 
 4506000   0.53249964   -9.0435131    498.44969 0.0092182587 0.0076701185          405 
 4507000    0.5322412   -9.0372986     498.4775 0.0092167278 0.0076673497          464 
 4508000   0.53114728   -9.0345166    499.99429  0.009242722 0.0076645861          456 
 4509000   0.52527796   -9.0387139    499.28206 0.0092275091 0.0076618226          454 
 4510000   0.53084264   -9.0178063     500.3207 0.0092446544 0.0076590628          443 
 4511000   0.52307679    -9.034615    499.13596 0.0092207189 0.0076563029          449 
 4512000   0.53537745   -9.0328054    499.38067  0.009223195 0.0076535453          447 
 4513000    0.5332168   -9.0343984    500.25257 0.0092372511  0.007650786          420 
 4514000   0.53370069   -9.0474425    499.25417 0.0092167733 0.0076480275          381 
 4515000   0.53863572   -9.0493573    499.42105 0.0092178119 0.0076452683          447 
 4516000   0.53039204   -9.0269959    498.85428 0.0092053123  0.007642512          467 
 4517000   0.53438136   -9.0272772    498.33129 0.0091936258 0.0076397565          449 
 4518000   0.52868497   -9.0607149     499.1468 0.0092066327 0.0076370033          376 
 4519000   0.52688759   -9.0500903    498.70351 0.0091964209 0.0076342498          406 
 4520000   0.52712384   -9.0286263    498.79984 0.0091961622 0.0076314952          431 
 4521000   0.52167111   -9.0428604    498.45705 0.0091878097 0.0076287439          427 
 4522000   0.52902272   -9.0360077    499.13609 0.0091982915 0.0076259933          431 
 4523000   0.53241639   -9.0347319    499.16757 0.0091968379 0.0076232465          437 
 4524000   0.51791605   -9.0370768    498.63914 0.0091850711 0.0076204993          426 
 4525000   0.52021377   -9.0386985    498.78602 0.0091857463 0.0076177541          433 
 4526000   0.52835621   -9.0511232    498.32978 0.0091753164 0.0076150089          394 
 4527000   0.52491458   -9.0574545    498.84973 0.0091828608 0.0076122646          412 
 4528000   0.52569831   -9.0450326    499.44563 0.0091917998 0.0076095201          458 
 4529000   0.52727897   -9.0548639    499.61877  0.009192956  0.007606777          459 
 4530000   0.53639175   -9.0421087     498.9723 0.0091790342 0.0076040374          447 
 4531000    0.5210791   -9.0374772    499.07308 0.0091788619 0.0076012971          462 
 4532000   0.52527378   -9.0397095    498.64385 0.0091689439 0.0075985563          394 
 4533000   0.54423826   -9.0461986    498.41129  0.009162646 0.0075958189          432 
 4534000   0.52942766   -9.0630117     498.0877 0.0091546777 0.0075930848          460 
 4535000   0.53342071   -9.0519755    498.66996 0.0091633584 0.0075903523          454 
 4536000   0.52535395   -9.0495461    498.38121 0.0091560335 0.0075876203          402 
 4537000   0.53001863   -9.0563845    498.47518 0.0091557413 0.0075848902          467 
 4538000   0.52855185   -9.0385512    499.34464   0.00916969 0.0075821619          405 
 4539000   0.53690019   -9.0567724    498.97821 0.0091609424 0.0075794332          464 
 4540000   0.52718341   -9.0612702    499.47249 0.0091679972  0.007576705          381 
 4541000   0.52131424   -9.0438413    499.07143 0.0091586184 0.0075739787          467 
 4542000   0.52690653   -9.0501201    498.80506 0.0091517147 0.0075712552          462 
 4543000   0.52569605   -9.0356364    500.04885 0.0091725155 0.0075685308          456 
 4544000    0.5330346   -9.0389489     498.8023  0.009147636 0.0075658075          419 
 4545000   0.54127433   -9.0456384    499.02354 0.0091496799  0.007563087          441 
 4546000   0.53157292   -9.0578208    498.60578 0.0091400091 0.0075603646          405 
 4547000   0.51801545   -9.0563722    498.35977 0.0091334904 0.0075576483          415 
 4548000   0.52620923   -9.0497322    498.66671 0.0091371062 0.0075549304          456 
 4549000   0.52516114   -9.0716654    498.82135 0.0091379305  0.007552215          436 
 4550000   0.51553939   -9.0444361    499.59336 0.0091500615 0.0075494967          460 
 4551000   0.53337801    -9.055869     498.8316 0.0091341025  0.007546782          456 
 4552000     0.523161   -9.0624031    498.35659 0.0091233999 0.0075440665          474 
 4553000   0.52983479   -9.0548243    499.53717  0.009143004 0.0075413549          473 
 4554000    0.5245498   -9.0533942     498.7557 0.0091266963 0.0075386447          454 
 4555000   0.52574941   -9.0379995    499.11584 0.0091312814 0.0075359382          425 
 4556000   0.51896767   -9.0383542    499.14956 0.0091298938 0.0075332289          420 
 4557000   0.52377275   -9.0439409    499.06889 0.0091264151 0.0075305216          449 
 4558000   0.52357923   -9.0486265    499.28659 0.0091283931 0.0075278184          451 
 4559000   0.52550714   -9.0381486     499.0443  0.009121962 0.0075251149          448 
 4560000   0.52681592   -9.0361972     499.3792 0.0091260818 0.0075224154          445 
 4561000   0.52422783   -9.0415096    498.62768 0.0091103501 0.0075197183          450 
 4562000   0.53097824   -9.0564486    498.57854 0.0091074554 0.0075170202          459 
 4563000   0.53872721   -9.0418989    498.97214 0.0091126477 0.0075143224          391 
 4564000   0.51986932   -9.0416838    498.95255 0.0091102934 0.0075116266          445 
 4565000   0.51506786   -9.0696876    498.91179 0.0091075537 0.0075089292          441 
 4566000   0.52437307   -9.0523093    499.11507 0.0091092691 0.0075062338          432 
 4567000   0.53347585   -9.0555938    498.89241 0.0091032117 0.0075035396          448 
 4568000   0.52185737   -9.0533628    498.48216 0.0090937347 0.0075008499          460 
 4569000   0.53171243   -9.0528429    498.24149 0.0090873548 0.0074981592          439 
 4570000   0.52377391   -9.0641425     498.2873 0.0090862016 0.0074954698          460 
 4571000   0.51105498   -9.0550946    499.12302 0.0090994499 0.0074927828          435 
 4572000    0.5163649   -9.0486671     498.7907 0.0090914025 0.0074900958          464 
 4573000   0.51989519   -9.0640341    498.86294 0.0090907307 0.0074874093          454 
 4574000    0.5254485   -9.0502262    498.87195 0.0090889075  0.007484726          408 
 4575000   0.51682187   -9.0768268    498.65892 0.0090830405 0.0074820434          445 
 4576000   0.52690064   -9.0598458    498.49344  0.009078042 0.0074793601          456 
 4577000   0.52656642   -9.0743547    499.04139  0.009086035 0.0074766805          444 
 4578000   0.50839402   -9.0770583    499.08486 0.0090848417  0.007474001          477 
 4579000   0.51189523    -9.044588    499.01233 0.0090815376 0.0074713238          446 
 4580000   0.50871051   -9.0517738    498.83221 0.0090762774 0.0074686442          454 
 4581000   0.51934427   -9.0551093    498.08064 0.0090606243 0.0074659698          449 
 4582000    0.5158028   -9.0538753    498.02659 0.0090576639 0.0074632965          442 
 4583000   0.52340135   -9.0675358    498.29773 0.0090606177 0.0074606231          465 
 4584000   0.51702917   -9.0664748    499.16323 0.0090743752 0.0074579549          448 
 4585000   0.51809919   -9.0577315    498.85939 0.0090668736 0.0074552856          383 
 4586000   0.51611976   -9.0472878    498.44804 0.0090574218 0.0074526154          455 
 4587000   0.52613377   -9.0632186    498.97499 0.0090650205 0.0074499486          442 
 4588000   0.52774535   -9.0650186    499.05749 0.0090645431 0.0074472842          475 
 4589000   0.52996877   -9.0848662    499.43601 0.0090694416  0.007444618          470 
 4590000   0.51472582   -9.0657066    498.53221 0.0090510569 0.0074419563          444 
 4591000     0.518846   -9.0603822    499.23008 0.0090617528 0.0074392946          472 
 4592000   0.51874466   -9.0686183    498.80091  0.009051991 0.0074366309          439 
 4593000   0.50607697   -9.0444033    498.90675 0.0090519404 0.0074339721          486 
 4594000   0.52099704   -9.0625874    499.64186 0.0090633046 0.0074313123          435 
 4595000   0.51797663   -9.0546973    499.16351 0.0090526571  0.007428656          446 
 4596000   0.51764003   -9.0566405    499.34782 0.0090540292 0.0074259981          451 
 4597000   0.52061783   -9.0743749    498.27515 0.0090326145 0.0074233429          448 
 4598000   0.51433662     -9.07071    498.36779  0.009032329 0.0074206908          460 
 4599000   0.52589807   -9.0834348    498.64241 0.0090353411 0.0074180358          493 
 4600000   0.51991983   -9.0708919    498.42882 0.0090295077 0.0074153832          460 
 4601000   0.50451455   -9.0452282    498.85425 0.0090352505 0.0074127322          403 
 4602000   0.51367651   -9.0680032     498.6874 0.0090302658 0.0074100802          448 
 4603000   0.50474696   -9.0571842     499.4891 0.0090428181  0.007407433          457 
 4604000   0.51318024   -9.0603231    498.37485 0.0090206858 0.0074047832          459 
 4605000   0.51303372   -9.0745404     498.9541 0.0090292091 0.0074021399          433 
 4606000   0.52483334   -9.0666724    498.57489 0.0090203881 0.0073994941          450 
 4607000   0.51509776   -9.0624486    498.74078 0.0090214308 0.0073968516          461 
 4608000   0.51951832    -9.050361    498.70977 0.0090189122 0.0073942077          472 
 4609000   0.50809647   -9.0550689     499.3037 0.0090276941 0.0073915681          413 
 4610000   0.51740388   -9.0512786    498.22202 0.0090061825 0.0073889278          461 
 4611000    0.5125481   -9.0430934    498.41584 0.0090077323 0.0073862883          457 
 4612000   0.49919408   -9.0790814     499.2424  0.009020714 0.0073836506          396 
 4613000    0.5143696   -9.0764379    498.95799 0.0090136207 0.0073810151          406 
 4614000   0.50944404   -9.0755998    498.27326 0.0089993003 0.0073783794          455 
 4615000   0.50946408   -9.0774477     498.8048 0.0090069483 0.0073757444          457 
 4616000   0.51602243   -9.0601133     498.6536 0.0090022675 0.0073731119          457 
 4617000   0.51091049   -9.0662426    499.12765  0.009008874 0.0073704824          411 
 4618000   0.52488279    -9.060689    498.96496 0.0090039873 0.0073678512          479 
 4619000   0.52138044    -9.073865    498.85742 0.0090000977 0.0073652203          474 
 4620000   0.51659145   -9.0624524    499.15569 0.0090035299 0.0073625923          459 
 4621000   0.50954504   -9.0856161    498.85689 0.0089961929 0.0073599648          417 
 4622000    0.5153677   -9.0583623    498.88013 0.0089946656 0.0073573397          462 
 4623000   0.50786568   -9.0709292    498.66881 0.0089889107 0.0073547155          473 
 4624000    0.5001187   -9.0699013    498.76711 0.0089887383  0.007352091          457 
 4625000      0.52511   -9.0774842    498.19552 0.0089764958 0.0073494679          403 
 4626000   0.51563022   -9.0705135     498.8849 0.0089869739 0.0073468466          439 
 4627000    0.5109538   -9.0650573    497.97612 0.0089686644 0.0073442277          470 
 4628000   0.51231438   -9.0697338    498.51141 0.0089763651 0.0073416088          442 
 4629000   0.50443579   -9.0659028    497.56636 0.0089574128 0.0073389903          407 
 4630000   0.50756801   -9.0781693    498.92209 0.0089798792 0.0073363727          462 
 4631000   0.51682595    -9.064771    498.34948 0.0089676362 0.0073337574          452 
 4632000   0.50505995   -9.0660963    497.50761 0.0089505543 0.0073311411          463 
 4633000   0.50687786   -9.0709445     499.1964 0.0089789984 0.0073285275          447 
 4634000   0.50351961   -9.0880982    498.62782 0.0089668361 0.0073259166          453 
 4635000   0.50627352   -9.0814736    498.58396 0.0089641129 0.0073233051          422 
 4636000   0.52259918   -9.0732403    498.21302 0.0089555116 0.0073206961          450 
 4637000   0.50860426   -9.0541248    498.23016 0.0089538883 0.0073180887          446 
 4638000   0.50682033   -9.0768529    498.60202 0.0089586392 0.0073154824          420 
 4639000    0.5176869   -9.0670738    499.10539 0.0089657503 0.0073128788          456 
 4640000   0.49423264   -9.0590015    499.10004  0.008963722 0.0073102733          462 
 4641000   0.51071414   -9.0576977    499.04956 0.0089608841 0.0073076714          449 
 4642000   0.49872602   -9.0842854    498.62502 0.0089513325  0.007305071          416 
 4643000   0.50671257   -9.0756197     497.9739  0.008937718 0.0073024708          458 
 4644000   0.49331288   -9.0778704    497.61358 0.0089293278 0.0072998726          504 
 4645000   0.51673278    -9.069356    498.77322 0.0089482098 0.0072972743          463 
 4646000   0.49971087   -9.0579325    497.86886 0.0089300628 0.0072946784          460 
 4647000   0.50380715   -9.0724035    499.15921 0.0089512806 0.0072920832          409 
 4648000   0.51096361   -9.0773755    498.81738 0.0089432261 0.0072894885          405 
 4649000   0.51380429   -9.0740608    497.32034 0.0089144679 0.0072868943          464 
 4650000   0.51619842   -9.0699601    498.88712 0.0089406293 0.0072843042          444 
 4651000   0.50837346   -9.0496432    498.29209 0.0089280457 0.0072817144          433 
 4652000   0.51181552   -9.0784979    498.84402 0.0089360135 0.0072791268          447 
 4653000   0.50243287   -9.0736754    497.94113 0.0089179227 0.0072765379          449 
 4654000    0.5087149   -9.0684872    498.10912 0.0089190144 0.0072739524          458 
 4655000   0.50684261   -9.0766616    498.29375 0.0089204036 0.0072713667          451 
 4656000   0.50581301   -9.0794578    498.57218 0.0089234712  0.007268784          454 
 4657000   0.50035157   -9.0888913    498.36995 0.0089179362 0.0072662011          402 
 4658000   0.50236739   -9.0643595    497.84654 0.0089066577 0.0072636191          389 
 4659000   0.50230217   -9.0684068    498.42824 0.0089151507 0.0072610387          434 
 4660000   0.50168735   -9.0880118     499.0733 0.0089247729 0.0072584589          446 
 4661000   0.50576579   -9.0941163    498.13214 0.0089060312 0.0072558786          434 
 4662000   0.50923448   -9.0595531    499.01232 0.0089198541 0.0072533029          401 
 4663000   0.51849768   -9.0707679    497.99174 0.0088997022 0.0072507259          439 
 4664000   0.51302844   -9.0932618    497.97694 0.0088975297   0.00724815          445 
 4665000   0.50565699   -9.0893355    498.06378 0.0088971737 0.0072455741          458 
 4666000    0.4945978   -9.0781843    499.22027 0.0089159214 0.0072430017          395 
 4667000   0.50629592   -9.0754619    498.25629 0.0088967983  0.007240428          469 
 4668000   0.51662047   -9.0749194    497.26458 0.0088771884  0.007237856          433 
 4669000   0.49759223   -9.0691796    498.03988 0.0088891247 0.0072352856          451 
 4670000    0.5018824   -9.0814321    498.52305 0.0088958432 0.0072327173          436 
 4671000   0.51057626   -9.0643037    497.66355 0.0088786047 0.0072301497          459 
 4672000    0.5020281    -9.077381    497.31861 0.0088705517 0.0072275848          417 
 4673000    0.4993875   -9.0770163    498.12388 0.0088830137 0.0072250221          461 
 4674000   0.50134877   -9.0778002    498.12197 0.0088810792 0.0072224597          434 
 4675000   0.50319464   -9.0775009    497.81568 0.0088737198 0.0072198944          413 
 4676000   0.50467551   -9.0855639    498.08281 0.0088765827 0.0072173329          422 
 4677000   0.49935509   -9.0816095    498.51392 0.0088823662 0.0072147721          400 
 4678000   0.51707353    -9.075329    498.52133 0.0088805994 0.0072122135          394 
 4679000   0.50227631   -9.0689046    498.54429 0.0088791104 0.0072096566          405 
 4680000   0.51871307   -9.0670067    498.52331 0.0088768396  0.007207101          464 
 4681000   0.51108374   -9.0736979    498.31637 0.0088712591 0.0072045464          455 
 4682000   0.49153867   -9.0761634    498.90643 0.0088798667 0.0072019925          450 
 4683000   0.50785041   -9.0819059    498.06285 0.0088629591 0.0071994407          432 
 4684000   0.49547511   -9.0723298    498.06672 0.0088611358 0.0071968878          402 
 4685000   0.49997119   -9.0858873    498.27443  0.008862939 0.0071943364          433 
 4686000   0.49824819    -9.094822    498.26351 0.0088608534 0.0071917832          467 
 4687000   0.49743074   -9.0737211    498.67765 0.0088663262 0.0071892353          419 
 4688000   0.50795078   -9.0607742    498.17763 0.0088555466 0.0071866871          447 
 4689000   0.49133954   -9.0944176    498.60509 0.0088612549  0.007184141          476 
 4690000   0.49767983   -9.0920717    497.86203 0.0088461626 0.0071815945          456 
 4691000   0.49326993   -9.0673543    497.67048  0.008840874 0.0071790506          400 
 4692000   0.49684079   -9.0646015    498.31933 0.0088505138 0.0071765086          476 
 4693000   0.49591488   -9.0959025    496.96251 0.0088245349 0.0071739644          394 
 4694000    0.4984853    -9.091339    498.28551 0.0088461424 0.0071714235          405 
 4695000   0.49624015   -9.0971308    497.61882  0.008832425 0.0071688849          389 
 4696000    0.5046533   -9.0713157    498.96934 0.0088545099 0.0071663436          449 
 4697000   0.50881564    -9.094722    497.99935 0.0088354153 0.0071638068          399 
 4698000    0.5049188   -9.0840532    497.71871 0.0088285567 0.0071612702          468 
 4699000   0.49998803   -9.0888319    498.04413 0.0088324489 0.0071587338          451 
 4700000   0.51293763   -9.0873137    497.12953 0.0088143533    0.0071562          434 
 4701000   0.50288153   -9.0917825     498.1675 0.0088308782 0.0071536661          481 
 4702000   0.50613116   -9.0933243    498.86603 0.0088413801 0.0071511338          462 
 4703000   0.50156396   -9.0822258    497.50633 0.0088154074 0.0071486039          421 
 4704000    0.5077669   -9.0787375     498.1323 0.0088246226  0.007146075          462 
 4705000   0.50222998   -9.1010214    498.16008 0.0088232391 0.0071435439          420 
 4706000   0.51017909   -9.0897553    497.79489 0.0088148975 0.0071410172          452 
 4707000   0.49562198   -9.0794498    498.26116 0.0088212797 0.0071384901          448 
 4708000   0.51015971    -9.078757    498.34322 0.0088208585 0.0071359643          408 
 4709000   0.50001438    -9.082497    496.95409 0.0087944023   0.00713344          452 
 4710000   0.50437831   -9.0733677    497.92094 0.0088096416 0.0071309177          395 
 4711000   0.48940982   -9.0779243    498.15604 0.0088119302 0.0071283949          457 
 4712000   0.49440291   -9.0882644    497.98696 0.0088070699 0.0071258709          384 
 4713000   0.49168574   -9.1058655    497.55965 0.0087976458  0.007123351          454 
 4714000   0.49836458   -9.0777366    497.69468 0.0087981664 0.0071208319          490 
 4715000   0.50515146   -9.0847782    497.70481 0.0087964795 0.0071183134          439 
 4716000   0.49752237   -9.0954238    497.43142 0.0087897833 0.0071157968          459 
 4717000   0.49341266   -9.1116013    497.63442 0.0087915063 0.0071132776          461 
 4718000   0.50155641   -9.0919285    498.63056 0.0088072375 0.0071107632          392 
 4719000   0.50527952   -9.0913211    498.16586  0.008797165 0.0071082489          386 
 4720000   0.50224977    -9.106436    497.55783 0.0087845663 0.0071057362          469 
 4721000   0.50499809   -9.0898662    498.05065 0.0087914045 0.0071032247          458 
 4722000   0.49232457   -9.0992633       497.78 0.0087847664 0.0071007123          452 
 4723000   0.49686638   -9.0919231    497.74052 0.0087822097 0.0070982026          399 
 4724000   0.49562418   -9.0886768    497.61732 0.0087781774 0.0070956939          444 
 4725000   0.48897971   -9.1068923    497.63956 0.0087767118 0.0070931844          441 
 4726000   0.49699548   -9.0809927    497.30617  0.008768976 0.0070906764          453 
 4727000   0.49126548   -9.0825782    498.10143 0.0087811408 0.0070881713          453 
 4728000   0.49103647   -9.1082176    497.90336 0.0087757924 0.0070856678          446 
 4729000   0.49779999   -9.1018505    497.80922 0.0087722778 0.0070831659          464 
 4730000   0.49636342   -9.0941553    497.53672 0.0087656222 0.0070806636          446 
 4731000   0.50230579   -9.0833475    497.53003 0.0087636517 0.0070781631          387 
 4732000   0.50803631     -9.08551    497.26837 0.0087571916 0.0070756655          433 
 4733000   0.50466648    -9.108808    498.11756  0.008770293 0.0070731694          466 
 4734000   0.50539641    -9.080855    498.20338 0.0087699511 0.0070706725          469 
 4735000   0.49297998   -9.0906062    497.98285 0.0087642176  0.007068178          459 
 4736000   0.49254839   -9.0900671    498.29796 0.0087679118 0.0070656841          416 
 4737000   0.49484983   -9.0968389     497.4755  0.008751592 0.0070631915          410 
 4738000    0.4950493   -9.1049327    497.60125 0.0087519567 0.0070606996          450 
 4739000   0.49703516   -9.0977752    498.63097 0.0087682171 0.0070582084          455 
 4740000   0.49166177   -9.0931651    497.63742 0.0087488997 0.0070557168          420 
 4741000   0.49003444   -9.0851088    497.53164 0.0087451951 0.0070532248          451 
 4742000   0.50065336   -9.1040447    497.99358 0.0087514688 0.0070507357          435 
 4743000   0.49125144   -9.0626638    498.17072  0.008752736 0.0070482488          463 
 4744000   0.49753109   -9.1048874    497.64064 0.0087415795 0.0070457644          455 
 4745000   0.49927589   -9.0928809    497.33644 0.0087343949 0.0070432805          419 
 4746000   0.48400751   -9.0886296    496.77518 0.0087226995 0.0070407963          465 
 4747000   0.48891323   -9.1109044    498.09292 0.0087439949 0.0070383134          475 
 4748000   0.48495315   -9.0902135    497.33221 0.0087288017 0.0070358323          455 
 4749000   0.49585919   -9.1125824    498.11545 0.0087407078 0.0070333538          448 
 4750000   0.48802362   -9.0945465    497.65653 0.0087308163 0.0070308768          404 
 4751000   0.48125628   -9.1006373    496.96835 0.0087169078 0.0070283996          443 
 4752000   0.49892893   -9.1128993    496.93596 0.0087145054 0.0070259233          448 
 4753000   0.49048839   -9.0976876    497.81434 0.0087280724 0.0070234476          384 
 4754000   0.48617397   -9.0831178     497.3958 0.0087188999 0.0070209745          429 
 4755000    0.5027724   -9.1023974    498.84316 0.0087424318 0.0070185041          471 
 4756000   0.49232153   -9.1011627    497.07008 0.0087095263 0.0070160349          453 
 4757000   0.49205683   -9.1101118    497.65602 0.0087179598 0.0070135656          390 
 4758000    0.4847113   -9.0868217    497.38951 0.0087114598 0.0070110966          386 
 4759000   0.49496705   -9.0923799    496.96306 0.0087021618 0.0070086276          446 
 4760000   0.49506643   -9.1097912    497.14722 0.0087035578 0.0070061578          409 
 4761000   0.48409371   -9.1002847    496.80631 0.0086957626 0.0070036928          444 
 4762000   0.48297082   -9.0927841    497.90868 0.0087132277 0.0070012283          462 
 4763000   0.49022312   -9.1062131    497.42723 0.0087029748 0.0069987634          449 
 4764000     0.495667   -9.1024022     497.4554 0.0087016407 0.0069963008          470 
 4765000   0.48870044    -9.107358    497.57693 0.0087019401 0.0069938393          456 
 4766000   0.49388587   -9.1136979    497.71917 0.0087026013 0.0069913804          438 
 4767000    0.4867988   -9.1085549    496.89108 0.0086862995 0.0069889204          452 
 4768000   0.48348765   -9.0978919    497.00095  0.008686398 0.0069864629          413 
 4769000     0.493129   -9.0923491    497.36471  0.008690933 0.0069840051          430 
 4770000   0.50014138   -9.1148595    496.97181 0.0086822468 0.0069815504          434 
 4771000   0.48286592   -9.0900031    497.14451 0.0086834435 0.0069790973          433 
 4772000   0.50675556   -9.1071142    497.64049 0.0086902851 0.0069766458          473 
 4773000   0.48769428   -9.1078378    497.73642 0.0086901393 0.0069741947          443 
 4774000   0.48405715   -9.0934714    497.27518 0.0086802677 0.0069717436          445 
 4775000   0.49747727   -9.1096993    498.11067 0.0086930308 0.0069692946          449 
 4776000   0.47372535   -9.1100937     496.8833 0.0086697951 0.0069668466          452 
 4777000   0.49470386   -9.0944949    497.68951 0.0086820443 0.0069643985          442 
 4778000   0.48961719   -9.1122026     497.1822 0.0086713792 0.0069619522          451 
 4779000   0.48530022    -9.111963    496.90409 0.0086647152 0.0069595047          395 
 4780000   0.48995378   -9.0760707     497.3272  0.008670279 0.0069570618          407 
 4781000   0.48760347   -9.1047453     497.9114 0.0086786482 0.0069546178          432 
 4782000   0.47920649   -9.0953521    496.95214 0.0086601168  0.006952177          451 
 4783000   0.48858728   -9.0827285    497.14858 0.0086617287 0.0069497351          447 
 4784000   0.48569169   -9.1060858    497.54145 0.0086667616 0.0069472965          452 
 4785000   0.48179409   -9.1136533     496.9029 0.0086538296 0.0069448587          468 
 4786000   0.49938745   -9.1031668     497.7651  0.008667034 0.0069424201          465 
 4787000   0.49250047   -9.1168642     498.1969 0.0086727403 0.0069399837          410 
 4788000   0.47679992   -9.1140262    496.99656 0.0086500375  0.006937548          465 
 4789000   0.49139299   -9.1195839    497.68144  0.008660149 0.0069351119          448 
 4790000   0.48429897   -9.1143211    496.61987 0.0086398724 0.0069326769          459 
 4791000   0.47605264   -9.1243055    496.86845 0.0086423929 0.0069302444          409 
 4792000   0.48445655   -9.0951547    498.16954 0.0086632155 0.0069278121          458 
 4793000   0.47844124   -9.1233905     496.4708 0.0086318728 0.0069253809          459 
 4794000   0.48204363   -9.1168468    498.26134 0.0086611969 0.0069229527          436 
 4795000   0.48281858   -9.1092684    497.24214 0.0086416779 0.0069205241          436 
 4796000   0.48071939    -9.100167    496.79525  0.008632111 0.0069180993          424 
 4797000   0.47841553   -9.1085198    497.61376 0.0086445307 0.0069156736          454 
 4798000   0.48805435   -9.1072868    497.20322 0.0086355985 0.0069132502          460 
 4799000   0.49601917   -9.1182539    498.65399 0.0086589913  0.006910826          403 
 4800000   0.49157672   -9.1087914    497.03157 0.0086290204 0.0069084044          458 
 4801000   0.48898266    -9.121179    498.06348 0.0086451344 0.0069059838          455 
 4802000   0.47794522   -9.1221646    497.63911 0.0086359696 0.0069035645          447 
 4803000   0.48963525   -9.1128891    497.38804 0.0086298154 0.0069011464          466 
 4804000   0.49627252   -9.1036336    497.32467 0.0086269198 0.0068987266          460 
 4805000   0.48732657     -9.10899    497.85092 0.0086342511   0.00689631          456 
 4806000   0.48445845   -9.1146168    497.17459 0.0086207273 0.0068938932          469 
 4807000   0.47848094   -9.1203306    497.26413 0.0086204862 0.0068914774          459 
 4808000   0.48157547   -9.1271609    497.12324 0.0086162513 0.0068890632          473 
 4809000   0.47441238   -9.1082384    497.27694 0.0086171231 0.0068866473          490 
 4810000   0.48208833   -9.1214719    497.09805 0.0086122324 0.0068842363          461 
 4811000   0.48893052   -9.1159067    497.08246 0.0086101722  0.006881825          460 
 4812000   0.48464026   -9.1061089    497.44788 0.0086147111 0.0068794154          480 
 4813000   0.48755139   -9.1001291    497.14422 0.0086076636 0.0068770056          464 
 4814000   0.48114986   -9.1253241    497.27088 0.0086080681 0.0068745974          481 
 4815000   0.48775312   -9.1076271     497.3075 0.0086069142 0.0068721881          464 
 4816000   0.47764442   -9.1194033    497.34273 0.0086057367 0.0068697816          449 
 4817000   0.48137887    -9.098655    497.55133 0.0086075588  0.006867377          457 
 4818000   0.47668929   -9.1147795    497.45774 0.0086041536 0.0068649717          482 
 4819000   0.47013154    -9.113677    497.47434 0.0086026552 0.0068625681          494 
 4820000   0.48663903    -9.123871    497.19119 0.0085959749 0.0068601663          458 
 4821000   0.49020972   -9.1144542    496.93311 0.0085897309 0.0068577656          480 
 4822000   0.47391656   -9.1371628     497.0596 0.0085901356 0.0068553646          421 
 4823000   0.46967502   -9.1179877    497.27671 0.0085921057 0.0068529639          472 
 4824000    0.4798702   -9.1193623    496.44843 0.0085760163  0.006850566          488 
 4825000   0.48155051   -9.1168666    497.18816 0.0085870148 0.0068481697          474 
 4826000    0.4838029   -9.1238885    496.92741  0.008580733 0.0068457769          463 
 4827000   0.47650272   -9.1253141    496.74201 0.0085757547 0.0068433833          445 
 4828000   0.47964318   -9.1165537    497.79996  0.008592239 0.0068409905          437 
 4829000   0.47948157   -9.1100003     497.2396 0.0085807897 0.0068386001          461 
 4830000   0.47049806   -9.1218791    496.82909 0.0085719304 0.0068362109          449 
 4831000   0.47895337   -9.1405803    497.62661 0.0085839131 0.0068338227          447 
 4832000   0.48315548   -9.1108906    496.01245 0.0085542986 0.0068314356          449 
 4833000   0.47995928   -9.1215778    497.60338 0.0085799603 0.0068290498          457 
 4834000   0.48056066     -9.11305     496.9796  0.008567432 0.0068266629          466 
 4835000   0.47755422   -9.1399173    497.50413 0.0085747005 0.0068242779          481 
 4836000   0.48376457   -9.1154331    497.31519 0.0085696717 0.0068218941          463 
 4837000   0.47295981   -9.1221003    496.92021 0.0085610951 0.0068195129          408 
 4838000    0.4683641   -9.1290644    496.96299 0.0085600625 0.0068171321          407 
 4839000   0.47902391   -9.1319394    497.82119 0.0085730728 0.0068147491          415 
 4840000   0.47304699   -9.1223588    497.26812 0.0085617789 0.0068123686          421 
 4841000   0.46927028   -9.1188406    497.23811 0.0085594937 0.0068099905          484 
 4842000   0.48030967   -9.1240562    496.89698 0.0085518549 0.0068076153          470 
 4843000   0.48137943    -9.130127    496.60186 0.0085450111 0.0068052354          453 
 4844000   0.49749161   -9.1315688    497.19252 0.0085534083 0.0068028587          466 
 4845000   0.47773361   -9.1243156    496.73792 0.0085438239  0.006800485          434 
 4846000   0.47736274   -9.1237831     497.3465 0.0085525261 0.0067981114          449 
 4847000   0.48947402   -9.1185032    497.21311 0.0085484684 0.0067957402          466 
 4848000   0.47498463   -9.1194077    496.01088 0.0085260395 0.0067933688          406 
 4849000   0.47723832     -9.11159    497.14403 0.0085437552 0.0067909979          464 
 4850000    0.4856544   -9.1217355    497.10186 0.0085412691 0.0067886281          455 
 4851000   0.46898985   -9.1258232     497.2753 0.0085424877 0.0067862621          475 
 4852000   0.46706546   -9.1322925    497.02841 0.0085364868 0.0067838945          431 
 4853000   0.46916451   -9.1283568    497.39294 0.0085409874 0.0067815296          471 
 4854000   0.47946511   -9.1181413    497.08045  0.008533863  0.006779164          471 
 4855000   0.47111862   -9.1386494    496.91185 0.0085292113 0.0067768007          470 
 4856000   0.47143219   -9.1131171    497.98079 0.0085457988 0.0067744367          464 
 4857000   0.47716814   -9.1239652    496.62826 0.0085208335 0.0067720736          403 
 4858000   0.47081991   -9.1244503    496.41002 0.0085153358 0.0067697124          470 
 4859000   0.48103009   -9.1316958    497.33551 0.0085294559 0.0067673511          461 
 4860000   0.48001494   -9.1209118    496.81629 0.0085187979 0.0067649933          462 
 4861000   0.47401635   -9.1209525    496.76039  0.008516087  0.006762635          470 
 4862000   0.47361188   -9.1215967    497.03106 0.0085189747 0.0067602785          462 
 4863000   0.47536505   -9.1265113    497.54082 0.0085259582  0.006757925          459 
 4864000   0.47494101    -9.115384    497.43638  0.008522416 0.0067555714          416 
 4865000   0.47541069   -9.1225085    497.24872 0.0085174497 0.0067532181          461 
 4866000   0.47141495   -9.1321388    496.66058 0.0085056271 0.0067508653          398 
 4867000   0.47127443   -9.1136377    496.77252 0.0085057961 0.0067485137          473 
 4868000   0.47700914   -9.1282688    497.37179 0.0085143075 0.0067461616          458 
 4869000   0.47111267   -9.1198531    496.76357 0.0085021492 0.0067438115          476 
 4870000   0.46502257   -9.1333154    497.16722 0.0085073104 0.0067414641          439 
 4871000   0.45940455   -9.1223763    496.03068 0.0084861199 0.0067391161          478 
 4872000   0.47363925   -9.1352083    496.88201 0.0084989398 0.0067367722          465 
 4873000   0.46992028   -9.1280919    496.92956 0.0084980088  0.006734426          477 
 4874000   0.47738051   -9.1362028    496.65972 0.0084916516 0.0067320841          406 
 4875000   0.47287636   -9.1424341    496.95122 0.0084948927 0.0067297412          467 
 4876000   0.47860701   -9.1304952    496.43773 0.0084843747 0.0067273964          410 
 4877000   0.47264712   -9.1389736    497.38301  0.008498787 0.0067250558          491 
 4878000   0.47031194   -9.1349507    497.06385 0.0084915924  0.006722716          479 
 4879000   0.47579308   -9.1461509    497.08702 0.0084902476 0.0067203755          440 
 4880000   0.46977904   -9.1279658    496.94157 0.0084860241 0.0067180404          449 
 4881000    0.4741281   -9.1114702    496.42433 0.0084754547 0.0067157044          417 
 4882000   0.45932513   -9.1215898    496.82653 0.0084805839 0.0067133693          468 
 4883000   0.47781366   -9.1369524    496.92366 0.0084805049 0.0067110365          484 
 4884000   0.48022829   -9.1286749    497.28403 0.0084849172 0.0067087039          455 
 4885000   0.46809124   -9.1429663    496.90055 0.0084766385 0.0067063715          431 
 4886000   0.46896525   -9.1311869    497.01558 0.0084768655 0.0067040423          460 
 4887000   0.46801706   -9.1244926    496.65972 0.0084690628 0.0067017118          453 
 4888000   0.46444704   -9.1184389    496.55966 0.0084656244 0.0066993818          444 
 4889000   0.47145862   -9.1228896    496.59592 0.0084645109 0.0066970534          457 
 4890000   0.46730691    -9.130478    497.14271  0.008472098 0.0066947277          447 
 4891000   0.46704892   -9.1364265    497.04248 0.0084686581 0.0066924031          409 
 4892000   0.46792798   -9.1255516    496.97988 0.0084658606 0.0066900769          480 
 4893000   0.47069077   -9.1339042    496.65385 0.0084585777 0.0066877547          472 
 4894000     0.472184   -9.1612678    497.36104 0.0084688911 0.0066854302          464 
 4895000   0.46401261   -9.1316847    496.22684 0.0084478523 0.0066831084          478 
 4896000   0.47360706   -9.1339924    496.92058 0.0084579347 0.0066807881          455 
 4897000   0.46817934   -9.1413481    496.62115  0.008451112 0.0066784702          416 
 4898000   0.46721746   -9.1340328    496.89467 0.0084540403 0.0066761536          419 
 4899000    0.4646244   -9.1307984    496.50646  0.008445711 0.0066738369          451 
 4900000   0.46057513   -9.1453542    496.25493 0.0084397096 0.0066715207          476 
 4901000   0.47034926   -9.1403535    496.48966 0.0084419788 0.0066692048          439 
 4902000   0.48002254   -9.1337603    496.61421  0.008442374  0.006666892          477 
 4903000   0.47016308   -9.1467011    497.09822 0.0084488786 0.0066645782          473 
 4904000   0.45414612   -9.1587209     496.4966 0.0084369325 0.0066622667          456 
 4905000   0.47132004   -9.1413486    497.30349 0.0084489209 0.0066599552          397 
 4906000   0.47179614    -9.119246    496.88537 0.0084400967 0.0066576464          447 
 4907000   0.46534818   -9.1174035    496.53568 0.0084324381 0.0066553378          413 
 4908000    0.4650817   -9.1343094     496.8167 0.0084354914 0.0066530296          409 
 4909000    0.4637903   -9.1369728    497.82741 0.0084509305 0.0066507246          419 
 4910000   0.48286291   -9.1402802    496.92915 0.0084339638 0.0066484183          459 
 4911000   0.46945809   -9.1443108    496.76221 0.0084294138 0.0066461155          451 
 4912000    0.4617439    -9.141238    497.08688 0.0084332057  0.006643814          441 
 4913000   0.47000926   -9.1339504     496.6188 0.0084235498 0.0066415116          449 
 4914000    0.4670378   -9.1390112    496.72621 0.0084236571 0.0066392102          468 
 4915000   0.48538746   -9.1192739    497.28254 0.0084313758 0.0066369117          461 
 4916000   0.47654785   -9.1453138    496.88468 0.0084229163 0.0066346105          423 
 4917000   0.47282679   -9.1324829     496.6431  0.008417109 0.0066323124          458 
 4918000   0.47402283   -9.1287221    496.85991 0.0084190713 0.0066300141          465 
 4919000   0.46482281   -9.1294467    496.54979 0.0084121059 0.0066277174          488 
 4920000   0.47036268   -9.1502148    497.04489  0.008418782  0.006625424          456 
 4921000   0.46054607   -9.1254965    496.64181 0.0084102453 0.0066231296          440 
 4922000   0.47735509   -9.1462763     496.4558 0.0084053874 0.0066208364          460 
 4923000   0.46141826   -9.1437699    496.53354 0.0084049959 0.0066185447          466 
 4924000   0.45992259   -9.1357193    496.61696 0.0084047008 0.0066162531          471 
 4925000   0.46854237   -9.1297284    496.71654 0.0084046793 0.0066139661          468 
 4926000   0.46701512   -9.1475494    497.00668 0.0084078812 0.0066116778          411 
 4927000   0.45828672   -9.1475531    496.04992 0.0083899925 0.0066093917          417 
 4928000   0.45327029   -9.1414685    496.99581 0.0084042853 0.0066071046          472 
 4929000   0.47012846   -9.1588389    496.71156 0.0083977744 0.0066048208          466 
 4930000   0.46575236    -9.146659    496.33924 0.0083897775 0.0066025371          472 
 4931000   0.46562847    -9.158378     497.0138 0.0083994761 0.0066002563          479 
 4932000   0.47344384   -9.1284609    496.51305 0.0083893122 0.0065979763          457 
 4933000   0.46525485   -9.1568108     496.6206 0.0083894283 0.0065956962          487 
 4934000   0.46041772   -9.1462487    496.38982 0.0083838303 0.0065934141          430 
 4935000   0.46156891   -9.1403958    496.27767 0.0083802376 0.0065911345          403 
 4936000   0.46549429   -9.1421196    497.02634 0.0083911794 0.0065888561          464 
 4937000   0.45750165   -9.1379861    496.29009 0.0083770524 0.0065865785          467 
 4938000   0.46268275   -9.1551192    496.93221 0.0083861923 0.0065843021          457 
 4939000   0.46821493   -9.1552694    496.60919 0.0083790442 0.0065820274          473 
 4940000   0.46943991   -9.1376405    496.46396  0.008374898  0.006579752          459 
 4941000   0.45778183   -9.1532633    496.57974 0.0083751558 0.0065774789          406 
 4942000   0.46039432   -9.1562667    497.19412  0.008383821 0.0065752064          453 
 4943000   0.46138761    -9.150675    496.73918 0.0083744551 0.0065729349          487 
 4944000   0.46146776   -9.1398647    496.12952 0.0083624852 0.0065706652          470 
 4945000   0.45329857   -9.1321654    497.13954  0.008377815  0.006568395          424 
 4946000   0.45944517   -9.1426833    496.11905 0.0083589272 0.0065661257          482 
 4947000   0.45354593   -9.1460207     496.9848 0.0083718212  0.006563859          457 
 4948000   0.46319985   -9.1409787    496.22685 0.0083573641 0.0065615917          463 
 4949000   0.45047913   -9.1556778    496.90991  0.008367177 0.0065593272          441 
 4950000   0.45723708   -9.1398691    496.48495 0.0083583325 0.0065570618          415 
 4951000   0.46459797   -9.1474768    496.38235 0.0083549174  0.006554797          473 
 4952000   0.45740906   -9.1586232    496.05005 0.0083476382 0.0065525344          481 
 4953000   0.46008825   -9.1389428    496.69959 0.0083568811 0.0065502728          458 
 4954000    0.4613973   -9.1352742    496.06723 0.0083445571 0.0065480127          454 
 4955000   0.46363549   -9.1383681    497.09816 0.0083602112 0.0065457536          487 
 4956000   0.45840746   -9.1467957    495.70218 0.0083350514 0.0065434961          472 
 4957000   0.46152267    -9.153534    496.45372 0.0083460042  0.006541238          453 
 4958000   0.46439619   -9.1443491    496.00659 0.0083368057 0.0065389826          416 
 4959000   0.46341261   -9.1493199    497.02832 0.0083522942 0.0065367273          423 
 4960000   0.45308674   -9.1492876    497.68214 0.0083615952 0.0065344736          411 
 4961000   0.45250391   -9.1418032    496.58493  0.008341479 0.0065322219          462 
 4962000   0.45328779   -9.1452477    495.50822 0.0083217153 0.0065299699          421 
 4963000   0.46338398   -9.1475064    497.10274  0.008346812 0.0065277193          469 
 4964000   0.45571079   -9.1368881    496.16014 0.0083293067  0.006525469          454 
 4965000   0.45582535    -9.136511    496.87688  0.008339659 0.0065232203          472 
 4966000   0.46386709   -9.1483627    495.34166 0.0083122175 0.0065209726          402 
 4967000   0.45324896   -9.1420196    496.63934 0.0083323156 0.0065187282          449 
 4968000    0.4498705   -9.1537229    496.40726 0.0083267454 0.0065164827          466 
 4969000   0.46517489   -9.1392995    496.60225 0.0083283399 0.0065142393          479 
 4970000   0.45408202   -9.1533468    496.56548 0.0083260476 0.0065119948          472 
 4971000   0.45263703   -9.1520789    496.05104 0.0083157486 0.0065097541          444 
 4972000   0.46780147   -9.1604856    496.23382 0.0083171396 0.0065075096          457 
 4973000   0.45226354   -9.1337172    497.13139  0.008330508  0.006505268          403 
 4974000   0.45282235   -9.1447133    496.03338 0.0083104373 0.0065030282          413 
 4975000   0.46090911   -9.1614012    496.02842 0.0083086838 0.0065007878          443 
 4976000   0.45551364   -9.1543896    496.58187 0.0083162827 0.0064985491          434 
 4977000   0.45538385   -9.1458167    496.68607 0.0083163563 0.0064963129          412 
 4978000   0.45250642    -9.154066    496.45013  0.008310736 0.0064940775          470 
 4979000   0.44996421   -9.1526506    496.30786 0.0083066858 0.0064918401          458 
 4980000    0.4463979   -9.1715011     496.3349 0.0083054702 0.0064896038          467 
 4981000   0.45284054   -9.1623509    495.84008 0.0082955244 0.0064873683          443 
 4982000   0.45025191   -9.1688115    496.69668 0.0083081875 0.0064851359          401 
 4983000   0.45650224   -9.1489147    495.70713 0.0082899714 0.0064829044          419 
 4984000    0.4514578     -9.15424    496.65962 0.0083042338 0.0064806742          477 
 4985000   0.46450989   -9.1711065    496.68534 0.0083029981  0.006478443          408 
 4986000   0.45739519   -9.1578967    495.82825 0.0082870078 0.0064762141          480 
 4987000   0.46787515   -9.1382647    496.03769 0.0082888458 0.0064739864          486 
 4988000   0.45859402   -9.1549872    496.11381 0.0082884557 0.0064717602          483 
 4989000    0.4503894   -9.1448866    496.34902 0.0082907233 0.0064695327          426 
 4990000   0.44937864   -9.1630096    496.31606 0.0082885114 0.0064673089          457 
 4991000   0.45654792   -9.1478773    495.75267 0.0082774438  0.006465086          476 
 4992000   0.45793476    -9.155884    496.25856 0.0082842307  0.006462865          464 
 4993000   0.44869846   -9.1589186    496.16357 0.0082809863 0.0064606424          479 
 4994000   0.45265755   -9.1548288    496.26558 0.0082810302 0.0064584209          462 
 4995000   0.45570858   -9.1523526    496.83719 0.0082889088  0.006456201          461 
 4996000   0.46323557   -9.1483891    495.59758 0.0082665729 0.0064539827          406 
 4997000   0.44782695   -9.1586976    495.69741 0.0082665835 0.0064517667          410 
 4998000   0.44769993   -9.1671716    496.00523 0.0082700619 0.0064495502          460 
 4999000   0.45257691   -9.1696382    496.38303 0.0082747055  0.006447333          466 
 5000000   0.44359017   -9.1571155    496.10854 0.0082684756 0.0064451191          426 
 5001000   0.44568656    -9.155726    495.68504 0.0082597653 0.0064429064          466 
 5002000   0.45682091   -9.1489273    496.23884 0.0082673404 0.0064406932          461 
 5003000   0.44963122   -9.1535061      496.588 0.0082715038 0.0064384807          406 
 5004000   0.44575176   -9.1645668    495.96785 0.0082595231 0.0064362697          489 
 5005000   0.45588773   -9.1679761    496.24708 0.0082625221 0.0064340594          473 
 5006000   0.45379784   -9.1644187    495.71179 0.0082519609 0.0064318511          464 
 5007000   0.45341742   -9.1685316    496.83782 0.0082690537 0.0064296433          415 
 5008000   0.44620803   -9.1728904    496.04829 0.0082542648 0.0064274365          482 
 5009000   0.44532961   -9.1617265     495.9846 0.0082515572 0.0064252308          473 
 5010000   0.44323293   -9.1631161     496.8239 0.0082638707 0.0064230271          488 
 5011000   0.44825901   -9.1617763    496.48308 0.0082565535 0.0064208201          487 
 5012000    0.4345647   -9.1578702    496.37576 0.0082531218 0.0064186172          468 
Loop time of 13110.1 on 48 procs for 5000000 steps with 4000 atoms

Performance: 65903.630 tau/day, 381.387 timesteps/s
99.4% CPU use with 48 MPI tasks x no OpenMP threads

MPI task timing breakdown:
Section |  min time  |  avg time  |  max time  |%varavg| %total
---------------------------------------------------------------
Pair    | 880.77     | 961.13     | 1045.5     | 136.1 |  7.33
Neigh   | 85.973     | 89.194     | 94.148     |  25.2 |  0.68
Comm    | 764.63     | 890.08     | 996.53     | 192.9 |  6.79
Output  | 15.183     | 15.188     | 15.275     |   0.3 |  0.12
Modify  | 10935      | 11019      | 11097      |  38.8 | 84.05
Other   |            | 135.7      |            |       |  1.03

Nlocal:        83.3333 ave          92 max          76 min
Histogram: 3 4 5 6 5 12 9 1 2 1
Nghost:        2274.52 ave        2301 max        2249 min
Histogram: 2 5 3 5 9 10 6 2 4 2
Neighs:        15340.0 ave       17619 max       13855 min
Histogram: 4 6 7 12 5 6 3 2 1 2
FullNghs:      30680.2 ave       34945 max       28134 min
Histogram: 6 6 5 8 12 4 5 0 1 1

Total # of neighbors = 1472652
Ave neighs/atom = 368.16300
Neighbor list builds = 266483
Dangerous builds = 0

#clear
#
#next RN
#
#jump SELF
Total wall time: 3:38:33
