
units lj                  # Use reduced LJ style units
atom_style atomic         # Uncharged point particles
atom_modify map hash      # Needed for indexing of clusters etc
                          # Used to be able to find where atoms are in relation to each other.

lattice fcc 1.0 spacing 1 1 1
Lattice spacing in x,y,z = 1.5874011 1.5874011 1.5874011
region box block 0 10 0 10 0 10 units lattice
create_box 2 box
Created orthogonal box = (0.0000000 0.0000000 0.0000000) to (15.874011 15.874011 15.874011)
  3 by 4 by 4 MPI processor grid
create_atoms 1 box
Created 4000 atoms
  using lattice units in orthogonal box = (0.0000000 0.0000000 0.0000000) to (15.874011 15.874011 15.874011)
  create_atoms CPU = 0.003 seconds
set type 1 type/fraction 2 0.05 78393
Setting atom values ...
  207 settings made for type/fraction
mass 1 1.0
mass 2 1.0
pair_style lj/cut  3.5
pair_modify tail  yes
pair_coeff 1  1  1.0  1.0   # Intearaction between 1 and 1 set with epsilon = 1 and sigma = 1
pair_coeff 1  2  1.5  0.8
pair_coeff 2  2  0.5  0.88

write_data data.0
System init for write_data ...
Neighbor list info ...
  update every 1 steps, delay 10 steps, check yes
  max neighbors/atom: 2000, page size: 100000
  master list distance cutoff = 3.8
  ghost atom cutoff = 3.8
  binsize = 1.9, bins = 9 9 9
  1 neighbor lists, perpetual/occasional/extra = 1 0 0
  (1) pair lj/cut, perpetual
      attributes: half, newton on
      pair build: half/bin/atomonly/newton
      stencil: half/bin/3d
      bin: standard
WARNING: Not all mixed pair coeffs generated from mixing. Use write_data with 'pair ij' option to store all pair coeffs. (../write_data.cpp:312)


#############################
#   M E L T   S Y S T E M   #
#############################

velocity all create 2.4 6229865 mom yes dist gaussian # Assign velocities
                                                    # Temperature 2.4, random number seed, zero linear momentum
                                                                                # Gaussian distribution

timestep 0.002   # simulation timestep
thermo 1000       # output thermodynamic data every 1000 steps bf 100

# Define a fix  in this case with index 1 applied to all
# particles in the simulation. This fix is for simulations
# in the anisotropic NPT ensemble. Note that we use the MTK
# correction.
fix 1 all npt temp 2.4 2.4 0.1 iso 5.68 5.68 0.5 mtk yes tchain 5 pchain 5 # Use NPT ensemble
                                                                         # Set temperature and pressure and damping
                                                                         # Numbers of thermostats in chain and in barostat
run 10000          # run for 10000 steps
Per MPI rank memory allocation (min/avg/max) = 3.642 | 3.644 | 3.648 Mbytes
Step Temp E_pair E_mol TotEng Press Volume 
       0          2.4   -8.0440018            0   -4.4449018    -2.648783         4000 
    1000    2.3996174   -4.5183278            0  -0.91980162    5.4995516    5042.6351 
    2000    2.4027378   -4.4293635            0  -0.82615773    5.7544975     5064.142 
    3000    2.3867844    -4.448494            0  -0.86921242    5.3328775    5104.8234 
    4000    2.3479737   -4.4597084            0  -0.93862839    5.6542945     5046.393 
    5000     2.366991   -4.4808309            0   -0.9312321    5.6162377    5050.5394 
    6000    2.3841813   -4.5297299            0  -0.95435205    5.4916309    5035.0247 
    7000    2.3704523   -4.4960869            0  -0.94129738    5.5470089     5045.244 
    8000     2.393484   -4.4441047            0  -0.85477619    5.9256089    5025.9942 
    9000     2.423214   -4.4515493            0  -0.81763696    5.8597399    5027.2111 
   10000    2.4181331   -4.5398654            0  -0.91357263     5.360442    5050.0431 
Loop time of 2.08098 on 48 procs for 10000 steps with 4000 atoms

Performance: 830378.478 tau/day, 4805.431 timesteps/s
99.6% CPU use with 48 MPI tasks x no OpenMP threads

MPI task timing breakdown:
Section |  min time  |  avg time  |  max time  |%varavg| %total
---------------------------------------------------------------
Pair    | 0.84714    | 0.93013    | 1.0111     |   3.3 | 44.70
Neigh   | 0.17046    | 0.17677    | 0.1854     |   0.8 |  8.49
Comm    | 0.62258    | 0.7234     | 0.80127    |   4.1 | 34.76
Output  | 0.0002634  | 0.00026983 | 0.00034529 |   0.0 |  0.01
Modify  | 0.19056    | 0.23637    | 0.27244    |   5.4 | 11.36
Other   |            | 0.01404    |            |       |  0.67

Nlocal:        83.3333 ave          95 max          76 min
Histogram: 3 3 10 11 10 3 5 2 0 1
Nghost:        1414.46 ave        1437 max        1376 min
Histogram: 1 0 4 6 3 4 8 8 9 5
Neighs:        7553.40 ave        8888 max        6691 min
Histogram: 2 6 12 7 8 3 5 3 1 1

Total # of neighbors = 362563
Ave neighs/atom = 90.640750
Neighbor list builds = 908
Dangerous builds = 238

# Equilibrate just above the melting temperature to avoid step fn in T

fix 1 all npt temp 1.25 1.25 0.1 iso 5.68 5.68 0.5 mtk yes tchain 5 pchain 5
run 2000
Per MPI rank memory allocation (min/avg/max) = 3.643 | 3.646 | 3.650 Mbytes
Step Temp E_pair E_mol TotEng Press Volume 
   10000    2.4181331   -4.5398654            0  -0.91357263     5.360442    5050.0431 
   11000    1.2645253   -6.0335747            0    -4.137261    5.5596405    4170.8652 
   12000    1.2511986   -5.9988883            0   -4.1225595    5.9335696    4154.7376 
Loop time of 0.462829 on 48 procs for 2000 steps with 4000 atoms

Performance: 746712.173 tau/day, 4321.251 timesteps/s
99.6% CPU use with 48 MPI tasks x no OpenMP threads

MPI task timing breakdown:
Section |  min time  |  avg time  |  max time  |%varavg| %total
---------------------------------------------------------------
Pair    | 0.19751    | 0.21478    | 0.24138    |   1.8 | 46.41
Neigh   | 0.031052   | 0.03237    | 0.035657   |   0.5 |  6.99
Comm    | 0.13404    | 0.16133    | 0.18059    |   2.2 | 34.86
Output  | 5.1434e-05 | 5.2722e-05 | 6.5142e-05 |   0.0 |  0.01
Modify  | 0.042071   | 0.049873   | 0.06257    |   2.4 | 10.78
Other   |            | 0.004427   |            |       |  0.96

Nlocal:        83.3333 ave          92 max          75 min
Histogram: 1 1 6 5 12 12 5 4 1 1
Nghost:        1605.60 ave        1627 max        1583 min
Histogram: 2 1 5 10 4 8 7 7 1 3
Neighs:        9164.88 ave       10372 max        8344 min
Histogram: 3 4 6 11 9 6 7 1 0 1

Total # of neighbors = 439914
Ave neighs/atom = 109.97850
Neighbor list builds = 142
Dangerous builds = 15

#############################
# L I N E A R  Q U E N C H  #
#############################

# Define solid atoms. This closely follows ten Wolde  Ruiz-Montero and Frenkel  Faraday Discuss  1996  104  93-110
# Compute components of the per-atom q6 vector
compute q6 all orientorder/atom degrees 1 6 components 6 nnn NULL cutoff 1.3 # compute the Q6 parameter.
                                                                             # Use all neighbours within 1.3 unit cell.

# get number of connections
compute coord_number all coord/atom orientorder q6 0.5

# An atom is solid if it has 8 or more connections (of a possible 14)
variable is_solid atom c_coord_number>=8
group solid dynamic all var is_solid    # Must be dynamic to update
dynamic group solid defined

# do clustering
compute cluster solid cluster/atom 1.3 # Create a cluster where all atoms within are solid and max 1.3 units from another member

# define chunks one chunk per cluster
compute clus_chunks solid chunk/atom c_cluster nchunk every compress yes  # Says which atoms are in which chunk

# count the size of each chunk
compute size_chunks solid property/chunk clus_chunks count


# Find the maximum entry in the vector of chunk sizes
variable max_n equal max(c_size_chunks)


# Thermo style which includes this variable
# thermo_style custom step temp pe vol v_max_n

thermo ${N}  # Print the thermo information every 100 steps
thermo 1000  

# Reset the npt fix at a lower temperature (below freezing)
fix 1  all npt temp  ${temp} ${temp}  0.1  iso  5.68  5.68  0.5  mtk yes tchain  5  pchain  5
fix 1  all npt temp  0.45 ${temp}  0.1  iso  5.68  5.68  0.5  mtk yes tchain  5  pchain  5
fix 1  all npt temp  0.45 0.45  0.1  iso  5.68  5.68  0.5  mtk yes tchain  5  pchain  5

dump dmp2 all dcd ${N} traj.dcd
dump dmp2 all dcd 1000 traj.dcd


compute msd all msd com yes
variable twopoint equal c_msd[4]/6/(step*dt+1.0e-6)
fix 9 all vector 10 c_msd[4]
variable fit equal slope(f_9)/6/(10*dt)
thermo_style custom step temp pe c_msd[4] v_twopoint v_fit v_max_n

fix 1 all npt temp 1.25 ${temp} 0.1 iso 5.68 5.68 0.5 mtk yes tchain 5 pchain 5
fix 1 all npt temp 1.25 0.45 0.1 iso 5.68 5.68 0.5 mtk yes tchain 5 pchain 5
run 500000 # 5000000  # Run for this many steps
Neighbor list info ...
  update every 1 steps, delay 10 steps, check yes
  max neighbors/atom: 2000, page size: 100000
  master list distance cutoff = 3.8
  ghost atom cutoff = 3.8
  binsize = 1.9, bins = 9 9 9
  4 neighbor lists, perpetual/occasional/extra = 1 3 0
  (1) pair lj/cut, perpetual
      attributes: half, newton on
      pair build: half/bin/atomonly/newton
      stencil: half/bin/3d
      bin: standard
  (2) compute orientorder/atom, occasional
      attributes: full, newton on
      pair build: full/bin/atomonly
      stencil: full/bin/3d
      bin: standard
  (3) compute coord/atom, occasional
      attributes: full, newton on
      pair build: full/bin/atomonly
      stencil: full/bin/3d
      bin: standard
  (4) compute cluster/atom, occasional
      attributes: full, newton on
      pair build: full/bin/atomonly
      stencil: full/bin/3d
      bin: standard
Per MPI rank memory allocation (min/avg/max) = 9.740 | 9.744 | 9.748 Mbytes
Step Temp PotEng c_msd[4] v_twopoint v_fit v_max_n 
   12000    1.2511986   -5.9988883 3.2777171e-30 2.2761923e-32 8.3333333e+20            2 
   13000    1.2556592   -6.0417101   0.57873934 0.0037098674  0.048313551            4 
   14000    1.2526148   -5.9962364    1.1192446 0.0066621699  0.046404797            3 
   15000    1.2535707   -6.0407377    1.6303235 0.0090573526  0.044695519            3 
   16000    1.2014895   -5.9859247    2.1542342   0.01121997  0.044104549            1 
   17000    1.2428574   -6.0575147    2.6851751  0.013162623  0.044228326            2 
   18000    1.2383122   -6.0276118    3.2124356  0.014872386  0.044080746            4 
   19000    1.2427884   -6.0304445    3.7931693  0.016636707  0.044348479            2 
   20000    1.2207971   -6.0358136    4.2811958  0.017838315  0.044367405            2 
   21000    1.2418892   -5.9892231    4.8157267  0.019110026   0.04426419            5 
   22000    1.2663611   -6.0913961    5.3206498  0.020153976  0.044142036            2 
   23000    1.2109669   -6.0469409     5.947342   0.02154834  0.044280159            3 
   24000    1.2233029   -6.0574517    6.4645442  0.022446334  0.044445234            2 
   25000    1.2054512   -6.0550128     7.023155  0.023410516  0.044655144            3 
   26000    1.2293414    -6.056981    7.4620202  0.023916731  0.044666893            3 
   27000    1.2417774   -6.0759984    7.9265006  0.024464508  0.044424801            3 
   28000    1.2314963   -6.0919804    8.5635929  0.025486883  0.044355006            5 
   29000    1.2149368   -6.0649341    9.1233223  0.026216443  0.044452123            2 
   30000    1.2421173   -6.0835064    9.7582382  0.027106217  0.044548331            3 
   31000    1.2163372   -6.1045064      10.1586  0.027308064  0.044639979            5 
   32000    1.2195576   -6.0944182    10.724532  0.027928468  0.044661888            3 
   33000    1.2047139   -6.0699829    11.301798  0.028539893  0.044671521            2 
   34000    1.2302071   -6.0738405    11.724954  0.028737632   0.04466272            4 
   35000    1.1955556   -6.0645843    12.150362  0.028929433  0.044548295            2 
   36000    1.2206769   -6.0652754    12.789705  0.029605798  0.044431717            3 
   37000    1.1997736   -6.1229136     13.31945  0.029998761  0.044381068            3 
   38000    1.2089398   -6.0971961    13.797756  0.030258237  0.044339709            3 
   39000    1.1948383   -6.0454683    14.338582  0.030637996  0.044281569            3 
   40000    1.2053303   -6.0887766      14.7843  0.030800625  0.044215284            1 
   41000    1.2159279   -6.0861461    15.318911  0.031135998  0.044126092            3 
   42000    1.1826483   -6.1285144    15.682418  0.031115908  0.044014594            2 
   43000     1.209721   -6.0982851    16.274791  0.031540293  0.043921515            2 
   44000    1.1973235   -6.0912652     16.81832  0.031852878  0.043859361            4 
   45000    1.1546748   -6.1229822     17.29624  0.032030073  0.043790381            2 
   46000     1.195872   -6.0776624    17.701249   0.03206748  0.043705727            7 
   47000    1.1998075   -6.1064889    18.194132    0.0322591  0.043586685            1 
   48000    1.1961176   -6.0869644    18.711291   0.03248488     0.043483            8 
   49000    1.1878352   -6.1275305    19.208811  0.032668046  0.043384493            4 
   50000    1.1653071   -6.1391701    19.559724   0.03259954  0.043273652            6 
   51000    1.1908937   -6.1537872    19.919576  0.032548326  0.043154777            1 
   52000    1.1877505    -6.107159    20.548375  0.032930088  0.043026352            5 
   53000    1.1643713   -6.1137103    20.951447  0.032942526  0.042914845            1 
   54000    1.1632598   -6.1184087    21.264838  0.032816107  0.042788793            5 
   55000    1.1665791    -6.128095    21.649764  0.032802673  0.042633142           10 
   56000    1.1993716   -6.1363104    22.262313  0.033128442  0.042486797            2 
   57000    1.1657198    -6.158957    22.796501  0.033328217  0.042367475            3 
   58000    1.1528231   -6.1806204     23.30703  0.033487112  0.042275793            4 
   59000    1.1616765   -6.1447121    23.764224  0.033565288  0.042189222            3 
   60000    1.1622859   -6.1249693    24.050989  0.033404151  0.042077327            8 
   61000    1.1788325   -6.1346831    24.574339  0.033571501  0.041965917            3 
   62000     1.175711   -6.1871171    25.068766  0.033694578  0.041867826            5 
   63000    1.1661542   -6.1755963    25.529853  0.033769646  0.041772884            4 
   64000    1.1429656   -6.1574746    25.955491  0.033796213  0.041683855            7 
   65000    1.1536506   -6.1381544     26.45957  0.033922525  0.041597772            3 
   66000    1.1700296   -6.1953497    26.752788  0.033778772  0.041501877            3 
   67000    1.1449951   -6.1631247    27.398454  0.034077679  0.041412795            1 
   68000    1.1620192    -6.139657    27.879376  0.034165901  0.041337914            3 
   69000    1.1735285   -6.2004231    28.156334  0.034005234  0.041255801            4 
   70000     1.176979   -6.1712475    28.840614  0.034334064  0.041173335            3 
   71000    1.1692435    -6.178771    29.081182  0.034132842  0.041095173            3 
   72000    1.1421723   -6.1974043    29.393072  0.034019759  0.040998363           10 
   73000    1.1556856   -6.1985158    29.877361  0.034106576  0.040898811            2 
   74000    1.1258536   -6.1423023    30.267441  0.034084956  0.040802834            5 
   75000    1.1467473    -6.156422    30.619997  0.034022218  0.040697678            1 
   76000    1.1451226   -6.2063455    31.154055  0.034160148  0.040593689            2 
   77000    1.1882833   -6.2233049    31.358674  0.033937958  0.040488042           11 
   78000    1.1320437   -6.1623502    31.729312  0.033898837  0.040374262            3 
   79000    1.1543809   -6.2038358    32.184378  0.033949765  0.040267672            4 
   80000    1.1601131   -6.2426887    32.665335   0.03402639  0.040163589            3 
   81000    1.1313348   -6.2174948    33.138483  0.034093089  0.040061964            3 
   82000    1.1269342   -6.2484281     33.28712  0.033828374  0.039947434            3 
   83000    1.1531714   -6.1569057    33.588726   0.03372362  0.039828691            3 
   84000    1.1330071   -6.1949908    34.028399  0.033758332   0.03970819            7 
   85000    1.1295136   -6.2317096    34.550717  0.033873251  0.039595083            4 
   86000    1.1209188   -6.2742662    34.927104  0.033844093  0.039489003            2 
   87000    1.1493163   -6.2461563    35.294025  0.033806538  0.039381697            4 
   88000    1.1592206   -6.2492916    35.650599  0.033760037  0.039269309            5 
   89000    1.1488861   -6.2286301    35.885798  0.033600934  0.039150851            5 
   90000    1.1223719   -6.2348235    36.325666  0.033634876  0.039036269            4 
   91000    1.1139057   -6.2607858    36.638997  0.033552195  0.038914139            3 
   92000    1.1394056   -6.2365997    37.115064  0.033618717  0.038800239            3 
   93000    1.1237939   -6.2492161    37.339028   0.03345791  0.038687105            7 
   94000    1.1098127   -6.2984728    37.637037  0.033366168   0.03857038            4 
   95000    1.1070647   -6.2776579      37.9677     0.033305  0.038447272            2 
   96000    1.1119015    -6.265134     38.27026  0.033220711  0.038325051            3 
   97000    1.1124567   -6.2430749    38.838224  0.033366171  0.038212798           11 
   98000    1.1271739   -6.2660702    39.396982  0.033500835  0.038105586            3 
   99000    1.1086112   -6.2383484    39.571455  0.033309305  0.038003728            2 
  100000    1.1108233   -6.2826671    39.930482  0.033275402  0.037905986            4 
  101000    1.1062641   -6.2664311    40.398782  0.033332328  0.037810291            5 
  102000    1.1232737   -6.2395227    41.124484  0.033598434  0.037728035            2 
  103000    1.0977415   -6.2332797    41.677275  0.033719478  0.037652415            4 
  104000    1.1175169   -6.2430094    42.098014  0.033732383  0.037585979            4 
  105000    1.1029581   -6.2814215    42.206129  0.033496928  0.037517466            3 
  106000    1.0881945   -6.2805656    42.911902  0.033735772  0.037453304            5 
  107000    1.1078502   -6.3196972    43.322954  0.033740618  0.037395807            6 
  108000     1.084362   -6.2733048    43.799101  0.033795602  0.037340204            4 
  109000    1.0967066   -6.2799032    44.196147  0.033789103  0.037288274            4 
  110000    1.0929084   -6.2853687    44.526152  0.033731933  0.037233998            4 
  111000    1.1020828   -6.3306425    44.887178  0.033699083  0.037178238            3 
  112000    1.1017528   -6.3123579    45.232402  0.033655061   0.03712259            4 
  113000    1.1000213   -6.3215315     45.68124   0.03368823  0.037066938            2 
  114000     1.075511   -6.2615351    46.313862  0.033855162  0.037017162            4 
  115000    1.0919219   -6.3182821    46.712167  0.033849397  0.036969906            4 
  116000    1.0629627   -6.3254894    47.009338  0.033771076  0.036925099            2 
  117000    1.0697966   -6.2810888    47.438475  0.033788088  0.036879849            6 
  118000    1.0984916   -6.3184975    47.952766  0.033864948  0.036835704            7 
  119000    1.0630151   -6.3437663     48.03657  0.033639055  0.036783828            7 
  120000    1.0753169   -6.3135046    48.182731   0.03346023  0.036728304            4 
  121000    1.0743203    -6.338844    48.180406  0.033182098  0.036661725            3 
  122000    1.0672428   -6.3330962    48.493201  0.033123771   0.03658664            5 
  123000    1.0644786   -6.3087373    48.867882  0.033108321  0.036508352            6 
  124000    1.0898834    -6.322712    48.786586  0.032786684  0.036428156            5 
  125000    1.0568653   -6.3282294    49.316159  0.032877439  0.036346022            4 
  126000    1.0679678   -6.3135251     49.70347  0.032872665  0.036263254            4 
  127000    1.0606272   -6.3011806    49.924319   0.03275874  0.036179754            7 
  128000     1.048737      -6.3319    50.308433  0.032752886  0.036096069            4 
  129000    1.0977152   -6.3476722    50.629542  0.032706422  0.036014567            4 
  130000    1.0553721   -6.3680064    51.031653  0.032712598  0.035934484            3 
  131000    1.0433906     -6.32837    51.609397  0.032830405  0.035856092            5 
  132000     1.056973   -6.3667768    51.644089  0.032603592  0.035780143            6 
  133000    1.0406877   -6.3717258    51.877413  0.032504645  0.035701723            4 
  134000    1.0721317   -6.3839558    52.402003   0.03258831  0.035624254            4 
  135000    1.0516615   -6.3838075    52.587593  0.032461477   0.03554445           11 
  136000    1.0728944   -6.3458476    52.807293   0.03235741  0.035462492            3 
  137000    1.0455439   -6.3576138    53.212502  0.032367702  0.035381083            6 
  138000    1.0636706   -6.3587409    53.518649  0.032318025  0.035302362            3 
  139000    1.0405688   -6.3686114    53.652795  0.032165944  0.035222418            4 
  140000    1.0651377   -6.4191164     53.97925  0.032130506  0.035141043            3 
  141000    1.0330543   -6.3441955    54.578175  0.032256604  0.035060008            3 
  142000    1.0399101   -6.3746275    54.422818  0.031938273  0.034976047            8 
  143000    1.0354413   -6.3559079    54.675775   0.03186234  0.034885241            4 
  144000    1.0451952   -6.3905405    54.856006  0.031745374  0.034794007            3 
  145000    1.0500423   -6.3715241    55.328576  0.031798032  0.034703071            4 
  146000    1.0229712   -6.3885104    55.562498  0.031713754   0.03461404            3 
  147000    1.0497484   -6.3898206    55.777017  0.031619624  0.034525649            3 
  148000    1.0261957   -6.3835297    55.866584   0.03145641  0.034436988            2 
  149000    1.0382265   -6.4363441    56.357113  0.031519638  0.034347085            4 
  150000    1.0382086   -6.4088837    56.394448  0.031330249  0.034258678            4 
  151000    1.0467394   -6.4190883     56.89221  0.031397467  0.034171954            3 
  152000    1.0324141   -6.4215845    57.338662   0.03143567  0.034089013            4 
  153000    1.0139642   -6.4265158    57.526056  0.031332274  0.034006599            8 
  154000    1.0140091   -6.4218699    57.877528  0.031319009  0.033923149           10 
  155000    1.0108452   -6.4232314    58.166688  0.031272413  0.033840342            7 
  156000    1.0236457    -6.437681    58.450777  0.031223706  0.033759706            8 
  157000    1.0067601   -6.4224037    58.833555  0.031228002  0.033676263            4 
  158000    1.0071467    -6.441936    58.989119  0.031112405  0.033596203            9 
  159000    1.0219434   -6.4154094    59.273896  0.031065983  0.033514428            7 
  160000      1.01488   -6.4667908    59.452428  0.030964806  0.033431425            6 
  161000      0.98229   -6.4698159    59.528408  0.030811805  0.033348968            7 
  162000    1.0004786    -6.441612    59.974615  0.030851139  0.033267628            4 
  163000    1.0020782   -6.4561971    59.980041  0.030664643  0.033183399            6 
  164000   0.99650502   -6.4656833    60.237725    0.0306086  0.033098613            6 
  165000    1.0043885   -6.4380645    60.684636  0.030648806  0.033013477            4 
  166000   0.98348133   -6.4849489    60.877787  0.030561138  0.032931264            2 
  167000    1.0255402    -6.422804     61.30905  0.030593338    0.0328503            4 
  168000    1.0071661   -6.4355261    61.565864  0.030538623  0.032768501            3 
  169000    1.0045004   -6.4712185    61.827101  0.030486736  0.032689212            6 
  170000   0.98559247   -6.4467694    61.973417  0.030379126   0.03261007            7 
  171000   0.98468937   -6.5097132    62.483119  0.030449863  0.032533215            5 
  172000    1.0024547   -6.4716624    62.747005  0.030400681  0.032456974           19 
  173000    1.0288622   -6.4583916    63.176014  0.030431606  0.032383442            6 
  174000    1.0014228     -6.44574    63.121871  0.030230781  0.032308075            2 
  175000     1.000503   -6.4763925    63.774189  0.030368662  0.032234107            8 
  176000   0.98410995   -6.4815172    63.764027  0.030191301  0.032161499            3 
  177000   0.98343603   -6.5002918     64.21709  0.030234035  0.032089517            8 
  178000    1.0013529   -6.4993502    64.265372  0.030086785   0.03201801            7 
  179000   0.98300295   -6.4878357     64.76651  0.030152006  0.031948489            5 
  180000   0.99969298   -6.4889998    64.839168  0.030018133  0.031878245            4 
  181000   0.95977033   -6.4800601    65.354195  0.030089408  0.031809143            9 
  182000   0.97121985   -6.5000214    65.616737  0.030044293  0.031741177            5 
  183000    1.0023385   -6.5035836    65.992211  0.030051098  0.031674368            8 
  184000   0.98149325    -6.513298    66.164016  0.029965587  0.031606899            8 
  185000   0.96233366   -6.4913114    66.287214  0.029859105  0.031540933            5 
  186000   0.97447921   -6.5300825    66.716405  0.029890862   0.03147534            8 
  187000   0.95197518   -6.5318157    66.811385  0.029773344  0.031409348           10 
  188000   0.96489211   -6.5458384    67.421723  0.029885516  0.031344262            5 
  189000   0.97703284   -6.5209213    67.559772  0.029788259   0.03128029            8 
  190000   0.94819721   -6.5331163    67.649535  0.029670848  0.031215914            7 
  191000   0.99865918   -6.5274919     67.64854   0.02951507  0.031149087            7 
  192000   0.95539472   -6.5030627     67.84742  0.029447665  0.031081513            9 
  193000   0.96645403   -6.5518497    68.077195  0.029394298  0.031011554           10 
  194000   0.96396145   -6.5506053    67.935762  0.029182028  0.030939458            3 
  195000   0.95878492   -6.5418685    68.417634  0.029238305  0.030867374            9 
  196000   0.94768918   -6.5097696    68.686616  0.029203493  0.030796623            4 
  197000   0.94048945   -6.5491631    68.755928  0.029084572  0.030724794            5 
  198000   0.94871592   -6.5451669    69.135435  0.029097405  0.030652804           13 
  199000   0.95335975   -6.5656755    69.147361  0.028956181  0.030581426            4 
  200000    0.9557495   -6.5602161    69.420493  0.028925205  0.030510321            3 
  201000   0.95015888   -6.5441457    69.595351  0.028853794  0.030438752            6 
  202000   0.94614886   -6.5409094    70.057483  0.028901602  0.030367695            4 
  203000   0.96367832   -6.5735056    70.012832    0.0287409  0.030297802            8 
  204000   0.93471382   -6.5723386    70.228626  0.028688164  0.030226971            3 
  205000   0.94132758   -6.5835308    70.241037  0.028553267   0.03015641           13 
  206000   0.91541815   -6.5809813    70.834333  0.028654665  0.030086121            8 
  207000   0.94722639   -6.5992519    70.795525  0.028500614  0.030016874            5 
  208000   0.93582134   -6.5977367    71.170413  0.028513787  0.029947535            8 
  209000   0.93516114   -6.5898247    71.326835  0.028439727  0.029876975            5 
  210000   0.92441355   -6.5858161    71.549566  0.028392685  0.029806212            7 
  211000    0.9102921   -6.5959233    71.742126  0.028334173  0.029735083            9 
  212000   0.91397375   -6.5698878    71.597577  0.028143702  0.029662455            5 
  213000   0.89727664   -6.6038357    71.885077  0.028124052  0.029590699            5 
  214000   0.91236596   -6.6027023    72.049988  0.028056849  0.029519265            4 
  215000    0.9359299   -6.5946416    72.165044  0.027970947  0.029446856            4 
  216000   0.92901837   -6.5873926     72.33083  0.027905413  0.029374388            5 
  217000   0.91701809   -6.5923788    72.516774  0.027848224  0.029300693            6 
  218000   0.92088695   -6.6414515    72.811488  0.027833138  0.029227989            8 
  219000   0.91404848   -6.6429537    72.735589  0.027677165  0.029154513            7 
  220000   0.91702834    -6.614275    72.815898   0.02758178  0.029079134           11 
  221000   0.90589727   -6.6410029    72.775679   0.02744181    0.0290028           11 
  222000   0.92300443   -6.6075904    73.156571  0.027461175  0.028926149           11 
  223000   0.91881913   -6.5887926    73.268288  0.027379779  0.028851489            8 
  224000   0.92776946   -6.6261459    73.505361  0.027345744  0.028776747           11 
  225000   0.91415106    -6.661725    73.445589   0.02720207  0.028701317            3 
  226000   0.89713437   -6.6583785    73.694015  0.027173309  0.028625111            5 
  227000   0.90996703   -6.6439973    73.876619  0.027120638  0.028549741            9 
  228000   0.90970255   -6.6111233    74.155391  0.027103579  0.028474583            5 
  229000   0.92285858   -6.6638975    74.334435  0.027050376  0.028400652            8 
  230000   0.90391865   -6.6624009    74.607863  0.027031834  0.028326551           14 
  231000   0.90616055   -6.6852886    74.703025  0.026949143    0.0282538            8 
  232000   0.91557578    -6.650505     74.97547  0.026930844  0.028182686           15 
  233000   0.88764036   -6.6935326    75.008509  0.026827077  0.028111439            7 
  234000   0.90562506   -6.6756272     75.58247  0.026916834  0.028041163            8 
  235000   0.90667132   -6.6959866    75.845815  0.026895679  0.027972546            4 
  236000   0.89146992   -6.6631011     75.97762  0.026828255  0.027905193           12 
  237000   0.90483766   -6.6830434    75.920943  0.026695127  0.027837262            7 
  238000   0.89448419   -6.6896463    76.098042  0.026644973  0.027767816            4 
  239000   0.88935586   -6.7121967    76.026589  0.026508574  0.027698035            9 
  240000   0.89369939   -6.6706075    76.658901  0.026617674  0.027629329            5 
  241000   0.88277324   -6.6865351    76.532463  0.026463507  0.027561444            6 
  242000   0.89248771   -6.6965636    76.749291  0.026428819  0.027493123           18 
  243000   0.88772075   -6.6802681    77.035557  0.026418229  0.027423877           31 
  244000   0.86217962   -6.6934367    77.111263  0.026335814  0.027355933           13 
  245000   0.87318505    -6.692008    77.334353  0.026304202  0.027287755           14 
  246000   0.86249468   -6.6727688    77.745605  0.026336587  0.027220288            8 
  247000   0.90051746   -6.7163169    77.592664  0.026178362  0.027152924            4 
  248000   0.88249006   -6.7144355    77.718329   0.02611503  0.027085293            5 
  249000   0.86152108   -6.7090657    77.840479   0.02605103  0.027017369            5 
  250000   0.87524892   -6.7521285    77.969688  0.025989896  0.026949177            9 
  251000   0.88171174   -6.7586642     77.99652  0.025895259  0.026880894           20 
  252000   0.86639228   -6.7057824    78.639106  0.026004995  0.026814184            6 
  253000   0.85148361   -6.7338084    78.632343  0.025899981  0.026747235           12 
  254000    0.8607608   -6.7226863    78.667496  0.025809546  0.026680928           17 
  255000    0.8701378   -6.7093606    78.857845  0.025770538  0.026615086            7 
  256000     0.856829   -6.7471984     78.85049  0.025667477  0.026549126            4 
  257000   0.85078964   -6.7331204    78.973975  0.025607644  0.026482449            6 
  258000   0.85785611   -6.7442805    78.779031  0.025445423  0.026415513            5 
  259000   0.84044582   -6.7348803    79.020398  0.025424838  0.026347593           22 
  260000   0.84757065   -6.7670895    79.319978   0.02542307  0.026279927           10 
  261000   0.83156362   -6.7259229     79.39129  0.025348432  0.026212527            7 
  262000    0.8520776   -6.7315067     79.67185  0.025340919  0.026145828            6 
  263000    0.8535248   -6.7874395    79.529247  0.025199381  0.026079618            9 
  264000   0.85314122    -6.733722    79.929972   0.02523042  0.026012854            7 
  265000   0.85481734    -6.753713    79.863131  0.025114192  0.025945906           22 
  266000   0.83783965   -6.7664445    79.850043  0.025015677  0.025878497            7 
  267000   0.85438006   -6.7611434    80.124684  0.025007704  0.025811731            5 
  268000   0.84172943    -6.772842    79.994849   0.02487402  0.025745137           13 
  269000   0.84371153   -6.7606328    80.337726  0.024887771  0.025679036            8 
  270000   0.81198782   -6.7881375    80.469705  0.024836329  0.025613336            9 
  271000    0.8204723   -6.7932839    80.524498  0.024761531  0.025546725           10 
  272000   0.83718415   -6.7981412    80.519441  0.024668946  0.025478781           14 
  273000     0.827204   -6.8082217    80.864842  0.024684018  0.025411937            6 
  274000   0.81871395   -6.8269175     80.70334  0.024544811  0.025345845           17 
  275000   0.82697448   -6.7687049    80.807607  0.024487154  0.025279016           20 
  276000   0.82693584   -6.8028685    80.956271  0.024443319  0.025212376            9 
  277000   0.83860004   -6.8232262    81.146031  0.024412163  0.025144956           11 
  278000   0.82380225   -6.8148153     80.93922  0.024262356  0.025077211           10 
  279000   0.82297611   -6.7995175    80.916474    0.0241686   0.02500924           12 
  280000   0.83093684   -6.8113391    81.198555  0.024166236  0.024941414            9 
  281000   0.82387033   -6.7993446    81.414614   0.02414431  0.024873459           13 
  282000    0.8426089   -6.8197923    81.516488  0.024088797  0.024805901            7 
  283000   0.78781421    -6.812812    81.297342  0.023939147  0.024737738           14 
  284000   0.80936575   -6.8086443    81.696929  0.023972104  0.024670211           12 
  285000    0.8106115   -6.8314523    81.752843   0.02390434  0.024603512           14 
  286000   0.81467628   -6.8423167    81.848536  0.023848641  0.024536567           10 
  287000   0.81106868   -6.8373797    81.802479  0.023752172    0.0244692            8 
  288000   0.80496191   -6.8340238    81.961484  0.023715707  0.024402165            5 
  289000   0.80860644   -6.8282909    81.998511  0.023644323  0.024335036           11 
  290000   0.79617378    -6.842497    82.214346  0.023624812  0.024268618           29 
  291000    0.8028995   -6.8740776    81.946879  0.023467033  0.024201396           19 
  292000   0.79090141   -6.8472791    82.474819  0.023537334   0.02413423           33 
  293000   0.79317112   -6.8532941     82.21391  0.023382796  0.024067554           12 
  294000   0.80346214   -6.8619628    82.232975  0.023308666  0.024000829           10 
  295000   0.79828593   -6.8526269    82.213743  0.023224221   0.02393393           27 
  296000   0.78895162   -6.8259358    82.444756  0.023210798  0.023867509           20 
  297000   0.80099615   -6.8732462    82.459098  0.023136672  0.023800843           24 
  298000   0.79176243   -6.8725258    82.589385  0.023095466  0.023734248           12 
  299000   0.78898077   -6.8562807    82.600832  0.023021414   0.02366772           14 
  300000   0.77354058   -6.8753593    82.887629  0.023024341  0.023601412           17 
  301000   0.77971952   -6.8666803    82.916519  0.022955847   0.02353543           14 
  302000   0.79055329   -6.9133121    82.853739  0.022862511  0.023468998           24 
  303000   0.78723301   -6.8835709    82.898947   0.02279949  0.023402503            7 
  304000   0.77697791   -6.8731073    83.058125  0.022768126  0.023336393            7 
  305000   0.80098648   -6.8935439    83.129528  0.022712986  0.023270053            6 
  306000   0.77808812   -6.8970822    83.158637  0.022646687  0.023203753           14 
  307000   0.76904716   -6.8887085    83.183768  0.022579742  0.023137419            5 
  308000   0.77744475   -6.8984142    83.292074  0.022535734  0.023071071           12 
  309000    0.7691567   -6.9215879    83.126238  0.022418079  0.023004911           18 
  310000   0.78150458   -6.9507071    83.345141  0.022404608  0.022938617           16 
  311000   0.77368255   -6.9096323    83.246681  0.022306185  0.022872412           21 
  312000   0.77295285   -6.9109502    83.446872   0.02228816  0.022806597           17 
  313000   0.78053793   -6.9041402    83.516889  0.022235593  0.022741072           11 
  314000   0.75677157   -6.9124566    83.536165  0.022169895  0.022675628           11 
  315000    0.7655109   -6.9100951    83.620169  0.022121738  0.022610118           17 
  316000   0.76364045   -6.9128067      83.5271  0.022027189  0.022544434            7 
  317000   0.76303003   -6.9403269     83.44675   0.02193658  0.022478973           25 
  318000   0.76822726   -6.9041999    83.662238  0.021924067  0.022413925           16 
  319000   0.76082489   -6.9232948    84.103631  0.021970645  0.022349753           16 
  320000    0.7471787   -6.9245995    83.969914  0.021867165  0.022285847           11 
  321000   0.77009749   -6.9307705    84.125657  0.021839475  0.022222033           11 
  322000   0.74552518   -6.9312465    84.102778  0.021765729  0.022158485           11 
  323000    0.7440228   -6.9305736    84.082271  0.021693052  0.022095034            7 
  324000   0.73742607   -6.9455147    84.259454   0.02167167   0.02203156           11 
  325000   0.76247537   -6.9589157    84.319455  0.021620373  0.021968367           18 
  326000   0.73937793   -6.9639878    84.437531  0.021584236  0.021905666           19 
  327000   0.74580461   -6.9393724    84.660689  0.021575099  0.021842834           15 
  328000   0.75521447   -6.9459467    84.670232  0.021511746  0.021780728            9 
  329000   0.74909022   -7.0049726    84.531081  0.021411115  0.021718329           18 
  330000   0.75645696   -6.9812273    84.343226  0.021298795  0.021655964           17 
  331000   0.72945589   -6.9773426    84.385181   0.02124501  0.021593217           30 
  332000   0.74327316   -7.0011587    84.649894  0.021247463  0.021530676           22 
  333000   0.72876407   -7.0102243    84.648897  0.021183408  0.021468214           30 
  334000   0.72295854   -6.9631047     84.91948  0.021187495  0.021406451           18 
  335000   0.73067225   -6.9949452    84.885821  0.021115876  0.021345108           22 
  336000   0.72909596   -6.9743301    85.170363  0.021123602  0.021284135           31 
  337000   0.72870671     -6.97476    84.962469  0.021009513  0.021223361           31 
  338000    0.7315603   -7.0088789    85.027213  0.020963317  0.021162314           30 
  339000   0.73200132   -7.0057991    85.202499  0.020944567   0.02110177           14 
  340000   0.72327061   -7.0003554    84.895133  0.020807631  0.021040929           14 
  341000    0.7136134   -6.9950536     85.28434  0.020841725  0.020980565           19 
  342000   0.72150962   -7.0012452    85.183222  0.020756146  0.020919949           16 
  343000   0.72616004   -7.0288975     85.25528  0.020713139  0.020859932           19 
  344000   0.72806309   -7.0070848    85.274701  0.020657631  0.020800061           13 
  345000   0.69727369    -7.027127    85.379211  0.020622998  0.020740547           16 
  346000   0.71707803   -6.9886122     85.61786  0.020620872  0.020681448           13 
  347000   0.70124783   -7.0402393    85.395128  0.020507956  0.020622337           19 
  348000   0.71479939   -7.0365914    85.526237  0.020480421  0.020563256           23 
  349000   0.70347537   -7.0163338    85.628425  0.020446138  0.020504582           17 
  350000   0.70454571   -7.0503055    85.584468  0.020377254  0.020445879           16 
  351000   0.71250129   -7.0217471     85.63521  0.020331247  0.020387705           20 
  352000   0.71393474   -7.0380153    85.800194  0.020312546   0.02032938           25 
  353000   0.70971173     -7.03997    85.840368  0.020264487  0.020271338           20 
  354000   0.70796413   -7.0412357    85.742178  0.020184128  0.020213377           31 
  355000   0.70610781   -7.0663687    85.663543  0.020108813  0.020155379           28 
  356000   0.70091043   -7.0767826    85.557388  0.020027478   0.02009726           31 
  357000   0.71338945   -7.0672213     85.84638  0.020038838  0.020039265           37 
  358000   0.70840888   -7.0733643     85.95769  0.020008773   0.01998133           29 
  359000   0.70087872   -7.0599409     85.96223  0.019954092  0.019923196           44 
  360000   0.69211588   -7.0521194    85.883949  0.019880544  0.019865135           53 
  361000   0.68823528   -7.0662915    85.862884   0.01982061  0.019806917           29 
  362000   0.68808504   -7.0965257    85.880749   0.01976997  0.019748634           98 
  363000   0.68669561   -7.0843776    85.573134  0.019644888  0.019690283           63 
  364000   0.66771092   -7.0793674    85.710639  0.019622399  0.019632111           86 
  365000   0.69111553   -7.1095054    85.730697  0.019573218  0.019574014          197 
  366000    0.6810491   -7.0914107    85.871893  0.019551888  0.019515963           95 
  367000   0.68972729   -7.1133361    85.736232  0.019467809  0.019458231          140 
  368000   0.68922299    -7.107906    85.944055  0.019461969  0.019400569          113 
  369000   0.67610635   -7.1180945    85.770073  0.019369935  0.019343192          157 
  370000   0.67941557   -7.1236684    85.995493  0.019368354  0.019286065           82 
  371000   0.67387157   -7.1081216    85.981943  0.019313105  0.019228995          110 
  372000   0.65475099   -7.1102146    85.857315   0.01923327  0.019172124          136 
  373000   0.67748916   -7.1110141    86.046287  0.019223925  0.019115567          132 
  374000   0.67429727   -7.1075181     86.11399  0.019187609  0.019059126          137 
  375000   0.66592199   -7.1118834    86.054126  0.019123139  0.019002549          145 
  376000   0.67503266   -7.1264941    85.874303  0.019032425  0.018946264          219 
  377000   0.67139396   -7.1421821    86.412915  0.019100998  0.018890283          194 
  378000   0.66102904    -7.121564    86.165815  0.018995991  0.018834439          203 
  379000   0.68384499   -7.1363617    86.117048  0.018935147  0.018778709          243 
  380000   0.66647924   -7.1424381    86.131353  0.018888454  0.018723087          186 
  381000   0.65767816   -7.1473056    86.234653  0.018861473  0.018667464          192 
  382000   0.66015343   -7.1806127    86.045004  0.018770725  0.018611712          346 
  383000   0.66813434   -7.1567266    86.157879  0.018746275  0.018556058          275 
  384000   0.65806621   -7.1733373    86.204872  0.018707655  0.018500544          198 
  385000   0.64607376   -7.1555599    86.176511  0.018652924  0.018444973          380 
  386000   0.65701965   -7.1679204    86.148442  0.018598541  0.018389787          211 
  387000    0.6501676   -7.2021389    86.215815   0.01856499  0.018334881          363 
  388000   0.63863766   -7.1971061    86.333909  0.018542506  0.018280014          434 
  389000   0.64614678   -7.1797536    86.059293   0.01843601  0.018225206          496 
  390000   0.63396275   -7.1774602    86.374895  0.018456174  0.018170611          508 
  391000   0.64412389   -7.1967349    86.298395  0.018392667  0.018116158          553 
  392000   0.64608436   -7.1721865    86.293728  0.018344755  0.018061778          470 
  393000   0.64228575   -7.2032927    86.143613  0.018266245  0.018007588          501 
  394000   0.63043885   -7.2204826    86.260225  0.018244548  0.017953393          461 
  395000   0.63109479   -7.2258479    86.282619  0.018203084  0.017899103          411 
  396000   0.62423732   -7.2041651    86.007725  0.018099269  0.017844885          638 
  397000   0.61748555   -7.2264803    86.218094  0.018097837  0.017790787          625 
  398000   0.63040363   -7.2635284    86.283289  0.018066015  0.017736776          638 
  399000   0.62552223   -7.2355508     86.04028  0.017969983  0.017682841          788 
  400000   0.63948135   -7.2462985    86.005118  0.017917733  0.017628852          732 
  401000   0.63122366   -7.2420605    86.060137  0.017884484   0.01757492          759 
  402000   0.62069791   -7.2401142    86.209744  0.017871008  0.017521145          769 
  403000   0.61665255   -7.2341518    86.130075  0.017810189  0.017467592          778 
  404000   0.62104735   -7.2473117    86.170117  0.017774364  0.017414276          726 
  405000   0.63534964   -7.2544521    86.003295  0.017696151  0.017360903          750 
  406000   0.63695883   -7.2699381    86.163462   0.01768544  0.017307851          766 
  407000   0.61784434   -7.2667661    86.004862  0.017609513  0.017254935          798 
  408000   0.60101328   -7.2473705    86.110969  0.017588025  0.017201945          786 
  409000   0.60335166   -7.2617936    86.081598  0.017539038  0.017149214          856 
  410000   0.59754734   -7.2644607     86.01055  0.017481819  0.017096567          800 
  411000   0.60034342   -7.2620079     86.00897  0.017438964     0.017044          838 
  412000   0.61713135   -7.2706287    86.102135   0.01741548  0.016991683          798 
  413000   0.61228775   -7.2702248    85.995461  0.017351788  0.016939804          829 
  414000   0.61125071   -7.2884668    86.065739  0.017324021  0.016887824          842 
  415000   0.60544039   -7.2662636    86.075816    0.0172843  0.016835883          819 
  416000   0.59846784   -7.2992455    86.009646  0.017229496  0.016784129          887 
  417000   0.59721009   -7.2731878      86.1049  0.017207214  0.016732456          773 
  418000   0.60799392   -7.3004504    86.122477  0.017169553  0.016681019          888 
  419000   0.59450212   -7.2936163    85.953063  0.017094881    0.0166296          904 
  420000   0.59522895   -7.3208099    86.121756   0.01708765  0.016578319          978 
  421000   0.59023712   -7.2907244    85.903982  0.017003955  0.016527104         1063 
  422000    0.6079489   -7.2982756    85.996139   0.01698186  0.016476009         1015 
  423000   0.57414941   -7.3087967    85.884425  0.016919705  0.016425057         1092 
  424000   0.60505002   -7.3317369    86.069232  0.016916123   0.01637411         1110 
  425000   0.58572363   -7.3201795     86.01222  0.016865141  0.016323512         1063 
  426000   0.57477151   -7.3217327    85.856032  0.016794998  0.016272855         1134 
  427000   0.57722128   -7.2995502    85.998026  0.016783377   0.01622227         1118 
  428000   0.57981874   -7.3618951    86.053234  0.016754913  0.016172002         1119 
  429000   0.58754195   -7.3297369    85.940361  0.016693932  0.016121871         1111 
  430000   0.58827508    -7.316156    85.882329  0.016643862  0.016071885         1064 
  431000   0.56478955   -7.3273182     85.93608  0.016615638  0.016022118         1111 
  432000   0.56101503   -7.3717675    86.076498  0.016604263  0.015972399         1094 
  433000   0.57478324   -7.3621408    85.951646  0.016541887  0.015922655         1160 
  434000   0.56606748   -7.3446364    85.877984  0.016489628  0.015873167         1185 
  435000   0.57087177    -7.357028     85.81709  0.016440055  0.015823791         1219 
  436000   0.58098491   -7.3609183    85.867964  0.016412073  0.015774479         1156 
  437000   0.57377993   -7.3532648    85.862524  0.016373479   0.01572536         1217 
  438000   0.57115339   -7.3580678    85.722403  0.016309437  0.015676398         1161 
  439000   0.56122205   -7.3876511    86.078025  0.016339792  0.015627732         1207 
  440000   0.56140943   -7.3845281    85.805035  0.016250954  0.015579275         1170 
  441000   0.55346953   -7.3793001    85.859191  0.016224337  0.015530932         1212 
  442000   0.55606178   -7.3998706     85.95789  0.016206239  0.015482716         1157 
  443000   0.57182046   -7.3863856    85.843911  0.016148215  0.015434555         1312 
  444000   0.55843275   -7.3817313    85.700381  0.016084906  0.015386501         1283 
  445000    0.5668888   -7.4130343    85.773076  0.016062374  0.015338531         1283 
  446000   0.54696114   -7.3923945    85.885253  0.016047319  0.015290783         1282 
  447000   0.56298726   -7.3823785    85.710699  0.015978877  0.015243122         1373 
  448000   0.55680602   -7.3785142    85.658336   0.01593347  0.015195632         1314 
  449000   0.55758588   -7.4115146    85.801207    0.0159245  0.015148479         1305 
  450000   0.55406547   -7.4100495    85.679733  0.015866617  0.015101412         1274 
  451000   0.55223787   -7.4046633     85.62336   0.01582102  0.015054426         1377 
  452000   0.54412582   -7.4119689    85.839799  0.015825922  0.015007604         1386 
  453000    0.5505224   -7.4096828    85.787846  0.015781429  0.014960936         1315 
  454000   0.54217296    -7.431106    85.608746  0.015713793  0.014914425         1360 
  455000   0.53678879   -7.4217017    85.625571  0.015682339  0.014868117         1413 
  456000   0.53893772   -7.4479425    85.644163  0.015651346  0.014821946         1368 
  457000   0.54372509   -7.4441386    85.611742  0.015611186  0.014775816         1338 
  458000   0.53349892   -7.4258956    85.612089  0.015577163   0.01472982         1353 
  459000   0.53356457    -7.444464     85.63165  0.015546777  0.014683979         1369 
  460000   0.54080673   -7.4465277    85.565847  0.015501059  0.014638284         1396 
  461000   0.52336101     -7.42552    85.438627  0.015444437  0.014592772         1417 
  462000   0.51507437   -7.4291964    85.605646  0.015441134  0.014547315         1461 
  463000   0.52647613   -7.4331722    85.533989  0.015394886  0.014502047         1377 
  464000   0.52201356   -7.4494989    85.514784  0.015358259  0.014456894         1368 
  465000   0.52832898   -7.4515052    85.518293  0.015325859  0.014411939         1343 
  466000   0.53623435   -7.4446027    85.546265  0.015297973  0.014367015         1344 
  467000   0.53558088   -7.4591852    85.565215  0.015268596    0.0143223         1412 
  468000    0.5267695   -7.4671391    85.551328  0.015233499  0.014277695         1364 
  469000   0.52125503   -7.4491691    85.346209  0.015164572   0.01423315         1399 
  470000   0.51594214   -7.4565411    85.288631  0.015122098  0.014188865         1394 
  471000   0.51156739   -7.4740065    85.434676  0.015115831   0.01414469         1506 
  472000   0.50797997   -7.4639082    85.354914  0.015069724  0.014100627         1458 
  473000   0.50868205   -7.4521719    85.314464  0.015030737  0.014056711         1443 
  474000   0.51144887   -7.4750181    85.501922  0.015031983  0.014012974         1422 
  475000   0.50940718   -7.4758315     85.35827  0.014975135  0.013969297         1342 
  476000   0.50675678    -7.469365    85.324395  0.014937744  0.013925799         1434 
  477000   0.50372103   -7.4751983    85.401853   0.01491996  0.013882418         1378 
  478000   0.50682009   -7.4744714    85.292452  0.014869674   0.01383919         1477 
  479000    0.5022499   -7.4865888    85.224932  0.014826884  0.013796244         1464 
  480000   0.49970267   -7.4804732    85.335999  0.014815278  0.013753329         1525 
  481000   0.50198601   -7.4827256    85.216256  0.014763731  0.013710662         1538 
  482000   0.48373946    -7.489051    85.284891  0.014744967   0.01366803         1582 
  483000   0.49352104   -7.4961714    85.399395  0.014734195  0.013625692         1536 
  484000   0.49653348   -7.4783451    85.187178  0.014667214  0.013583383         1474 
  485000   0.50453426   -7.4928567    85.111747  0.014624011  0.013541329         1432 
  486000   0.48738714   -7.4930802    85.241881  0.014616235  0.013499404         1490 
  487000   0.48203179   -7.5090202    85.290765  0.014594587  0.013457644         1487 
  488000    0.5018002   -7.4892052    85.227541  0.014553883  0.013416024         1553 
  489000   0.48886261   -7.4971372    85.271032  0.014531532  0.013374472         1486 
  490000   0.48999922   -7.5169234    85.334332  0.014512641   0.01333313         1545 
  491000   0.47499112   -7.5065824    85.236161  0.014466422  0.013291852         1487 
  492000   0.48748133   -7.5080789    85.324757  0.014452025  0.013250772         1511 
  493000   0.48201876   -7.5147849    85.255154  0.014410946  0.013209876         1556 
  494000   0.47538218   -7.5108626     85.23509  0.014378389  0.013169159         1524 
  495000   0.47744659   -7.5225353    85.271059  0.014355397  0.013128513         1554 
  496000   0.47615882   -7.5144619    85.178661  0.014310931  0.013088009         1618 
  497000   0.48151052   -7.5403304    85.206962  0.014286882  0.013047629         1612 
  498000   0.47327501   -7.5349229    85.225976  0.014261375  0.013007475         1542 
  499000   0.46465077   -7.5371698    85.196339  0.014227846   0.01296746         1644 
  500000   0.48235058   -7.5426774    85.246742   0.01420779  0.012927508         1585 
  501000   0.46543608    -7.534851    85.182022  0.014168666  0.012887765         1597 
  502000   0.46144655   -7.5255285    85.203509  0.014144009  0.012848244         1570 
  503000   0.47027435   -7.5361187    85.111527  0.014100651  0.012808814         1611 
  504000   0.46042621   -7.5456404    85.227714  0.014091884  0.012769487         1632 
  505000   0.46252785   -7.5490231    85.103525  0.014043486  0.012730327         1664 
  506000   0.46119364   -7.5426595    85.177704  0.014027949  0.012691263         1626 
  507000   0.45222712   -7.5602323    85.111504  0.013989399  0.012652368         1647 
  508000   0.46285054   -7.5697718    85.145504  0.013967438  0.012613596         1613 
  509000   0.45550207   -7.5574437    85.046465  0.013923783  0.012575027         1649 
  510000   0.45902078    -7.551826    85.044065  0.013896089  0.012536542         1623 
  511000   0.44645391   -7.5568006    85.300011  0.013910635  0.012498185         1699 
  512000   0.46649113   -7.5663684    85.091558  0.013849537  0.012460012         1688 
Loop time of 1071.92 on 48 procs for 500000 steps with 4000 atoms

Performance: 80603.257 tau/day, 466.454 timesteps/s
99.4% CPU use with 48 MPI tasks x no OpenMP threads

MPI task timing breakdown:
Section |  min time  |  avg time  |  max time  |%varavg| %total
---------------------------------------------------------------
Pair    | 64.875     | 69.364     | 73.224     |  19.4 |  6.47
Neigh   | 6.6321     | 6.8102     | 7.0335     |   3.3 |  0.64
Comm    | 58.296     | 62.628     | 68.259     |  28.7 |  5.84
Output  | 0.90719    | 0.90772    | 0.91701    |   0.1 |  0.08
Modify  | 915.64     | 919.98     | 924.88     |   8.0 | 85.83
Other   |            | 12.23      |            |       |  1.14

Nlocal:        83.3333 ave          89 max          75 min
Histogram: 1 1 6 2 4 11 6 7 3 7
Nghost:        1758.17 ave        1778 max        1738 min
Histogram: 2 4 7 3 6 7 7 4 3 5
Neighs:        10675.8 ave       11779 max        9630 min
Histogram: 2 5 5 7 4 12 2 6 3 2
FullNghs:      21352.0 ave       23257 max       19325 min
Histogram: 2 1 7 4 9 9 5 4 6 1

Total # of neighbors = 1024894
Ave neighs/atom = 256.22350
Neighbor list builds = 26978
Dangerous builds = 0

#clear
#
#next RN
#
#jump SELF
Total wall time: 0:17:54
