
units lj                  # Use reduced LJ style units
atom_style atomic         # Uncharged point particles
atom_modify map hash      # Needed for indexing of clusters etc
                          # Used to be able to find where atoms are in relation to each other.

lattice fcc 1.0 spacing 1 1 1
Lattice spacing in x,y,z = 1.5874011 1.5874011 1.5874011
region box block 0 10 0 10 0 10 units lattice
create_box 2 box
Created orthogonal box = (0.0000000 0.0000000 0.0000000) to (15.874011 15.874011 15.874011)
  3 by 4 by 4 MPI processor grid
create_atoms 1 box
Created 4000 atoms
  using lattice units in orthogonal box = (0.0000000 0.0000000 0.0000000) to (15.874011 15.874011 15.874011)
  create_atoms CPU = 0.070 seconds
set type 1 type/fraction 2 0.18 78393
Setting atom values ...
  747 settings made for type/fraction
mass 1 1.0
mass 2 1.0
pair_style lj/cut  3.5
pair_modify tail  yes
pair_coeff 1  1  1.0  1.0   # Intearaction between 1 and 1 set with epsilon = 1 and sigma = 1
pair_coeff 1  2  1.5  0.8
pair_coeff 2  2  0.5  0.88

write_data data.0
System init for write_data ...
Neighbor list info ...
  update every 1 steps, delay 10 steps, check yes
  max neighbors/atom: 2000, page size: 100000
  master list distance cutoff = 3.8
  ghost atom cutoff = 3.8
  binsize = 1.9, bins = 9 9 9
  1 neighbor lists, perpetual/occasional/extra = 1 0 0
  (1) pair lj/cut, perpetual
      attributes: half, newton on
      pair build: half/bin/atomonly/newton
      stencil: half/bin/3d
      bin: standard
WARNING: Not all mixed pair coeffs generated from mixing. Use write_data with 'pair ij' option to store all pair coeffs. (../write_data.cpp:312)


#############################
#   M E L T   S Y S T E M   #
#############################

velocity all create 2.4 6229865 mom yes dist gaussian # Assign velocities
                                                    # Temperature 2.4, random number seed, zero linear momentum
                                                                                # Gaussian distribution

timestep 0.002   # simulation timestep
thermo 1000       # output thermodynamic data every 1000 steps bf 100

# Define a fix  in this case with index 1 applied to all
# particles in the simulation. This fix is for simulations
# in the anisotropic NPT ensemble. Note that we use the MTK
# correction.
fix 1 all npt temp 2.4 2.4 0.1 iso 5.68 5.68 0.5 mtk yes tchain 5 pchain 5 # Use NPT ensemble
                                                                         # Set temperature and pressure and damping
                                                                         # Numbers of thermostats in chain and in barostat
run 10000          # run for 10000 steps
Per MPI rank memory allocation (min/avg/max) = 3.642 | 3.644 | 3.648 Mbytes
Step Temp E_pair E_mol TotEng Press Volume 
       0          2.4   -7.1764538            0   -3.5773538   -3.5088476         4000 
    1000    2.4076408   -4.7915593            0    -1.181001    5.6010822    4556.3777 
    2000    2.3842832   -4.7755483            0   -1.2000175    5.6107871    4554.8687 
    3000     2.413411   -4.7961925            0   -1.1769811    5.3997845    4584.2048 
    4000    2.3797753   -4.8483285            0   -1.2795581    5.4434032    4542.9882 
    5000    2.3976452   -4.7989571            0   -1.2033884    5.6290269    4542.4929 
    6000     2.397448   -4.7782354            0   -1.1829624    5.7003184    4557.0121 
    7000    2.4134164   -4.8182092            0   -1.1989896    5.5345298     4552.041 
    8000     2.410113   -4.7794074            0   -1.1651417    5.2876259    4600.5223 
    9000     2.433399   -4.7543199            0   -1.1051339    5.7698193    4560.2865 
   10000    2.4294433   -4.7629645            0   -1.1197106     5.574065    4582.7573 
Loop time of 2.42515 on 48 procs for 10000 steps with 4000 atoms

Performance: 712534.587 tau/day, 4123.464 timesteps/s
99.4% CPU use with 48 MPI tasks x no OpenMP threads

MPI task timing breakdown:
Section |  min time  |  avg time  |  max time  |%varavg| %total
---------------------------------------------------------------
Pair    | 0.93862    | 1.0204     | 1.0817     |   2.6 | 42.07
Neigh   | 0.19608    | 0.20349    | 0.21409    |   0.8 |  8.39
Comm    | 0.73154    | 0.82503    | 0.93443    |   5.0 | 34.02
Output  | 0.00025367 | 0.00025803 | 0.0003262  |   0.0 |  0.01
Modify  | 0.3069     | 0.36127    | 0.4193     |   5.3 | 14.90
Other   |            | 0.01474    |            |       |  0.61

Nlocal:        83.3333 ave          94 max          72 min
Histogram: 1 3 2 6 8 14 6 4 2 2
Nghost:        1494.73 ave        1534 max        1465 min
Histogram: 3 2 8 10 10 6 4 1 2 2
Neighs:        8320.21 ave        9691 max        6884 min
Histogram: 1 1 4 7 11 11 4 4 3 2

Total # of neighbors = 399370
Ave neighs/atom = 99.842500
Neighbor list builds = 907
Dangerous builds = 208

# Equilibrate just above the melting temperature to avoid step fn in T

fix 1 all npt temp 1.25 1.25 0.1 iso 5.68 5.68 0.5 mtk yes tchain 5 pchain 5
run 2000
Per MPI rank memory allocation (min/avg/max) = 3.642 | 3.644 | 3.648 Mbytes
Step Temp E_pair E_mol TotEng Press Volume 
   10000    2.4294433   -4.7629645            0   -1.1197106     5.574065    4582.7573 
   11000    1.2425702   -6.5053827            0   -4.6419935     5.671209    3707.8765 
   12000    1.2553983   -6.4744078            0   -4.5917811    5.5832803    3725.4196 
Loop time of 0.497844 on 48 procs for 2000 steps with 4000 atoms

Performance: 694192.886 tau/day, 4017.320 timesteps/s
99.7% CPU use with 48 MPI tasks x no OpenMP threads

MPI task timing breakdown:
Section |  min time  |  avg time  |  max time  |%varavg| %total
---------------------------------------------------------------
Pair    | 0.2166     | 0.24037    | 0.28087    |   1.9 | 48.28
Neigh   | 0.03275    | 0.034425   | 0.03978    |   0.6 |  6.91
Comm    | 0.12452    | 0.17051    | 0.20184    |   2.7 | 34.25
Output  | 4.9081e-05 | 5.2502e-05 | 6.5572e-05 |   0.0 |  0.01
Modify  | 0.041996   | 0.047918   | 0.05836    |   1.9 |  9.63
Other   |            | 0.004571   |            |       |  0.92

Nlocal:        83.3333 ave          91 max          77 min
Histogram: 8 2 5 3 6 9 4 7 2 2
Nghost:        1718.04 ave        1736 max        1691 min
Histogram: 2 0 2 5 6 7 9 6 7 4
Neighs:        10241.1 ave       11304 max        9038 min
Histogram: 1 4 7 2 8 5 6 8 4 3

Total # of neighbors = 491572
Ave neighs/atom = 122.89300
Neighbor list builds = 143
Dangerous builds = 15

#############################
# L I N E A R  Q U E N C H  #
#############################

# Define solid atoms. This closely follows ten Wolde  Ruiz-Montero and Frenkel  Faraday Discuss  1996  104  93-110
# Compute components of the per-atom q6 vector
compute q6 all orientorder/atom degrees 1 6 components 6 nnn NULL cutoff 1.3 # compute the Q6 parameter.
                                                                             # Use all neighbours within 1.3 unit cell.

# get number of connections
compute coord_number all coord/atom orientorder q6 0.5

# An atom is solid if it has 8 or more connections (of a possible 14)
variable is_solid atom c_coord_number>=8
group solid dynamic all var is_solid    # Must be dynamic to update
dynamic group solid defined

# do clustering
compute cluster solid cluster/atom 1.3 # Create a cluster where all atoms within are solid and max 1.3 units from another member

# define chunks one chunk per cluster
compute clus_chunks solid chunk/atom c_cluster nchunk every compress yes  # Says which atoms are in which chunk

# count the size of each chunk
compute size_chunks solid property/chunk clus_chunks count


# Find the maximum entry in the vector of chunk sizes
variable max_n equal max(c_size_chunks)


# Thermo style which includes this variable
# thermo_style custom step temp pe vol v_max_n

thermo ${N}  # Print the thermo information every 100 steps
thermo 1000  

# Reset the npt fix at a lower temperature (below freezing)
fix 1  all npt temp  ${temp} ${temp}  0.1  iso  5.68  5.68  0.5  mtk yes tchain  5  pchain  5
fix 1  all npt temp  0.45 ${temp}  0.1  iso  5.68  5.68  0.5  mtk yes tchain  5  pchain  5
fix 1  all npt temp  0.45 0.45  0.1  iso  5.68  5.68  0.5  mtk yes tchain  5  pchain  5

dump dmp2 all dcd ${N} traj.dcd
dump dmp2 all dcd 1000 traj.dcd


compute msd all msd com yes
variable twopoint equal c_msd[4]/6/(step*dt+1.0e-6)
fix 9 all vector 10 c_msd[4]
variable fit equal slope(f_9)/6/(10*dt)
thermo_style custom step temp pe c_msd[4] v_twopoint v_fit v_max_n

fix 1 all npt temp 1.25 ${temp} 0.1 iso 5.68 5.68 0.5 mtk yes tchain 5 pchain 5
fix 1 all npt temp 1.25 0.45 0.1 iso 5.68 5.68 0.5 mtk yes tchain 5 pchain 5
run 500000 # 5000000  # Run for this many steps
Neighbor list info ...
  update every 1 steps, delay 10 steps, check yes
  max neighbors/atom: 2000, page size: 100000
  master list distance cutoff = 3.8
  ghost atom cutoff = 3.8
  binsize = 1.9, bins = 9 9 9
  4 neighbor lists, perpetual/occasional/extra = 1 3 0
  (1) pair lj/cut, perpetual
      attributes: half, newton on
      pair build: half/bin/atomonly/newton
      stencil: half/bin/3d
      bin: standard
  (2) compute orientorder/atom, occasional
      attributes: full, newton on
      pair build: full/bin/atomonly
      stencil: full/bin/3d
      bin: standard
  (3) compute coord/atom, occasional
      attributes: full, newton on
      pair build: full/bin/atomonly
      stencil: full/bin/3d
      bin: standard
  (4) compute cluster/atom, occasional
      attributes: full, newton on
      pair build: full/bin/atomonly
      stencil: full/bin/3d
      bin: standard
Per MPI rank memory allocation (min/avg/max) = 9.766 | 9.773 | 9.777 Mbytes
Step Temp PotEng c_msd[4] v_twopoint v_fit v_max_n 
   12000    1.2553983   -6.4744078 1.8680226e-30 1.2972379e-32 8.3333333e+20            2 
   13000    1.2529406   -6.5182129   0.53758661 0.0034460679  0.044514501            2 
   14000    1.2385205    -6.510554     1.073844  0.006391928  0.043525451            3 
   15000    1.2585018   -6.5093299    1.5786292  0.008770162  0.043690171            2 
   16000    1.2345401   -6.5288827    2.0870747   0.01087018  0.042769703            1 
   17000    1.2502479   -6.5019291     2.592726  0.012709441  0.043036589            1 
   18000    1.2550046   -6.5430239    3.1111732  0.014403579  0.042966752            2 
   19000    1.2531401    -6.539394    3.6604526  0.016054616  0.043197317            2 
   20000    1.2526136   -6.5185197    4.2603148  0.017751311  0.043557646            5 
   21000    1.2464289   -6.4996763    4.7865239  0.018994142  0.044101747            2 
   22000    1.2473622   -6.5189051    5.3308807  0.020192729   0.04417992            4 
   23000    1.2134186   -6.5466903    5.7800144  0.020942081  0.044157344            2 
   24000    1.2400486   -6.5039482    6.2475575  0.021692908  0.043961438            5 
   25000    1.2375488   -6.5178435    6.7778184  0.022592728  0.043699414            3 
   26000    1.2549144   -6.4761398    7.3230146    0.0234712  0.043581092            1 
   27000    1.2190951   -6.5518927    7.7714779  0.023986042  0.043457843            3 
   28000    1.2358406   -6.5056525    8.1978225  0.024398281  0.043182274            2 
   29000    1.2275798   -6.5669824    8.4459253    0.0242699  0.042722485            1 
   30000    1.2193755   -6.5516775    8.9942256  0.024983959  0.042169808            2 
   31000     1.225782   -6.5405439     9.518889  0.025588411  0.041840702            3 
   32000     1.204925   -6.5464988    9.8326627  0.025605892  0.041555108            4 
   33000    1.2051917   -6.5198489    10.323106  0.026068449  0.041221895            2 
   34000    1.2247366   -6.5528742    10.839088  0.026566393  0.040977272            2 
   35000    1.1910583   -6.5756024    11.407106  0.027159776  0.040860845            3 
   36000    1.2021388   -6.5518319    11.808903  0.027335424  0.040762412            2 
   37000    1.2079258   -6.5129506    12.328418  0.027766706  0.040653605            1 
   38000    1.2506917   -6.5409299    12.774369  0.028013966  0.040562002            1 
   39000    1.1898235   -6.5586801    13.213595  0.028234176  0.040490106            5 
   40000    1.2148052   -6.5478051    13.724318  0.028592329  0.040424142            2 
   41000    1.2062657   -6.5842187    14.175103  0.028811184  0.040330707            2 
   42000    1.2093378   -6.5640428    14.768869  0.029303312  0.040292232            1 
   43000     1.186725   -6.5908784    15.288537  0.029628947   0.04030998            1 
   44000    1.2064289   -6.6229741    15.746348  0.029822629  0.040332875            4 
   45000    1.2056154   -6.6066579    16.086924  0.029790599  0.040318049            1 
   46000    1.1915081   -6.5905357    16.449771   0.02980031  0.040218758            2 
   47000     1.187238    -6.615455    16.898466  0.029961819  0.040101262            3 
   48000    1.2163748   -6.6072778    17.477852  0.030343493  0.040046548            2 
   49000    1.1937008   -6.5950535    17.864078  0.030381086  0.039999794            4 
   50000    1.1964313   -6.6081028    18.346689  0.030577814  0.039928911            1 
   51000    1.1814195   -6.6164321     18.95601  0.030973872  0.039869682            2 
   52000    1.1938888   -6.5832256      19.4049  0.031097595  0.039837408            3 
   53000    1.1813876   -6.6373018    19.691663  0.030961734  0.039802167            2 
   54000    1.1779456   -6.6358398    20.096222  0.031012688  0.039732912            2 
   55000    1.1914934   -6.6312121    20.432749  0.030958711  0.039648337            1 
   56000    1.1777992   -6.6325199    20.751683  0.030880481  0.039554084            2 
   57000    1.1454294   -6.6372487    21.165378  0.030943535  0.039429024            3 
   58000    1.1746853   -6.6065641     21.70552  0.031186092  0.039306192            1 
   59000    1.1755194   -6.6444877     22.12557  0.031250805  0.039196364            1 
   60000    1.1664736   -6.6294029     22.50316  0.031254389  0.039097581            2 
   61000    1.1946784   -6.6467588    23.036107  0.031470091  0.039008035            2 
   62000    1.1496041   -6.6291645    23.379076  0.031423489  0.038924788            2 
   63000    1.1750036   -6.6144554    23.795597  0.031475657  0.038828581            2 
   64000    1.1742242    -6.654119     24.25221  0.031578398  0.038745156            2 
   65000    1.1629625    -6.677409    24.556349  0.031482499  0.038656971            3 
   66000    1.1519925   -6.6570943    24.964303  0.031520584  0.038554435            1 
   67000    1.1705904   -6.6493301    25.341353  0.031519095  0.038445698            2 
   68000    1.1507615   -6.6243827    25.777286  0.031589811  0.038336958            3 
   69000    1.1571944   -6.6477417    26.016234  0.031420572  0.038213514            2 
   70000    1.1501409   -6.6391648     26.37508  0.031398904  0.038090884            2 
   71000    1.1737997   -6.6744604    26.681211  0.031315975  0.037970165            3 
   72000    1.1683156    -6.700829    27.055755  0.031314532  0.037843568            3 
   73000    1.1501559   -6.6549105    27.378086  0.031253522  0.037714112            1 
   74000    1.1392743   -6.7006404    27.932485  0.031455501   0.03758866            2 
   75000    1.1507059   -6.7106426    28.121135  0.031245705  0.037467827            2 
   76000    1.1432966   -6.7039502    28.594256   0.03135335  0.037350739            2 
   77000    1.1535611   -6.6901298    28.948746  0.031329811  0.037241457            2 
   78000    1.1253528   -6.7021028    29.225381  0.031223697  0.037122401            2 
   79000    1.1566763   -6.7150213    29.643317  0.031269321  0.037006379            2 
   80000    1.1662382   -6.7057727    30.095461  0.031349438  0.036901553            1 
   81000    1.1514113   -6.7230651     30.43341  0.031310092   0.03679354            2 
   82000    1.1425104   -6.7037365    30.764135  0.031264365  0.036680826            2 
   83000    1.1227974   -6.7022792    31.134298  0.031259335  0.036572475            2 
   84000    1.1406224   -6.6892652     31.50956  0.031259484  0.036463876            1 
   85000    1.1424778    -6.702481    31.893812  0.031268443  0.036357696            2 
   86000    1.1203533   -6.7093333    32.339167  0.031336402  0.036257588            2 
   87000    1.1303356   -6.6961644    32.733164  0.031353605  0.036164476            2 
   88000    1.1347172   -6.7150842    33.023925  0.031272656  0.036075174            3 
   89000    1.1320734   -6.7303999     33.57517  0.031437425  0.035992821            2 
   90000     1.134129    -6.720518    33.856293  0.031348419  0.035909945            2 
   91000    1.1375632   -6.7129443    34.188019   0.03130771  0.035826133            3 
   92000    1.0921649   -6.7498072    34.678978  0.031412117  0.035742473            1 
   93000    1.1056108   -6.7484243    34.977057  0.031341449  0.035661042            2 
   94000    1.1001526   -6.7355462    35.338407  0.031328375  0.035585578            2 
   95000    1.1177837   -6.7057931    35.895406  0.031487198   0.03550614            3 
   96000    1.1168415   -6.7442845    36.338137  0.031543521  0.035442547            4 
   97000    1.1297381   -6.7985119    36.538459  0.031390429  0.035379216            4 
   98000    1.1353428   -6.7734159    36.979962  0.031445546  0.035311864            5 
   99000    1.0905377   -6.7211535    37.115431  0.031241945  0.035240266            4 
  100000    1.0902389   -6.7271653    37.708717  0.031423931  0.035169939            4 
  101000     1.125209   -6.7785064    38.026896  0.031375327  0.035102458            1 
  102000    1.1232484   -6.7494402    38.374576  0.031351777  0.035039785            3 
  103000    1.1092308   -6.7622077    38.637407  0.031260038  0.034975237            3 
  104000    1.1401974   -6.7518656    38.926591  0.031191178  0.034900641            4 
  105000    1.1086556    -6.755081    39.251284  0.031151813  0.034830968            3 
  106000    1.0561253   -6.7564141    39.510724   0.03106189  0.034757857            3 
  107000    1.0910618   -6.8102866    39.937278  0.031103799  0.034684193            2 
  108000    1.0740954   -6.7717231    40.236843  0.031046946  0.034609595            2 
  109000    1.1063645   -6.7805509    40.586316  0.031029294  0.034536005            5 
  110000    1.0954034   -6.8002725    40.718037  0.030846998  0.034460471            2 
  111000    1.0849533   -6.7721824    41.239048  0.030960246   0.03438601            6 
  112000    1.1026803   -6.7989945    41.459237  0.030847646  0.034312134            3 
  113000    1.0841756   -6.7988256    41.718108  0.030765566  0.034232352            3 
  114000    1.0990876   -6.8286802    41.897811  0.030627055  0.034149974            2 
  115000    1.0759095   -6.8353334    42.278355  0.030636489  0.034070567            2 
  116000     1.065889   -6.7963694    42.642086  0.030633682   0.03399062            3 
  117000     1.104887   -6.7814502    43.057736  0.030667903   0.03390887            3 
  118000    1.0798681   -6.7150009     43.34722  0.030612443  0.033829124            3 
  119000    1.0771746   -6.8096382    43.671474  0.030582265  0.033753587            3 
  120000    1.0784731     -6.80639    43.995804  0.030552642  0.033678926            3 
  121000     1.067372   -6.8601402    44.166402  0.030417632  0.033601295            2 
  122000    1.0623885   -6.8656439      44.4754  0.030379372  0.033523554            3 
  123000    1.0978236   -6.8504541    44.883112  0.030408613  0.033445544            2 
  124000    1.0691603   -6.8142069    45.356601  0.030481587  0.033374036            2 
  125000    1.0880088    -6.834404    45.825739  0.030550493  0.033303859            2 
  126000    1.0585008   -6.8333888    46.023712  0.030438963  0.033236246            2 
  127000    1.0601856   -6.8212781    46.365315  0.030423435  0.033167995            2 
  128000    1.0743258   -6.8734384     46.55438  0.030308841  0.033099671            3 
  129000    1.0846367    -6.843469    46.966117  0.030339868  0.033033118            3 
  130000    1.0523793   -6.8301883    47.183876  0.030246074  0.032963613            3 
  131000    1.0543337   -6.8504691    47.237908  0.030049559  0.032889325            2 
  132000    1.0495529   -6.8544523    47.698569  0.030112733  0.032814312            2 
  133000    1.0839265   -6.8775274    47.786686  0.029941532  0.032735335            5 
  134000    1.0224344   -6.8483679    48.194494    0.0299717   0.03265957            3 
  135000    1.0536808   -6.9056195    48.340908  0.029840067  0.032586311            1 
  136000    1.0440133   -6.8401723    49.014775  0.030033563  0.032512836            2 
  137000    1.0714012    -6.867504    49.268125  0.029968446  0.032442995            2 
  138000    1.0404903   -6.8514508    49.442746  0.029856731  0.032374847            1 
  139000    1.0452842   -6.8390685    49.719558  0.029807889  0.032305058            2 
  140000    1.0430224   -6.8703642     49.94217  0.029727482  0.032233573            5 
  141000    1.0338132   -6.9240454    50.242421  0.029694102  0.032160841            3 
  142000    1.0238073   -6.8754108    50.655291  0.029727283  0.032092461            2 
  143000    1.0472879   -6.8877568    50.890905  0.029656705  0.032024759            4 
  144000    1.0338186   -6.9141425    51.263996  0.029666664  0.031958365            2 
  145000    1.0541059   -6.8775917    51.709211  0.029717937  0.031892384            2 
  146000     1.034991   -6.8960907    51.984301  0.029671404  0.031829552            4 
  147000    1.0210062   -6.9041383    51.910815    0.0294279  0.031764156            3 
  148000    1.0266598   -6.9177416    52.386879  0.029497116   0.03169709            3 
  149000    1.0411618    -6.908784    52.511357  0.029368768  0.031626376            4 
  150000    1.0392809   -6.9149718    52.714127  0.029285626   0.03155569            2 
  151000    1.0179398   -6.9096703    53.210507  0.029365622  0.031486503            5 
  152000    1.0119937   -6.9567257    53.424386  0.029289685  0.031419139            5 
  153000    1.0339186   -6.8887258    53.662222  0.029227789  0.031351141            3 
  154000    1.0328638   -6.9124934    53.773758  0.029098354   0.03128217            3 
  155000    1.0137043   -6.9392378    54.008672  0.029036921  0.031213221            4 
  156000    1.0197614   -6.9684234    54.144135  0.028923149  0.031142866            2 
  157000   0.99421279   -6.9500409    54.431309  0.028891353  0.031071031            4 
  158000    1.0193278   -6.9559621     54.75498  0.028879209  0.030999213            2 
  159000    1.0461359   -6.9175721     55.21402  0.028938166  0.030929934            3 
  160000     1.003115   -6.9789733    55.298125  0.028801107    0.0308607            3 
  161000   0.99964158   -6.9360848    55.634718  0.028796438   0.03079342            4 
  162000    1.0013957   -6.9219461    56.080185  0.028847832   0.03072798            2 
  163000   0.99284029   -6.9432172    56.187608  0.028725771  0.030663548            5 
  164000    1.0090669   -6.9552443    56.326936   0.02862141  0.030598654            2 
  165000    1.0051151     -6.97158    56.806621  0.028690213  0.030532003            4 
  166000    1.0161263     -6.97503    56.762722  0.028495342  0.030463675            2 
  167000    1.0242765   -7.0251575    56.932516  0.028409439  0.030392916            4 
  168000    1.0126304   -6.9641401    57.195397  0.028370733  0.030322897            8 
  169000   0.99835301   -6.9938104    57.379018  0.028293401  0.030252963            3 
  170000   0.98472565   -6.9762613     57.76208  0.028314745  0.030184815            2 
  171000   0.97746729    -6.996011    58.020015  0.028274861  0.030116821            3 
  172000   0.99303807   -6.9709173    58.179375  0.028187681  0.030048222            1 
  173000   0.99110428   -6.9766682     58.41081  0.028136228  0.029980204            4 
  174000   0.99619515   -6.9648947    58.805179    0.0281634  0.029914022            7 
  175000     1.013784   -6.9803923    59.111057  0.028148122  0.029849242            4 
  176000   0.98595576   -6.9804808    59.382866  0.028116887  0.029782898            3 
  177000   0.98886533   -7.0004672    59.449783   0.02798954  0.029716928            5 
  178000   0.99018013   -7.0066853    59.785554  0.027989492  0.029651837            2 
  179000    0.9981913   -6.9973803    60.293878  0.028069776  0.029587833            3 
  180000   0.99036008   -6.9705465      60.2679  0.027901805  0.029526054            3 
  181000   0.97418626   -7.0003026    60.388754  0.027803294    0.0294623            2 
  182000   0.98675106   -7.0036189    60.675356  0.027781756  0.029398788            7 
  183000   0.98280275   -7.0299886    60.742993  0.027660743  0.029331722            2 
  184000   0.95933411   -7.0215613    60.851082  0.027559367  0.029262942            3 
  185000   0.98389751   -7.0175022    61.063852   0.02750624  0.029191866            2 
  186000   0.93402125   -7.0239973    61.159658   0.02740128  0.029119384            3 
  187000   0.97726088   -7.0514935    61.125622  0.027239582  0.029047303            5 
  188000   0.96727867   -7.0372318    61.566318  0.027290035  0.028975203            3 
  189000   0.94292915   -7.0459948    61.626444  0.027172154  0.028903399            4 
  190000   0.97945908   -7.0176697    61.832026   0.02711931  0.028830607            3 
  191000    0.9577885   -7.0453728    62.307273  0.027184674  0.028759372            3 
  192000   0.95047119   -7.0456584    62.397824  0.027082389  0.028688793            3 
  193000   0.96738528   -7.0803477    62.538285  0.027002714  0.028618947            2 
  194000   0.95141574   -7.0638604    62.881394  0.027010908  0.028549253            2 
  195000    0.9726823   -7.0923333    62.868014  0.026866673  0.028477751            3 
  196000   0.96445201   -7.0902892    63.067944  0.026814602  0.028406601            4 
  197000   0.96490463   -7.1056203    63.489729  0.026856907  0.028337099            9 
  198000   0.95892747   -7.0714498    63.453185  0.026705886  0.028268324            2 
  199000   0.96010971   -7.0727174    63.639076  0.026649529  0.028196499            4 
  200000   0.94686314   -7.0983048    63.825058  0.026593774  0.028125588            3 
  201000   0.94634821   -7.0868212    64.179543  0.026608434  0.028053375            3 
  202000   0.92970763   -7.0940041    64.252723  0.026506899  0.027983585            3 
  203000    0.9483199   -7.1113224    64.216519  0.026361461    0.0279133            4 
  204000    0.9485348   -7.0587495    64.655982  0.026411757  0.027843548            8 
  205000    0.9294111   -7.0697858    64.803133  0.026342737  0.027774072            3 
  206000   0.94891268    -7.088297    65.052672  0.026315806  0.027703859            5 
  207000    0.9794104   -7.0782906    65.162862  0.026233036  0.027635233            5 
  208000   0.93350483   -7.1205309    65.273933  0.026151416  0.027566271            4 
  209000   0.92848601   -7.0943748      65.3296  0.026048485  0.027497316            7 
  210000   0.94360955   -7.1016932    65.764061   0.02609685  0.027428478            2 
  211000   0.94463938    -7.076628    65.906201  0.026029305  0.027359812            3 
  212000   0.92153068   -7.1164492    66.192225  0.026018956  0.027292293            3 
  213000   0.92225222   -7.1363985    66.314908    0.0259448  0.027225312            8 
  214000   0.90954726   -7.1279357    66.440063  0.025872299  0.027158573            5 
  215000   0.91141218    -7.111179    66.757253  0.025874904  0.027092068            4 
  216000     0.929559   -7.1357764    67.067265  0.025874716  0.027025275            3 
  217000   0.92270764   -7.1500838    67.032721  0.025742212  0.026959451            7 
  218000   0.92095282   -7.1211453    67.375628   0.02575521  0.026894091            2 
  219000      0.93076   -7.1364634    67.585198  0.025717351  0.026829993            5 
  220000    0.9006813   -7.1469212    67.798026  0.025681071  0.026767505            5 
  221000   0.90742724    -7.159396    67.974098  0.025631259  0.026704339            3 
  222000   0.92750358   -7.1194329    68.087425  0.025558342  0.026640079            2 
  223000   0.90877796   -7.1589703    68.209908  0.025489502  0.026575625            3 
  224000   0.90977775   -7.1772582    68.362807  0.025432592   0.02651154            2 
  225000   0.89543072   -7.1615081    68.457236  0.025354532  0.026447566            2 
  226000   0.89568201   -7.1977246    68.722443  0.025340134  0.026383573            3 
  227000   0.88493995   -7.1882004    68.878103  0.025285647  0.026320329            4 
  228000   0.89527107   -7.1981763    69.196237  0.025291022  0.026257913            4 
  229000   0.90991144   -7.1673838    69.084273  0.025139837   0.02619484            3 
  230000    0.9135499   -7.1707964    69.291808  0.025105727  0.026131613            2 
  231000   0.90172436   -7.1788575    69.659939  0.025129848  0.026069317            3 
  232000   0.90943181   -7.1548461    69.523196  0.024972412  0.026006881            4 
  233000   0.89758219   -7.1835812    69.436363  0.024834178  0.025942562            2 
  234000   0.88653398   -7.1613816     69.94932  0.024910726  0.025878249            3 
  235000   0.90301409   -7.2001539    69.738542  0.024729979  0.025814388            3 
  236000   0.86462261    -7.221724    69.893902   0.02468005  0.025750236            4 
  237000   0.89894299   -7.1872305    70.253506  0.024702358  0.025685094            3 
  238000   0.93300705   -7.1986686    70.356426  0.024634603   0.02562089            6 
  239000   0.88960077   -7.2130463    70.586869  0.024611879   0.02555715            5 
  240000   0.88704282   -7.2189433    70.573318  0.024504624  0.025494562            2 
  241000    0.8643616   -7.2108474    71.055097  0.024569536  0.025431102            3 
  242000   0.86522068   -7.2035507    70.894144  0.024412584  0.025366756            6 
  243000   0.87994292    -7.203144    71.093628  0.024380531   0.02530423            3 
  244000   0.89080227   -7.2173485    71.161752  0.024303877  0.025240948            8 
  245000   0.87055722   -7.2345267    71.540523  0.024333511   0.02517819            5 
  246000   0.89125838   -7.2576671    71.539989  0.024234414   0.02511595            5 
  247000   0.85894078   -7.2552388    71.641213   0.02417045  0.025053546            2 
  248000   0.87518237   -7.2557977    72.018684  0.024199826  0.024992078            5 
  249000   0.88883641   -7.2828392    72.219255  0.024169764  0.024930607            3 
  250000    0.8740447   -7.2565476    72.578798  0.024192933  0.024870289            3 
  251000   0.88384851   -7.2624591    72.503481  0.024071541  0.024810573            5 
  252000    0.8739711   -7.2710072    72.741745   0.02405481  0.024751364            5 
  253000   0.86579845   -7.2631129    73.110714  0.024081263  0.024693186            3 
  254000   0.87646951   -7.2413595    73.122449  0.023990305  0.024635062            2 
  255000   0.87330031   -7.2840867    73.196561  0.023920445  0.024576764            5 
  256000   0.87306978   -7.2737779    73.498223  0.023925203  0.024518266            2 
  257000   0.86302952   -7.2723851    73.145734  0.023717812  0.024459014            6 
  258000   0.85967894   -7.2735403    73.736032  0.023816548  0.024399934            3 
  259000   0.87127079   -7.2976528    73.527309  0.023657435  0.024340027            3 
  260000   0.84592569   -7.2903148    73.426606  0.023534169  0.024278814            9 
  261000   0.86272722    -7.299203    73.449857  0.023451423   0.02421757            4 
  262000   0.85554363   -7.2830133    73.746149  0.023456154   0.02415634            6 
  263000   0.84810911   -7.2977996    73.545902  0.023303518  0.024095301            3 
  264000   0.83970044   -7.2801044    73.826544  0.023303833  0.024033774            4 
  265000   0.84267648    -7.261377    74.206756  0.023335458   0.02397208            4 
  266000   0.85325066   -7.3180724    73.887285  0.023147646  0.023910677            2 
  267000   0.87007551   -7.3108184    74.160283  0.023146156   0.02384888           12 
  268000   0.83347473   -7.3301097    74.256262  0.023089634  0.023787855            4 
  269000   0.80920908   -7.3336642    74.364909  0.023037456  0.023727003            4 
  270000   0.83689755   -7.3236164    74.544202   0.02300747  0.023665553            4 
  271000   0.82501227   -7.3084584    74.644265  0.022953341  0.023604821            5 
  272000   0.85156364   -7.3273982     74.68091  0.022880181  0.023543089            3 
  273000   0.83901977   -7.3691895    74.579256  0.022765341  0.023481542            2 
  274000   0.83865305   -7.3387844    74.919227  0.022785653  0.023419483            6 
  275000   0.82523949   -7.3669848    74.751398  0.022651939  0.023358041            3 
  276000   0.82295548   -7.3558216    74.880869  0.022608958  0.023295886            4 
  277000   0.83183843   -7.3524215    74.948776  0.022547766  0.023234002            5 
  278000   0.81723439   -7.3319331    75.002746  0.022482838  0.023172036            3 
  279000   0.82308674   -7.3573676    75.260094   0.02247912  0.023110858            3 
  280000   0.81161639   -7.3506368    75.226609  0.022388872  0.023049094            6 
  281000   0.82415432   -7.3690999    75.468423  0.022380908  0.022986868            6 
  282000   0.82119696   -7.3629798    75.513844  0.022314966  0.022925171            2 
  283000   0.80358693   -7.3573623    75.582564   0.02225635  0.022864038            6 
  284000   0.81011305   -7.3791675    75.587219  0.022179348  0.022802805            5 
  285000   0.82477314   -7.3695843    75.601087  0.022105581   0.02274068            3 
  286000   0.82363975    -7.363135     75.50615  0.022000626  0.022678287            4 
  287000   0.79883337   -7.3679645     75.57904  0.021945134  0.022615496            3 
  288000   0.82281867   -7.3798697    75.715916  0.021908541  0.022553007            5 
  289000   0.81341878   -7.3774507     75.86568  0.021875917  0.022489647            3 
  290000   0.80267876    -7.415854    75.670353  0.021744354   0.02242659            6 
  291000   0.78982933   -7.4346175    75.580306  0.021643845  0.022362571            4 
  292000   0.80168684    -7.396216    75.753415  0.021619125  0.022298667            4 
  293000   0.79831316   -7.3972642    75.906919  0.021588998  0.022234759            4 
  294000   0.79120446   -7.3833794    75.920685  0.021519468  0.022171322            6 
  295000   0.81088523   -7.4072508    76.014967  0.021473155  0.022107978            4 
  296000   0.80030071   -7.3779658    76.229314  0.021460955  0.022045359            2 
  297000     0.802115   -7.4117072    76.008253   0.02132667  0.021982814            3 
  298000   0.79254453    -7.448543    76.208843  0.021311198  0.021920044            3 
  299000   0.79028941   -7.4144035    76.400822  0.021293429   0.02185755            7 
  300000   0.78229496   -7.3874032    76.274294  0.021187304  0.021795235            4 
  301000    0.7894277   -7.4337103    76.559732  0.021195939   0.02173307            6 
  302000   0.78085325   -7.4383193     76.85756  0.021207936   0.02167162            4 
  303000    0.8010054    -7.433829    76.810153  0.021124905  0.021610924            7 
  304000   0.78351022   -7.4477877    76.751594  0.021039362  0.021549993            3 
  305000   0.77776371   -7.4337112    76.749103    0.0209697  0.021488338            4 
  306000   0.79051746   -7.4613507     76.77975  0.020909518  0.021426933            3 
  307000   0.78034689   -7.4140465    76.817747  0.020851723  0.021365504            5 
  308000   0.77712662   -7.4803155    76.994946  0.020831966  0.021304514            7 
  309000   0.76065414    -7.426754    77.213156  0.020823397  0.021244064            6 
  310000   0.76601714   -7.4485393    77.417277  0.020811096  0.021184138            7 
  311000   0.75581502   -7.4661036    77.517359  0.020770996  0.021124456           11 
  312000   0.77923364   -7.4679097    77.357658  0.020661768  0.021064456            5 
  313000   0.75986105   -7.4833284    77.339321  0.020590873  0.021004273            4 
  314000   0.76126795   -7.4551417    77.286779  0.020511353  0.020944815            6 
  315000   0.76021191   -7.4439775    77.564032  0.020519585   0.02088595            4 
  316000   0.75318942   -7.4592816    77.714399  0.020494303  0.020826839            5 
  317000   0.75487402   -7.4654368     77.80106  0.020452434  0.020768952            6 
  318000   0.74676108   -7.5272195    78.034045  0.020449173  0.020711259            4 
  319000   0.76586237    -7.508393    78.002529  0.020376836  0.020653612            4 
  320000   0.75621877   -7.5137099    78.106462  0.020340224  0.020596164            2 
  321000   0.75393987   -7.5008246    77.830022  0.020205094  0.020538674            5 
  322000   0.76572391    -7.525102    78.093318  0.020210486  0.020481149            7 
  323000   0.74614903   -7.5361475    78.105192  0.020150978  0.020424195            6 
  324000   0.77000931    -7.510021    78.354511  0.020152909  0.020367304            4 
  325000   0.75254203   -7.5076241    78.480843  0.020123293  0.020310471            7 
  326000    0.7352848   -7.5013753    78.367153  0.020032503  0.020253512            4 
  327000   0.73180347   -7.5427043    78.331981  0.019962279  0.020196375            5 
  328000   0.73557978   -7.5517859    78.152474  0.019855812  0.020139552            4 
  329000   0.73305692   -7.5286699    78.535923  0.019892584  0.020082695            6 
  330000   0.74888359   -7.5431282    78.383548  0.019793825  0.020025987            6 
  331000   0.74600447     -7.55567    78.532389  0.019771498  0.019969134           13 
  332000   0.73757917   -7.5425547    78.420074  0.019683753  0.019911832           13 
  333000   0.73413694   -7.5370706    78.334791  0.019603301   0.01985404            8 
  334000   0.74053518   -7.5418136    78.719684   0.01964064  0.019796819            3 
  335000   0.73396785   -7.5713874    78.647615  0.019564083  0.019739744            3 
  336000   0.73112214   -7.5541941    78.658802  0.019508632  0.019682875            3 
  337000   0.72766693   -7.5625358    78.721234  0.019466181  0.019625869            4 
  338000   0.72716848   -7.5879401    78.528776  0.019361138  0.019568947            4 
  339000   0.71979426   -7.5839131    78.702049   0.01934662  0.019512308            8 
  340000   0.73385827   -7.5666154    78.653775  0.019277886   0.01945581            5 
  341000   0.70762012   -7.5866957    78.618873  0.019212823  0.019399122            3 
  342000   0.72922558   -7.5724355     78.74646  0.019187734  0.019342498            7 
  343000    0.7013246   -7.5719207    78.782644  0.019140584   0.01928623            5 
  344000   0.71723468   -7.5828886    78.748524  0.019076677  0.019229912            4 
  345000   0.72206664   -7.5917323    78.877009  0.019052418  0.019173596            4 
  346000   0.71605927   -7.6042388    78.918787  0.019007415  0.019117287            5 
  347000   0.70720358   -7.5879433      78.8564  0.018937656  0.019061361            5 
  348000   0.72306448   -7.5915659     78.89709  0.018892981   0.01900555            6 
  349000    0.7184561   -7.5904935    79.057208  0.018877079  0.018949942            3 
  350000   0.71566839   -7.6225325    78.916011  0.018789526  0.018894478            3 
  351000   0.71812027   -7.6016437    79.116279  0.018783542  0.018838826            4 
  352000   0.71116255   -7.6236075    78.905304  0.018680233   0.01878366            6 
  353000   0.70018748   -7.5783369    79.241104  0.018706587  0.018729087            5 
  354000    0.6920179   -7.6378925    79.303545  0.018668443  0.018674836            3 
  355000    0.6806787   -7.6307866    79.137335  0.018576839  0.018620211            3 
  356000   0.69781744   -7.6206269    79.152128   0.01852812  0.018565655            6 
  357000   0.70053324   -7.6448258     79.40119  0.018534358  0.018511088            3 
  358000   0.69319201   -7.6467449    79.126171  0.018418569  0.018456598            6 
  359000   0.70724171   -7.6388773    79.212375  0.018387274  0.018402312            6 
  360000    0.7010911   -7.6459629    79.345954  0.018367119  0.018348166            3 
  361000   0.69814238   -7.6640383    79.258363  0.018296021  0.018293812            7 
  362000   0.69557991   -7.6524389    79.218596  0.018236325  0.018239413            4 
  363000    0.6866703   -7.6631002    79.144447  0.018169065  0.018184875            4 
  364000   0.68209884   -7.6683437    79.081751  0.018104796  0.018130501            5 
  365000   0.68173395   -7.6504605    79.201523   0.01808254  0.018076025            7 
  366000    0.6955556   -7.6794181    79.119093  0.018014365  0.018021597            3 
  367000    0.6658683   -7.6639615    79.469528  0.018044852  0.017967463            5 
  368000   0.68595723   -7.6901919    79.191578  0.017932875  0.017913474            4 
  369000   0.66917098    -7.689148     79.16337  0.017877906  0.017859182            7 
  370000   0.66630208   -7.6920832    79.267037  0.017852936  0.017805253           12 
  371000   0.67535457   -7.6724586    79.362363  0.017826227  0.017751491            7 
  372000   0.67945092     -7.66971    79.336998  0.017772625  0.017697635            5 
  373000   0.67198015   -7.7003995    79.330303  0.017723481  0.017644099            4 
  374000   0.67118332   -7.6833824    79.440887  0.017700732  0.017590902            5 
  375000   0.65620582   -7.7225826    79.256864  0.017612636  0.017537641            2 
  376000   0.66180194   -7.6993727    79.416251  0.017601119  0.017484336            4 
  377000   0.67695724   -7.7115781    79.272238  0.017522599  0.017431275            4 
  378000   0.65284869   -7.6831632    79.097625  0.017437748   0.01737796            6 
  379000   0.66630253   -7.7062789    79.181859  0.017410259  0.017324767            5 
  380000    0.6575054    -7.712816    79.247792  0.017378902  0.017271628            8 
  381000   0.65835221   -7.7207058    79.217193  0.017326595  0.017218544            4 
  382000   0.66951664   -7.7237056    79.354775  0.017311251  0.017165652            6 
  383000   0.65831832   -7.7330649    79.291842  0.017252359  0.017112943            4 
  384000   0.64438608    -7.732537    79.303979  0.017210065  0.017060399            5 
  385000   0.65086637   -7.7415094    79.244943  0.017152585  0.017008105            6 
  386000   0.65516832   -7.7327128    79.329899  0.017126489  0.016956047            5 
  387000    0.6491783    -7.747125    79.149028  0.017043288  0.016903973           15 
  388000   0.65602565    -7.753857    79.190749  0.017008322  0.016851875            7 
  389000    0.6391792   -7.7801391    79.189585   0.01696435   0.01679987           14 
  390000   0.64050337   -7.7465895    79.164166   0.01691542  0.016747791           12 
  391000   0.64349167   -7.7637509    79.116502     0.016862  0.016695789            9 
  392000   0.64378461   -7.7881451    79.181132  0.016832724  0.016644068            5 
  393000   0.64013986   -7.7578036    79.151129   0.01678353  0.016592296            6 
  394000   0.64029183   -7.7837916    79.200367  0.016751347  0.016540763            4 
  395000   0.63928583   -7.7538454    79.256484  0.016720777  0.016489388            8 
  396000   0.62401813   -7.7654459    79.112611  0.016648277  0.016438135            9 
  397000   0.65409932   -7.7767973    79.081336  0.016599777  0.016386971           11 
  398000   0.63503398   -7.7743515    79.195429  0.016581957  0.016335751            6 
  399000   0.63799536   -7.7907141     79.23501  0.016548665  0.016284782           17 
  400000    0.6370987   -7.7880479    79.114602  0.016482209  0.016233848            6 
  401000   0.61867559   -7.7769193    79.146743  0.016447785  0.016183074            7 
  402000   0.61849438   -7.7906723    79.079224  0.016392874  0.016132387           22 
  403000   0.62128525   -7.8011881    79.193162  0.016375757  0.016081676            9 
  404000   0.61708617   -7.8145867    79.102445  0.016316511  0.016031084            9 
  405000   0.62262612   -7.8165348    79.137749  0.016283488  0.015980593            8 
  406000   0.62113103   -7.8336897    79.096949  0.016235006  0.015930132            7 
  407000   0.61572409   -7.7910783     79.05582  0.016186695  0.015880043            8 
  408000   0.61325154   -7.8212998    78.994698  0.016134538  0.015829866            9 
  409000   0.60084574   -7.8365669    78.925117  0.016080912  0.015779888           11 
  410000   0.60456281   -7.8310582    78.976905  0.016052216   0.01573003            9 
  411000   0.61005365   -7.8473112    78.968394  0.016011434  0.015680361           12 
  412000   0.60492609   -7.8227086    79.108414  0.016000893  0.015630927           19 
  413000    0.6120773   -7.8698392    79.102005  0.015960857  0.015581616            6 
  414000   0.60725673   -7.8512558    78.788489  0.015859197  0.015532306            6 
  415000   0.60701308   -7.8457814     79.04037   0.01587156  0.015483161            7 
  416000   0.59400249   -7.8543752    78.976827  0.015820679  0.015434321            6 
  417000    0.6055704    -7.823108    79.110127  0.015809378  0.015385463            6 
  418000   0.60709375   -7.8680278    78.936189   0.01573688  0.015336777            9 
  419000   0.60079248   -7.8429682    78.885624  0.015689265  0.015288127           10 
  420000   0.60158652   -7.8739826    79.030416  0.015680638  0.015239671           10 
  421000   0.60640335   -7.8750243    78.901467  0.015617868  0.015191327            7 
  422000   0.58455017   -7.8863049    78.878165  0.015576257  0.015142988           11 
  423000   0.58437059   -7.8879058    78.908885  0.015545486  0.015094909           15 
  424000   0.59658544   -7.8802318    78.901744  0.015507418  0.015046997            7 
  425000   0.59512014   -7.8851049    79.021128  0.015494339   0.01499928            8 
  426000   0.57547285   -7.8917145    78.968923  0.015447755  0.014951666           12 
  427000   0.58965469   -7.8919377    78.891977  0.015396561  0.014904275           10 
  428000   0.57963092   -7.8778799    78.900303  0.015362209  0.014856949           10 
  429000   0.57398503   -7.8972785    78.887188  0.015323852  0.014809904            9 
  430000   0.57911231   -7.9037942    78.932584  0.015297012  0.014762908           15 
  431000   0.58100181   -7.9014618    78.974164   0.01526956  0.014716037            6 
  432000   0.58206088   -7.8778286    78.985417  0.015236384  0.014669475           26 
  433000   0.58666712   -7.8980885    78.980746  0.015200298  0.014623109           11 
  434000   0.57154169   -7.9039809     78.99805  0.015168596  0.014576891           16 
  435000   0.57084408    -7.892604    79.005195  0.015135095  0.014530734           28 
  436000   0.57667092   -7.9017458    78.895133  0.015079345  0.014484751           17 
  437000   0.56758972   -7.9140932      78.8478  0.015035812  0.014438857           17 
  438000    0.5659264   -7.8897683    78.958212  0.015022491  0.014393146           13 
  439000   0.55555752   -7.9166626    78.926404  0.014982233    0.0143477           21 
  440000   0.55525402   -7.9128923    78.908694  0.014944828  0.014302493           11 
  441000   0.56049134   -7.9280722    78.886216  0.014906692  0.014257292           16 
  442000   0.56460988   -7.9296519    78.956453  0.014886209  0.014212261           12 
  443000   0.56706948   -7.9276199    78.852687  0.014833086  0.014167449           18 
  444000    0.5554482   -7.9262648    78.859178  0.014800897  0.014122748           13 
  445000   0.56128264   -7.9530839    78.829701  0.014762116  0.014078165           23 
  446000   0.54542465   -7.9456576    78.933249  0.014748365   0.01403374           20 
  447000   0.55220722   -7.9441446    79.029456  0.014733306   0.01398952           19 
  448000   0.55266074    -7.948515    78.935293  0.014682904  0.013945491           19 
  449000   0.54441003    -7.953639     78.93387  0.014649939  0.013901619           13 
  450000   0.55205946   -7.9528536    78.866716  0.014604947  0.013857892           28 
  451000   0.55009248   -7.9665015    78.851174  0.014569692  0.013814285           10 
  452000   0.54658365   -7.9459749    78.843099   0.01453597  0.013770824            9 
  453000   0.55231015   -7.9449362    78.921385  0.014518283  0.013727558            8 
  454000   0.55327484   -7.9310639    78.819322   0.01446757   0.01368444           11 
  455000   0.53528081   -7.9586084    78.939548  0.014457793  0.013641454           14 
  456000   0.54376602   -7.9657215    78.921613  0.014422809   0.01359869           17 
  457000   0.52965047    -7.970611    78.893235  0.014386075  0.013556083           12 
  458000   0.53438984    -7.960877     78.82994  0.014343148  0.013513615           11 
  459000   0.53381305   -7.9650237     78.82195  0.014310448   0.01347131           16 
  460000   0.53362467   -7.9629869    78.870043  0.014288051  0.013429184            9 
  461000   0.53098049   -7.9725816    78.871687  0.014257355  0.013387112            7 
  462000   0.52558957   -7.9718387     78.88249  0.014228443  0.013345234           10 
  463000   0.53765749   -7.9754643    78.644178   0.01415482  0.013303517           19 
  464000   0.52484396   -7.9931699     78.82422  0.014156649  0.013261916           15 
  465000     0.525746   -7.9832897    78.727265  0.014108829  0.013220493           14 
  466000   0.52053955   -7.9931706     78.80799  0.014092988   0.01317925           18 
  467000   0.52067042   -8.0000581    78.770865  0.014056186  0.013138131           13 
  468000   0.52092725   -8.0040632     78.83063  0.014036793   0.01309719           19 
  469000   0.51845855   -7.9938668    78.777691  0.013997458  0.013056378            9 
  470000   0.52469651   -8.0058042     78.75016  0.013962794  0.013015652            7 
  471000   0.52558144   -8.0110861    78.796382  0.013941327  0.012975156           11 
  472000   0.51252864   -8.0084904    78.834457  0.013918513  0.012934763           15 
  473000   0.52272237   -8.0034992    78.862243  0.013893982  0.012894535           12 
  474000   0.51502874   -8.0197773    78.704401   0.01383692  0.012854441           21 
  475000   0.49971947   -8.0145644    78.673185  0.013802313  0.012814338           17 
  476000   0.51036356   -8.0299606    78.639253  0.013767376  0.012774416           12 
  477000   0.50945759   -8.0146231    78.699898  0.013749109  0.012734624           13 
  478000   0.50557245   -8.0287442    78.673878  0.013715809  0.012695052           21 
  479000   0.52023803   -8.0162859    78.758566  0.013701908  0.012655622           19 
  480000   0.49556288   -8.0235668    78.684096  0.013660433  0.012616266           22 
  481000   0.49754533   -8.0381785    78.704921  0.013635641    0.0125771           13 
  482000   0.50739175   -8.0251955    78.613687  0.013591578  0.012538001           10 
  483000   0.48978049   -8.0397469    78.765268  0.013589591  0.012499082           12 
  484000    0.4921584   -8.0445019    78.603451  0.013533652   0.01246025            9 
  485000   0.49075243   -8.0487735    78.750371  0.013530992  0.012421641           18 
  486000   0.48282007   -8.0264925    78.641437  0.013484471  0.012383148           12 
  487000   0.49018849   -8.0477069    78.580166  0.013446298  0.012344753           23 
  488000   0.48745811   -8.0602606    78.510811  0.013406901  0.012306499           19 
  489000   0.47740935   -8.0369481    78.584942  0.013392117  0.012268383           12 
  490000   0.48430165    -8.048674    78.719487  0.013387668  0.012230391           12 
  491000   0.47954205   -8.0585047    78.662599  0.013350747  0.012192513           26 
  492000    0.4789204   -8.0734321    78.529612  0.013301086   0.01215479           16 
  493000    0.4742499   -8.0549898    78.652786  0.013294927  0.012117169           19 
  494000   0.48311988   -8.0756412    78.597713  0.013258723  0.012079682           27 
  495000   0.46825025   -8.0616733    78.494115  0.013214497  0.012042327           12 
  496000   0.47764202   -8.0738378    78.558296  0.013198638  0.012005063           20 
  497000   0.46044206   -8.0708704    78.610422  0.013180822  0.011967968           15 
  498000   0.46448485    -8.078396     78.44488  0.013126653  0.011931057           15 
  499000   0.47137811    -8.067936    78.549591  0.013117834  0.011894283           13 
  500000   0.45674393   -8.0722407    78.544019   0.01309067  0.011857667           13 
  501000   0.46494614   -8.0798814    78.469533  0.013052151  0.011821121           17 
  502000   0.46838089   -8.0566049    78.471075  0.013026407  0.011784723           20 
  503000   0.46942679   -8.0789568    78.436545  0.012994789  0.011748412           16 
  504000   0.47219334   -8.0739261    78.393728  0.012961926   0.01171222           13 
  505000   0.46037557   -8.0909462    78.391015  0.012935811  0.011676125           22 
  506000   0.46078866   -8.0947182    78.428026  0.012916342  0.011640191           17 
  507000   0.45456083   -8.1053403    78.431118  0.012891374  0.011604367           21 
  508000   0.45555662   -8.1065073    78.355338  0.012853566  0.011568687           12 
  509000   0.45349514   -8.1004496    78.396938  0.012835124  0.011533167           17 
  510000   0.45191369   -8.1075829    78.276353  0.012790254  0.011497739           21 
  511000    0.4630671   -8.0980059    78.272991  0.012764676  0.011462417           21 
  512000     0.456875   -8.1148263    78.258762  0.012737429  0.011427177           19 
Loop time of 1120.49 on 48 procs for 500000 steps with 4000 atoms

Performance: 77109.462 tau/day, 446.235 timesteps/s
99.4% CPU use with 48 MPI tasks x no OpenMP threads

MPI task timing breakdown:
Section |  min time  |  avg time  |  max time  |%varavg| %total
---------------------------------------------------------------
Pair    | 69.61      | 74.981     | 80.454     |  26.6 |  6.69
Neigh   | 7.1443     | 7.4939     | 7.7466     |   5.1 |  0.67
Comm    | 65.152     | 70.94      | 78.342     |  33.4 |  6.33
Output  | 0.81637    | 0.81682    | 0.82584    |   0.1 |  0.07
Modify  | 951.88     | 955.57     | 958.22     |   4.8 | 85.28
Other   |            | 10.69      |            |       |  0.95

Nlocal:        83.3333 ave          91 max          77 min
Histogram: 4 2 7 6 6 11 4 6 1 1
Nghost:        1899.48 ave        1919 max        1883 min
Histogram: 2 5 7 7 5 7 7 4 2 2
Neighs:        11976.8 ave       13616 max       10893 min
Histogram: 5 4 11 6 8 6 2 2 2 2
FullNghs:      23953.3 ave       26122 max       21974 min
Histogram: 4 3 6 4 9 7 6 4 2 3

Total # of neighbors = 1149759
Ave neighs/atom = 287.43975
Neighbor list builds = 26901
Dangerous builds = 0

#clear
#
#next RN
#
#jump SELF
Total wall time: 0:18:44
