
units lj                  # Use reduced LJ style units
atom_style atomic         # Uncharged point particles
atom_modify map hash      # Needed for indexing of clusters etc
                          # Used to be able to find where atoms are in relation to each other.

lattice fcc 1.0 spacing 1 1 1
Lattice spacing in x,y,z = 1.5874011 1.5874011 1.5874011
region box block 0 10 0 10 0 10 units lattice
create_box 2 box
Created orthogonal box = (0.0000000 0.0000000 0.0000000) to (15.874011 15.874011 15.874011)
  3 by 4 by 4 MPI processor grid
create_atoms 1 box
Created 4000 atoms
  using lattice units in orthogonal box = (0.0000000 0.0000000 0.0000000) to (15.874011 15.874011 15.874011)
  create_atoms CPU = 0.006 seconds
set type 1 type/fraction 2 0.24 78393
Setting atom values ...
  997 settings made for type/fraction
mass 1 1.0
mass 2 1.0
pair_style lj/cut  3.5
pair_modify tail  yes
pair_coeff 1  1  1.0  1.0   # Intearaction between 1 and 1 set with epsilon = 1 and sigma = 1
pair_coeff 1  2  1.5  0.8
pair_coeff 2  2  0.5  0.88

write_data data.0
System init for write_data ...
Neighbor list info ...
  update every 1 steps, delay 10 steps, check yes
  max neighbors/atom: 2000, page size: 100000
  master list distance cutoff = 3.8
  ghost atom cutoff = 3.8
  binsize = 1.9, bins = 9 9 9
  1 neighbor lists, perpetual/occasional/extra = 1 0 0
  (1) pair lj/cut, perpetual
      attributes: half, newton on
      pair build: half/bin/atomonly/newton
      stencil: half/bin/3d
      bin: standard
WARNING: Not all mixed pair coeffs generated from mixing. Use write_data with 'pair ij' option to store all pair coeffs. (../write_data.cpp:312)


#############################
#   M E L T   S Y S T E M   #
#############################

velocity all create 2.4 3143649 mom yes dist gaussian # Assign velocities
                                                    # Temperature 2.4, random number seed, zero linear momentum
                                                                                # Gaussian distribution

timestep 0.002   # simulation timestep
thermo 1000       # output thermodynamic data every 1000 steps bf 100

# Define a fix  in this case with index 1 applied to all
# particles in the simulation. This fix is for simulations
# in the anisotropic NPT ensemble. Note that we use the MTK
# correction.
fix 1 all npt temp 2.4 2.4 0.1 iso 5.68 5.68 0.5 mtk yes tchain 5 pchain 5 # Use NPT ensemble
                                                                         # Set temperature and pressure and damping
                                                                         # Numbers of thermostats in chain and in barostat
run 10000          # run for 10000 steps
Per MPI rank memory allocation (min/avg/max) = 3.642 | 3.644 | 3.648 Mbytes
Step Temp E_pair E_mol TotEng Press Volume 
       0          2.4   -6.7864136            0   -3.1873136   -3.7949501         4000 
    1000    2.3925013   -4.8825655            0   -1.2947107    5.9386813    4324.4736 
    2000    2.4063101   -4.9442822            0   -1.3357194    5.5235236    4337.7927 
    3000    2.4294558   -4.9303771            0   -1.2871045    5.7045513    4321.9876 
    4000    2.3726846   -4.8305645            0   -1.2724273    5.7186248     4363.514 
    5000    2.4143361   -4.9183662            0   -1.2977674    5.6053927    4328.2122 
    6000    2.3740896   -4.8809702            0    -1.320726    5.6160302    4358.2492 
    7000    2.4324107   -4.9116128            0   -1.2639089    5.4828185    4349.4296 
    8000    2.4190626   -4.8836165            0   -1.2559298    5.5649757    4356.9876 
    9000    2.3571746   -4.8976339            0   -1.3627559    5.8360088    4318.3866 
   10000    2.4165631    -4.895665            0   -1.2717265    5.8567219     4324.753 
Loop time of 2.36463 on 48 procs for 10000 steps with 4000 atoms

Performance: 730768.765 tau/day, 4228.986 timesteps/s
99.6% CPU use with 48 MPI tasks x no OpenMP threads

MPI task timing breakdown:
Section |  min time  |  avg time  |  max time  |%varavg| %total
---------------------------------------------------------------
Pair    | 1.0106     | 1.0793     | 1.1652     |   3.1 | 45.64
Neigh   | 0.19968    | 0.20914    | 0.22777    |   1.1 |  8.84
Comm    | 0.7294     | 0.82135    | 0.91206    |   4.1 | 34.73
Output  | 0.0002492  | 0.00025607 | 0.00032336 |   0.0 |  0.01
Modify  | 0.20501    | 0.2395     | 0.26616    |   3.5 | 10.13
Other   |            | 0.01511    |            |       |  0.64

Nlocal:        83.3333 ave          92 max          70 min
Histogram: 1 0 2 4 5 12 9 7 3 5
Nghost:        1554.52 ave        1587 max        1521 min
Histogram: 3 3 4 4 11 9 4 2 5 3
Neighs:        8812.67 ave       10024 max        7177 min
Histogram: 1 0 4 5 5 8 12 6 4 3

Total # of neighbors = 423008
Ave neighs/atom = 105.75200
Neighbor list builds = 905
Dangerous builds = 198

# Equilibrate just above the melting temperature to avoid step fn in T

fix 1 all npt temp 1.25 1.25 0.1 iso 5.68 5.68 0.5 mtk yes tchain 5 pchain 5
run 2000
Per MPI rank memory allocation (min/avg/max) = 3.643 | 3.645 | 3.649 Mbytes
Step Temp E_pair E_mol TotEng Press Volume 
   10000    2.4165631    -4.895665            0   -1.2717265    5.8567219     4324.753 
   11000    1.2798048   -6.6710702            0    -4.751843    5.7306738    3520.9653 
   12000    1.2408774   -6.7164009            0   -4.8555502    5.6995981     3505.678 
Loop time of 0.527286 on 48 procs for 2000 steps with 4000 atoms

Performance: 655432.178 tau/day, 3793.010 timesteps/s
99.7% CPU use with 48 MPI tasks x no OpenMP threads

MPI task timing breakdown:
Section |  min time  |  avg time  |  max time  |%varavg| %total
---------------------------------------------------------------
Pair    | 0.24238    | 0.25992    | 0.28906    |   2.1 | 49.29
Neigh   | 0.034202   | 0.036033   | 0.039882   |   0.6 |  6.83
Comm    | 0.14128    | 0.17731    | 0.19682    |   2.8 | 33.63
Output  | 5.283e-05  | 5.4705e-05 | 6.7929e-05 |   0.0 |  0.01
Modify  | 0.043483   | 0.04926    | 0.057593   |   1.7 |  9.34
Other   |            | 0.004705   |            |       |  0.89

Nlocal:        83.3333 ave          94 max          77 min
Histogram: 4 8 11 1 11 6 2 3 1 1
Nghost:        1795.54 ave        1825 max        1777 min
Histogram: 7 8 5 8 1 9 4 3 1 2
Neighs:        10895.5 ave       12643 max        9346 min
Histogram: 1 4 10 5 6 6 8 5 1 2

Total # of neighbors = 522986
Ave neighs/atom = 130.74650
Neighbor list builds = 142
Dangerous builds = 13

#############################
# L I N E A R  Q U E N C H  #
#############################

# Define solid atoms. This closely follows ten Wolde  Ruiz-Montero and Frenkel  Faraday Discuss  1996  104  93-110
# Compute components of the per-atom q6 vector
compute q6 all orientorder/atom degrees 1 6 components 6 nnn NULL cutoff 1.3 # compute the Q6 parameter.
                                                                             # Use all neighbours within 1.3 unit cell.

# get number of connections
compute coord_number all coord/atom orientorder q6 0.5

# An atom is solid if it has 8 or more connections (of a possible 14)
variable is_solid atom c_coord_number>=8
group solid dynamic all var is_solid    # Must be dynamic to update
dynamic group solid defined

# do clustering
compute cluster solid cluster/atom 1.3 # Create a cluster where all atoms within are solid and max 1.3 units from another member

# define chunks one chunk per cluster
compute clus_chunks solid chunk/atom c_cluster nchunk every compress yes  # Says which atoms are in which chunk

# count the size of each chunk
compute size_chunks solid property/chunk clus_chunks count


# Find the maximum entry in the vector of chunk sizes
variable max_n equal max(c_size_chunks)


# Thermo style which includes this variable
# thermo_style custom step temp pe vol v_max_n

thermo ${N}  # Print the thermo information every 100 steps
thermo 1000  

# Reset the npt fix at a lower temperature (below freezing)
fix 1  all npt temp  ${temp} ${temp}  0.1  iso  5.68  5.68  0.5  mtk yes tchain  5  pchain  5
fix 1  all npt temp  0.45 ${temp}  0.1  iso  5.68  5.68  0.5  mtk yes tchain  5  pchain  5
fix 1  all npt temp  0.45 0.45  0.1  iso  5.68  5.68  0.5  mtk yes tchain  5  pchain  5

dump dmp2 all dcd ${N} traj.dcd
dump dmp2 all dcd 1000 traj.dcd


compute msd all msd com yes
variable twopoint equal c_msd[4]/6/(step*dt+1.0e-6)
fix 9 all vector 10 c_msd[4]
variable fit equal slope(f_9)/6/(10*dt)
thermo_style custom step temp pe c_msd[4] v_twopoint v_fit v_max_n

fix 1 all npt temp 1.25 ${temp} 0.1 iso 5.68 5.68 0.5 mtk yes tchain 5 pchain 5
fix 1 all npt temp 1.25 0.45 0.1 iso 5.68 5.68 0.5 mtk yes tchain 5 pchain 5
run 5000000 # 5000000  # Run for this many steps
Neighbor list info ...
  update every 1 steps, delay 10 steps, check yes
  max neighbors/atom: 2000, page size: 100000
  master list distance cutoff = 3.8
  ghost atom cutoff = 3.8
  binsize = 1.9, bins = 8 8 8
  4 neighbor lists, perpetual/occasional/extra = 1 3 0
  (1) pair lj/cut, perpetual
      attributes: half, newton on
      pair build: half/bin/atomonly/newton
      stencil: half/bin/3d
      bin: standard
  (2) compute orientorder/atom, occasional
      attributes: full, newton on
      pair build: full/bin/atomonly
      stencil: full/bin/3d
      bin: standard
  (3) compute coord/atom, occasional
      attributes: full, newton on
      pair build: full/bin/atomonly
      stencil: full/bin/3d
      bin: standard
  (4) compute cluster/atom, occasional
      attributes: full, newton on
      pair build: full/bin/atomonly
      stencil: full/bin/3d
      bin: standard
Per MPI rank memory allocation (min/avg/max) = 9.800 | 9.808 | 9.815 Mbytes
Step Temp PotEng c_msd[4] v_twopoint v_fit v_max_n 
   12000    1.2408774   -6.7164009 8.4802547e-31 5.8890655e-33 8.3333333e+20            2 
   13000    1.2579385   -6.7327525   0.51082313 0.0032745071  0.041747619            4 
   14000    1.2365161   -6.7081788     1.006933 0.0059936486  0.041328596            1 
   15000    1.2673445   -6.7091652    1.5777588 0.0087653264  0.042796525            2 
   16000    1.2198663   -6.6951331    2.0230562   0.01053675  0.042678739            2 
   17000    1.2283881   -6.7376626    2.5210022  0.012357853  0.041916028            1 
   18000    1.2371313   -6.7167555    3.0518832  0.014129088  0.041733014            1 
   19000    1.2446249   -6.7244564     3.473796  0.015235947   0.04167395            1 
   20000    1.2479394    -6.686187    3.9056523  0.016273551  0.041078515            1 
   21000    1.2478698   -6.7166971    4.4191654   0.01753637  0.040768644            2 
   22000     1.237796   -6.6780407     4.906881   0.01858667  0.040557881            1 
   23000    1.2193744   -6.6955234    5.3916776  0.019535063  0.040469281            1 
   24000    1.2861102     -6.74688    5.8590934  0.020344074  0.040421037            2 
   25000    1.2553304   -6.7003384    6.2801352  0.020933784  0.040215771            1 
   26000    1.2446911   -6.7134709    6.7230253  0.021548157  0.039965596            1 
   27000    1.2715489   -6.6776242    7.2013341   0.02222634   0.03973767            1 
   28000    1.2527447   -6.6781608    7.6187477  0.022674844  0.039605176            1 
   29000    1.2277544   -6.7068139    8.0904688  0.023248473  0.039426847            3 
   30000    1.2434903   -6.6904743    8.5995643  0.023887678  0.039325152            2 
   31000    1.2520119    -6.721907    9.0061551  0.024210094  0.039256397            4 
   32000    1.2555625   -6.6686612    9.6132549  0.025034518   0.03926835            1 
   33000    1.2647739   -6.7021853    10.157846  0.025651126   0.03937076            2 
   34000    1.2299497   -6.7074868    10.725961  0.026289119  0.039525249            1 
   35000    1.2707876    -6.699471     11.27011  0.026833594  0.039732543            1 
   36000    1.2235012   -6.7178255     11.90792  0.027564629  0.039973332            2 
   37000    1.2623007   -6.7081328    12.583889  0.028342092   0.04033862            1 
   38000     1.255752   -6.7309836    13.002929  0.028515195  0.040657189            2 
   39000    1.2533359   -6.6876915    13.530624  0.028911589  0.040887063            1 
   40000    1.2253513   -6.7249665    14.048477   0.02926766  0.041090734            2 
   41000     1.239432    -6.680393    14.582406  0.029639037  0.041245296            2 
   42000    1.2396288    -6.706051    15.088507  0.029937513  0.041402924            1 
   43000    1.2277541   -6.7341695    15.565191  0.030165099  0.041528059            1 
   44000    1.2391527   -6.6985545    15.998113  0.030299456  0.041624546            2 
   45000    1.2429719   -6.7214412    16.629648  0.030795643  0.041720407            1 
   46000    1.2334922   -6.7225758    17.203953  0.031166582  0.041827723            2 
   47000    1.2419863   -6.7166144    17.745874  0.031464315  0.041960133            3 
   48000    1.2304444   -6.6954521    18.323852  0.031812242  0.042083912            2 
   49000    1.2292303    -6.709085    18.959479  0.032244012   0.04222353            1 
   50000    1.2453196   -6.7167971    19.360326   0.03226721  0.042326512            2 
   51000    1.2740253   -6.6939472    19.763171  0.032292762  0.042398363            1 
   52000    1.2420947   -6.7033218    20.238203  0.032433018  0.042438009            1 
   53000    1.2471789   -6.6720723    20.715315   0.03257125  0.042458654            2 
   54000     1.247689   -6.7285518    21.230522  0.032763152  0.042487667            2 
   55000    1.2405275   -6.6473843    21.940698  0.033243481  0.042527192            2 
   56000    1.2502388   -6.7652265    22.454081  0.033413811  0.042581713            3 
   57000    1.2494455   -6.6824956    23.091685  0.033759773   0.04264877            1 
   58000    1.2615045   -6.7515353     23.48323  0.033740273  0.042687614            2 
   59000    1.2245468   -6.7261291    23.987183  0.033880202   0.04273251            2 
   60000    1.2299102   -6.6645844    24.564811  0.034117792  0.042778127            3 
   61000    1.2190237   -6.7110696    24.992745  0.034143094   0.04279681            1 
   62000    1.2482878   -6.7245347    25.291937  0.033994538   0.04279971            2 
   63000    1.2452725    -6.725766    25.757314  0.034070521  0.042767864            1 
   64000    1.2336778   -6.7137795    26.192397  0.034104684  0.042735923            2 
   65000    1.2484808   -6.7122096    26.699007  0.034229496   0.04270163            3 
   66000    1.2120106   -6.7559644    27.197293  0.034340016  0.042681662            2 
   67000    1.2419438   -6.7081971    27.699272   0.03445183  0.042652894       -1e+20 
   68000    1.2481219   -6.7120616    28.358122    0.0347526  0.042643082            3 
   69000       1.2181   -6.7228804    28.639749  0.034589068  0.042620685            5 
   70000    1.2276515   -6.7700194    28.989299  0.034511071  0.042573162            4 
   71000    1.2343778   -6.6781018    29.442388  0.034556793  0.042514471            1 
   72000    1.2506289   -6.7034711    30.001822  0.034724331  0.042458709            1 
   73000    1.2701672    -6.690145    30.474925  0.034788727  0.042403989            1 
   74000    1.2217451   -6.7062519    31.091619  0.035013084  0.042362761            1 
   75000    1.2308611   -6.7116385    31.540343  0.035044826  0.042335112            4 
   76000    1.2372532   -6.7081229    32.179164  0.035284171  0.042309238            1 
   77000    1.2601435   -6.7124028    32.714526  0.035405331  0.042285129            1 
   78000    1.2778966   -6.7155597    33.163725   0.03543133  0.042265248            1 
   79000    1.2248315   -6.7314923    33.763901  0.035615929  0.042262522            1 
   80000    1.2741165   -6.7519602    34.076561  0.035496418  0.042254386            3 
   81000    1.2216853   -6.7153023    34.610314  0.035607318  0.042237003            1 
   82000    1.2112406   -6.6911642     35.20106  0.035773435  0.042223815            1 
   83000    1.2340926    -6.685172    35.733802  0.035877311   0.04221465            1 
   84000    1.2589238   -6.7382531    36.228388  0.035940861  0.042204445            1 
   85000    1.2553802   -6.7401791    36.711173  0.035991346  0.042194229            1 
   86000    1.2428072   -6.7327899    37.115169  0.035964311  0.042177217            1 
   87000    1.2205659   -6.7776577    37.603091  0.036018286   0.04216152            2 
   88000    1.2490662   -6.7067671     38.25363  0.036225028  0.042151411            1 
   89000    1.2570688   -6.7076256     38.59992  0.036142247  0.042135589            1 
   90000    1.2390955   -6.7348006    38.911714  0.036029365  0.042114533            4 
   91000    1.2579383   -6.7238183    39.440151  0.036117354  0.042088776            1 
   92000    1.2455277   -6.6994167    40.342329  0.036541964  0.042084218            1 
   93000    1.2070839   -6.6734566    40.644333  0.036419653  0.042079224            1 
   94000    1.2307567   -6.7568261    41.041999  0.036384751  0.042063523            2 
   95000    1.2078158    -6.714025    41.659589  0.036543499   0.04205088            2 
   96000    1.2349787   -6.7195094    42.169571   0.03660553  0.042038986            2 
   97000    1.2310954   -6.7193651    42.554558  0.036558899  0.042019672            2 
   98000     1.213025   -6.7440504    43.026429  0.036587099  0.042007806            1 
   99000    1.2253205   -6.7386898    43.544426  0.036653557   0.04198755            2 
  100000    1.2103466   -6.7082313    43.918426  0.036598688   0.04196326            2 
  101000    1.2403652   -6.7175122    44.372103  0.036610646  0.041937615            2 
  102000    1.2274297   -6.7141437    45.096947  0.036843911  0.041920179            2 
  103000    1.2400428   -6.7365143    45.423947  0.036750766  0.041907805            4 
  104000    1.2624302   -6.7436333    45.980134  0.036843056  0.041898371            1 
  105000    1.2258074   -6.7415173    46.447087  0.036862768  0.041886808            2 
  106000    1.2234309    -6.671109    46.880984  0.036856119  0.041869727            1 
  107000    1.2258859   -6.7154671    47.368302  0.036891201  0.041851872            2 
  108000    1.2469294   -6.7188922    47.800686  0.036883245  0.041827599            2 
  109000     1.226467   -6.7174818    48.374813  0.036983802  0.041810041            1 
  110000    1.2133903   -6.7066249    48.605605  0.036822428  0.041783365            2 
  111000    1.2184322    -6.747001    49.294579  0.037007942  0.041760268       -1e+20 
  112000    1.2058709   -6.7042073    49.494475  0.036826246  0.041732868            2 
  113000    1.2332876    -6.740634    49.972921  0.036853187  0.041702923            1 
  114000    1.2602173   -6.7186829    50.482321  0.036902281  0.041673299            1 
  115000    1.2269949   -6.7261666    50.747728  0.036773716  0.041637356            1 
  116000    1.2390713   -6.7025734    51.404005  0.036928164  0.041601832            1 
  117000    1.2204459   -6.7278444    51.828348  0.036914778  0.041568113            2 
  118000    1.2349992   -6.7311129    52.340562  0.036963673  0.041541788            2 
  119000    1.2398416   -6.7288855    52.869305  0.037023323  0.041517528            1 
  120000    1.2492014    -6.748433    52.963441  0.036780167  0.041495544            1 
  121000    1.2284555   -6.7291887    53.750018  0.037017919  0.041464678            1 
  122000     1.248784   -6.7328846    54.449429  0.037192233    0.0414407            2 
  123000    1.2241803   -6.7348566     54.69231   0.03705441   0.04141994            2 
  124000    1.2226516   -6.7270461    55.108423  0.037035231  0.041394771            3 
  125000    1.2545443   -6.7598962    55.725408  0.037150272  0.041368725            2 
  126000    1.2511535   -6.7187886    56.343989  0.037264543  0.041344456            2 
  127000    1.2541132   -6.7366516    56.693613  0.037200533  0.041330705            1 
  128000    1.2026328    -6.721883    57.246303  0.037269729  0.041315299            3 
  129000    1.2059397    -6.727058    57.951197  0.037436174  0.041300203            3 
  130000    1.2458926   -6.7593392     58.46712  0.037478923  0.041292206            1 
  131000    1.2123038   -6.6838667    59.091455  0.037589984  0.041285299            1 
  132000    1.2130243   -6.7661797    59.650695  0.037658267  0.041282862            1 
  133000    1.2037062   -6.7090331     60.12798  0.037674173  0.041282599            1 
  134000    1.2330983   -6.7210365    60.782957  0.037800346  0.041282971            2 
  135000     1.200209   -6.7406619    60.919273  0.037604489   0.04128458            1 
  136000    1.2046079   -6.7088928    61.445287  0.037650298  0.041280037            1 
  137000     1.210897   -6.7174168    61.733022    0.0375505   0.04126977            4 
  138000    1.2172709   -6.7489026    62.092724  0.037495606  0.041257813            1 
  139000    1.1880599   -6.7456566    62.359474  0.037385776  0.041238888            3 
  140000    1.2302138   -6.7549597    62.843036  0.037406569  0.041215751            4 
  141000     1.237611   -6.7095223    63.329073   0.03742853   0.04119408            2 
  142000    1.2387308   -6.7159125    63.775879  0.037427159  0.041170555            1 
  143000    1.2360647   -6.6962445    64.210982  0.037418987  0.041146033            1 
  144000    1.2147919   -6.6972061    64.908313  0.037562681  0.041124195            2 
  145000    1.2666464   -6.7454772    65.332635  0.037547491  0.041104473            2 
  146000    1.2531259   -6.7847138    65.551521  0.037415252   0.04108223            2 
  147000    1.1889284   -6.7688025    65.961804  0.037393313  0.041058005            3 
  148000    1.2165292   -6.7050079    66.388072  0.037380671  0.041029196            1 
  149000    1.2397674     -6.71386    66.892292  0.037411797  0.041003735            1 
  150000    1.2249996   -6.7602793      67.4253    0.0374585  0.040982049            2 
  151000    1.2159719   -6.7415368    67.651586  0.037335312  0.040960612            4 
  152000    1.2187685    -6.713168    68.620091  0.037620664  0.040943106            1 
  153000    1.2220727   -6.6832148    68.915867  0.037535875  0.040921484            1 
  154000     1.237432   -6.7584491    69.258601  0.037477598  0.040899475            1 
  155000    1.2238396   -6.7441781    70.046798  0.037659569  0.040878291            1 
  156000    1.2300611   -6.7155279    70.258743   0.03753138  0.040861597            1 
  157000    1.2438912   -6.7659339    70.710573  0.037532151  0.040843394            1 
  158000    1.2534678   -6.7661668    71.126706  0.037514085  0.040825645            2 
  159000    1.2339168   -6.7086394    71.437568  0.037441073  0.040806003            2 
  160000    1.2237355   -6.7323609    72.168872  0.037587954  0.040781633            1 
  161000    1.1921654   -6.7505897    72.651981  0.037604545  0.040761289            2 
  162000    1.2232224   -6.7005428    73.009948  0.037556558  0.040744219            2 
  163000    1.2288966    -6.766764    73.296637  0.037472718  0.040725185            3 
  164000     1.227622    -6.761065    73.937379  0.037569806  0.040705561            2 
  165000    1.2424655   -6.7779839    74.063013  0.037405562   0.04068902            3 
  166000    1.2210135   -6.7400276    74.968725  0.037634902  0.040670309            2 
  167000    1.2388908   -6.7554955    74.893232  0.037371872   0.04065134            2 
  168000    1.2368953   -6.8098644    75.628187  0.037513981  0.040630773            4 
  169000    1.2109291   -6.7052606    76.447085  0.037695801  0.040610803            2 
  170000    1.2188628   -6.7835454    76.442368  0.037471749  0.040593807            1 
  171000    1.2117837   -6.7414649    76.902648  0.037476924  0.040570712            1 
  172000    1.2463543   -6.7433949    77.232039  0.037418624  0.040546057            1 
  173000    1.2603261   -6.7345519    77.670344   0.03741346  0.040521464            2 
  174000     1.214995   -6.7575663    78.118931  0.037413281  0.040495405            1 
  175000    1.1925479   -6.7592411     78.26438  0.037268752  0.040469322            1 
  176000    1.2195089   -6.7386516    78.469459    0.0371541  0.040442619            2 
  177000     1.215624   -6.7604415    78.972113  0.037180844  0.040413548            1 
  178000    1.2346399   -6.7796002    79.410789  0.037177336  0.040384073            3 
  179000    1.1991315   -6.7499606    80.181197  0.037328304  0.040354178            1 
  180000    1.2276558   -6.7392163    80.665866  0.037345308  0.040326363            2 
  181000    1.2027769    -6.760223     81.25259  0.037409111  0.040301611            1 
  182000    1.2259238   -6.7245902    82.004772  0.037547973  0.040279146            2 
  183000    1.2045857   -6.7478525    82.258451  0.037458311  0.040259036            1 
  184000    1.1949137   -6.7770384    82.564541  0.037393361  0.040239801            1 
  185000     1.220074   -6.7721474    83.097345  0.037431236  0.040221115            2 
  186000    1.2334862   -6.7401518    84.092404  0.037675808  0.040205627            2 
  187000    1.2315629   -6.7376373    84.259199  0.037548663  0.040188898            1 
  188000    1.2195009   -6.7272391    84.675001  0.037533245  0.040170521            2 
  189000    1.2197669   -6.7515161    85.290229  0.037605921  0.040153071            2 
  190000    1.2217649   -6.7862335     85.46224  0.037483438  0.040137005            1 
  191000    1.2082718   -6.7591294    86.149094  0.037586865  0.040119683            2 
  192000    1.2095709   -6.6978916    86.675658  0.037619643  0.040102803            1 
  193000    1.2078616   -6.7768636    86.672224   0.03742324  0.040084681            3 
  194000    1.2352034   -6.7569808    87.629846  0.037641687  0.040068329            1 
  195000    1.1877701   -6.7718222    87.929383  0.037576659  0.040053315            4 
  196000    1.2397855   -6.7574861    88.504534  0.037629479  0.040036835            3 
  197000    1.2379153   -6.7336334    89.033708  0.037662313  0.040021686            1 
  198000    1.2369661    -6.719046    89.361526   0.03761007  0.040007047            2 
  199000     1.216252   -6.7146575      89.9375   0.03766227  0.039994365            1 
  200000    1.2251434   -6.7536839     90.52019  0.037716746  0.039979644            2 
  201000    1.2112422   -6.7907719    90.669268  0.037590907  0.039965794            6 
  202000    1.2252244   -6.7249127    91.079396  0.037574008  0.039950036            2 
  203000     1.216477   -6.7373274    92.059441  0.037791232  0.039937304            3 
  204000    1.2049506   -6.7658826    92.437042  0.037760229  0.039927217            2 
  205000    1.2110018   -6.7473997    92.929432  0.037776192  0.039919299            1 
  206000    1.2141876   -6.7551063    93.630221  0.037876303  0.039912116            1 
  207000      1.19024   -6.7408233    93.660302  0.037705436  0.039905027            2 
  208000    1.2084609   -6.7121541    94.428223   0.03783182   0.03989892            2 
  209000    1.2271932   -6.7103362    95.340592   0.03801459  0.039895466            2 
  210000    1.2199656   -6.7608606    95.488737  0.037892356  0.039891477            1 
  211000    1.2088892   -6.7469409    96.032203   0.03792741  0.039884254            5 
  212000    1.2301803   -6.7905329    96.380011  0.037885225  0.039878309       -1e+20 
  213000    1.1923247   -6.7596064    97.032457   0.03796262  0.039874618            1 
  214000    1.2084091   -6.7833937    97.414878  0.037934142  0.039870998            1 
  215000    1.2150125   -6.7542638     98.25809  0.038084531  0.039868258            2 
  216000    1.1982764   -6.7907259    98.173861  0.037875718   0.03986611            2 
  217000    1.2127239   -6.7703943    98.996664  0.038017152  0.039863916            2 
  218000    1.2163133   -6.7263714    99.725273  0.038121282  0.039862237            1 
  219000    1.2216839   -6.7540874    99.648824  0.037918122  0.039860096            1 
  220000    1.2149542    -6.763344    100.34182  0.038008265  0.039856507            1 
  221000    1.2027712   -6.7471076    101.05305   0.03810447  0.039856862            1 
  222000    1.1916279   -6.8029449    101.13891  0.037965058  0.039854191            1 
  223000    1.2121702   -6.7649281    101.90527  0.038081193  0.039851865            2 
  224000    1.2269175   -6.7767962     101.8016  0.037872617  0.039846631            1 
  225000    1.2546872   -6.7946144    101.87317  0.037730802  0.039839138            2 
  226000    1.2036109   -6.7604388    102.42604  0.037767714  0.039828372            1 
  227000    1.2072889   -6.7673945     102.7281  0.037712225   0.03981588            2 
  228000    1.2083688   -6.7484234    103.38263  0.037786048  0.039801499            2 
  229000    1.2377459   -6.7669184    103.10284  0.037519228  0.039787851            3 
  230000    1.2025874   -6.7443871    103.78929  0.037604815  0.039773398            1 
  231000    1.2102125   -6.7655215    104.40501  0.037664144  0.039758584            1 
  232000    1.2119033   -6.7802844    104.59246  0.037569131  0.039743026            1 
  233000    1.2092825   -6.7691765    104.97727  0.037545518  0.039728485            3 
  234000    1.1937822   -6.7506957    105.83294  0.037689795  0.039714184            2 
  235000    1.2238591   -6.7579297    106.08044  0.037617177  0.039699857            1 
  236000    1.2348131   -6.7947264    106.43195  0.037581902  0.039685222            1 
  237000    1.2300635   -6.7328459    106.66418  0.037504984  0.039669151            1 
  238000    1.1888692   -6.7446436    107.28989  0.037566487  0.039651825            3 
  239000    1.2036832   -6.7686376    107.68656  0.037547616  0.039635195            1 
  240000     1.208875    -6.757208    107.49855  0.037325885  0.039617883            1 
  241000    1.2016706   -6.7845973    108.56748  0.037540622  0.039599265            2 
  242000     1.213295   -6.7621232    108.33097  0.037304051  0.039581864            1 
  243000     1.224134   -6.7980044    109.21349  0.037453187  0.039565679            2 
  244000    1.2198614   -6.7580838    110.02595   0.03757717  0.039549347            3 
  245000    1.2272562   -6.7571515    110.85394  0.037705422  0.039535022            3 
  246000     1.204758   -6.7633054    110.94713  0.037583717  0.039522227            2 
  247000    1.2214336   -6.7984554    111.42754  0.037593639  0.039508002            1 
  248000    1.1852178   -6.7971078    111.31984  0.037405859  0.039492504            1 
  249000    1.1846679   -6.7924487    112.09762  0.037515938  0.039476975            1 
  250000    1.2124088   -6.7624184    112.36847  0.037456156   0.03946223            3 
  251000    1.2229319   -6.7589347    112.94924  0.037499749  0.039448095            4 
  252000     1.188265   -6.8146109    113.25753  0.037452886  0.039434009            3 
  253000    1.2056839   -6.7207439    114.52081  0.037720952  0.039422835            2 
  254000    1.2019173    -6.783239    114.98499  0.037724733  0.039413164            2 
  255000     1.218014   -6.7707674    114.90891  0.037551931  0.039403593            4 
  256000    1.2128173   -6.8047307    115.61792  0.037636041  0.039393252            2 
  257000       1.1894   -6.7682735    116.19717  0.037677422  0.039380834            2 
  258000    1.2164805   -6.7835168    116.34341  0.037578622  0.039369086            3 
  259000    1.2201289   -6.7604089    116.92651  0.037621143  0.039358327            1 
  260000    1.2018913   -6.7779579    117.44375  0.037642229  0.039346426            2 
  261000    1.2207596   -6.7625358    117.81911  0.037617853  0.039335345            1 
  262000    1.1899724   -6.7413725    118.56182  0.037710501  0.039325495            1 
  263000    1.2245642   -6.7519927    119.01898  0.037711971  0.039316701            2 
  264000     1.226157   -6.7678691    119.49639   0.03771982   0.03930807            1 
  265000    1.2025788   -6.7938624    119.87477  0.037696467  0.039299883            1 
  266000    1.2246943   -6.8078138    120.10465  0.037626771  0.039289677            1 
  267000    1.1749619    -6.770343    121.00965  0.037768305  0.039280009            1 
  268000    1.2177516    -6.758073    121.30522  0.037719284  0.039271273            1 
  269000    1.2213783   -6.8158154    121.56447  0.037659379  0.039263872            1 
  270000    1.2087573   -6.7896123    122.48495  0.037803998  0.039256892            2 
  271000     1.184127    -6.741957    123.37101  0.037936963  0.039252163            3 
  272000    1.1965438   -6.8023869    123.65656  0.037884976  0.039246224            2 
  273000    1.2077775   -6.8138803    123.37423  0.037660022  0.039240046            3 
  274000    1.1940387   -6.7323936    124.40624  0.037836448  0.039233444            1 
  275000    1.2219855   -6.7554714    124.27448  0.037658934  0.039226057            3 
  276000    1.2135706   -6.7729915    124.88991  0.037708308   0.03921767            2 
  277000     1.205204   -6.8066796     124.6291  0.037493712  0.039209908            1 
  278000    1.2343517   -6.7955692    125.54237  0.037632604  0.039200246            1 
  279000     1.175985    -6.770666    126.20155  0.037694608  0.039192229            1 
  280000    1.1554866   -6.7690438    126.76547  0.037727819  0.039184765            1 
  281000    1.2187212   -6.8183707    126.93306  0.037643255  0.039175869            2 
  282000    1.2181917   -6.7749967    127.64031  0.037718767  0.039166606            2 
  283000    1.1983106    -6.776275    128.22421  0.037757424  0.039158551            2 
  284000    1.2221113   -6.7712028    128.48359  0.037700582  0.039150071            1 
  285000    1.2190386    -6.800071    129.22332  0.037784596    0.0391432            1 
  286000    1.2005284   -6.7841035    129.47261  0.037725119  0.039135495            3 
  287000    1.2376672   -6.7877266      129.766  0.037678862  0.039126534            2 
  288000    1.1990379   -6.8550368    129.98887  0.037612521   0.03911838            2 
  289000    1.2061238   -6.8268133    130.74988   0.03770181  0.039111046            2 
  290000    1.1981701   -6.7908903    131.10577  0.037674071  0.039104501            1 
  291000     1.202405   -6.7709305    131.65019  0.037700511  0.039098315            3 
  292000    1.2046163   -6.8440459    131.92296  0.037649247  0.039091183            2 
  293000    1.1989451   -6.8062721    132.23726  0.037610142  0.039082803            1 
  294000    1.1989785   -6.7944811     132.5645  0.037574971  0.039073572            1 
  295000    1.2208783   -6.8027249    132.89758   0.03754169  0.039062757            2 
  296000    1.2055785   -6.7746438    133.11644  0.037476475   0.03905268            2 
  297000    1.1980002   -6.7933799    133.65279  0.037500783  0.039041783            1 
  298000    1.2187203   -6.7649476    134.64799  0.037653242  0.039030833            1 
  299000    1.2201063   -6.7862762    134.45073  0.037472333  0.039020992            2 
  300000    1.2165392   -6.7550734    135.16991  0.037547198   0.03901109            1 
  301000    1.2027286   -6.7328024    136.09395  0.037678279  0.039002242            2 
  302000    1.2142469   -6.8067156    135.98643  0.037523849  0.038992605            1 
  303000    1.1929521   -6.7424229    136.16074  0.037447947   0.03898142            2 
  304000      1.19526   -6.7970702    136.28415  0.037358593  0.038970697            1 
  305000     1.217964   -6.7806136     137.0211  0.037437458  0.038960308            1 
  306000    1.1973145   -6.8128915    137.16323  0.037353821  0.038949264            1 
  307000    1.1853717   -6.8103126    137.55852  0.037339447   0.03893694            1 
  308000    1.1846377   -6.8086158    138.01762  0.037342429  0.038924951            2 
  309000    1.2149232   -6.8077824    138.19448  0.037269276  0.038912524            2 
  310000      1.21437    -6.804592    139.50048  0.037500128    0.0389011            2 
  311000    1.1820561   -6.8190448      139.372  0.037345122  0.038887945            1 
  312000    1.2089206   -6.7603084    139.74496  0.037325043  0.038873483            1 
  313000     1.189112   -6.8202687    139.91538  0.037251165   0.03885959            3 
  314000    1.1931889    -6.786691    140.58043  0.037309031  0.038846222            3 
  315000    1.2180171   -6.7685037    141.06048  0.037317588  0.038832446            3 
  316000    1.2277715   -6.7552655    141.28904  0.037259768  0.038818918            2 
  317000    1.2150605   -6.8020947    141.68373  0.037245985  0.038805404            2 
  318000    1.2046193   -6.8378428    141.48557  0.037076931  0.038791319            2 
  319000    1.1851097   -6.7445819    143.03662  0.037365888  0.038778202            3 
  320000      1.22166   -6.7653143    143.39878  0.037343433  0.038766072            1 
  321000    1.2023371   -6.8242484    143.42878  0.037234885  0.038754113            2 
  322000    1.1918308   -6.8085554    144.01089  0.037269899  0.038741202            3 
  323000    1.1879338   -6.7731068    145.01911  0.037414631  0.038729016            1 
  324000    1.2253978   -6.8078314    144.82208  0.037248478  0.038718168            3 
  325000    1.1928025   -6.8237569    145.92547  0.037416787  0.038708096            2 
  326000    1.1945056   -6.8055268     146.6679  0.037491795  0.038699264            2 
  327000    1.1782937    -6.773503    147.09159  0.037485114  0.038690003            4 
  328000    1.1711252   -6.7862708    147.08716  0.037369705  0.038680613            2 
  329000    1.2058539   -6.8031291    147.89869  0.037461674  0.038672098            1 
  330000    1.2145395   -6.7730456     148.3354  0.037458433  0.038663989            2 
  331000    1.2295129   -6.8133361    147.98377  0.037256738   0.03865531            4 
  332000    1.2078293    -6.784701    149.82745  0.037607291  0.038648372            1 
  333000    1.1947694   -6.8042297    149.70884  0.037464674  0.038642292            1 
  334000    1.1917495   -6.7898594    150.27975  0.037494947  0.038635381            5 
  335000    1.1981547   -6.7504394    151.06922  0.037579408  0.038628178            4 
  336000    1.1982256   -6.7902393    150.71771  0.037380385  0.038620757            3 
  337000    1.1882353   -6.8251941    150.86107  0.037304914  0.038613635            4 
  338000    1.2050295   -6.7167711    152.68547  0.037644346  0.038606715            1 
  339000    1.1940096   -6.8160856    152.32595  0.037444924  0.038600691            2 
  340000    1.1854698   -6.7920349    153.04826   0.03751183  0.038594632            2 
  341000    1.2256986   -6.7944175    153.73967   0.03757079  0.038589753            1 
  342000    1.2353602   -6.7988722    154.25251  0.037585893  0.038585351            1 
  343000    1.1684124   -6.7684711    154.67466  0.037578876  0.038579728            2 
  344000    1.2101763   -6.7894849    154.59668  0.037450746  0.038573856            1 
  345000    1.2147656   -6.8191899    155.21899   0.03749251  0.038567929            3 
  346000    1.2078608   -6.8088032    155.61201  0.037478807  0.038562488            2 
  347000    1.1987082    -6.795126    156.67191  0.037625339  0.038557415            1 
  348000    1.2161348   -6.8012046    157.11149  0.037622484   0.03855353            2 
  349000    1.1742446   -6.7924213    157.66637  0.037647175  0.038549305            1 
  350000    1.1809652   -6.8110854    158.14961  0.037654669  0.038544983            2 
  351000    1.1894601   -6.8134632    157.54392  0.037403589  0.038540621            2 
  352000    1.1884179   -6.8175831    158.51637   0.03752755  0.038534396            3 
  353000    1.2191977   -6.7811931    159.08657  0.037555848  0.038529282            1 
  354000     1.200011   -6.8255901    159.57612  0.037565001  0.038523639            1 
  355000    1.1941248   -6.7969908    159.34955  0.037405997  0.038518493            1 
  356000    1.1925713   -6.8016268    160.12311  0.037482002  0.038511801            2 
  357000    1.1875146   -6.7619551    160.34465  0.037428723  0.038505437            2 
  358000    1.1674019   -6.8054068    160.17903  0.037285622  0.038496862            1 
  359000    1.1877456   -6.8022921    161.37709  0.037459863  0.038487567            1 
  360000    1.2233565   -6.7871931    161.46744  0.037376723  0.038479089            3 
  361000    1.2157705   -6.8220498    161.76362  0.037341556    0.0384715            2 
  362000      1.18017   -6.8033071    162.47915  0.037403119  0.038463684            1 
  363000    1.2145454   -6.7988506    162.96774  0.037412246  0.038455815            2 
  364000    1.1917593   -6.8229832    163.27328  0.037379414  0.038447876            1 
  365000    1.1831099   -6.8137513    163.78076  0.037392867  0.038440848            4 
  366000     1.198227   -6.8067895    164.62807  0.037483621  0.038434078            2 
  367000    1.2056454   -6.7984448    165.01916   0.03747029  0.038426922            1 
  368000    1.2157001   -6.7897803    165.91852  0.037572129  0.038420402            2 
  369000    1.1960276   -6.7689951     166.0819  0.037507204  0.038414659            1 
  370000     1.205541   -6.7914131    166.16168  0.037423802  0.038407559            3 
  371000    1.1619945   -6.7945441    166.64793   0.03743215  0.038401196            3 
  372000    1.1953771   -6.7989308    167.04157  0.037419706  0.038395407            2 
  373000    1.2030494   -6.7986665    167.17182  0.037348486  0.038389686            1 
  374000    1.2014726   -6.8075515    167.91767  0.037414812  0.038382182            3 
  375000    1.1678685   -6.7887198     167.7802   0.03728449  0.038374005            2 
  376000    1.2226373   -6.7812723     168.7427  0.037398648  0.038367357            3 
  377000    1.1921482   -6.8188489    168.89858  0.037333903  0.038360012            2 
  378000    1.2019007   -6.8509675    169.09629  0.037278724  0.038351854            1 
  379000    1.1732459   -6.8362181    169.32925  0.037231585  0.038343711            1 
  380000    1.1990369   -6.8184961    170.36963  0.037361761  0.038336064            2 
  381000    1.2044224   -6.8208888    170.60789  0.037315812   0.03832979            2 
  382000    1.1766554   -6.8037104    171.28132  0.037365035  0.038323209            1 
  383000    1.2085808   -6.8191191    171.36002    0.0372846  0.038315639            2 
  384000    1.2016647   -6.8177053     171.0836  0.037127517  0.038307524            1 
  385000    1.1724823   -6.7950063    171.83002  0.037192644  0.038299354            1 
  386000    1.1885084   -6.8145864    172.26306  0.037189781  0.038291315            2 
  387000    1.1592247   -6.8252149    172.43909  0.037131587   0.03828179            1 
  388000    1.1983937   -6.8171803    173.19566  0.037198381  0.038270768            1 
  389000     1.189113   -6.8280641     172.7695   0.03701146  0.038260067            1 
  390000    1.1977519   -6.8379765     173.2993  0.037029766  0.038249903            1 
  391000    1.1896555   -6.8023335    173.81711   0.03704542  0.038238531            3 
  392000    1.1755273   -6.7876467     173.5742  0.036899276  0.038227252            1 
  393000    1.1837249   -6.7765887    174.33865  0.036967483  0.038214236            2 
  394000    1.2117767    -6.837431    174.20857  0.036846143  0.038201332            2 
  395000    1.1699625    -6.840862    174.55277  0.036825478   0.03818805            3 
  396000    1.2116726   -6.8361995    175.41139  0.036913171  0.038174295            1 
  397000    1.1822482   -6.8523987    175.32551  0.036802163  0.038160697            2 
  398000    1.1799112   -6.8449194    175.71751  0.036791773  0.038146955            3 
  399000    1.1903484   -6.8396105    176.40806  0.036843788  0.038133399            1 
  400000    1.1787973   -6.7964017    177.00222  0.036875462  0.038120915            1 
  401000    1.1851329   -6.8858197    176.53985  0.036687417  0.038108161            2 
  402000     1.196715   -6.8142309    177.37127  0.036768506  0.038094755            2 
  403000    1.1651341   -6.8172482    178.46509  0.036903451  0.038081773            1 
  404000     1.194747   -6.8320999    178.78134  0.036877339  0.038068938            2 
  405000    1.1793345   -6.8359884     179.0454  0.036840618  0.038055755            1 
  406000    1.1948956   -6.7951324    179.27901  0.036797826  0.038043213            2 
  407000    1.2141488   -6.7758417     179.9184  0.036838329  0.038030942            1 
  408000    1.2136632   -6.8381321    179.81982  0.036727905  0.038018402            1 
  409000    1.1590185   -6.8696439    179.70907  0.036615541  0.038005049            1 
  410000    1.2114929   -6.8448288    180.50838  0.036688695  0.037992199            3 
  411000    1.1922078   -6.8302929    181.04204  0.036707631  0.037979021            3 
  412000    1.1612811   -6.8087643    181.92578  0.036797285  0.037966741            2 
  413000    1.1878443   -6.7866685    182.77125  0.036878783  0.037955829            2 
  414000     1.195639   -6.7987395     183.6599  0.036968579   0.03794436            4 
  415000    1.1757674   -6.8115484    182.79651  0.036706126   0.03793267            2 
  416000    1.1775859   -6.8362071    184.07471   0.03687394  0.037921613            3 
  417000    1.1754503    -6.776864    184.53274  0.036877047  0.037911324            2 
  418000    1.1816867   -6.8451049    185.02411  0.036886785     0.037901            1 
  419000    1.1935783   -6.8054457    185.39215  0.036871946  0.037890781            1 
  420000    1.1814928   -6.7911464    185.51106  0.036807749  0.037880583            4 
  421000     1.201756   -6.8547999     185.6479  0.036747408  0.037870044            2 
  422000    1.1727901   -6.8170319    186.01112  0.036732055   0.03785967            1 
  423000    1.1975814   -6.8676682    186.42367  0.036726491  0.037849296            2 
  424000    1.1664128   -6.8484534    186.70408  0.036694984   0.03783846            1 
  425000     1.184242   -6.8900011    187.46382  0.036757611  0.037827096            1 
  426000    1.1697604   -6.8574234    187.60486  0.036698915  0.037816442            1 
  427000    1.1681055   -6.8806499      187.993  0.036688719  0.037806242            2 
  428000    1.2034386   -6.8659077    189.11811  0.036822061  0.037797064            3 
  429000    1.1670113   -6.8369377    189.36685  0.036784547   0.03778819            3 
  430000    1.1748239   -6.7864162    190.24491  0.036869168  0.037778936            3 
  431000    1.1629511    -6.834757    190.11803  0.036759093  0.037769426            2 
  432000    1.1638843    -6.880216    190.24201  0.036697918  0.037759444            5 
  433000    1.1931372   -6.8585383     190.6057   0.03668316  0.037750205            3 
  434000    1.2012678   -6.8152173    192.05108  0.036876167  0.037739979            1 
  435000    1.1964155   -6.8536673    190.72781  0.036537894  0.037730155            2 
  436000    1.1471408    -6.816701    192.10194  0.036716731  0.037720358            1 
  437000    1.1611563    -6.830332    192.85757  0.036776805  0.037710494            1 
  438000    1.1990675   -6.8223843    193.05425   0.03673026  0.037700817            1 
  439000     1.181264   -6.8825315    193.08311  0.036652071  0.037690996            1 
  440000    1.1853455   -6.8621021    194.16274  0.036773246  0.037680632            4 
  441000    1.1667687   -6.8080317    194.15798   0.03668896  0.037671228            1 
  442000    1.1647288   -6.8294075    194.20873  0.036615521  0.037662395            3 
  443000    1.1733343   -6.8527764    194.60672  0.036607734  0.037653694            2 
  444000    1.1861387   -6.8403626    195.31864  0.036658904  0.037644393            2 
  445000    1.1828366   -6.8388094     196.1994  0.036741461  0.037633559            2 
  446000    1.2008576   -6.8029536    196.06013  0.036633059  0.037623467            4 
  447000    1.1868188   -6.8282116    197.50754  0.036820943  0.037613771            1 
  448000    1.1831725   -6.8435451    196.96994  0.036638754  0.037604299            1 
  449000    1.1673287   -6.8549761    197.29384  0.036617267  0.037595033            2 
  450000    1.1920753   -6.8171572    198.59822  0.036777448  0.037585926            1 
  451000    1.1630512   -6.8607479    198.12633  0.036608709  0.037577497            2 
  452000    1.1685999    -6.884188    198.53408  0.036602891  0.037568662            1 
  453000    1.1772412   -6.8399371    199.88662  0.036770901  0.037559983            1 
  454000    1.1852964   -6.8263517    199.74764  0.036664399  0.037551532            3 
  455000    1.1487622   -6.8367793    200.43811  0.036710277  0.037543348            1 
  456000    1.1706006   -6.8390782    200.12358  0.036572291  0.037534799            3 
  457000    1.1603982   -6.7971009    201.34033  0.036714138  0.037526106            1 
  458000     1.198766   -6.7970383    202.39583  0.036826024  0.037518245            1 
  459000    1.2166701   -6.8253246    201.44673  0.036573481  0.037509076            3 
  460000    1.1898253   -6.7820216    202.01038  0.036596083  0.037499823            2 
  461000    1.1507141   -6.8574272    202.46066  0.036598094   0.03749043            3 
  462000    1.1929498   -6.8453319    202.85382  0.036589794  0.037480605            1 
  463000    1.1794319   -6.8369889    203.04233  0.036544697  0.037470366            4 
  464000    1.1761872   -6.8232184    203.22021  0.036497882  0.037460618            1 
  465000    1.1978117   -6.8399316    203.72267  0.036509439  0.037451516            1 
  466000    1.1907751   -6.8736357    204.31757  0.036537477  0.037441563            3 
  467000    1.1621296    -6.849351     204.4005  0.036474036  0.037432008            2 
  468000     1.173532   -6.8383331    205.15032  0.036529616  0.037421715            2 
  469000    1.1753569   -6.8213875     205.2257  0.036465121  0.037412427            2 
  470000    1.1982102   -6.8058584    206.13731  0.036549169  0.037403268            1 
  471000    1.1695192    -6.812453    206.59024  0.036551705  0.037393935            3 
  472000    1.1696401   -6.8215725    206.77554   0.03650698  0.037385367            2 
  473000    1.1644912   -6.8653244    207.01171  0.036471407  0.037375926            5 
  474000    1.1722373   -6.8204419    207.62395  0.036502101  0.037366081            1 
  475000     1.150297   -6.8496158    207.14283  0.036340848  0.037355241            2 
  476000    1.1997798   -6.8924601    207.72061  0.036365653  0.037344365            3 
  477000    1.1737072   -6.8260074    207.82393  0.036307465  0.037333674            2 
  478000    1.1870536   -6.8534339     208.0509  0.036271077  0.037323022            1 
  479000    1.1954691   -6.8172029    209.16616   0.03638938  0.037311904            2 
  480000    1.1732115   -6.8494704    209.50292  0.036372035  0.037300376            5 
  481000    1.1676797   -6.8887314    209.32589  0.036265746  0.037288728            3 
  482000    1.1877896   -6.8290007    210.46008  0.036386597   0.03727785            2 
  483000    1.1611273   -6.8357362    210.58471  0.036332765  0.037267633            3 
  484000    1.1980643   -6.8885581    211.25738  0.036373516  0.037257377            3 
  485000    1.1550011   -6.8501325    211.49891  0.036340019  0.037247307            1 
  486000    1.1581852   -6.8283926    211.58388  0.036279814   0.03723785            2 
  487000    1.1868455   -6.8733662    212.08485  0.036291043  0.037228326            1 
  488000     1.186168   -6.8192103    212.89506  0.036355031  0.037219116            3 
  489000    1.1659237   -6.8451895    213.12223  0.036319398  0.037209038            2 
  490000    1.1973073   -6.8427996    213.71845  0.036346674  0.037198806            2 
  491000     1.196456   -6.8357153    213.91684   0.03630632  0.037188655            1 
  492000    1.1696976   -6.8333145    214.23015  0.036285594  0.037178804            2 
  493000    1.1887348    -6.834476    214.55228  0.036266443  0.037168338            1 
  494000    1.1575554   -6.8704975    214.89218  0.036250368  0.037157323            2 
  495000     1.178896   -6.8586691    215.00572  0.036196249  0.037146939            2 
  496000    1.2058874   -6.8390629    215.47056  0.036201371  0.037136905            1 
  497000    1.1501312   -6.8651086    215.76193  0.036177386  0.037127333            1 
  498000    1.1663813   -6.8821982    216.69656  0.036261138  0.037117098            1 
  499000    1.1995146   -6.8568465    216.98061  0.036235906  0.037107567            2 
  500000    1.1818919   -6.8732516      217.049  0.036174833  0.037097671            2 
  501000    1.1892044    -6.839208    217.54611  0.036185314  0.037087838            3 
  502000     1.188599   -6.8355156    217.56601  0.036116536  0.037078213            2 
  503000    1.1699526   -6.8669431    218.66291   0.03622646  0.037068092            2 
  504000    1.1681811   -6.8852056    219.10932  0.036228392  0.037057802            2 
  505000     1.174072   -6.8587479    219.45715  0.036214051  0.037047801            1 
  506000    1.1785472   -6.8820872     219.6514  0.036174473  0.037037975            1 
  507000    1.1707356   -6.8878938    220.42904   0.03623094  0.037028656            2 
  508000    1.1766169   -6.8721002    221.35161   0.03631096  0.037019803            2 
  509000    1.1565003   -6.8630529     220.7858  0.036146988  0.037010308            2 
  510000      1.18948   -6.8519397    221.59526  0.036208375  0.037000794            1 
  511000    1.1686688   -6.8944197    222.08757  0.036217804  0.036991751            1 
  512000    1.1648884   -6.8838598    222.67509   0.03624269  0.036982903            1 
  513000    1.1685911   -6.8606381    223.22263  0.036260986  0.036975068            1 
  514000    1.1530056   -6.9047356    222.56456  0.036083749  0.036966652            2 
  515000    1.1649032   -6.8144199    224.98291  0.036405002  0.036958703            1 
  516000     1.159838   -6.8216345    225.64065  0.036440673  0.036951973            2 
  517000     1.185183   -6.8419029    224.52328  0.036190083  0.036944887            2 
  518000     1.193447   -6.8149368    225.89199   0.03634041  0.036937715            3 
  519000    1.1746452   -6.8656256    225.43643  0.036197243  0.036930139            2 
  520000    1.1558065   -6.8422996    226.74789  0.036337804  0.036921853            1 
  521000    1.1649755   -6.8622707    227.28599  0.036354126  0.036914801            2 
  522000    1.1696217   -6.8345945    228.87368  0.036537944  0.036907747            1 
  523000    1.1648456   -6.8582188     228.0287  0.036333445  0.036900681            1 
  524000    1.1959684   -6.8582091    228.48361  0.036336452  0.036893531            1 
  525000    1.1894695   -6.8954501     227.9898  0.036188856  0.036886541            2 
  526000    1.1753822    -6.849102    228.45177  0.036193247  0.036878967            1 
  527000    1.1587061   -6.8637004    229.47575  0.036286487   0.03687143            3 
  528000    1.1712459   -6.8676532    229.23807  0.036180251  0.036863518            1 
  529000    1.1889406   -6.9053526    229.54405  0.036160058  0.036856103            1 
  530000    1.2005025   -6.8761513    230.76633  0.036284014  0.036848593            2 
  531000    1.1726256   -6.8731952    231.58856   0.03634472   0.03684151            1 
  532000    1.2024993   -6.8610965    232.28024  0.036384749  0.036834959            2 
  533000    1.1765779   -6.8928958    231.51518   0.03619687  0.036827949            3 
  534000    1.1588218    -6.805832    232.42352  0.036270836  0.036821031            1 
  535000    1.1639525   -6.8244376    232.97112  0.036288336  0.036813793            3 
  536000    1.1507894    -6.875902    233.42466  0.036291148  0.036806755            2 
  537000    1.1583948   -6.8666632    233.37436   0.03621576  0.036799467            2 
  538000    1.1546172   -6.8950273    233.75004  0.036206636  0.036791848            1 
  539000    1.1932662    -6.841225    234.02503  0.036181977  0.036784937            1 
  540000     1.134154   -6.8635876    233.89487  0.036094887  0.036777542            3 
  541000    1.1625366   -6.8488526    235.40084  0.036260142  0.036770437            1 
  542000    1.1635316   -6.8486415    235.14908  0.036154533  0.036763171            1 
  543000    1.1475475   -6.8594546    236.75382  0.036334226  0.036756553            4 
  544000    1.1824959    -6.842051    236.82688  0.036278627  0.036749513            1 
  545000    1.1572162   -6.8808977    236.95753  0.036232039  0.036742795            3 
  546000    1.1593863   -6.8217476    237.53394  0.036253654  0.036736032            2 
  547000    1.1781657    -6.882246    237.25052  0.036144198   0.03672899            2 
  548000    1.1680589    -6.845894    237.88249  0.036174344  0.036722019            1 
  549000    1.1559322   -6.8654488    238.33338  0.036176894  0.036714502            2 
  550000    1.1549858   -6.8448213    238.74523   0.03617352  0.036707705            1 
  551000    1.1375759   -6.8519277     239.2415  0.036182925  0.036700783            2 
  552000    1.1677049   -6.8924269     239.7987  0.036201494  0.036693827            1 
  553000    1.1572626   -6.8529038    240.87297  0.036297916  0.036687636            5 
  554000    1.1714573   -6.9048512    240.24798  0.036138384  0.036681366            2 
  555000    1.1611961   -6.8645829    240.36789  0.036091275  0.036674725            2 
  556000    1.1654207    -6.858171    241.13122   0.03614077  0.036668158            1 
  557000     1.197687   -6.8742721    242.01712  0.036208426  0.036661897            2 
  558000    1.1683776   -6.8958923    242.01312  0.036142939  0.036656404            2 
  559000    1.1702801   -6.8839432    242.99206  0.036224219  0.036650502            1 
  560000    1.1641174   -6.8881422    243.05498  0.036168895  0.036643888            2 
  561000    1.1570282   -6.9028231    243.87939  0.036226885  0.036637572            1 
  562000    1.1811759   -6.8603497    243.86821  0.036160766   0.03663126            3 
  563000    1.1547073   -6.8606891    244.04809  0.036123163  0.036625314            2 
  564000    1.1862584   -6.8701946    244.42048  0.036114137  0.036618855            1 
  565000    1.1683906   -6.8858019    244.71481   0.03609363  0.036611832            2 
  566000    1.1643852   -6.8986197    244.48091  0.035995422  0.036604817            2 
  567000    1.1720498   -6.9055157    245.62379   0.03609991  0.036597959            2 
  568000    1.1693012   -6.8406908    246.50212  0.036165218  0.036591432            1 
  569000    1.1605036    -6.881096    245.76662  0.035993939  0.036585153            2 
  570000    1.1412489   -6.8785738    246.27948  0.036005771   0.03657837            3 
  571000    1.1548969   -6.9142599     248.0217  0.036196979  0.036571423            1 
  572000    1.1334674   -6.9135095    246.99304  0.035983834  0.036564528            1 
  573000    1.1590441   -6.8597473    248.11037  0.036083533  0.036558216            1 
  574000    1.1723292   -6.8864557     247.4342  0.035922502  0.036550897            4 
  575000    1.1591287   -6.8496942    248.60993  0.036030424  0.036543303            1 
  576000     1.155471    -6.853427    248.50685  0.035952959  0.036535806            2 
  577000    1.1515457   -6.8442165     249.0182    0.0359645  0.036528193            2 
  578000    1.1659742   -6.8789877     248.7626  0.035865426  0.036520129            1 
  579000    1.1554683   -6.9065369    249.53497  0.035914648  0.036512827            4 
  580000    1.1957845    -6.888632    249.13392  0.035795104  0.036505299            1 
  581000    1.1736414   -6.8437687    250.38996  0.035913648  0.036497919            2 
  582000    1.1517415   -6.9317246    250.19984  0.035824719  0.036489964            3 
  583000    1.1745146    -6.868715    250.98574  0.035875606  0.036482218            3 
  584000    1.1647422   -6.8435442    251.73204  0.035920668  0.036474053            1 
  585000    1.1250179   -6.8533648    251.79833  0.035868708  0.036465467            2 
  586000    1.1553849   -6.8669037    252.02686  0.035839998  0.036457131            3 
  587000    1.1569938   -6.8613639    253.11991  0.035934116  0.036448781            1 
  588000     1.158439   -6.8888218    252.38646  0.035769057  0.036440506            3 
  589000     1.161971   -6.8733067    252.47545  0.035720918  0.036431987            1 
  590000    1.1615617   -6.9157311     252.5885  0.035676341   0.03642386            2 
  591000    1.1521892   -6.8315456    254.24021  0.035848873  0.036415281            4 
  592000    1.1663375   -6.8445313    254.30584  0.035797556  0.036406847            1 
  593000    1.1504116   -6.8630324    254.39017   0.03574904  0.036397968            1 
  594000    1.1483473   -6.8494105    254.64514  0.035724627   0.03638929            2 
  595000    1.1454697   -6.8832873    254.61202  0.035659947  0.036380593            2 
  596000    1.1533246   -6.9197162     254.4734  0.035580732  0.036372084            2 
  597000    1.1659215   -6.9040661    254.98589   0.03559267  0.036363136            1 
  598000    1.1638859   -6.9028054     255.8382  0.035651923  0.036353579            2 
  599000    1.1656937   -6.8843649    256.15699  0.035636754  0.036344271            2 
  600000    1.1578449   -6.8794838    256.22565  0.035586896  0.036334392            2 
  601000    1.1895258   -6.8987164    255.95961  0.035490795  0.036324756            2 
  602000    1.1591256   -6.9360729     256.5753  0.035517069  0.036315332            1 
  603000    1.1545963   -6.9263921    257.88168  0.035638707  0.036305444            2 
  604000    1.1676537   -6.9212665    258.08337  0.035607529    0.0362961            4 
  605000    1.1674073   -6.9088957    257.95244  0.035530639  0.036286833            2 
  606000    1.1512257   -6.8773515    259.31935  0.035659977  0.036278279            1 
  607000    1.1418149   -6.8902036     259.2844   0.03559643  0.036269347            3 
  608000    1.1481615   -6.8676905    259.44533  0.035559941  0.036260697            4 
  609000    1.1485003    -6.844032     260.5045  0.035646484  0.036251581            1 
  610000    1.1386861   -6.8791798    260.44849  0.035580395  0.036243038            1 
  611000    1.1419765   -6.9031847    261.75695   0.03570062  0.036234334            3 
  612000    1.1811294   -6.9383028    260.84418  0.035517999   0.03622554            2 
  613000    1.1449584   -6.8601238    262.32629   0.03566154  0.036216895            1 
  614000    1.1258421   -6.9336657    261.59524   0.03550424  0.036208106            2 
  615000    1.1726141   -6.9032833    262.38197  0.035553113  0.036199271            1 
  616000    1.1508229   -6.8971266     263.0622  0.035587419  0.036190177            5 
  617000    1.1570599   -6.9015104     262.9252  0.035511237  0.036180768            4 
  618000    1.1485646   -6.9256233    263.74153  0.035563852   0.03617172            1 
  619000    1.1471884   -6.8694299    264.60244    0.0356223  0.036163023            5 
  620000    1.1638686   -6.9084629    264.94004  0.035610221  0.036154377            1 
  621000    1.1445962   -6.8848854    264.80791  0.035535146   0.03614591            5 
  622000    1.1179478   -6.9021896    264.50241  0.035437086  0.036136865            2 
  623000    1.1717055   -6.9046884    264.90294  0.035433781  0.036127729            2 
  624000    1.1283537   -6.8575675    265.79938  0.035496713  0.036118058            2 
  625000    1.1485578   -6.9133495    265.68154  0.035424205  0.036109192            1 
  626000    1.1452315   -6.9180845     266.3751  0.035459944   0.03609999            1 
  627000    1.1520108   -6.9200927    266.89871  0.035472982  0.036090737            2 
  628000    1.1535634    -6.895191    267.31878  0.035472237  0.036081935            3 
  629000    1.1401692   -6.9004725    268.09868  0.035519169  0.036073306            4 
  630000    1.1424474   -6.8897505    267.27958  0.035354442  0.036064098            3 
  631000    1.1411075   -6.8767294    268.54451  0.035465466  0.036055404            1 
  632000    1.1475013   -6.9055609    269.47691  0.035532293  0.036046947            2 
  633000    1.1459315   -6.8968429    269.14271  0.035432163    0.0360384            1 
  634000    1.1452951   -6.8991691     270.3214  0.035531204  0.036029561            1 
  635000    1.1399676   -6.9394541    269.59105  0.035379402  0.036020887            1 
  636000    1.1595319     -6.86924    271.19347  0.035533735  0.036012387            2 
  637000    1.1350659   -6.9219706    270.30897  0.035362241  0.036003663            2 
  638000    1.1757279   -6.9509082    269.97385  0.035263043  0.035994682            2 
  639000    1.1459971     -6.91029    271.82429  0.035449177  0.035985577            2 
  640000    1.1531346   -6.8856098    272.62745  0.035498366  0.035977007            3 
  641000    1.1414482   -6.9236535    271.70153  0.035322612  0.035969281            3 
  642000    1.1404364   -6.9069301    272.61635  0.035386338  0.035960902            1 
  643000    1.1371422   -6.9089303    273.32792  0.035423525  0.035952707            2 
  644000    1.1508748    -6.894574    274.67068  0.035542273  0.035944817            4 
  645000     1.152525   -6.9025501    274.41654  0.035454333  0.035937312            2 
  646000    1.1598213   -6.8590575    275.18101  0.035498066  0.035929483            1 
  647000    1.1404059   -6.8471845    276.77486  0.035648488  0.035922257            2 
  648000    1.1734961   -6.9091174    275.60545  0.035443088  0.035914655            1 
  649000    1.1422476   -6.8748449    275.25348  0.035343282  0.035906633            1 
  650000    1.1495773   -6.9076401    276.13755   0.03540225  0.035898527            2 
  651000    1.1451191   -6.8711572    275.98269  0.035328046  0.035890501            2 
  652000    1.1125862    -6.871275    276.57753  0.035349889  0.035882367            1 
  653000    1.1615617   -6.8916104    277.51275  0.035415103  0.035874126            1 
  654000    1.1294177    -6.921442    276.81271  0.035271752  0.035866192            2 
  655000    1.1510743   -6.8966955    278.71644  0.035460107  0.035858086            3 
  656000    1.1431042   -6.9124217    277.77689  0.035286699  0.035850083            2 
  657000    1.1406913   -6.8957211    278.83408  0.035367082  0.035842247       -1e+20 
  658000    1.1555077   -6.9246573    278.22384  0.035236049  0.035833928            2 
  659000    1.1309868   -6.8937987    278.42695  0.035208264  0.035825317            2 
  660000    1.1402711   -6.9081445    278.60288  0.035177131  0.035816572            1 
  661000    1.1421613   -6.9311371    278.81448   0.03515059  0.035807613            2 
  662000    1.1789031   -6.9073901     279.4066  0.035172029  0.035798837            2 
  663000    1.1386285   -6.9215351    279.83656  0.035173022   0.03579013            3 
  664000    1.1649344   -6.9217125    279.01306  0.035016699  0.035781404            2 
  665000    1.1286298   -6.8983566    280.50289  0.035150738  0.035772587            1 
  666000    1.1398775   -6.8893441    280.69814   0.03512239  0.035763834            3 
  667000    1.1749924   -6.9014801    282.01338  0.035234055  0.035755156            3 
  668000    1.1193744    -6.871639    281.57887  0.035127104  0.035746418            3 
  669000    1.1445618   -6.8683212    283.54632  0.035319671  0.035738207            2 
  670000    1.1555955   -6.9271456     282.7314  0.035165597  0.035729792            3 
  671000     1.138101   -6.8658976    284.14088  0.035288237   0.03572186            2 
  672000    1.1458954    -6.899495    284.03026  0.035222007  0.035714311            2 
  673000    1.1465442   -6.8806139    284.98405  0.035287773   0.03570668            1 
  674000    1.1679109   -6.9189019    284.58963   0.03518665  0.035698544            1 
  675000    1.1373551   -6.9313881    284.94169  0.035177987  0.035690384            4 
  676000    1.1715077   -6.8314052    286.57613  0.035327433  0.035682272            4 
  677000    1.1365231   -6.9258983    286.06234  0.035212006  0.035674266            2 
  678000     1.169899   -6.9020836    285.46912  0.035087158  0.035666006            2 
  679000    1.1304726   -6.9282857    285.94741  0.035094184  0.035657532            2 
  680000    1.1576524   -6.9481465    285.53741  0.034992329  0.035648892            2 
  681000    1.1486706   -6.8903782    287.27824   0.03515397  0.035640631            2 
  682000     1.126681   -6.9135068    287.17082  0.035089299  0.035632436            2 
  683000    1.1628892    -6.910483    286.92706  0.035008182  0.035624101            2 
  684000    1.1547664   -6.8874632     288.3241  0.035127205  0.035615335            1 
  685000     1.116204   -6.9242243    288.23677    0.0350653  0.035606853            2 
  686000    1.1362706   -6.8858462    289.14046  0.035123963   0.03559855            3 
  687000    1.1331299   -6.9131889     288.9026  0.035043984  0.035590199            1 
  688000    1.1684024   -6.9707807    289.92718  0.035117149  0.035581922            1 
  689000    1.1277307   -6.9257761    289.92427  0.035065829  0.035573644            1 
  690000    1.1463748   -6.8768258    290.54593  0.035090088  0.035565763            3 
  691000    1.1502941   -6.9380581    291.53021  0.035158009  0.035557987            2 
  692000    1.1595979   -6.8816863    291.60485  0.035116191  0.035550178            1 
  693000    1.1457135   -6.8991524     291.6025  0.035065236  0.035542337            3 
  694000    1.1251084   -6.9011129    291.90836  0.035051437  0.035533933            3 
  695000    1.1349157   -6.9346644    292.19329  0.035035167  0.035525643            2 
  696000    1.1372917   -6.9241353    292.02382  0.034964537  0.035516669            2 
  697000    1.1231927   -6.9414315    292.07077  0.034919986  0.035508008            1 
  698000    1.1435065   -6.9119465     292.8032  0.034957402  0.035499376            6 
  699000    1.1216672   -6.9194915    291.98384  0.034809709  0.035490453            6 
  700000    1.1359881   -6.8904295    293.39204  0.034927624  0.035481901            1 
  701000     1.136119   -6.9166068    294.78715  0.035043646  0.035473631            2 
  702000    1.1206595   -6.9408765    293.97066  0.034896802  0.035465004            3 
  703000    1.1506508   -6.9641136    293.43754  0.034783966  0.035456353            1 
  704000    1.1140689   -6.9204694     295.7026  0.035002675  0.035448064            2 
  705000    1.1177339   -6.9009921    294.80795  0.034847275  0.035439724            1 
  706000    1.1255297   -6.9140146    297.33477  0.035096172  0.035431202            2 
  707000    1.1176342   -6.9140359    295.99569  0.034888695  0.035423056            1 
  708000    1.1594013   -6.9513377    296.29536   0.03487469  0.035414503            2 
  709000    1.1203226     -6.89487    297.73523  0.034994738  0.035406455            1 
  710000    1.1369083   -6.8963593     299.2911  0.035128064  0.035399447            2 
  711000    1.1118372   -6.9164918    299.87895  0.035147556  0.035392493            1 
  712000    1.1546548   -6.9028712    300.19371  0.035135031  0.035386029            1 
  713000    1.1398333   -6.9098896    299.81995  0.035042069  0.035379111            2 
  714000    1.1372581   -6.9361449    300.12749  0.035028886  0.035371843            1 
  715000    1.1488974   -6.9036283     300.6537  0.035041224  0.035364966            4 
  716000    1.1379801   -6.9078911    300.28625  0.034949517  0.035358009            3 
  717000    1.1503323   -6.9420513    301.44744  0.035035732  0.035350824            2 
  718000    1.1319536   -6.9335344    300.70966  0.034901307  0.035343303            3 
  719000    1.1478305   -6.9389359    302.11483  0.035015626  0.035335958            1 
  720000    1.1391671   -6.9268896    301.59683  0.034907041  0.035328463            1 
  721000    1.1115572   -6.9422706    303.13234    0.0350361   0.03532081            2 
  722000    1.1191491   -6.9368798    301.73649  0.034826465  0.035312825            1 
  723000    1.1166654   -6.9244239    302.38938  0.034853548  0.035304957            2 
  724000     1.139118   -6.9285091    302.38589  0.034805006  0.035297057            2 
  725000    1.1125037   -6.9118086    303.65787  0.034903203  0.035289137            1 
  726000    1.1318597   -6.9500366    303.19333  0.034801806  0.035281647            3 
  727000    1.1036919   -6.9127348    304.07722  0.034855253   0.03527356            2 
  728000    1.1311321    -6.944339    303.44477  0.034734978  0.035265513            2 
  729000    1.1329726   -6.9426408    304.54779  0.034813419    0.0352577            2 
  730000    1.1547608   -6.9488136    305.26733  0.034847868  0.035249898            3 
  731000    1.1258346   -6.9017613     305.4026  0.034815618  0.035242139            1 
  732000    1.1395778   -6.9128313    305.15265    0.0347396  0.035234233            4 
  733000    1.1353363   -6.9218835    305.56151   0.03473869  0.035226588            1 
  734000    1.1236396   -6.9283891    306.42183  0.034789036  0.035218789            4 
  735000    1.1327798   -6.9275282    307.25117  0.034835733  0.035211014            1 
  736000    1.1570178    -6.922349    307.85425  0.034856686  0.035203545            2 
  737000    1.1246043    -6.961017    307.76137  0.034798889  0.035195967            1 
  738000    1.1524577   -6.9081479     308.3155  0.034814307  0.035188696            1 
  739000    1.1213355   -6.9625291    308.76409  0.034817782  0.035181575            3 
  740000     1.141482    -6.968843    308.43636  0.034733825  0.035173911            4 
  741000    1.1289739   -6.9843522    308.85114  0.034733596  0.035166296            3 
  742000    1.1336983   -6.9268682    308.98072  0.034701339  0.035158942            2 
  743000    1.1310805   -6.9547099    310.42284  0.034816379  0.035151339            1 
  744000    1.1423646   -6.9000155    310.54592  0.034783369   0.03514358            3 
  745000     1.127177   -6.8658594    312.22765  0.034924793  0.035136247            2 
  746000    1.1568519    -6.890923     312.3598  0.034892739  0.035129402            3 
  747000    1.1309141   -6.8769001    311.52703  0.034753127  0.035122082            2 
  748000    1.1272075   -6.9361262    311.99969  0.034759324  0.035115022            3 
  749000    1.1261982   -6.9620035    311.73854  0.034683861  0.035107452            5 
  750000    1.1487932   -6.9442301    313.01527  0.034779474   0.03510015            1 
  751000    1.1098123   -6.9225009    313.71498  0.034810805  0.035093102            3 
  752000    1.1381294   -6.9272451    314.38661  0.034838942  0.035085598            2 
  753000     1.125476   -6.9636708    313.28235  0.034670468   0.03507778            1 
  754000    1.1070911    -6.968845    312.21827  0.034506882  0.035069683            4 
  755000    1.1326629   -6.9300456    314.57203  0.034720975  0.035061973            1 
  756000    1.1183045   -6.9828874    313.87343  0.034598041   0.03505386            1 
  757000     1.134249   -6.9303742    315.35942  0.034715921  0.035046293            1 
  758000    1.1101166   -6.9620119    315.60763  0.034697408  0.035038858            5 
  759000      1.12555    -6.919451    316.34311  0.034732445  0.035031658            3 
  760000    1.1144894   -6.9555268     316.8633  0.034743783  0.035024547            3 
  761000    1.1144206   -6.9292813     317.5617  0.034774606  0.035018114            2 
  762000    1.1484356   -6.9449859    317.74646  0.034749176  0.035011729            1 
  763000    1.1248951   -6.9786755    317.47535  0.034674022  0.035004917            2 
  764000    1.1280478   -6.9567192    319.01951  0.034797067  0.034998259            2 
  765000    1.1069434    -6.935812    320.00993  0.034859469   0.03499195            2 
  766000    1.1137151   -6.9534258    319.42676  0.034750518  0.034985741            6 
  767000    1.1228272    -6.920732    320.04676  0.034772572  0.034979509            5 
  768000    1.1158217   -6.9583817    318.67239  0.034578167  0.034973289            1 
  769000    1.1184645    -6.875464    321.53941  0.034843889  0.034966742            1 
  770000    1.1398506   -6.9364451    320.71883  0.034709831  0.034960113            3 
  771000    1.1167755   -6.9743904    320.61907  0.034654028  0.034953183            2 
  772000    1.1255685   -6.9192595    322.10967  0.034770042  0.034946992            1 
  773000    1.1190134   -6.9329794    321.43479  0.034652305  0.034940452            2 
  774000    1.1393627   -6.9384144    322.75031  0.034749172  0.034933955            3 
  775000    1.1358101   -6.9660738    321.44067  0.034563513  0.034927259            2 
  776000     1.139324   -6.9374134    322.78703  0.034663556  0.034920292            2 
  777000     1.123977   -6.9210357    322.55002  0.034593524  0.034913472            2 
  778000    1.1288715   -6.9617587    322.65149  0.034559928  0.034906783            1 
  779000    1.1330086   -6.9579598    323.45265  0.034601268  0.034899688            2 
  780000    1.1212171   -6.9638735    324.01032  0.034616488   0.03489303            3 
  781000    1.1392816   -6.9864575    323.87568  0.034557797   0.03488632            2 
  782000    1.1238793   -6.9167125    325.26413  0.034661566  0.034879602            2 
  783000    1.1481633   -6.9589832    325.49493  0.034641861  0.034873482            3 
  784000    1.1407283    -6.966781    325.29003  0.034575896  0.034867067            2 
  785000    1.1218209   -6.9216372    326.76619  0.034688556  0.034860548            3 
  786000    1.1225638   -6.9396576    327.57628  0.034730309  0.034854149            1 
  787000     1.135699   -6.9450749    327.28209  0.034655028  0.034847909            2 
  788000    1.1320102   -6.9427182    328.34361  0.034723309  0.034842032            5 
  789000    1.1447972   -6.9393745    329.33169  0.034783659  0.034836296            1 
  790000    1.1371766   -6.9264171    329.60552  0.034768515  0.034830439            4 
  791000    1.1207514   -6.9450596    329.38101  0.034700907  0.034824354            3 
  792000    1.1159855   -6.9679978    329.50202  0.034669825  0.034818377            1 
  793000    1.1173809   -6.9665454    329.58582  0.034634911   0.03481222            2 
  794000    1.1305058    -6.957886    329.64949  0.034597973  0.034806178            2 
  795000    1.1091324   -6.9378628    331.26651  0.034723953  0.034799988            2 
  796000    1.1138209   -6.9500569    331.45306   0.03469986  0.034794004            1 
  797000    1.1197116   -6.9451441    332.27418  0.034742177  0.034788364            2 
  798000    1.1077963   -6.9110932    331.67349  0.034635911   0.03478259            1 
  799000    1.1313892    -6.907042    333.13073  0.034744548  0.034777063            2 
  800000    1.1235762   -6.9690891    331.23697  0.034503851  0.034771034            4 
  801000     1.122455    -6.981011    331.75695  0.034514872  0.034764749            4 
  802000    1.1271183   -6.9352569    331.09411  0.034402962   0.03475815            1 
  803000    1.1265336   -6.9540604    332.76035  0.034533038  0.034751438            1 
  804000    1.1230334   -6.9447463    333.49941  0.034566688  0.034744871            1 
  805000    1.1111689   -6.9389925     333.1522  0.034487805  0.034738503            4 
  806000    1.1414415   -6.9647788    334.21871  0.034555284  0.034731939            2 
  807000    1.1169211   -6.9418258    333.83376  0.034472714   0.03472562            2 
  808000    1.1256443   -6.9492906    334.64608  0.034513828  0.034719293       -1e+20 
  809000    1.1166051   -6.9876651    335.55142  0.034564424  0.034713218            2 
  810000    1.1211475   -6.9408494    334.85632  0.034450239  0.034706698            3 
  811000    1.1274993   -6.9527257    335.52911  0.034476891  0.034700399            1 
  812000    1.1116355    -6.944559    335.25525  0.034406327  0.034693889            3 
  813000    1.1081069   -6.9517808    335.52971  0.034392139  0.034687517            4 
  814000    1.1062489   -6.9837411    337.27394  0.034528454     0.034681            2 
  815000    1.1407777    -6.918284    336.64302  0.034421577   0.03467435            2 
  816000    1.1330934   -6.9334868    337.96095  0.034513986   0.03466738            1 
  817000    1.1299808   -6.9681388    337.66602  0.034441659  0.034660606            3 
  818000    1.1216807   -6.9278015    338.01612   0.03443522  0.034654028            1 
  819000    1.1003544   -6.9542848    338.14406  0.034406193   0.03464755            1 
  820000    1.1281736   -6.9420025     339.1702  0.034468516  0.034640791            1 
  821000    1.1292428   -7.0012169    338.51899  0.034360433  0.034634039            3 
  822000     1.109075    -6.974144    338.82513  0.034349669  0.034627542            2 
  823000    1.1158561   -6.9557501    339.03022  0.034328698  0.034620653            1 
  824000    1.0928789   -6.9505071    338.67401  0.034251012  0.034613206            2 
  825000     1.132632    -6.958792    340.55037  0.034399028  0.034606322            1 
  826000    1.0988177   -6.9726473    340.88047  0.034390685  0.034599615            2 
  827000    1.1280381   -7.0148114    340.84324  0.034345349   0.03459284            2 
  828000    1.1258427    -6.973011    340.67046  0.034286479  0.034585911            1 
  829000    1.1333245   -7.0203793    341.14395  0.034292717  0.034579087            2 
  830000    1.1005306   -6.9959372    341.02806  0.034239765  0.034572034            5 
  831000    1.1338366   -6.9382573    342.97854  0.034394158  0.034565321            2 
  832000    1.1269009   -6.9629157    343.07626  0.034362606  0.034558823            1 
  833000    1.1075665   -6.9987743    343.50674  0.034364419  0.034552158            1 
  834000    1.1248854   -6.9746061    343.90846  0.034363356  0.034545425            2 
  835000    1.1157047   -6.9341621    344.57091  0.034388314  0.034538972            4 
  836000    1.1286762   -6.9669298    343.60842  0.034251238  0.034532708            1 
  837000    1.1189477   -6.9472576      344.532   0.03430227  0.034526185            1 
  838000    1.0904772   -6.9567381    344.64648  0.034272721   0.03451943            1 
  839000     1.095563   -6.9440783    346.05853  0.034372123  0.034512722            3 
  840000    1.1191668    -7.013695    344.56232   0.03418277  0.034506337            1 
  841000    1.1208597   -6.9737882    345.55643  0.034240629  0.034499808            2 
  842000     1.114514   -6.9374625    346.84158  0.034327155  0.034493218            3 
  843000    1.1092773    -6.988895    346.19246  0.034222268  0.034486545            1 
  844000    1.1117929   -6.9677474    347.27316  0.034288424  0.034480046            2 
  845000    1.1222448   -7.0011819    347.74404  0.034294284  0.034473453            3 
  846000    1.1013868   -7.0087936    347.47453  0.034227199  0.034467278            2 
  847000    1.1188111   -6.9830852    349.24979  0.034361451  0.034461197            2 
  848000    1.1254679   -6.9649163    349.05151  0.034301446  0.034455151            1 
  849000    1.1252893   -6.9913557    349.24891  0.034280419  0.034449156            2 
  850000    1.1242622   -6.9859549    349.42824   0.03425767  0.034443142            1 
  851000    1.1390424   -7.0005633    350.34927  0.034307605  0.034437091            3 
  852000    1.1175722   -6.9710828    351.55535  0.034385304  0.034431105            3 
  853000    1.0924599   -6.9837914    350.07671  0.034200538  0.034424995            1 
  854000    1.0859947   -6.9743357    352.16603  0.034364367  0.034419001            3 
  855000    1.1124091   -6.9594237    351.93769  0.034301919  0.034413351            4 
  856000    1.1261588   -6.9647968     353.0672  0.034371807   0.03440747            5 
  857000    1.1017338   -6.9782818    353.47288  0.034371148   0.03440178            2 
  858000    1.0996438   -6.9812752    352.31323  0.034218457  0.034395646            3 
  859000    1.1108457   -6.9679771     353.1566  0.034260439  0.034389838            1 
  860000    1.1095372   -6.9318721    355.20611  0.034419197  0.034384358            1 
  861000    1.1102889    -6.978261    355.11657  0.034370554  0.034379023            3 
  862000    1.0790448   -6.9735352    355.22614  0.034341274  0.034373781            2 
  863000    1.1327726    -6.939896    355.96043  0.034372386  0.034368519            4 
  864000    1.1096484   -6.9641717    356.76835  0.034410527  0.034363286            2 
  865000    1.1008543    -6.980402    355.06115  0.034206276  0.034357585            2 
  866000    1.1170013    -6.961677    356.81065  0.034335128  0.034352063            2 
  867000    1.1308376   -6.9812774    357.80302  0.034390909  0.034346464            1 
  868000    1.1145669   -6.9856748    356.39639  0.034216244  0.034340981            3 
  869000    1.1343009    -6.987097    356.67396  0.034203487  0.034335094            2 
  870000    1.1303851   -6.9700123    357.68237  0.034260763  0.034329497            3 
  871000    1.1337443   -6.9802377    357.70127  0.034223237  0.034323836            2 
  872000    1.1125569   -6.9943927    357.93952  0.034206758  0.034318022            3 
  873000    1.1138208   -6.9335913     358.8055  0.034250239  0.034312144            1 
  874000    1.1260001   -7.0235206    358.60968   0.03419238  0.034305911            2 
  875000    1.1142983   -6.9707956    358.85373  0.034176546  0.034300161            1 
  876000    1.0984544   -6.9727755    359.48794  0.034197863  0.034294387            1 
  877000    1.0943693   -7.0383514    359.19759   0.03413128  0.034288405            1 
  878000    1.1211209   -6.9597823    360.59074  0.034224634  0.034282782            1 
  879000    1.0988415   -6.9914243    360.44988  0.034172344  0.034277334            5 
  880000    1.0991614   -6.9752463    361.63878  0.034246096  0.034272114            2 
  881000    1.1212618   -6.9468801    362.03596  0.034244794  0.034266735            3 
  882000    1.1316543   -6.9527204    362.50426  0.034250214  0.034261333            3 
  883000    1.1208324   -7.0313795    362.70178  0.034230066  0.034255941            2 
  884000    1.1222239   -7.0476302    362.45538  0.034168117  0.034250289            1 
  885000    1.0793757   -6.9513086    363.18929  0.034198615  0.034244751            1 
  886000    1.0827555   -7.0234106    362.89988  0.034132795   0.03423926            5 
  887000    1.1168169   -6.9410587    364.49867   0.03424452  0.034233801            3 
  888000    1.1104418   -6.9707764    364.10426  0.034168943  0.034228171            2 
  889000    1.1093516   -6.9910495     363.8308  0.034104874  0.034222677            1 
  890000    1.1052018   -6.9670215    364.80657  0.034157918  0.034217195            2 
  891000    1.1009909   -6.9564941    364.62766  0.034102849  0.034211533            2 
  892000    1.1051938   -6.9802985    365.15764   0.03411413  0.034205784            2 
  893000    1.1092593   -6.9739743    365.08822  0.034069449  0.034200354            3 
  894000    1.1124408   -7.0049909    365.53472  0.034072961  0.034194679            2 
  895000    1.0947252   -6.9648141    365.41923  0.034024137  0.034188477            2 
  896000    1.0954398   -6.9807802    366.04714  0.034044563  0.034182194            1 
  897000    1.1207835   -6.9782533    366.33286  0.034033153  0.034175923            3 
  898000    1.1042748     -6.95911    366.44308  0.034005483  0.034169918            1 
  899000     1.123802   -6.9817009    367.02025  0.034021158   0.03416415            4 
  900000    1.1006789   -6.9788434    367.72362  0.034048484  0.034158549            2 
  901000    1.1303533   -6.9938633    368.03422  0.034039421  0.034152713            1 
  902000    1.0889721   -6.9461233     368.5493   0.03404927  0.034147016            3 
  903000    1.0897173   -6.9886474     368.4374  0.034001237   0.03414111            1 
  904000    1.1096364   -6.9880369    367.49676  0.033876913  0.034135228            3 
  905000    1.1099146   -6.9960443     370.0115   0.03407104  0.034129293            3 
  906000    1.0972102    -6.980158    369.78523  0.034012622  0.034123326            1 
  907000    1.1253329   -6.9937249    370.06215  0.034000565  0.034117844            2 
  908000    1.1300743   -7.0184635    371.67367   0.03411102  0.034112175            4 
  909000    1.1018175   -6.9675502    370.59869  0.033974944   0.03410644            1 
  910000     1.118345    -6.977217    371.57635  0.034027139  0.034101011            1 
  911000    1.1412576   -6.9979369    371.87386  0.034017002  0.034095438            2 
  912000    1.0906588   -6.9881974     372.0918  0.033999616  0.034090098            1 
  913000    1.1269407   -6.9760252    373.87857  0.034125462  0.034084902            2 
  914000    1.1089448    -7.001775    371.55673  0.033876434  0.034079332            1 
  915000    1.1089211   -7.0024746    373.53857  0.034019906  0.034073327            3 
  916000    1.1251057   -6.9935771    373.67042  0.033994762  0.034067867            2 
  917000     1.123284   -6.9801535    374.75898  0.034056614  0.034062172            1 
  918000    1.1224884   -6.9835548    374.30257  0.033978084  0.034056414            1 
  919000    1.1095314   -6.9949995    375.84434  0.034080916  0.034050816            2 
  920000    1.1013686   -7.0163162    374.91701  0.033959874  0.034045074            5 
  921000    1.0923099   -7.0064255    375.56693  0.033981807   0.03403933            4 
  922000    1.0934839   -6.9906023    374.99835   0.03389356  0.034033497            5 
  923000    1.0898259   -7.0148363    374.90991  0.033848854  0.034027704            3 
  924000    1.0905088   -7.0005712    375.53101  0.033868237   0.03402187            3 
  925000    1.0919016   -6.9721614    377.46963  0.034006273  0.034016135            2 
  926000    1.0752516   -6.9937723    376.48548  0.033880983  0.034010362            4 
  927000    1.1112452   -6.9450298    376.45525  0.033841716  0.034004523            2 
  928000    1.1121929   -7.0259675    376.66588  0.033824163  0.033998562            3 
  929000    1.0999699   -6.9869901    377.95298   0.03390321  0.033992604            2 
  930000    1.0790183   -7.0157892    378.19767   0.03388868  0.033986368            3 
  931000    1.0930723   -6.9543052     377.6586  0.033804028  0.033980129            2 
  932000    1.0979059   -7.0292129    378.48678  0.033841808  0.033974068            2 
  933000    1.0947306   -7.0165589    379.09469  0.033859833  0.033968121            2 
  934000    1.0902116   -6.9905522    379.34143  0.033845595  0.033962354            3 
  935000    1.0738015   -7.0350094    378.14145  0.033702446   0.03395657            4 
  936000    1.0914219   -6.9819193     380.3626  0.033864192  0.033950674            2 
  937000    1.0997393   -6.9929742    380.79592  0.033866589  0.033944876            1 
  938000    1.1110404   -6.9585454    382.28488  0.033962765  0.033939219            2 
  939000    1.0912603   -6.9924135    381.08261  0.033819898  0.033933667            2 
  940000    1.1161931   -6.9624615    382.68476  0.033925954  0.033927795            4 
  941000     1.139302   -7.0406365    380.96116  0.033737262  0.033921856            2 
  942000    1.0997692   -6.9737266    382.47186   0.03383509  0.033915963            2 
  943000    1.1068362   -7.0053465    382.85126  0.033832738  0.033910005            3 
  944000    1.1140762   -7.0054772    383.93472  0.033892542  0.033904181            6 
  945000    1.1110868   -6.9848372    383.55869  0.033823518  0.033898261            2 
  946000    1.1003905   -7.0001517    383.28048  0.033763255  0.033892343            3 
  947000     1.108299   -7.0126531     383.4917   0.03374619  0.033886207            3 
  948000    1.1249105   -6.9663572    384.77563  0.033823456  0.033880594            1 
  949000    1.1086957   -7.0430666    384.77081  0.033787391  0.033874969            1 
  950000    1.1014835   -7.0290877    384.18101  0.033700088  0.033869048            1 
  951000     1.117974   -7.0102844    385.16763  0.033751107  0.033863148            6 
  952000    1.0862065   -6.9978524    387.04571  0.033880052  0.033857475            2 
  953000    1.0846031   -6.9997434    386.15959  0.033767015  0.033851805            2 
  954000    1.0951406   -7.0176301    386.25268  0.033739752  0.033846161            2 
  955000    1.0959048   -7.0150868    386.29117  0.033707781  0.033840509            1 
  956000    1.1007585   -7.0199093     386.4579  0.033687056  0.033834977            2 
  957000    1.0941526   -7.0153763    386.57875  0.033662378  0.033829114            2 
  958000    1.1339452   -7.0201749    387.58569   0.03371483  0.033823226            2 
  959000    1.1100864   -7.0241191    387.77091  0.033695769  0.033817472            1 
  960000    1.0882335      -6.9999    387.84018  0.033666682  0.033811775            1 
  961000    1.0948946   -6.9921396    389.05229  0.033736758  0.033806278            7 
  962000    1.1163772   -6.9935941    388.79555  0.033679448  0.033800715            1 
  963000    1.0945071   -7.0094606    390.75692  0.033814202  0.033794991            2 
  964000    1.0909785   -6.9803967     391.2942  0.033825571  0.033789133            3 
  965000    1.0927374   -7.0245229    390.56972  0.033727955  0.033783496            5 
  966000    1.0837271   -7.0182439    391.90925  0.033808597  0.033777816            2 
  967000    1.1103711   -6.9844401    391.05396  0.033699928  0.033772037            2 
  968000    1.1035724   -6.9904484    391.47003  0.033700932  0.033766256            1 
  969000    1.0935473   -7.0040374    391.09916  0.033634258  0.033760569            3 
  970000     1.068664   -7.0174886    391.56364  0.033639488   0.03375481            2 
  971000    1.1236966   -7.0321368    391.45868  0.033595836  0.033748788            2 
  972000     1.092768   -7.0252042    391.06785  0.033527765  0.033742722            1 
  973000    1.0703465    -7.034008    392.56072  0.033621165   0.03373675            2 
  974000     1.084128   -7.0200171    392.31011  0.033565204  0.033730807            2 
  975000    1.0903907   -7.0285383    391.70177  0.033478784  0.033724831            2 
  976000    1.1198565   -7.0512061     392.7919  0.033537559  0.033718766            1 
  977000    1.0922126   -6.9832404    395.71491  0.033752551  0.033713149            3 
  978000    1.0991954   -7.0349759    394.47132  0.033612076  0.033707227            1 
  979000    1.1215938   -7.0112525    394.88278  0.033612766  0.033701388            1 
  980000    1.1004565    -7.024388    393.92204  0.033496772  0.033695204            3 
  981000    1.0877191   -6.9710539    395.95193   0.03363506  0.033689299            1 
  982000    1.0967215   -7.0216044    395.58535    0.0335697  0.033683427            2 
  983000    1.0821397   -6.9797043    396.82748  0.033640851  0.033677828            1 
  984000    1.0966307   -7.0210846    396.10528  0.033545501  0.033672021            1 
  985000    1.0898045   -6.9832663    397.72817  0.033648746  0.033666345            2 
  986000     1.095205   -6.9498483    397.75217  0.033616647  0.033660793            2 
  987000    1.0747932   -6.9866602    398.75088   0.03366691  0.033655301            1 
  988000    1.1118376   -6.9961586    398.29936   0.03359475   0.03365015            5 
  989000    1.0852633   -7.0451776    397.29737  0.033476354   0.03364465            1 
  990000    1.1002332   -7.0221765    398.12984  0.033512613  0.033639031            1 
  991000    1.1146596   -7.0153735    398.26358  0.033490042  0.033633448            3 
  992000    1.0960151   -6.9817437    401.03573  0.033689157  0.033627948            2 
  993000    1.1010805   -7.0185082    399.99283   0.03356771  0.033622542            3 
  994000    1.1000843   -7.0055561    399.49037  0.033491815   0.03361681            1 
  995000    1.0953029   -7.0170825    401.01059  0.033585477  0.033611378            1 
  996000    1.0915815   -7.0152378    400.65466  0.033521976  0.033606036            3 
  997000    1.1057821   -7.0047166    402.11241  0.033610198  0.033600592            2 
  998000    1.0971431   -7.0251795    402.33388  0.033595013  0.033595268            2 
  999000    1.0813856   -7.0279109    401.88365  0.033523828  0.033590195            1 
 1000000    1.0972811   -6.9781106    403.95221  0.033662684  0.033585044            2 
 1001000     1.106534   -6.9915651    404.19488  0.033649258  0.033579892            3 
 1002000    1.0877415   -7.0374561    403.98932   0.03359858  0.033574542            3 
 1003000    1.0879698   -6.9969813    403.58374  0.033531384   0.03356936            3 
 1004000    1.1078556   -7.0360367    404.84739  0.033602871  0.033563952            2 
 1005000    1.0711487   -7.0311959    404.13442  0.033510317  0.033558596            2 
 1006000    1.1050218   -7.0130141    404.99359  0.033548177  0.033553235            1 
 1007000    1.0683614   -6.9984942      405.722  0.033575141  0.033547877            1 
 1008000    1.0872283   -7.0402578    405.20034  0.033498705   0.03354247            1 
 1009000    1.1039414   -7.0326753    406.18021  0.033546433  0.033537246            2 
 1010000    1.1005071   -7.0683009    405.61882  0.033466899  0.033531749            2 
 1011000    1.0935648   -7.0298333    405.63741  0.033435329  0.033526123            2 
 1012000    1.0595893   -7.0341646    406.74704  0.033493662  0.033520636            2 
 1013000     1.101511   -7.0404724    407.62139  0.033532526  0.033515013            3 
 1014000    1.0870331   -7.0138479    406.45565  0.033403653  0.033509657            3 
 1015000    1.0708469   -7.0355171    407.68582  0.033471742  0.033504451            2 
 1016000    1.0542766   -7.0318812    407.60492  0.033432162  0.033498997            1 
 1017000    1.0810056   -7.0038596      408.823  0.033499099  0.033493614            1 
 1018000    1.0803641   -7.0047006     408.7528  0.033460445  0.033488247       -1e+20 
 1019000    1.1022369   -7.0482337    408.67851  0.033421533  0.033482609            2 
 1020000    1.0951147   -7.0294153     409.3181  0.033441021   0.03347689            6 
 1021000    1.0939572   -7.0470684    409.55914  0.033427942  0.033471465            1 
 1022000    1.0880611   -6.9812377    410.57302  0.033477905  0.033466044            2 
 1023000    1.0911006   -7.0091802     410.8618  0.033468703    0.0334609            2 
 1024000    1.0898793   -7.0045048    411.71596  0.033505531  0.033455626            1 
 1025000    1.1198076   -7.0236253    410.69051  0.033389472  0.033450408            4 
 1026000    1.0856254   -7.0294887    411.69276  0.033438334  0.033445286            3 
 1027000    1.1132568   -7.0050874    412.62214  0.033481187  0.033440089            3 
 1028000    1.0624832   -7.0772402    411.11108  0.033326125  0.033434726            2 
 1029000    1.0751386    -7.034323    411.50032  0.033325261  0.033429203            2 
 1030000    1.0920601   -7.0610234    412.74585  0.033393677  0.033423858            2 
 1031000    1.0797205   -7.0051758     414.9593  0.033540196  0.033418736            3 
 1032000    1.0844911   -7.0269049    414.69936  0.033486706  0.033413608            2 
 1033000    1.1123236    -7.014991     413.8512  0.033385866  0.033408634            1 
 1034000    1.0951812   -7.0229429    415.87209  0.033516448  0.033403535            2 
 1035000    1.0875565   -7.0351279    415.86018  0.033483106  0.033398758            3 
 1036000    1.0845958   -7.0264753    417.25397    0.0335629   0.03339402            2 
 1037000    1.0672905   -7.0078299    416.47019   0.03346755  0.033389397            3 
 1038000    1.0963395    -6.998706    417.82376  0.033543976  0.033384937            3 
 1039000     1.096663   -7.0383322    418.18224  0.033540443  0.033380334            6 
 1040000    1.0861571   -7.0877351    415.40597  0.033285734  0.033375596            2 
 1041000    1.1024227   -7.0450555    416.53734  0.033344328  0.033370581            2 
 1042000    1.0904315   -6.9943812     418.6416  0.033480614  0.033365841            1 
 1043000    1.0977414   -7.0282124    418.86649  0.033466482   0.03336082            2 
 1044000    1.1006903   -7.0299018    418.59037  0.033412386   0.03335595            3 
 1045000    1.0895893    -7.039485    418.96449  0.033410246  0.033351158            2 
 1046000     1.074642   -7.0312538    418.37929  0.033331683  0.033346218            1 
 1047000    1.0691646   -7.0005558    419.81766  0.033414332   0.03334125            1 
 1048000    1.0934924   -7.0047888    420.18469  0.033411633  0.033336189            1 
 1049000    1.0720459   -7.0504775    419.53811  0.033328417  0.033331259            2 
 1050000    1.0598962    -7.045448     420.3162  0.033358428  0.033326142            5 
 1051000    1.0722773   -7.0027596    420.75585  0.033361549  0.033321112            1 
 1052000    1.0674585   -7.0280502    420.62932  0.033319813  0.033316097            1 
 1053000    1.0858113   -7.0315193    421.16175  0.033330306  0.033311073            4 
 1054000    1.1006274    -7.050847    421.46012  0.033322274   0.03330578            3 
 1055000     1.092096   -7.0578941    421.14099  0.033265481  0.033300424            1 
 1056000    1.0779933   -7.0094627    421.37227  0.033252231  0.033295154            1 
 1057000    1.0693749   -7.0375957    422.06329  0.033275252  0.033289982            2 
 1058000    1.0917534   -7.0379023    421.64806  0.033211095  0.033284694            2 
 1059000    1.0939183   -7.0438589    422.61337  0.033255695  0.033279413            2 
 1060000    1.0710792   -7.0324055      423.622  0.033303616  0.033273963            2 
 1061000    1.0890917   -7.0680523    423.42672  0.033256889  0.033268461            1 
 1062000    1.0551552   -7.0919376    422.17616  0.033127445  0.033263079            3 
 1063000    1.0866909   -7.0076914    424.18386  0.033253673  0.033257342            4 
 1064000    1.0710324   -7.0177885    424.40421  0.033239678  0.033251809            1 
 1065000    1.0919441   -7.0345254    425.33639  0.033281408  0.033246094            2 
 1066000    1.0914988   -7.0571986    424.06112  0.033150494  0.033240513            2 
 1067000    1.0911954   -7.0509561    423.22224  0.033053908  0.033234856            1 
 1068000     1.075421    -7.034186    425.93105   0.03323432  0.033229378            1 
 1069000    1.0760809   -7.0447348    425.33678  0.033156905  0.033223488            3 
 1070000    1.0810092   -7.0435782    425.10825  0.033108119  0.033217411            3 
 1071000    1.0856261   -7.0188434    425.31873  0.033093583  0.033211319            1 
 1072000    1.0895452   -7.0293744    425.82275  0.033101893   0.03320547            1 
 1073000    1.0870873   -7.0326479    427.00052  0.033162513  0.033199803            6 
 1074000    1.1068617   -7.0368296    425.42766  0.033009595  0.033193872            2 
 1075000     1.110355   -7.0521045    426.85185  0.033089291   0.03318821            2 
 1076000    1.0632582   -7.0854872    426.82706  0.033056619  0.033182605            1 
 1077000    1.0881136   -7.0737585    427.78914  0.033100367   0.03317697            1 
 1078000     1.064373   -7.0636323    427.15664  0.033020767  0.033171325            2 
 1079000    1.0846491   -7.0619079    428.16747  0.033068232  0.033165788            3 
 1080000    1.0562518   -7.0243359     429.7825   0.03316223  0.033160206            1 
 1081000    1.0667884   -7.0336832    429.53184   0.03311223  0.033154563            1 
 1082000    1.1108743   -7.0515383    428.76728  0.033022742  0.033148938            5 
 1083000    1.0672629   -7.0579187    428.71487  0.032988217   0.03314344            3 
 1084000    1.0732344    -7.030836    430.79922  0.033118022  0.033137899            1 
 1085000    1.0722862   -7.0503629    430.82782  0.033089695  0.033132265            2 
 1086000     1.058524   -7.0626514    431.01162  0.033073329  0.033126692            1 
 1087000    1.0875081   -7.0222978    430.61532   0.03301252  0.033121243            4 
 1088000    1.0873525   -7.0530022    431.24586  0.033030473  0.033115811            1 
 1089000     1.078583    -7.065017    432.02326  0.033059631    0.0331104            3 
 1090000    1.0747459   -7.0276958    434.91342  0.033250262  0.033105124            2 
 1091000    1.0563057   -7.0989426    432.10848  0.033005536  0.033099856            3 
 1092000    1.0948325   -7.0535222    434.37524  0.033148293  0.033094373            2 
 1093000    1.0853999   -7.0580325    433.20535   0.03302877   0.03308915            2 
 1094000    1.0614448   -7.0260915    433.41535  0.033014575  0.033083753            2 
 1095000    1.0840367    -7.004314    434.83558   0.03309251  0.033078623            2 
 1096000    1.0757467   -7.0519548    435.19983  0.033090011  0.033073475            2 
 1097000    1.0589093   -7.0715637    434.61921  0.033015741  0.033068221            4 
 1098000    1.0754502   -7.0674973     434.9382  0.033009882  0.033062533            4 
 1099000    1.0924885   -7.0652731    435.54304  0.033025708  0.033056803            2 
 1100000    1.0794472   -7.0299161    435.75273   0.03301157  0.033051204            2 
 1101000    1.0790381   -7.0577018    435.63762  0.032972875  0.033045378            2 
 1102000    1.0715305   -7.0440663    436.58509  0.033014601   0.03303982            2 
 1103000    1.0726825   -7.0958174    435.20355  0.032880292  0.033034172            1 
 1104000    1.0945972   -7.0547707    436.17521  0.032923854  0.033028481            2 
 1105000    1.0740243   -7.0441056    436.52569  0.032920489  0.033022825            2 
 1106000    1.0585131   -7.0626476    437.46547  0.032961533  0.033017015            2 
 1107000    1.0842432   -7.0472299    436.87943  0.032887641  0.033011108            1 
 1108000    1.0788903   -7.0164816    438.10202  0.032949912   0.03300551            3 
 1109000    1.0542868   -7.0882629    436.90916  0.032830565  0.032999727            1 
 1110000    1.0593704   -7.0972681    437.31271  0.032831284  0.032993666            2 
 1111000    1.0635234   -7.0293227    440.37294  0.033031273  0.032987807            2 
 1112000    1.0670482    -7.017508     439.3758  0.032926843  0.032981874            1 
 1113000    1.0497822   -7.0660461     438.1867  0.032808228  0.032975784            2 
 1114000     1.075908   -7.0380959    439.36826  0.032867165  0.032969602            1 
 1115000    1.0778154   -7.0323373    438.83338  0.032797712  0.032963475            1 
 1116000    1.0777939    -7.072734    438.09812   0.03271342  0.032957075            3 
 1117000    1.0821575   -7.1001403    438.74307  0.032732249  0.032950552            2 
 1118000    1.1021462   -7.0430309    438.83325  0.032709694  0.032944033            1 
 1119000    1.0699671   -7.0821134    438.80076  0.032678043  0.032937514            3 
 1120000    1.0878574   -7.0587413    438.06404  0.032594051  0.032930988            1 
 1121000    1.0538643   -7.0705273    438.84793  0.032623248  0.032924405            2 
 1122000    1.0752724   -7.0317529    440.37931  0.032707911  0.032917472            2 
 1123000    1.0687733   -7.0154297    441.22577  0.032741597  0.032910801            2 
 1124000    1.0545207   -7.0727122     440.0233  0.032623317  0.032903987            1 
 1125000    1.0587057   -7.1168195    441.53199  0.032706073  0.032897158            2 
 1126000     1.065673   -7.0542579     439.9821  0.032562322   0.03289047            1 
 1127000    1.0625998   -7.0685947    440.37568  0.032562532  0.032883706            2 
 1128000    1.0614873   -7.0813813    440.11789   0.03251462   0.03287688            2 
 1129000    1.0603997   -7.0349502    441.85678  0.032614171  0.032869938            2 
 1130000    1.0711159   -7.0431382    441.95437  0.032592505  0.032862932            1 
 1131000    1.0647812   -7.0111301    442.33817  0.032591967  0.032856032            2 
 1132000    1.0721452   -7.0481903    441.52416  0.032503251  0.032848969            2 
 1133000    1.0765237   -7.0313618    442.40895   0.03253964  0.032841845            2 
 1134000    1.0641361   -7.0177411    442.76938  0.032537432  0.032834874            3 
 1135000    1.0686635   -7.0441014    442.73054  0.032505913  0.032827711            2 
 1136000    1.0647315   -7.0989188    441.41113  0.032380511  0.032820428            3 
 1137000    1.0821108   -7.0936438    441.85358  0.032384461  0.032813107            2 
 1138000     1.073479   -7.0350797    443.06156  0.032444461  0.032805722            2 
 1139000    1.0505644   -7.0933839    443.68507  0.032461594  0.032798479            2 
 1140000    1.0863389   -7.0527941    444.78607  0.032513601  0.032791246            2 
 1141000    1.0837433   -7.0696665    445.16323  0.032512652  0.032783936            2 
 1142000    1.0761503   -7.0633391    444.39376  0.032428033  0.032776839            1 
 1143000    1.0468561   -7.0731922    444.49292  0.032406891  0.032769859            4 
 1144000     1.082481   -7.0657216    445.87226   0.03247904  0.032762834            3 
 1145000    1.0822366   -7.0655152     446.3256  0.032483668   0.03275569            2 
 1146000    1.0581324    -7.064751    446.66888  0.032480285  0.032748861            1 
 1147000    1.0809554   -7.0578913    445.53844  0.032369837  0.032741832            2 
 1148000      1.05876   -7.0973675    446.22831  0.032391718  0.032734657            2 
 1149000    1.0820134    -7.076589    448.32946  0.032515917  0.032727662            2 
 1150000    1.0839179   -7.0744939    447.89687  0.032456295    0.0327208            2 
 1151000     1.022943   -7.0931059    448.00538  0.032435953  0.032714119            6 
 1152000    1.0830351   -7.0768639    448.64853  0.032454321   0.03270735            3 
 1153000    1.0757863   -7.0844851    447.28544  0.032327656   0.03270053            6 
 1154000    1.0870347   -7.0451215     449.0322   0.03242578  0.032693731            1 
 1155000    1.0690616   -7.0793336    448.91031  0.032388911  0.032686857            3 
 1156000    1.0891106   -7.0506183    450.32567  0.032462923  0.032680009            2 
 1157000    1.0454943   -7.0514921    450.11654  0.032419803  0.032673137            2 
 1158000    1.0779753   -7.0814503    450.49339  0.032418925  0.032665985            1 
 1159000    1.0502388   -7.0456202    448.62873  0.032256883  0.032658958            2 
 1160000    1.0786531   -7.0619652    449.87523  0.032318623  0.032651925            3 
 1161000    1.0445684    -7.053646    450.75584  0.032353994  0.032644781            3 
 1162000    1.0602493   -7.0703729    449.66255  0.032247744  0.032637519            2 
 1163000    1.0577578    -7.069001    450.20603  0.032258959  0.032630117            1 
 1164000    1.0667616   -7.0810236    451.09271  0.032294724  0.032622617            3 
 1165000    1.0549499   -7.0824186    450.59752  0.032231582  0.032615587            2 
 1166000      1.08973   -7.0905149    450.81115  0.032219208  0.032608142            2 
 1167000    1.0569071   -7.0800153    451.74947  0.032258603  0.032600709            1 
 1168000    1.0728249   -7.0767796    453.10396  0.032327623  0.032593484            2 
 1169000    1.0513763   -7.0480661    452.56578  0.032261604  0.032586242            1 
 1170000    1.0713095   -7.0771287    452.77414   0.03224887  0.032579037            2 
 1171000    1.0682797     -7.07803    453.81361  0.032295304   0.03257167            1 
 1172000    1.0467637   -7.0789394    452.90395  0.032203068   0.03256446            2 
 1173000    1.0544709   -7.0306037    453.98211   0.03225221  0.032557396            3 
 1174000    1.0472127   -7.0603256    454.63076  0.032270781  0.032550348            3 
 1175000     1.059516   -7.0892638    453.90256  0.032191671  0.032543257            2 
 1176000     1.063833   -7.0628696    453.38435  0.032127576  0.032535922            2 
 1177000    1.0526262   -7.0905518    454.55979  0.032183503  0.032528405            2 
 1178000     1.057167   -7.0934948    454.18941  0.032129981  0.032520767            2 
 1179000    1.0651614   -7.0894205    454.75741  0.032142876  0.032513308            1 
 1180000    1.0635783   -7.0793123    455.81994  0.032190674  0.032505994            2 
 1181000    1.0735837   -7.0827453    455.55218  0.032144523  0.032498888            3 
 1182000    1.0645875    -7.100787    456.28456  0.032168962  0.032491565            4 
 1183000    1.0544219   -7.0764232    455.78714   0.03210673   0.03248417            3 
 1184000    1.0425652   -7.0877987    454.86946  0.032015024   0.03247667            1 
 1185000    1.0644213   -7.1115278    454.47929  0.031960569  0.032468944            2 
 1186000    1.0512318   -7.0708773    456.44427  0.032071688  0.032461138            3 
 1187000     1.047067   -7.1075063    457.44583  0.032114984  0.032453733            1 
 1188000    1.0572647   -7.0533351    457.56239  0.032096127  0.032446298            3 
 1189000    1.0575392   -7.0734241    459.16471  0.032181435  0.032438869            2 
 1190000    1.0725459   -7.0900994    457.25229  0.032020468  0.032431441            1 
 1191000     1.069031   -7.0674387    457.29408  0.031996507  0.032423773            4 
 1192000     1.084056   -7.0603086     458.0046  0.032019337  0.032416178            2 
 1193000    1.0331787   -7.1004682    456.64926  0.031897825  0.032408473            3 
 1194000    1.0493267   -7.1124564     458.8577  0.032025244  0.032400857            2 
 1195000    1.0587184   -7.0788579    458.70229  0.031987607  0.032393206            2 
 1196000    1.0496054   -7.1013342     458.9686  0.031979418  0.032385424            3 
 1197000    1.0554138   -7.0773735    459.92057  0.032018976  0.032377767            2 
 1198000     1.052497   -7.1124045    458.28511  0.031878485   0.03236995            2 
 1199000    1.0629093   -7.0963961     458.5172  0.031868029  0.032362139            3 
 1200000      1.04836    -7.085266    459.44978  0.031906235  0.032354411            1 
 1201000    1.0739089   -7.0976395    458.61986  0.031822083  0.032346618            2 
 1202000    1.0744817   -7.0359897    460.40781  0.031919565  0.032338956            2 
 1203000    1.0694236   -7.1156706    460.82849  0.031922173  0.032331132            2 
 1204000    1.0513692   -7.1017113    460.71676  0.031887926  0.032323441            2 
 1205000    1.0505706   -7.0578527    462.07818  0.031955614  0.032315658            2 
 1206000    1.0498548   -7.0752175    461.94824  0.031920138  0.032308135            2 
 1207000    1.0714204   -7.0647936    463.75746  0.032018604  0.032300693            1 
 1208000    1.0440784    -7.054575    463.98464  0.032007771  0.032293438            3 
 1209000    1.0676184    -7.066413    462.53922  0.031881667  0.032285955            1 
 1210000     1.050767   -7.1015274     463.2591  0.031904897  0.032278482            2 
 1211000    1.0747916   -7.0637057    464.00344  0.031929772  0.032271107            1 
 1212000    1.0346394   -7.0958426    463.76266  0.031886872  0.032263606            1 
 1213000     1.051981   -7.0532314    463.95044  0.031873485  0.032255898            3 
 1214000    1.0630008    -7.082099    464.12297  0.031859073  0.032248501            1 
 1215000    1.0297923   -7.1348532     464.4442  0.031854884  0.032241073            1 
 1216000     1.069484   -7.0904601    464.14037  0.031807865  0.032233645            2 
 1217000    1.0405358   -7.0680629     465.5916  0.031881101   0.03222615            2 
 1218000    1.0610698   -7.1123495    464.62917  0.031789078  0.032218588            2 
 1219000    1.0497801   -7.0869991    466.31104  0.031877977  0.032211066            2 
 1220000    1.0347612   -7.0862434    466.87853   0.03189061  0.032203651            1 
 1221000    1.0651835   -7.1508763    466.28735  0.031824143  0.032196205            4 
 1222000    1.0576332   -7.0795069    466.29346  0.031798517   0.03218882            2 
 1223000    1.0598867   -7.0850334    467.34869  0.031844419   0.03218152            3 
 1224000    1.0571964   -7.0571244    466.94666  0.031791031  0.032174153            6 
 1225000    1.0548482   -7.0972187    467.69637  0.031816079  0.032166543            2 
 1226000    1.0426225   -7.0949077    466.80802  0.031729746  0.032158958            2 
 1227000    1.0360671   -7.0966459    467.75831  0.031768426  0.032151388            1 
 1228000    1.0712734   -7.1018554    468.18773  0.031771697  0.032143776            2 
 1229000    1.0329655   -7.1174146      468.521  0.031768443  0.032136188            2 
 1230000    1.0468122    -7.116048    468.65614  0.031751771  0.032128626            3 
 1231000     1.045213   -7.0816546    469.27389  0.031767796  0.032121013            1 
 1232000    1.0672161   -7.0906531    469.74284  0.031773731  0.032113458            1 
 1233000    1.0552687   -7.0780378    470.16393  0.031776421  0.032105917            4 
 1234000    1.0305856   -7.0956546    469.07052  0.031676831  0.032098394            5 
 1235000    1.0398666   -7.0078443    471.25958  0.031798892   0.03209104            1 
 1236000    1.0452378   -7.1079663    470.41145  0.031715983  0.032083583            3 
 1237000     1.048207    -7.111656    470.39911  0.031689512  0.032075899            2 
 1238000    1.0419871   -7.0963105    471.98927  0.031770953   0.03206834            3 
 1239000    1.0475929     -7.11716    472.07892   0.03175134  0.032060904            2 
 1240000    1.0529811   -7.0548258    472.90659  0.031781357  0.032053494            3 
 1241000    1.0494518   -7.0896166    471.86185  0.031685593  0.032046107            2 
 1242000    1.0512739   -7.1025445    473.24374    0.0317528  0.032038787            1 
 1243000    1.0641013   -7.0946611    473.55346   0.03174802  0.032031616            1 
 1244000    1.0537042   -7.0911533    473.35397  0.031709135  0.032024209            2 
 1245000    1.0500727   -7.0833227    473.49351  0.031693006  0.032016783            1 
 1246000    1.0653324   -7.1225664    472.05237  0.031571186  0.032009432            2 
 1247000    1.0657311   -7.1138856    473.48216  0.031641417  0.032001887            3 
 1248000    1.0301476    -7.085288    473.49263  0.031616762  0.031994341            1 
 1249000    1.0590116   -7.1184641    472.32253  0.031513379  0.031986647            2 
 1250000    1.0845956   -7.1027514    473.35899  0.031557266  0.031978821            2 
 1251000    1.0611471   -7.1269211    473.30092  0.031528172  0.031971027            1 
 1252000    1.0618093    -7.136292    474.23811  0.031565369  0.031963153            3 
 1253000    1.0705965    -7.105923    474.20538     0.031538  0.031955299            2 
 1254000     1.046052   -7.1251676    473.14956  0.031442687  0.031947488            2 
 1255000    1.0435919   -7.0875034    474.33914  0.031496623  0.031939846            2 
 1256000    1.0592133   -7.1060044    473.38406  0.031408178  0.031932014            2 
 1257000    1.0335075   -7.0723119    476.05893  0.031560523  0.031924215            1 
 1258000    1.0583751   -7.1042787    475.81845  0.031519505  0.031916549            2 
 1259000    1.0554338   -7.0791615    476.67659   0.03155127  0.031908847            4 
 1260000    1.0657121   -7.0897962    476.45359  0.031511481  0.031901151            1 
 1261000    1.0328718   -7.1366767    475.91631  0.031450985  0.031893528            1 
 1262000    1.0614592   -7.1115797    476.61151   0.03147197  0.031885833            2 
 1263000    1.0558607   -7.0668327    477.33232  0.031494611  0.031878082            1 
 1264000    1.0435452   -7.0799535    477.73395  0.031496173  0.031870422            2 
 1265000    1.0532265   -7.0939833    478.66856  0.031532843  0.031862573            1 
 1266000    1.0438282   -7.1229883    477.77443  0.031449081   0.03185455            3 
 1267000    1.0409529   -7.1326332    478.00902  0.031439689  0.031846527            2 
 1268000    1.0481785   -7.0983091     478.9596  0.031477366  0.031838672            4 
 1269000    1.0503577   -7.0737504    479.31021  0.031475585  0.031830753            2 
 1270000    1.0365144    -7.095294    477.35526  0.031322524  0.031822954            1 
 1271000    1.0703597   -7.1241751    477.33413  0.031296494  0.031814895            2 
 1272000    1.0613371   -7.0482513     479.3035   0.03140091  0.031806772            3 
 1273000    1.0315459   -7.1029737    478.58569  0.031329254  0.031798716            1 
 1274000    1.0504508   -7.0959361     478.9891   0.03133105  0.031790711            2 
 1275000    1.0516094   -7.1001011    479.92315  0.031367526  0.031782605            3 
 1276000    1.0662351   -7.1292265    478.01241  0.031218156  0.031774455            3 
 1277000    1.0472111   -7.0916416    478.43174  0.031221074  0.031766172            3 
 1278000    1.0438028   -7.1450158    480.94501  0.031360525  0.031757905            1 
 1279000    1.0587061   -7.0804431    479.47302  0.031240098  0.031749667            1 
 1280000    1.0438066   -7.1112857    480.58584  0.031288141  0.031741545            3 
 1281000    1.0583611   -7.1113917    479.49037  0.031192452  0.031733241            1 
 1282000    1.0607123   -7.1606394    479.63227  0.031177344  0.031724987            1 
 1283000    1.0359407   -7.0954799    480.32654  0.031198138  0.031716552            3 
 1284000    1.0341737   -7.1456075    480.95509  0.031214635  0.031708295            5 
 1285000    1.0450236   -7.1081999    481.10062  0.031199781  0.031700096            3 
 1286000    1.0273952   -7.0802132    482.74076  0.031281802  0.031692042            3 
 1287000    1.0364315   -7.1157939    481.56331  0.031181256  0.031683736            1 
 1288000    1.0411179   -7.1368794    482.38905  0.031210472  0.031675466            2 
 1289000     1.066799   -7.1118903    483.08795  0.031231442  0.031667049            4 
 1290000    1.0436515   -7.1077659    483.47329  0.031232125  0.031658925            2 
 1291000    1.0424871   -7.0933263     483.8326  0.031231126  0.031650992            1 
 1292000    1.0468349   -7.0778277    484.75068  0.031266169  0.031643061            7 
 1293000    1.0372057   -7.1139346     482.9798  0.031127855  0.031635134            2 
 1294000     1.056922   -7.1263153    483.11734  0.031112657  0.031627095            3 
 1295000    1.0392138   -7.1026576    484.52045  0.031178922  0.031619001            1 
 1296000    1.0556367   -7.1140366    485.61304  0.031225118  0.031611009            4 
 1297000    1.0532868   -7.1208655    484.70698  0.031142828  0.031603038            2 
 1298000    1.0322635   -7.0986065    484.68802  0.031117618  0.031595107            2 
 1299000    1.0361928    -7.139138    486.25442   0.03119415  0.031587214            2 
 1300000    1.0431187   -7.0997966    487.50355  0.031250227  0.031579396            2 
 1301000    1.0650647   -7.1273441    485.91695  0.031124581  0.031571603            1 
 1302000    1.0309696   -7.1018859     488.9588  0.031295366  0.031563711            2 
 1303000    1.0693861   -7.1164402     486.8547   0.03113678  0.031555887            1 
 1304000    1.0453083   -7.1306447    488.48366  0.031217003  0.031548233            2 
 1305000    1.0487239   -7.1034283    488.86651  0.031217529  0.031540552            2 
 1306000    1.0343719   -7.1364211      487.626  0.031114471  0.031532879            1 
 1307000    1.0364765   -7.1197805    486.88452  0.031043389  0.031525083            4 
 1308000    1.0471442   -7.0887974    490.83727  0.031271488  0.031517504            2 
 1309000    1.0553787   -7.1025103    489.20269  0.031143538  0.031509966            2 
 1310000    1.0538847   -7.1010355    489.27083  0.031124099  0.031502245            1 
 1311000    1.0261763   -7.0936806    491.06161  0.031214188  0.031494716            2 
 1312000    1.0341509   -7.1368954    490.14797  0.031132366  0.031487019            3 
 1313000    1.0409819   -7.0987731    490.14206   0.03110828  0.031479366            1 
 1314000    1.0235399   -7.1301648     490.1805  0.031087044  0.031471727            4 
 1315000    1.0344966   -7.1377278    489.74458  0.031035778  0.031463819            4 
 1316000     1.051894   -7.1191763    490.86032  0.031082847  0.031455935            2 
 1317000    1.0382519   -7.1037949    490.83177  0.031057439  0.031448107            1 
 1318000    1.0517209    -7.098047    492.93205   0.03116667  0.031440188            6 
 1319000    1.0380095   -7.1392117    490.96512  0.031018772  0.031432333            2 
 1320000    1.0248036   -7.1437595    491.17359  0.031008434  0.031424417            2 
 1321000    1.0288705   -7.1200907    491.06242  0.030977948   0.03141651            2 
 1322000    1.0346968   -7.1354661    491.41656  0.030976838  0.031408476            2 
 1323000    1.0465804   -7.1593178    490.67796  0.030906901  0.031400405            1 
 1324000    1.0375637   -7.1819105    490.82861  0.030893039  0.031392199            1 
 1325000    1.0313487   -7.1083825    492.44984  0.030971688  0.031384097            1 
 1326000    1.0478538   -7.1577919    492.51373  0.030952346  0.031376098            3 
 1327000    1.0302408   -7.1246716    492.18075   0.03090811  0.031368111            2 
 1328000    1.0152182    -7.115407    491.46322  0.030839811  0.031360185            1 
 1329000    1.0667394    -7.088833    494.03129  0.030977633  0.031352255            2 
 1330000    1.0442424   -7.1360457    494.45078  0.030980625  0.031344397            1 
 1331000    1.0290057   -7.1373878    494.97419   0.03099012  0.031336495            4 
 1332000    1.0484858   -7.1234395    494.92693  0.030963897  0.031328695            2 
 1333000    1.0359993   -7.0991803     495.4622  0.030974131  0.031321012            2 
 1334000    1.0457412   -7.1526648    495.32716  0.030942476  0.031313357            1 
 1335000    1.0319934   -7.1535173    494.17083  0.030847118  0.031305435            2 
 1336000     1.044812   -7.1379865     496.7286   0.03098357  0.031297575            2 
 1337000    1.0221784   -7.1563788    496.12589  0.030922831  0.031289747            1 
 1338000    1.0314397   -7.1501753    496.18195  0.030903211  0.031281959            2 
 1339000    1.0224654   -7.1302726    497.20165  0.030943593   0.03127431            4 
 1340000    1.0252854    -7.108553    498.17713  0.030981165   0.03126659            1 
 1341000    1.0344384   -7.1671276    495.36234  0.030783143  0.031258857            1 
 1342000    1.0378796   -7.1186628    498.11446  0.030931102  0.031251076            1 
 1343000    1.0432663   -7.1645833    496.61874  0.030815261  0.031243337            3 
 1344000    1.0262977       -7.142    496.94525  0.030812578  0.031235705            3 
 1345000    1.0427203    -7.150262    496.74957  0.030777544  0.031227845            3 
 1346000    1.0346485   -7.0865587    499.25814  0.030909989  0.031220012            3 
 1347000    1.0523244   -7.1583387    496.96784   0.03074535  0.031212079            3 
 1348000    1.0611213   -7.1424354     497.1506   0.03073384   0.03120422            2 
 1349000     1.032228   -7.1365639     498.6487  0.030803602  0.031196329            2 
 1350000    1.0128678    -7.127193    499.10422  0.030808902  0.031188442            5 
 1351000    1.0189424   -7.1654126    498.47608  0.030747352  0.031180617            6 
 1352000    1.0372839   -7.1719928    499.13317  0.030765111  0.031172644            2 
 1353000     1.047148   -7.1411309    500.88964  0.030850557  0.031164843            3 
 1354000    1.0235787   -7.1590781    499.16698  0.030721749  0.031156992            2 
 1355000    1.0509058   -7.1289589    500.26291  0.030766477  0.031148984            4 
 1356000    1.0322211   -7.1235298    500.19461   0.03073959   0.03114121            6 
 1357000    1.0150342   -7.1556475    499.71111  0.030687246  0.031133155            2 
 1358000    1.0638325   -7.1138872    500.53821  0.030715403   0.03112519            2 
 1359000    1.0458566   -7.1034046    502.04238  0.030785037  0.031117266            5 
 1360000    1.0250973   -7.1217581    502.37829  0.030782983  0.031109363            1 
 1361000    1.0504793   -7.1570171    501.14135  0.030684628  0.031101382            1 
 1362000    1.0429206    -7.166838    500.63519   0.03063113  0.031093295            3 
 1363000    1.0444494   -7.1626097    500.96008   0.03062852  0.031085215            4 
 1364000    1.0477289   -7.1428231    503.93134  0.030787594  0.031077346            6 
 1365000    1.0418069   -7.1174921    503.05597  0.030711597  0.031069501            4 
 1366000     1.026283    -7.138273    503.80445  0.030734776  0.031061671            2 
 1367000    1.0532632   -7.1079845    502.44864  0.030629642  0.031053833            3 
 1368000    1.0298611   -7.1561218    502.88721  0.030633967  0.031045927            3 
 1369000    1.0538205   -7.1502549    502.79997   0.03060628  0.031038016            2 
 1370000    1.0147815   -7.1045628    503.79147   0.03064425   0.03102992            3 
 1371000    1.0213901   -7.1549205    503.47536  0.030602684  0.031021839            1 
 1372000    1.0212064   -7.1306042    504.01677  0.030613263  0.031013834            2 
 1373000    1.0177575   -7.1087646    503.60251  0.030565823  0.031005743            1 
 1374000    1.0371329   -7.1238713    504.05726  0.030571159  0.030997788            2 
 1375000    1.0449275   -7.1602614    503.11469    0.0304918  0.030989602            3 
 1376000    1.0265415   -7.1456059    504.53983  0.030555949  0.030981348            2 
 1377000     1.045099   -7.1775267    502.80966  0.030429052  0.030973074            2 
 1378000    1.0503238   -7.1789416    503.32622  0.030438209   0.03096453            1 
 1379000    1.0071582   -7.1628243    502.80258  0.030384492  0.030956153            2 
 1380000    1.0288067   -7.1230827    504.57919  0.030469758  0.030947656            2 
 1381000    1.0426046   -7.1333285    504.79416  0.030460666  0.030939177            3 
 1382000    1.0482232   -7.1005071    506.80898  0.030560117  0.030930777            3 
 1383000    1.0417538   -7.1776728    503.95559  0.030366088  0.030922395            3 
 1384000    1.0328184   -7.1519918    505.24422  0.030421738   0.03091397            2 
 1385000    1.0328717   -7.1768171    505.69936  0.030427157  0.030905564            4 
 1386000    1.0412247   -7.1540266    505.50631  0.030393597   0.03089715            1 
 1387000    1.0468904   -7.0791926    506.85038  0.030452438  0.030888929            2 
 1388000     1.001894   -7.1919805    505.32035  0.030338638  0.030880698            5 
 1389000    1.0498546   -7.1533521    505.64772  0.030336436  0.030872098            6 
 1390000    1.0524143    -7.156309    506.90794  0.030390164   0.03086358            2 
 1391000    1.0304688   -7.1680608    506.29997  0.030331894  0.030855059            1 
 1392000    1.0174595   -7.1693764    506.01905  0.030293286  0.030846708            2 
 1393000    1.0204295   -7.1568035    507.56166  0.030363822  0.030838362            3 
 1394000    1.0374384   -7.1346606    505.98505  0.030247791  0.030829978            1 
 1395000    1.0486263   -7.1558658    508.01982  0.030347659  0.030821391            2 
 1396000    1.0291118   -7.1668195    506.69473   0.03024682  0.030812834            1 
 1397000    1.0345485   -7.1535354    506.36516   0.03020551  0.030804272            2 
 1398000     1.012793   -7.1565716    508.11645  0.030288296  0.030795778            3 
 1399000     1.032855   -7.1731964    508.03961  0.030262068  0.030787341            2 
 1400000    1.0257681   -7.1790788     509.2335  0.030311518  0.030778863            1 
 1401000    1.0287713   -7.1749941    509.23028  0.030289691  0.030770558            2 
 1402000    0.9937703   -7.1417553    509.64769  0.030292896  0.030762327            1 
 1403000    1.0271354   -7.1292314     510.2044  0.030304372  0.030754138            1 
 1404000    1.0351668   -7.1350409    511.03705  0.030332208  0.030746015            2 
 1405000    1.0059502   -7.1674634    511.07853   0.03031308  0.030737829            3 
 1406000    1.0412872   -7.1533679    510.77206  0.030273356  0.030729675            5 
 1407000    1.0417108    -7.135514    511.38807  0.030288324  0.030721643            4 
 1408000     1.022851   -7.1772447    510.89866  0.030237847  0.030713478            3 
 1409000    1.0233052    -7.154997     513.3145  0.030359268  0.030705506            5 
 1410000    0.9918703   -7.1641868    512.71069   0.03030205  0.030697263            3 
 1411000    1.0341016   -7.1797607    511.84722  0.030229578  0.030689231            2 
 1412000    1.0175085    -7.160786    513.80605  0.030323776  0.030681108            2 
 1413000    1.0241401   -7.1480822    514.68396   0.03035409  0.030673135            1 
 1414000     1.041284   -7.1576678    513.69146  0.030274131  0.030665153            1 
 1415000    1.0181233   -7.1082725    515.46594   0.03035724  0.030657332            1 
 1416000    1.0307923   -7.1315826    515.55434  0.030341004  0.030649471            4 
 1417000    1.0201927   -7.1751371    515.52031   0.03031759  0.030641494            3 
 1418000    1.0311862   -7.1697632    513.41061  0.030172227  0.030633608            1 
 1419000    1.0486292   -7.1310154    517.34765  0.030382174  0.030625639            2 
 1420000    1.0296488   -7.1455983    515.00204  0.030223124  0.030617663            3 
 1421000    1.0092454   -7.1365339     514.8479  0.030192816  0.030609781            4 
 1422000    1.0360998   -7.1650687    515.25235  0.030195285  0.030601849            2 
 1423000    1.0212586   -7.1959657    516.35969  0.030238914  0.030593884            3 
 1424000    1.0338245   -7.1552987    515.09943  0.030143927  0.030586038            7 
 1425000    1.0404673   -7.1378648    517.57587  0.030267594  0.030578236            2 
 1426000    1.0435606   -7.1424631    517.09369  0.030218191   0.03057046            3 
 1427000    1.0383879   -7.1357181    519.66237   0.03034702    0.0305627            1 
 1428000    1.0064423   -7.2061981    515.46901  0.030081058  0.030554883            3 
 1429000    1.0298278     -7.22378    515.99951  0.030090944  0.030546825            2 
 1430000     1.018892   -7.1752943     517.9268  0.030182214  0.030539064            3 
 1431000    1.0113258   -7.1469188    520.52129  0.030312211  0.030531243            2 
 1432000    1.0226933   -7.1874273    517.50204  0.030115342  0.030523435            4 
 1433000    1.0150515   -7.1451969    518.61003   0.03015876   0.03051564            3 
 1434000    1.0441804   -7.1506003    520.15181  0.030227325  0.030507801            2 
 1435000   0.99606241   -7.1472952    520.15089  0.030206207  0.030500005            2 
 1436000    1.0265166   -7.1578965    520.28825  0.030193143  0.030492245            2 
 1437000    1.0331256   -7.1805302    518.73164  0.030081863  0.030484383            2 
 1438000    1.0308563   -7.1899523    520.25955  0.030149487  0.030476571            4 
 1439000    1.0207565   -7.1359771    520.25207  0.030128102  0.030468765            3 
 1440000    1.0238344   -7.1393664    519.06145  0.030038278   0.03046085            2 
 1441000    1.0016009   -7.1145607    520.71659   0.03011315  0.030452885            2 
 1442000    1.0152453   -7.1392023    521.89014  0.030160087  0.030444875            1 
 1443000    1.0280425   -7.1747017    519.50755  0.030001591  0.030436769            3 
 1444000    1.0467907   -7.1898181    518.85268  0.029943022  0.030428377            1 
 1445000   0.99713022   -7.1818269    521.34953  0.030066294  0.030420242            3 
 1446000    1.0470062   -7.1795596    519.76417  0.029954136   0.03041212            1 
 1447000     1.021001   -7.1570361    522.68782   0.03010181  0.030404174            2 
 1448000    1.0195278   -7.1966792    521.65854  0.030021785  0.030396201            4 
 1449000     1.008226   -7.1315694    522.49889  0.030049396  0.030388271            3 
 1450000    1.0401008   -7.2032692    520.58377  0.029918608  0.030380272            2 
 1451000    1.0217197   -7.1906317    522.14396  0.029987593  0.030372146            2 
 1452000    1.0309263   -7.1750992    522.64418  0.029995648  0.030364045            2 
 1453000    1.0290806   -7.1317975    523.54081  0.030026429  0.030356147            2 
 1454000     1.042257   -7.1511078    523.07078  0.029978839  0.030348259            2 
 1455000    1.0320245   -7.1459541    525.05452  0.030071851  0.030340401            2 
 1456000    1.0177895   -7.1583397     524.1144   0.02999739  0.030332526            2 
 1457000    1.0216749   -7.1433585    525.91327  0.030079688  0.030324729            2 
 1458000    1.0294734   -7.1706799    523.69468  0.029932252  0.030316825            1 
 1459000     1.004011   -7.1784857    524.88506  0.029979727  0.030309097            1 
 1460000    1.0214026   -7.1447975    525.68273  0.030004722  0.030301253            3 
 1461000    1.0175899   -7.1817044    522.91077  0.029826077  0.030293396            2 
 1462000   0.99826644   -7.1874052    525.39117  0.029947057  0.030285447            2 
 1463000    1.0093022   -7.2141918    525.67421   0.02994271  0.030277469            2 
 1464000     1.030844   -7.1889946    524.79872  0.029872423   0.03026948            3 
 1465000    1.0286211   -7.2309105    524.00633  0.029806958  0.030261459            3 
 1466000   0.99042385   -7.1893596    525.13713  0.029850905  0.030253345            2 
 1467000    1.0109575   -7.1778515    525.79429  0.029867887  0.030245366            4 
 1468000    1.0271182   -7.1718396    525.85966  0.029851252  0.030237244            2 
 1469000    1.0314999   -7.1648149    526.95351  0.029892983  0.030229274            3 
 1470000    1.0316974   -7.1798055    524.02935  0.029706879  0.030221125            4 
 1471000    1.0026075   -7.1530103    525.84231   0.02978939  0.030212852            3 
 1472000    1.0344831   -7.1793483    525.88144  0.029771368  0.030204581            2 
 1473000    1.0011667    -7.173261    525.95613  0.029755382  0.030196364            2 
 1474000    1.0143292    -7.180571    527.31845  0.029812214  0.030188372            3 
 1475000    1.0150565   -7.1767478    527.49042  0.029801719  0.030180363            3 
 1476000    1.0065986   -7.1810019    527.08665  0.029758731  0.030172367            3 
 1477000    1.0281002    -7.210287    527.87341  0.029782973  0.030164453            3 
 1478000    1.0085145   -7.1872134    528.71518  0.029810283  0.030156482            2 
 1479000    1.0160732   -7.1732094    528.27892  0.029765547  0.030148712            2 
 1480000    1.0137018   -7.1677005    529.57671  0.029818508  0.030140835            4 
 1481000    1.0062993   -7.1838931    529.81137  0.029811578   0.03013295            2 
 1482000     1.018752   -7.1903299    530.33466  0.029820888   0.03012523            1 
 1483000    1.0504784   -7.1820979    528.81094  0.029715157  0.030117398            3 
 1484000    1.0200894   -7.1332367    530.89493  0.029812159   0.03010959            4 
 1485000    1.0051248   -7.1928253    530.16907   0.02975135  0.030101793            3 
 1486000    1.0180129   -7.2222234    529.52574  0.029695252  0.030093754            4 
 1487000    1.0269571   -7.1722758    529.17209  0.029655463  0.030085636            1 
 1488000    1.0047899   -7.1595192      532.615  0.029828349  0.030077564            2 
 1489000    1.0069342   -7.2199881    528.76474  0.029592833  0.030069497            1 
 1490000    1.0177255   -7.1734543    530.42553  0.029665857  0.030061369            4 
 1491000     1.003433   -7.2260659    530.05788  0.029625412  0.030053166            3 
 1492000    1.0298906   -7.2059993    530.19331   0.02961312  0.030044886            1 
 1493000   0.99286168   -7.1588207    532.12731  0.029701234  0.030036722            1 
 1494000     1.042167   -7.1790057    530.61649  0.029597082  0.030028518            2 
 1495000    1.0088325    -7.210833    530.45099   0.02956806  0.030020309            2 
 1496000    1.0175085   -7.1725545    532.32744  0.029652821  0.030011969            2 
 1497000    0.9948558    -7.188218    532.03606  0.029616793  0.030003841            4 
 1498000   0.99040261   -7.1956452    531.87173   0.02958788  0.029995644            1 
 1499000     1.008211   -7.1641654    531.93165  0.029571473  0.029987448            3 
 1500000    1.0189667   -7.2003971     533.4066    0.0296337  0.029979332            2 
 1501000    1.0154915   -7.1990321    532.11198  0.029542082  0.029970982            1 
 1502000    1.0325078   -7.1581331    532.74082  0.029557302  0.029962722            4 
 1503000    1.0243917   -7.1654174    534.22229  0.029619776  0.029954645            2 
 1504000    1.0038013   -7.1728476    533.71164  0.029571789  0.029946439            2 
 1505000    1.0094077   -7.1950567    532.35119   0.02947681  0.029938251            2 
 1506000    1.0152315   -7.2073361    533.76076  0.029535234  0.029930159            1 
 1507000    1.0346124    -7.152712    535.58363  0.029616436  0.029922018            6 
 1508000   0.98652395   -7.2122404    533.84429  0.029500679  0.029913934            2 
 1509000    1.0210917   -7.2126123     534.0708  0.029493638  0.029905773            3 
 1510000    1.0283526   -7.1814793    536.36908  0.029600943  0.029897694            2 
 1511000    1.0050179   -7.2008043    535.98392   0.02956011  0.029889563            4 
 1512000   0.99560468   -7.1998668    535.29888  0.029502804  0.029881431            1 
 1513000    1.0308994   -7.1938075    534.24651  0.029425342  0.029873365            2 
 1514000   0.99361206   -7.2043221    535.76929  0.029489723   0.02986522            2 
 1515000   0.99645243    -7.195212    534.44687  0.029397518   0.02985708            2 
 1516000   0.99839565   -7.1928949    536.24672  0.029477062  0.029848888            2 
 1517000    1.0342958   -7.1886156    537.41247  0.029521669  0.029840855            4 
 1518000    1.0268144   -7.1700978    538.31752  0.029551906  0.029832852            3 
 1519000    1.0040963   -7.2146836    536.94065  0.029456915  0.029824996            2 
 1520000    1.0105306   -7.1794015    537.97403   0.02949419  0.029817031            3 
 1521000    1.0089525   -7.2170492    538.05668  0.029479327  0.029808961            2 
 1522000   0.98862996   -7.2052933    537.96864  0.029455138  0.029800909            3 
 1523000    1.0116047   -7.2092176    537.28868  0.029398593  0.029792879            4 
 1524000    1.0040343   -7.1981359    537.33753  0.029381973  0.029784864            3 
 1525000    1.0430786   -7.1825444    538.71922  0.029438209  0.029776924            3 
 1526000     1.001033   -7.1808118    538.51653  0.029407849  0.029768942            6 
 1527000   0.99411102   -7.1883417    537.69933  0.029343993  0.029760994            3 
 1528000    1.0021964   -7.2012063    539.24635  0.029409159  0.029753029            3 
 1529000   0.99112904   -7.1655856    541.60727    0.0295186  0.029745159            2 
 1530000   0.98747682   -7.1709673    539.00145  0.029357377   0.02973745            3 
 1531000   0.99175466   -7.1886969     540.7108  0.029431243  0.029729645            2 
 1532000    1.0357869   -7.1539251    540.16388  0.029382282  0.029721877            4 
 1533000    1.0049688   -7.1334317    542.30841  0.029479692  0.029714192            3 
 1534000    1.0100745   -7.2035216    541.26264  0.029403664  0.029706528            2 
 1535000    1.0188871   -7.1830649    543.23402  0.029491532  0.029698828            3 
 1536000    1.0208259   -7.1821387    542.92977  0.029455825  0.029691098            1 
 1537000    1.0191236   -7.2102608     542.4362    0.0294099  0.029683446            2 
 1538000    1.0103604   -7.2048573    542.73638  0.029407042  0.029675733            2 
 1539000    1.0063647   -7.2012598    542.27343  0.029362867  0.029668017            3 
 1540000    0.9841454   -7.2248939    542.32087  0.029346367  0.029660223            2 
 1541000   0.97731308   -7.2050317    542.70559  0.029348128  0.029652408            2 
 1542000    1.0066607   -7.2341366    542.76088  0.029332084  0.029644575            1 
 1543000   0.98897703   -7.1743767    544.46424  0.029405068   0.02963681            1 
 1544000   0.99642857   -7.1882836    544.87007  0.029407927  0.029629128            2 
 1545000     1.004638   -7.1930481    544.59267  0.029373931  0.029621581            3 
 1546000    1.0151456   -7.2012772    542.09419  0.029220256  0.029613941            2 
 1547000    1.0004743   -7.1869492    543.86079   0.02929653  0.029606223            2 
 1548000    1.0143201   -7.1947167    546.06867  0.029396462  0.029598387            2 
 1549000    1.0207831   -7.2119631     544.8403    0.0293114  0.029590713            3 
 1550000    1.0133422   -7.2263382    544.18306  0.029257154  0.029583007            1 
 1551000    1.0375418   -7.1993932    545.14381   0.02928991  0.029575325            3 
 1552000   0.97194265   -7.1794906    545.99544  0.029316766  0.029567686            3 
 1553000    1.0106756   -7.2199973    545.70783  0.029282455  0.029560039            2 
 1554000    1.0186037   -7.1807782    546.66538   0.02931496  0.029552353            2 
 1555000   0.99756979    -7.198845     546.2078  0.029271586  0.029544692            1 
 1556000    1.0128287   -7.1569304    545.28782  0.029203504  0.029536914            2 
 1557000     1.014529   -7.1982404     547.1197  0.029282793  0.029529281            2 
 1558000   0.99439758   -7.1744365    547.18032   0.02926724  0.029521592            3 
 1559000    1.0076843   -7.2055356    546.60628  0.029217783  0.029513759            2 
 1560000    1.0141788   -7.1949636    547.74892  0.029260092  0.029506001            2 
 1561000    1.0000609    -7.235331    546.89002  0.029195496  0.029498175            3 
 1562000   0.98934221   -7.2022493    547.20364  0.029193536  0.029490367            6 
 1563000    0.9951336   -7.2066478    546.44554  0.029134439  0.029482553            2 
 1564000   0.99109979   -7.2519525    547.03571  0.029147256  0.029474571            7 
 1565000    0.9964639   -7.2057414    546.03309  0.029075245  0.029466553            2 
 1566000    1.0043534   -7.2186499    547.17455   0.02911742  0.029458543            3 
 1567000    1.0014005   -7.1983806     547.5934  0.029121113  0.029450523            1 
 1568000   0.96516929   -7.1736862    548.97405  0.029175917  0.029442669            2 
 1569000    1.0221921   -7.2194425    547.68719  0.029088973  0.029434924            1 
 1570000   0.99883378   -7.1990004    548.55295  0.029116399  0.029427244            1 
 1571000    1.0142752   -7.1993971    550.22783  0.029186709  0.029419511            2 
 1572000   0.96884246   -7.2295509    549.36753  0.029122536  0.029411843            2 
 1573000    1.0106796   -7.2304434    550.45295  0.029161525  0.029404241            1 
 1574000   0.98881596   -7.2089105    550.35147  0.029137625  0.029396697            4 
 1575000    1.0124207   -7.2488501    550.53958  0.029129078  0.029389106            5 
 1576000   0.96969446   -7.1999516    551.42006  0.029157152  0.029381514            3 
 1577000   0.99463165   -7.2256752    551.53311  0.029144637  0.029374001            3 
 1578000    1.0094122   -7.2073406    552.12045  0.029157185  0.029366515            2 
 1579000    0.9996529   -7.2205276    551.55445  0.029108848  0.029359003            3 
 1580000     1.009454    -7.205864    552.53528  0.029142156  0.029351525            1 
 1581000   0.99979615   -7.1946749     553.6116  0.029180456  0.029343985            1 
 1582000   0.99198461   -7.2215794    553.12477  0.029136366  0.029336504            3 
 1583000    1.0032109   -7.2455709    553.51789  0.029138655  0.029328994            3 
 1584000    1.0094027   -7.2489804     552.8415  0.029084675  0.029321467            3 
 1585000    1.0040559   -7.2357559    554.11906  0.029133494  0.029313922            2 
 1586000    1.0060874   -7.2466546    553.05018  0.029058963  0.029306399            1 
 1587000   0.99300302   -7.2149422    553.02782  0.029039478  0.029298752            3 
 1588000     1.000591   -7.2230472    554.74073  0.029111079  0.029291089            3 
 1589000   0.99210252   -7.1876503    554.61607  0.029086221  0.029283482            1 
 1590000    1.0064419   -7.2568484    553.54656  0.029011874  0.029275946            4 
 1591000    1.0165395   -7.2090311    555.18621  0.029079521  0.029268311            2 
 1592000   0.98468924   -7.2420738    554.73755   0.02903777  0.029260861            2 
 1593000    1.0022985   -7.2165079    555.69962  0.029069869  0.029253434            2 
 1594000    1.0177839   -7.2377663    555.89267  0.029061724   0.02924605            2 
 1595000   0.99351152    -7.211971    555.47046  0.029021445  0.029238502            5 
 1596000   0.99747039   -7.2256872    555.06838  0.028982267  0.029230956            1 
 1597000   0.96795978   -7.2298442    554.33334  0.028925764  0.029223405            6 
 1598000    1.0172339   -7.2162494    556.30385  0.029010422  0.029215893            7 
 1599000   0.99420622   -7.2138649    556.25587  0.028989778  0.029208361            2 
 1600000    1.0061946   -7.2203962    555.76333  0.028946007  0.029200805            2 
 1601000     1.020848   -7.2180294    556.36024  0.028958996  0.029193272            3 
 1602000   0.99492927   -7.2377269    556.28208  0.028936854  0.029185686            5 
 1603000   0.96734825   -7.2175301     555.6632  0.028886629  0.029178118            1 
 1604000   0.99560635   -7.2415424    556.83958  0.028929737  0.029170476            2 
 1605000   0.99380633    -7.238435     556.1433  0.028875561  0.029162776            2 
 1606000   0.99857067   -7.2342744    556.26195  0.028863737  0.029155089            1 
 1607000    1.0211657   -7.2295301    556.75841  0.028871521  0.029147453            2 
 1608000   0.97273399   -7.2528207    556.22197  0.028825765  0.029139761            2 
 1609000    1.0090616   -7.2399481    557.99216  0.028899532  0.029132023            1 
 1610000   0.98817111   -7.2017341    558.84601  0.028925777  0.029124352            2 
 1611000    0.9770058   -7.2254513    555.55899  0.028737792  0.029116644            2 
 1612000    1.0110301   -7.2306019    559.10667  0.028903364   0.02910893            1 
 1613000   0.98140137   -7.2298123    557.43379  0.028799018  0.029101288            3 
 1614000   0.98287787   -7.2220829    559.28534  0.028876773  0.029093694            2 
 1615000   0.97764647   -7.2452252    557.89555   0.02878718  0.029085963            4 
 1616000   0.99019698   -7.2587458    558.61387  0.028806408  0.029078328            2 
 1617000    1.0017221   -7.2530153     558.9748  0.028807194   0.02907058            2 
 1618000    1.0034147   -7.2432195    559.40176   0.02881138  0.029062826            2 
 1619000   0.97911095   -7.2439745    559.52799  0.028800082  0.029055131            1 
 1620000     0.992544   -7.2540181    559.83009  0.028797844  0.029047494            2 
 1621000     1.021618   -7.2366133    561.81049  0.028881888   0.02904004            4 
 1622000     1.001364   -7.2058003    562.74283  0.028911983  0.029032679            2 
 1623000    1.0006819   -7.2073237    560.55764   0.02878197  0.029025088            3 
 1624000   0.98420327   -7.2381444    560.28433  0.028750222  0.029017585            3 
 1625000   0.99331076   -7.2129526    560.95042  0.028766688  0.029009965            2 
 1626000   0.99954076   -7.2131726     561.2718  0.028765468  0.029002454            3 
 1627000   0.99713618   -7.2228425    562.17482  0.028794039  0.028994873            2 
 1628000   0.98107513   -7.1970011    561.41719  0.028737571  0.028987273            2 
 1629000   0.98876778   -7.2259903    562.26411  0.028763255   0.02897969            2 
 1630000   0.99949061   -7.2442748    561.62823    0.0287131  0.028972126            1 
 1631000   0.99060009   -7.2338488    562.08846   0.02871901  0.028964479            2 
 1632000   0.98518012   -7.2448335    561.93602  0.028693629  0.028956944            4 
 1633000   0.96863555   -7.2305034    562.16044   0.02868751  0.028949376            2 
 1634000   0.97213667   -7.2541218    563.85828  0.028756542  0.028941801            2 
 1635000   0.98925579   -7.2173142    563.51003  0.028721205  0.028934186            1 
 1636000    1.0002866    -7.241785     563.9924  0.028728219  0.028926683            2 
 1637000   0.98976207   -7.2633381     561.6982  0.028593881  0.028919088            2 
 1638000    1.0240059   -7.2272081    562.73234  0.028629036   0.02891138            4 
 1639000   0.98653178   -7.2160102    564.27471  0.028689989  0.028903733            1 
 1640000   0.99195448   -7.2337216    563.95865  0.028656435  0.028896252            1 
 1641000   0.97794327   -7.2358593     563.5721  0.028619343  0.028888665            1 
 1642000   0.99126525    -7.250315    565.33799  0.028691534   0.02888107            2 
 1643000    0.9696632   -7.2660964    564.23867  0.028618314   0.02887355            2 
 1644000    1.0179496   -7.2284173    565.99327  0.028689845  0.028866066            3 
 1645000   0.99438131   -7.2543852    564.75651  0.028609752  0.028858568            3 
 1646000   0.98040789   -7.2311916    567.22122  0.028717153   0.02885127            3 
 1647000   0.99126168    -7.195163    567.55018  0.028716362  0.028843899            2 
 1648000    0.9753502   -7.2286146    566.81154  0.028661587  0.028836517            4 
 1649000   0.98942677   -7.2281727    564.69637  0.028537314  0.028829057            2 
 1650000   0.99358311   -7.2452855    564.91419   0.02853102  0.028821697            4 
 1651000   0.99568151   -7.2116066    568.18018  0.028678588  0.028814227            2 
 1652000    0.9821673   -7.2297478     567.4962  0.028626725  0.028806767            2 
 1653000    0.9849174   -7.2491791     568.2584  0.028647832  0.028799262            3 
 1654000   0.99361994   -7.2495109    567.19919  0.028577146   0.02879186            4 
 1655000    0.9983046   -7.2677651    567.05424   0.02855258  0.028784462            1 
 1656000    1.0349421   -7.2410738    567.76231   0.02857097  0.028777053            3 
 1657000   0.99876888   -7.2682529    568.25467  0.028578489  0.028769512            4 
 1658000    0.9940821   -7.2283167    569.15411  0.028606459   0.02876191            2 
 1659000   0.96542645   -7.2349469    568.55695   0.02855922  0.028754447            4 
 1660000   0.96895042    -7.255623    567.47772  0.028487837  0.028746856            2 
 1661000   0.98055915   -7.2496248    570.33639  0.028614107   0.02873927            2 
 1662000    1.0062273   -7.2076412    570.88227  0.028624261  0.028731794            3 
 1663000   0.95742825   -7.2515042    567.67979  0.028446572  0.028724371            1 
 1664000   0.95281326   -7.2469127    570.57376  0.028574407  0.028716999            2 
 1665000     0.994483   -7.2542785     569.9686  0.028526957  0.028709567            6 
 1666000   0.98755962   -7.2578048    571.50024  0.028586447  0.028702249            3 
 1667000   0.96626237   -7.2437995    569.25515  0.028457066  0.028694787            2 
 1668000   0.99286468   -7.2593809    569.89572  0.028472008  0.028687353            1 
 1669000   0.96962373   -7.2042486    570.80468  0.028500334      0.02868            4 
 1670000    1.0049813   -7.2361549    571.54234  0.028520077  0.028672703            2 
 1671000   0.97410725   -7.2349605     571.5179   0.02850179   0.02866535            2 
 1672000   0.98098848   -7.2227071    572.29538  0.028523494  0.028657868            2 
 1673000   0.98835465   -7.2285888    571.04496   0.02844416  0.028650336            2 
 1674000   0.98260048   -7.2426562    570.31695  0.028390927  0.028642786            2 
 1675000   0.99595624   -7.2378098    571.28421    0.0284221  0.028635276            2 
 1676000    0.9860049    -7.230351     572.4356   0.02846239  0.028627821            2 
 1677000    1.0052198   -7.2431205    574.43996  0.028545019  0.028620476            5 
 1678000   0.97038024   -7.2635319    573.83008   0.02849772  0.028613114            4 
 1679000   0.99138885   -7.2127335    574.09738  0.028494013  0.028605781            1 
 1680000   0.97361967   -7.2726226    573.58419  0.028451597  0.028598559            1 
 1681000   0.96068794    -7.244155    574.69259  0.028489619  0.028591154            2 
 1682000   0.98678654   -7.2365336    574.67561   0.02847184  0.028583835            3 
 1683000   0.98931804   -7.2383565    575.36529  0.028489072  0.028576598            1 
 1684000   0.99187957   -7.2337925    574.10253  0.028409666  0.028569194            2 
 1685000   0.99566606   -7.2561178    574.82394  0.028428484  0.028561785            2 
 1686000   0.99991223   -7.2809623    574.29189  0.028385325  0.028554465            2 
 1687000   0.98359493   -7.2321557    574.24027  0.028365949  0.028547076            5 
 1688000   0.97943271   -7.2654738    574.67131  0.028370424  0.028539828            2 
 1689000   0.98148852   -7.2483698    574.42512   0.02834148  0.028532478            2 
 1690000   0.99338976   -7.2588208    575.27176  0.028366458  0.028525093            4 
 1691000   0.97969777   -7.3063161    574.12698  0.028293267  0.028517821            3 
 1692000    0.9855017   -7.2667262    576.30363  0.028383748  0.028510566            1 
 1693000   0.98436267   -7.2984345    576.60651  0.028381891   0.02850322            2 
 1694000   0.98213282    -7.265641    575.58943  0.028315104  0.028495854            4 
 1695000   0.98081274   -7.2417311    578.33347  0.028433307  0.028488517            5 
 1696000     1.004256   -7.2730164    576.58268  0.028330517  0.028481153            3 
 1697000   0.98296454   -7.2664264    574.19146  0.028196399  0.028473709            3 
 1698000   0.99511757   -7.2499531    574.86933  0.028213061  0.028466256            2 
 1699000    0.9884238   -7.2670018     575.9421  0.028249073  0.028458661            3 
 1700000   0.97469679   -7.2707727    576.41019  0.028255401  0.028451147            2 
 1701000   0.99383654   -7.2498849    576.17233  0.028227137  0.028443607            2 
 1702000    0.9775107    -7.279955    576.49094  0.028226152   0.02843621            3 
 1703000    1.0013212    -7.250811    576.90284  0.028229734  0.028428611            2 
 1704000    0.9861067   -7.2763644    576.22954  0.028180239  0.028420961            5 
 1705000   0.97907103   -7.2837736    578.10851  0.028255548  0.028413533            3 
 1706000   0.96888243   -7.2585848     578.0066  0.028234007  0.028406082            1 
 1707000    0.9841182   -7.2331538    576.88699   0.02816281  0.028398646            1 
 1708000   0.98846329   -7.2519082    577.66531  0.028184295   0.02839116            2 
 1709000    0.9928635   -7.2431589    577.71165  0.028170063  0.028383695            2 
 1710000   0.99274168   -7.2498661    578.78428  0.028205862  0.028376312            3 
 1711000   0.99282609   -7.2862983    578.62335  0.028181539  0.028368874            2 
 1712000   0.98326485    -7.252038     579.6419  0.028214656  0.028361408            3 
 1713000   0.98197578   -7.2603429    579.64116  0.028198149  0.028354103            2 
 1714000   0.96872544   -7.2747724    580.00729  0.028199499  0.028346839            1 
 1715000   0.96382562   -7.2846264    580.05028  0.028185145  0.028339533            4 
 1716000   0.98608416   -7.2774894    580.42792  0.028187059  0.028332146            2 
 1717000   0.97334593   -7.2561382    580.06281  0.028152922  0.028324713            3 
 1718000   0.96713423   -7.2560814    580.62823  0.028163961  0.028317272            2 
 1719000     0.998924    -7.279374    580.69149  0.028150644   0.02830985            2 
 1720000    1.0048349   -7.2667872    581.17414  0.028157662  0.028302399            4 
 1721000   0.98485428   -7.2844432    580.24971  0.028096538   0.02829497            1 
 1722000   0.96943469    -7.260135    580.56333  0.028095399  0.028287538            2 
 1723000   0.98465621   -7.2618475     581.0826  0.028104208  0.028280083            3 
 1724000   0.96856491   -7.2709314    581.19135  0.028093163  0.028272749            2 
 1725000    0.9779588   -7.2231859    583.21164  0.028174476  0.028265465            2 
 1726000   0.95796529   -7.2816815    581.14567  0.028058404  0.028258043            3 
 1727000   0.98630454   -7.2384784    582.41048  0.028103188  0.028250702            2 
 1728000   0.96971629   -7.2786689    582.21161  0.028077334  0.028243217            2 
 1729000   0.97721279   -7.2633745    583.53245  0.028124756  0.028235861            1 
 1730000     0.971302   -7.2883967    583.33164  0.028098827  0.028228462            2 
 1731000   0.96112289   -7.2636202    584.88351  0.028157304  0.028221108            4 
 1732000   0.96792016   -7.2472434    584.16708  0.028106576  0.028213788            5 
 1733000   0.96602471   -7.2132609    584.32686  0.028098041  0.028206438            3 
 1734000   0.97919929   -7.3017734    582.61499  0.027999567  0.028199107            2 
 1735000   0.98069914   -7.2675733    584.17788  0.028058496  0.028191752            1 
 1736000   0.95655223   -7.2694569    582.43095  0.027958475  0.028184359            3 
 1737000   0.98041408   -7.2420797    583.08487  0.027973751  0.028176982            2 
 1738000   0.98506878   -7.2627561    584.65575  0.028032976  0.028169627            2 
 1739000    0.9681427   -7.2517458    584.05511  0.027988073  0.028162202            3 
 1740000   0.97631492   -7.2556869     584.8844  0.028011705  0.028154841            2 
 1741000   0.95780491    -7.281255    584.38118  0.027971529  0.028147473            2 
 1742000   0.98400783   -7.2932522    583.86963     0.027931  0.028140029            2 
 1743000   0.96392498   -7.2849064    584.24902  0.027933114  0.028132623            3 
 1744000   0.99445245   -7.2857139    584.94864  0.027950528  0.028125198            1 
 1745000   0.96160773   -7.2934214    584.66802  0.027921109  0.028117751            1 
 1746000   0.95035485    -7.285447    586.50479  0.027992783  0.028110469            2 
 1747000   0.99322763   -7.3191411    585.30869  0.027919705  0.028103077            3 
 1748000   0.98348805   -7.2820057    586.15641  0.027944146  0.028095818            2 
 1749000   0.96401879   -7.2798255     586.4364  0.027941509  0.028088471            2 
 1750000   0.98184307   -7.2694967    586.76839  0.027941352  0.028081148            6 
 1751000   0.99001088   -7.2868497    587.11661  0.027941967   0.02807389            3 
 1752000   0.97238388   -7.2796458     589.9271  0.028059699  0.028066686            3 
 1753000    1.0010172   -7.2760263     587.2027   0.02791418  0.028059405            1 
 1754000   0.95809379   -7.3383804    586.05114  0.027843555  0.028052094            2 
 1755000   0.97492157    -7.245662     587.9984  0.027920152  0.028044847            1 
 1756000    0.9785559   -7.2985284    587.82445  0.027895997  0.028037621            3 
 1757000   0.97088174   -7.3453077     587.6078  0.027869844  0.028030342            2 
 1758000   0.99878686   -7.2612158    588.87606   0.02791411  0.028023036            2 
 1759000   0.98313692   -7.3354668    587.20096  0.027818882  0.028015761            2 
 1760000   0.95299062   -7.3150336     588.4248  0.027861022  0.028008409            2 
 1761000   0.96372908   -7.2666528    588.58575  0.027852818  0.028001099            1 
 1762000    0.9860195   -7.2784521    587.85337  0.027802373   0.02799386            3 
 1763000   0.95631119   -7.2860636    590.25259  0.027900009  0.027986546            2 
 1764000   0.97428062    -7.302907    589.26699  0.027837632  0.027979233            2 
 1765000   0.97391832   -7.2577484    590.66293  0.027887768  0.027971897            4 
 1766000   0.97535456   -7.2885169     589.4918  0.027816714  0.027964538            2 
 1767000   0.97251417   -7.2850844    588.02522  0.027731806   0.02795711            2 
 1768000   0.96966782   -7.2982509    588.76976  0.027751214  0.027949638            2 
 1769000   0.99478479   -7.2822297    588.06262  0.027702215  0.027942108            1 
 1770000   0.94083482   -7.2642226    588.55194  0.027709602  0.027934575            2 
 1771000   0.95679864   -7.2875415    587.44174  0.027641716  0.027927083            3 
 1772000   0.97436273   -7.3143645    588.62653  0.027681835  0.027919551            3 
 1773000   0.97721833   -7.2747856    591.97632  0.027823666  0.027912142            4 
 1774000    0.9617745   -7.2964076    589.68094  0.027700157  0.027904624            3 
 1775000   0.96247586   -7.2745192    592.18636  0.027802177  0.027897183            2 
 1776000   0.98070369   -7.3101978    591.11963  0.027736469  0.027889738            1 
 1777000   0.96975924   -7.3255006    588.68302  0.027606594  0.027882196            2 
 1778000   0.98069691   -7.3105008    590.88443  0.027694246   0.02787466            3 
 1779000   0.96890852   -7.2875132    590.42446  0.027657132  0.027867201            2 
 1780000   0.96925931   -7.3043875    591.10089  0.027673262  0.027859773            4 
 1781000   0.95296186   -7.3100483    592.64407   0.02772993  0.027852332            2 
 1782000   0.96708102   -7.2776013    593.08713  0.027735088  0.027844978            3 
 1783000   0.96533447   -7.2866157    592.23441  0.027679679  0.027837594            2 
 1784000   0.97864433   -7.2987677    592.63829  0.027683029  0.027830116            4 
 1785000   0.96577408   -7.3169065    591.54775  0.027616608  0.027822726            3 
 1786000   0.95995619   -7.3100613     591.4692  0.027597481  0.027815335            2 
 1787000   0.96559536   -7.3046448    593.41317   0.02767269  0.027807886            2 
 1788000   0.96773549   -7.2751871    593.55657  0.027663897  0.027800508            3 
 1789000    0.9777003   -7.2804377    593.06711  0.027625634  0.027793177            1 
 1790000   0.95132953     -7.27988    594.91662  0.027696304  0.027785875            2 
 1791000   0.96613061   -7.2510297    594.76024  0.027673564  0.027778625            2 
 1792000   0.96534998    -7.283706    594.00727  0.027623106  0.027771409            2 
 1793000   0.94073692   -7.2782942    594.61425   0.02763591  0.027764192            4 
 1794000   0.97169304   -7.2695583    596.17074  0.027692807  0.027756998            1 
 1795000   0.95737238   -7.3098128    595.19409  0.027632038  0.027749733            2 
 1796000   0.96221799   -7.2637622    596.02572  0.027655239  0.027742507            2 
 1797000   0.94781931   -7.2804926    595.09829  0.027596842  0.027735307            2 
 1798000   0.96601896   -7.3133401    595.22213  0.027587233  0.027728106            1 
 1799000   0.98168631   -7.3336159    596.10642   0.02761286  0.027720835            2 
 1800000   0.95916856   -7.3078237    597.24192  0.027650089  0.027713615            1 
 1801000   0.95170536   -7.2935852    596.45179  0.027598177  0.027706442            2 
 1802000     0.964342   -7.3152992    596.44157  0.027582389  0.027699232            2 
 1803000   0.96917485   -7.3049382    596.30801  0.027560917  0.027692028            3 
 1804000   0.97368994   -7.3037416    596.90524  0.027573228  0.027684779            1 
 1805000    0.9455542   -7.2791409    597.52509  0.027586569  0.027677609            1 
 1806000   0.95138527   -7.2662452    598.10904  0.027598239  0.027670399            4 
 1807000   0.98613879   -7.2681662    598.51064  0.027601487  0.027663235            2 
 1808000   0.96948251   -7.3171919    597.55436  0.027542144  0.027655937            3 
 1809000   0.95207251   -7.2834823    597.96881  0.027546011  0.027648702            3 
 1810000   0.98046597    -7.267311     598.1344  0.027538416  0.027641527            1 
 1811000   0.96143671   -7.2954376    599.24969   0.02757453  0.027634271            4 
 1812000   0.96328292   -7.3055668     598.2004  0.027511056  0.027626988            1 
 1813000   0.96295151   -7.3182689    598.20737  0.027496202   0.02761971            3 
 1814000   0.96349719   -7.2939752    599.42512  0.027536987  0.027612473            3 
 1815000    0.9407423   -7.2726896    598.21609  0.027466304  0.027605311            1 
 1816000   0.95190184   -7.2701728    599.96897  0.027531616  0.027598125            5 
 1817000    0.9540463   -7.2810895    598.36388  0.027442849   0.02759096            1 
 1818000   0.95233224   -7.2715036    599.80875  0.027493984  0.027583843            1 
 1819000   0.95859151   -7.2852954    601.12588   0.02753921  0.027576757            3 
 1820000   0.97312914   -7.3315826     599.3424  0.027442417  0.027569774            5 
 1821000   0.94235944   -7.2814892     602.9879  0.027594175  0.027562795            1 
 1822000   0.96632503   -7.3122013    601.76242  0.027522979  0.027555754            6 
 1823000    0.9552424   -7.3043674     602.2267  0.027529105  0.027548814            2 
 1824000   0.94137043   -7.3063651    601.84761  0.027496693  0.027541816            4 
 1825000   0.96371498   -7.3052253    602.30049  0.027502306  0.027534784            1 
 1826000   0.95324229   -7.3257899    602.67103  0.027504154  0.027527776            3 
 1827000    0.9588027   -7.3044942    601.83054  0.027450763  0.027520752            2 
 1828000   0.94939931   -7.3044185    603.07578  0.027492514  0.027513767            4 
 1829000   0.95977962    -7.324841    603.08883  0.027478077  0.027506828            3 
 1830000    0.9311263   -7.3293253    603.70122  0.027490948  0.027499791            1 
 1831000    0.9875601   -7.2888389    603.23368  0.027454655  0.027492813            2 
 1832000   0.96336068   -7.2756603    603.33321  0.027444196  0.027485887            2 
 1833000   0.95367601   -7.3387339    602.11224  0.027373715  0.027478948            1 
 1834000   0.94857698   -7.2896924    603.34267  0.027414698  0.027471937            1 
 1835000   0.95526529   -7.3078484      605.109  0.027479973  0.027464986            1 
 1836000   0.96332977   -7.2883182     606.5471  0.027530279  0.027458149            4 
 1837000   0.94402408   -7.2832804    604.80379  0.027436209  0.027451295            3 
 1838000   0.98379132   -7.3028389    605.01869  0.027431025  0.027444384            5 
 1839000   0.97111258   -7.2906161    606.03693   0.02746225  0.027437394            2 
 1840000   0.95348769   -7.2900162    605.51657  0.027423758  0.027430388            1 
 1841000    0.9591363    -7.302142    604.59103  0.027366967  0.027423325            2 
 1842000   0.96948014     -7.32175    603.95407  0.027323293  0.027416225            2 
 1843000   0.95401192    -7.288021    604.43057  0.027330013  0.027409002            2 
 1844000   0.93342393    -7.336924    604.83696  0.027333558  0.027401865            2 
 1845000   0.96580671   -7.3254002    605.26528  0.027338088  0.027394673            6 
 1846000   0.95469652   -7.3191976     606.3888  0.027373998    0.0273876            1 
 1847000   0.93122224   -7.3188919    605.71837  0.027328928  0.027380563            1 
 1848000   0.96451681   -7.3074762    604.01107  0.027237152  0.027373481            1 
 1849000   0.94073765   -7.3173125    605.16157  0.027274273  0.027366365            2 
 1850000   0.93708344   -7.2952861     606.5887  0.027323815  0.027359343            2 
 1851000   0.95412468   -7.2847518    606.53233  0.027306516  0.027352342            4 
 1852000    0.9448996   -7.2994545    607.25258   0.02732418  0.027345457            1 
 1853000     0.951713    -7.299678    606.60537  0.027280328  0.027338543            6 
 1854000    0.9494319    -7.300852    608.10018  0.027332802  0.027331604            3 
 1855000   0.94712602   -7.3117084    606.89105  0.027263749  0.027324653            1 
 1856000   0.93212908   -7.3307082    607.35762  0.027270008  0.027317714            1 
 1857000   0.92973912   -7.3337093     608.0627  0.027286964  0.027310809            3 
 1858000   0.95425874   -7.3233529    607.98787  0.027268921   0.02730391            2 
 1859000   0.95681496   -7.2980171    608.09177   0.02725891   0.02729698            3 
 1860000   0.96351722   -7.3381897    606.27275  0.027162757  0.027289982            2 
 1861000   0.93930429   -7.3635276    606.67949  0.027166375   0.02728295            2 
 1862000   0.97072327   -7.3040692    610.33087  0.027315202  0.027276044            2 
 1863000   0.94327186   -7.3111503    611.69646  0.027361624  0.027269145            3 
 1864000    0.9575471   -7.3056465     609.9923  0.027270757  0.027262162            4 
 1865000   0.95668438   -7.3353544    610.54795  0.027280963  0.027255322            1 
 1866000   0.93930876   -7.3166847    610.04114  0.027243709  0.027248455            3 
 1867000   0.94445512   -7.3357183    611.26248  0.027283632  0.027241523            2 
 1868000   0.93095747   -7.3241317    610.26334  0.027224453  0.027234628            2 
 1869000   0.95862291   -7.3004838    610.27682  0.027210488   0.02722783            3 
 1870000   0.95197831   -7.2971116    611.04873  0.027230336  0.027220814            4 
 1871000    0.9506717   -7.3001029    612.16481  0.027265491  0.027213995            2 
 1872000   0.95489033   -7.3168735    612.30189  0.027257029  0.027207197            3 
 1873000   0.94808931   -7.3747421    610.65156  0.027169049  0.027200303            2 
 1874000   0.93267699   -7.3241272    612.34779   0.02722998  0.027193518            1 
 1875000   0.95004702   -7.3358653     611.5187  0.027178609  0.027186763            3 
 1876000   0.93284862   -7.3217807    612.61943  0.027213017   0.02718001            3 
 1877000   0.94486327   -7.2963472     614.8053  0.027295565  0.027173394            1 
 1878000   0.94564457   -7.3493848    611.81993  0.027148559  0.027166683            1 
 1879000   0.94530824   -7.2936837     614.6111  0.027257899  0.027159936            1 
 1880000   0.95244548   -7.3173128    614.54164  0.027240321  0.027153239            3 
 1881000   0.96546827   -7.2632058        614.5  0.027223994  0.027146495            2 
 1882000   0.96042764   -7.3403566    614.30498  0.027200894  0.027139687            5 
 1883000    0.9393675   -7.3222462    612.98731  0.027128134  0.027132834            2 
 1884000   0.96993241   -7.3334902     613.8756  0.027153026  0.027126075            3 
 1885000   0.94137083    -7.333394    612.81466  0.027091718  0.027119338            2 
 1886000   0.95484265   -7.2799005    616.20514  0.027227162  0.027112639            1 
 1887000    0.9590351   -7.3375743     615.9489  0.027201418  0.027105878            3 
 1888000   0.94267606   -7.3415783    614.91333  0.027141302  0.027099195            1 
 1889000   0.96531276   -7.3009616    616.16094  0.027181972  0.027092524            1 
 1890000   0.95578077   -7.3138887     615.8736  0.027154921  0.027085893            3 
 1891000   0.94351247   -7.3107184    616.94555    0.0271878  0.027079364            3 
 1892000   0.94720672   -7.3516758    615.56905  0.027112802  0.027072657            3 
 1893000    0.9581425   -7.3345561    615.92228  0.027114029  0.027065959            3 
 1894000   0.96404934   -7.3587108    616.98361   0.02714641  0.027059312            3 
 1895000   0.93676248   -7.3607489    615.00051  0.027044877  0.027052611            2 
 1896000   0.95784217   -7.2992519    618.33775  0.027177292  0.027045824            2 
 1897000   0.95288135   -7.3248637    616.55606  0.027084698  0.027039021            2 
 1898000   0.96179903   -7.2970645    616.88294   0.02708478  0.027032281            4 
 1899000   0.93320131   -7.2970275    617.41884  0.027094034  0.027025559            2 
 1900000   0.96761788    -7.327467    616.59363   0.02704358   0.02701881            2 
 1901000   0.95801552   -7.3190671    616.02167  0.027004282  0.027011949            2 
 1902000   0.96481396   -7.3284538    616.64418  0.027017358  0.027005195            4 
 1903000   0.94823818   -7.3073498    618.04128  0.027064341  0.026998441            2 
 1904000   0.96624682   -7.3300065    617.55701  0.027028931  0.026991628            3 
 1905000   0.95952127   -7.2902494    618.62915  0.027061642  0.026984872            3 
 1906000    0.9341203   -7.2991375    618.52813  0.027043028  0.026978068            5 
 1907000   0.96835167   -7.3171701    617.45462  0.026981936   0.02697127            8 
 1908000   0.93863895   -7.3372226    617.71284  0.026979072  0.026964489            2 
 1909000   0.94276115   -7.3382109    618.03307  0.026978919  0.026957763            3 
 1910000   0.95893461   -7.3136757    618.70019    0.0269939  0.026951046            2 
 1911000   0.95571541   -7.3451867    619.73078  0.027024716  0.026944366            2 
 1912000   0.94488781    -7.369086    618.69948  0.026965633  0.026937582            2 
 1913000   0.95663889   -7.3570424    618.86208   0.02695862  0.026930817            2 
 1914000   0.93953297   -7.3284277    619.33454  0.026965105  0.026924046            1 
 1915000   0.92334518   -7.3616258    620.08573  0.026983713  0.026917276            2 
 1916000   0.96316469   -7.3202083    621.45094  0.027029007  0.026910553            3 
 1917000   0.94779108   -7.3405106    619.61453  0.026935078  0.026903808            3 
 1918000   0.94948253   -7.3428384    620.34653  0.026952838  0.026897072            2 
 1919000   0.94347659   -7.3187709    620.33268  0.026938192  0.026890357            1 
 1920000    0.9387565   -7.3520939    620.56564  0.026934273  0.026883613            2 
 1921000   0.93352409   -7.3350375    622.59152  0.027008134  0.026876901            2 
 1922000   0.96330582   -7.3284377    620.49986  0.026903393  0.026870213            3 
 1923000   0.94535147   -7.3154897    622.51443  0.026976705  0.026863614            4 
 1924000   0.94856447   -7.3185734    622.48161  0.026961262  0.026856955            2 
 1925000     0.968753   -7.3404752    620.64497  0.026867748  0.026850257            2 
 1926000   0.93431396   -7.3041504    623.22393  0.026965383  0.026843548            2 
 1927000   0.96168612   -7.3352904    621.71348   0.02688607  0.026836802            3 
 1928000   0.94783317   -7.3405542     621.2831  0.026853523  0.026830135            2 
 1929000   0.95201348   -7.3082325      622.908  0.026909798  0.026823419            2 
 1930000   0.94771996   -7.3489023    621.12079  0.026818687  0.026816768            4 
 1931000   0.93867519   -7.3224278    621.52625  0.026822296  0.026810085            3 
 1932000   0.93357089   -7.3725182    621.43784    0.0268046   0.02680334            2 
 1933000   0.93632299   -7.3216835    621.37593  0.026788064  0.026796578            2 
 1934000   0.93275842   -7.3399361    622.65065  0.026829139  0.026789831            2 
 1935000   0.93800477   -7.3563505    623.62531  0.026857249  0.026783056            2 
 1936000   0.94848098    -7.350806    622.60956  0.026799654  0.026776327            3 
 1937000   0.96302758   -7.3268826    623.71298   0.02683329  0.026769633            3 
 1938000   0.95631697   -7.3398778    622.85709  0.026782641  0.026762883            3 
 1939000   0.95827736   -7.3696279    623.26259  0.026786255  0.026756168            1 
 1940000   0.92112366   -7.3264122    624.88059   0.02684195  0.026749418            4 
 1941000   0.93897182   -7.3445969    624.88276  0.026828214  0.026742676            2 
 1942000   0.93673772   -7.3075489    624.49783  0.026797881  0.026735943            6 
 1943000   0.94430791   -7.3408132    625.19569   0.02681402  0.026729207            4 
 1944000   0.91636342   -7.3194327    625.63369  0.026819002  0.026722583            1 
 1945000   0.92711596   -7.3525364    625.52845  0.026800705  0.026716028            2 
 1946000   0.93770049    -7.351416    626.22918   0.02681694  0.026709432            2 
 1947000   0.96026139   -7.3448081    625.71443  0.026781135  0.026702736            3 
 1948000   0.95481691   -7.3447365     626.0299  0.026780882  0.026696058            2 
 1949000   0.93259273   -7.3446905    627.45461  0.026828058  0.026689389            2 
 1950000   0.93990697   -7.3760298    623.75311  0.026656116  0.026682646            2 
 1951000    0.9508496   -7.3175392    627.48989  0.026802062  0.026675939            2 
 1952000    0.9418775   -7.3207519    626.41112  0.026742278  0.026669267            4 
 1953000   0.93512216   -7.3487781    625.11668  0.026673352  0.026662534            4 
 1954000   0.94850697   -7.3122525    626.32966  0.026711432  0.026655782            1 
 1955000   0.93000025   -7.3678895    624.85327  0.026634837   0.02664905            3 
 1956000   0.95355797   -7.3258774    625.74416  0.026659175  0.026642347            4 
 1957000   0.94966951   -7.3675679    625.68805  0.026643164  0.026635544            3 
 1958000   0.93370561   -7.3368914    627.58639   0.02671035  0.026628764            2 
 1959000   0.92559672   -7.3695203    627.42339  0.026689782   0.02662199            2 
 1960000   0.93664051   -7.3925074    626.60303  0.026641285  0.026615149            4 
 1961000   0.91933583   -7.3432315    627.51854  0.026666604  0.026608407            3 
 1962000   0.94972839   -7.3806562    626.31967  0.026602093  0.026601615            2 
 1963000   0.93659179   -7.3760692    626.63801  0.026602055  0.026594782            3 
 1964000   0.94325804   -7.3510993    626.94211  0.026601413   0.02658794            1 
 1965000   0.94842438   -7.3613617    628.06682  0.026635574  0.026581106            4 
 1966000   0.93274258   -7.3658018    627.61911  0.026603048  0.026574306            5 
 1967000   0.93493426   -7.3270176    628.84004  0.026641249  0.026567631            1 
 1968000   0.95257306   -7.3609714    629.21396  0.026643545  0.026560943            2 
 1969000   0.96896992   -7.3705206    627.66842  0.026564602  0.026554267            5 
 1970000    0.9060518   -7.3568014    629.89866  0.026645459  0.026547616            2 
 1971000   0.93799386    -7.348419    628.60667  0.026577316  0.026540985            1 
 1972000   0.92252873    -7.332355    630.51471  0.026644469  0.026534223            2 
 1973000   0.93272875   -7.3987172    629.91575  0.026605666  0.026527489            6 
 1974000    0.9067568   -7.3835632    630.57012  0.026619813  0.026520824            1 
 1975000   0.95581763   -7.3740958    629.56416  0.026563889  0.026514165            4 
 1976000   0.93149934   -7.3719624     629.9705  0.026567582  0.026507503            3 
 1977000    0.9606207    -7.365725    629.78102  0.026546157   0.02650073            3 
 1978000   0.93944672    -7.371448    631.49434  0.026604918  0.026494009            4 
 1979000   0.92537847   -7.3373625     630.9868  0.026570103  0.026487324            2 
 1980000   0.96364024   -7.3781609    630.23225  0.026524926  0.026480683            2 
 1981000   0.96460732   -7.3244745    632.33903  0.026600161  0.026474105            3 
 1982000    0.9417415   -7.3260337    632.62176  0.026598627  0.026467556            3 
 1983000   0.93723825    -7.343532    630.63238  0.026501613   0.02646096            1 
 1984000   0.93664577   -7.3703422    631.34093  0.026518016  0.026454374            3 
 1985000   0.93076449   -7.3562275    632.39613  0.026548956  0.026447719            4 
 1986000   0.93109626   -7.3521084     633.8459  0.026596421  0.026441061            2 
 1987000   0.94211064   -7.3341647    632.04202  0.026507382  0.026434499            2 
 1988000   0.91993485   -7.3306663    632.71044  0.026522068  0.026427848            5 
 1989000   0.96399859   -7.3584343    633.46549  0.026540367  0.026421243            2 
 1990000   0.94655159   -7.3714464    632.04353  0.026467484  0.026414649            6 
 1991000   0.94272759   -7.3624344    632.89132  0.026489675  0.026407975            4 
 1992000   0.92169949   -7.3720041     634.1533  0.026529171  0.026401305            4 
 1993000   0.95019306   -7.3990309    632.94876  0.026465494  0.026394618            3 
 1994000   0.93215532   -7.3965017      632.404  0.026429455   0.02638793            3 
 1995000   0.92700808    -7.392157    632.48082  0.026419416  0.026381182            1 
 1996000   0.94573201   -7.3916738    632.53945  0.026408628  0.026374534            3 
 1997000   0.93388831   -7.3767664    633.43056  0.026432589  0.026367904            2 
 1998000     0.919239   -7.3375557    633.79031  0.026434364   0.02636127            4 
 1999000   0.94269019   -7.4152663    633.68837   0.02641689   0.02635457            2 
 2000000   0.93612526   -7.3802316    635.89627  0.026495678  0.026347971            4 
 2001000   0.93233298   -7.3406738    635.64147  0.026471825  0.026341395            1 
 2002000   0.91873232   -7.3817827    635.64045   0.02645856  0.026334768            3 
 2003000   0.92551418   -7.3700897    634.10937  0.026381651  0.026328204            3 
 2004000   0.92214688   -7.3852551     634.1004  0.026368114  0.026321633            2 
 2005000   0.93077227   -7.3935852     636.1692  0.026440948  0.026315096            2 
 2006000   0.90852394   -7.3375684    636.25382  0.026431282  0.026308592            3 
 2007000   0.92373213   -7.3788967    635.46543  0.026385377  0.026302031            2 
 2008000   0.93719741   -7.3447731     635.2029  0.026361342  0.026295382            6 
 2009000   0.95404444   -7.3675028    636.25155  0.026391718  0.026288833            4 
 2010000   0.92429316   -7.3236367    637.38781  0.026425697  0.026282247            2 
 2011000   0.93098965   -7.3842002    636.87481  0.026391298  0.026275625            2 
 2012000   0.94301544   -7.3962816    635.86317  0.026336281  0.026268982            2 
 2013000   0.94283122   -7.3785614    636.35553   0.02634358  0.026262331            5 
 2014000   0.93123057   -7.3963966    634.99126  0.026274051  0.026255654            2 
 2015000    0.9256309   -7.3534874    636.30638    0.0263154  0.026249042            2 
 2016000    0.9328455   -7.3551611    638.04188  0.026374085  0.026242433            2 
 2017000   0.91917776   -7.3638777    636.64324  0.026303224  0.026235822            3 
 2018000    0.9341616   -7.3605292     635.4934  0.026242707  0.026229174            2 
 2019000   0.94193022   -7.3515882    636.72929   0.02628072  0.026222461            1 
 2020000   0.93231617   -7.3383045    637.89645   0.02631586  0.026215804            4 
 2021000   0.94072609   -7.3257799    638.59934  0.026331822  0.026209195            3 
 2022000   0.92514068   -7.3407991    636.57151  0.026235225  0.026202563            2 
 2023000   0.94410331    -7.348332    637.78443  0.026272221  0.026195881            3 
 2024000   0.92020198   -7.3862837    638.50942   0.02628909   0.02618922            1 
 2025000   0.94006362   -7.3583716    637.85205  0.026249055  0.026182616            5 
 2026000   0.92167774   -7.4063712    638.21551  0.026251049  0.026175917            4 
 2027000   0.94850437   -7.3658672    638.98887  0.026269893  0.026169224            5 
 2028000   0.95053587   -7.4277311    637.24251  0.026185179  0.026162582            2 
 2029000   0.95465143   -7.3731955    639.28242  0.026256055  0.026155895            3 
 2030000   0.92572695   -7.3993294    637.45539  0.026168119  0.026149224            2 
 2031000    0.9211231    -7.392467    639.38744  0.026234508  0.026142561            6 
 2032000   0.91939192   -7.3983905    639.39055  0.026221725  0.026135931            2 
 2033000   0.92104892   -7.3628518    639.26913   0.02620385  0.026129277            2 
 2034000   0.92768488   -7.3620916    639.87643  0.026215849   0.02612265            2 
 2035000   0.92514745   -7.3684819    640.67953  0.026235853  0.026116109            4 
 2036000   0.92991236   -7.3658367    639.75325  0.026185054  0.026109594            1 
 2037000   0.92271291    -7.366387    641.26946  0.026234228  0.026102986            2 
 2038000   0.94296772   -7.3517163    641.21311  0.026219051  0.026096438            2 
 2039000    0.9047939   -7.4085654    641.32577  0.026210797  0.026089783            1 
 2040000   0.92672304    -7.360089     640.3474  0.026157982  0.026083243            4 
 2041000   0.90668511   -7.3594118     641.5475  0.026194166  0.026076722            4 
 2042000   0.90636855   -7.3878327    641.87752  0.026194806  0.026070154            1 
 2043000   0.91994065   -7.3821154    638.58021  0.026047488  0.026063514            1 
 2044000   0.92323818   -7.3695942    644.06324  0.026258286   0.02605689            3 
 2045000   0.94540735   -7.3649123    643.16207  0.026208723  0.026050381            3 
 2046000   0.93662513   -7.3885853    641.40771  0.026124459  0.026043848            3 
 2047000    0.9414602   -7.3919489    643.04513  0.026178356  0.026037309            1 
 2048000   0.93720188    -7.370719    643.97353   0.02620335  0.026030813            5 
 2049000   0.91551464   -7.3831158      642.847  0.026144745  0.026024301            3 
 2050000   0.94109021   -7.3841741    644.13931  0.026184525  0.026017758            4 
 2051000   0.92036478   -7.3846887    644.32931  0.026179478  0.026011195            2 
 2052000   0.91629282   -7.3771257    642.61393  0.026097057  0.026004653            2 
 2053000   0.92530686   -7.3994793    643.81858  0.026133243  0.025998116            3 
 2054000   0.95357773   -7.3276054     645.6281  0.026193934  0.025991585            4 
 2055000   0.92735002   -7.3835113    642.73843  0.026064008  0.025985111            3 
 2056000   0.92054021   -7.3826582    642.61428  0.026046299  0.025978546            4 
 2057000   0.89563657   -7.3775789    644.15409  0.026096017  0.025972006            2 
 2058000   0.93300985   -7.3959895    644.14755  0.026083072  0.025965437            3 
 2059000   0.92034007   -7.3432801    645.38928  0.026120661   0.02595885            3 
 2060000   0.91599689   -7.3886788    644.32517  0.026064934  0.025952319            2 
 2061000   0.92314497    -7.401358    643.95758  0.026037425  0.025945761            2 
 2062000   0.91533761   -7.4082444     644.5017  0.026046787  0.025939201            5 
 2063000   0.93906909   -7.3982614    646.19823  0.026102691  0.025932567            2 
 2064000   0.89762443   -7.4071945    644.34397   0.02601518  0.025925972            1 
 2065000   0.91257254   -7.3377435    646.10413  0.026073613  0.025919331            1 
 2066000   0.92728511   -7.3695656    644.57873  0.025999465   0.02591276            2 
 2067000   0.92425358    -7.352675    646.75834   0.02607476  0.025906198            4 
 2068000   0.93543706   -7.3782058    644.90642  0.025987525  0.025899575            3 
 2069000   0.90298447   -7.3874017    644.23944  0.025948101  0.025892918            1 
 2070000   0.93238889    -7.402384    645.19396  0.025973992  0.025886223            2 
 2071000   0.93156451   -7.3760297     646.3346  0.026007348  0.025879603            1 
 2072000   0.91700983   -7.3981838    644.01726  0.025901595  0.025872941            1 
 2073000   0.93404243   -7.3880594    645.12539  0.025933647  0.025866245            1 
 2074000    0.9145215   -7.3948275    646.02196  0.025957167  0.025859555            3 
 2075000   0.92014627   -7.4208518    643.32158  0.025836208   0.02585281            3 
 2076000   0.90597374   -7.4184966    644.18921  0.025858591  0.025846017            3 
 2077000   0.91118599   -7.3888063     646.8576  0.025953202  0.025839278            1 
 2078000   0.91683315   -7.3880544    646.04156  0.025907987  0.025832604            3 
 2079000   0.92682958   -7.4083409    645.58611  0.025877269  0.025826003            2 
 2080000   0.90555455   -7.3795838       646.52  0.025902244  0.025819355            1 
 2081000   0.92447517    -7.384601     647.8961  0.025944902  0.025812744            1 
 2082000   0.91269616   -7.3798648     646.8141  0.025889133  0.025806096            2 
 2083000   0.93051356   -7.3506445    646.76267  0.025874647  0.025799479            2 
 2084000   0.90756964    -7.372535    647.16175  0.025878189  0.025792834            3 
 2085000    0.9091661   -7.3791209    645.86715  0.025814035  0.025786187            2 
 2086000   0.92605887   -7.4044977     647.0673  0.025849605  0.025779472            3 
 2087000   0.92380696    -7.421698    645.85749  0.025788911   0.02577278            2 
 2088000   0.91207145   -7.4058653    647.52232  0.025843005  0.025766088            3 
 2089000   0.91001435   -7.3766371    646.75254  0.025799926  0.025759309            2 
 2090000   0.93718795   -7.3996559    648.07862  0.025840455  0.025752543            4 
 2091000    0.9071319   -7.3625389    647.57168  0.025807894  0.025745857            2 
 2092000   0.92112548   -7.4005271    647.93458  0.025810014  0.025739227            2 
 2093000   0.92909322   -7.4112924    647.18231   0.02576773  0.025732614            1 
 2094000   0.91264507   -7.4233522    648.05784  0.025790267  0.025725942            5 
 2095000   0.90548024   -7.4310229     647.8655  0.025770306  0.025719257            1 
 2096000   0.92033096   -7.3805099     648.8647  0.025797738   0.02571252            3 
 2097000   0.93644621   -7.4191932    647.77876  0.025742281  0.025705897            2 
 2098000   0.92765918   -7.4049316    649.56208  0.025800845  0.025699238            4 
 2099000    0.9077456   -7.3943773    649.05752  0.025768521  0.025692551            2 
 2100000   0.92923495   -7.4099424    649.69379    0.0257815  0.025685882            4 
 2101000   0.92233623   -7.3777865    649.52573  0.025762563  0.025679246            4 
 2102000   0.93370371   -7.3608479    652.02988  0.025849583  0.025672774            5 
 2103000   0.91483871   -7.4204455    650.16912  0.025763557  0.025666228            3 
 2104000   0.90269313   -7.4268523    649.91244  0.025741145  0.025659605            4 
 2105000    0.9124351   -7.3971737    650.66858  0.025758851  0.025652939            1 
 2106000   0.93419812   -7.3862417    650.48511   0.02573936  0.025646347            2 
 2107000   0.92071052    -7.401668    649.82027  0.025700849  0.025639755            2 
 2108000   0.93219487   -7.4227117    651.05823  0.025737596  0.025633195            2 
 2109000   0.93154402   -7.3971329    653.26393  0.025812546  0.025626692            2 
 2110000   0.90821276   -7.4046447    651.86932  0.025745234  0.025620246            2 
 2111000   0.90758848   -7.4017862     652.6302  0.025763074  0.025613755            3 
 2112000   0.90353126   -7.4304342    652.79492  0.025757375  0.025607265            3 
 2113000   0.90575198   -7.3929136    653.14292   0.02575891  0.025600853            5 
 2114000   0.92641463   -7.3953796    653.05734  0.025743352  0.025594471            1 
 2115000   0.92404639    -7.425164    653.24183  0.025738449   0.02558811            5 
 2116000   0.91296426   -7.4139781    652.98412  0.025716136  0.025581585            2 
 2117000   0.92480786   -7.3927719    653.38984  0.025719959  0.025575192            2 
 2118000   0.92373678   -7.4077907     653.6305  0.025717285  0.025568694            2 
 2119000   0.90458857   -7.4304237    652.39365  0.025656507  0.025562175            4 
 2120000     0.933299   -7.3949819    654.87038   0.02574176   0.02555564            2 
 2121000   0.90339981   -7.3981109    651.40946  0.025593645  0.025549113            2 
 2122000   0.91865547   -7.4051859    653.18649   0.02565137  0.025542488            2 
 2123000   0.93301081   -7.3851198    652.98494  0.025631376  0.025535872            3 
 2124000   0.91095273   -7.4220352    652.33924  0.025593975  0.025529247            1 
 2125000   0.92494116   -7.3951178    653.21642   0.02561633  0.025522658            2 
 2126000   0.93451901   -7.4035032    652.43467  0.025573639   0.02551608            2 
 2127000   0.91057992   -7.4454424    653.66235  0.025609715  0.025509448            4 
 2128000   0.91617131   -7.4165602    653.61363  0.025595772  0.025502818            2 
 2129000   0.91135501   -7.4053297    654.53494  0.025619811  0.025496191            3 
 2130000   0.89879382   -7.4104125    652.48506  0.025527585  0.025489545            2 
 2131000   0.88583781   -7.4163731    654.00625  0.025575092  0.025482925            4 
 2132000   0.91560631   -7.4272045     654.4845   0.02558179  0.025476277            2 
 2133000   0.92268328   -7.3809741     653.4213  0.025528258  0.025469607            2 
 2134000   0.92315312   -7.4463186    651.96494  0.025459424  0.025462875            1 
 2135000   0.87401907   -7.4400969    653.34804  0.025501485   0.02545613            3 
 2136000   0.90643109   -7.4549788    652.69634  0.025464121  0.025449348            3 
 2137000   0.89784645    -7.433855    654.63672  0.025527871  0.025442628            4 
 2138000   0.89961215   -7.3690913    654.56218  0.025513026  0.025435983            3 
 2139000   0.91940308   -7.4157258     654.0835  0.025482449  0.025429348            2 
 2140000   0.93475476   -7.4039053    655.34072  0.025519498  0.025422708            3 
 2141000   0.92144773   -7.4229979    654.44522  0.025472724  0.025416093            2 
 2142000   0.90529504   -7.4039593    654.33251  0.025456447  0.025409392            2 
 2143000    0.9180828   -7.3737001    655.75104  0.025499729  0.025402709            2 
 2144000   0.90131413    -7.426834    655.70607  0.025486088  0.025395949            2 
 2145000   0.89440946   -7.4174343    654.06526  0.025410461  0.025389235            2 
 2146000   0.90100529    -7.406839    655.93874  0.025471371   0.02538252            4 
 2147000    0.9209748   -7.3856533    653.59645  0.025368594  0.025375769            4 
 2148000    0.8887407   -7.4410131     655.8637  0.025444743  0.025369115            5 
 2149000   0.91798674   -7.3910488    657.80596  0.025508219  0.025362369            2 
 2150000   0.90465974   -7.4217115    655.70586  0.025414956  0.025355699            4 
 2151000   0.88494024   -7.4443437    654.22999  0.025345963  0.025348983            3 
 2152000   0.92602527   -7.4377085    655.58884  0.025386805  0.025342245            3 
 2153000   0.91028805   -7.4104426    657.87517  0.025463507  0.025335618            4 
 2154000   0.92149291   -7.3957868    657.59026  0.025440663  0.025329012            2 
 2155000   0.91671466   -7.4343246    656.29902  0.025378926  0.025322382            6 
 2156000   0.90844041   -7.4414438    658.04463  0.025434625  0.025315804            4 
 2157000   0.89407677   -7.4158919    657.69193  0.025409208  0.025309224            4 
 2158000   0.91535685   -7.4295927     658.0225  0.025410199    0.0253026            2 
 2159000   0.89412643   -7.4286516    657.24893  0.025368571   0.02529593            1 
 2160000   0.91177503   -7.4160554    658.50472  0.025405275   0.02528933            2 
 2161000   0.88907717   -7.4420745    656.93497  0.025332985  0.025282717            4 
 2162000   0.90813021   -7.4301734    658.50123  0.025381639  0.025276137            3 
 2163000    0.9022485   -7.4481205    659.28393  0.025400059  0.025269568            2 
 2164000   0.89194091   -7.4193164     660.8557  0.025448849  0.025263034            2 
 2165000   0.91119295   -7.3959515    660.13439   0.02540933  0.025256584            2 
 2166000   0.91302687   -7.4330511     660.1946  0.025399915  0.025250125            7 
 2167000   0.89412316   -7.3788984    662.00252  0.025457719   0.02524372            2 
 2168000   0.90574745   -7.4331036    659.99604  0.025368851   0.02523726            3 
 2169000   0.88989385   -7.4255839    660.14254  0.025362784  0.025230797            7 
 2170000   0.89528174   -7.4243055    661.49088  0.025402876   0.02522438            2 
 2171000   0.91831597    -7.427354    660.21331  0.025342135  0.025217949            2 
 2172000   0.90067233    -7.427765    660.48625  0.025340939  0.025211527            3 
 2173000   0.89572221   -7.4353847    662.15998  0.025393465  0.025205092            4 
 2174000   0.88502147   -7.4333443    662.02424  0.025376581  0.025198677            2 
 2175000   0.91198005   -7.4147762    662.50886  0.025383481  0.025192334            5 
 2176000    0.9040622   -7.4105275    662.81307  0.025383466   0.02518597            5 
 2177000   0.90662253   -7.4550567    661.06179  0.025304769  0.025179579            2 
 2178000   0.89431471   -7.4498565    662.49178  0.025347864  0.025173123            1 
 2179000   0.92454401   -7.4530939    662.00541  0.025317631   0.02516669            4 
 2180000   0.90707194   -7.3966804    661.98565  0.025305262  0.025160253            2 
 2181000   0.89797472   -7.4292958    661.59339  0.025278671  0.025153853            2 
 2182000   0.90808368   -7.4453647    663.01093  0.025321224  0.025147477            2 
 2183000   0.91516041   -7.4185485    664.16096  0.025353526   0.02514106            2 
 2184000   0.90505264   -7.4164664    663.57791   0.02531967  0.025134582            2 
 2185000   0.89021589   -7.4546926    662.76298  0.025277001  0.025128124            3 
 2186000   0.91069639   -7.4089819    664.18823  0.025319771  0.025121627            4 
 2187000   0.91941522   -7.4269728    661.40419  0.025202111  0.025115182            3 
 2188000    0.9068179   -7.4457387    663.47456  0.025269446  0.025108783            4 
 2189000   0.90500053    -7.417577    663.40672  0.025255319  0.025102391            3 
 2190000   0.88136453    -7.432674    664.67329  0.025291982  0.025095911            2 
 2191000   0.91426165   -7.4163876    662.59456  0.025201375   0.02508944            2 
 2192000   0.90363561   -7.4329784     663.1263  0.025210093  0.025082975            3 
 2193000   0.89285616   -7.4362339    662.87537  0.025189063    0.0250765            2 
 2194000   0.91260675    -7.427353    663.86449  0.025215151  0.025070026            3 
 2195000   0.87171669   -7.4554918    663.48436  0.025189232  0.025063556            3 
 2196000   0.89479304   -7.4203863    665.08888  0.025238649  0.025057117            2 
 2197000   0.91833333   -7.4719844    662.84736  0.025142139  0.025050611            3 
 2198000   0.89495713   -7.4475494    663.94122  0.025172173  0.025044011            1 
 2199000   0.91343357   -7.4255947    664.73461  0.025190792  0.025037459            2 
 2200000   0.89592341   -7.3990622    661.93049  0.025073125  0.025030923            2 
 2201000   0.88398907   -7.4613524    662.50093  0.025083331  0.025024356            2 
 2202000   0.89095532    -7.426484    664.81695  0.025159588  0.025017734            2 
 2203000   0.89713408   -7.4369996    665.24077  0.025164199  0.025011147            1 
 2204000    0.8931158   -7.4162468    666.26189   0.02519139  0.025004537            1 
 2205000   0.89181859   -7.4694287    663.47809  0.025074758  0.024997972            3 
 2206000   0.88299997   -7.4486598    664.67666  0.025108668  0.024991447            3 
 2207000   0.90698913   -7.4187374    664.14312  0.025077145  0.024984875            3 
 2208000    0.8802523   -7.4777542    664.20725  0.025068208  0.024978298            2 
 2209000   0.91753287   -7.4573855    662.58355  0.024995607  0.024971627            2 
 2210000   0.90579999   -7.4782782    662.71016  0.024989071  0.024964912            1 
 2211000   0.89188608   -7.4215575    665.95338  0.025100007  0.024958318            2 
 2212000   0.87469039   -7.4640023    666.13582  0.025095533  0.024951725            2 
 2213000   0.88745338   -7.4709239    664.88201  0.025036979   0.02494511            2 
 2214000   0.90213948   -7.4711683    663.78581   0.02498441  0.024938516            1 
 2215000   0.90411778   -7.4359692    666.67296  0.025081752  0.024931967            2 
 2216000   0.90311229   -7.4124687    665.64417  0.025031745  0.024925446            5 
 2217000   0.90270528   -7.4786188    663.59522  0.024943438  0.024918846            3 
 2218000    0.9002427   -7.4496695    665.23256  0.024993709  0.024912271            1 
 2219000   0.89416975   -7.4185924    665.85967  0.025005997  0.024905753            2 
 2220000   0.89606868   -7.4528226    664.15906  0.024930896   0.02489917            3 
 2221000   0.89489923    -7.439246    666.20559  0.024996458  0.024892553            3 
 2222000   0.90404399   -7.4410301    665.91292  0.024974232  0.024886011            3 
 2223000   0.90905414   -7.4620349    665.96926  0.024965109  0.024879437            3 
 2224000   0.86840894   -7.4563741    665.71434  0.024944332  0.024872866            1 
 2225000   0.89744204   -7.4506707    667.54195  0.025001571  0.024866212            4 
 2226000   0.89212065   -7.4495961    664.80705  0.024887955  0.024859521            2 
 2227000   0.90394114   -7.4577773    665.42284  0.024899822  0.024852788            1 
 2228000   0.89914407   -7.4703266     664.9487  0.024870912   0.02484607            3 
 2229000   0.90273262   -7.4528861    667.26725  0.024946435  0.024839391            1 
 2230000   0.90298454   -7.4605635     665.2925  0.024861453  0.024832686            2 
 2231000   0.90073789   -7.4858572    665.71983  0.024866272  0.024825981            2 
 2232000   0.88319146   -7.4299839    666.70601  0.024891951  0.024819362            5 
 2233000   0.89438722   -7.4567054    667.96065  0.024927625  0.024812733            3 
 2234000   0.90611072   -7.4311814    666.78751  0.024872706  0.024806194            4 
 2235000   0.88449805   -7.4645751    665.58547  0.024816759   0.02479956            3 
 2236000    0.9012877    -7.426779    667.77492  0.024887258  0.024792852            4 
 2237000    0.8939331    -7.424829    666.04819  0.024811809  0.024786222            1 
 2238000   0.89194653   -7.4432746    668.13003   0.02487824  0.024779592            4 
 2239000   0.89305337   -7.4414793    667.43556  0.024841282   0.02477302            5 
 2240000   0.90301917   -7.4613564    667.04436  0.024815639  0.024766468            2 
 2241000   0.90292644    -7.468686    668.68971  0.024865749    0.0247599            7 
 2242000   0.88431048   -7.5061564    668.16755  0.024835249  0.024753298            4 
 2243000   0.89410838   -7.4717421    668.10026  0.024821677  0.024746671            2 
 2244000   0.89929729   -7.4660325    667.20111  0.024777225  0.024740072            2 
 2245000   0.90060681   -7.4457115    668.06051  0.024798089  0.024733494            2 
 2246000   0.91709133   -7.4676201      670.261  0.024868693  0.024726914            2 
 2247000   0.89003821   -7.4593708    667.12301  0.024741248  0.024720293            3 
 2248000     0.889941   -7.4626637    668.10013  0.024766464   0.02471375            2 
 2249000   0.89435555   -7.4250713    669.56742   0.02480982  0.024707173            3 
 2250000   0.90195064    -7.419701    671.18807  0.024858817  0.024700663            2 
 2251000     0.887265   -7.4446995    669.15021  0.024772331  0.024694129            7 
 2252000   0.87383315   -7.4640781    669.65433  0.024779986  0.024687492            4 
 2253000   0.87735307   -7.4462601    669.94948  0.024779904  0.024680825            1 
 2254000   0.89684045   -7.4409611    668.75713  0.024724828  0.024674097            3 
 2255000   0.90645857   -7.4410268    669.11817  0.024727205  0.024667369            4 
 2256000   0.89676639   -7.4663575    669.08458  0.024715004  0.024660612            3 
 2257000   0.90005562   -7.4419263    668.26361  0.024673741   0.02465391            3 
 2258000   0.90482054   -7.4477253    668.15807  0.024658919  0.024647184            2 
 2259000   0.91829037   -7.4369305    670.27514  0.024726101  0.024640487            2 
 2260000   0.87973032   -7.4781056    669.58324  0.024689648    0.0246338            2 
 2261000   0.89019008   -7.4472003    670.88898  0.024726853  0.024627119            2 
 2262000    0.9018499   -7.4290998    671.40098  0.024734784  0.024620534            1 
 2263000   0.90870359   -7.4350097    667.92696  0.024595926  0.024613931            4 
 2264000   0.89054254   -7.4556314    671.39629  0.024712761  0.024607329            4 
 2265000   0.90122349   -7.4551618      669.285  0.024624172  0.024600671            2 
 2266000   0.88239361   -7.4518636    670.97884  0.024675597     0.024594            2 
 2267000   0.88592993   -7.4550453    671.72243  0.024692046  0.024587273            2 
 2268000   0.89239211   -7.4945991     669.2721  0.024591127  0.024580506            2 
 2269000   0.85676191   -7.4573241    670.86303  0.024638719  0.024573745            2 
 2270000   0.90230078   -7.4539563    670.86096  0.024627789  0.024567007            3 
 2271000   0.88081252   -7.4464343    670.75313  0.024612987  0.024560305            3 
 2272000   0.89192692   -7.4264023    671.78659   0.02464006  0.024553603            2 
 2273000   0.87751684   -7.4396702    672.48091  0.024654675  0.024546912            3 
 2274000   0.89911467   -7.4848442    669.98201  0.024552258  0.024540215            3 
 2275000   0.88579698   -7.4627907    669.92255  0.024539287  0.024533415            5 
 2276000   0.90533101   -7.4798366    670.04577  0.024533017  0.024526705            4 
 2277000   0.88169588   -7.4751771    669.96329  0.024519225  0.024519928            2 
 2278000   0.90230054    -7.480162     670.6918  0.024535111  0.024513173            2 
 2279000   0.87673548    -7.446838    672.45025  0.024588645  0.024506431            3 
 2280000   0.89991272   -7.4191726     673.2894  0.024608531   0.02449978            2 
 2281000   0.89772784   -7.4588096    672.51696  0.024569522  0.024493123            3 
 2282000   0.87238815   -7.4452283    671.81916  0.024533273  0.024486458            3 
 2283000   0.88984829   -7.4718051     670.8603  0.024487527    0.0244798            1 
 2284000     0.889904   -7.4736423     673.4215  0.024570253  0.024473148            1 
 2285000   0.90574567   -7.4976774    670.41235  0.024449757  0.024466452            2 
 2286000    0.8990901   -7.4713788    672.93036  0.024530853  0.024459708            3 
 2287000   0.88891578   -7.4563332    673.01547  0.024523228  0.024452971            3 
 2288000   0.87576854   -7.4760483    671.17368  0.024445428  0.024446268            2 
 2289000   0.87595453   -7.4423958    672.94054  0.024499073  0.024439494            2 
 2290000   0.88182913    -7.479068    672.01623  0.024454739  0.024432718            8 
 2291000   0.88469329   -7.4958588    671.13884  0.024412151  0.024425916            4 
 2292000   0.86582916   -7.4799128    670.55731  0.024380356  0.024419084            3 
 2293000   0.89046011   -7.4767471    671.96414  0.024420851  0.024412237            2 
 2294000   0.88013941   -7.4829142     673.4008  0.024462395  0.024405465            1 
 2295000   0.88310392   -7.4663195    673.95143   0.02447173  0.024398716            2 
 2296000   0.88498896   -7.4789359    674.40977  0.024477706  0.024391945            3 
 2297000   0.88501942   -7.4756637    673.55153  0.024435914  0.024385133            6 
 2298000   0.85922671   -7.4959478    671.64605  0.024356181  0.024378347            3 
 2299000   0.87233121   -7.4690751    673.24158  0.024403421  0.024371583            2 
 2300000    0.8847496   -7.4412725    673.39848  0.024398496  0.024364851            4 
 2301000   0.89496612   -7.5091619    673.25713  0.024382773  0.024358088            4 
 2302000   0.89329779   -7.4981927     673.2549    0.0243721  0.024351292            3 
 2303000   0.86044699   -7.5006597     671.5462  0.024299689  0.024344481            4 
 2304000   0.90437086   -7.4658042    673.73567  0.024368333    0.0243377            1 
 2305000   0.88753972   -7.4467522    674.21432  0.024375066  0.024330968            3 
 2306000   0.87694876   -7.4547322    675.08252   0.02439587  0.024324245            3 
 2307000   0.87534953   -7.4842086    675.44736  0.024398474  0.024317532            2 
 2308000   0.89282315   -7.4257065    675.90657  0.024404483  0.024310818            3 
 2309000   0.85352043   -7.4035321    676.05787  0.024399375  0.024304165            1 
 2310000   0.88159297   -7.5121749    674.75223  0.024341711  0.024297467            2 
 2311000   0.86764438   -7.4528946    675.32524   0.02435184  0.024290718            3 
 2312000   0.86384819   -7.4982963    674.66109  0.024317369  0.024283953            2 
 2313000   0.88483813   -7.4973979    674.70243  0.024308345  0.024277138            2 
 2314000   0.88394708     -7.49354    673.68663  0.024261259  0.024270325            3 
 2315000   0.88766156   -7.4865223    675.76884  0.024325732  0.024263505            1 
 2316000   0.88899314   -7.4956369    674.36497  0.024264715  0.024256721            2 
 2317000   0.88324284   -7.4683404     674.7582  0.024268386  0.024249922            5 
 2318000    0.8888469   -7.5096002    673.15804   0.02420039  0.024243097            2 
 2319000   0.85892041   -7.5015229    672.60749   0.02417017   0.02423626            4 
 2320000   0.89274004   -7.4884201     676.6965  0.024306627  0.024229451            4 
 2321000    0.8841846   -7.4963446     673.8538   0.02419409  0.024222602            3 
 2322000   0.89406265    -7.463008     677.0171  0.024297197  0.024215808            4 
 2323000    0.8905744   -7.4719333    675.05499  0.024216351   0.02420902            2 
 2324000   0.85920536   -7.4703398    675.43888  0.024219696  0.024202216            2 
 2325000   0.88079965   -7.4861462     673.4742   0.02413886  0.024195433            3 
 2326000   0.87752962    -7.466479     676.8351  0.024248893  0.024188679            5 
 2327000   0.86778134   -7.4750308    675.19419  0.024179709  0.024181882            6 
 2328000   0.87524583   -7.4947221    676.31645  0.024209495  0.024175085            3 
 2329000   0.88728165   -7.4752965    676.96149   0.02422218  0.024168303            3 
 2330000   0.86822377   -7.4882078    676.28632  0.024187637  0.024161567            3 
 2331000    0.8969885   -7.4611992    675.34334  0.024143549  0.024154869            2 
 2332000   0.89748472   -7.5029663    676.56907  0.024176996  0.024148116            5 
 2333000    0.8819797    -7.474349    675.49664  0.024128327   0.02414138            3 
 2334000    0.8929709   -7.5183598    676.89036  0.024167751   0.02413461            2 
 2335000    0.8710968   -7.4697408    676.59021  0.024146689  0.024127876            4 
 2336000    0.8709394   -7.4906365    676.39314  0.024129322   0.02412113            2 
 2337000   0.89619289   -7.5025143    676.64736  0.024128062  0.024114385            2 
 2338000   0.87600205   -7.4885135     677.5724  0.024150713  0.024107658            1 
 2339000   0.87367915   -7.4825431    677.42582  0.024135165  0.024100931            2 
 2340000    0.8767469   -7.4532386    677.32873  0.024121394  0.024094233            2 
 2341000   0.88513234   -7.4853142    678.49385  0.024152565  0.024087453            1 
 2342000   0.87688179   -7.5057016     676.8621  0.024084191  0.024080703            4 
 2343000   0.87489053   -7.4632268    679.85512  0.024180364  0.024073996            2 
 2344000   0.86587573   -7.5171513    676.70974  0.024058225  0.024067259            3 
 2345000   0.87887295   -7.4948952    676.53935   0.02404191  0.024060483            3 
 2346000   0.87681338   -7.4533158    677.77693  0.024075623  0.024053735            1 
 2347000   0.87167306   -7.5028034    677.94378  0.024071289  0.024046988            3 
 2348000   0.88122164   -7.4919688    678.40254  0.024077319  0.024040275            5 
 2349000   0.87146083   -7.4749759    679.03126  0.024089374  0.024033611            2 
 2350000   0.87498785   -7.5185305    678.28079   0.02405251  0.024026854            3 
 2351000   0.88549482   -7.5025898    679.97259  0.024102247  0.024020123            2 
 2352000   0.87659651   -7.4584475    679.93159  0.024090547  0.024013391            3 
 2353000   0.88313959   -7.4905295    678.45207   0.02402791  0.024006688            3 
 2354000   0.86652823   -7.4760269     681.1655   0.02411376  0.023999987            3 
 2355000   0.87283247   -7.5094067    679.85672  0.024057209  0.023993312            3 
 2356000   0.89597293   -7.4794257    680.60789  0.024073567  0.023986662            2 
 2357000   0.87711981    -7.461191    681.12885  0.024081773  0.023980056            2 
 2358000   0.87140911   -7.4751892    681.81706  0.024095882  0.023973388            4 
 2359000   0.87775603   -7.4821942    680.36959  0.024034534  0.023966754            2 
 2360000   0.86604056   -7.4587811    681.76134  0.024073494  0.023960149            2 
 2361000   0.89382975   -7.4904714    680.41513  0.024015782  0.023953497            2 
 2362000   0.86967891   -7.4934301    680.09443    0.0239943  0.023946831            2 
 2363000   0.87550605   -7.4969219    679.80556  0.023973958  0.023940057            2 
 2364000    0.8876281   -7.4981871    679.72973  0.023961144   0.02393334            1 
 2365000   0.87504902   -7.4932792     679.5488  0.023944637  0.023926645            3 
 2366000   0.88138639   -7.4886921    680.64616  0.023973167   0.02391997            3 
 2367000   0.87454902   -7.5265633    680.96489   0.02397426  0.023913277            2 
 2368000   0.87146065   -7.5158171    680.57056  0.023950259  0.023906567            2 
 2369000   0.83389413   -7.4983568    679.55218  0.023904326  0.023899815            3 
 2370000   0.86553176   -7.4629374    681.02134  0.023945898  0.023893081            3 
 2371000   0.87560612   -7.5197896    681.00716    0.0239353  0.023886339            2 
 2372000   0.87420183   -7.5205295    680.54782  0.023909072  0.023879642            2 
 2373000   0.84923671   -7.4884743    681.79456  0.023942778  0.023872914            3 
 2374000   0.88602367   -7.4765852     681.7037  0.023929503  0.023866222            2 
 2375000   0.85917567    -7.509131     681.1946  0.023901565  0.023859486            4 
 2376000   0.86974463   -7.4958773    683.36499  0.023967627  0.023852709            2 
 2377000   0.86422834   -7.4883573    681.52551  0.023893055  0.023846002            3 
 2378000   0.88381412   -7.5298367    680.66299  0.023852782   0.02383923            3 
 2379000   0.87927301   -7.5233098    682.64959  0.023912344  0.023832486            4 
 2380000   0.85024485   -7.4998656    682.36686  0.023892397  0.023825761            2 
 2381000   0.87796201   -7.5151666    683.86554  0.023934815  0.023819082            3 
 2382000   0.87412629   -7.5111317    682.22092  0.023867231  0.023812425            2 
 2383000   0.88355503   -7.4885629    682.10747  0.023853248  0.023805785            2 
 2384000   0.86555756   -7.5065527    682.06572  0.023841783  0.023799048            3 
 2385000    0.8674621   -7.5056568    684.50453  0.023916999  0.023792392            2 
 2386000   0.87176095   -7.4764565    685.12994  0.023928819  0.023785768            2 
 2387000    0.8708414   -7.5218099    683.41411  0.023858892  0.023779138            4 
 2388000   0.86723855   -7.5238618    682.03225  0.023800679  0.023772421            4 
 2389000    0.8674612   -7.5390977    682.09989  0.023793076  0.023765702            4 
 2390000   0.87567216   -7.4988318      683.191  0.023821165  0.023759006            3 
 2391000    0.8534629   -7.5139189    683.62288  0.023826254  0.023752319            5 
 2392000   0.89084681   -7.4734193    683.92216   0.02382672  0.023745662            3 
 2393000   0.84182009   -7.4809134    684.78017  0.023846642  0.023739005            5 
 2394000   0.86382124     -7.52963    685.03996  0.023845724  0.023732315            2 
 2395000   0.86666884   -7.5098446    682.90525  0.023761491  0.023725625            3 
 2396000   0.85643808   -7.5123944    683.67189  0.023778238  0.023718926            4 
 2397000   0.87588582   -7.5040464    684.37134  0.023792634  0.023712185            3 
 2398000    0.8761807   -7.4953482    685.44876  0.023820154  0.023705495            1 
 2399000   0.86631559   -7.4999581     683.7424  0.023750952  0.023698888            1 
 2400000    0.8635342    -7.524472    683.42781  0.023730132  0.023692209            9 
 2401000   0.86287984   -7.5355066    685.21419   0.02378225  0.023685477            2 
 2402000   0.88311835   -7.4978114    685.26535  0.023774124  0.023678762            2 
 2403000   0.84810563   -7.5287463    683.30116  0.023696115  0.023672057            2 
 2404000   0.86662716   -7.5039877      684.855  0.023740121  0.023665342            3 
 2405000   0.86918614   -7.5104064    682.82596  0.023659943  0.023658602            4 
 2406000   0.85129209    -7.520405    684.56592  0.023710374  0.023651861            2 
 2407000   0.86695619   -7.5063185    686.38429  0.023763478  0.023645147            4 
 2408000   0.86039086   -7.4909057    686.01398  0.023740794   0.02363842            2 
 2409000   0.87871544   -7.5264553    685.42123  0.023710434  0.023631724            2 
 2410000   0.86580872   -7.4968192    683.53977  0.023635538  0.023625041            3 
 2411000   0.86125584   -7.4886081    686.03434  0.023711957  0.023618367            4 
 2412000   0.88208881   -7.4800518    686.68705  0.023724677  0.023611701            2 
 2413000   0.86758214   -7.5001473    684.56702  0.023641629  0.023605054            2 
 2414000   0.85821544    -7.503775    685.62869  0.023668486  0.023598386            2 
 2415000   0.88036372   -7.5341735    686.66994  0.023694615  0.023591701            3 
 2416000   0.86678099   -7.5123219    684.85088  0.023622064  0.023585023            3 
 2417000    0.8677075    -7.518726    685.45626  0.023633163  0.023578311            5 
 2418000   0.88027098   -7.5246848    684.97287   0.02360673  0.023571599            2 
 2419000   0.86016939   -7.5332982    686.51589  0.023650127  0.023564903            3 
 2420000   0.87745809   -7.5169992    687.70797  0.023681404  0.023558206            2 
 2421000   0.87269361   -7.5352983    686.32939   0.02362417  0.023551543            3 
 2422000    0.8621359   -7.4863255    685.94407  0.023601159  0.023544917            4 
 2423000   0.86557134   -7.5243087     685.6532  0.023581414  0.023538224            3 
 2424000   0.85522275   -7.5017111    685.62411  0.023570686  0.023531542            3 
 2425000   0.84860481   -7.5188862    687.85791  0.023637729  0.023524882            4 
 2426000   0.89254743   -7.5326792    687.63746  0.023620413  0.023518241            2 
 2427000    0.8571187   -7.5310999    688.18239  0.023629391  0.023511636            2 
 2428000   0.87434839   -7.5414607    686.83365  0.023573368  0.023504986            2 
 2429000   0.89407116   -7.5345474    688.02177  0.023604425  0.023498324            3 
 2430000   0.83979922   -7.4792957    687.97724  0.023593184  0.023491648            1 
 2431000   0.85447498   -7.5408366    687.54062  0.023568512  0.023484982            3 
 2432000   0.86868526   -7.5122009    686.80615  0.023533654  0.023478308            3 
 2433000   0.86509815   -7.4976494    687.38757  0.023543895   0.02347163            5 
 2434000    0.8431306   -7.5373008    687.25144  0.023529562  0.023464942            2 
 2435000   0.87575471   -7.5102715    687.90769  0.023542358  0.023458245            1 
 2436000   0.87299306   -7.5021474    687.22455  0.023509324  0.023451583            2 
 2437000    0.8823321   -7.5246141    687.57597  0.023511694    0.0234449            3 
 2438000   0.87853073   -7.5498569     687.3169  0.023493195  0.023438245            3 
 2439000   0.87526255   -7.5217711    687.87997  0.023502801  0.023431637            4 
 2440000   0.86495929    -7.540841    687.09727  0.023466437  0.023425034            3 
 2441000   0.86296885   -7.5406053    688.13032  0.023492091  0.023418401            2 
 2442000   0.85537957   -7.4997593    688.90008  0.023508739   0.02341176            1 
 2443000   0.86049494   -7.5679498    688.81173  0.023496102   0.02340518            2 
 2444000   0.86028875   -7.5240654    688.73988  0.023484039  0.023398582            2 
 2445000   0.85225621   -7.5248084    689.79217  0.023510299  0.023391942            2 
 2446000   0.87757005   -7.5069516    689.38838   0.02348693  0.023385337            3 
 2447000   0.84439171   -7.5237533    687.67655  0.023419035  0.023378744            1 
 2448000   0.85784006   -7.5462565    688.70998  0.023444648  0.023372142            9 
 2449000   0.87002959   -7.5138398    688.03389  0.023412069  0.023365522            3 
 2450000   0.86312137   -7.5375227    687.04328  0.023368819  0.023358848            2 
 2451000   0.86015255   -7.5476549    687.45738  0.023373364  0.023352176            2 
 2452000   0.84534415   -7.5346023    689.14597   0.02342122  0.023345535            2 
 2453000   0.83173452    -7.556747    688.26239  0.023381655  0.023338897            4 
 2454000   0.84345925   -7.5416793    688.63011  0.023384614  0.023332233            3 
 2455000   0.86200483   -7.5313512    687.40619  0.023333543  0.023325532            3 
 2456000   0.86120949   -7.5324027    689.75878  0.023403867  0.023318884            3 
 2457000   0.84855466   -7.5641526    686.93982  0.023298732  0.023312143            2 
 2458000   0.86597353   -7.5385625    688.58124  0.023344902  0.023305455            4 
 2459000   0.87502248   -7.5420016    690.50746  0.023400687  0.023298738            2 
 2460000   0.85328629   -7.5263805    689.89734  0.023370506  0.023292074            2 
 2461000   0.84906889   -7.5265711    689.10637  0.023334226  0.023285389            1 
 2462000   0.84901935   -7.5700403    689.45324  0.023336489  0.023278705            6 
 2463000   0.86072752   -7.5310091    690.33401  0.023356815  0.023272029            4 
 2464000   0.85483732   -7.5173487    690.39222  0.023349304  0.023265345            2 
 2465000   0.85102935   -7.4850945    689.59953  0.023313033  0.023258647            3 
 2466000   0.83257611   -7.5239301    691.24223  0.023359091  0.023251972            2 
 2467000   0.85941785    -7.528103    689.20944  0.023280957  0.023245269            1 
 2468000   0.84610293   -7.5539193    689.00986  0.023264785  0.023238563            2 
 2469000   0.86480712   -7.4899216    691.25907  0.023331277  0.023231889            3 
 2470000   0.86352655   -7.4825188    691.30429  0.023323357  0.023225197            5 
 2471000   0.85682782   -7.5189895    691.21172  0.023310796  0.023218537            2 
 2472000   0.85092886     -7.52076    690.79124  0.023287191  0.023211904            9 
 2473000   0.84537099   -7.5344931    690.43125  0.023265644  0.023205242            1 
 2474000    0.8609039    -7.513155    691.87533  0.023304882  0.023198593            2 
 2475000   0.86384553   -7.5233691    690.13861   0.02323699  0.023191931            3 
 2476000   0.86968003   -7.5125674     691.8066  0.023283744  0.023185249            3 
 2477000   0.85290726    -7.511908    690.06702   0.02321582  0.023178579            3 
 2478000   0.86730686   -7.5786574    689.10895  0.023174232  0.023171903            1 
 2479000   0.84808465   -7.5507869    690.54167  0.023213045  0.023165221            3 
 2480000   0.84835801   -7.5580356    690.06281  0.023187594  0.023158496            2 
 2481000   0.84825374   -7.5621674     689.9427  0.023174214  0.023151719            2 
 2482000   0.84800844    -7.593226    689.51869  0.023150641  0.023144936            2 
 2483000   0.87864368   -7.5555124    690.92115  0.023188386  0.023138231            2 
 2484000   0.84223821   -7.5748477    690.65381  0.023170082  0.023131493            4 
 2485000   0.85236212   -7.5712735    690.12725    0.0231431  0.023124742            3 
 2486000    0.8550555   -7.5347435    690.59868  0.023149594  0.023118009            3 
 2487000    0.8453475   -7.5685183    689.75393   0.02311198  0.023111229            3 
 2488000   0.84043093   -7.5550075    691.20309  0.023151229  0.023104501            1 
 2489000   0.86572977   -7.5655214    691.76279  0.023160666  0.023097763            5 
 2490000   0.84752993   -7.5385082    692.06655  0.023161531  0.023091026            2 
 2491000   0.85633693    -7.566173    690.53479   0.02310099  0.023084275            2 
 2492000   0.83324927   -7.5629186    690.11512  0.023077686  0.023077425            4 
 2493000   0.86388517   -7.5357227    689.83636  0.023059111  0.023070603            2 
 2494000   0.86154905   -7.5550197     690.7843  0.023081539   0.02306383            2 
 2495000   0.84589558   -7.5273877    690.39916  0.023059424  0.023057058            4 
 2496000   0.85560798   -7.5516466    690.70602  0.023060431  0.023050219            2 
 2497000   0.86186448    -7.556854    690.63134  0.023048703  0.023043387            2 
 2498000   0.86977288    -7.573675     691.5418  0.023069849  0.023036614            2 
 2499000    0.8406414   -7.5456202     692.3819  0.023088632  0.023029839            2 
 2500000   0.84461996   -7.5747551    691.48788  0.023049596  0.023023041            1 
 2501000   0.84826691   -7.5415745    689.73504  0.022981975  0.023016265            3 
 2502000   0.85555028   -7.5951956    690.11558  0.022985464  0.023009458            2 
 2503000   0.85825904    -7.559123    690.49356  0.022988865  0.023002642            2 
 2504000   0.84063466    -7.547114    692.51738  0.023047037  0.022995836            4 
 2505000   0.86822558    -7.574738    691.76169  0.023012698  0.022989005            5 
 2506000   0.84352826   -7.5544687    692.90021  0.023041375  0.022982217            7 
 2507000   0.85932469   -7.5987216    691.49911  0.022985611    0.0229754            2 
 2508000    0.8453475   -7.5598276    691.95881   0.02299172  0.022968605            2 
 2509000   0.85941458   -7.5548415     692.3383  0.022995161  0.022961798            1 
 2510000   0.85384366   -7.5766358    691.88261   0.02297087  0.022955004            3 
 2511000   0.82942587   -7.5519401    693.01317  0.022999242  0.022948215            3 
 2512000   0.86569399   -7.5614583    692.96274  0.022988414  0.022941448            2 
 2513000   0.84310061   -7.5265447    693.40619  0.022993971  0.022934687            2 
 2514000   0.83913019   -7.5295899    694.49537  0.023020928  0.022927963            3 
 2515000   0.83946875   -7.5470352    692.84762  0.022957178  0.022921202            3 
 2516000   0.85878543    -7.530413    694.31025  0.022996497  0.022914467            3 
 2517000   0.86411996   -7.5627634    693.49344  0.022960318    0.0229078            2 
 2518000   0.84113738    -7.558112     691.5926  0.022888291   0.02290107            3 
 2519000   0.84556644   -7.5595462    693.63685  0.022946832  0.022894335            4 
 2520000   0.84581466   -7.5369408    694.12463  0.022953857  0.022887563            2 
 2521000   0.84929128   -7.5718181    692.94545  0.022905773  0.022880813            2 
 2522000   0.85330673   -7.5428028    692.82886  0.022892838  0.022874046            2 
 2523000   0.84183901   -7.5551837    692.90205  0.022886182  0.022867239            2 
 2524000   0.85135589   -7.5431085    694.45201  0.022928289   0.02286051            3 
 2525000    0.8326649   -7.5098596    695.63376   0.02295821   0.02285382            4 
 2526000   0.85395711   -7.5353217    695.13906  0.022932801  0.022847133            1 
 2527000   0.84360557   -7.5577455    693.47725  0.022868924  0.022840403            2 
 2528000   0.85636347   -7.5510999    696.91526  0.022973209  0.022833707            3 
 2529000    0.8385721   -7.5593194    693.29206  0.022844736  0.022827038            3 
 2530000   0.84229704   -7.5974856    692.58894  0.022812547  0.022820305            4 
 2531000   0.83494932   -7.5935948    693.62724   0.02283772  0.022813563            2 
 2532000   0.84350212   -7.5753249    695.62236  0.022894364  0.022806803            3 
 2533000   0.83060325   -7.5588132    695.71236  0.022888286  0.022800071            3 
 2534000   0.84552549   -7.5121022    695.93453   0.02288656  0.022793371            2 
 2535000   0.84636545   -7.5650446    695.10614    0.0228503  0.022786715            2 
 2536000    0.8390471   -7.5386204    694.08962  0.022807887  0.022780038            2 
 2537000   0.85666141   -7.5382562    696.45143  0.022876476  0.022773361            6 
 2538000    0.8463303   -7.5605437    695.72783  0.022843703  0.022766692            2 
 2539000   0.85042536   -7.5532143    694.03229  0.022779056  0.022759987            5 
 2540000   0.83932143   -7.5735303     694.4063  0.022782359  0.022753208            4 
 2541000   0.85077239   -7.5747763    694.35199  0.022771612  0.022746387            4 
 2542000   0.84043689   -7.5688782    692.20217  0.022692177  0.022739596            3 
 2543000    0.8483128   -7.5628819    696.71346  0.022831087  0.022732834            4 
 2544000     0.859882   -7.5613811    695.15519  0.022771069  0.022726105            7 
 2545000   0.86207373   -7.5945253    696.10486  0.022793217  0.022719414            3 
 2546000   0.82941882   -7.5554687    695.59816   0.02276768  0.022712694            1 
 2547000    0.8392548   -7.5586282    694.91367  0.022736346  0.022706003            1 
 2548000   0.84301351   -7.5866723    697.72273  0.022819294  0.022699305            4 
 2549000   0.85390813   -7.5646984    696.56485  0.022772488  0.022692595            3 
 2550000    0.8586279   -7.5873194    696.56433   0.02276354  0.022685911            7 
 2551000   0.82877769   -7.5666202    695.79138  0.022729367  0.022679194            4 
 2552000   0.85609516   -7.5635178    695.27148  0.022703484  0.022672513            3 
 2553000   0.84841399   -7.5745444    696.56425  0.022736789  0.022665858            5 
 2554000   0.83707202   -7.6125821    697.12061  0.022746039  0.022659179            3 
 2555000   0.87039498   -7.5505449    697.58329  0.022752227  0.022652525            3 
 2556000   0.83685234   -7.5780784    695.53419  0.022676519  0.022645855            2 
 2557000   0.84126959   -7.5533535    697.08681  0.022718251   0.02263919            2 
 2558000   0.84669233   -7.5493055    697.65627  0.022727921   0.02263254            2 
 2559000   0.82730216    -7.561648    695.94081  0.022663176  0.022625925            4 
 2560000    0.8444083   -7.5678152    699.03581  0.022755072  0.022619296            2 
 2561000   0.83164854   -7.5270316    697.14415  0.022684633  0.022612627            7 
 2562000   0.85305418   -7.5576607     696.8387  0.022665844  0.022605912            2 
 2563000   0.83801085   -7.5642558    697.42524  0.022676071  0.022599207            1 
 2564000   0.84474794   -7.6013129     697.9692  0.022684907  0.022592529            2 
 2565000   0.82243435   -7.5754934    697.22903  0.022652015   0.02258581            3 
 2566000   0.86046715   -7.5840569    697.29091  0.022645197  0.022579114            3 
 2567000   0.84486113     -7.55896    696.70763   0.02261744  0.022572403            4 
 2568000   0.82796704   -7.5774589    697.39905   0.02263107  0.022565695            2 
 2569000   0.84590266   -7.5753012    696.40398  0.022589982  0.022558983            2 
 2570000   0.82847592   -7.5678449    697.48719  0.022616316  0.022552313            4 
 2571000   0.83524279   -7.5412326    697.02677  0.022592596  0.022545657            2 
 2572000   0.84018031   -7.5704069    699.25918  0.022656143  0.022539027            2 
 2573000   0.83821095   -7.5459242    700.52533  0.022688345  0.022532432            8 
 2574000   0.82953686   -7.5471618     700.1793  0.022668328  0.022525813            2 
 2575000   0.82881062   -7.5571836    698.71948  0.022612281  0.022519177            4 
 2576000    0.8529084   -7.5669413    699.45426  0.022627273  0.022512534            4 
 2577000   0.83176528   -7.5579338    699.67863  0.022625748  0.022505861            5 
 2578000   0.84303068   -7.5822852    698.87656  0.022591045  0.022499237            4 
 2579000    0.8358685   -7.5826894    697.73943  0.022545542   0.02249258            3 
 2580000   0.83334092   -7.5921753    697.55008  0.022530687  0.022485919            6 
 2581000    0.8250642   -7.5531126    700.12531  0.022605105  0.022479254            2 
 2582000    0.8616712   -7.5972754    698.88379   0.02255628  0.022472565            4 
 2583000   0.82119193   -7.5678975     701.1213  0.022619735  0.022465917            1 
 2584000   0.85857544   -7.5986902    699.24186  0.022550369  0.022459309            3 
 2585000   0.85447086   -7.5940492    698.43503  0.022515636   0.02245265            3 
 2586000   0.83744206   -7.5818404    697.75063  0.022484875   0.02244602            6 
 2587000   0.82840607   -7.5599935     699.7715   0.02254128  0.022439412            3 
 2588000   0.83472231   -7.5810499    699.64454  0.022528482   0.02243283            3 
 2589000    0.8422105   -7.5588728    701.63949  0.022583993  0.022426251            3 
 2590000   0.84165865   -7.5742679    701.70984  0.022577537   0.02241968            1 
 2591000   0.83132597   -7.5852358    700.18732  0.022519855  0.022413086            2 
 2592000   0.82931555    -7.597462     700.9216  0.022534774  0.022406525            3 
 2593000   0.84258681   -7.5814844    700.17055  0.022501946   0.02239992            5 
 2594000   0.84673943   -7.5702199    699.92328  0.022485328   0.02239327            7 
 2595000   0.82376987   -7.6026478    700.86025  0.022506752  0.022386638            2 
 2596000   0.84689868   -7.5913869    699.24127  0.022446112  0.022379991            3 
 2597000   0.84323669   -7.6106164     698.3133  0.022407692  0.022373296            2 
 2598000   0.83158393   -7.5934213    700.17697  0.022458846  0.022366635            2 
 2599000   0.82769513   -7.6108637     700.0136  0.022444966  0.022359991            2 
 2600000   0.84173758   -7.5565243    700.32278  0.022446243  0.022353359            3 
 2601000   0.84993515   -7.6025196    699.70452  0.022417805  0.022346732            2 
 2602000   0.82814744   -7.6002892    700.40682  0.022431681  0.022340086            5 
 2603000   0.84878473   -7.5727105    698.31952   0.02235624   0.02233342            4 
 2604000   0.84893092   -7.6073157    699.64814  0.022390173   0.02232673            2 
 2605000   0.82881164   -7.6072286    701.15374  0.022429742  0.022320008            3 
 2606000   0.83684511   -7.5889982    700.99071  0.022415922  0.022313308            3 
 2607000   0.82934777   -7.5935747    698.70634  0.022334303  0.022306608            4 
 2608000   0.84211026   -7.6015108    700.20752  0.022373707  0.022299909            4 
 2609000   0.82858383   -7.6043002    700.13675   0.02236287  0.022293202            3 
 2610000   0.81867307   -7.6129958    698.58696   0.02230482  0.022286455            2 
 2611000    0.8317068   -7.6053027    699.90546  0.022338359  0.022279726            5 
 2612000   0.82900273   -7.6178907    699.95792   0.02233148  0.022272988            2 
 2613000   0.82817386   -7.5939761    699.68518  0.022314236  0.022266235            3 
 2614000   0.82634006   -7.6298191    699.61982  0.022303616  0.022259492            3 
 2615000   0.82959415   -7.6253432    698.70367  0.022265891  0.022252717            5 
 2616000   0.82788885   -7.5836703      699.731  0.022290106   0.02224595            2 
 2617000   0.83272293   -7.5998698    700.87998  0.022318175  0.022239238            6 
 2618000   0.83031936   -7.5920645    699.43471  0.022263646  0.022232535            2 
 2619000   0.83087659   -7.6106486     699.7797  0.022266123  0.022225857            8 
 2620000   0.81340885   -7.6170509    699.63803  0.022253118   0.02221913            2 
 2621000   0.80311332   -7.6274502     699.5271  0.022241101  0.022212384            3 
 2622000   0.84699258   -7.6049166    701.22817  0.022286682   0.02220566            2 
 2623000   0.82307071   -7.5794456    700.90112  0.022267795  0.022198977            4 
 2624000   0.82840756   -7.5962902    702.86127   0.02232156    0.0221923            2 
 2625000    0.8215015   -7.5930475    700.27935  0.022231091  0.022185644            4 
 2626000   0.83054342   -7.5803602    703.20735  0.022315542  0.022179044            2 
 2627000   0.83615506   -7.6199269    699.61736  0.022193166  0.022172422            2 
 2628000   0.83404507     -7.57848    701.60148  0.022247637  0.022165795            2 
 2629000   0.84516631   -7.5958427    701.43702  0.022233962  0.022159154            3 
 2630000   0.84430114   -7.5956924    701.62393   0.02223143  0.022152479            6 
 2631000   0.84251345   -7.5718997    702.47001  0.022249779  0.022145834            3 
 2632000   0.82448774   -7.6001944    702.65385  0.022247146  0.022139215            3 
 2633000   0.82940441   -7.5758455    702.53665  0.022234987  0.022132583            2 
 2634000   0.80209452   -7.6022742    702.68079  0.022231106  0.022125959            2 
 2635000   0.81808986    -7.602196    702.73245  0.022224303  0.022119319           11 
 2636000    0.8131457   -7.5798303    702.81094  0.022218353  0.022112692            4 
 2637000      0.83402   -7.5835232    701.51066  0.022168836  0.022106064            2 
 2638000   0.82014694   -7.5810189    702.53471  0.022192782  0.022099423            2 
 2639000   0.83005662   -7.5963745     703.9792  0.022229986  0.022092796            5 
 2640000   0.82845463   -7.5919111    701.96258   0.02215791   0.02208617            2 
 2641000    0.8148252   -7.5913701    703.64907  0.022202735  0.022079567            4 
 2642000   0.84144956   -7.5869527    703.85752  0.022200906  0.022072965            3 
 2643000   0.83880597   -7.5632653    703.14082  0.022169909   0.02206636            6 
 2644000   0.83142281   -7.5801892    702.99351  0.022156881   0.02205974            2 
 2645000   0.82202269   -7.5684108    702.93818  0.022146761   0.02205311            3 
 2646000   0.82461003    -7.624541    702.86574  0.022136109   0.02204646            5 
 2647000   0.81810187   -7.6102695    702.99644  0.022131861  0.022039829            2 
 2648000   0.82817388   -7.5752601     701.6137  0.022079988  0.022033161            3 
 2649000   0.83195438   -7.6034172    703.00002  0.022115264  0.022026503            2 
 2650000   0.83506558   -7.6190228    701.37776  0.022055904  0.022019866            2 
 2651000   0.84210255   -7.5774948     703.5599  0.022116179  0.022013248            2 
 2652000   0.82591756   -7.5592776    703.04765  0.022091744  0.022006611            2 
 2653000   0.81346193   -7.6205969    702.22777  0.022057663  0.021999942            1 
 2654000   0.82318763   -7.6256652     703.2474  0.022081368   0.02199325            2 
 2655000    0.8306635   -7.6078294    703.39828  0.022077787  0.021986562            3 
 2656000   0.83392003    -7.607667    702.53549  0.022042404  0.021979911            5 
 2657000   0.82157177   -7.6045082    702.11136  0.022020806  0.021973243            3 
 2658000   0.80673989   -7.6467678    702.51818  0.022025275  0.021966554            2 
 2659000    0.8260179   -7.6298216    703.03734  0.022033263  0.021959879            2 
 2660000   0.82451162   -7.6167711    703.24449  0.022031469  0.021953216            2 
 2661000   0.82532119    -7.580262    705.07267  0.022080442  0.021946572            1 
 2662000    0.8077519   -7.6233887    703.71849  0.022029755  0.021939948            3 
 2663000   0.81570546   -7.5991207    703.54654  0.022016102  0.021933355            2 
 2664000   0.84238682   -7.5748571    705.60495  0.022072227  0.021926785            5 
 2665000   0.84396042   -7.5930003    704.61928  0.022033123  0.021920202            2 
 2666000   0.82622177   -7.6362857    703.15621  0.021979126  0.021913606            2 
 2667000   0.81381586   -7.6200727    703.66077  0.021986651  0.021907009            2 
 2668000   0.82097795   -7.6256023    705.04165  0.022021541  0.021900427            1 
 2669000   0.79540602   -7.6329843     704.0505  0.021982344  0.021893786            2 
 2670000   0.81295265   -7.6032902    703.97456   0.02197174  0.021887149            2 
 2671000   0.81979525   -7.6130038    704.87708  0.021991672  0.021880571            4 
 2672000   0.81824033   -7.6340806    705.33143  0.021997612   0.02187395            2 
 2673000    0.8137296   -7.6260246    703.95898  0.021946595  0.021867353            1 
 2674000   0.82346188   -7.5986512    704.99619  0.021970711  0.021860792            1 
 2675000   0.85415042   -7.6177898    705.97864  0.021993104  0.021854221            3 
 2676000   0.82338604   -7.5962702    705.60846  0.021973358  0.021847655            3 
 2677000   0.81882256     -7.63749    704.84819  0.021941483   0.02184103            4 
 2678000   0.83456829   -7.6313576    706.52332  0.021985416  0.021834435            4 
 2679000    0.8281525   -7.5979793     704.9454  0.021928126  0.021827828            3 
 2680000   0.83352971   -7.6446842    703.79607  0.021884206  0.021821219            6 
 2681000   0.83292431   -7.6271615    706.83493    0.0219705  0.021814619            2 
 2682000   0.82520319    -7.656134     703.9452  0.021872521   0.02180801            3 
 2683000   0.82607509   -7.6248805     705.0773  0.021899531  0.021801405            5 
 2684000   0.82137954   -7.6520358    705.40506  0.021901548  0.021794847            2 
 2685000   0.82207773   -7.6271801    706.17812  0.021917384   0.02178831            2 
 2686000   0.80441873   -7.6126387    707.01489  0.021935185   0.02178177            5 
 2687000   0.84194129   -7.5879621    706.56854  0.021913179  0.021775236            1 
 2688000   0.80477075   -7.5952215    706.72093  0.021909751  0.021768736            3 
 2689000   0.82075022    -7.638754    707.62462  0.021929609  0.021762212            3 
 2690000   0.80680268   -7.6410125    708.17545  0.021938521  0.021755722            1 
 2691000   0.83801808   -7.5929892    708.21515  0.021931598  0.021749271            9 
 2692000   0.84518294   -7.6440105    709.51384  0.021963653  0.021742809            2 
 2693000   0.82023598   -7.6285386    706.97432  0.021876913  0.021736349            3 
 2694000   0.81140697   -7.6027698    707.13966  0.021873907  0.021729898            2 
 2695000    0.8381944   -7.6201142    708.16552  0.021897511  0.021723431            3 
 2696000    0.8339123   -7.5916122    709.15707  0.021920038  0.021717002            2 
 2697000   0.83249065   -7.6241806    708.41206  0.021888891  0.021710585            2 
 2698000   0.81196951   -7.6034348    709.85743  0.021925421  0.021704095            6 
 2699000    0.8242539   -7.6092108    707.94215  0.021858162  0.021697657            2 
 2700000   0.83714176   -7.6151589    707.82339  0.021846401  0.021691225            2 
 2701000   0.82656809   -7.6405809    707.53297  0.021829352  0.021684824            2 
 2702000   0.82405662   -7.6132821    707.16118  0.021809807  0.021678391            2 
 2703000   0.81976247   -7.6389265    709.95103  0.021887749  0.021671971            3 
 2704000    0.8099917   -7.6315782    709.47953  0.021865124  0.021665566            3 
 2705000   0.81800588    -7.620477    710.86017  0.021899574  0.021659169            2 
 2706000    0.8182953   -7.6178587    708.10344  0.021806585  0.021652764            3 
 2707000   0.82567585   -7.6668771    706.28907  0.021742676  0.021646314            3 
 2708000   0.81101344    -7.662395    708.37604  0.021798869  0.021639824            3 
 2709000   0.81287445   -7.6410947    708.31858  0.021789054  0.021633355            4 
 2710000   0.81711127   -7.6354677     709.5134  0.021817755  0.021626935            4 
 2711000   0.82343464   -7.6322494    709.45987  0.021808062  0.021620503            5 
 2712000   0.82751852    -7.638981    708.77462  0.021778964  0.021614057            3 
 2713000   0.83308986   -7.6198561    708.16948  0.021752349  0.021607609            2 
 2714000   0.82392876   -7.6337835    707.95203  0.021737658  0.021601157            4 
 2715000   0.81232479   -7.6235632    709.21529  0.021768425  0.021594685            4 
 2716000   0.83237212   -7.6713241    707.66892  0.021712964  0.021588157            2 
 2717000   0.82270469   -7.6341434     708.9932  0.021745589  0.021581664            2 
 2718000   0.81474797   -7.6133663    707.64225  0.021696169  0.021575184            2 
 2719000   0.81334258   -7.6410453    708.17732  0.021704589    0.0215687            2 
 2720000   0.81867861   -7.6296728    709.34997  0.021732536  0.021562227            2 
 2721000   0.84280645   -7.6602091    708.06859  0.021685305  0.021555733            4 
 2722000   0.81007233   -7.6191118    708.35029  0.021685963  0.021549251            3 
 2723000   0.82770796    -7.638719     708.4814  0.021682011  0.021542778            5 
 2724000   0.82373459   -7.6136813    710.66969  0.021740996  0.021536313            5 
 2725000   0.80644173   -7.6366855    708.52414  0.021667405  0.021529833            4 
 2726000   0.80910638   -7.6124999    710.29032  0.021713448   0.02152337            3 
 2727000   0.82475589   -7.6136733    713.05379  0.021789934  0.021516997            2 
 2728000   0.81928666   -7.6080428    710.07423  0.021690928  0.021510607            4 
 2729000   0.80863596   -7.6320156     709.6426    0.0216698  0.021504168            2 
 2730000   0.82178128   -7.6638639    710.68433  0.021693661  0.021497719            4 
 2731000   0.82097695   -7.6297623    710.91257  0.021692682  0.021491334            3 
 2732000   0.81365403   -7.6306271    710.78751  0.021680927  0.021484955            3 
 2733000   0.83231452   -7.6217149    711.17589  0.021684836  0.021478564            2 
 2734000   0.81072972   -7.6565055    711.58802  0.021689467  0.021472186            4 
 2735000   0.81048242   -7.6438049    709.67273  0.021623179  0.021465826            2 
 2736000   0.80578603   -7.6483379    712.33254  0.021696288  0.021459429            1 
 2737000   0.80884954   -7.6544232    710.18735  0.021623047  0.021453043            1 
 2738000   0.82549836   -7.6424092    709.88466  0.021605937  0.021446648            4 
 2739000   0.80783399   -7.6814739    712.23473  0.021669549  0.021440265            3 
 2740000   0.82756204    -7.643935    712.15193  0.021659122  0.021433902            2 
 2741000   0.80564879   -7.6434973    710.10914  0.021589114  0.021427518            3 
 2742000   0.80971303   -7.6324318    711.63586   0.02162764  0.021421163            5 
 2743000   0.81240809   -7.6478623    710.96599  0.021599404  0.021414764            3 
 2744000   0.84067523   -7.6319845    712.74283  0.021645494  0.021408387            3 
 2745000   0.80872159   -7.6175451    712.75393  0.021637946  0.021402047            3 
 2746000   0.80605686   -7.6227262    712.97797  0.021636865  0.021395704            7 
 2747000    0.8164517   -7.6168938    712.54058   0.02161572  0.021389381            3 
 2748000   0.81452933   -7.6353048    713.01665   0.02162229  0.021383042            3 
 2749000   0.81216342   -7.6367779    712.45496  0.021597398  0.021376692            3 
 2750000   0.81624656   -7.6774581    712.81536  0.021600465   0.02137034            5 
 2751000   0.80925301   -7.6665347    711.83251  0.021562841  0.021363959            4 
 2752000   0.80152804   -7.6625306    712.46183  0.021574062  0.021357557            3 
 2753000   0.82181634   -7.6711887    712.38763   0.02156398   0.02135122            2 
 2754000    0.8210069   -7.6538289    713.28847  0.021583408  0.021344882            2 
 2755000   0.81006299    -7.663477    712.46448   0.02155065  0.021338527            3 
 2756000    0.8111355     -7.64997    713.32001  0.021568699  0.021332235            5 
 2757000   0.80721492   -7.6498052    713.26842  0.021559316  0.021325942            4 
 2758000   0.80798096   -7.6420037    713.86033  0.021569384   0.02131963            4 
 2759000   0.83147407   -7.6436884    714.73859  0.021588093  0.021313355            4 
 2760000   0.81584149   -7.6135159    713.65958  0.021547693   0.02130711            2 
 2761000   0.79502776   -7.6636067    714.07214   0.02155234  0.021300861            4 
 2762000   0.80242597   -7.6234365    714.90958  0.021569804  0.021294632            5 
 2763000   0.80327928   -7.6366269    715.87045  0.021590977  0.021288427            2 
 2764000   0.80357949   -7.6387021    715.81634  0.021581535  0.021282216            2 
 2765000   0.81284216   -7.6065033    714.54115  0.021535297  0.021276033            1 
 2766000   0.82509075   -7.6696499    716.56478  0.021588478  0.021269864            2 
 2767000   0.81157609   -7.6606336     714.4927  0.021518272  0.021263671            3 
 2768000   0.79774562    -7.636284    714.94915   0.02152424  0.021257451            1 
 2769000   0.81102075   -7.6414563    715.37932  0.021529413  0.021251281            4 
 2770000   0.80458197   -7.6513289    715.98962  0.021540001  0.021245104            4 
 2771000   0.81521111   -7.6365473    717.06878  0.021564681  0.021238929            3 
 2772000   0.80297482    -7.679323    714.80859  0.021488955  0.021232711            2 
 2773000   0.81134915   -7.6300991    715.45244  0.021500554  0.021226506            4 
 2774000   0.80197215   -7.6655423    715.54074  0.021495456  0.021220291            3 
 2775000   0.81506488     -7.62006    715.96472  0.021500442  0.021214125            5 
 2776000   0.81334624   -7.6221002    716.26176  0.021501614  0.021207941            1 
 2777000   0.78577638   -7.6521806    717.31249  0.021525402  0.021201762            6 
 2778000   0.81109921   -7.6447026    716.73346  0.021500284  0.021195587            4 
 2779000   0.81343287   -7.6569148    716.36384  0.021481463  0.021189424            4 
 2780000   0.80342715    -7.628368    715.21855  0.021439405  0.021183238            3 
 2781000   0.81104563   -7.6635399    715.95181  0.021453668  0.021177072            4 
 2782000   0.79224843   -7.6652867    715.57555  0.021434686  0.021170886            4 
 2783000   0.81418573   -7.6503894    716.79496  0.021463498  0.021164721            3 
 2784000   0.79771879   -7.6436003    716.25464  0.021439614   0.02115858            2 
 2785000   0.81127366   -7.6787185    716.92379  0.021451939   0.02115241            3 
 2786000   0.81399431   -7.6716699    717.44088  0.021459706  0.021146262            2 
 2787000   0.81001645    -7.688934    717.56883  0.021455832  0.021140114            3 
 2788000   0.80767522   -7.6635741    717.77753  0.021454374  0.021134003            5 
 2789000   0.81504582   -7.6445323     718.8102  0.021477537  0.021127914            3 
 2790000   0.80984929   -7.6518337    716.24757  0.021393296  0.021121835            3 
 2791000   0.80293146   -7.6635323    717.35947   0.02141883  0.021115718            1 
 2792000   0.78783657   -7.6738935    717.92425  0.021428016  0.021109576            1 
 2793000   0.80883912   -7.6656217    718.35801  0.021433286  0.021103436            5 
 2794000   0.79078811   -7.6541408     718.0402  0.021416136  0.021097289            4 
 2795000   0.79302534   -7.6316496    718.52523  0.021422935  0.021091144            2 
 2796000   0.79486293   -7.6443988      718.383  0.021411033  0.021085005            2 
 2797000   0.80192444     -7.63849    717.55439  0.021378691  0.021078867            5 
 2798000   0.80289753   -7.6783282    718.97798  0.021413449  0.021072718            2 
 2799000   0.81456892    -7.649881    718.85108  0.021402021  0.021066586            3 
 2800000   0.79638524   -7.6596433     718.3141  0.021378396  0.021060442            3 
 2801000   0.81146125   -7.6510488    717.56739  0.021348548  0.021054301            2 
 2802000   0.80631287   -7.6634047    719.20613  0.021389666  0.021048165            5 
 2803000   0.80850563   -7.6748761    717.43577  0.021329402  0.021042011            3 
 2804000   0.79557361   -7.6711454    716.86952  0.021304967  0.021035844            5 
 2805000   0.79827915   -7.6572493    718.78518  0.021354283  0.021029676            2 
 2806000   0.81416253   -7.6924564    717.04271  0.021294925  0.021023506            4 
 2807000   0.80687022   -7.6592361    717.04169  0.021287308   0.02101733            2 
 2808000   0.78843836   -7.6948552    716.96662    0.0212775  0.021011146            2 
 2809000   0.79794632   -7.6838886    717.71845  0.021292229  0.021004987            4 
 2810000   0.80574142   -7.6568257    717.86975  0.021289138   0.02099879            2 
 2811000   0.80344994   -7.6938423    719.86558  0.021340732  0.020992591            2 
 2812000   0.79754912   -7.6496406    718.29952  0.021286733   0.02098642            3 
 2813000   0.80562928   -7.6652303    719.74818  0.021322081  0.020980241            2 
 2814000   0.80489767   -7.6835638     718.4554   0.02127622  0.020974013            3 
 2815000      0.81927   -7.6494081    718.80981  0.021279154  0.020967816            4 
 2816000   0.80078547   -7.6720273    719.23318  0.021284126  0.020961587            3 
 2817000   0.80090302   -7.6499445    718.73851  0.021261937  0.020955369            6 
 2818000   0.79465355   -7.6510194    718.83602  0.021257275  0.020949127            4 
 2819000   0.81190168   -7.6720517    717.18433  0.021200909  0.020942882            3 
 2820000   0.80764508   -7.6633351    716.21457  0.021164733  0.020936629            4 
 2821000   0.78586483   -7.6647339    717.18649  0.021185941  0.020930402            1 
 2822000    0.7983298    -7.651064    718.16265   0.02120726  0.020924197            3 
 2823000   0.80445155   -7.6797177    716.93679  0.021163561  0.020917962            2 
 2824000   0.83210643   -7.7001941    715.86624  0.021124476  0.020911712            3 
 2825000   0.79133103   -7.6832183    717.89939  0.021176973  0.020905434            6 
 2826000   0.81465966   -7.6838089    717.64739  0.021162049  0.020899185            3 
 2827000   0.80388974   -7.6899781    716.93921  0.021133687   0.02089296            2 
 2828000   0.79969108   -7.6949989    717.46838  0.021141808  0.020886752            4 
 2829000    0.7769404   -7.6855296    716.46948   0.02110491  0.020880497            1 
 2830000   0.80036066   -7.6916136    716.59455  0.021101135  0.020874248            3 
 2831000   0.80604037   -7.6528775    718.90388  0.021161659  0.020868037            4 
 2832000   0.79658029   -7.6599021    718.98505  0.021156575   0.02086184            5 
 2833000    0.7932576   -7.6819078    716.90304  0.021087864  0.020855636            4 
 2834000    0.8144389    -7.676405    718.31067  0.021121815  0.020849441            6 
 2835000   0.78681777   -7.7062435    719.60998  0.021152557  0.020843206            2 
 2836000   0.79748186   -7.6923504    717.62158  0.021086671  0.020836962            2 
 2837000    0.7996061   -7.7052499    717.94946  0.021088869  0.020830711            2 
 2838000   0.82310713   -7.7069952    718.67254   0.02110267  0.020824471            1 
 2839000   0.78965977   -7.6785618    717.12441  0.021049795  0.020818225            3 
 2840000   0.80349011   -7.6868662    718.09942  0.021070992  0.020811986            1 
 2841000    0.7909956   -7.6481846      719.877  0.021115716  0.020805776            2 
 2842000   0.81340819   -7.6534071    717.48706  0.021038208   0.02079961            3 
 2843000   0.80842106   -7.6622408     718.4583  0.021059277  0.020793443            2 
 2844000   0.80538241   -7.6557314    718.61617  0.021056498  0.020787286            3 
 2845000   0.78060746   -7.6732404    719.45677  0.021073719  0.020781116            3 
 2846000   0.79529667   -7.6699575    719.41819  0.021065185  0.020774913            3 
 2847000   0.78882185   -7.6966293    718.10184  0.021019255    0.0207687            3 
 2848000   0.80810383   -7.6734614    719.15751  0.021042764  0.020762525            3 
 2849000   0.78585482   -7.6408912    718.39593  0.021013102  0.020756332            3 
 2850000   0.80297467   -7.6723833    718.44159  0.021007064  0.020750133            3 
 2851000   0.79229164   -7.6638109    718.99678  0.021015924  0.020743916            2 
 2852000   0.79785125   -7.6560141    719.76528   0.02103101  0.020737719            4 
 2853000   0.80077593   -7.6709901    717.98995  0.020971783  0.020731526            4 
 2854000    0.8095005   -7.7097736    718.47518  0.020978603  0.020725316            4 
 2855000   0.78010852   -7.6780719    717.70791  0.020948859  0.020719055            3 
 2856000   0.80785356   -7.6799643    716.83071  0.020915929  0.020712771            3 
 2857000   0.79977925   -7.6855559    720.31326  0.021010187  0.020706519            4 
 2858000   0.78157121   -7.6948671    717.34677  0.020916339   0.02070027            4 
 2859000   0.79823407   -7.6577533    719.19833  0.020962992  0.020694054            3 
 2860000   0.78659162   -7.6944989    719.19321  0.020955513  0.020687838            3 
 2861000   0.81206833   -7.6642763    719.30951  0.020951576  0.020681597            4 
 2862000   0.80947154   -7.6807582    716.81073  0.020871498  0.020675385            3 
 2863000   0.79597929    -7.667491    717.72986  0.020890961  0.020669137            1 
 2864000   0.78981153   -7.6894811    717.17098  0.020867405  0.020662903            2 
 2865000   0.79807308   -7.6854396    718.32925  0.020893812  0.020656657            3 
 2866000    0.8031631   -7.6623367    718.93914  0.020904255  0.020650409            1 
 2867000   0.79116393   -7.7107141    717.15152  0.020845004   0.02064416            4 
 2868000   0.80111987   -7.6823699    718.70523  0.020882881  0.020637919            3 
 2869000   0.79471279   -7.6877463    717.76406  0.020848265  0.020631655            6 
 2870000   0.78649701   -7.6926326    719.13201   0.02088072  0.020625371            3 
 2871000   0.78238588   -7.6832389    719.40084   0.02088125   0.02061911            2 
 2872000   0.79742403   -7.6973355    716.89144  0.020801168  0.020612844            1 
 2873000   0.78183079   -7.7013612    718.30065  0.020834803  0.020606555            2 
 2874000   0.80182562   -7.7079246    719.34691   0.02085789  0.020600257            3 
 2875000   0.80032322   -7.6773275    720.18577   0.02087495  0.020594012            4 
 2876000   0.79698197   -7.6863387    718.77315   0.02082676  0.020587722            3 
 2877000   0.79259701   -7.6999867    718.71243  0.020817762  0.020581427            1 
 2878000   0.79587417   -7.7120605     719.0225  0.020819507  0.020575155            3 
 2879000   0.79912865   -7.7159061    718.72983  0.020803804  0.020568916            5 
 2880000   0.77324127   -7.6822654      718.002  0.020775521  0.020562677            3 
 2881000   0.78961359   -7.6900366     719.3199   0.02080643  0.020556443            4 
 2882000   0.80509223   -7.6839055    719.13882  0.020793975  0.020550201            2 
 2883000   0.78493481   -7.6826385    719.16827  0.020787613  0.020543966            4 
 2884000   0.79574772   -7.6845591    720.05611   0.02080606  0.020537762            1 
 2885000   0.76255389   -7.6970109    719.22394   0.02077481  0.020531531            3 
 2886000   0.78396204   -7.6434779    721.21655  0.020825149   0.02052532            2 
 2887000    0.7834034   -7.6691088    721.33945  0.020821483  0.020519189            2 
 2888000   0.77862355   -7.6662908    720.01232  0.020775979  0.020513005            2 
 2889000   0.78611475   -7.6680857    719.13996  0.020743624  0.020506808            3 
 2890000   0.79372483   -7.7019515    720.15373  0.020765678  0.020500588            2 
 2891000    0.7948084   -7.6793587    719.62271  0.020743189  0.020494418            2 
 2892000   0.78680294    -7.669548    720.56669  0.020763217  0.020488268            4 
 2893000   0.78512567   -7.6914165    721.32504  0.020777885  0.020482116            2 
 2894000   0.79513021   -7.6988325    721.51128  0.020776068   0.02047596            2 
 2895000   0.78089907   -7.6785835     722.4746  0.020796621  0.020469826            9 
 2896000   0.78135026   -7.6899285    719.66576  0.020708614  0.020463693            3 
 2897000   0.77664132    -7.673178     720.5686  0.020727436  0.020457568            4 
 2898000   0.78948095   -7.6681145    721.92705  0.020759347  0.020451404            3 
 2899000   0.78507209   -7.6877021    719.07839    0.0206703  0.020445216            3 
 2900000   0.81216664   -7.6853365     721.9192  0.020744805  0.020439014            2 
 2901000   0.78205689   -7.6681468    721.85282  0.020735747   0.02043283            3 
 2902000   0.79191794   -7.6636209    721.40547  0.020715756  0.020426622            3 
 2903000   0.77852649   -7.6783902    720.24718   0.02067537   0.02042041            5 
 2904000   0.77089191   -7.6770729    721.22472  0.020696302  0.020414198            5 
 2905000   0.78590715   -7.6565313    721.31596  0.020691795  0.020407988            6 
 2906000   0.77695546    -7.725188    721.37859   0.02068647    0.0204018            4 
 2907000   0.77320861   -7.6719543    723.00984  0.020726116  0.020395617            2 
 2908000   0.78080617    -7.683185    721.15504  0.020665837  0.020389406            3 
 2909000   0.79613203   -7.7095078    721.70785  0.020674569  0.020383208            2 
 2910000   0.78283138   -7.6548976    723.37017  0.020715068   0.02037703            1 
 2911000   0.77665971    -7.712379    722.15994  0.020673306  0.020370882            2 
 2912000   0.79310856    -7.719371    722.18131  0.020666819  0.020364686            4 
 2913000   0.80128258   -7.6780274    722.37172  0.020665171  0.020358523            2 
 2914000   0.79065821   -7.7067882    721.61318  0.020636387  0.020352378            3 
 2915000   0.78725845    -7.706642     722.9068  0.020666289  0.020346207            2 
 2916000   0.78584655   -7.6897853    722.34192  0.020643059  0.020340036            4 
 2917000   0.78305212   -7.7412702    720.19016   0.02057451  0.020333857            3 
 2918000   0.79425341   -7.7114076    721.89047  0.020616018  0.020327653            3 
 2919000   0.77467451   -7.7017373    721.09515   0.02058625  0.020321451            5 
 2920000   0.78601146   -7.7005742    720.21962  0.020554213  0.020315263            2 
 2921000   0.78855609   -7.6680647     722.5485  0.020613617  0.020309126            2 
 2922000   0.78548261   -7.7048399    721.54348    0.0205779  0.020302978            5 
 2923000   0.78615752   -7.7053157    721.46898  0.020568736  0.020296854            3 
 2924000    0.7965901   -7.7040093    722.45649  0.020589845  0.020290673            2 
 2925000   0.79762955    -7.704198    722.78435  0.020592147  0.020284518            3 
 2926000   0.77733348   -7.6740082    723.87232  0.020616095  0.020278397            2 
 2927000   0.78805943     -7.69558    722.04923  0.020557147  0.020272272            2 
 2928000   0.76050291   -7.7086136    722.77368  0.020570744  0.020266124            2 
 2929000   0.78830496   -7.6954131    722.92026  0.020567892  0.020259961            3 
 2930000    0.7843307   -7.7079376    721.70238  0.020526234  0.020253823            3 
 2931000   0.77489152   -7.7118869    723.89412  0.020581546  0.020247712            5 
 2932000   0.79517721   -7.7055177    723.54697  0.020564659  0.020241592            6 
 2933000   0.77685717   -7.6821975    720.98714  0.020484917  0.020235477            3 
 2934000   0.79053327   -7.7154676    722.57643  0.020523075  0.020229356            2 
 2935000     0.778669   -7.7043498    723.11813  0.020531463   0.02022322            3 
 2936000   0.77996639   -7.7389438    722.25262  0.020499904  0.020217091            3 
 2937000   0.78094743   -7.6932489    723.11983   0.02051753  0.020210961            3 
 2938000   0.79934267   -7.7305199      723.361  0.020517387   0.02020483            4 
 2939000   0.78275407   -7.7359142    720.67379  0.020434212  0.020198681            3 
 2940000   0.77044886   -7.7164325    722.17667   0.02046986   0.02019251            4 
 2941000   0.77996788   -7.7220916    723.09929  0.020489042  0.020186376            3 
 2942000   0.79149811   -7.7678413    723.75186  0.020500563  0.020180215            3 
 2943000   0.78596423   -7.7472112    722.69819  0.020463761  0.020174054            5 
 2944000   0.79136778   -7.7497967    720.30046   0.02038894  0.020167896            2 
 2945000   0.76769648   -7.7458181    724.18124  0.020491829  0.020161759            3 
 2946000   0.80767192   -7.7141335    721.97428  0.020422445  0.020155645            4 
 2947000   0.79453798   -7.7077327    723.50099  0.020458686  0.020149519            3 
 2948000   0.77724651   -7.7347334    722.54157  0.020424626  0.020143381            3 
 2949000   0.76545464   -7.7171738    725.12364  0.020490665  0.020137218            2 
 2950000   0.79284515   -7.7036778    723.21402  0.020429774  0.020131096            2 
 2951000    0.7935449   -7.7180472    721.44119  0.020372789  0.020124933            2 
 2952000   0.79474053   -7.7448134    722.50174  0.020395826  0.020118778            8 
 2953000   0.76717875   -7.7214837    723.59893  0.020419882  0.020112649            3 
 2954000   0.79121596   -7.7237173    722.71568  0.020388052  0.020106494            2 
 2955000   0.78056248   -7.7470612    722.91936  0.020386897  0.020100346            3 
 2956000   0.78176263   -7.7245174    723.50002  0.020396369  0.020094182            3 
 2957000   0.78797114   -7.7431463    723.95337  0.020402248  0.020087988            7 
 2958000   0.76184571   -7.7131248    724.18031  0.020401744  0.020081796            3 
 2959000   0.78683995   -7.7390883    723.16954  0.020366383  0.020075625            8 
 2960000   0.76904173   -7.7249248    722.65241  0.020344944  0.020069455            2 
 2961000   0.77747937     -7.74389    722.85487  0.020343771  0.020063279            2 
 2962000   0.76926606   -7.7389491     721.7206  0.020304991  0.020057117            2 
 2963000   0.77365456   -7.6955587    722.00494  0.020306135  0.020050935            2 
 2964000   0.77921049   -7.6849306    723.98215  0.020354874  0.020044802            2 
 2965000   0.78204973    -7.732148    723.82521  0.020343598  0.020038657            4 
 2966000   0.78827014   -7.7052918    725.14853  0.020373919  0.020032522            3 
 2967000   0.78575651   -7.7172844    724.70147  0.020354496  0.020026402            5 
 2968000   0.78424777   -7.7243393    722.14012  0.020275722   0.02002028            1 
 2969000   0.80292931   -7.7359093    723.31518  0.020301874  0.020014132            2 
 2970000    0.7812708   -7.6946407    723.40916  0.020297676  0.020007993            2 
 2971000   0.78641218   -7.7282201    723.23346  0.020285915  0.020001838            1 
 2972000   0.79236356   -7.7279603    722.78718  0.020266576   0.01999572            4 
 2973000   0.77798398   -7.7286368    723.49999   0.02027974  0.019989588            3 
 2974000   0.78007183   -7.7017359    725.00459   0.02031508  0.019983458            4 
 2975000   0.77071002   -7.7057159    723.48362  0.020265648  0.019977314            1 
 2976000   0.78687659   -7.7466668    724.54736  0.020288625   0.01997121            6 
 2977000   0.77107324   -7.7356648    724.24558  0.020273362  0.019965068            3 
 2978000   0.77601002   -7.7394094    722.64782  0.020221844  0.019958942            5 
 2979000   0.76484874    -7.737057    724.01138    0.0202532   0.01995278            5 
 2980000   0.78433156   -7.7543896    722.70295  0.020209814  0.019946634            5 
 2981000   0.77373986   -7.7490894    726.27044  0.020302763  0.019940486            1 
 2982000   0.77733736   -7.7264266    724.88823  0.020257328  0.019934333            2 
 2983000   0.78077629   -7.7559695    723.30001  0.020206169  0.019928164            5 
 2984000   0.77330035   -7.7474597    721.79695  0.020157421   0.01992198            4 
 2985000   0.78127623    -7.694303    725.28938  0.020248168  0.019915857            4 
 2986000   0.76995154   -7.7501457    723.07728  0.020179652  0.019909702            2 
 2987000   0.77721001   -7.7323026    723.61112  0.020187789  0.019903532            2 
 2988000   0.77747894   -7.7391168    721.78623  0.020130138   0.01989738            3 
 2989000   0.77538979   -7.7463435    724.87244  0.020209447  0.019891207            2 
 2990000   0.78648497   -7.7683127    723.71105  0.020170319  0.019885026            3 
 2991000   0.76776974   -7.7396897    723.13043  0.020147398  0.019878848            6 
 2992000   0.77303178   -7.7410586    725.01369  0.020193118  0.019872735            2 
 2993000   0.76643788   -7.7059884    724.24258  0.020164901  0.019866602            2 
 2994000   0.77015855   -7.7384072    725.53076   0.02019402  0.019860472            2 
 2995000   0.78825579   -7.7140425    723.73412  0.020137288   0.01985433            2 
 2996000   0.76703392   -7.7331726    724.04907  0.020139326  0.019848193            2 
 2997000   0.76301651   -7.7543245    724.62992  0.020148758  0.019842029            3 
 2998000    0.7578885   -7.7503766    723.92138  0.020122342  0.019835869            2 
 2999000   0.78248959   -7.7421976    723.67279  0.020108725  0.019829705            5 
 3000000    0.7814846   -7.7289148    723.29848  0.020091624  0.019823524            3 
 3001000   0.78392796   -7.7044867    723.54222  0.020091698  0.019817368            2 
 3002000   0.77459433   -7.7322968    724.41547  0.020109246  0.019811215            2 
 3003000   0.76264699   -7.7421553    723.60443  0.020080043  0.019805057            2 
 3004000   0.78322553   -7.7282312    724.45058  0.020096831  0.019798894            7 
 3005000   0.77747124   -7.7419599    724.26063  0.020084876  0.019792731            2 
 3006000   0.78088691   -7.7457599    723.19834  0.020048745  0.019786557            1 
 3007000   0.78592991   -7.7452965     722.2879  0.020016847  0.019780381            3 
 3008000   0.77512303   -7.7701728    722.07483  0.020004289  0.019774157            2 
 3009000   0.77070293   -7.7587025    722.98819  0.020022936  0.019767948            2 
 3010000   0.76589248   -7.7517403    722.80266  0.020011148  0.019761764            5 
 3011000   0.78576819   -7.7616779    721.89585  0.019979405  0.019755557            4 
 3012000   0.76696554   -7.7702762     722.9045  0.020000678  0.019749343            2 
 3013000   0.74201655   -7.7537527    722.91736  0.019994395  0.019743102            4 
 3014000   0.77731812    -7.748399    722.04676  0.019963691   0.01973689            4 
 3015000   0.76611903   -7.7565697    724.34797  0.020020674  0.019730665            4 
 3016000   0.76418926   -7.7399684    722.28958  0.019957161  0.019724463            2 
 3017000   0.76608732   -7.7677699     724.3802  0.020008292  0.019718244            2 
 3018000   0.75192161   -7.7662203    722.95009  0.019962174  0.019712026            2 
 3019000   0.77961482   -7.7717213     722.9869  0.019956578  0.019705825            3 
 3020000   0.75429543   -7.7623418    724.15394  0.019982173  0.019699616            2 
 3021000    0.7670384   -7.7587329    723.46987  0.019956688  0.019693392            4 
 3022000   0.78580968   -7.7578277    722.66335  0.019927844  0.019687187            3 
 3023000   0.77382248   -7.7527991    724.06526  0.019959898  0.019681014            6 
 3024000   0.78356426   -7.7591846    723.82639  0.019946715  0.019674846            3 
 3025000   0.77714064   -7.7406858    722.89704  0.019914519  0.019668697            1 
 3026000   0.76895095   -7.7908102     723.8247  0.019933485  0.019662514            3 
 3027000   0.76575774   -7.7559709    723.92957  0.019929787  0.019656337            8 
 3028000    0.7725545   -7.7631157    724.14354  0.019929093    0.0196502            5 
 3029000   0.75851884   -7.7329408    725.15301  0.019950286  0.019644063            3 
 3030000   0.74212678   -7.7231808    726.04388  0.019968204  0.019637941            4 
 3031000   0.76467777   -7.7890429    723.07584  0.019880013  0.019631824            2 
 3032000   0.77699814   -7.7811351    723.72694  0.019891352  0.019625672            2 
 3033000   0.76330477   -7.7554854    723.87419  0.019888839  0.019619503            2 
 3034000   0.77468235   -7.7657307    724.26113  0.019892912  0.019613363            3 
 3035000   0.76270421   -7.7491699     723.8178  0.019874185  0.019607224            1 
 3036000    0.7651505   -7.7520398    724.30474  0.019881004  0.019601085            4 
 3037000   0.76058244   -7.7591288    725.96406  0.019919988  0.019594954            5 
 3038000   0.77381361   -7.7715598    725.86958   0.01991084  0.019588838            4 
 3039000   0.76703942   -7.7482715    725.71161  0.019899957  0.019582748            2 
 3040000   0.76310898   -7.7486789    724.52703  0.019860938  0.019576635            9 
 3041000    0.7775396   -7.7537132    725.53438  0.019882012  0.019570525            2 
 3042000   0.76402872   -7.7501259    723.35167  0.019815682  0.019564396            3 
 3043000   0.76216788   -7.7448435    725.09742  0.019856978  0.019558281            3 
 3044000   0.77059205    -7.751536    725.32321  0.019856636  0.019552161            5 
 3045000    0.7684688   -7.7891137    725.49462  0.019854806  0.019546042            4 
 3046000   0.77282646   -7.7360558    725.74472   0.01985513  0.019539927            4 
 3047000    0.7419283   -7.7492762    725.02049  0.019828807  0.019533814            3 
 3048000   0.75433069   -7.7473501    725.62676  0.019838877  0.019527735            1 
 3049000    0.7654382   -7.7625494    726.18906  0.019847739  0.019521634            4 
 3050000   0.74583892   -7.7811569    725.85213  0.019832025  0.019515558            4 
 3051000   0.75530439   -7.7525843    724.03351  0.019775853  0.019509473            4 
 3052000   0.76355992   -7.7753284    726.72111  0.019842756  0.019503391            4 
 3053000   0.76863911   -7.7186365    726.50273  0.019830296  0.019497338            3 
 3054000   0.75322016   -7.7157333     726.2284  0.019816317  0.019491305            2 
 3055000   0.75806298   -7.7332672    728.65631  0.019876059  0.019485271            1 
 3056000   0.76256304   -7.7486206    728.06632  0.019853467  0.019479258            2 
 3057000   0.75786521   -7.7533089    726.84417  0.019813656  0.019473247            5 
 3058000   0.75740423   -7.7372692    728.59451  0.019854875  0.019467245            4 
 3059000   0.76783235   -7.7750883    726.30799  0.019786095  0.019461212            3 
 3060000   0.75149268    -7.742344     727.1835  0.019803472  0.019455202            3 
 3061000   0.76663425   -7.7447092    726.33641  0.019773941  0.019449178            2 
 3062000   0.76296133   -7.7606431    725.97558  0.019757663  0.019443153            2 
 3063000   0.76832178   -7.7846569    726.35648  0.019761576  0.019437129            5 
 3064000   0.75777212   -7.7822144    726.47557  0.019758365  0.019431089            3 
 3065000   0.74768198   -7.7651521    726.78635  0.019760368  0.019425041            1 
 3066000    0.7627331   -7.7656242    727.90069  0.019784211  0.019419016            2 
 3067000   0.75857125   -7.7546139    727.45747  0.019765717  0.019413001            4 
 3068000   0.76454758    -7.757934    727.45659  0.019759251  0.019406996            2 
 3069000   0.76754613      -7.7543    729.38061  0.019805056  0.019401025            3 
 3070000   0.77624994   -7.7685896    728.60124   0.01977745  0.019395022            4 
 3071000    0.7461322   -7.7709658    726.11725  0.019703605  0.019389013            1 
 3072000   0.78501709   -7.7645359    728.57928  0.019763978  0.019383009            6 
 3073000   0.76580009   -7.7518375     727.3825  0.019725092  0.019377005            4 
 3074000   0.76468272   -7.7647439    727.28171  0.019715943  0.019370989            3 
 3075000   0.73917678   -7.7713193    727.70024  0.019720874  0.019364961            2 
 3076000   0.76625642   -7.7729605    728.19157  0.019727773  0.019358935            3 
 3077000   0.74743524   -7.7814284    725.98582  0.019661624  0.019352886            6 
 3078000   0.78027442   -7.7806912    728.80233   0.01973149  0.019346849            3 
 3079000   0.77264653   -7.7662727    726.98718  0.019675955  0.019340831            5 
 3080000   0.75546022   -7.7606389    727.78708  0.019691209  0.019334825            4 
 3081000   0.74492685   -7.7448938    728.83283  0.019713103  0.019328814            5 
 3082000   0.75228721   -7.7321154     727.7306  0.019676903  0.019322808            2 
 3083000   0.76855731   -7.7595565    727.28926  0.019658592  0.019316815            2 
 3084000    0.7352307   -7.7750076    726.90646  0.019641874  0.019310792            3 
 3085000   0.75325565   -7.7595114    726.83064  0.019633459  0.019304781            3 
 3086000    0.7570189   -7.7512461    727.72845  0.019651341  0.019298771            3 
 3087000   0.74179456   -7.7845321    728.11433  0.019655392  0.019292764            2 
 3088000   0.77252162   -7.7568438    728.23517  0.019652288  0.019286726            2 
 3089000   0.74068865   -7.7889155    727.06629  0.019614392  0.019280703            2 
 3090000   0.75761566   -7.7659516    727.85708  0.019629371  0.019274672            5 
 3091000    0.7730308   -7.7745017    727.97301  0.019626146  0.019268649            4 
 3092000   0.76970181   -7.7662127    727.06501  0.019595327  0.019262627            4 
 3093000   0.77404026   -7.7583514    728.80011  0.019635739  0.019256623            3 
 3094000   0.75940473   -7.7706354    729.42638  0.019646261  0.019250643            3 
 3095000   0.74316489   -7.7689981    727.73754  0.019594441  0.019244641            4 
 3096000     0.765992   -7.7712659    727.56455  0.019583456  0.019238636            2 
 3097000   0.75922654   -7.7609541     726.7575  0.019555416  0.019232654            5 
 3098000   0.75449055   -7.7707708    728.28609  0.019590222  0.019226665            5 
 3099000   0.75719038   -7.7614909    727.71551  0.019568557  0.019220672            4 
 3100000   0.76770372   -7.7469079    727.82546    0.0195652  0.019214681            6 
 3101000   0.76418062   -7.7718753    728.04845  0.019564884  0.019208703            3 
 3102000   0.77368659   -7.7609793    726.73039  0.019523168  0.019202747            2 
 3103000   0.74866024   -7.7417002    727.48597  0.019537167  0.019196771            7 
 3104000   0.75466699   -7.7810761    727.65281  0.019535353   0.01919077            8 
 3105000   0.77497961   -7.7470809     727.6694  0.019529506  0.019184792            6 
 3106000   0.73316898   -7.7790037    729.13667  0.019562585  0.019178828            6 
 3107000   0.75152142   -7.7574891    729.11808   0.01955579  0.019172858            2 
 3108000   0.74538874   -7.7464251    729.12983  0.019549813  0.019166898            3 
 3109000   0.75757253   -7.7512004    727.92592  0.019511255  0.019160957            4 
 3110000   0.76132517   -7.7807449    726.94584   0.01947872  0.019154983            2 
 3111000   0.74632884   -7.7593399     727.4053  0.019484767  0.019149023            3 
 3112000   0.73892336   -7.7873784    727.04629  0.019468892  0.019143043            3 
 3113000   0.76197823   -7.7768797    728.79588  0.019509473  0.019137053            3 
 3114000   0.74744803   -7.7831947    727.44152  0.019466964  0.019131053            4 
 3115000   0.73647007   -7.7982593    726.88675  0.019445874  0.019125058            5 
 3116000   0.75705906   -7.8029391    727.50475   0.01945616   0.01911906            3 
 3117000   0.74530693   -7.8021732    727.53344  0.019450685  0.019113067            2 
 3118000   0.75388175   -7.7990607    729.16212  0.019487976  0.019107115            2 
 3119000   0.77120607   -7.7928295     728.8224  0.019472651  0.019101163            4 
 3120000   0.75878491   -7.8011651    728.48156  0.019457307  0.019095191            5 
 3121000   0.76280653   -7.7600865    728.61445  0.019454621  0.019089224            2 
 3122000   0.76052041   -7.8016642    727.35319  0.019414723  0.019083241            3 
 3123000   0.76248126   -7.7779638    728.40683  0.019436622  0.019077275            2 
 3124000   0.74563968   -7.7842466    727.82198  0.019414799  0.019071307            4 
 3125000   0.75852849   -7.8051781    729.12003  0.019443201  0.019065324            5 
 3126000   0.76577749     -7.80913     728.1181  0.019410271  0.019059325            6 
 3127000   0.74926004   -7.7846049    728.28823  0.019408598   0.01905335            9 
 3128000    0.7600577    -7.793133    727.91177  0.019392364  0.019047368            3 
 3129000   0.75982964   -7.8147377    728.31394  0.019396877  0.019041388            2 
 3130000   0.73159555    -7.813935    727.19777  0.019360963  0.019035386            3 
 3131000   0.75294112   -7.7718444    728.69187  0.019394546   0.01902939            4 
 3132000    0.7450681   -7.8107987    727.28726  0.019350981  0.019023411            3 
 3133000   0.75447693   -7.7978451    728.19221  0.019368875  0.019017451            2 
 3134000   0.74484868   -7.7915053    729.98029   0.01941024    0.0190115            3 
 3135000   0.75476004   -7.8128208     729.0045   0.01937811  0.019005564            4 
 3136000   0.74908453    -7.794637    730.85407   0.01942108  0.018999641            8 
 3137000   0.73823859   -7.7944677    729.73967  0.019385285  0.018993698            1 
 3138000   0.74353845   -7.7820679    730.43761  0.019397642  0.018987765            2 
 3139000   0.74042768   -7.7859241    729.41051  0.019364195  0.018981833            3 
 3140000   0.75941085   -7.7738133    730.41944  0.019384805  0.018975914            3 
 3141000   0.75923947   -7.7976113    729.40262  0.019351656  0.018969979            3 
 3142000   0.74957454    -7.779012    730.76822  0.019381716  0.018964042            4 
 3143000   0.75066742   -7.7767719    730.69653  0.019373649  0.018958138            6 
 3144000   0.74771579   -7.7424825     730.6765  0.019366956  0.018952219            2 
 3145000   0.73064402   -7.7945647     730.5459  0.019357337  0.018946311            1 
 3146000   0.74872603   -7.7881684    729.81617  0.019331854  0.018940395            5 
 3147000   0.75279213   -7.8017773    728.94379  0.019302611  0.018934487            2 
 3148000   0.75211634   -7.7993785    729.04543   0.01929917  0.018928572            5 
 3149000   0.73671078   -7.8033712     729.0314   0.01929267  0.018922661            2 
 3150000   0.75842083   -7.7622758    731.90164  0.019362477  0.018916775            7 
 3151000   0.75520809   -7.8084701    730.61124  0.019322206  0.018910891            2 
 3152000   0.73763735   -7.7611559    730.46454  0.019312197  0.018905009            4 
 3153000   0.73924924   -7.7961577    729.59421  0.019283069  0.018899108            6 
 3154000   0.75613831   -7.8158158    728.86224  0.019257616  0.018893197            4 
 3155000   0.76638671   -7.7665657    731.23103  0.019314079  0.018887318            2 
 3156000   0.73391342    -7.798921    730.30652  0.019283548  0.018881433            3 
 3157000   0.75506965   -7.8004556    729.57892  0.019258234  0.018875542            5 
 3158000   0.73927466   -7.8059681    729.29673  0.019244689   0.01886965            7 
 3159000   0.74473888   -7.7878339    731.43514  0.019295007  0.018863772           12 
 3160000   0.73940582   -7.8074062    729.26892  0.019231775  0.018857895            2 
 3161000    0.7450199   -7.8345985    729.47893  0.019231228  0.018851994            6 
 3162000   0.74016394   -7.8138058    730.35169  0.019248147  0.018846085            5 
 3163000   0.75234301   -7.7993794    732.37373  0.019295335  0.018840191            4 
 3164000   0.76070528   -7.8027664    729.88244  0.019223621  0.018834296            3 
 3165000   0.73638294   -7.8165724    730.33351  0.019229424  0.018828391            5 
 3166000   0.73926074   -7.8005485    729.86067  0.019210904  0.018822482            6 
 3167000   0.75632875   -7.7927777     730.7462  0.019228139  0.018816588            5 
 3168000   0.74253104    -7.799649    729.94328  0.019200949  0.018810706            4 
 3169000   0.73301076   -7.8178873    730.83199   0.01921826  0.018804819            2 
 3170000   0.73657266   -7.7873423    731.80974  0.019237901  0.018798945            4 
 3171000   0.73472933   -7.8084878      730.812  0.019205613   0.01879308            8 
 3172000   0.74699592   -7.8048607    730.20895  0.019183716   0.01878718            3 
 3173000   0.74431791   -7.8117246    730.68534  0.019190181  0.018781282            4 
 3174000   0.74918092   -7.8168375    730.68975  0.019184251  0.018775405            2 
 3175000   0.75187514   -7.8094762     730.5127  0.019173562  0.018769523            4 
 3176000    0.7332944   -7.8179307    731.05617  0.019181784  0.018763676            2 
 3177000   0.75352967   -7.8172241    730.69578  0.019166294  0.018757817            2 
 3178000   0.74262629   -7.7988928    730.48634  0.019154771  0.018751947            4 
 3179000   0.73971948   -7.8164598    732.25054  0.019194992  0.018746088            3 
 3180000   0.73234347   -7.8077859    731.23512  0.019162346  0.018740225            5 
 3181000   0.73231616   -7.8066244    731.01583  0.019150577  0.018734367            2 
 3182000   0.74952163   -7.8233623    732.19438  0.019175424  0.018728499            2 
 3183000   0.74585674   -7.8103981     730.9453  0.019136698  0.018722635            3 
 3184000   0.74444646   -7.8043399    731.63378  0.019148706  0.018716763            1 
 3185000   0.73171888   -7.7956282    732.38452  0.019162337  0.018710931            3 
 3186000   0.74042998   -7.7989422    732.82092  0.019167737  0.018705109            3 
 3187000   0.72256197   -7.8047905      731.144  0.019117875  0.018699266            4 
 3188000   0.75209605   -7.8105481    732.09521  0.019136742  0.018693413            3 
 3189000   0.73668803   -7.8158852    731.66294  0.019119445  0.018687576            4 
 3190000   0.74360237   -7.7843347    731.97826  0.019121689  0.018681736            3 
 3191000   0.74082446   -7.8125173    731.68853   0.01910813  0.018675939            5 
 3192000   0.74888402   -7.8241473    732.25904  0.019117038  0.018670119            4 
 3193000   0.73662976   -7.8191588    729.96857  0.019051273  0.018664275            3 
 3194000   0.73678767   -7.8081259    732.11207  0.019101233  0.018658407            3 
 3195000   0.73126682   -7.8130455     729.4799  0.019026601  0.018652551            3 
 3196000   0.74245844   -7.8064524    731.75717  0.019080026  0.018646681            3 
 3197000   0.74733284   -7.8337137    729.20201  0.019007455  0.018640816            6 
 3198000   0.72795746   -7.8239791    731.51158  0.019061694  0.018634951            3 
 3199000   0.74435847   -7.8390241    730.06212  0.019017978  0.018629089            7 
 3200000   0.73143368   -7.8281166    731.17993  0.019041144  0.018623221            3 
 3201000   0.74537173   -7.8050195     731.8677    0.0190531  0.018617354            3 
 3202000   0.76348633   -7.8098405    730.93849  0.019022967  0.018611515            2 
 3203000   0.72255764   -7.8396346    730.30925  0.019000657  0.018605676            6 
 3204000   0.73853843   -7.8000591    731.13148  0.019016112   0.01859982            3 
 3205000   0.74160793    -7.826522    732.54365  0.019046897  0.018593977            2 
 3206000   0.73670085   -7.8134095    732.64911  0.019043697  0.018588136            2 
 3207000    0.7298709   -7.8233132    732.27127  0.019027941  0.018582292            4 
 3208000   0.74858099   -7.7954369    730.97902  0.018988441  0.018576456            2 
 3209000    0.7360338   -7.8055163     731.4996  0.018996042  0.018570624            3 
 3210000    0.7356707   -7.8277666    731.59406  0.018992577  0.018564794            1 
 3211000   0.73405171   -7.8016477    732.36663  0.019006712  0.018558971            2 
 3212000   0.74316723   -7.8147364    731.48377   0.01897789  0.018553149            1 
 3213000   0.74866117   -7.8281809    733.53037  0.019025064  0.018547353            5 
 3214000    0.7449794   -7.8369832     732.7062  0.018997775   0.01854156            1 
 3215000   0.74676219   -7.8257088    732.56806  0.018988286  0.018535775            1 
 3216000    0.7223675   -7.8078416    731.78848  0.018962181  0.018529988           11 
 3217000   0.73060447   -7.7872453    731.81823  0.018957057    0.0185242            5 
 3218000    0.7582702   -7.8226469    733.29376  0.018989376  0.018518409            6 
 3219000   0.75344755   -7.8122463    734.34957   0.01901081  0.018512609            2 
 3220000   0.73897261   -7.8094556    732.16149  0.018948279  0.018506828            2 
 3221000   0.71965345   -7.7986979    732.13224  0.018941639  0.018501048            3 
 3222000   0.74616026   -7.8418502    731.09121  0.018908835  0.018495252            3 
 3223000    0.7300331   -7.8292424    732.14428  0.018930197  0.018489466            3 
 3224000   0.72264986   -7.8417711    731.05059  0.018896055  0.018483672            3 
 3225000   0.73005818   -7.8108029    733.18916  0.018945456  0.018477864            2 
 3226000   0.74506337   -7.8232175    732.62767  0.018925079  0.018472061            6 
 3227000   0.74390413   -7.8368039    732.08307  0.018905151  0.018466253            3 
 3228000   0.72581864   -7.8116275      731.936  0.018895498  0.018460429            3 
 3229000   0.73014257   -7.8226975    733.66248  0.018934203  0.018454615            6 
 3230000   0.74177759   -7.8540094    730.59454  0.018849188  0.018448801            5 
 3231000   0.73569994   -7.8304639    732.70197  0.018897709  0.018442975            3 
 3232000   0.73109822   -7.8476829    731.67949  0.018865498  0.018437136            3 
 3233000   0.74796133   -7.8287651    731.78959  0.018862501  0.018431313            3 
 3234000   0.73715197   -7.8360144    732.92894  0.018886027  0.018425503            3 
 3235000   0.73109321   -7.8538846    730.98572  0.018830132  0.018419684            6 
 3236000   0.73264171   -7.8362527    732.91714  0.018874051  0.018413846            3 
 3237000   0.73100994   -7.8393879    731.40647  0.018829329  0.018408042            5 
 3238000   0.73853917    -7.834247    732.36425  0.018848164  0.018402211            2 
 3239000    0.7368453   -7.8203906     731.6094  0.018822924  0.018396385            3 
 3240000   0.73524191   -7.8511202    732.94751  0.018851531  0.018390552            2 
 3241000   0.73832226   -7.8353049    732.10114  0.018823952  0.018384729            2 
 3242000   0.74267432   -7.8570626    732.86804  0.018837858  0.018378908            4 
 3243000   0.72029108   -7.8604228    732.59582  0.018825054    0.0183731            3 
 3244000   0.73547935   -7.8358651    733.50083    0.0188425  0.018367292            2 
 3245000     0.739959   -7.8229301    733.20297  0.018829044  0.018361484            3 
 3246000   0.72778693   -7.8486064    731.83642   0.01878816  0.018355683            6 
 3247000     0.739057   -7.8377751    731.45454  0.018772573  0.018349862            3 
 3248000   0.72718452   -7.8378547    733.64655  0.018823033  0.018344044            3 
 3249000   0.72952104   -7.8338286    731.88035  0.018771939  0.018338248            4 
 3250000   0.71784883   -7.8161779    732.29869  0.018776889  0.018332437            3 
 3251000   0.72665439   -7.8116427    733.95917  0.018813677  0.018326663            2 
 3252000   0.71916866   -7.7968848    733.01167  0.018783612  0.018320877            2 
 3253000   0.73445897   -7.8217268    732.79264  0.018772227  0.018315098            4 
 3254000   0.74792813   -7.8001199     734.5614  0.018811755  0.018309353            2 
 3255000   0.74625721    -7.829249    732.24401  0.018746647  0.018303575            7 
 3256000   0.73419637   -7.8231213    733.50378  0.018773131  0.018297795            2 
 3257000   0.73355227   -7.8370136    732.26067  0.018735561  0.018292016            6 
 3258000   0.71998472   -7.8211779     732.9482  0.018747396  0.018286244            3 
 3259000   0.72804137   -7.8335877    733.63559   0.01875922  0.018280461            6 
 3260000   0.71864901   -7.8246286    731.57994  0.018700919  0.018274672            1 
 3261000   0.72764542   -7.7988029    732.21445  0.018711399  0.018268905            4 
 3262000   0.73587814    -7.808099    733.43824  0.018736926  0.018263139            2 
 3263000   0.74039165   -7.8108145    734.07538  0.018747456  0.018257393            4 
 3264000   0.73124598   -7.8467818    733.32988  0.018722679  0.018251646            4 
 3265000   0.73719738   -7.8106475    733.03619  0.018709448  0.018245886            3 
 3266000   0.74314607    -7.837322     733.6436  0.018719218  0.018240135            2 
 3267000   0.71195505   -7.8370616    732.75442  0.018690808  0.018234376            2 
 3268000   0.72740744   -7.8207524     733.4629  0.018703154  0.018228627            2 
 3269000   0.72959951   -7.8233187    733.68769  0.018703163  0.018222876            1 
 3270000   0.73363415   -7.8416193    733.54173  0.018693724   0.01821712            2 
 3271000   0.73642109   -7.8478386    733.39572  0.018684289  0.018211346            3 
 3272000   0.72659699   -7.8216888    733.29998   0.01867614  0.018205601            6 
 3273000   0.74143383   -7.8156837    733.29541  0.018670318  0.018199855            4 
 3274000   0.73555803   -7.8251678    734.69808  0.018700318  0.018194115            2 
 3275000   0.73651507   -7.8317904    732.03955  0.018626961  0.018188368            1 
 3276000   0.74111843   -7.8467155    733.66587  0.018662644  0.018182603            2 
 3277000   0.72337869   -7.8237192    733.58392  0.018654865  0.018176886            2 
 3278000   0.72533286   -7.8289917    733.69245  0.018651933  0.018171163            3 
 3279000   0.72340194   -7.8349672    733.20355   0.01863382  0.018165437            2 
 3280000   0.73465671   -7.8572743     732.5081   0.01861047  0.018159694            4 
 3281000    0.7222289   -7.8015015    735.22535  0.018673813  0.018153987            3 
 3282000   0.72962138   -7.8312917    735.05191  0.018663719   0.01814827            5 
 3283000   0.72222849   -7.8256791    734.07303  0.018633187  0.018142553            4 
 3284000   0.71728623   -7.8537068    734.12015  0.018628709  0.018136837            5 
 3285000   0.72801376   -7.8509147    734.26482  0.018626708  0.018131092            3 
 3286000   0.72902791   -7.8592956    732.93458  0.018587304  0.018125364            3 
 3287000   0.72781379   -7.8494268    732.72291  0.018576283  0.018119644            2 
 3288000   0.70858959   -7.8309074    734.31312  0.018610937   0.01811393            1 
 3289000   0.72472427   -7.8336206    733.42001  0.018582649  0.018108205            3 
 3290000   0.71900916   -7.8532637    733.16204  0.018570467  0.018102471            2 
 3291000   0.72831278   -7.8665975    734.16438  0.018590205  0.018096734            3 
 3292000   0.72701052   -7.8531221     733.2275  0.018560842  0.018091011            8 
 3293000   0.72289108   -7.8452481    733.16336  0.018553582  0.018085288            2 
 3294000   0.72997967   -7.8353861    731.32783  0.018501514  0.018079538            1 
 3295000   0.70237252   -7.8587234    731.30848  0.018495409  0.018073794            3 
 3296000   0.71800971   -7.8679396    734.60505  0.018573145  0.018068051            3 
 3297000   0.71666072   -7.8564826    732.61557  0.018517227  0.018062311            3 
 3298000   0.71433787    -7.853498    732.04181  0.018497115  0.018056583            2 
 3299000   0.73212961   -7.8504333    733.54987  0.018529602  0.018050847            2 
 3300000   0.73109186   -7.8916433    732.07458  0.018486732  0.018045102            2 
 3301000   0.72896211   -7.8693022    734.45044   0.01854111  0.018039362            1 
 3302000   0.72741159   -7.8992838    733.93376  0.018522455  0.018033622            3 
 3303000   0.70917324   -7.8752845    733.52146  0.018506445  0.018027903            3 
 3304000   0.72163459    -7.867456    733.33806  0.018496218  0.018022182            5 
 3305000   0.71959988   -7.8547164    733.28115  0.018489187  0.018016445            5 
 3306000   0.72386069   -7.8533937     734.2913  0.018509057  0.018010737            2 
 3307000   0.71689242   -7.8385961    733.74971  0.018489812  0.018005032            2 
 3308000   0.71221385   -7.8635907    734.03776  0.018491479  0.017999327            5 
 3309000   0.73178641   -7.8381908    734.94392  0.018508712   0.01799361            1 
 3310000    0.7175039   -7.8367428    732.17347   0.01843337  0.017987907            7 
 3311000   0.73177427   -7.8493801    734.68747  0.018491077  0.017982203            3 
 3312000   0.72217515   -7.8579509     734.6986  0.018485774  0.017976523            3 
 3313000    0.7050407   -7.8297943    733.66236  0.018454129  0.017970831            3 
 3314000   0.70805659   -7.8529381    733.48496    0.0184441  0.017965119            5 
 3315000   0.73515275   -7.8649751    732.64456   0.01841741  0.017959392            3 
 3316000   0.72380214   -7.8503537    733.81713  0.018441323  0.017953673            4 
 3317000   0.72363054   -7.8735028    732.46864  0.018401885  0.017947944            2 
 3318000   0.71693914   -7.8431816    733.14805  0.018413403  0.017942225            4 
 3319000   0.71938515   -7.8532428    732.83249  0.018399932  0.017936508            2 
 3320000   0.71168975   -7.8581911    734.59419  0.018438609  0.017930795            2 
 3321000   0.71305024   -7.8482641     733.3615  0.018402125  0.017925054            2 
 3322000    0.7316502   -7.8445672    731.52167  0.018350433  0.017919317            3 
 3323000   0.71235792   -7.8583603    733.52902  0.018395251  0.017913583            5 
 3324000   0.72140751   -7.8679157    733.15437  0.018380324   0.01790783            3 
 3325000   0.70621282   -7.8633277    732.88761  0.018368111  0.017902085            4 
 3326000   0.71650774   -7.8654165    733.88409  0.018387555  0.017896339            2 
 3327000   0.73000146   -7.8464158    733.24469  0.018366013  0.017890604            3 
 3328000   0.72549597   -7.8624536    733.68692  0.018371568  0.017884892            2 
 3329000   0.72328346   -7.8665513    732.55506  0.018337716  0.017879179            8 
 3330000   0.69415002   -7.8386743    731.85407  0.018314667  0.017873469            2 
 3331000   0.71883142   -7.8429031    733.15861  0.018341805  0.017867747            5 
 3332000   0.72824576   -7.8469886     733.5165  0.018345251  0.017862035            2 
 3333000   0.71640414   -7.8696887    734.15854  0.018355799  0.017856322            4 
 3334000   0.71410285   -7.8736098    732.55488   0.01831021  0.017850597            4 
 3335000   0.71707932   -7.8522216    732.66972  0.018307589   0.01784488            4 
 3336000   0.70671036   -7.8386092    733.04952  0.018311589  0.017839175            4 
 3337000   0.71625465   -7.8371452    734.06574  0.018331479  0.017833465            4 
 3338000   0.71443959    -7.847218    732.19345  0.018279245  0.017827752            3 
 3339000   0.71231133   -7.8715788    732.89522  0.018291285  0.017822056            4 
 3340000     0.719047   -7.8756248    734.79766  0.018333275   0.01781634            4 
 3341000   0.71068992   -7.8614201    731.92931  0.018256243  0.017810611            6 
 3342000   0.71752417   -7.8775197    731.72081  0.018245582  0.017804909            4 
 3343000   0.73427003   -7.8598117    732.66256    0.0182636  0.017799195            9 
 3344000   0.71893122   -7.8479036    734.68137  0.018308447  0.017793505            4 
 3345000   0.71201397   -7.8320814    734.13999  0.018289486  0.017787834            3 
 3346000   0.71867175   -7.8712372    733.57918  0.018270053  0.017782149            1 
 3347000   0.70792485   -7.8811945    732.66653  0.018241872  0.017776443            4 
 3348000    0.7303332    -7.869524    732.93018  0.018242985  0.017770738            5 
 3349000   0.72387441   -7.8595756    733.22073  0.018244768  0.017765036            9 
 3350000   0.72726193   -7.8668734    734.33589  0.018267062  0.017759355            3 
 3351000   0.70712735   -7.8590057    733.58043  0.018242824  0.017753655            5 
 3352000    0.7056192   -7.8680304    733.61897   0.01823834  0.017747964            2 
 3353000     0.722771   -7.8516009    732.73066  0.018210823  0.017742289            2 
 3354000   0.73091185   -7.8712025    734.34038  0.018245388  0.017736599            2 
 3355000   0.73232421   -7.8653628    733.67645  0.018223459  0.017730913            3 
 3356000   0.73497378    -7.876854    732.13655  0.018179791   0.01772524            3 
 3357000   0.71697595   -7.8618786    733.08839  0.018198004  0.017719578            1 
 3358000   0.72200423   -7.8756296    734.67019  0.018231839  0.017713911            3 
 3359000   0.72209524   -7.8509704    732.75085  0.018178794  0.017708237            4 
 3360000   0.71332844    -7.867498     733.0818  0.018181592  0.017702548            3 
 3361000   0.70881188   -7.8861128    732.22233  0.018154873  0.017696839            2 
 3362000   0.72443715    -7.904291    732.21292  0.018149239  0.017691131            2 
 3363000   0.72216924   -7.8937521    731.88214  0.018135646  0.017685404            3 
 3364000   0.71667574   -7.8869159     733.2271  0.018163573  0.017679675            2 
 3365000   0.71191912   -7.8707183    732.39657  0.018137607  0.017673968            2 
 3366000   0.70510467   -7.8850445    733.65123  0.018163281   0.01766825            3 
 3367000    0.7275311   -7.8707152    733.07754  0.018143687  0.017662539            3 
 3368000   0.72033946   -7.8863028    733.68891  0.018153427  0.017656859            3 
 3369000     0.708066    -7.869506    734.13494  0.018159072  0.017651177            2 
 3370000   0.72189325   -7.8702989    734.25124  0.018156559  0.017645493            2 
 3371000   0.71721888   -7.8862204    734.54397  0.018158409  0.017639801            7 
 3372000   0.71850204   -7.8702188    732.62337   0.01810556  0.017634101            2 
 3373000    0.7054088   -7.8932026    732.05495  0.018086149  0.017628393            2 
 3374000   0.70249335   -7.8934491    734.29025  0.018135997  0.017622662            3 
 3375000   0.71398221   -7.9073783    732.98887  0.018098491  0.017616933            5 
 3376000   0.71815628   -7.8790525    733.11708  0.018096294  0.017611218            2 
 3377000   0.71382328   -7.8781186     731.5148  0.018051397  0.017605513            6 
 3378000   0.71329951    -7.884965    732.51823  0.018070807   0.01759981            3 
 3379000   0.71072985   -7.9026532    731.73298  0.018046093  0.017594101            3 
 3380000   0.71441087   -7.8563089    733.62361  0.018087367  0.017588399            2 
 3381000   0.72652924   -7.8747309    733.07216  0.018068426  0.017582704            2 
 3382000   0.70436132   -7.8872553    731.91365  0.018034537  0.017577008            4 
 3383000   0.70764939   -7.8968043    731.64033  0.018022473   0.01757131            4 
 3384000   0.70167497    -7.896221    731.96034  0.018025028  0.017565602            3 
 3385000   0.71350159   -7.8952552    732.93478  0.018043692  0.017559916            6 
 3386000    0.7128023   -7.8906008    732.33009  0.018023481  0.017554237            3 
 3387000   0.70112435   -7.8899047    733.45663  0.018045877   0.01754855            3 
 3388000   0.70922281   -7.8810743    734.13257  0.018057177  0.017542887            2 
 3389000   0.69637376   -7.8771281     734.7991  0.018068238   0.01753722            4 
 3390000    0.7128372   -7.8996191    733.20768  0.018023788  0.017531544            5 
 3391000   0.69237081   -7.8757311    733.68106  0.018030106  0.017525869            2 
 3392000   0.70128347   -7.9022826    732.32239  0.017991411  0.017520181            2 
 3393000   0.69881811   -7.9096863    733.11543  0.018005586  0.017514511            6 
 3394000    0.7069674   -7.8789877    733.15451   0.01800124  0.017508833            3 
 3395000   0.71011739   -7.8785278    734.10732  0.018019325  0.017503179            2 
 3396000   0.71333049   -7.9097089     733.6169  0.018001985  0.017497518            3 
 3397000   0.71045597   -7.9063545    731.99256  0.017956838  0.017491824            2 
 3398000   0.69667441   -7.8893889    733.63489  0.017991831  0.017486152            3 
 3399000   0.69972246   -7.8941979    733.46022  0.017982255  0.017480484            3 
 3400000   0.70097182   -7.8866701    734.15208  0.017993924  0.017474823            6 
 3401000   0.70210163   -7.9012332    734.66295   0.01800115  0.017469153            4 
 3402000   0.71109127    -7.925133    732.42841  0.017941123  0.017463487            3 
 3403000   0.70609172    -7.887782    733.25037  0.017955979  0.017457816            4 
 3404000   0.70499918   -7.9100959    733.86172  0.017965671  0.017452146            2 
 3405000    0.7048755   -7.8647301    733.83527  0.017959747  0.017446501            4 
 3406000   0.69188082   -7.8846547    733.96431  0.017957631  0.017440839            3 
 3407000    0.6920163   -7.8925871    732.13854  0.017907703   0.01743518            6 
 3408000   0.70117376   -7.9068459    731.90203  0.017896665  0.017429516            6 
 3409000   0.70048437   -7.9308478    733.32039  0.017926088  0.017423853            8 
 3410000   0.69444675   -7.9011211    732.62977  0.017903953  0.017418176            2 
 3411000   0.68641987    -7.910749    732.01552  0.017883698    0.0174125            7 
 3412000   0.72605627   -7.9225894    732.32987  0.017886134  0.017406806            3 
 3413000   0.71505789   -7.9071436    732.83201  0.017893154   0.01740114            3 
 3414000   0.70913993   -7.8864873    732.26049  0.017873962   0.01739548            4 
 3415000   0.70087432   -7.9070443    732.78359  0.017881493   0.01738984            2 
 3416000    0.7070307   -7.8883762    733.12055  0.017884479  0.017384183            2 
 3417000   0.71406996   -7.8940253    733.59681   0.01789086  0.017378527            3 
 3418000   0.71914797   -7.9067571    732.36227  0.017855526  0.017372856            4 
 3419000   0.68922423   -7.8753724    732.62961   0.01785682  0.017367181            4 
 3420000   0.70457619   -7.9055897    732.67104  0.017852608  0.017361516            3 
 3421000   0.69139223   -7.9057205    733.22057  0.017860776  0.017355856            2 
 3422000   0.69392789   -7.8946544    733.39855  0.017859891  0.017350179            2 
 3423000   0.69843579   -7.9201028     733.3672   0.01785391   0.01734453            4 
 3424000   0.69867709    -7.937219    732.48513  0.017827228  0.017338867            4 
 3425000   0.72299016   -7.9068952     732.9419  0.017833136  0.017333185            5 
 3426000   0.71359482   -7.9135747    732.81449  0.017824832  0.017327512            5 
 3427000    0.6970109   -7.9152866    732.04442  0.017800905  0.017321842            1 
 3428000   0.68743379   -7.9066146     732.0329  0.017795432  0.017316187            5 
 3429000   0.71092311   -7.8811401    732.70568  0.017806593  0.017310545            2 
 3430000   0.68851937   -7.8952037    731.95176  0.017783084  0.017304892            7 
 3431000   0.69884099   -7.9208664     733.2424  0.017809249  0.017299216            4 
 3432000   0.69604785   -7.8946034    732.02608  0.017774526  0.017293541            4 
 3433000   0.70287171   -7.9287234     732.9598  0.017792014  0.017287889            2 
 3434000   0.69559121   -7.9152917    731.50997   0.01775165  0.017282224            4 
 3435000   0.70261225   -7.9049616    731.75965  0.017752539   0.01727656            3 
 3436000   0.70907377   -7.8942061    732.95239    0.0177763  0.017270915            2 
 3437000   0.70514033   -7.9228299    731.41362  0.017733819  0.017265266            7 
 3438000   0.71651154   -7.9194097    732.22031  0.017748214  0.017259613            3 
 3439000   0.69659073   -7.9226469    732.07234  0.017739467  0.017253975            2 
 3440000   0.69410461   -7.9063066    733.27447  0.017763432   0.01724833            5 
 3441000   0.69473888   -7.9041417    735.15506  0.017803813  0.017242701            8 
 3442000   0.70507904   -7.9311392    732.69671  0.017739122  0.017237078            2 
 3443000   0.70216773   -7.9083858    732.99729  0.017741245  0.017231449            2 
 3444000    0.6876022   -7.8915738     733.5187   0.01774871  0.017225833            4 
 3445000   0.71994237   -7.9084791    733.12148   0.01773395  0.017220194            3 
 3446000   0.68276282   -7.9031628    733.86443   0.01774677  0.017214567            3 
 3447000   0.70792937   -7.9265367    733.65883  0.017736651  0.017208935            3 
 3448000   0.70312832   -7.9255449    733.11283  0.017718311  0.017203315            2 
 3449000   0.70640786   -7.8867714    733.07726  0.017712314  0.017197687            2 
 3450000   0.69046908   -7.9151988    734.00728  0.017729644  0.017192074            3 
 3451000   0.69801689   -7.9022098     732.0799  0.017677965  0.017186468            2 
 3452000   0.68980431   -7.9204581    733.24106  0.017700875  0.017180835            3 
 3453000   0.70180504   -7.9278677    732.32546  0.017673652  0.017175206            2 
 3454000   0.69427417   -7.9155508    733.98736  0.017708632  0.017169585            2 
 3455000   0.69351106   -7.9262315     734.3194  0.017711515  0.017163974            3 
 3456000   0.70489891   -7.9335719    733.51679  0.017687037  0.017158349            3 
 3457000   0.69352721   -7.9162539    733.17615  0.017673709  0.017152737            4 
 3458000   0.69925822   -7.9301738    733.11601  0.017667149  0.017147115            4 
 3459000   0.71406373   -7.9225248    735.13088  0.017710583  0.017141502            4 
 3460000   0.68998957   -7.8929679    733.49106   0.01766597  0.017135884            4 
 3461000   0.69880245   -7.9294758    732.51659  0.017637402  0.017130273            2 
 3462000   0.68706834   -7.9099331    733.76348  0.017662321  0.017124647            3 
 3463000   0.70634201   -7.9342076     734.0372  0.017663808  0.017119024            6 
 3464000   0.70895231    -7.938244    731.14591  0.017589153  0.017113416            6 
 3465000   0.69268706   -7.9374784    733.65936  0.017644525  0.017107808            5 
 3466000   0.67747464   -7.9153022    733.31082  0.017631054  0.017102209            6 
 3467000   0.70179987   -7.8963528    734.87351   0.01766353  0.017096625            5 
 3468000   0.70130311    -7.910816    734.48614  0.017649129  0.017091046            3 
 3469000   0.68898794   -7.9239699    734.00479  0.017632478  0.017085468            4 
 3470000   0.68626396   -7.9192807    734.14021  0.017630649  0.017079881            2 
 3471000   0.70318733   -7.9026751    733.88575   0.01761946  0.017074301            2 
 3472000   0.69301512   -7.9000146    732.98617  0.017592794  0.017068729            2 
 3473000   0.70143615    -7.943271    733.40417  0.017597758  0.017063135            3 
 3474000   0.69889793   -7.9135711    733.02459  0.017583587  0.017057553            8 
 3475000   0.69828353   -7.9256078    732.91582  0.017575919  0.017051951           14 
 3476000   0.69285997   -7.9210466    733.75136  0.017590894  0.017046367            8 
 3477000   0.67752429   -7.8974202    734.38844  0.017601103  0.017040803            3 
 3478000   0.70206158   -7.9286863    733.07421  0.017564554  0.017035229            3 
 3479000   0.71240785   -7.9272067    734.38068  0.017590799  0.017029654            5 
 3480000   0.70846533   -7.9033422    733.83937  0.017572782  0.017024083            3 
 3481000   0.68390244   -7.9253268     735.3585  0.017604101  0.017018516            2 
 3482000   0.70368893   -7.9067606    734.10881  0.017569137  0.017012962            2 
 3483000   0.69586478   -7.9127741     735.0481  0.017586566  0.017007424            2 
 3484000   0.69559807   -7.9175507    735.08673  0.017582442  0.017001876            6 
 3485000   0.68444126   -7.9372247    733.50494  0.017539573   0.01699633            4 
 3486000   0.68989913   -7.9118591    733.35942  0.017531063  0.016990762            6 
 3487000   0.69108082    -7.942359    733.78328  0.017536165  0.016985195            1 
 3488000   0.69526008   -7.9157577    732.11401  0.017491256  0.016979639            4 
 3489000   0.67949474   -7.9255863     735.4452  0.017565807  0.016974074            3 
 3490000   0.70617276   -7.9312332    733.97563  0.017525684  0.016968504            3 
 3491000   0.69010582   -7.9219618    734.32161  0.017528922  0.016962939            3 
 3492000   0.71220283   -7.9202806      732.383  0.017477639  0.016957382            7 
 3493000   0.69035214   -7.9315436    732.52305  0.017475977  0.016951836            5 
 3494000   0.69642908   -7.9247889    732.08382  0.017460499  0.016946267            3 
 3495000   0.68445936   -7.9378919    732.91716  0.017475373  0.016940701            4 
 3496000   0.67444947   -7.9298684    732.20106  0.017453305  0.016935143            4 
 3497000   0.71286101   -7.9164234    733.98856   0.01749091  0.016929597            3 
 3498000    0.6814274   -7.9308596     733.3754  0.017471303  0.016924059            3 
 3499000   0.68615577   -7.9160269    735.30829  0.017512344  0.016918525            3 
 3500000    0.6822515   -7.9156897     734.6627  0.017491969  0.016912976            9 
 3501000   0.69735506   -7.9184448    735.44261  0.017505537  0.016907435            4 
 3502000   0.69549315    -7.893211    733.83696   0.01746233  0.016901907            2 
 3503000   0.69390164    -7.904354    734.28929  0.017468106  0.016896375            5 
 3504000   0.67996791   -7.9336241    734.94021  0.017478601  0.016890828            4 
 3505000   0.68829455   -7.9365633    733.72969  0.017444833  0.016885276            4 
 3506000   0.67479228   -7.9515275    733.95028  0.017445101  0.016879732            3 
 3507000   0.69247006   -7.9018237    734.43152  0.017451562  0.016874192            6 
 3508000   0.70592075   -7.9286912    733.19422  0.017417194  0.016868651            6 
 3509000   0.67870317   -7.9096014    734.27138  0.017437812  0.016863111            2 
 3510000   0.68029074     -7.92974    733.84322  0.017422678  0.016857576            4 
 3511000   0.68844013   -7.9094374    734.27102   0.01742787  0.016852042            3 
 3512000   0.69628904   -7.9381627    734.41861   0.01742641  0.016846508            4 
 3513000   0.68986278   -7.9265739    734.34178  0.017419627   0.01684098            1 
 3514000   0.68138431   -7.9233094    733.84257  0.017402831  0.016835451            3 
 3515000   0.69833533   -7.9190586    735.85261  0.017445534  0.016829911            5 
 3516000   0.68481472   -7.9363318    732.96754  0.017372192  0.016824382            2 
 3517000   0.69951137    -7.943887    734.63636  0.017406795  0.016818843            5 
 3518000   0.69683871   -7.9250459    734.18448  0.017391143  0.016813304            2 
 3519000   0.67377138   -7.9570269    733.51899  0.017370441  0.016807771            4 
 3520000   0.68716674   -7.9518836     732.6177  0.017344169  0.016802212            3 
 3521000   0.68308789   -7.9377233    734.24244  0.017377697  0.016796681            2 
 3522000   0.68743142    -7.952363    734.42853  0.017377166  0.016791148            3 
 3523000   0.70697521   -7.9307116    734.13727  0.017365344  0.016785621            3 
 3524000   0.68098183   -7.9504403    732.61864  0.017324504  0.016780094            2 
 3525000   0.67998677   -7.9561983     731.6513  0.017296721  0.016774545            6 
 3526000   0.67587102   -7.9481063    733.60786  0.017338057  0.016768999            3 
 3527000    0.6968828   -7.9448466    733.35575  0.017327184   0.01676347            6 
 3528000   0.68590807    -7.973659    733.24669  0.017319697  0.016757952            7 
 3529000   0.68571355   -7.9529315    734.96043  0.017355257  0.016752429            7 
 3530000   0.67268609   -7.9466233    732.63135  0.017295358  0.016746903            3 
 3531000   0.69295056    -7.952621    732.78543  0.017294096  0.016741389            5 
 3532000   0.68947291   -7.9410525    734.37113  0.017326612  0.016735882            5 
 3533000   0.69213631   -7.9587411    732.68652  0.017281973  0.016730361            5 
 3534000   0.68285866   -7.9488533     731.4234  0.017247298  0.016724851            3 
 3535000   0.68109083   -7.9413633     735.3828  0.017335757   0.01671934            4 
 3536000   0.69412144   -7.9347789    735.18232  0.017326129  0.016713861            3 
 3537000   0.68671776   -7.9208933    732.92649  0.017268082  0.016708375            3 
 3538000    0.6871364     -7.93444    733.94878  0.017287281  0.016702901            3 
 3539000   0.68345183   -7.9661856    732.44173  0.017246909  0.016697424            2 
 3540000   0.68868189   -7.9477659    733.74533  0.017272724  0.016691936            3 
 3541000   0.68284908   -7.9460155    736.06843  0.017322518  0.016686462            3 
 3542000   0.67845965   -7.9304494    733.90825  0.017266804  0.016681004           11 
 3543000   0.67318637   -7.9318639    734.80497  0.017283022   0.01667555            2 
 3544000   0.68703794   -7.9457122    734.91429  0.017280716  0.016670095            3 
 3545000   0.69017929   -7.9231916     734.9769  0.017277313  0.016664639            4 
 3546000   0.67219601   -7.9330887     734.1673  0.017253415  0.016659181            2 
 3547000   0.68756856   -7.9351166    733.80827  0.017240115  0.016653731            2 
 3548000   0.69568746    -7.936286    733.94127   0.01723838   0.01664828            4 
 3549000   0.68342877   -7.9499063    734.10434  0.017237352  0.016642817            5 
 3550000   0.68987922   -7.9444081    733.80781  0.017225535  0.016637358            3 
 3551000   0.69338872   -7.9535272    734.02512  0.017225784   0.01663189            3 
 3552000   0.68715686   -7.9441004    733.97211  0.017219691  0.016626425            3 
 3553000   0.68470081   -7.9725793      734.842  0.017235247  0.016620972            2 
 3554000   0.68122553   -7.9719439    733.51374  0.017199253  0.016615501            3 
 3555000   0.68349344   -7.9661056    734.37652  0.017214639  0.016610025            3 
 3556000   0.69245591   -7.9754267    732.37654   0.01716293   0.01660455            6 
 3557000   0.68992887   -7.9502231    734.75603  0.017213851  0.016599083            3 
 3558000   0.67757565   -7.9444802     734.1104  0.017193892  0.016593609            2 
 3559000    0.7042325   -7.9561078    734.90206  0.017207597   0.01658815            7 
 3560000   0.68270679   -7.9557111    733.98768   0.01718136  0.016582691            4 
 3561000   0.69967408   -7.9350849    734.02898  0.017177501  0.016577242            4 
 3562000   0.68497846   -7.9541306     733.2263    0.0171539  0.016571785            3 
 3563000   0.67010709   -7.9502642    733.10627  0.017146278  0.016566329            2 
 3564000   0.67246669   -7.9438213     734.5767  0.017175849  0.016560879            3 
 3565000   0.68364271   -7.9428047    734.21954  0.017162682  0.016555434            6 
 3566000   0.67112169   -7.9665421    734.62217  0.017167278  0.016549986            5 
 3567000   0.68215089   -7.9417355    733.59138  0.017138384  0.016544554            2 
 3568000   0.68764758   -7.9728915     733.8714   0.01714012  0.016539108            1 
 3569000   0.67429474   -7.9517426    733.04084  0.017115925  0.016533672            2 
 3570000   0.69710849   -7.9432253    734.45515  0.017144145  0.016528238            3 
 3571000   0.68381701   -7.9458465    732.70579   0.01709852  0.016522791            2 
 3572000   0.66714699   -7.9404451    734.01899   0.01712437  0.016517369            3 
 3573000   0.66243042    -7.948055    733.66818  0.017111395  0.016511941            5 
 3574000   0.66373397   -7.9611364    732.48433  0.017079004  0.016506507            3 
 3575000   0.69688249   -7.9385218    734.60131  0.017123574  0.016501101            2 
 3576000   0.67568646    -7.951866    732.72027   0.01707495  0.016495679            6 
 3577000   0.67998572    -7.955559    733.45403  0.017087271  0.016490259            7 
 3578000    0.6801098   -7.9456947    736.00942  0.017142012  0.016484853            5 
 3579000   0.68085276   -7.9630542    735.45878  0.017124401  0.016479448            2 
 3580000   0.67864889   -7.9264581    735.63903  0.017123814  0.016474049            3 
 3581000   0.68754194   -7.9383869    736.45111  0.017137929  0.016468637            3 
 3582000   0.68332087   -7.9489735    734.94556  0.017098119  0.016463215            6 
 3583000   0.68563983   -7.9655667    733.93061  0.017069742  0.016457798            6 
 3584000   0.67775919   -7.9713921    735.00058  0.017089857  0.016452379            1 
 3585000   0.67773233   -7.9543103    733.45081  0.017049066  0.016446961            6 
 3586000   0.67628515   -7.9590921     733.2871  0.017040507  0.016441544            4 
 3587000   0.67956723   -7.9570977    734.92035    0.0170737  0.016436126            5 
 3588000    0.6889224    -7.976618     733.0453  0.017025393  0.016430722            4 
 3589000   0.65803466   -7.9743247    733.20961  0.017024464  0.016425314            5 
 3590000   0.67813896   -7.9693963    734.56408  0.017051162  0.016419889            5 
 3591000   0.68804092   -7.9454676    735.65098  0.017071637  0.016414473            5 
 3592000   0.67995368   -7.9724188    734.53464  0.017040985  0.016409055            5 
 3593000    0.6833523   -7.9557955    733.53246  0.017012999  0.016403632            6 
 3594000   0.68677629   -7.9663227     734.4049  0.017028494  0.016398228            6 
 3595000   0.68140741   -7.9744016     734.3797  0.017023173  0.016392818            7 
 3596000   0.66982187   -7.9839276    732.93177  0.016984885  0.016387401            4 
 3597000   0.67707068   -7.9858058    733.12362  0.016984608  0.016381988            2 
 3598000   0.67912069    -7.993988    731.82697  0.016949856  0.016376579            4 
 3599000   0.66783914   -7.9831712    734.32684   0.01700303  0.016371161            3 
 3600000   0.67217769   -7.9916096    733.56077  0.016980573  0.016365747            8 
 3601000   0.66121592   -7.9781275    734.44666  0.016996359  0.016360335           11 
 3602000   0.67710698    -7.991191    733.26654  0.016964338  0.016354933            9 
 3603000   0.68391573   -7.9854249    733.42329  0.016963255   0.01634953            4 
 3604000   0.67616948   -7.9840427    733.73028  0.016965646  0.016344128            4 
 3605000   0.66903495   -7.9656521    734.38208  0.016976007  0.016338731            6 
 3606000   0.67104647    -7.993142     733.2013  0.016944012  0.016333327            3 
 3607000   0.68503585   -7.9563364    735.03734  0.016981733  0.016327938            3 
 3608000    0.6633328   -7.9795238    733.37415  0.016938612  0.016322533            2 
 3609000   0.67843962   -7.9882871    734.30797  0.016955481  0.016317139            4 
 3610000   0.66973541   -7.9823941    734.54776   0.01695632  0.016311753            4 
 3611000   0.68278246   -7.9559726    734.58097   0.01695239  0.016306378            4 
 3612000   0.67131426   -7.9766732    734.83266  0.016953504  0.016301005            2 
 3613000   0.67806887   -7.9751327    734.01905  0.016930045  0.016295632            4 
 3614000   0.67206988    -7.990996    734.40365  0.016934229  0.016290272            3 
 3615000   0.67891751   -7.9618756    734.72037  0.016936846  0.016284918            5 
 3616000   0.66761263   -7.9827933    733.33494  0.016900234  0.016279567            4 
 3617000   0.67131776   -7.9594662    734.65166  0.016925898  0.016274202            4 
 3618000    0.6777032   -7.9607486     735.5013  0.016940789  0.016268836            4 
 3619000   0.67659178   -7.9536822    734.70928   0.01691787   0.01626348            2 
 3620000    0.6588116   -7.9491349      734.333  0.016904535  0.016258131            4 
 3621000   0.66016862   -7.9584972    734.55556  0.016904988  0.016252785            1 
 3622000   0.67289071   -7.9487363    734.69925  0.016903627  0.016247432            2 
 3623000   0.66644052   -7.9661656    734.51894  0.016894814  0.016242076            4 
 3624000   0.69913349   -7.9660173    734.41216  0.016887697  0.016236722            4 
 3625000   0.66755965   -7.9965779    734.01517  0.016873912  0.016231357            2 
 3626000    0.6768252     -7.98953    733.51105  0.016857672  0.016225992            6 
 3627000   0.69274971   -7.9880365    733.66024  0.016856453  0.016220632            6 
 3628000   0.67038762   -7.9950641    733.53793  0.016848997  0.016215272            3 
 3629000   0.67040448   -7.9662858     734.5625  0.016867881  0.016209916            3 
 3630000   0.66878259   -7.9817548    735.65176  0.016888241   0.01620458            2 
 3631000   0.65485677   -7.9686659    735.00273  0.016868694  0.016199245            2 
 3632000   0.66533874   -7.9837864    734.65561  0.016856085  0.016193915            4 
 3633000   0.67062283   -7.9833019    733.64985  0.016828375  0.016188574            3 
 3634000   0.67718212   -7.9735646     735.8808  0.016874904  0.016183238            4 
 3635000   0.67088736   -7.9766323    735.35292   0.01685816  0.016177913            4 
 3636000   0.67668658   -7.9819198    734.70765  0.016838734  0.016172587            4 
 3637000   0.65726264   -7.9769471    736.10146   0.01686604  0.016167269            5 
 3638000   0.66788915   -7.9746878    733.69854  0.016806362  0.016161941            6 
 3639000   0.66039658   -7.9562375     735.3421  0.016839381  0.016156634            8 
 3640000   0.68595457   -7.9857676    735.06646  0.016828445  0.016151329            7 
 3641000   0.66870309   -7.9676825    736.59657  0.016858843   0.01614603            3 
 3642000   0.67733106   -7.9813069    734.52384  0.016806788  0.016140728            3 
 3643000   0.67051055   -7.9868797    733.86181   0.01678703  0.016135424            4 
 3644000   0.67987894    -7.968706    735.46541  0.016819096  0.016130131            2 
 3645000   0.67116738    -7.979255    735.05303  0.016805053  0.016124835            3 
 3646000   0.67919302    -7.988373    733.17799  0.016757588  0.016119518            4 
 3647000   0.66797852   -7.9795869    733.33555  0.016756593  0.016114191            4 
 3648000   0.67199979   -7.9984369    734.46747  0.016777857  0.016108889            2 
 3649000   0.66110342   -7.9885169    734.16149  0.016766271  0.016103594            3 
 3650000   0.67871742   -7.9768493    735.18181  0.016784973  0.016098303            1 
 3651000   0.66601767    -7.980326    734.96686  0.016775469  0.016093022            3 
 3652000   0.66484695   -7.9739482     735.2059   0.01677633  0.016087745            3 
 3653000    0.6650571   -7.9853906    734.79743   0.01676242  0.016082453            3 
 3654000    0.6699109   -7.9993099    735.41036  0.016771811  0.016077169            2 
 3655000   0.66314619    -7.995339    734.10194   0.01673739  0.016071881            4 
 3656000   0.66440782   -8.0058387    734.29574   0.01673723  0.016066587            3 
 3657000   0.66310292    -7.974447    735.72281  0.016765172  0.016061298            3 
 3658000   0.66231007   -7.9742875    736.36611  0.016775244  0.016056026            4 
 3659000   0.65062296   -7.9962282    735.09303  0.016741665  0.016050735            2 
 3660000   0.66923941   -8.0255637    733.98816  0.016711934  0.016045453            3 
 3661000   0.64895551   -8.0023698    734.31178  0.016714736  0.016040165            4 
 3662000    0.6682803    -8.010126    733.84756  0.016699608  0.016034879            3 
 3663000   0.67261534    -8.028539    735.38182  0.016729953  0.016029594            2 
 3664000   0.66479411   -7.9873768    736.04873  0.016740555  0.016024308            2 
 3665000   0.67902995   -8.0144919    734.46679  0.016700018   0.01601902            4 
 3666000    0.6628143   -8.0053531    734.72334  0.016701294   0.01601373            5 
 3667000   0.65561839    -8.000981    734.46911  0.016690962  0.016008432            3 
 3668000   0.65647123   -8.0251528    735.87978  0.016718461   0.01600315            4 
 3669000   0.65778029   -8.0244591    734.62951  0.016685507  0.015997866            5 
 3670000   0.66967467   -8.0205468    735.02904  0.016690033  0.015992588            6 
 3671000   0.67020964   -8.0278788    735.10881  0.016687297  0.015987302            7 
 3672000   0.66211132   -8.0218118     735.2061  0.016684961   0.01598203            3 
 3673000   0.66864971   -8.0059727    734.56347  0.016665838  0.015976767            5 
 3674000   0.67171086   -8.0214047    735.21136  0.016675997  0.015971512            7 
 3675000   0.66166894   -8.0255299    733.66698  0.016636439  0.015966254            6 
 3676000   0.66727678   -7.9998322    734.58845  0.016652803  0.015960982            3 
 3677000   0.67874918    -8.019106    735.78953  0.016675495  0.015955716            3 
 3678000   0.66004264   -8.0203096    734.75848    0.0166476  0.015950468            5 
 3679000   0.66900253   -8.0205082    735.28606  0.016655025  0.015945214            4 
 3680000   0.65602676   -8.0056721     734.7702  0.016638818  0.015939956            2 
 3681000   0.65214423   -8.0118498    734.50468  0.016628287  0.015934691            3 
 3682000   0.65925094   -8.0157338    733.80387  0.016607909  0.015929445            4 
 3683000   0.65976663   -8.0209388    734.20141  0.016612395  0.015924185            9 
 3684000   0.65917602   -8.0167685    733.87965  0.016600607  0.015918922            8 
 3685000   0.67207678   -8.0454527    733.74992  0.016593169  0.015913659            9 
 3686000   0.65507762   -8.0338204     734.7819  0.016611998  0.015908404            7 
 3687000   0.65704076   -7.9958897    734.40814  0.016599045  0.015903162            3 
 3688000   0.66863345   -8.0179983    734.81646   0.01660377  0.015897924            2 
 3689000   0.65139973   -7.9814923    734.81085  0.016599143  0.015892679            4 
 3690000   0.65257887    -8.031189    733.75851  0.016570879  0.015887441            4 
 3691000    0.6780077   -7.9946737     736.6012   0.01663057   0.01588222            4 
 3692000   0.65931614   -8.0233215    736.20786  0.016617187     0.015877            4 
 3693000   0.66322339   -8.0222246    735.14141  0.016588623  0.015871786            4 
 3694000   0.65437396   -7.9940149    735.47804  0.016591726  0.015866579            3 
 3695000   0.66986545   -8.0159631    738.07335  0.016645768  0.015861383            3 
 3696000   0.64655207   -8.0043305    734.34961  0.016557305   0.01585619            5 
 3697000   0.65964273   -8.0007185    735.20357  0.016572076  0.015850988            2 
 3698000   0.66374329   -7.9828535    734.30834  0.016547421  0.015845789            6 
 3699000   0.66622774   -7.9900379    736.32887  0.016588467   0.01584058            7 
 3700000   0.66554021    -8.004864    735.94447  0.016575326  0.015835376            4 
 3701000   0.65369311   -8.0139173    735.31667  0.016556711  0.015830165            9 
 3702000   0.66157469   -8.0117338    735.84786  0.016564196  0.015824944            2 
 3703000   0.65610489   -8.0056045    735.46583  0.016551126  0.015819732            3 
 3704000   0.66402336   -7.9960637    736.15279  0.016562113  0.015814514            7 
 3705000    0.6545809   -8.0141575    734.69376  0.016524826  0.015809308            4 
 3706000   0.66030767   -8.0196028    734.58801  0.016517989  0.015804101            2 
 3707000     0.648716   -8.0008643    735.55706  0.016535317  0.015798887            2 
 3708000   0.65222654   -7.9794322    735.88818    0.0165383  0.015793688            4 
 3709000   0.65508669   -7.9810858    735.16196  0.016517524  0.015788486            3 
 3710000      0.65584   -8.0052799    735.76878  0.016526702  0.015783284            2 
 3711000    0.6487948   -7.9909866    734.97463  0.016504415  0.015778079            5 
 3712000   0.65827358   -7.9942723    734.52075   0.01648978  0.015772865            2 
 3713000   0.64999779   -7.9925364    735.91036  0.016516527  0.015767669            2 
 3714000   0.65405894   -7.9949384    733.57523  0.016459685   0.01576248            3 
 3715000   0.64909141   -8.0130225    735.72306  0.016503433  0.015757282            4 
 3716000   0.66233723   -8.0089673    734.76639  0.016477538  0.015752094            2 
 3717000   0.65246366   -7.9935469     735.2777  0.016484569  0.015746899            2 
 3718000   0.66310239   -8.0223906    734.57373  0.016464357   0.01574171            2 
 3719000   0.64006879   -8.0089931    732.45765  0.016412513  0.015736509            3 
 3720000    0.6468771   -8.0320844    734.59482  0.016455977  0.015731322            6 
 3721000   0.65787313    -8.014499    735.92101  0.016481255  0.015726134            5 
 3722000     0.650174   -8.0121829    736.45999  0.016488895  0.015720946            5 
 3723000   0.66420414   -8.0092037    734.80025  0.016447315  0.015715753            2 
 3724000   0.66494907    -8.030491    734.50061  0.016436193  0.015710574            4 
 3725000    0.6550529   -7.9953501    734.44267  0.016430485  0.015705397            3 
 3726000   0.65519783   -8.0073266     736.7442   0.01647755  0.015700217            4 
 3727000   0.66675096    -8.019396    735.03831  0.016434986  0.015695038            4 
 3728000   0.64462719   -8.0168993     734.0757   0.01640906  0.015689847            2 
 3729000   0.67046866   -8.0113817    735.50884  0.016436686   0.01568467            3 
 3730000   0.65318305   -8.0089956    736.15299  0.016446671  0.015679496           11 
 3731000   0.66018558   -8.0296583    735.29643  0.016423131   0.01567433            4 
 3732000   0.66722867   -8.0265511    736.76671  0.016451561  0.015669168            2 
 3733000   0.65728343   -8.0079957    736.81088   0.01644814     0.015664            3 
 3734000   0.64692564   -8.0249352    734.11412   0.01638355  0.015658834            5 
 3735000   0.65980176   -7.9987655    736.33182  0.016428644  0.015653673            2 
 3736000   0.66408367   -8.0057345    736.22538  0.016421872  0.015648522            3 
 3737000    0.6517872   -8.0181242    734.18038  0.016371875  0.015643369            4 
 3738000   0.64029396   -8.0240136    734.13382  0.016366458  0.015638207            2 
 3739000   0.64139215   -8.0092154    734.61764  0.016372864  0.015633051            3 
 3740000   0.66276912   -8.0379591    734.48062  0.016365433  0.015627894            4 
 3741000   0.64985764   -8.0087253     735.0484  0.016373706  0.015622734            4 
 3742000   0.65565105   -8.0198727      736.064  0.016391947   0.01561758            5 
 3743000    0.6602541   -8.0399605    734.87603  0.016361119  0.015612429            6 
 3744000   0.65383042   -8.0087855    734.38379  0.016345793  0.015607274            5 
 3745000    0.6555595   -8.0293895    734.55619  0.016345265  0.015602116            3 
 3746000   0.64283995   -8.0088116    735.00111  0.016350799  0.015596947            6 
 3747000    0.6626914   -8.0447244    735.41988  0.016355749  0.015591799            4 
 3748000   0.65762231   -8.0346007     733.8711  0.016316949  0.015586653            3 
 3749000   0.65602357   -8.0150976    736.29222  0.016366414  0.015581501            3 
 3750000   0.65651933   -8.0167723    736.27225  0.016361606  0.015576364            4 
 3751000   0.65439023   -8.0160273    736.95994  0.016372522  0.015571236            4 
 3752000   0.65753124    -8.001644    735.53087  0.016336418  0.015566108            3 
 3753000   0.64425682   -8.0061177    735.11671  0.016322869  0.015560989            2 
 3754000   0.65917546   -8.0147029    735.04139  0.016316849  0.015555864            3 
 3755000    0.6416612   -8.0089902    737.24454  0.016361397  0.015550756            3 
 3756000   0.64795752   -8.0164671    736.47679  0.016340007  0.015545641            4 
 3757000    0.6487717   -8.0324195    735.54507  0.016314991  0.015540527            8 
 3758000   0.64611102   -8.0265086    735.43288  0.016308162  0.015535397            3 
 3759000   0.64231232   -8.0326996    735.28343  0.016300511  0.015530273            5 
 3760000   0.65633406    -8.018443    733.84992  0.016264404  0.015525145            3 
 3761000   0.65080326   -8.0318478    734.25761  0.016269113  0.015520006            5 
 3762000   0.63526533   -8.0266561    733.97581  0.016258546   0.01551487            2 
 3763000   0.63981718   -8.0253588    734.46164  0.016264984  0.015509729            5 
 3764000   0.64556457   -8.0211383    732.71725  0.016222043  0.015504586            3 
 3765000   0.64870314   -8.0659271    733.85742  0.016242971  0.015499452            4 
 3766000   0.65641469   -8.0685825    733.14817  0.016222964  0.015494313            5 
 3767000   0.65061326   -8.0291243    733.21923  0.016220229  0.015489176            5 
 3768000     0.647613   -8.0556951    734.97469  0.016254748  0.015484042            8 
 3769000   0.66637498   -8.0720438    733.61243  0.016220316  0.015478904            6 
 3770000   0.65802439   -8.0393337    734.72267  0.016240554  0.015473766            3 
 3771000   0.64218589   -8.0442798    733.33319  0.016205542  0.015468632            5 
 3772000   0.63844715   -8.0463518    734.43872   0.01622567  0.015463497            5 
 3773000   0.65499248   -8.0574612    735.12801  0.016236594  0.015458365            7 
 3774000   0.64849889   -8.0472156    733.66073  0.016199893  0.015453231            2 
 3775000   0.65461825    -8.043837    735.00974  0.016225381  0.015448117            2 
 3776000   0.63766224   -8.0614093    732.95223  0.016175676  0.015442986            3 
 3777000   0.64909537   -8.0528923    733.25462  0.016178065  0.015437864            3 
 3778000    0.6393604   -8.0486076    734.66555  0.016204905  0.015432732            4 
 3779000   0.63614891   -8.0503092    734.28498  0.016192224  0.015427601            2 
 3780000   0.65398709   -8.0373824    734.03413   0.01618241  0.015422463            6 
 3781000   0.64331683   -8.0579962    735.47035  0.016209785  0.015417335            5 
 3782000   0.64728046   -8.0657007    734.50127  0.016184146  0.015412207            3 
 3783000   0.65673595   -8.0676408    733.09583  0.016148908   0.01540708            5 
 3784000    0.6381386   -8.0526442    734.70231  0.016180019  0.015401955            2 
 3785000    0.6473011   -8.0563534    732.83304  0.016134589  0.015396829            5 
 3786000   0.65136731   -8.0726325    733.04287  0.016134946  0.015391705            3 
 3787000   0.63809523   -8.0383443    735.01806   0.01617415  0.015386571            3 
 3788000   0.63939855   -8.0680455    734.01791  0.016147877  0.015381443            4 
 3789000    0.6326925   -8.0373288    734.21016  0.016147844  0.015376313            3 
 3790000   0.64952273    -8.055846    734.08128  0.016140749  0.015371185            5 
 3791000   0.64121343   -8.0657187    733.70935  0.016128316  0.015366064            5 
 3792000   0.64916554   -8.0663499    733.51883  0.016119876  0.015360933            5 
 3793000   0.64600503   -8.0543264    732.43851  0.016091891  0.015355816            3 
 3794000   0.64205779   -8.0644755    733.72352  0.016115874  0.015350699            2 
 3795000   0.63928779   -8.0657171    732.70377  0.016089235  0.015345573            3 
 3796000   0.63926429   -8.0494361    733.58883  0.016104426  0.015340458            4 
 3797000    0.6405863   -8.0441736    734.67637  0.016124054  0.015335351            4 
 3798000   0.64651327   -8.0549581    733.95869  0.016104061  0.015330242            2 
 3799000   0.64767047   -8.0686055    735.04833  0.016123724  0.015325133            3 
 3800000   0.64950618   -8.0471059    733.41017  0.016083556  0.015320025            4 
 3801000   0.63162454    -8.075824    732.61292  0.016061846  0.015314915            2 
 3802000   0.64715394   -8.0613837    733.40885  0.016075067  0.015309808            3 
 3803000   0.64429918   -8.0862355    733.57651  0.016074514  0.015304707            3 
 3804000   0.65789305   -8.0519185    733.97364  0.016078988  0.015299607            3 
 3805000   0.64655375    -8.071794    732.62683  0.016045266  0.015294522            7 
 3806000    0.6509349   -8.0548004    734.18292  0.016075121  0.015289428            3 
 3807000   0.64843775    -8.047188    734.00014  0.016066897  0.015284343            2 
 3808000   0.64981147   -8.0624366    733.57765  0.016053433  0.015279245            3 
 3809000   0.64172508   -8.0499423    735.07632  0.016082006   0.01527416            3 
 3810000   0.64577196   -8.0374683    733.87714  0.016051556  0.015269073            3 
 3811000   0.63367425   -8.0720552    733.65846  0.016042562  0.015263984            3 
 3812000   0.64961766   -8.0503345    732.63207  0.016015916  0.015258903            4 
 3813000   0.64345699   -8.0660229     733.4033  0.016028571  0.015253823            2 
 3814000   0.63556487   -8.0622518    734.81062  0.016055117  0.015248746            8 
 3815000   0.63526681   -8.0724477    734.64078  0.016047199  0.015243673            3 
 3816000   0.64453986   -8.0533026    733.59309  0.016020115  0.015238591            5 
 3817000   0.64102814   -8.0529765    735.02979  0.016047284  0.015233521            4 
 3818000   0.63069105   -8.0591137    733.78668  0.016015948  0.015228451            5 
 3819000    0.6457384    -8.041049    735.06637  0.016039678  0.015223392            3 
 3820000   0.63417089   -8.0294208    734.98511  0.016033707  0.015218337            4 
 3821000   0.64806952    -8.065747    735.13827  0.016032851  0.015213293            5 
 3822000   0.64324169   -8.0296953    735.77739  0.016042591   0.01520826            4 
 3823000   0.63880287   -8.0569657    734.05746  0.016000904  0.015203232            4 
 3824000   0.62729074   -8.0461887    734.01855  0.015995871  0.015198199            9 
 3825000   0.65847344   -8.0624054    734.30651  0.015997963  0.015193165            2 
 3826000   0.64304588   -8.0498703    733.98688   0.01598682  0.015188126            5 
 3827000   0.64914545   -8.0542483    733.54517  0.015973024   0.01518309           10 
 3828000     0.634992    -8.049756    735.86864  0.016019432  0.015178059            6 
 3829000   0.64279463   -8.0589487     734.7713  0.015991366  0.015173025            4 
 3830000   0.64610791    -8.071421    733.67142   0.01596326   0.01516799            7 
 3831000   0.64330532   -8.0351166    734.70386  0.015981551  0.015162965            5 
 3832000   0.64506478   -8.0484009    733.82367  0.015958239  0.015157934            4 
 3833000   0.64601903   -8.0771478    733.80152  0.015953594  0.015152902            4 
 3834000   0.62626822   -8.0467788    733.86313  0.015950772  0.015147876            9 
 3835000   0.65534817   -8.0418767    736.45659  0.016002968  0.015142854            4 
 3836000   0.62878759    -8.063434    734.44065  0.015955002  0.015137835            6 
 3837000   0.63303592   -8.0523355    732.80517  0.015915324  0.015132817            5 
 3838000   0.62818386   -8.0755716    734.12945  0.015939931  0.015127796            4 
 3839000   0.64065619   -8.0830321    734.56441   0.01594522  0.015122776            4 
 3840000    0.6253508   -8.0613243    734.34536  0.015936314  0.015117748            5 
 3841000   0.63612612   -8.0606659    735.10671  0.015948683  0.015112724           12 
 3842000   0.63683014   -8.0663633    733.52953  0.015910323  0.015107699           11 
 3843000   0.63166205   -8.0510281    734.87085  0.015935269  0.015102679            3 
 3844000   0.63861435   -8.0839642    734.81576  0.015929929  0.015097663            7 
 3845000   0.64061589   -8.0736411    732.40185  0.015873469  0.015092657            9 
 3846000   0.65426956    -8.077696    734.61839  0.015917369  0.015087642            2 
 3847000   0.62100045   -8.0651559    732.97286  0.015877586  0.015082628            3 
 3848000   0.62658407   -8.0752194    733.72918  0.015889838  0.015077615            4 
 3849000   0.63017542   -8.0593466    733.77162  0.015886629  0.015072603            4 
 3850000   0.63907661   -8.0744035    734.32526  0.015894486    0.0150676            3 
 3851000    0.6342298   -8.0618753    734.89929   0.01590278  0.015062591            4 
 3852000   0.62321031   -8.0753342    734.44476  0.015888819  0.015057573            3 
 3853000   0.62506897   -8.0595089    733.18318  0.015857409  0.015052562            2 
 3854000   0.63357481   -8.0847125    732.68378  0.015842496  0.015047557            4 
 3855000   0.62813754   -8.0879181    734.08278  0.015868629  0.015042543            8 
 3856000   0.63435695    -8.077256    733.10228  0.015843324  0.015037529            2 
 3857000   0.63262191   -8.0844183    733.90349  0.015856527  0.015032518            8 
 3858000   0.63424733   -8.0607819    734.08034  0.015856237   0.01502752            5 
 3859000   0.64241147   -8.0820352     734.1672  0.015854004  0.015022525            3 
 3860000   0.63289203   -8.0712013    733.39465  0.015833218  0.015017528            3 
 3861000   0.63439376   -8.0863403    735.29258  0.015870081  0.015012538            5 
 3862000   0.62715455   -8.0677273     734.6442  0.015851981  0.015007553            2 
 3863000   0.62283425   -8.1009805    733.54523   0.01582417  0.015002558            4 
 3864000   0.62390994   -8.0831443    734.65837  0.015844081   0.01499756            2 
 3865000    0.6288275   -8.1003993    732.82583  0.015800471  0.014992575            2 
 3866000   0.63313826   -8.0861652    734.04256  0.015822611  0.014987594            2 
 3867000   0.63638774   -8.0851456    733.41423  0.015804979  0.014982612            4 
 3868000   0.62535545   -8.0761813    734.78207  0.015830362  0.014977633            3 
 3869000   0.63800595   -8.0710632    735.71687  0.015846405  0.014972658            2 
 3870000   0.63288243   -8.0785666    735.10011  0.015829029  0.014967684            3 
 3871000   0.64185062   -8.0789553    732.30407  0.015764748  0.014962716            4 
 3872000   0.62727814   -8.0689494    734.17227  0.015800884  0.014957739            4 
 3873000   0.62825656   -8.0891672    733.97898  0.015792645  0.014952762            4 
 3874000   0.63477847   -8.0706838    734.69297  0.015803927  0.014947784            2 
 3875000   0.63010261   -8.0811023    734.13682  0.015787889   0.01494281            6 
 3876000    0.6326629   -8.0866049    734.34211  0.015788229  0.014937834            6 
 3877000   0.62133847    -8.075151     732.8202  0.015751444  0.014932864            4 
 3878000   0.62128916   -8.0807557    733.81778  0.015768819  0.014927892            3 
 3879000   0.63001913   -8.0675163    733.47845  0.015757464   0.01492292            5 
 3880000   0.63619183   -8.0759078    734.51857  0.015775742  0.014917954            4 
 3881000   0.63635496   -8.0879625     734.0221  0.015761017  0.014912981            4 
 3882000   0.64100616   -8.0785223     734.1513  0.015759731  0.014908016            2 
 3883000   0.64348145   -8.0821567     734.4808  0.015762744  0.014903061            6 
 3884000   0.63243625   -8.0712092    734.78185  0.015765144  0.014898107            3 
 3885000   0.64036864   -8.0782455    734.50825  0.015755218  0.014893162            2 
 3886000   0.63410881   -8.0790516    734.89344  0.015759424  0.014888215            5 
 3887000   0.63721813   -8.0874691    733.85969  0.015733207  0.014883264            9 
 3888000   0.64024265   -8.0984052     733.4814  0.015721052  0.014878327            3 
 3889000    0.6291829   -8.0895286    732.99772  0.015706645  0.014873373            3 
 3890000   0.62520022   -8.0795086    733.81948  0.015720212  0.014868421            4 
 3891000   0.61749255   -8.0569587     733.7431  0.015714536  0.014863472            5 
 3892000   0.61939318   -8.0703678    734.08027  0.015717717  0.014858524            3 
 3893000   0.63900319   -8.0962971    734.28103  0.015717977  0.014853578            3 
 3894000   0.63079411   -8.0822992    733.27855  0.015692487  0.014848634            2 
 3895000   0.62912805   -8.0918467    734.34064  0.015711182  0.014843686            8 
 3896000   0.63896143   -8.0932298    733.01296  0.015678751  0.014838738            5 
 3897000    0.6387597   -8.0893719    733.02374  0.015674958  0.014833793            3 
 3898000   0.61389683    -8.067901    733.90587  0.015689795   0.01482885            4 
 3899000   0.61779436   -8.0734503    732.09404  0.015647047  0.014823904            3 
 3900000   0.63474557   -8.0818602    733.85316  0.015680623  0.014818959            9 
 3901000   0.62392708   -8.0864684    733.93876  0.015678432   0.01481402           10 
 3902000   0.62359252   -8.0857379    734.67284  0.015690091  0.014809087           11 
 3903000   0.63198102   -8.0862856    733.26318  0.015655974  0.014804156            2 
 3904000   0.62763641   -8.0899986    734.41976  0.015676651  0.014799224            4 
 3905000   0.61571887   -8.0874774    732.81825   0.01563846  0.014794294            3 
 3906000   0.62817826   -8.0777547     733.7203  0.015653702  0.014789371            2 
 3907000   0.61871099   -8.0968332    733.02583  0.015634882  0.014784442            2 
 3908000   0.61449444   -8.0813119    733.82139  0.015647846  0.014779519            5 
 3909000   0.61803241   -8.0966722    734.31911  0.015654454  0.014774604            4 
 3910000   0.62829597   -8.0968475    733.18371  0.015626251  0.014769688            2 
 3911000   0.63307971    -8.077407    735.12613  0.015663644  0.014764784            2 
 3912000   0.64432584    -8.072653    734.08676  0.015637499  0.014759877            3 
 3913000   0.63377815   -8.1086445    732.81439  0.015606406  0.014754977            4 
 3914000    0.6265505   -8.0817437    734.28226  0.015633671  0.014750061            2 
 3915000   0.63009012    -8.084813    734.56339  0.015635662  0.014745168            5 
 3916000   0.63105997   -8.0951832    733.25292  0.015603782  0.014740279            3 
 3917000   0.61514973    -8.095946    735.77417  0.015653437  0.014735393            2 
 3918000   0.62531692   -8.0674667    734.51202  0.015622597  0.014730503            4 
 3919000   0.62558585   -8.0850997    734.16338  0.015611197  0.014725613            4 
 3920000   0.62919829   -8.0942213    734.78582  0.015620447  0.014720724            4 
 3921000   0.62664558   -8.0872836    734.28428  0.015605804  0.014715842            3 
 3922000   0.62630584    -8.090425    735.12974  0.015619789  0.014710954            5 
 3923000   0.62535511   -8.0973523     734.6418  0.015605442  0.014706067            5 
 3924000   0.62633517   -8.1267033    733.34003   0.01557382  0.014701177            4 
 3925000   0.61745644   -8.0881801    733.45511  0.015572295  0.014696292            4 
 3926000   0.63343349   -8.1179732    732.97123  0.015558058  0.014691403            4 
 3927000   0.62306369   -8.1229805    733.31374  0.015561364  0.014686515            4 
 3928000   0.62954666   -8.0756941    734.03706  0.015572748  0.014681627            2 
 3929000   0.62529217   -8.0763548    732.89652  0.015544594  0.014676748            4 
 3930000   0.63037513   -8.1233748      733.883  0.015561556  0.014671868            3 
 3931000   0.62759403   -8.0734892    734.73854  0.015575734  0.014666995            3 
 3932000   0.62659009   -8.1081746    733.40938  0.015543603  0.014662117            3 
 3933000   0.62235373   -8.0812815    734.39106  0.015560451  0.014657243            2 
 3934000   0.61355006   -8.0816576     734.4138  0.015556978  0.014652369            3 
 3935000   0.62203115   -8.1320962    733.98486   0.01554394   0.01464751            2 
 3936000   0.64309071   -8.1174393    734.12572  0.015542973  0.014642642            5 
 3937000   0.60986829   -8.1072195    732.96653  0.015514489  0.014637772            6 
 3938000   0.61353538   -8.0994268    734.50163  0.015543034  0.014632907            3 
 3939000   0.63704704   -8.1069594    733.80288  0.015524306  0.014628053            2 
 3940000    0.6260587   -8.1158075    734.49389  0.015534981  0.014623193            2 
 3941000   0.61478808   -8.1172243    733.93368  0.015519193   0.01461833            4 
 3942000    0.6136674   -8.0945919    734.04956  0.015517706  0.014613469            4 
 3943000   0.63491134   -8.1087918    734.29063  0.015518865  0.014608609            3 
 3944000   0.63028949   -8.1182795    734.42368  0.015517742  0.014603753            3 
 3945000   0.62506532   -8.1031366    733.38636  0.015491896  0.014598902            3 
 3946000   0.62038006   -8.1071853    733.24259  0.015484934  0.014594054            3 
 3947000   0.60382374   -8.1043777    734.29915  0.015503318  0.014589206            4 
 3948000   0.60562624   -8.1204573    733.32065  0.015478737  0.014584351            3 
 3949000   0.61914408   -8.1194761     733.7678  0.015484253  0.014579502            5 
 3950000   0.61226888   -8.1016896    732.97815  0.015463674  0.014574655            7 
 3951000    0.6242546   -8.1215483    734.28011  0.015487221   0.01456981            3 
 3952000   0.60241556   -8.1265349     733.8097  0.015473383   0.01456496            5 
 3953000   0.60591305   -8.1141329     733.5147   0.01546325  0.014560106            2 
 3954000   0.61530713   -8.1308994    733.08163  0.015450211  0.014555261            4 
 3955000   0.61031917   -8.1413245    733.03424  0.015445306  0.014550408            8 
 3956000   0.60928821   -8.1321723    734.59945  0.015474373  0.014545556            2 
 3957000    0.6202428   -8.1140864    733.39137  0.015445021  0.014540714            2 
 3958000   0.61798025   -8.1030101     733.2337  0.015437799  0.014535871            6 
 3959000   0.61453391   -8.1194026    731.14962  0.015390032  0.014531026            8 
 3960000   0.61792788    -8.126585    733.52157   0.01543606  0.014526179            3 
 3961000   0.62681417   -8.1156121    733.76393  0.015437262  0.014521335            2 
 3962000   0.61315468   -8.1281297    733.62243  0.015430389  0.014516494            3 
 3963000   0.60589897   -8.1071349    733.97083  0.015433822  0.014511656            4 
 3964000   0.62174026   -8.1244493    732.96353  0.015408752  0.014506808            7 
 3965000   0.62834823   -8.1356394    732.28737  0.015390655  0.014501958            3 
 3966000   0.61712762    -8.113852    733.76835  0.015417893  0.014497115            4 
 3967000   0.63762847   -8.1432282     732.3533  0.015384281   0.01449228            4 
 3968000   0.62056646   -8.1398507    732.86065  0.015391059  0.014487441            9 
 3969000   0.60094148   -8.1357359    732.44752  0.015378507  0.014482597            9 
 3970000    0.6198896    -8.147065    733.23614  0.015391187  0.014477764            3 
 3971000   0.61281661   -8.1222431    733.26439  0.015387904  0.014472927            5 
 3972000   0.61072047   -8.1389178    731.36079  0.015344092  0.014468087            2 
 3973000   0.62889939   -8.1372476    732.19921  0.015357816  0.014463255            5 
 3974000   0.63062664   -8.1222977     732.4287  0.015358763  0.014458428            4 
 3975000   0.61727015   -8.1359373    733.74971  0.015382594  0.014453593            5 
 3976000   0.60758719   -8.1205356    733.36413  0.015370643  0.014448768            4 
 3977000   0.60462605   -8.1409203    732.71968  0.015353275  0.014443941            4 
 3978000    0.6264742   -8.1334306    732.46715  0.015344125  0.014439114            2 
 3979000   0.61630292   -8.1199461    733.22322  0.015356103  0.014434287           12 
 3980000   0.61960374   -8.1300573    732.68804  0.015341039  0.014429468            2 
 3981000   0.60938045   -8.1224207    734.50983  0.015375321  0.014424651            3 
 3982000   0.62467717   -8.1312418    732.22105  0.015323561   0.01441984            5 
 3983000   0.61496402   -8.1190903    733.04293   0.01533691  0.014415031            3 
 3984000   0.61082331   -8.1199712    732.07267  0.015312765  0.014410228            1 
 3985000   0.59797319    -8.144586    732.98603  0.015328022  0.014405426            3 
 3986000   0.60397195   -8.0924885    733.72309  0.015339586  0.014400633            4 
 3987000   0.61475127   -8.1159749     732.7507  0.015315415  0.014395841            8 
 3988000    0.6337613   -8.1136835    731.95771  0.015295004  0.014391043            3 
 3989000   0.60269754   -8.1272828    733.44378  0.015322215  0.014386249            4 
 3990000   0.60816497   -8.1201346    732.71143  0.015303079  0.014381455            3 
 3991000   0.61085829   -8.1308971    733.09997  0.015307358  0.014376662            3 
 3992000   0.61036334    -8.142776    733.60728  0.015314113  0.014371871            2 
 3993000    0.6181232   -8.1163089    733.52471  0.015308555  0.014367079            2 
 3994000   0.62018897   -8.1237927    734.08145  0.015316338  0.014362287            4 
 3995000   0.60104082   -8.1271067    734.28843  0.015316822  0.014357502            3 
 3996000    0.6189706   -8.1100075    733.15741  0.015289402  0.014352715            3 
 3997000   0.60845832    -8.122455    733.49054  0.015292522  0.014347927            2 
 3998000   0.61072483   -8.1316845    732.95326  0.015277498  0.014343144            2 
 3999000   0.60173514   -8.1208684    732.54423  0.015265155  0.014338352            3 
 4000000   0.62869203   -8.1365606    731.12658  0.015231804   0.01433357            5 
 4001000   0.61597004   -8.1447963     732.3935  0.015254384  0.014328788            3 
 4002000   0.61738753   -8.1206021    734.69281  0.015298451  0.014324007            7 
 4003000   0.60307631   -8.1237739    733.44122  0.015268574  0.014319225            4 
 4004000    0.6129266   -8.1392646    733.15768   0.01525886  0.014314443            4 
 4005000   0.60096386   -8.1260233     732.3611  0.015238475  0.014309661            1 
 4006000   0.60595939   -8.1426934    733.49892   0.01525834  0.014304889            3 
 4007000   0.61358076   -8.1552919    733.60781  0.015256797  0.014300112            3 
 4008000   0.60846016     -8.13442    732.00486  0.015219662  0.014295333            1 
 4009000   0.63459006   -8.1283636    733.07085  0.015238024  0.014290561            3 
 4010000   0.61256221   -8.1385618    732.34526  0.015219145  0.014285785            4 
 4011000    0.6267505    -8.117303    734.26987  0.015255337   0.01428101            3 
 4012000   0.59817435   -8.1567367    731.78672  0.015199957  0.014276235            5 
 4013000    0.6080275   -8.1280851    732.37379   0.01520836  0.014271466            3 
 4014000   0.60287512   -8.1354129    733.99132  0.015238152  0.014266701            4 
 4015000   0.60644362   -8.1422705    733.24637  0.015218895  0.014261944            3 
 4016000   0.60877721   -8.1316923    732.36872  0.015196894   0.01425719            6 
 4017000   0.61587999   -8.1321039    734.26261    0.0152324  0.014252431            3 
 4018000   0.60182524   -8.1153604    732.75565  0.015197355  0.014247674            4 
 4019000   0.61327628   -8.1487749    733.54209   0.01520988  0.014242916            3 
 4020000    0.6160325   -8.1324853    732.28221  0.015179979  0.014238163            3 
 4021000     0.606391    -8.137475    731.66355  0.015163383  0.014233408            5 
 4022000   0.61213092   -8.1448083     732.2094  0.015170923   0.01422865            3 
 4023000   0.62238004   -8.1522688    732.25717  0.015168141  0.014223895            2 
 4024000   0.61415642   -8.1586014    733.00089  0.015179773  0.014219138            4 
 4025000   0.60368387   -8.1348781    731.73033  0.015149696  0.014214382            2 
 4026000   0.61295835   -8.1419524    732.65763  0.015165127  0.014209634            3 
 4027000   0.61419931   -8.1484217    733.18091   0.01517219   0.01420489            3 
 4028000   0.61620281   -8.1339507    732.44997  0.015153301  0.014200146            3 
 4029000   0.60865879   -8.1171723    734.03385    0.0151823   0.01419541            3 
 4030000   0.59834963   -8.1374475    734.00185  0.015177871  0.014190673            6 
 4031000   0.61323564   -8.1450627    732.46452  0.015142325   0.01418594            5 
 4032000   0.59887189   -8.1514019    732.46811  0.015138643   0.01418121            3 
 4033000   0.60571645   -8.1479423    732.44923  0.015134499  0.014176475            3 
 4034000    0.6179411   -8.1299104     732.9208  0.015140489  0.014171748            2 
 4035000   0.59661786   -8.1457956    731.93973  0.015116475  0.014167018            4 
 4036000   0.58843312   -8.1613484    732.87192  0.015131977  0.014162289            3 
 4037000   0.61001066   -8.1446872    732.62775  0.015123189  0.014157565            3 
 4038000   0.61146952   -8.1515524     732.7766  0.015122515  0.014152838            3 
 4039000   0.61057896   -8.1579244    732.07714   0.01510434  0.014148119            8 
 4040000   0.60895806   -8.1599955    732.48016  0.015108914  0.014143388            7 
 4041000   0.60764404   -8.1434958    733.40851   0.01512432  0.014138664            3 
 4042000   0.60850691   -8.1601955    731.93581  0.015090215  0.014133951            6 
 4043000   0.62146302   -8.1343823    731.44241  0.015076313  0.014129234            6 
 4044000   0.61301973   -8.1401528    733.65039  0.015118084  0.014124518            2 
 4045000   0.61711736   -8.1493872    734.11921  0.015124005  0.014119813            3 
 4046000   0.60861998   -8.1499668    734.00305  0.015117875  0.014115104            3 
 4047000   0.60185957   -8.1460388    733.08644  0.015095265  0.014110401            5 
 4048000   0.59759532   -8.1409975    732.84258  0.015086516  0.014105703            4 
 4049000   0.60211101   -8.1492661    732.60662  0.015077933  0.014101013            5 
 4050000   0.61026897   -8.1469143    732.11523  0.015064099  0.014096315           11 
 4051000   0.59986424   -8.1482668    731.97006  0.015057394  0.014091625            6 
 4052000   0.59925866   -8.1513317    732.27063   0.01505986  0.014086938            5 
 4053000    0.5923537   -8.1451732     731.7574  0.015045592  0.014082244            4 
 4054000   0.58981177   -8.1412865    732.64764   0.01506018  0.014077548           10 
 4055000   0.60327076   -8.1324495    732.73558  0.015058273  0.014072857            7 
 4056000   0.60240934   -8.1510578    732.50607  0.015049845  0.014068168            3 
 4057000   0.60084018   -8.1604277    732.62995   0.01504868  0.014063477            7 
 4058000    0.5978425   -8.1605277    731.24268  0.015016484  0.014058779            4 
 4059000   0.59980523   -8.1525784    731.46964  0.015017444  0.014054088            3 
 4060000   0.60011396   -8.1731196    732.07729  0.015026217  0.014049401            3 
 4061000   0.61329383    -8.146173    731.76808  0.015016172  0.014044719           12 
 4062000   0.60224165   -8.1550283    732.81457  0.015033944  0.014040037            4 
 4063000   0.60217978   -8.1520845    733.27298  0.015039646  0.014035352            9 
 4064000   0.60678044   -8.1577337    733.27816  0.015036052  0.014030676            7 
 4065000   0.60613834    -8.150348    733.50773  0.015037059  0.014026002            6 
 4066000   0.60459634   -8.1250776    733.53957  0.015034013  0.014021328            6 
 4067000   0.59932434   -8.1556586    733.01502  0.015019568  0.014016661            4 
 4068000   0.58162022    -8.129686    733.61692  0.015028206  0.014011995            4 
 4069000   0.59705662   -8.1677594     731.9614  0.014990608  0.014007327            2 
 4070000    0.5937957    -8.158723    730.81754  0.014963504  0.014002658            3 
 4071000   0.60117573   -8.1590417    732.76544  0.014999702  0.013997995            3 
 4072000   0.59653758    -8.162312    733.13697  0.015003622  0.013993344            6 
 4073000    0.5912646   -8.1618019     731.9473  0.014975597  0.013988688            4 
 4074000   0.60579898   -8.1423072    731.75507   0.01496799  0.013984028           10 
 4075000   0.59321545   -8.1494848     733.5729  0.015001491  0.013979376            9 
 4076000   0.59252958   -8.1431387    733.17378   0.01498965  0.013974724            6 
 4077000   0.59564184    -8.163492    732.24645  0.014967019  0.013970077            4 
 4078000   0.60061186   -8.1317062    731.89844  0.014956238  0.013965422            3 
 4079000   0.58342039   -8.1284485    733.31232  0.014981456  0.013960776            5 
 4080000   0.59898932   -8.1769822    732.36324    0.0149584  0.013956131            4 
 4081000   0.59599348   -8.1542589    731.97792  0.014946866  0.013951487            3 
 4082000    0.6030756    -8.156168    733.24685  0.014969109  0.013946845            6 
 4083000   0.60584843   -8.1512882    732.78722  0.014956062  0.013942207            2 
 4084000   0.59754231   -8.1525951    734.21614  0.014981557   0.01393758            5 
 4085000   0.60923173    -8.150458    732.28239  0.014938441  0.013932941            6 
 4086000   0.60401334   -8.1611402    734.43904   0.01497877  0.013928305            8 
 4087000   0.58625676    -8.143876    733.95747  0.014965286  0.013923674            5 
 4088000   0.60227153   -8.1602436    733.81772  0.014958776  0.013919045            7 
 4089000   0.59399044   -8.1340902     733.1754  0.014942027  0.013914421            8 
 4090000   0.59382205   -8.1750594    732.72403  0.014929178  0.013909794            6 
 4091000    0.5950343   -8.1493793    732.74769   0.01492601  0.013905164            4 
 4092000   0.59720464   -8.1525143    732.76887  0.014922794  0.013900534            3 
 4093000   0.59285425   -8.1276869    732.09388  0.014905405  0.013895921            5 
 4094000   0.59911181   -8.1412874    732.68636  0.014913824  0.013891308            4 
 4095000   0.60043503   -8.1434529    734.07699  0.014938482  0.013886693            6 
 4096000   0.59440429   -8.1614626    732.57527  0.014904282  0.013882084            3 
 4097000   0.59526583   -8.1443244     732.5479  0.014900087  0.013877474            5 
 4098000    0.5959682   -8.1592935     732.8135  0.014901853   0.01387286            3 
 4099000   0.60736181   -8.1627051    733.17695  0.014905606  0.013868252            3 
 4100000   0.59175258    -8.142607     733.4349  0.014907213  0.013863642            3 
 4101000   0.59351775   -8.1346132    732.64685  0.014887565   0.01385904            6 
 4102000   0.58809899    -8.137766    732.48934  0.014880736  0.013854441            5 
 4103000   0.59528375   -8.1431887     733.3839  0.014895278  0.013849844            2 
 4104000   0.58242784   -8.1548086    732.85425  0.014880894  0.013845246            5 
 4105000   0.58751964   -8.1372085    732.66831  0.014873494  0.013840645            2 
 4106000    0.5953492   -8.1465117    731.01221   0.01483626  0.013836042            3 
 4107000   0.61021877   -8.1542561    734.17948  0.014896913   0.01383144            3 
 4108000   0.59380911   -8.1494219    731.93331  0.014847722  0.013826844            3 
 4109000   0.58542217   -8.1712426     731.8116   0.01484164  0.013822247            3 
 4110000   0.57945811   -8.1681022    732.05345  0.014842933   0.01381765            6 
 4111000    0.6023616   -8.1618903     732.8572  0.014855615  0.013813056            2 
 4112000   0.59388843   -8.1664277    731.61304  0.014826788   0.01380846            5 
 4113000   0.59214187   -8.1607304    732.51257  0.014841409  0.013803871            3 
 4114000   0.59856585   -8.1538175    734.75485  0.014883221  0.013799285            2 
 4115000   0.59397096    -8.163991    732.61179  0.014836205  0.013794704            6 
 4116000   0.59111535   -8.1439458    730.93901  0.014798733  0.013790124            3 
 4117000   0.58134646   -8.1579191     733.1488  0.014839867  0.013785549            6 
 4118000   0.58949386   -8.1528498    733.66225  0.014846654  0.013780981            3 
 4119000   0.59037817   -8.1540511    732.49437  0.014819422  0.013776406            2 
 4120000   0.59320855    -8.168942    733.84926  0.014843229  0.013771837            2 
 4121000   0.59032076   -8.1548764    731.33601  0.014788806  0.013767263            3 
 4122000   0.58854579   -8.1615521    733.19599   0.01482282  0.013762682            4 
 4123000   0.59106879   -8.1593876    732.66142  0.014808421  0.013758108            4 
 4124000   0.60787078   -8.1822525    733.72193  0.014826259  0.013753536            6 
 4125000   0.60577314    -8.166802    732.52867  0.014798559  0.013748962            4 
 4126000   0.59996499   -8.1603886    732.41291  0.014792634  0.013744386            4 
 4127000   0.58716357   -8.1656193    731.86839  0.014778055  0.013739818            6 
 4128000   0.59059545   -8.1541931    732.87548  0.014794805  0.013735255            3 
 4129000    0.5864601   -8.1412609    733.28393  0.014799466  0.013730688            5 
 4130000   0.57697961     -8.14562    732.28979  0.014775823  0.013726127            2 
 4131000   0.58167211   -8.1663841    732.26543  0.014771755  0.013721558            3 
 4132000   0.59239958   -8.1579687    731.90065  0.014760823  0.013716993            4 
 4133000   0.59309354   -8.1620419    732.89872  0.014777376   0.01371243            3 
 4134000   0.60499889     -8.16625    731.74406  0.014750525  0.013707862            3 
 4135000   0.59114561   -8.1636601    732.50917  0.014762377  0.013703298            6 
 4136000   0.59597194   -8.1656486    732.02553  0.014749064  0.013698742            7 
 4137000   0.58799753   -8.1661505    731.68081  0.014738555  0.013694177            3 
 4138000   0.59779679   -8.1591831    731.22714  0.014725857  0.013689618            4 
 4139000   0.59497127   -8.1610515    731.59381  0.014729681  0.013685055            2 
 4140000   0.59617422   -8.1629957    732.89469  0.014752309   0.01368049            6 
 4141000    0.5971343   -8.1735988    733.04674  0.014751806  0.013675932            5 
 4142000   0.58829555   -8.1761408    732.50393  0.014737324  0.013671373            3 
 4143000   0.57329866   -8.1641379    731.64348  0.014716459  0.013666817            5 
 4144000   0.60204551   -8.1756453    732.45686  0.014729264  0.013662263            4 
 4145000   0.59740542   -8.1988945    732.53983  0.014727379  0.013657704            3 
 4146000   0.59751145   -8.1855842    731.29054  0.014698717  0.013653143            3 
 4147000   0.60060771   -8.1626349    731.28561  0.014695073  0.013648588            2 
 4148000   0.59859753   -8.1879846    731.64231  0.014698696  0.013644038            4 
 4149000   0.57805555   -8.1882618    731.53845  0.014693068  0.013639484            4 
 4150000   0.60003569   -8.1777703    732.30482  0.014704916  0.013634929            2 
 4151000   0.59273863   -8.1801977      731.876  0.014692765  0.013630379            4 
 4152000   0.60027596   -8.1816661    732.51405  0.014702032  0.013625829            7 
 4153000   0.59489588   -8.1910595    731.54926  0.014679133  0.013621283            5 
 4154000   0.59261065   -8.1778674    731.58341  0.014676284  0.013616737            4 
 4155000   0.59169505   -8.1703209    730.90425  0.014659131  0.013612194            2 
 4156000   0.59333829   -8.1751995    731.18398  0.014661212  0.013607643            4 
 4157000   0.58859867   -8.1757424    730.60984  0.014646176  0.013603095            1 
 4158000   0.57698128   -8.1696229    731.04978  0.014651471   0.01359856            4 
 4159000   0.59021513   -8.2002389    730.94319  0.014645812  0.013594024            4 
 4160000   0.58801542   -8.1958164    730.46638   0.01463274  0.013589488            6 
 4161000   0.58998003   -8.1759438    731.99445  0.014659826  0.013584952            6 
 4162000   0.59242269   -8.1826358    731.00057  0.014636404  0.013580415            3 
 4163000   0.57487786   -8.1977877    731.24553  0.014637792  0.013575874            3 
 4164000   0.59265463   -8.1969575    731.79156  0.014645204  0.013571337            3 
 4165000   0.58019357   -8.1877157     730.2163   0.01461017  0.013566802            6 
 4166000   0.58264141   -8.1950938    729.93354  0.014601007  0.013562264            3 
 4167000   0.57354779   -8.1831982    730.84308  0.014615692  0.013557739            2 
 4168000   0.59129759   -8.1709803    730.17761  0.014598881  0.013553209            2 
 4169000   0.59016441   -8.1893123    731.57867  0.014623384  0.013548686            5 
 4170000   0.58486448   -8.1888921    730.34475  0.014595219  0.013544162            4 
 4171000   0.57556515   -8.1982954    731.71981  0.014619192   0.01353964            4 
 4172000   0.58448192   -8.1653037    732.05085    0.0146223  0.013535128            5 
 4173000   0.58665318   -8.1785115    731.88656  0.014615516  0.013530615            4 
 4174000   0.58008922   -8.2049258    731.62073  0.014606707  0.013526096            4 
 4175000   0.58386032    -8.183486    732.80622  0.014626871  0.013521578            6 
 4176000   0.58080833   -8.1954889    730.70463   0.01458143  0.013517058            4 
 4177000   0.57945947   -8.1973916    730.09193  0.014565716  0.013512533            4 
 4178000   0.57821133   -8.1896501    730.94834  0.014579311   0.01350801            2 
 4179000   0.59454194   -8.1860934    730.62809  0.014569436  0.013503497            2 
 4180000   0.58362635   -8.1902059    730.62763  0.014565942   0.01349898            6 
 4181000   0.57676832    -8.210781    730.33483  0.014556622   0.01349446            3 
 4182000   0.59068579    -8.205599    730.62857  0.014558994  0.013489943            4 
 4183000   0.58343213   -8.1912009    730.78661  0.014558662  0.013485432            2 
 4184000    0.5808692   -8.1942635    731.29979  0.014565404  0.013480923            2 
 4185000   0.57433868   -8.1923922    731.07526  0.014557452  0.013476413            3 
 4186000   0.58750528   -8.1930313    732.66761  0.014585675  0.013471905            3 
 4187000   0.56466517   -8.1734586    731.36191  0.014556204  0.013467402            3 
 4188000   0.58069876   -8.1884713    731.94387  0.014564308  0.013462898            3 
 4189000   0.56985062   -8.2025547    730.82564  0.014538586    0.0134584            2 
 4190000   0.55801765   -8.1965956    730.16732  0.014522023  0.013453904            3 
 4191000   0.58291652   -8.1914422    731.19337   0.01453896  0.013449404            3 
 4192000   0.57734548    -8.209249    731.64347  0.014544439  0.013444915            1 
 4193000   0.59236525   -8.2146631     730.4976  0.014518197  0.013440422            2 
 4194000    0.5751135   -8.2148813    731.55859  0.014535817  0.013435928            6 
 4195000   0.56514189   -8.2015267    730.08108  0.014503001  0.013431433            4 
 4196000   0.58005147   -8.1986818     730.6186   0.01451022  0.013426943            2 
 4197000    0.5728578   -8.2113393    731.39041  0.014522087  0.013422461            2 
 4198000   0.57686155    -8.203664    730.25938  0.014496176  0.013417973            2 
 4199000     0.592791     -8.20183    730.86317  0.014504707   0.01341348            2 
 4200000   0.58182652   -8.2110983    730.27981  0.014489679  0.013408989            8 
 4201000   0.58949355   -8.2081042    729.99157  0.014480512  0.013404498            3 
 4202000   0.57801215    -8.180803    730.61605  0.014489451  0.013400017            2 
 4203000   0.58556104   -8.1966591    731.29307  0.014499426  0.013395536            2 
 4204000    0.5854996   -8.2045278    730.71991  0.014484616  0.013391064            3 
 4205000   0.57528226   -8.2056372    730.24761  0.014471812  0.013386578            3 
 4206000    0.5809449   -8.2042727    730.40413  0.014471472  0.013382092            2 
 4207000   0.57571364   -8.2100992    731.12253  0.014482262  0.013377608            3 
 4208000   0.58083477   -8.2236392    729.46608  0.014446017  0.013373122            4 
 4209000   0.56184326    -8.202776    730.26748  0.014458452   0.01336864            4 
 4210000   0.58334744   -8.2173279      730.417  0.014457977  0.013364157            8 
 4211000   0.58434406   -8.2086376    730.81614  0.014462442  0.013359681            6 
 4212000    0.5756032   -8.2188822    731.21464  0.014466893  0.013355202            2 
 4213000   0.58887689   -8.2016926    730.89059  0.014457049  0.013350725            3 
 4214000   0.58345113   -8.2037306    729.57939  0.014427689  0.013346255            2 
 4215000   0.59248981   -8.2262143      729.195  0.014416667   0.01334179            1 
 4216000   0.57873054   -8.2088576    730.45013  0.014438056  0.013337324            4 
 4217000   0.57760263   -8.2070928    730.97143  0.014444934  0.013332857            2 
 4218000    0.5751378   -8.2018798    730.05056  0.014423316  0.013328393            7 
 4219000    0.5804886   -8.2241924    730.06409  0.014420165  0.013323934            3 
 4220000   0.57815424   -8.2155166    731.67126  0.014448485  0.013319481            2 
 4221000   0.57310742    -8.212634    730.86825  0.014429208  0.013315025            2 
 4222000   0.57085874   -8.2134483    729.63809   0.01440151   0.01331057            6 
 4223000   0.58140987   -8.2100848    730.92303  0.014423456   0.01330612            3 
 4224000   0.57666593   -8.2127449    731.07676  0.014423074  0.013301669            4 
 4225000   0.57599857    -8.217367     730.6188  0.014410627  0.013297216            2 
 4226000   0.58778625   -8.2119896    731.36535  0.014421939  0.013292766            1 
 4227000   0.58186611   -8.2371441    729.62584  0.014384233  0.013288316            1 
 4228000   0.56628857    -8.211112    729.79824  0.014384229   0.01328387            7 
 4229000   0.57545753   -8.2416884    729.64025  0.014377714  0.013279421            2 
 4230000   0.58233526   -8.1965267    730.15202  0.014384398  0.013274975            3 
 4231000   0.58243516   -8.2071121    729.86819  0.014375407   0.01327054            5 
 4232000   0.58105819   -8.2114376    729.42427  0.014363269  0.013266101            3 
 4233000   0.57660607   -8.2159425    729.84539  0.014368167   0.01326167            3 
 4234000   0.56947649   -8.2129616    730.51864  0.014378024  0.013257231            3 
 4235000   0.56844663   -8.2115409    730.39407  0.014372178  0.013252799            2 
 4236000   0.57303282   -8.2106555    730.99902  0.014380686  0.013248368            2 
 4237000   0.57886794   -8.2181449    731.32367  0.014383677  0.013243938            4 
 4238000    0.5770233   -8.2387226    729.93446  0.014352966  0.013239512            7 
 4239000   0.57630265   -8.2189762    730.02451  0.014351351  0.013235084            4 
 4240000    0.5568553   -8.2330332    729.72194  0.014342019  0.013230655            4 
 4241000   0.58255441   -8.1979585    730.01099  0.014344317  0.013226234            2 
 4242000   0.57796656   -8.2267901    729.76034  0.014336012  0.013221813            3 
 4243000   0.57260918   -8.2258178    729.73275  0.014332091  0.013217392            2 
 4244000   0.57711622   -8.2094855    729.84991  0.014331015  0.013212972            6 
 4245000   0.56557172   -8.2314542    729.31831  0.014317203  0.013208544            4 
 4246000   0.56518335   -8.2123001    731.92883  0.014365066  0.013204124            4 
 4247000   0.58122345   -8.1991353    730.62986  0.014336195  0.013199709            4 
 4248000   0.57033037    -8.206915    730.63248  0.014332872  0.013195291            3 
 4249000   0.57496811    -8.210738    731.07215  0.014338122  0.013190879            7 
 4250000   0.56225671   -8.2088269    729.55122  0.014304926  0.013186471            5 
 4251000   0.55213026   -8.2171826    729.93901  0.014309163  0.013182059            2 
 4252000   0.57693313   -8.2340392    730.60281  0.014318807   0.01317765            3 
 4253000   0.58345522   -8.2219269    729.64047  0.014296584  0.013173247            2 
 4254000    0.5762999   -8.2183827     731.6183  0.014331968  0.013168843            3 
 4255000   0.56314687   -8.2360666    729.93929  0.014295717  0.013164436            3 
 4256000   0.57296149   -8.2106993    730.25231  0.014298487  0.013160033            3 
 4257000   0.57044856   -8.2292137    730.49641  0.014299906  0.013155636            6 
 4258000   0.56926694   -8.2149693    729.67408  0.014280454   0.01315124            5 
 4259000   0.58986173   -8.2308125    729.77155  0.014279008  0.013146847            3 
 4260000   0.56710829   -8.2216801    731.04635  0.014300594  0.013142456            3 
 4261000   0.57611144   -8.2315462     730.0383  0.014277523  0.013138065            3 
 4262000   0.57371553   -8.2076661     730.9642  0.014292277  0.013133684            7 
 4263000   0.57152241   -8.2076692    729.62054  0.014262658  0.013129301            2 
 4264000   0.57331031   -8.2452016    730.89819  0.014284283  0.013124922            6 
 4265000   0.55991037   -8.2263304    731.82841  0.014299109  0.013120534            4 
 4266000   0.56728949    -8.224406    730.14262  0.014262827  0.013116156            4 
 4267000    0.5559766   -8.2043155    731.78025  0.014291467  0.013111781            7 
 4268000   0.57635015   -8.2139191     730.7207   0.01426743  0.013107403            7 
 4269000   0.55899926   -8.2252911     731.0828  0.014271156  0.013103022           10 
 4270000    0.5661579   -8.2275235    730.25796  0.014251717  0.013098645            3 
 4271000   0.55751905   -8.1975429    729.57516  0.014235057  0.013094275            2 
 4272000   0.56720257   -8.2345368    730.21895  0.014244284  0.013089906            2 
 4273000    0.5683139   -8.2265253    729.49927  0.014226914  0.013085538            3 
 4274000   0.56196578    -8.233621    729.14069  0.014216594  0.013081168            3 
 4275000   0.56392942   -8.2238123     729.3646  0.014217634  0.013076801            2 
 4276000   0.56852896   -8.2260588     729.5056  0.014217056  0.013072431            2 
 4277000   0.56204618   -8.2104376     729.5082  0.014213783  0.013068066            4 
 4278000   0.56296827   -8.2161763    728.89044  0.014198427    0.0130637            2 
 4279000   0.57260951   -8.2220513     729.1899  0.014200941  0.013059333            3 
 4280000   0.56487891   -8.2258376    730.46566  0.014222462  0.013054971            3 
 4281000   0.56903257    -8.214948    729.18495   0.01419421  0.013050615            2 
 4282000   0.57115975   -8.2050711    730.44566   0.01421543  0.013046258            4 
 4283000   0.57746629   -8.2168587    729.78542  0.014199265  0.013041905            6 
 4284000   0.57688032   -8.2529411    730.24157  0.014204823  0.013037552            2 
 4285000    0.5704603   -8.2332713    729.84535  0.014193803  0.013033202            3 
 4286000   0.56883634   -8.2191771     729.9198  0.014191939  0.013028851            3 
 4287000   0.56147985   -8.2377697     730.5246  0.014200385  0.013024504            3 
 4288000   0.57065658   -8.2313172    728.78967  0.014163356  0.013020155            4 
 4289000   0.57098054   -8.2497454    731.09871  0.014204918  0.013015808            3 
 4290000   0.55767079   -8.2222869    730.26649  0.014185441  0.013011465            2 
 4291000   0.56749784    -8.231294    728.74934  0.014152671  0.013007123            3 
 4292000   0.57407473   -8.1935898    731.48942  0.014202575  0.013002788            6 
 4293000   0.56235717     -8.21168     731.3596  0.014196747  0.012998456            3 
 4294000   0.56924239    -8.220269    730.15764  0.014170114  0.012994121            4 
 4295000   0.58130534   -8.2272546    729.07738  0.014145855  0.012989791            2 
 4296000   0.55740111   -8.2174177    730.21171  0.014164566  0.012985459            4 
 4297000   0.56159217   -8.2150997    728.77732  0.014133452   0.01298113            3 
 4298000    0.5637027   -8.2047799    729.88331  0.014151608  0.012976801            3 
 4299000   0.56298884   -8.2314845    730.25619  0.014155544  0.012972478            5 
 4300000   0.57286985   -8.2262867    730.26353  0.014152394  0.012968152            2 
 4301000   0.56042388   -8.2116367    729.26419  0.014129741  0.012963821            3 
 4302000   0.55068615   -8.2501602    730.07815  0.014142224    0.0129595            5 
 4303000   0.57209564   -8.2275726    729.88044  0.014135108  0.012955172            3 
 4304000    0.5638732   -8.2282685    729.17912  0.014118245  0.012950852            2 
 4305000   0.56236092   -8.2515766     727.9485  0.014091144  0.012946526            5 
 4306000   0.56435557   -8.2179572    729.46051  0.014117133  0.012942203            3 
 4307000   0.56518885   -8.2359346    729.92186  0.014122782  0.012937885            3 
 4308000   0.56096088   -8.2334582    730.13487  0.014123624  0.012933567            2 
 4309000   0.57372005     -8.22577    729.32403  0.014104665   0.01292925            4 
 4310000   0.56804436   -8.2370379    729.57442  0.014106234  0.012924933            4 
 4311000    0.5523849   -8.2334153    729.19409   0.01409561  0.012920625            4 
 4312000   0.56350985   -8.2491539    731.18655  0.014130847  0.012916312            4 
 4313000   0.57219127   -8.2456535    728.65269  0.014078613     0.012912            5 
 4314000   0.55923079    -8.215159    729.58599  0.014093378  0.012907688            3 
 4315000   0.57569236   -8.2234734    730.05128  0.014099098  0.012903382            2 
 4316000   0.56024219   -8.2354213     729.7941  0.014090865  0.012899078            5 
 4317000     0.563511   -8.2337086    729.50042  0.014081932  0.012894772            3 
 4318000   0.55465519   -8.2341939    729.90082  0.014086398   0.01289047            3 
 4319000   0.55457611   -8.2364531    730.32105  0.014091245   0.01288617            2 
 4320000    0.5637692   -8.2292968    729.16249  0.014065634  0.012881869            4 
 4321000   0.56683862    -8.232441    729.18267  0.014062768  0.012877577            4 
 4322000   0.56294625    -8.214213    728.17468  0.014040079  0.012873286            3 
 4323000   0.57025505   -8.2365833    729.70235   0.01406628     0.012869            3 
 4324000   0.56201689   -8.2410474    729.99814  0.014068728  0.012864712            3 
 4325000   0.55659994   -8.2462375    729.63378  0.014058454  0.012860423            4 
 4326000   0.56601589   -8.2386608    730.46711  0.014071257  0.012856139            9 
 4327000   0.56158691    -8.235151     730.8124  0.014074655  0.012851854            4 
 4328000   0.54978806    -8.248961    729.46126  0.014045388   0.01284757            5 
 4329000   0.56638485   -8.2165914    729.15603  0.014036268   0.01284329            3 
 4330000   0.55198118   -8.2391984    729.41004  0.014037915  0.012839011            2 
 4331000   0.55528009   -8.2361778    729.79148  0.014042013  0.012834732            3 
 4332000   0.55923214   -8.2513499    729.89538   0.01404077   0.01283045            4 
 4333000   0.55770745   -8.2278768    729.38802  0.014027772  0.012826165            5 
 4334000   0.55560204   -8.2418079    729.66145  0.014029793  0.012821885            3 
 4335000   0.56108422   -8.2436777    729.60739  0.014025517  0.012817611            2 
 4336000   0.56115097    -8.237943    729.64077  0.014022924  0.012813338            4 
 4337000    0.5435912   -8.2375057    729.31683  0.014013466  0.012809064            5 
 4338000   0.56868022   -8.2345999    729.82546  0.014020007  0.012804793            1 
 4339000   0.56558187   -8.2577538    730.01748  0.014020463  0.012800521            4 
 4340000   0.55972386   -8.2594606    728.96479   0.01399702  0.012796253            5 
 4341000   0.55762114   -8.2490531     730.1412  0.014016379  0.012791986            5 
 4342000   0.56401679   -8.2521426    728.62896  0.013984127   0.01278772            2 
 4343000   0.55541695   -8.2539782    728.23194  0.013973289  0.012783451            2 
 4344000   0.56644357   -8.2407047    729.29929  0.013990548  0.012779189            5 
 4345000   0.54926976    -8.246023    729.41771  0.013989599  0.012774924            4 
 4346000   0.54097687   -8.2398405    728.53296  0.013969415  0.012770665            4 
 4347000   0.55417399    -8.255616    729.46257  0.013984023  0.012766406            3 
 4348000   0.55452101   -8.2423935    730.99449  0.014010167  0.012762148            2 
 4349000    0.5533824   -8.2562823    729.08822  0.013970419  0.012757892            2 
 4350000   0.56380629   -8.2571906    729.70978  0.013979115  0.012753641            5 
 4351000   0.54387551   -8.2527734    729.40242  0.013970015  0.012749396            4 
 4352000    0.5588689   -8.2490093    730.35946  0.013985131  0.012745149            4 
 4353000   0.54571368   -8.2519325    730.30099  0.013980799  0.012740911            3 
 4354000    0.5524164   -8.2381853    729.59998   0.01396417  0.012736669            5 
 4355000   0.55095934    -8.248146    730.67631   0.01398156  0.012732435            3 
 4356000   0.54945783    -8.235098    729.53921  0.013956596  0.012728199            2 
 4357000   0.55199847   -8.2393868    730.66472   0.01397492  0.012723964            3 
 4358000   0.55141538   -8.2373103    729.53185  0.013950051  0.012719733            3 
 4359000   0.55728659   -8.2633186    730.72528  0.013969666  0.012715505            3 
 4360000   0.55190184    -8.243795    730.06478  0.013953838  0.012711272            3 
 4361000   0.56272096   -8.2224678    730.54298  0.013959776  0.012707051            5 
 4362000   0.56912667   -8.2530003    728.89344  0.013925062  0.012702829            3 
 4363000   0.56105675   -8.2433566    728.80794  0.013920237  0.012698608            3 
 4364000   0.54763344   -8.2514594    728.16437  0.013904758  0.012694387            2 
 4365000   0.54395236   -8.2254846    730.03155  0.013937219  0.012690167            4 
 4366000   0.55565915    -8.268278    729.94717  0.013932417  0.012685951            8 
 4367000   0.56737945   -8.2507492    729.15257  0.013914063  0.012681735            2 
 4368000   0.53645734   -8.2403734      731.048  0.013947039  0.012677521            2 
 4369000   0.55126131    -8.229611     729.3641  0.013911728  0.012673309            5 
 4370000   0.56455726   -8.2364981    729.20558  0.013905522    0.0126691            3 
 4371000   0.56010159   -8.2556001    730.06885  0.013918799  0.012664893            4 
 4372000   0.55290267   -8.2473211    729.15738  0.013898242  0.012660676            5 
 4373000   0.55064499   -8.2332045    729.34145  0.013898572  0.012656467            4 
 4374000   0.55878757   -8.2649911    729.00001  0.013888889  0.012652258            4 
 4375000   0.54616986    -8.260776    729.17936  0.013889131  0.012648047            3 
 4376000   0.56301267    -8.254658    729.56954  0.013893387  0.012643839            6 
 4377000   0.55736759   -8.2629483    728.82631  0.013876062  0.012639634            4 
 4378000   0.53886926   -8.2628555    730.72876  0.013909105  0.012635431            3 
 4379000   0.54446661   -8.2793728    729.78334  0.013887937  0.012631228            2 
 4380000   0.54392093    -8.248032    729.89384  0.013886869  0.012627028            5 
 4381000   0.54566316   -8.2459233    730.61171  0.013897354  0.012622835            4 
 4382000   0.55077745   -8.2521735    730.57431  0.013893472  0.012618636            3 
 4383000    0.5440926   -8.2472504    728.56781  0.013852152   0.01261444            3 
 4384000   0.54988133    -8.258898    728.49291  0.013847569  0.012610244            2 
 4385000   0.54490973   -8.2511547     729.4624  0.013862835  0.012606052            4 
 4386000    0.5514881   -8.2515184    729.65703  0.013863373  0.012601867            2 
 4387000   0.55028481   -8.2660159     729.6296  0.013859692  0.012597685            6 
 4388000   0.54774078   -8.2621021    728.49286  0.013834945    0.0125935            3 
 4389000   0.55256239   -8.2693518    729.38775  0.013848784  0.012589313            4 
 4390000   0.56093582   -8.2605864    728.76418  0.013833792  0.012585132            5 
 4391000   0.54938963   -8.2598845    728.73872  0.013830159   0.01258095            5 
 4392000   0.54367345   -8.2626401    729.36283  0.013838851  0.012576768            4 
 4393000   0.55069029   -8.2425534    730.36815  0.013854772  0.012572591            3 
 4394000   0.54255168   -8.2707884    729.57587  0.013836593  0.012568413            4 
 4395000   0.55302164   -8.2503936    729.43843  0.013830839  0.012564244            4 
 4396000   0.54695961   -8.2734569    730.59732  0.013849661  0.012560073            3 
 4397000   0.55562634   -8.2444202    729.81134  0.013831615  0.012555904            3 
 4398000   0.54425047   -8.2593281    729.27119  0.013818235  0.012551733            4 
 4399000   0.54005359   -8.2667421     729.7038  0.013823289  0.012547565            3 
 4400000   0.54644729    -8.267232    729.35204  0.013813486  0.012543396            3 
 4401000   0.54974833   -8.2658865    729.52526  0.013813627  0.012539229            4 
 4402000   0.54828387   -8.2731781    729.84111  0.013816468  0.012535061            3 
 4403000   0.54462427   -8.2620743    729.00011  0.013797413    0.0125309            3 
 4404000   0.54475251   -8.2669043    729.13447  0.013796822  0.012526741            6 
 4405000    0.5567517   -8.2599892    729.70912  0.013804561  0.012522582            2 
 4406000    0.5421078   -8.2606866    728.97225  0.013787491  0.012518422            9 
 4407000   0.53753363   -8.2603618    729.94757  0.013802806  0.012514259            4 
 4408000   0.54989421   -8.2612801    728.46019  0.013771555  0.012510098            4 
 4409000   0.53417623   -8.2367914    728.81096  0.013775062  0.012505945            3 
 4410000   0.54722801   -8.2532973     728.4621  0.013765346  0.012501792            6 
 4411000    0.5579546   -8.2589303    728.54033  0.013763703   0.01249764            3 
 4412000   0.53084882   -8.2708352    728.60144  0.013761738  0.012493488            5 
 4413000   0.54455476   -8.2530501    729.36705  0.013773077  0.012489337            4 
 4414000   0.55954798   -8.2592389    728.57535   0.01375501  0.012485189            2 
 4415000   0.54611438   -8.2725079    729.42623  0.013767955  0.012481043            4 
 4416000   0.53846883   -8.2673743     729.3304  0.013763028  0.012476896            5 
 4417000   0.54414273   -8.2750529    728.15639  0.013737763  0.012472746            2 
 4418000   0.53813245   -8.2636201    727.78121  0.013727577  0.012468603            5 
 4419000   0.53416267   -8.2677369    728.15321  0.013731485  0.012464459            4 
 4420000   0.54226205   -8.2898557    727.65495  0.013718985  0.012460309            3 
 4421000   0.55523815   -8.2675155    728.54475  0.013732654  0.012456168            4 
 4422000   0.54612744   -8.2629668    727.89374   0.01371728  0.012452029            4 
 4423000   0.53724116   -8.2672273    728.74949  0.013730302  0.012447888            5 
 4424000   0.53120648     -8.27223    728.34176  0.013719518  0.012443746            5 
 4425000   0.53561798   -8.2408559    729.29707  0.013734408  0.012439608            2 
 4426000   0.53938749   -8.2829748    729.28773  0.013731129  0.012435474            3 
 4427000   0.53715734   -8.2707091    728.56093  0.013714346   0.01243134            5 
 4428000   0.54910706   -8.2684299    728.27207  0.013705813  0.012427205            3 
 4429000    0.5296073   -8.2798484    728.17684  0.013700926  0.012423071            6 
 4430000   0.53497162   -8.2765751    728.59066  0.013705618  0.012418939            4 
 4431000    0.5563173   -8.2690543    726.89738   0.01367068  0.012414812            5 
 4432000   0.53493502   -8.2817992    728.27475  0.013693493  0.012410682            8 
 4433000    0.5310136   -8.2679771    728.21863  0.013689349  0.012406556            4 
 4434000   0.54285345   -8.2583138    728.31828  0.013688135  0.012402426            5 
 4435000   0.54034159   -8.2700226    728.91809  0.013696319    0.0123983            5 
 4436000   0.55718295   -8.2631594    728.68161  0.013688789  0.012394179            3 
 4437000    0.5364565    -8.265038    728.34025  0.013679292  0.012390058            6 
 4438000   0.53253589     -8.28622     727.8098   0.01366625  0.012385938            4 
 4439000   0.53977081   -8.2732708    729.04092  0.013686283  0.012381818            5 
 4440000   0.53776638   -8.2699985    728.12839  0.013666073  0.012377699            4 
 4441000   0.53796043   -8.2914248    729.05347  0.013680355  0.012373587            3 
 4442000   0.53443927   -8.2843448    728.72709  0.013671152  0.012369474            7 
 4443000   0.53492456   -8.2597485    728.93442  0.013671964  0.012365363            7 
 4444000   0.52300484    -8.292554    727.41507  0.013640397  0.012361243            2 
 4445000   0.53651075   -8.2787101    728.32961  0.013654473  0.012357133            3 
 4446000   0.54532586    -8.276288    727.76346  0.013640791  0.012353024            3 
 4447000   0.53809174   -8.2821095    727.99083  0.013641984  0.012348922            6 
 4448000   0.54262798   -8.2557564    728.39348  0.013646461   0.01234482            4 
 4449000   0.54459828   -8.2750025    727.75779  0.013631486  0.012340719            5 
 4450000   0.54383359   -8.2742526    727.97567  0.013632503  0.012336619            2 
 4451000   0.54668609   -8.2764286    727.80934  0.013626326  0.012332521            3 
 4452000   0.54123629   -8.2765942    729.22523  0.013649768  0.012328423            4 
 4453000   0.52576652   -8.2804415    728.33135  0.013629975  0.012324331            5 
 4454000   0.53408999   -8.2741111    728.96653  0.013638799  0.012320239            4 
 4455000    0.5480784   -8.2754458     728.0902  0.013619345  0.012316148            5 
 4456000   0.53572507   -8.2686023    729.33696  0.013639605  0.012312062            5 
 4457000   0.53675653   -8.2892684    728.06179  0.013612703  0.012307975            4 
 4458000   0.53246993   -8.2793046     728.0878  0.013610135   0.01230389            4 
 4459000   0.55185857   -8.2740718    728.78209  0.013620059  0.012299806            3 
 4460000   0.53909668   -8.2733098    728.24866  0.013607038   0.01229572            4 
 4461000   0.53360117   -8.2984843    728.16669  0.013602456  0.012291639            4 
 4462000   0.53263063   -8.2704316    728.08344  0.013597853  0.012287557            3 
 4463000   0.52866716   -8.2917875    727.64769   0.01358667  0.012283478            4 
 4464000   0.53805538   -8.2972663    727.05515  0.013572565    0.0122794            4 
 4465000   0.54544061   -8.2913462    727.85527  0.013584458  0.012275323            3 
 4466000   0.53590675   -8.2968075    727.84029  0.013581137  0.012271246            3 
 4467000    0.5441653   -8.2901384    727.81625  0.013577648  0.012267175            4 
 4468000   0.54229349   -8.2758035    727.57345  0.013570081  0.012263102            4 
 4469000   0.54048534   -8.2821669    727.79115  0.013571104  0.012259032            3 
 4470000   0.53960608   -8.2947932    727.39949  0.013560766   0.01225496            5 
 4471000    0.5316214   -8.2980837    728.79504  0.013583744  0.012250887            4 
 4472000   0.52289757   -8.3061698    727.03891  0.013547982  0.012246819            4 
 4473000   0.53277432   -8.2886114    727.95718  0.013562061  0.012242753            2 
 4474000   0.53974209   -8.2843676    728.51349  0.013569392  0.012238689            3 
 4475000   0.52655607   -8.2868751    728.63147  0.013568556  0.012234627            4 
 4476000   0.52822056   -8.3008793    727.77265  0.013549536  0.012230564            7 
 4477000   0.53670404   -8.2823397    727.24654  0.013536716  0.012226504            3 
 4478000   0.53228203   -8.2740664    726.83892  0.013526108  0.012222448            4 
 4479000   0.53854221   -8.2976566    728.96367   0.01356262  0.012218393            3 
 4480000   0.53230363    -8.296175    727.65285  0.013535209  0.012214332            5 
 4481000   0.53925245   -8.2799293    727.97597  0.013538198  0.012210277            6 
 4482000   0.52762628   -8.2864584     727.5798  0.013527811  0.012206225            5 
 4483000   0.53113282   -8.2742502    727.64434  0.013525993  0.012202179            3 
 4484000    0.5416684   -8.2845064    728.00554   0.01352969   0.01219813            3 
 4485000   0.54083393   -8.2992206    728.44263  0.013534794  0.012194083            5 
 4486000    0.5465912   -8.2766295    728.44832  0.013531883  0.012190038            2 
 4487000   0.54337267   -8.2837927    727.41317  0.013509642  0.012185997            3 
 4488000   0.54232044   -8.2963325    728.15081  0.013520328  0.012181957            3 
 4489000    0.5287213   -8.2966291    727.32785  0.013502039  0.012177914            4 
 4490000   0.53099093   -8.2867757    727.49563  0.013502146  0.012173866            4 
 4491000   0.52913554   -8.2885297    727.35139  0.013496463  0.012169825            3 
 4492000   0.53340157   -8.2795795    728.57581  0.013516173  0.012165792            3 
 4493000   0.53622232   -8.2894892    728.66579  0.013514834  0.012161762            3 
 4494000   0.53389658   -8.2982315    727.20025  0.013484651  0.012157731            4 
 4495000   0.52327127    -8.295938    727.41193  0.013485575    0.0121537            3 
 4496000   0.52922596   -8.2844884    726.79948  0.013471224   0.01214967            4 
 4497000    0.5417126   -8.2978521    727.71858   0.01348526  0.012145641            3 
 4498000   0.52454732   -8.2781536    728.93202  0.013504743  0.012141618            3 
 4499000   0.53146825   -8.3007005    727.06893  0.013467232  0.012137595            4 
 4500000     0.524384   -8.2802456    727.32241  0.013468934  0.012133576            4 
 4501000   0.53249501   -8.2984208    728.05692   0.01347954  0.012129555            4 
 4502000   0.53935041   -8.3019419    727.79028   0.01347161  0.012125539            8 
 4503000   0.52726988   -8.3107459    727.26534  0.013458904  0.012121522            3 
 4504000   0.52612919   -8.2756272    727.90978  0.013467839  0.012117509            3 
 4505000   0.52198045   -8.2944873    728.31064  0.013472265  0.012113495            4 
 4506000   0.52598265   -8.2731809    728.31341  0.013469326  0.012109483            8 
 4507000   0.52398002   -8.2901304    727.23487  0.013446396  0.012105478            3 
 4508000   0.53995663   -8.2879968     728.5802  0.013468282  0.012101471            4 
 4509000   0.54386216   -8.3010706    727.48517  0.013445058  0.012097465            5 
 4510000   0.52530376   -8.2956572    728.06684  0.013452824  0.012093458            6 
 4511000   0.51792209   -8.2992782    727.09383  0.013431867  0.012089455            2 
 4512000   0.52111586   -8.2794491    728.03037  0.013446187  0.012085454            4 
 4513000    0.5450447    -8.288736    727.10852  0.013426186  0.012081454            4 
 4514000    0.5318759   -8.2859249    727.12114  0.013423444   0.01207746            5 
 4515000   0.53179646   -8.3041654    728.07032   0.01343799  0.012073465            9 
 4516000   0.53316692   -8.2838403    728.09728  0.013435512   0.01206947            3 
 4517000   0.52332618   -8.2978028    727.35335  0.013418813  0.012065481            7 
 4518000   0.53143246   -8.2908481    727.10714  0.013411302   0.01206149            5 
 4519000   0.53211899   -8.2910904    728.68198  0.013437375  0.012057505            7 
 4520000   0.52380563   -8.3029522    727.04575  0.013404236   0.01205352            5 
 4521000   0.53387798   -8.2925437    727.63805  0.013412188  0.012049535            4 
 4522000   0.52354025   -8.2819088    728.98417  0.013434029  0.012045551            3 
 4523000   0.52522105   -8.2959058    728.21574  0.013416901  0.012041574            2 
 4524000   0.51775123   -8.2955852    727.20892   0.01339539  0.012037595            4 
 4525000   0.52612406   -8.3146529    728.35386  0.013413515  0.012033613            5 
 4526000   0.52179657   -8.2778404    728.36495  0.013410756  0.012029636            3 
 4527000   0.52411751   -8.2939794    728.87967  0.013417268  0.012025661            4 
 4528000   0.52393341    -8.309054    727.28454  0.013384948  0.012021687            3 
 4529000   0.52778124   -8.3193484    727.88916  0.013393118   0.01201771            4 
 4530000   0.52062386   -8.3033901    727.94847  0.013391252  0.012013739            3 
 4531000   0.52170013   -8.3081577    726.73006  0.013365888  0.012009764            3 
 4532000   0.53491786   -8.3025381    727.12697  0.013370237  0.012005796            3 
 4533000   0.53996661   -8.3146632    728.00821  0.013383488  0.012001827            4 
 4534000   0.52936683   -8.3109532    729.08715  0.013400367  0.011997861            4 
 4535000   0.52702244   -8.2941465    728.00925  0.013377605  0.011993895            5 
 4536000   0.52081174   -8.3151722    727.52334  0.013365729  0.011989932            6 
 4537000   0.51960082   -8.3063785    727.29795  0.013358643  0.011985969            5 
 4538000   0.53599087   -8.3039432    728.20509  0.013372357  0.011982006            3 
 4539000   0.53807781   -8.2969258    727.72846  0.013360661  0.011978045            4 
 4540000   0.52757447   -8.2940218    726.44608  0.013334179  0.011974084            3 
 4541000   0.52984033   -8.3128831    727.38253  0.013348428  0.011970124            4 
 4542000     0.522675   -8.2935936    726.73392  0.013333589  0.011966161            6 
 4543000   0.51884399   -8.3177719    726.67591   0.01332959  0.011962201            5 
 4544000   0.52120819   -8.3035879    727.83919   0.01334799  0.011958242            5 
 4545000    0.5234601   -8.3026784    727.74588  0.013343342  0.011954289            6 
 4546000   0.52670184   -8.3070805    727.89666  0.013343171  0.011950335            5 
 4547000    0.5288547     -8.30109    727.83566  0.013339118  0.011946384            4 
 4548000   0.50847489   -8.3109305    728.46319  0.013347684  0.011942437            5 
 4549000   0.52616469    -8.293895    727.04718   0.01331881  0.011938495            4 
 4550000   0.53453085   -8.3093181     727.3697  0.013321789  0.011934553            4 
 4551000   0.52785824   -8.2956687    728.56071  0.013340671  0.011930611            6 
 4552000   0.51790563   -8.3062552    727.17925   0.01331245  0.011926678            5 
 4553000   0.52324028   -8.3128782    727.18966  0.013309716  0.011922742            5 
 4554000   0.52399955   -8.3108259    728.09699  0.013323397  0.011918809            2 
 4555000    0.5236318   -8.3166977     727.5696  0.013310823  0.011914875            5 
 4556000   0.51913727   -8.3076213    727.41523  0.013305078  0.011910942            2 
 4557000   0.52944949   -8.3122451    727.92474  0.013311476  0.011907015            5 
 4558000   0.52611841   -8.3180043     727.0065  0.013291767  0.011903085            3 
 4559000   0.52528539   -8.3332802    727.11114  0.013290764  0.011899156            6 
 4560000   0.53532319    -8.318047    727.01494  0.013286092  0.011895225            6 
 4561000   0.52353128   -8.3053966    726.42341  0.013272371  0.011891297            2 
 4562000   0.51346316   -8.3079308    726.90087  0.013278183  0.011887369            5 
 4563000   0.52205448    -8.323231    728.19967  0.013298993  0.011883449            6 
 4564000   0.52155148   -8.2955734    726.77962  0.013270151   0.01187953            3 
 4565000   0.51891009   -8.3153697    727.08626  0.013272842  0.011875611            5 
 4566000   0.51364857   -8.3050937    726.64769   0.01326193  0.011871689            4 
 4567000   0.51418147   -8.3179766    728.03071  0.013284262  0.011867773            8 
 4568000   0.53281582   -8.3268424    727.15658  0.013265408  0.011863856            8 
 4569000   0.51285853   -8.3215769    727.55485  0.013269768  0.011859943            4 
 4570000   0.51572042   -8.3133312    728.22008  0.013278995  0.011856028            5 
 4571000   0.52188042   -8.3150981    726.83956  0.013250922  0.011852113            4 
 4572000   0.52438743   -8.3127192    728.40705  0.013276594  0.011848201            5 
 4573000   0.51506227   -8.3079794    728.08589  0.013267838  0.011844292            5 
 4574000   0.53350887   -8.3112469    728.01393  0.013263627  0.011840381            5 
 4575000   0.52202715   -8.3138712    726.42282  0.013231745  0.011836472            4 
 4576000   0.51622008   -8.3249038    726.37691  0.013228018  0.011832567            6 
 4577000   0.51086674   -8.3223623    726.79362  0.013232715  0.011828662            4 
 4578000   0.52550054   -8.2940295    727.68087  0.013245975  0.011824757            7 
 4579000    0.5134371   -8.3142995    727.42265  0.013238383  0.011820853            3 
 4580000   0.52748857   -8.3230256    728.00694  0.013246123   0.01181695            4 
 4581000   0.51705279   -8.3292924     726.6897   0.01321927  0.011813046            9 
 4582000    0.5111891   -8.3199999    727.56187  0.013232247  0.011809149            3 
 4583000   0.51046876   -8.3143083    727.56838  0.013229478  0.011805256            4 
 4584000    0.5154577   -8.2992267    726.71153  0.013211015  0.011801361            3 
 4585000   0.50908903   -8.3191701    726.96387   0.01321272  0.011797469            5 
 4586000   0.52343251   -8.3134284    726.03882   0.01319303  0.011793576            5 
 4587000   0.50867477   -8.3170491    726.87768  0.013205394  0.011789689            3 
 4588000   0.50708787   -8.3070721    726.89717  0.013202869  0.011785796            7 
 4589000   0.51153214   -8.3079171    726.39868   0.01319094   0.01178191            5 
 4590000   0.50650115   -8.3045587    726.95495  0.013198165  0.011778025            3 
 4591000   0.51836661   -8.3060783    726.53962  0.013187752  0.011774139            4 
 4592000   0.53182468   -8.3205122    725.66845   0.01316907  0.011770259            5 
 4593000   0.52598197   -8.3103152    726.25167  0.013176785   0.01176638            5 
 4594000   0.51124783   -8.3274194    726.58218  0.013179912  0.011762499            4 
 4595000   0.51804212   -8.3308635    726.22644  0.013170592  0.011758623            5 
 4596000   0.50007835   -8.3186903    728.02765  0.013200385  0.011754746            5 
 4597000    0.5206768   -8.3339547    725.93783   0.01315963  0.011750874            7 
 4598000   0.52833342   -8.3143319    727.62386  0.013187325  0.011747004            8 
 4599000   0.52509087   -8.3226938    727.81186  0.013187864  0.011743132            3 
 4600000   0.50820879   -8.3112723    728.30638  0.013193956  0.011739263            6 
 4601000   0.52923314   -8.3159483    727.69533  0.013180021  0.011735395            3 
 4602000   0.50701465   -8.3191541    727.19284  0.013168058   0.01173153            6 
 4603000   0.51260453   -8.3140038    726.07547  0.013144968  0.011727664            5 
 4604000   0.51057246    -8.319452    728.18023   0.01318021  0.011723804            3 
 4605000   0.51272307   -8.3419846    727.65154   0.01316778  0.011719942            4 
 4606000    0.5128743    -8.329922    726.72569  0.013148171  0.011716078            5 
 4607000   0.51666706   -8.3227857    727.24398  0.013154692  0.011712221            3 
 4608000   0.51739765   -8.3306391    727.02867  0.013147943  0.011708364            5 
 4609000   0.51156012   -8.3291661    727.46111  0.013152909  0.011704511            6 
 4610000   0.50780507   -8.3295955    727.00546   0.01314182  0.011700656            4 
 4611000   0.51558584   -8.3202428    727.00007  0.013138872  0.011696802            6 
 4612000   0.51948377   -8.3097544    727.35334  0.013142406  0.011692954            8 
 4613000   0.51559073   -8.3289735    728.06508  0.013152415  0.011689111            4 
 4614000   0.50416311   -8.3390129    727.26206  0.013135061  0.011685267            3 
 4615000   0.50070417    -8.322823     726.5671  0.013119666  0.011681425            5 
 4616000   0.51248749   -8.3203141    726.80793  0.013121171  0.011677583            5 
 4617000   0.50878934   -8.3323737    727.86627  0.013137432  0.011673742            2 
 4618000   0.51011633   -8.3362687    727.41844  0.013126506  0.011669902            4 
 4619000    0.5106898   -8.3198227    727.74953  0.013129637  0.011666065            4 
 4620000   0.50922962   -8.3145691    728.42365  0.013138955  0.011662229            3 
 4621000   0.51197106   -8.3298145    726.54665  0.013102262  0.011658398            4 
 4622000   0.51063418   -8.3387217    727.74427   0.01312102  0.011654571            2 
 4623000   0.51212834   -8.3267266     727.9475  0.013121846  0.011650742            4 
 4624000   0.51308646   -8.3375152    727.08779  0.013103514   0.01164691            6 
 4625000   0.50679303   -8.3309509     726.1916  0.013084533  0.011643081            5 
 4626000   0.50682068   -8.3276469    727.11001  0.013098249  0.011639254            4 
 4627000   0.51033554   -8.3412919    727.01211  0.013093655  0.011635424            4 
 4628000   0.52122126    -8.320718    728.12089  0.013110791  0.011631597            4 
 4629000   0.50643138   -8.3250593    725.96819  0.013069205  0.011627772            4 
 4630000   0.50901074   -8.3389968    727.26517  0.013089726  0.011623947            4 
 4631000   0.52061486   -8.3390577    726.58419  0.013074645  0.011620124            6 
 4632000    0.5228672   -8.3127491    726.93004  0.013078045  0.011616304            6 
 4633000    0.5232504    -8.315354    725.64022  0.013052022  0.011612487            3 
 4634000    0.5084807   -8.3419506    727.61848  0.013084781  0.011608669            4 
 4635000   0.50900028   -8.3368817    727.58539  0.013081363  0.011604854            3 
 4636000   0.52032508   -8.3427753    726.07513  0.013051394  0.011601034            5 
 4637000   0.51117623   -8.3406117    726.57342  0.013057534  0.011597216            5 
 4638000   0.50193332   -8.3323472    728.01116  0.013080551  0.011593403            5 
 4639000   0.51397161   -8.3353215    727.37432  0.013066292  0.011589586            3 
 4640000   0.51966635   -8.3262617    727.04464  0.013057555  0.011585775            5 
 4641000   0.51554831   -8.3319434    724.92242  0.013016635  0.011581959            8 
 4642000   0.49160513    -8.329232    726.51841  0.013042482  0.011578149            6 
 4643000   0.51196467   -8.3250087    726.74694  0.013043774  0.011574341            3 
 4644000   0.51011878   -8.3217016    727.38049  0.013052334  0.011570531            5 
 4645000   0.51910531   -8.3265797    726.19996  0.013028345  0.011566729            6 
 4646000   0.51024691   -8.3339357    726.56776  0.013032138  0.011562924            5 
 4647000    0.5023702   -8.3351403    726.99959  0.013037078  0.011559119            2 
 4648000   0.50223789   -8.3297208    726.30844  0.013021881  0.011555316            9 
 4649000   0.49906736   -8.3309865    725.51365  0.013004833  0.011551516            8 
 4650000   0.51294647   -8.3533082    725.94164  0.013009707  0.011547717            4 
 4651000   0.51260074   -8.3300451    726.56602  0.013018097  0.011543921            5 
 4652000   0.51436064   -8.3479133    726.80916  0.013019654  0.011540126            3 
 4653000   0.51741543   -8.3290311    725.69006  0.012996813  0.011536335            5 
 4654000   0.51207643    -8.336217     726.9113  0.013015888  0.011532543            4 
 4655000   0.50196423   -8.3249378    726.81955  0.013011449  0.011528753            3 
 4656000   0.50266484   -8.3451256    727.00411  0.013011958   0.01152496            9 
 4657000   0.51495324    -8.339887     727.2934   0.01301434  0.011521172            4 
 4658000     0.501514   -8.3461325    726.62484  0.012999586  0.011517387            4 
 4659000   0.51234434   -8.3268611    725.95511  0.012984816  0.011513598            5 
 4660000   0.50688486   -8.3570342    726.43336  0.012990582  0.011509813            7 
 4661000   0.50364525   -8.3290811    725.76213  0.012975794  0.011506031            3 
 4662000   0.50705802   -8.3400777    725.51146   0.01296853  0.011502247            3 
 4663000   0.51190117   -8.3346689    726.67121  0.012986475  0.011498469            4 
 4664000   0.49911747   -8.3386267    726.58292  0.012982113  0.011494688            3 
 4665000   0.50733979   -8.3297555     725.5627  0.012961106  0.011490907            3 
 4666000   0.49540756   -8.3294618     726.1288  0.012968438  0.011487127            9 
 4667000   0.50229924   -8.3398518    726.39451  0.012970404  0.011483354            6 
 4668000   0.50382469   -8.3398626    726.43316  0.012968316  0.011479583            3 
 4669000   0.50082297   -8.3439096    726.93545  0.012974503  0.011475813            5 
 4670000   0.50849759   -8.3399981    726.10176  0.012956848  0.011472043            5 
 4671000   0.50535291   -8.3324641    727.48114  0.012978683  0.011468278            4 
 4672000   0.50834508   -8.3461218    727.21635  0.012971182  0.011464511            6 
 4673000    0.5002589    -8.356181    726.18075  0.012949938  0.011460747            5 
 4674000   0.49505228   -8.3448199    727.63845  0.012973157  0.011456983            5 
 4675000   0.51461504   -8.3457908    726.13193  0.012943528  0.011453226            5 
 4676000   0.49541187    -8.346272    727.87305  0.012971789  0.011449466            7 
 4677000   0.50420136   -8.3498809    726.08292   0.01293712  0.011445706            7 
 4678000   0.50533212   -8.3382749     725.7275  0.012928023  0.011441951            4 
 4679000     0.503991   -8.3456404    726.61773  0.012941115  0.011438195            3 
 4680000   0.50623059   -8.3621277    726.17038  0.012930384   0.01143444            4 
 4681000   0.49741891   -8.3357893    724.92535  0.012905457  0.011430685            4 
 4682000    0.5082461    -8.350337    726.62548  0.012932961   0.01142693            4 
 4683000   0.49491907   -8.3540241     725.5679   0.01291138  0.011423178            4 
 4684000   0.51214603   -8.3637621    725.95134  0.012915445  0.011419427            2 
 4685000    0.5030829   -8.3504819    726.45165  0.012921588  0.011415679            6 
 4686000   0.51424952   -8.3539072     725.6551  0.012904665   0.01141193            2 
 4687000   0.49823125   -8.3495122    725.64154   0.01290167  0.011408185            4 
 4688000   0.49852525     -8.33445    725.24786   0.01289192  0.011404441            2 
 4689000   0.49120253   -8.3337994    726.07895  0.012903941  0.011400698            3 
 4690000   0.50884964   -8.3516763    725.61055  0.012892867  0.011396956            9 
 4691000   0.49562228   -8.3382777    724.93909   0.01287819  0.011393213            5 
 4692000   0.50188563   -8.3397257    726.29815  0.012899583  0.011389474           10 
 4693000   0.49798231    -8.351881    725.45865  0.012881928  0.011385738            7 
 4694000   0.49019208    -8.343472    725.44451  0.012878933     0.011382            7 
 4695000   0.50250558   -8.3423067    725.42966  0.012875926  0.011378264            7 
 4696000   0.49563646   -8.3539566    725.36865  0.012872101   0.01137453            6 
 4697000   0.51145102   -8.3572287    726.86831  0.012895967  0.011370802            5 
 4698000   0.50836127   -8.3517608    725.27132  0.012864895  0.011367071            5 
 4699000   0.50575062    -8.350058    726.02037  0.012875441  0.011363343            5 
 4700000   0.51307814   -8.3222732    726.06523  0.012873497  0.011359615            4 
 4701000   0.50093656   -8.3530523    726.69502  0.012881923  0.011355894            5 
 4702000   0.50197452   -8.3527754    725.03233  0.012849715   0.01135217            5 
 4703000   0.49205501   -8.3681173    725.11568   0.01284846  0.011348449            9 
 4704000   0.50523763   -8.3784411    725.88929  0.012859433  0.011344727            4 
 4705000   0.50037063   -8.3527325    725.11644  0.012843012  0.011341007            5 
 4706000   0.49637539   -8.3616187      725.852  0.012853308  0.011337292            5 
 4707000   0.50230111   -8.3667383     725.9928   0.01285307  0.011333578            4 
 4708000   0.48471753   -8.3441475     724.9699  0.012832234  0.011329862            3 
 4709000   0.49240358   -8.3486151    726.37861  0.012854439  0.011326149            4 
 4710000   0.50305684   -8.3503801    725.91085  0.012843433  0.011322436            4 
 4711000   0.49662993   -8.3471534    725.33946    0.0128306  0.011318726            3 
 4712000   0.49536503   -8.3484689     725.8647  0.012837166  0.011315015            3 
 4713000   0.50432673   -8.3716866    726.85468  0.012851946  0.011311305            5 
 4714000   0.50419992   -8.3476656    726.07452  0.012835429  0.011307598            6 
 4715000   0.49534178   -8.3628561    724.88706  0.012811719  0.011303892            4 
 4716000   0.50529709   -8.3469503    725.44772  0.012818909   0.01130019            3 
 4717000   0.49397369   -8.3600124    725.45368  0.012816297  0.011296485            2 
 4718000    0.4970324   -8.3670732    726.54363  0.012832832  0.011292784            5 
 4719000   0.50246313   -8.3542736     725.3869  0.012809686  0.011289083            7 
 4720000   0.49186427   -8.3498913    725.22815  0.012804169  0.011285382            4 
 4721000   0.50752374   -8.3474162    725.21773  0.012801273  0.011281684            5 
 4722000   0.50211232    -8.371461    724.56377  0.012787021  0.011277987            4 
 4723000   0.49424675   -8.3353287    726.24266  0.012813936  0.011274293            4 
 4724000   0.49441757   -8.3577761     726.8992  0.012822806  0.011270599            2 
 4725000   0.49791518   -8.3379639    726.02048  0.012804594  0.011266906            3 
 4726000   0.48742406   -8.3498475     726.2195  0.012805394  0.011263215            2 
 4727000   0.49429486    -8.367565    725.26838  0.012785917  0.011259524            4 
 4728000   0.50260527   -8.3734439    725.02961  0.012779005  0.011255836            6 
 4729000    0.4928314   -8.3594279    726.48716  0.012801987  0.011252151            7 
 4730000   0.49292999   -8.3524809    725.62751  0.012784135  0.011248467            4 
 4731000   0.48966895   -8.3576639    725.77897  0.012784101  0.011244784            4 
 4732000    0.4962337   -8.3587141    725.87698  0.012783125  0.011241104            4 
 4733000   0.48764634   -8.3761019    725.34473  0.012771053  0.011237424            4 
 4734000   0.50315786    -8.353223    726.08493  0.012781385  0.011233746           17 
 4735000   0.49962529   -8.3677589    725.40811  0.012766774  0.011230067            8 
 4736000   0.49462527   -8.3669152    725.71464  0.012769472  0.011226391            4 
 4737000   0.49244754   -8.3625062    725.29071  0.012759319  0.011222715            6 
 4738000   0.49597635   -8.3679201    724.98413  0.012751233  0.011219039            3 
 4739000   0.49815774   -8.3697578    725.28479   0.01275383  0.011215366           11 
 4740000   0.49216888    -8.371203    724.53023  0.012737873  0.011211694           10 
 4741000   0.49310182   -8.3681715     725.1702  0.012746435  0.011208024            4 
 4742000    0.5004514    -8.362144    726.61875  0.012769203  0.011204354            8 
 4743000   0.49458323   -8.3696446     726.0376  0.012756301  0.011200691            7 
 4744000   0.49921523   -8.3809823    725.35814  0.012741676  0.011197026            3 
 4745000   0.50858546   -8.3538265    724.66916  0.012726891   0.01119336            8 
 4746000   0.50094603   -8.3803558    725.34135  0.012736012  0.011189699            8 
 4747000   0.47919156   -8.3686553    725.71989  0.012739974  0.011186038            8 
 4748000   0.48779503   -8.3680782    726.40003  0.012749228  0.011182377            3 
 4749000   0.48666276    -8.361415    725.13211  0.012724295  0.011178717            3 
 4750000   0.49480477   -8.3494399    723.73033  0.012697023  0.011175065            5 
 4751000    0.4897031   -8.3782407    724.77715  0.012712712  0.011171409            6 
 4752000   0.48900633   -8.3785355    726.48847  0.012740047  0.011167756            4 
 4753000   0.49220087    -8.374861    725.73695  0.012724191  0.011164103            7 
 4754000   0.48875075   -8.3560694    724.59596  0.012701514  0.011160451            6 
 4755000   0.49209821   -8.3630879    724.83109  0.012702963  0.011156802            4 
 4756000   0.49644167   -8.3688804    725.36355  0.012709622  0.011153155            2 
 4757000   0.49125793   -8.3714935    725.48997  0.012709165  0.011149508            4 
 4758000   0.48586936   -8.3661057    725.49098  0.012706511  0.011145863            6 
 4759000   0.48350988   -8.3861265    725.26751  0.012699928   0.01114222            4 
 4760000   0.49528825   -8.3587621    725.30668  0.012697946  0.011138577            5 
 4761000   0.49541087   -8.3580674    726.20243  0.012710958  0.011134936            4 
 4762000   0.49935253    -8.369938    725.15083  0.012689886  0.011131297            6 
 4763000   0.49856619   -8.3599696    725.32471  0.012690264  0.011127657            4 
 4764000   0.49837118   -8.3655502    724.24985  0.012668798  0.011124021            3 
 4765000   0.49922886    -8.376479    726.46227  0.012704832  0.011120386            3 
 4766000   0.49531555   -8.3708872    724.09308  0.012660741  0.011116749            7 
 4767000   0.48588988   -8.3657068    725.87563  0.012689246  0.011113116            5 
 4768000   0.48673622   -8.3792936    725.52873  0.012680522  0.011109485            5 
 4769000   0.48956782   -8.3957239    725.00587  0.012668726  0.011105855            3 
 4770000   0.48317022   -8.3683367    725.60939  0.012676614  0.011102228            2 
 4771000   0.48875571    -8.384764     725.7302  0.012676067  0.011098599            7 
 4772000   0.49392369   -8.3744163    726.69024  0.012690176  0.011094972            7 
 4773000   0.48154199   -8.3762313    724.81378  0.012654756  0.011091351            4 
 4774000   0.48910872   -8.3757739    725.09398  0.012656996  0.011087727            3 
 4775000   0.48099427   -8.3663677    726.00948  0.012670322  0.011084105            4 
 4776000   0.48294661   -8.3675478    724.74124  0.012645541  0.011080486            3 
 4777000   0.48787353   -8.3745075    725.54331  0.012656886  0.011076867            4 
 4778000   0.49147986    -8.368192    724.63483  0.012638392  0.011073254            3 
 4779000   0.49000676   -8.3730803    724.54933  0.012634256  0.011069637            4 
 4780000   0.47978957   -8.3932658    725.60438  0.012650007  0.011066024            3 
 4781000   0.48725204   -8.3728015    725.62208  0.012647669  0.011062411            5 
 4782000   0.47763797   -8.3702423    724.74938  0.012629816  0.011058799            6 
 4783000   0.48836853   -8.3802938    725.19672   0.01263497   0.01105519            5 
 4784000    0.4817863   -8.3692075    724.89406  0.012627056  0.011051578            3 
 4785000   0.49123024   -8.3857287    726.14714  0.012646241  0.011047975            5 
 4786000   0.48649216   -8.3872637    725.36822  0.012630036  0.011044368            6 
 4787000   0.48086404   -8.3871852    724.75061  0.012616646  0.011040759            9 
 4788000   0.49071573   -8.3961378    725.20187  0.012621865  0.011037155            5 
 4789000   0.48601671   -8.3834606     725.5106  0.012624602  0.011033552            5 
 4790000   0.49261905   -8.3687603     724.5485  0.012605228   0.01102995            4 
 4791000   0.47927781   -8.3670183     724.2747  0.012597834  0.011026353            6 
 4792000   0.48403725   -8.3814561    725.19571  0.012611222  0.011022754            4 
 4793000   0.47423262   -8.3655957    725.51259    0.0126141  0.011019161            3 
 4794000   0.48528019   -8.3918777     725.7949  0.012616376  0.011015568            5 
 4795000   0.48113541   -8.3745386    723.97314  0.012582084  0.011011973            5 
 4796000   0.48793378   -8.3736282    724.08376  0.012581383  0.011008378            4 
 4797000   0.48477245   -8.3782528    724.63314  0.012588304  0.011004783            4 
 4798000   0.47921084   -8.3867966    724.68656  0.012586608  0.011001193            2 
 4799000   0.48023478   -8.3860057    724.17083   0.01257503  0.010997605            5 
 4800000   0.47810339   -8.3824675    723.92644  0.012568167  0.010994017            7 
 4801000   0.48245412    -8.377087    724.62757  0.012577719  0.010990428            4 
 4802000   0.47582727   -8.3993235    725.61415  0.012592221  0.010986841            6 
 4803000   0.48187549   -8.3785838    724.30356   0.01256686  0.010983259            4 
 4804000   0.48777316   -8.3804566    723.56129  0.012551368  0.010979677            3 
 4805000   0.48398901   -8.3942745    724.39389  0.012563196  0.010976097            2 
 4806000   0.48050525   -8.3785109    724.22686  0.012557686  0.010972518            3 
 4807000   0.48400314   -8.3943084     724.8866  0.012566511  0.010968941            3 
 4808000    0.4831432   -8.3860906    724.81826  0.012562712  0.010965365            4 
 4809000   0.46857404   -8.3983389    724.59475  0.012556227  0.010961788            8 
 4810000   0.48905314   -8.3765863     723.9119  0.012541786  0.010958211            3 
 4811000   0.48409545   -8.3859003    724.43346  0.012548213   0.01095464            5 
 4812000   0.48740444   -8.3925975    724.40804  0.012545165  0.010951073            9 
 4813000   0.49686389   -8.3922922    726.08992  0.012571679  0.010947506            3 
 4814000   0.48099112    -8.398681    725.15229  0.012552837   0.01094394            2 
 4815000   0.49181474   -8.3928793    724.66381  0.012541776  0.010940375            7 
 4816000   0.48644865   -8.3753198    724.55446   0.01253728  0.010936811            2 
 4817000   0.47299731   -8.3754609    725.54918  0.012551885  0.010933248            4 
 4818000   0.47263195   -8.3965253    723.77671  0.012518623  0.010929684            7 
 4819000    0.4741211   -8.3687746    725.68094  0.012548954  0.010926127            2 
 4820000    0.4904148   -8.3837023    725.40759  0.012541625  0.010922568            5 
 4821000   0.48099379   -8.3743368     724.3231  0.012520278  0.010919009            3 
 4822000   0.47432363   -8.3875454    724.34325  0.012518029  0.010915458            3 
 4823000   0.48162108   -8.3794037    724.03327  0.012510078  0.010911907            4 
 4824000   0.48666773    -8.355374    723.47062  0.012497765  0.010908359            3 
 4825000    0.4758145    -8.381587     724.8889   0.01251967  0.010904809            4 
 4826000   0.47998098   -8.4013964    725.47732  0.012527236  0.010901261            4 
 4827000   0.48143409   -8.4028274    723.59262  0.012492104  0.010897713            3 
 4828000   0.49347941   -8.3888825    725.47568  0.012522019  0.010894168            3 
 4829000   0.48862621    -8.393246    724.83398  0.012508352  0.010890623            4 
 4830000   0.47631418   -8.3862231     723.9666  0.012490797   0.01088708            2 
 4831000   0.48773201    -8.392973    725.21824  0.012509802  0.010883539            4 
 4832000   0.47005442   -8.3991081    723.71293  0.012481252  0.010879998            6 
 4833000   0.47525948    -8.391705    723.81931  0.012480504  0.010876457            5 
 4834000   0.48207348   -8.4088205    725.12038  0.012500351  0.010872917            4 
 4835000   0.48898884   -8.3846377    725.24703  0.012499949  0.010869379            5 
 4836000   0.48527816   -8.3903639    724.62144  0.012486584  0.010865844            4 
 4837000   0.47657066    -8.395541    723.08557  0.012457542  0.010862311            7 
 4838000   0.48735369    -8.386638    723.88747   0.01246878  0.010858778            3 
 4839000   0.48927759    -8.397977    724.51098  0.012476941  0.010855244            4 
 4840000   0.47927313    -8.384545    724.19378  0.012468901  0.010851711            4 
 4841000   0.46955469   -8.4000205    723.42161  0.012453033  0.010848179            3 
 4842000    0.4810297   -8.4005525    724.71259   0.01247268  0.010844651            3 
 4843000   0.47286864   -8.4094847    724.35895  0.012464019  0.010841125            6 
 4844000   0.48783847   -8.4017775    724.58512  0.012465337  0.010837599            3 
 4845000   0.46857118   -8.3984035    724.03004  0.012453217  0.010834072            6 
 4846000    0.4640616   -8.4051361    725.00206  0.012467362  0.010830549            2 
 4847000   0.46731585    -8.402071    724.24373  0.012451752  0.010827027            5 
 4848000   0.46955339    -8.405811    724.75848  0.012458032  0.010823506            5 
 4849000   0.46628758   -8.3852938    723.95118  0.012441589  0.010819987            8 
 4850000   0.47008699   -8.3981158    724.17074  0.012442796  0.010816468            4 
 4851000   0.47203756   -8.3903526    723.63826  0.012431084  0.010812954            3 
 4852000   0.47949477   -8.4120586    724.84398   0.01244923   0.01080944            3 
 4853000   0.47361632    -8.403671    724.34523  0.012438101  0.010805927            2 
 4854000   0.46623144    -8.406561    724.54462  0.012438961  0.010802415            5 
 4855000   0.46647617    -8.390493    723.20854  0.012413466  0.010798902            4 
 4856000   0.47350404   -8.4123704    725.11978  0.012443708  0.010795392            4 
 4857000   0.48593928   -8.3933495    725.19967  0.012442517  0.010791884            6 
 4858000   0.47949167   -8.4227031    725.09402  0.012438144  0.010788375            5 
 4859000   0.47585251   -8.4023412    723.01626   0.01239995   0.01078487            3 
 4860000   0.46840043    -8.408168    723.86555  0.012411961  0.010781364            5 
 4861000   0.46172264   -8.4009192    722.99116  0.012394417  0.010777862            5 
 4862000   0.47976732   -8.4088078    723.65314  0.012403214  0.010774362            4 
 4863000   0.47795682   -8.4215786    723.25538  0.012393848  0.010770863            5 
 4864000    0.4757417   -8.4004095    723.95083  0.012403215  0.010767363            2 
 4865000   0.47520806   -8.3978898    723.21321   0.01238803  0.010763863            3 
 4866000   0.47394842   -8.3944964    722.88315  0.012379832  0.010760367            7 
 4867000    0.4653029   -8.4025032    724.03543  0.012397018  0.010756872            4 
 4868000   0.47666619   -8.4193272     723.4851   0.01238505  0.010753377            3 
 4869000   0.46644461   -8.4178226     724.2008  0.012394756  0.010749882            6 
 4870000   0.47567185   -8.4028058    724.12732  0.012390953  0.010746392            4 
 4871000   0.47555049   -8.3976931    724.02446   0.01238665  0.010742901            5 
 4872000   0.46700575   -8.4236567    723.69154  0.012378413  0.010739413            4 
 4873000   0.46994099    -8.406017     723.7761  0.012377319  0.010735925            4 
 4874000   0.46401821   -8.4097851    723.99164  0.012378465  0.010732441            4 
 4875000   0.46868952   -8.3991443    723.63879  0.012369894  0.010728956            6 
 4876000   0.48186165   -8.4038777    723.84145  0.012370821  0.010725475            5 
 4877000   0.47395694   -8.4045501    723.85493  0.012368514  0.010721993            6 
 4878000    0.4647157   -8.4064218    723.66327  0.012362704  0.010718512            3 
 4879000   0.47795752   -8.4007611    724.78651  0.012379356  0.010715034            4 
 4880000   0.47696853   -8.3879013    724.33446  0.012369099   0.01071156            6 
 4881000   0.47191793   -8.4068808    724.97088  0.012377431  0.010708083            4 
 4882000   0.47402228   -8.4032972    723.65066   0.01235236  0.010704608            2 
 4883000   0.47945986   -8.3947532    722.97251  0.012338257  0.010701132            5 
 4884000   0.46631075   -8.4046566    722.98342  0.012335917  0.010697657            3 
 4885000   0.46763933   -8.4047238    725.00848  0.012367937  0.010694185            4 
 4886000   0.47293825   -8.4105061     723.2416  0.012335271  0.010690712            4 
 4887000   0.47194367   -8.4152308     723.9378  0.012344618  0.010687243            4 
 4888000   0.46349891   -8.3938718    724.32321  0.012348664  0.010683776            2 
 4889000   0.47600684   -8.4153988    724.40306  0.012347499  0.010680312            5 
 4890000   0.48292662   -8.3971748     723.5044  0.012329659  0.010676846            4 
 4891000   0.47529985   -8.4105551      723.768   0.01233163  0.010673385            3 
 4892000   0.46519026   -8.4037622    723.66319  0.012327323  0.010669922            7 
 4893000   0.45690083   -8.3993303    723.62825  0.012324209  0.010666462            1 
 4894000   0.47392844   -8.4277774    724.01696   0.01232831  0.010663001            4 
 4895000   0.47126547   -8.4078001    724.56593  0.012335137  0.010659547            5 
 4896000   0.46720474   -8.4231107    724.35023  0.012328946  0.010656089            4 
 4897000    0.4691492   -8.4105429    724.85743  0.012335059  0.010652636            5 
 4898000   0.47678345   -8.4092737    723.91512  0.012316509  0.010649185            7 
 4899000   0.48379049   -8.4155104    723.31689  0.012303819  0.010645734            2 
 4900000   0.46833724   -8.4158843    724.37696  0.012319336  0.010642285            2 
 4901000   0.47167003   -8.4220483    723.50093  0.012301927  0.010638838            5 
 4902000    0.4766292   -8.4071627    723.96871   0.01230737   0.01063539            3 
 4903000   0.46474109   -8.4111059    722.90662  0.012286808  0.010631944            2 
 4904000   0.47380632   -8.4120471    722.51534  0.012277653  0.010628497            3 
 4905000   0.46198034    -8.402878    723.14351  0.012285822  0.010625053            3 
 4906000   0.46732056   -8.4044652     723.2071  0.012284398  0.010621613            5 
 4907000   0.46526414   -8.4064889    724.08036  0.012296725  0.010618172            3 
 4908000   0.45974074   -8.4087057    723.00414  0.012275946  0.010614733            2 
 4909000   0.45906446   -8.4060406    723.90116  0.012288673  0.010611296            4 
 4910000   0.46906337   -8.4146682    723.58993  0.012280888  0.010607861            6 
 4911000   0.46515014   -8.4177213    724.45841  0.012293124  0.010604425            4 
 4912000   0.46484378   -8.4056903    724.37938  0.012289281  0.010600992            2 
 4913000   0.46723095   -8.4112334    723.99317  0.012280229  0.010597558            6 
 4914000   0.46897001   -8.4091576    723.27595  0.012265567  0.010594124            4 
 4915000   0.46311281   -8.4235149    724.52248  0.012284206  0.010590695            5 
 4916000   0.46883113   -8.4151026    724.24864  0.012277065  0.010587266            2 
 4917000   0.45475487   -8.4235664    722.95589  0.012252659  0.010583837            4 
 4918000   0.45712726   -8.4193689    722.13729  0.012236297  0.010580411            5 
 4919000   0.47681502   -8.4231965    724.19244  0.012268626  0.010576985            8 
 4920000   0.45488626   -8.4138573      722.162  0.012231741  0.010573563            5 
 4921000   0.46238635   -8.4179402    722.82318  0.012240452  0.010570138            3 
 4922000   0.46343495   -8.4240211    722.95398   0.01224018  0.010566716            6 
 4923000   0.46012373   -8.4368436    723.69662  0.012250264  0.010563295            4 
 4924000   0.45871098    -8.413263    724.36073  0.012259016  0.010559879            7 
 4925000   0.46036229   -8.4254219    723.64705  0.012244451  0.010556461            6 
 4926000   0.45782822   -8.4139748    723.44645  0.012238572  0.010553046            7 
 4927000    0.4624677   -8.4106925    723.09583  0.012230157  0.010549632            6 
 4928000   0.45246029   -8.4124506    723.82253  0.012239964  0.010546219            5 
 4929000   0.45815621   -8.4200902    723.55675  0.012232988  0.010542808            4 
 4930000   0.45924918   -8.4175757    723.57919  0.012230886  0.010539399            3 
 4931000    0.4797912   -8.4300362    723.88878  0.012233637   0.01053599            4 
 4932000   0.45595543   -8.4231396    722.30362  0.012204373  0.010532585            7 
 4933000   0.46543433   -8.3976462    724.36376  0.012236701  0.010529177            6 
 4934000   0.46137801   -8.4165347    722.50122  0.012202763  0.010525775           11 
 4935000   0.46644547   -8.4112575    724.33667  0.012231284  0.010522374            9 
 4936000   0.45686436   -8.4333639    724.63617  0.012233863  0.010518972           12 
 4937000   0.46344196   -8.4228764    723.96544  0.012220063  0.010515572            4 
 4938000   0.45504515   -8.4087079    723.22257  0.012205052  0.010512172            7 
 4939000    0.4671298    -8.412667     723.1844  0.012201937  0.010508779            6 
 4940000   0.47421916    -8.417006    722.36331  0.012185616  0.010505385            7 
 4941000   0.45761198   -8.4170418    722.49132  0.012185309   0.01050199            5 
 4942000   0.46766202    -8.411879    723.64143  0.012202236  0.010498599            6 
 4943000   0.45792688   -8.4277713    723.28041  0.012193681  0.010495207            5 
 4944000   0.45141146    -8.425201    723.05742  0.012187456  0.010491818            4 
 4945000   0.45707887   -8.4302017    723.55424  0.012193364  0.010488433            6 
 4946000   0.46812566   -8.3977762     722.6366  0.012175438  0.010485047            5 
 4947000   0.47127985   -8.4193696    723.45898   0.01218683  0.010481663            4 
 4948000   0.44942355   -8.4148539    723.66302  0.012187803  0.010478282            3 
 4949000   0.46670181   -8.4297106    723.55522  0.012183526  0.010474901            8 
 4950000   0.45803725   -8.4219109    723.43316  0.012179009  0.010471519            5 
 4951000   0.45246358   -8.4105001    724.58202  0.012195887   0.01046814            3 
 4952000    0.4594925   -8.4333767     723.7737  0.012179821  0.010464763            5 
 4953000   0.46597776   -8.4271017    723.30691  0.012169508  0.010461389            4 
 4954000   0.45042133   -8.4187931      723.097  0.012163521  0.010458015            4 
 4955000   0.44984036   -8.4118825    724.82872   0.01219019  0.010454644            2 
 4956000   0.46832057    -8.406739    723.52842  0.012165867  0.010451275            5 
 4957000   0.46073467   -8.4096186     724.1236  0.012173418  0.010447906            4 
 4958000   0.46167242   -8.4168294    722.67868  0.012146677  0.010444535            4 
 4959000   0.45081779   -8.4229489    722.97448  0.012149198  0.010441169            4 
 4960000   0.45809481   -8.4214939     724.0103  0.012164152  0.010437804            6 
 4961000   0.45691189   -8.4310986    723.21328  0.012148312  0.010434438            4 
 4962000   0.45335113   -8.4343689    723.17214  0.012145172  0.010431074            4 
 4963000   0.45606628   -8.4192137       722.63  0.012133622   0.01042771            5 
 4964000   0.46488582   -8.4098186    723.66344  0.012148527   0.01042435            3 
 4965000   0.46062891   -8.4240468    722.37355   0.01212443  0.010420988            6 
 4966000   0.46538263   -8.4166666    724.05198  0.012150154  0.010417627            5 
 4967000   0.45676187    -8.426522    722.62465  0.012123761  0.010414267            3 
 4968000   0.45780756   -8.4090704    722.65814  0.012121882  0.010410911            9 
 4969000   0.45596591   -8.4289349    722.53325  0.012117348  0.010407552            4 
 4970000   0.45560447   -8.4328511    722.86379  0.012120453  0.010404196           10 
 4971000   0.46820949   -8.4403808    722.70504  0.012115353  0.010400844            4 
 4972000   0.45684645   -8.4329614    724.29861  0.012139625  0.010397493            7 
 4973000   0.45214943   -8.4261746    723.02117  0.012115778  0.010394142            7 
 4974000   0.45424685   -8.4146769    722.10676  0.012098022  0.010390794            4 
 4975000     0.458957   -8.4406164    723.45535   0.01211818  0.010387447            4 
 4976000   0.46919239    -8.427791    724.06257  0.012125914    0.0103841            2 
 4977000   0.45510244   -8.4305301     723.1552  0.012108285  0.010380755            3 
 4978000   0.45867306   -8.4267427     723.2351   0.01210719  0.010377409            5 
 4979000   0.45407142   -8.4202199    722.25519  0.012088358  0.010374065            5 
 4980000   0.46335872   -8.4288364    723.20886  0.012101889  0.010370722            3 
 4981000   0.45038741   -8.4330436     723.4144  0.012102898  0.010367378            5 
 4982000    0.4531565   -8.4327362    723.99626  0.012110201  0.010364037            5 
 4983000   0.45269671    -8.430483    723.14215  0.012093487  0.010360696            3 
 4984000   0.45103863     -8.44479    723.44168  0.012096069  0.010357358            9 
 4985000   0.45900665   -8.4287865    722.63517   0.01208016  0.010354022            4 
 4986000   0.46017976   -8.4232961    723.80209   0.01209724  0.010350685            3 
 4987000   0.45094636   -8.4327306    723.27915  0.012086076  0.010347353            4 
 4988000   0.45846644    -8.436498    721.32368  0.012050984   0.01034402            4 
 4989000   0.44712256   -8.4386162    722.87676   0.01207451   0.01034069            6 
 4990000   0.44874889   -8.4288561    722.88783  0.012072275  0.010337361            2 
 4991000    0.4482326   -8.4532745    723.20633  0.012075174  0.010334033            4 
 4992000   0.45869739     -8.43091    722.01707  0.012052903  0.010330707            6 
 4993000   0.45584637   -8.4471963    723.10183  0.012068593  0.010327383            4 
 4994000   0.45614033   -8.4308963    722.74549   0.01206023  0.010324061            7 
 4995000   0.45326289   -8.4301062    721.82611  0.012042478  0.010320739            4 
 4996000   0.46249175   -8.4446011    722.93387  0.012058545  0.010317419            3 
 4997000   0.45122706   -8.4247177    722.82964  0.012054393  0.010314096            4 
 4998000   0.45446879   -8.4349053    723.12615  0.012056925  0.010310777            4 
 4999000    0.4673748   -8.4380497    723.30253  0.012057454  0.010307461            4 
 5000000   0.45459389   -8.4326054    723.31281  0.012055213  0.010304145            4 
 5001000   0.46367964   -8.4359397    722.52255  0.012039635   0.01030083            5 
 5002000    0.4556296   -8.4444999    723.07729   0.01204647  0.010297518            4 
 5003000   0.44456015   -8.4406915    723.46901  0.012050586  0.010294208            6 
 5004000   0.44713697   -8.4365605     722.4612  0.012031395  0.010290896            4 
 5005000   0.45903747   -8.4466253    722.39644  0.012027913  0.010287587            4 
 5006000   0.45389028   -8.4318823    722.10188  0.012020607   0.01028428            6 
 5007000   0.44764419   -8.4275406     722.4943  0.012024737  0.010280974            3 
 5008000   0.43690007   -8.4274106    721.86862  0.012011925  0.010277669            5 
 5009000   0.44988808   -8.4412829    722.84493  0.012025769  0.010274369            3 
 5010000   0.44216294   -8.4494701    722.94327  0.012025005  0.010271066            7 
 5011000   0.44540384   -8.4426035    722.47331  0.012014789  0.010267768            9 
 5012000   0.45560532   -8.4415929    722.06743  0.012005644  0.010264469            2 
Loop time of 11747.3 on 48 procs for 5000000 steps with 4000 atoms

Performance: 73548.604 tau/day, 425.628 timesteps/s
99.4% CPU use with 48 MPI tasks x no OpenMP threads

MPI task timing breakdown:
Section |  min time  |  avg time  |  max time  |%varavg| %total
---------------------------------------------------------------
Pair    | 737.65     | 793.31     | 847.86     |  98.5 |  6.75
Neigh   | 75.775     | 79.746     | 82.413     |  20.9 |  0.68
Comm    | 721.04     | 774.49     | 840.45     | 102.4 |  6.59
Output  | 13.773     | 13.777     | 13.853     |   0.3 |  0.12
Modify  | 9951       | 9981.2     | 9997.6     |   8.5 | 84.97
Other   |            | 104.8      |            |       |  0.89

Nlocal:        83.3333 ave          92 max          78 min
Histogram: 5 4 13 4 7 7 3 4 0 1
Nghost:        1987.60 ave        2022 max        1957 min
Histogram: 2 1 5 8 11 9 6 4 0 2
Neighs:        12720.2 ave       14212 max       11046 min
Histogram: 2 3 4 4 9 8 8 2 4 4
FullNghs:      25449.3 ave       28185 max       23593 min
Histogram: 5 9 3 7 8 5 5 4 0 2

Total # of neighbors = 1221567
Ave neighs/atom = 305.39175
Neighbor list builds = 268261
Dangerous builds = 1

#clear
#
#next RN
#
#jump SELF
Total wall time: 3:15:50
