
units lj                  # Use reduced LJ style units
atom_style atomic         # Uncharged point particles
atom_modify map hash      # Needed for indexing of clusters etc
                          # Used to be able to find where atoms are in relation to each other.

lattice fcc 1.0 spacing 1 1 1
Lattice spacing in x,y,z = 1.5874011 1.5874011 1.5874011
region box block 0 10 0 10 0 10 units lattice
create_box 2 box
Created orthogonal box = (0.0000000 0.0000000 0.0000000) to (15.874011 15.874011 15.874011)
  3 by 4 by 4 MPI processor grid
create_atoms 1 box
Created 4000 atoms
  using lattice units in orthogonal box = (0.0000000 0.0000000 0.0000000) to (15.874011 15.874011 15.874011)
  create_atoms CPU = 0.003 seconds
set type 1 type/fraction 2 0.07 78393
Setting atom values ...
  309 settings made for type/fraction
mass 1 1.0
mass 2 1.0
pair_style lj/cut  3.5
pair_modify tail  yes
pair_coeff 1  1  1.0  1.0   # Intearaction between 1 and 1 set with epsilon = 1 and sigma = 1
pair_coeff 1  2  1.5  0.8
pair_coeff 2  2  0.5  0.88

write_data data.0
System init for write_data ...
Neighbor list info ...
  update every 1 steps, delay 10 steps, check yes
  max neighbors/atom: 2000, page size: 100000
  master list distance cutoff = 3.8
  ghost atom cutoff = 3.8
  binsize = 1.9, bins = 9 9 9
  1 neighbor lists, perpetual/occasional/extra = 1 0 0
  (1) pair lj/cut, perpetual
      attributes: half, newton on
      pair build: half/bin/atomonly/newton
      stencil: half/bin/3d
      bin: standard
WARNING: Not all mixed pair coeffs generated from mixing. Use write_data with 'pair ij' option to store all pair coeffs. (../write_data.cpp:312)


#############################
#   M E L T   S Y S T E M   #
#############################

velocity all create 2.4 1741580 mom yes dist gaussian # Assign velocities
                                                    # Temperature 2.4, random number seed, zero linear momentum
                                                                                # Gaussian distribution

timestep 0.002   # simulation timestep
thermo 1000       # output thermodynamic data every 1000 steps bf 100

# Define a fix  in this case with index 1 applied to all
# particles in the simulation. This fix is for simulations
# in the anisotropic NPT ensemble. Note that we use the MTK
# correction.
fix 1 all npt temp 2.4 2.4 0.1 iso 5.68 5.68 0.5 mtk yes tchain 5 pchain 5 # Use NPT ensemble
                                                                         # Set temperature and pressure and damping
                                                                         # Numbers of thermostats in chain and in barostat
run 10000          # run for 10000 steps
Per MPI rank memory allocation (min/avg/max) = 3.642 | 3.644 | 3.648 Mbytes
Step Temp E_pair E_mol TotEng Press Volume 
       0          2.4   -7.8774228            0   -4.2783228   -2.8368304         4000 
    1000    2.4248992   -4.5567209            0  -0.92028141     5.807853    4913.9396 
    2000    2.4648487   -4.4989057            0  -0.80255701    5.7477326     4969.577 
    3000    2.3977348   -4.5310228            0  -0.93531984    5.7679852    4935.3346 
    4000     2.435972   -4.5861121            0  -0.93306759     5.325611    4976.8371 
    5000    2.4299485   -4.5745766            0  -0.93056513    5.4696145    4955.1731 
    6000    2.4656216     -4.48841            0   -0.7909021    6.0220424    4942.6269 
    7000     2.436967   -4.5188933            0  -0.86435671    5.6692469    4969.5411 
    8000    2.4139011   -4.5780824            0  -0.95813601     5.437574    4960.6611 
    9000    2.4262086    -4.573639            0  -0.93523596    5.5883639    4938.7171 
   10000    2.4227449   -4.5431147            0  -0.90990587    5.4007119    4983.8949 
Loop time of 2.17458 on 48 procs for 10000 steps with 4000 atoms

Performance: 794637.616 tau/day, 4598.597 timesteps/s
99.6% CPU use with 48 MPI tasks x no OpenMP threads

MPI task timing breakdown:
Section |  min time  |  avg time  |  max time  |%varavg| %total
---------------------------------------------------------------
Pair    | 0.86922    | 0.93913    | 0.9885     |   2.6 | 43.19
Neigh   | 0.18895    | 0.19532    | 0.21198    |   0.8 |  8.98
Comm    | 0.68705    | 0.75397    | 0.83172    |   3.3 | 34.67
Output  | 0.00024423 | 0.00024851 | 0.00030719 |   0.0 |  0.01
Modify  | 0.22774    | 0.27169    | 0.29852    |   3.9 | 12.49
Other   |            | 0.01422    |            |       |  0.65

Nlocal:        83.3333 ave          99 max          73 min
Histogram: 2 8 4 10 9 8 4 0 2 1
Nghost:        1419.83 ave        1448 max        1399 min
Histogram: 2 6 7 7 9 8 5 2 1 1
Neighs:        7635.42 ave        9510 max        6514 min
Histogram: 2 6 10 11 6 10 0 2 0 1

Total # of neighbors = 366500
Ave neighs/atom = 91.625000
Neighbor list builds = 906
Dangerous builds = 216

# Equilibrate just above the melting temperature to avoid step fn in T

fix 1 all npt temp 1.25 1.25 0.1 iso 5.68 5.68 0.5 mtk yes tchain 5 pchain 5
run 2000
Per MPI rank memory allocation (min/avg/max) = 3.643 | 3.645 | 3.649 Mbytes
Step Temp E_pair E_mol TotEng Press Volume 
   10000    2.4227449   -4.5431147            0  -0.90990587    5.4007119    4983.8949 
   11000    1.2514382   -6.0864024            0   -4.2097144    5.7289554    4081.2891 
   12000    1.2354031   -6.1268272            0   -4.2741858    5.8684888    4055.5158 
Loop time of 0.58572 on 48 procs for 2000 steps with 4000 atoms

Performance: 590043.207 tau/day, 3414.602 timesteps/s
99.0% CPU use with 48 MPI tasks x no OpenMP threads

MPI task timing breakdown:
Section |  min time  |  avg time  |  max time  |%varavg| %total
---------------------------------------------------------------
Pair    | 0.20274    | 0.22039    | 0.23707    |   1.7 | 37.63
Neigh   | 0.03068    | 0.032644   | 0.033829   |   0.4 |  5.57
Comm    | 0.15366    | 0.18225    | 0.23708    |   3.3 | 31.11
Output  | 5.3921e-05 | 5.5331e-05 | 7.3015e-05 |   0.0 |  0.01
Modify  | 0.10204    | 0.14584    | 0.15996    |   2.8 | 24.90
Other   |            | 0.004543   |            |       |  0.78

Nlocal:        83.3333 ave          90 max          75 min
Histogram: 1 1 3 3 8 10 12 3 5 2
Nghost:        1636.31 ave        1661 max        1614 min
Histogram: 1 2 7 8 10 8 5 4 1 2
Neighs:        9395.31 ave       10356 max        8361 min
Histogram: 2 1 3 6 11 8 8 4 4 1

Total # of neighbors = 450975
Ave neighs/atom = 112.74375
Neighbor list builds = 141
Dangerous builds = 11

#############################
# L I N E A R  Q U E N C H  #
#############################

# Define solid atoms. This closely follows ten Wolde  Ruiz-Montero and Frenkel  Faraday Discuss  1996  104  93-110
# Compute components of the per-atom q6 vector
compute q6 all orientorder/atom degrees 1 6 components 6 nnn NULL cutoff 1.3 # compute the Q6 parameter.
                                                                             # Use all neighbours within 1.3 unit cell.

# get number of connections
compute coord_number all coord/atom orientorder q6 0.5

# An atom is solid if it has 8 or more connections (of a possible 14)
variable is_solid atom c_coord_number>=8
group solid dynamic all var is_solid    # Must be dynamic to update
dynamic group solid defined

# do clustering
compute cluster solid cluster/atom 1.3 # Create a cluster where all atoms within are solid and max 1.3 units from another member

# define chunks one chunk per cluster
compute clus_chunks solid chunk/atom c_cluster nchunk every compress yes  # Says which atoms are in which chunk

# count the size of each chunk
compute size_chunks solid property/chunk clus_chunks count


# Find the maximum entry in the vector of chunk sizes
variable max_n equal max(c_size_chunks)


# Thermo style which includes this variable
# thermo_style custom step temp pe vol v_max_n

thermo ${N}  # Print the thermo information every 100 steps
thermo 1000  

# Reset the npt fix at a lower temperature (below freezing)
fix 1  all npt temp  ${temp} ${temp}  0.1  iso  5.68  5.68  0.5  mtk yes tchain  5  pchain  5
fix 1  all npt temp  0.45 ${temp}  0.1  iso  5.68  5.68  0.5  mtk yes tchain  5  pchain  5
fix 1  all npt temp  0.45 0.45  0.1  iso  5.68  5.68  0.5  mtk yes tchain  5  pchain  5

dump dmp2 all dcd ${N} traj.dcd
dump dmp2 all dcd 1000 traj.dcd


compute msd all msd com yes
variable twopoint equal c_msd[4]/6/(step*dt+1.0e-6)
fix 9 all vector 10 c_msd[4]
variable fit equal slope(f_9)/6/(10*dt)
thermo_style custom step temp pe c_msd[4] v_twopoint v_fit v_max_n

fix 1 all npt temp 1.25 ${temp} 0.1 iso 5.68 5.68 0.5 mtk yes tchain 5 pchain 5
fix 1 all npt temp 1.25 0.45 0.1 iso 5.68 5.68 0.5 mtk yes tchain 5 pchain 5
run 2000000 # 5000000  # Run for this many steps
Neighbor list info ...
  update every 1 steps, delay 10 steps, check yes
  max neighbors/atom: 2000, page size: 100000
  master list distance cutoff = 3.8
  ghost atom cutoff = 3.8
  binsize = 1.9, bins = 9 9 9
  4 neighbor lists, perpetual/occasional/extra = 1 3 0
  (1) pair lj/cut, perpetual
      attributes: half, newton on
      pair build: half/bin/atomonly/newton
      stencil: half/bin/3d
      bin: standard
  (2) compute orientorder/atom, occasional
      attributes: full, newton on
      pair build: full/bin/atomonly
      stencil: full/bin/3d
      bin: standard
  (3) compute coord/atom, occasional
      attributes: full, newton on
      pair build: full/bin/atomonly
      stencil: full/bin/3d
      bin: standard
  (4) compute cluster/atom, occasional
      attributes: full, newton on
      pair build: full/bin/atomonly
      stencil: full/bin/3d
      bin: standard
Per MPI rank memory allocation (min/avg/max) = 9.746 | 9.752 | 9.755 Mbytes
Step Temp PotEng c_msd[4] v_twopoint v_fit v_max_n 
   12000    1.2354031   -6.1268272 1.9721523e-34 1.3695501e-36 8.3333333e+20            2 
   13000    1.2499565   -6.1464801   0.57338373 0.0036755366  0.046834572            2 
   14000    1.2565571   -6.0925512    1.1406378 0.0067895103  0.048099692            2 
   15000     1.250127   -6.0939182    1.7071242  0.009484023  0.047057214            4 
   16000    1.2358457   -6.1041022    2.2902373  0.011928319  0.047330178            4 
   17000    1.2755416   -6.1495093    2.8477782  0.013959697  0.047469619            3 
   18000    1.2359695   -6.1169817    3.4469587  0.015958142  0.047684223            2 
   19000    1.2471699   -6.1385269    4.0004198    0.0175457   0.04772582            3 
   20000    1.2578061   -6.1181975    4.6465695  0.019360706  0.047918788            5 
   21000    1.2477313   -6.1424033    5.2441829  0.020810249  0.048325247            3 
   22000    1.2437969   -6.1162993    5.7988114  0.021965194  0.048467616            2 
   23000    1.2555211   -6.0899749    6.3556829  0.023027836  0.048541987            2 
   24000    1.2410343   -6.0975693    6.9574479  0.024157805  0.048537439            3 
   25000    1.2503594    -6.124497     7.482444   0.02494148  0.048452229            2 
   26000    1.2352741   -6.1064275    7.9573746  0.025504405  0.048164926            3 
   27000    1.2398914   -6.1082222     8.623259  0.026614997  0.047965145            3 
   28000    1.2625126   -6.1095836      9.07525  0.027009672  0.047740842            2 
   29000    1.2432567   -6.1358022     9.638988  0.027698241  0.047610622            2 
   30000    1.2366194    -6.129721    10.122002  0.028116672  0.047445777            4 
   31000    1.2223512     -6.13468     10.68989  0.028736264  0.047243265            3 
   32000    1.2138084   -6.1195332    11.142989    0.0290182  0.047009794            2 
   33000    1.2447268    -6.089508    11.478829  0.028986943  0.046635235            3 
   34000    1.2350614   -6.1429513    11.958706  0.029310553  0.046255387            4 
   35000    1.2270294   -6.0925274    12.478075  0.029709702  0.045893133            3 
   36000     1.235455   -6.1467485    13.036108  0.030176176  0.045610307            2 
   37000    1.2287399   -6.1188317    13.612666  0.030659158   0.04539699            3 
   38000    1.2522234   -6.1493768    14.131852  0.030990903  0.045250179            2 
   39000    1.2263542   -6.1325094    14.733286   0.03148138  0.045130468            3 
   40000    1.2392746   -6.1631357    15.196784  0.031659966   0.04502446            3 
   41000    1.2439511   -6.1271589    15.870728  0.032257578  0.044974562            2 
   42000    1.2428689   -6.1575286     16.41127  0.032562043  0.044961132            2 
   43000    1.2375156    -6.154152    16.902554  0.032756887  0.044912032            6 
   44000    1.2486743   -6.1528394    17.332023  0.032825801  0.044842192            1 
   45000    1.2476741   -6.1232347    18.129488  0.033573125  0.044834624            2 
   46000    1.2268539   -6.1391233    18.558008  0.033619579  0.044842344            3 
   47000    1.2356439   -6.1105971    19.203269  0.034048349  0.044851198            2 
   48000    1.2315203   -6.1238429    19.752514  0.034292559  0.044879511            2 
   49000    1.2447266   -6.1156696    20.173142  0.034308063  0.044896383            2 
   50000    1.2219927   -6.1243906     20.77519  0.034625317  0.044882096            2 
   51000    1.2423768   -6.1741458    21.100273   0.03447757   0.04487324            2 
   52000    1.2486962   -6.1323908    21.748492  0.034853353  0.044831095            2 
   53000    1.2474295   -6.1542784    22.119434  0.034778984  0.044800223            7 
   54000     1.224542   -6.1297159    22.607706  0.034888435  0.044750255            3 
   55000    1.2154618   -6.1535564    22.928788  0.034740588  0.044669906            3 
   56000    1.2118155   -6.1488988    23.388183  0.034803843  0.044564778            3 
   57000     1.232105   -6.1170666    23.960513  0.035029989  0.044449061            3 
   58000    1.2721989   -6.1448312    24.423902  0.035091813  0.044362171            2 
   59000    1.2574967   -6.1308195    25.080831  0.035424902  0.044292655            6 
   60000    1.2397459   -6.1661046    25.828417  0.035872801  0.044247641            2 
   61000    1.2101502   -6.1391623    26.441748  0.036122606  0.044239786            5 
   62000    1.2112194   -6.1047383    27.202921  0.036563066  0.044278693            1 
   63000    1.2167629   -6.1550888    27.677381  0.036610292  0.044317962            2 
   64000    1.2069916    -6.199215    28.343682  0.036905836  0.044370112            4 
   65000    1.2717077   -6.1171063    28.817804  0.036945903  0.044422503            3 
   66000    1.2427592   -6.1580619     29.28395  0.036974683  0.044461075            3 
   67000    1.2440305   -6.1551859    29.896117  0.037184224  0.044493256            1 
   68000    1.2489976   -6.1432225     30.45151  0.037318027  0.044531897            2 
   69000    1.2345337   -6.1467072    31.118064  0.037582203  0.044574785            2 
   70000    1.2051266   -6.1463915    31.714563  0.037755431  0.044614724            3 
   71000    1.2071399   -6.1578389    32.257219  0.037860586  0.044657473            2 
   72000    1.2310281   -6.1311054    32.793834  0.037955826  0.044697309            1 
   73000    1.2352545   -6.1791978    33.344306  0.038064276  0.044733196            2 
   74000    1.2078016   -6.1505708    33.875834  0.038148461  0.044780291            5 
   75000    1.2538181   -6.1493617    34.491025  0.038323361  0.044825988            4 
   76000    1.2508466   -6.1543047    34.977665  0.038352702  0.044866925            6 
   77000    1.1668946   -6.1442989    35.385818   0.03829634   0.04488903            2 
   78000    1.2259669   -6.1262515    35.708523  0.038150131  0.044898057            3 
   79000    1.2456779   -6.1957175    36.196243  0.038181691  0.044902242            3 
   80000    1.2246183   -6.1862409    36.927586  0.038466235   0.04490204            2 
   81000    1.2525285   -6.1506227    37.307367  0.038382064  0.044905723            7 
   82000    1.2128489   -6.1341649    38.279338  0.038901766  0.044927931            3 
   83000     1.240811   -6.1816096    38.771308  0.038927016  0.044958428            3 
   84000    1.2127271   -6.1683267    39.413705  0.039100898  0.044987051            1 
   85000    1.2316011   -6.1212964    40.033502  0.039248531  0.045019946            2 
   86000      1.23717   -6.1873629      40.4477  0.039193507  0.045050541            3 
   87000    1.2189996    -6.144259     40.85402  0.039132203  0.045076071            2 
   88000    1.2233081   -6.1480957    41.478886  0.039279248  0.045099929            3 
   89000    1.2077319    -6.148362    42.023969  0.039348285   0.04511312            1 
   90000    1.2315912   -6.1820101    42.808528  0.039637525  0.045135247            3 
   91000    1.2250669   -6.1499903    43.525386  0.039858412  0.045174907            2 
   92000    1.1975484   -6.1620784    44.187826  0.040025204  0.045229951            2 
   93000    1.2061433   -6.1444362    44.862332  0.040199222   0.04527972            4 
   94000    1.2233043   -6.1284194    45.364987  0.040217187  0.045335302            7 
   95000    1.2076834    -6.161548    46.066641  0.040409334  0.045386152            4 
   96000    1.1716379   -6.1731783    46.223977   0.04012498  0.045428772            2 
   97000    1.2261149   -6.2093753    46.769833  0.040180269  0.045457099            5 
   98000     1.222516   -6.1359911    47.172016  0.040112258  0.045474526            3 
   99000    1.2097935   -6.1741304    47.144505  0.039683927  0.045468826            2 
  100000    1.2116866   -6.1608034    47.913875  0.039928229  0.045453806            3 
  101000    1.2164319   -6.1215745     48.48411  0.040003391  0.045433498            2 
  102000    1.2035369    -6.152787    49.002112  0.040034405  0.045423417            1 
  103000    1.2211956    -6.163266    49.445683  0.040004598  0.045409113            2 
  104000    1.2166064   -6.1937844    49.931688  0.040009365  0.045392672            4 
  105000    1.2126562   -6.1792159    50.226172  0.039862041  0.045368349            2 
  106000    1.2286672   -6.1636704    50.571667    0.0397576  0.045332949            3 
  107000    1.2180469   -6.1772263    50.863921  0.039613645  0.045286897            1 
  108000    1.2099681   -6.1230383    51.391814  0.039654178  0.045240972            2 
  109000    1.2148836   -6.1678064    52.013039   0.03976532  0.045198939            2 
  110000    1.2186976   -6.1876468    52.744087  0.039957642  0.045166565            4 
  111000    1.1931399   -6.1839809    53.301347  0.040016026  0.045139302            4 
  112000    1.2112827   -6.1411499    53.725063  0.039974005  0.045113383            3 
  113000    1.1928835   -6.1487763    54.216574  0.039982724  0.045084774            4 
  114000    1.2197784   -6.1780035    54.510169  0.039846615   0.04504983            5 
  115000    1.2240243    -6.135147    55.257754  0.040041851  0.045011485            3 
  116000    1.2321585   -6.1777599    55.801297  0.040087139  0.044978123            5 
  117000    1.2309829   -6.2313023    56.239239  0.040056438  0.044950874            2 
  118000    1.1999839   -6.1744057    56.598037  0.039970365  0.044925975            2 
  119000    1.1873887   -6.1954272    57.196043  0.040053252  0.044891336            2 
  120000    1.1790161   -6.1812312    57.660521  0.040042028  0.044856076            2 
  121000    1.2115738   -6.1958811    58.030817  0.039966127  0.044822537            2 
  122000    1.1956716   -6.1560559    58.730224  0.040116273  0.044789264            3 
  123000    1.2385766   -6.1547469    59.292786  0.040171264  0.044756619            4 
  124000    1.2075904   -6.1834428    59.645332  0.040084228  0.044721942            2 
  125000      1.19676   -6.2164272     60.00249   0.04000166   0.04468383            2 
  126000    1.2040607   -6.2049036     60.37264  0.039928995  0.044642548            3 
  127000    1.2231243     -6.16467    61.203748  0.040159939  0.044608645            3 
  128000    1.1938079    -6.173702    61.653811    0.0401392  0.044579997            3 
  129000    1.2041606   -6.1844179    62.237645  0.040205197  0.044549739            6 
  130000    1.2028315   -6.2118797    62.751196  0.040225126  0.044523038            4 
  131000    1.1902504   -6.1711506    62.995457  0.040073445  0.044495695            3 
  132000      1.20922   -6.1918014    63.595869  0.040148907  0.044464845            3 
  133000    1.2018214   -6.2134525    63.876981  0.040023171  0.044428161            1 
  134000    1.1911699   -6.1702283    64.568338  0.040154439  0.044390109            3 
  135000    1.2006109   -6.2212855    64.852951  0.040032685  0.044350017            3 
  136000    1.1839403   -6.2108582    65.114898  0.039898834  0.044312332            2 
  137000    1.1915441   -6.2013432    65.913671  0.040093474  0.044270531            2 
  138000    1.2103715   -6.2061527    66.146347  0.039943446   0.04422687            2 
  139000     1.204792   -6.1719926     66.29077  0.039742668  0.044181566            2 
  140000    1.2123311   -6.2027102    67.015531  0.039890197  0.044137468            5 
  141000     1.206325    -6.177857    67.389433   0.03982827  0.044095322            2 
  142000     1.215174   -6.1972915    67.926073  0.039862719  0.044051533            3 
  143000    1.2104051   -6.1835785    68.328051  0.039818212  0.044006931            3 
  144000    1.1996829   -6.1829796    68.945257  0.039898875  0.043963145            2 
  145000     1.166268   -6.2521065    69.241333  0.039793869  0.043915331            5 
  146000    1.1919724   -6.2284479    69.746681  0.039809749  0.043873324            2 
  147000    1.2233404   -6.2251478    70.107822  0.039743663  0.043832961            2 
  148000     1.162947    -6.238308    70.302371  0.039584668  0.043789347            2 
  149000    1.1950303   -6.1944982    71.234247  0.039840183   0.04374686            3 
  150000    1.1936213   -6.2128788    71.313006  0.039618337  0.043702652            3 
  151000    1.1906487   -6.1796746     71.61992  0.039525342    0.0436537            2 
  152000    1.2063405   -6.2012102    72.493169  0.039744062   0.04360854            3 
  153000    1.2297525   -6.1984405    73.240359  0.039891263  0.043568182            3 
  154000    1.2114505   -6.2475194    73.466919  0.039754826  0.043527016            3 
  155000    1.1847319   -6.1727869    73.795065  0.039674766  0.043483827            3 
  156000    1.1839036   -6.1995195    74.292467  0.039686147  0.043443791            3 
  157000    1.2226964   -6.2021264    74.554983  0.039572709  0.043396302            1 
  158000     1.203198   -6.1369619    75.044749  0.039580564  0.043345275            2 
  159000    1.2047769   -6.2006727    74.998694  0.039307492  0.043292483            3 
  160000    1.2241865   -6.2021499    75.587107  0.039368285  0.043239423            4 
  161000    1.1898301    -6.232051    76.068071  0.039372707  0.043187929            2 
  162000    1.1861347   -6.2454022    76.484717   0.03934399  0.043135557            2 
  163000    1.2120803   -6.2305824    76.690375  0.039207758  0.043082839            1 
  164000    1.1817037   -6.2231141    77.237781   0.03924684  0.043031331            3 
  165000    1.2289036   -6.1981252    77.672046  0.039228306   0.04297998            3 
  166000    1.1924711   -6.2577676    78.188286  0.039251147  0.042927069            6 
  167000    1.1820338   -6.1977862    78.391607  0.039117568   0.04287232            2 
  168000    1.2048879   -6.2181954    78.765575  0.039070226  0.042813546            4 
  169000    1.1683156   -6.1907029    79.297632  0.039101396  0.042759105            1 
  170000    1.1910032   -6.2104946    79.644149  0.039041249  0.042703132            8 
  171000    1.1796953   -6.2096743     80.48755  0.039223952   0.04264766            4 
  172000    1.1924196   -6.2660292    80.571646   0.03903665  0.042591314            3 
  173000    1.1687752   -6.2080372    81.226217  0.039126309  0.042535896            3 
  174000    1.1950622   -6.2121919    81.367574  0.038969145  0.042482473            2 
  175000    1.2172594   -6.1916694    81.603053  0.038858596  0.042426022            2 
  176000    1.1927256   -6.1910562    81.985405  0.038818847  0.042372676            2 
  177000    1.1684224   -6.2151247     82.54901  0.038864882  0.042319482            2 
  178000    1.1796129   -6.2553333    82.977539  0.038847162  0.042266685            6 
  179000    1.1791078   -6.2102658    83.569323  0.038905644  0.042215703            5 
  180000    1.1840873   -6.2394645    83.813981  0.038802769  0.042164549            3 
  181000    1.1849364   -6.2568562    84.711197  0.039001472  0.042114091            2 
  182000    1.1678877   -6.2252336    84.913978  0.038880026  0.042064919            2 
  183000    1.1575162   -6.2319184    85.305439  0.038845828  0.042017637            5 
  184000    1.1880016   -6.2275798    85.925732  0.038915639  0.041973858            2 
  185000    1.1780428   -6.2144469    86.439528  0.038936724  0.041929589            5 
  186000     1.195606   -6.2605747    86.926553  0.038945588  0.041886765            5 
  187000    1.1650694   -6.2206115    87.435523  0.038964137  0.041846093            1 
  188000    1.1998376   -6.2267954    88.048645  0.039028655   0.04180709            3 
  189000    1.1943351   -6.2363473    88.447717  0.038998111  0.041771489            6 
  190000    1.1734407   -6.2212321     88.99243  0.039031767  0.041733772            2 
  191000    1.1825727   -6.2269247    89.406745  0.039008178  0.041697162            2 
  192000    1.1608517   -6.2427725    89.881421  0.039011033  0.041659613            4 
  193000    1.1940163   -6.2341739     90.23891   0.03896326  0.041622822            3 
  194000    1.1704642    -6.205635    90.706836  0.038963417  0.041586693            2 
  195000    1.1580213   -6.2315428    91.444218  0.039078725  0.041553007            4 
  196000    1.1853283   -6.2930731    91.445546  0.038879909  0.041518493            3 
  197000    1.1578947   -6.2272992     91.96877  0.038903879  0.041481823            3 
  198000    1.1849379   -6.2243011    92.274343  0.038836003  0.041444387            3 
  199000    1.1789586   -6.2471324     92.48206  0.038727831  0.041405649            2 
  200000    1.1942381   -6.2345863     92.93646  0.038723525   0.04136714            3 
  201000    1.1680097   -6.2359733    93.594609  0.038803735  0.041329134            2 
  202000    1.1810851   -6.2355411    93.959578  0.038762202  0.041291793            3 
  203000    1.1827634   -6.2861497    94.908142  0.038960649  0.041260156            2 
  204000    1.1768386   -6.2592974    94.889854  0.038762195  0.041229177            3 
  205000    1.1586205   -6.2307633    95.845657  0.038961649  0.041199479            4 
  206000    1.1758446   -6.2620795    96.156677  0.038898332  0.041169717           12 
  207000    1.1807584   -6.2604839     96.65388   0.03891058  0.041139621            4 
  208000    1.1590476    -6.240159    96.858977   0.03880568  0.041111176            4 
  209000    1.1932373   -6.2478551    97.708068   0.03895856  0.041082001            4 
  210000    1.1566501    -6.235019    97.956656  0.038871689  0.041053517            2 
  211000    1.1773747   -6.2644578    98.558477  0.038925149  0.041025642            4 
  212000    1.2057264   -6.2354306     98.84764  0.038855204  0.040996542            4 
  213000    1.1793979   -6.2485254    99.088223   0.03876691  0.040967363            2 
  214000    1.1670574   -6.2361752    99.586753  0.038779888  0.040937231            6 
  215000    1.1479962   -6.2681795    99.721028  0.038651561   0.04090691            3 
  216000    1.1858736   -6.2703482    100.13172  0.038631063  0.040874276            4 
  217000    1.1711293   -6.2494957    100.71504   0.03867705  0.040841578            4 
  218000    1.1719154    -6.234222    101.27123  0.038712243  0.040811651            2 
  219000    1.1644475   -6.2631041    101.71723  0.038705185  0.040782028            4 
  220000    1.1805475   -6.2415524    101.91565  0.038604414   0.04075019            3 
  221000    1.1616177    -6.287637    101.81067  0.038390148   0.04071517            4 
  222000    1.1570412   -6.2446538    102.11081  0.038329884  0.040678302            3 
  223000    1.1579774   -6.2547155    103.32636  0.038612241  0.040643836            3 
  224000    1.1338807   -6.2503372     103.4055  0.038469308  0.040610729            1 
  225000    1.1954948   -6.3013822    103.39437   0.03829421  0.040579454            3 
  226000    1.1583993   -6.2757719    104.55334  0.038552117  0.040547294            2 
  227000    1.1863392   -6.2760895    104.64227  0.038414929  0.040516961            4 
  228000     1.164771    -6.245798    105.61849  0.038603249   0.04048816            2 
  229000    1.1789017   -6.2327785    105.60424  0.038429491   0.04046055            3 
  230000    1.1664246   -6.2645859    106.03174  0.038417297  0.040432734            3 
  231000    1.1967537   -6.2166031    106.51261  0.038424461  0.040402309            1 
  232000    1.1677898   -6.2659903    107.14331  0.038485385  0.040373581            3 
  233000    1.1314943   -6.2544248    107.52084  0.038455235  0.040346152            3 
  234000    1.1600655   -6.2845854    108.12817  0.038507183  0.040318974            5 
  235000    1.1703826   -6.2560346    108.35424   0.03842349  0.040292193            2 
  236000    1.1516122   -6.2629678    108.85953    0.0384391  0.040265543            3 
  237000    1.1510673   -6.2974441    109.26315  0.038418829  0.040238949            2 
  238000    1.1776666   -6.3270091    109.52927  0.038350585  0.040212897            2 
  239000    1.1256532   -6.2609558    110.14986  0.038406506  0.040185434            6 
  240000    1.1853663   -6.2911171    110.70268  0.038438431  0.040158679            8 
  241000    1.1471824   -6.2518396    111.15808  0.038436405  0.040134275            5 
  242000    1.1325786   -6.2724521    111.79581  0.038497179  0.040110869            3 
  243000     1.165176   -6.2653182    112.06342  0.038430527  0.040088387            5 
  244000    1.1600788   -6.2622447    112.61375   0.03846098  0.040066042            2 
  245000    1.1498032   -6.2692437    113.14919  0.038486118  0.040044042            3 
  246000    1.1704295   -6.2751299     113.1693  0.038336483  0.040020703            2 
  247000    1.1692899   -6.2714853      113.848  0.038410256  0.039995393            4 
  248000    1.1853076   -6.2900775     113.8785  0.038265625  0.039969704            5 
  249000    1.1415894   -6.2868303    114.33286  0.038264009  0.039942132            3 
  250000    1.1582115   -6.2895283    114.94995   0.03831665  0.039918201            3 
  251000    1.1323873   -6.2652791    115.37213  0.038304159  0.039894294            4 
  252000    1.1637022   -6.2956524    115.49244  0.038191944  0.039869197            4 
  253000    1.1225011   -6.3126697     115.9462  0.038190449  0.039843627            2 
  254000    1.1435925   -6.3000012    116.62365  0.038262352  0.039819025            5 
  255000    1.1461268    -6.264395    117.17615  0.038292858  0.039796246            5 
  256000    1.1495609   -6.3058149    117.53387  0.038259723  0.039773134            2 
  257000    1.1678533   -6.2513599    117.88981  0.038226268   0.03975251            3 
  258000    1.1668632   -6.2827493    118.26218  0.038198377  0.039729479            3 
  259000    1.1489572   -6.2611855    118.49197   0.03812483  0.039705063            3 
  260000    1.1523968   -6.3111348    118.32987  0.037926242  0.039678825            3 
  261000    1.1612525   -6.2433097    119.74459  0.038232627  0.039653296            3 
  262000    1.1435753   -6.2776461    119.96045  0.038155359  0.039631248            4 
  263000    1.1291931   -6.2767175     120.6857  0.038240083  0.039608969            3 
  264000    1.1441762   -6.2886032    121.24859  0.038272913  0.039589366            1 
  265000    1.1509859   -6.3033437    121.64367  0.038252727  0.039569226            3 
  266000    1.1457824   -6.2606047     121.9781  0.038213692  0.039551054            5 
  267000    1.1640251   -6.2981922    122.57074  0.038255538  0.039533099            4 
  268000     1.180998   -6.2625165    123.00851  0.038248914  0.039515845            5 
  269000    1.1357042   -6.3051449    123.01151  0.038107655  0.039497224            4 
  270000    1.1646872    -6.262644    123.91583  0.038245626    0.0394777            3 
  271000    1.1725051   -6.2880469    124.39005  0.038250322  0.039460067            3 
  272000    1.1436045   -6.2925322    125.05216  0.038312548   0.03944222            6 
  273000    1.1620702   -6.3217517    124.94072  0.038138193  0.039424428            7 
  274000    1.1382253   -6.2827999    125.85209  0.038276182  0.039406764            6 
  275000    1.1478545   -6.2995509    125.27672  0.037962641  0.039388817            1 
  276000    1.1537727   -6.3180154    126.29226  0.038131722  0.039369454            6 
  277000     1.133085   -6.3043788    126.81643  0.038151755  0.039351856            3 
  278000    1.1720892   -6.3286682    126.99944  0.038069376  0.039333416            3 
  279000    1.1633771   -6.3071451    128.03501  0.038242237  0.039316126            4 
  280000    1.1596253   -6.3078208     128.6393  0.038285507  0.039299956            5 
  281000    1.1329136   -6.2763376    128.93682  0.038237491  0.039284563            4 
  282000    1.1347408   -6.3011307    129.05099  0.038135635  0.039267938            4 
  283000    1.1510448   -6.3233287    129.22335  0.038051634  0.039252369            3 
  284000    1.1022714   -6.3168172    130.24495  0.038217414  0.039237654            3 
  285000    1.1746002    -6.304528    130.96887   0.03829499  0.039224698            2 
  286000     1.164662    -6.341576    130.92069  0.038147055  0.039211467            3 
  287000    1.1465579   -6.3091217    131.33402  0.038134153  0.039195977            3 
  288000    1.1717596   -6.3119802    131.73756  0.038118508  0.039180325            8 
  289000    1.1369567   -6.3178102     132.0122  0.038065801  0.039164358            5 
  290000    1.1577681   -6.3398181    131.98515  0.037926768  0.039147031            7 
  291000    1.1277268   -6.3374817    132.52805  0.037951903  0.039129427            1 
  292000     1.124188   -6.3090365    133.10366  0.037986204  0.039110042            6 
  293000    1.1467616   -6.2700825    133.30237  0.037913075  0.039092005            4 
  294000    1.1524211   -6.2737188    133.97425  0.037974561  0.039074763            2 
  295000    1.1351459   -6.3370023    133.75529  0.037783981  0.039057224            5 
  296000    1.1571856   -6.3107052    134.93785  0.037989259  0.039040235            8 
  297000    1.1492812   -6.3176672    135.02364  0.037885422  0.039023451            6 
  298000    1.1321897   -6.2972736    135.38662  0.037859793   0.03900618            1 
  299000    1.1445362   -6.2906175    135.72822  0.037828377  0.038989208            3 
  300000    1.1251034    -6.306853    136.34435   0.03787343  0.038972406            3 
  301000    1.1182842   -6.3290689    136.41052  0.037765925  0.038953903            3 
  302000    1.1238107   -6.3130387    137.07458  0.037824111  0.038934516            4 
  303000    1.1387566   -6.3087595    137.35192  0.037775554  0.038915631            2 
  304000    1.1236917   -6.3063807    137.70922  0.037749239  0.038896826            7 
  305000    1.1558717   -6.3378749    137.97731  0.037698718  0.038877384            4 
  306000    1.1627862   -6.2871506    138.41017  0.037693403  0.038858117            2 
  307000    1.1438904   -6.3007853    138.78308  0.037671845   0.03883906            4 
  308000    1.1414327   -6.3267872    139.38318  0.037711899    0.0388212            4 
  309000    1.1510119   -6.3071073    140.31183  0.037840299  0.038804178            2 
  310000    1.1311523   -6.3212216    140.62154  0.037801488  0.038789091            5 
  311000    1.1387395   -6.3075278    141.18925   0.03783206  0.038773464           11 
  312000     1.149449   -6.3085341    141.58335  0.037816067  0.038758287            3 
  313000    1.1489042   -6.3285937    141.70722  0.037728228  0.038742334            6 
  314000    1.1167969   -6.3223771    142.32109   0.03777099  0.038725471            5 
  315000    1.1085537   -6.2991074    142.55584  0.037713186  0.038708269            4 
  316000    1.1023068   -6.2678336    143.37926  0.037810985   0.03869196            3 
  317000    1.1378271   -6.3210642    143.34756  0.037683376  0.038675037            3 
  318000    1.1329026   -6.3599459    142.99425  0.037472288  0.038656706            6 
  319000    1.1344577    -6.347896    143.67563  0.037532819  0.038637844            3 
  320000    1.1011659   -6.3186545    144.48439  0.037626144  0.038619803            3 
  321000     1.117297   -6.3227422    145.13337  0.037677406  0.038601948            3 
  322000    1.1190799   -6.3113654    145.58999   0.03767857  0.038585138            6 
  323000    1.1240868   -6.3391613    145.89241  0.037639941  0.038568393            3 
  324000    1.1434612   -6.3417188    145.91134  0.037528637  0.038550575            3 
  325000    1.1222654     -6.38452    145.97231  0.037428798  0.038532262            2 
  326000    1.1114532    -6.380818    146.72919  0.037507463  0.038515561            3 
  327000    1.1407736   -6.3141946    147.12138  0.037492707  0.038498626            6 
  328000    1.0769378   -6.3587912    147.13604  0.037382124  0.038480984            6 
  329000    1.0920059   -6.2926573    147.30518  0.037311343  0.038461271            7 
  330000    1.1202537   -6.3494768    147.20876  0.037173929  0.038440716            3 
  331000    1.1037598   -6.3640638    148.51745  0.037391101  0.038421312            3 
  332000    1.1278082   -6.3341306    148.88141  0.037369832  0.038402151            3 
  333000    1.1551356   -6.3316465    149.77746  0.037481846  0.038384728            2 
  334000    1.1339526   -6.3689339    149.86578  0.037391661  0.038367199            6 
  335000    1.1251407   -6.3397131    150.26955  0.037380484  0.038349946            3 
  336000    1.1396685   -6.2855441    151.08449  0.037471351  0.038333337            7 
  337000    1.0898088   -6.3656823    151.21081  0.037391398  0.038316629            3 
  338000    1.0847893   -6.3516298    151.83373  0.037434352  0.038299712            3 
  339000    1.1196799   -6.3467513    152.30123  0.037438846  0.038283875            2 
  340000    1.1446024   -6.3460201     152.3309  0.037336004  0.038267691            3 
  341000    1.0868413   -6.3475168    152.68924  0.037314086  0.038250681            7 
  342000    1.1214718   -6.3506834    152.84853  0.037243793  0.038232981           10 
  343000    1.1096767    -6.319563    153.68797  0.037339157  0.038215641            3 
  344000    1.1188064   -6.3425814    153.61553  0.037213063   0.03819899            3 
  345000      1.11342   -6.3381156    153.51176  0.037080136  0.038182155            7 
  346000    1.1110148   -6.2832762    154.76248    0.0372742  0.038164161            2 
  347000    1.1173573   -6.3538762    154.55376  0.037116656  0.038145533            5 
  348000    1.1175291   -6.3740193     154.9987  0.037116547  0.038126981            2 
  349000    1.1061868   -6.3747807     155.7958  0.037200525  0.038109135            6 
  350000    1.1293161   -6.3181855    156.20906  0.037192634  0.038091636            3 
  351000    1.1115881   -6.3674558    156.62936  0.037186458  0.038072912            4 
  352000    1.0966239    -6.359959    156.41336  0.037029678  0.038053329            6 
  353000    1.1342035   -6.3217015    157.38704  0.037154637   0.03803403            3 
  354000    1.1443651   -6.3764088    157.33618  0.037037708  0.038014506            5 
  355000     1.113439   -6.3308891    157.71725  0.037022828   0.03799528            3 
  356000    1.1122682    -6.338519    158.28544  0.037051834  0.037976727            7 
  357000    1.1296648   -6.3489542     158.0614  0.036895752  0.037957236            2 
  358000    1.0847633   -6.3521279    159.16369  0.037049277  0.037936875            2 
  359000    1.0865834   -6.3315362    159.30106  0.036977962  0.037917226            5 
  360000    1.1022281   -6.3199509    160.32944  0.037113297  0.037898033            3 
  361000    1.0945204   -6.3848949    160.10844  0.036959475  0.037879042            3 
  362000    1.1179494   -6.3295394    160.18714  0.036875492  0.037860437            2 
  363000    1.1009136   -6.3442269    160.73515  0.036899713  0.037841894            4 
  364000     1.122766   -6.3530556    161.33106  0.036934765  0.037823513            4 
  365000     1.109722   -6.3352844    161.27171  0.036820025   0.03780365            4 
  366000    1.1197187    -6.345122    161.10724  0.036681977  0.037783213            3 
  367000    1.1135256   -6.3630372    162.21772  0.036834177  0.037762165            2 
  368000    1.1324706     -6.36344    161.72359  0.036622191   0.03774105            2 
  369000    1.0923793   -6.3737546    162.56054  0.036711955  0.037720189            7 
  370000    1.0829203   -6.3686099    162.79874  0.036666383  0.037698888            2 
  371000    1.1284487   -6.3617537    163.01506  0.036616141  0.037678214            7 
  372000    1.1030403   -6.3348546    163.15278  0.036548561  0.037656705            2 
  373000    1.1118335    -6.379163    163.32821  0.036489769  0.037635411            3 
  374000    1.1036143   -6.3486725    163.70461  0.036476071  0.037612825            4 
  375000    1.1372511    -6.334865    164.89963  0.036644362  0.037591006            3 
  376000    1.1132509   -6.3558683    164.94541   0.03655705  0.037569891            4 
  377000      1.09319   -6.3548707    164.59819   0.03638333  0.037546888            2 
  378000    1.1186629   -6.3675022    165.12074  0.036402279  0.037524337            3 
  379000    1.1102787   -6.3577991    165.80121  0.036455851  0.037501336            3 
  380000    1.1012906     -6.33816    166.01921  0.036407721  0.037479064            2 
  381000    1.1039426   -6.3962766    165.74492  0.036252171  0.037455786            3 
  382000    1.1085899   -6.3513134    167.34942  0.036507291  0.037433012            3 
  383000    1.1088292   -6.3714512    167.04311  0.036345324  0.037411068            2 
  384000    1.1304945    -6.396753    166.96574  0.036233885  0.037389675            3 
  385000    1.0879306   -6.3502618    167.63453  0.036284531  0.037367082            2 
  386000    1.1212487   -6.3570073    168.35352  0.036345751  0.037345596            3 
  387000    1.0919287   -6.3925419    169.18208  0.036430249  0.037324167            6 
  388000    1.1000565   -6.4205908    169.21121  0.036342613  0.037302713            3 
  389000    1.0999847   -6.3682847    170.23387  0.036468266  0.037282438            2 
  390000    1.0953168   -6.4039036    170.22537  0.036372942  0.037263115            4 
  391000    1.1029487   -6.3382812    170.82548  0.036407817  0.037243511            3 
  392000     1.094937   -6.3728076    170.71057  0.036290513  0.037223995            3 
  393000    1.1070674   -6.3759052    170.91223   0.03624093   0.03720409            4 
  394000    1.0654514   -6.3871539    171.23917  0.036218099   0.03718342            6 
  395000    1.1198843   -6.4134518    171.98076  0.036282861  0.037162984            2 
  396000    1.0903091   -6.3854563    172.43881  0.036287629  0.037142838            5 
  397000    1.1014854   -6.3575649    172.31903  0.036171082  0.037122465            3 
  398000    1.1057641    -6.371611    172.93434  0.036209032  0.037102178            3 
  399000    1.0986949   -6.3712095    173.41637  0.036218958  0.037081301            7 
  400000    1.1252467   -6.3906072    173.93333   0.03623611  0.037060918            2 
  401000    1.0964616   -6.3851043    173.46582   0.03604859  0.037040828            2 
  402000    1.0928033   -6.4292778    174.67356  0.036209279  0.037020437            4 
  403000    1.0783428   -6.3846438    175.01686  0.036190418  0.037000608            5 
  404000    1.0862658     -6.39968    175.16689  0.036131783  0.036981314            3 
  405000    1.0893333   -6.3976351    175.39096  0.036088676  0.036961208            4 
  406000    1.0929496   -6.3942149    175.44362  0.036010595  0.036941164            5 
  407000    1.0865073   -6.3666873     176.2941  0.036096253  0.036921125            9 
  408000    1.0864364   -6.4413433    176.63901   0.03607823  0.036901891            7 
  409000    1.1000583   -6.3779412    176.82739    0.0360284  0.036883374            1 
  410000    1.0908514   -6.4025282     177.7519  0.036128435  0.036864337            5 
  411000    1.1075136    -6.381291    177.63966  0.036017774  0.036844682            3 
  412000    1.1025598   -6.3711808    177.97809  0.035998805   0.03682577            7 
  413000    1.0894043    -6.379613    178.48318  0.036013556  0.036807148            5 
  414000    1.0758826   -6.3794564    178.39332  0.035908479  0.036788408            2 
  415000    1.0799764   -6.3788458    178.86742  0.035917154  0.036769273            2 
  416000    1.1005991    -6.420179    178.55414  0.035768057  0.036748642            4 
  417000    1.0861621   -6.3742093    179.38473  0.035848268  0.036728046            2 
  418000    1.0874557   -6.3903138    180.39759  0.035964432  0.036707813            4 
  419000    1.0851674   -6.3759519    180.29666  0.035858524  0.036687572            3 
  420000    1.0667598   -6.3989859    180.32714  0.035779194   0.03666712            4 
  421000    1.0906717   -6.4219263    181.06618  0.035840494  0.036646915            4 
  422000    1.0929413    -6.442021    181.32279  0.035806239  0.036626445            2 
  423000    1.0747123   -6.3835383    181.61443  0.035779044  0.036605421            5 
  424000     1.079414   -6.3947189    181.75888  0.035723051  0.036583889            2 
  425000    1.0666703   -6.3656668    181.72049  0.035631468  0.036562295            3 
  426000    1.1068089   -6.3984489    182.45219   0.03569096  0.036540931            6 
  427000    1.0967423   -6.4174219    182.25468  0.035568828  0.036519894            3 
  428000     1.111841    -6.389025    183.04296  0.035639205  0.036498775            4 
  429000    1.0687909   -6.3995957    183.44412  0.035634056  0.036478226            2 
  430000    1.0833035   -6.4156218    183.66806  0.035594584  0.036457574            3 
  431000    1.0776163   -6.3996187     184.2869  0.035631652  0.036436892            5 
  432000    1.1131418   -6.3936141    185.05378  0.035697103  0.036416612            5 
  433000    1.0731852   -6.4251386    184.93891  0.035592554  0.036396443            4 
  434000     1.083674   -6.4087259    184.77018  0.035478145  0.036375154            5 
  435000    1.0663344   -6.3525117    185.71227  0.035577064  0.036354068            5 
  436000    1.0865017    -6.406567    185.83239  0.035518422  0.036333427            2 
  437000    1.0956493   -6.4333585    185.12289  0.035301848   0.03631184            1 
  438000    1.0607598   -6.3846778    186.62515  0.035507069  0.036290744            2 
  439000    1.0893407   -6.4033017    186.26548  0.035357912  0.036269704            6 
  440000    1.0861576   -6.4343513    186.33558   0.03529083  0.036247623            5 
  441000     1.087367   -6.4588963    186.70013  0.035279692  0.036226408            4 
  442000    1.0523678   -6.4117257    188.06478  0.035457161  0.036205134            3 
  443000    1.1015937    -6.404119    188.34695  0.035430202  0.036185702            3 
  444000    1.1051547   -6.3879961    188.79385  0.035434281  0.036166161            6 
  445000    1.0718345   -6.4276033    189.82279  0.035547338  0.036146768           10 
  446000    1.0933738   -6.3928511    189.66755   0.03543863  0.036127749            3 
  447000    1.0806979   -6.4202709    189.32483  0.035295456    0.0361084            6 
  448000     1.075528   -6.4197945    190.09377  0.035359704  0.036088232            3 
  449000    1.0599137   -6.4277454     190.0957   0.03528131  0.036068312            5 
  450000    1.0857748   -6.4499926    190.77507  0.035328716  0.036048473            6 
  451000    1.0703244   -6.3728407    191.55684  0.035394834  0.036028886            4 
  452000     1.082259   -6.4202375     191.5172  0.035309217  0.036009169            3 
  453000    1.0664029   -6.4267934    191.81234  0.035285566  0.035990494            4 
  454000    1.0702845   -6.4249863    191.88539  0.035221254  0.035971084            5 
  455000    1.0866195   -6.4047567    192.88943  0.035327734  0.035951674            3 
  456000    1.0935392   -6.4529762    192.88181  0.035248868  0.035932578            3 
  457000    1.0792733   -6.4417188    193.55801  0.035295042  0.035913968            4 
  458000    1.0599806   -6.4223758    194.15739  0.035327035  0.035895467            3 
  459000    1.0547732    -6.434475    193.87991  0.035199693  0.035877372            4 
  460000    1.0629908   -6.4268669    194.53532  0.035241906  0.035858786            3 
  461000    1.0588315   -6.4245902    195.08711  0.035265203  0.035840502            4 
  462000    1.0672022   -6.4496001    194.97371  0.035168418   0.03582163            4 
  463000     1.061091    -6.383279    195.18735  0.035130913   0.03580171            5 
  464000    1.0512757     -6.42507    195.47134  0.035106203  0.035782406            3 
  465000    1.0770646   -6.3961217    195.51793  0.035039055  0.035762362            3 
  466000    1.0801431   -6.4205901    196.51772  0.035142653  0.035742536            3 
  467000    1.0711552   -6.4150674    196.04541   0.03498312  0.035722961            3 
  468000    1.0382122   -6.4229946    196.30878  0.034955268  0.035703338            2 
  469000    1.0454441   -6.4245735    197.05753  0.035013776  0.035683849            3 
  470000    1.0888878    -6.426779    197.35639  0.034992268  0.035664173            3 
  471000    1.0659222    -6.437733    198.01349  0.035034234   0.03564486            3 
  472000    1.0525077   -6.4451345    197.66339  0.034898197  0.035625335            2 
  473000    1.0463503   -6.4346795     198.2383  0.034925705  0.035605449            5 
  474000    1.0533111   -6.4543793    198.74894  0.034941796  0.035585342            4 
  475000    1.0671736   -6.4360315    199.39919  0.034982313  0.035565909            3 
  476000    1.0384033   -6.4696275    199.17315  0.034869248  0.035546441            2 
  477000    1.0585921   -6.4584998    199.06845  0.034777857  0.035525958            4 
  478000    1.0642941   -6.4110493    200.08935  0.034883081  0.035505687            2 
  479000    1.0608718   -6.4407151    200.01116  0.034796654  0.035485204            5 
  480000    1.0507813   -6.4668686    199.98166  0.034719038  0.035464896            5 
  481000    1.0621795   -6.4225653    201.11403   0.03484304  0.035444234            5 
  482000    1.0777813   -6.4449671     200.4247  0.034651573  0.035423601            3 
  483000    1.0583277   -6.4786259    201.15245  0.034705392  0.035402869            3 
  484000    1.0759551   -6.4546314    201.62644  0.034715297  0.035382493            4 
  485000     1.077108   -6.4312974    202.08502  0.034722511  0.035362607            2 
  486000    1.0423521   -6.4516966    202.40204  0.034705426   0.03534264            5 
  487000    1.0579345   -6.4275152    202.53569  0.034657032  0.035322742            4 
  488000     1.054369   -6.4394461    202.32838  0.034550611  0.035302978            6 
  489000    1.0626471    -6.415947    203.44683  0.034670556  0.035283316            2 
  490000    1.0559039    -6.442283    203.68438  0.034640201  0.035263577            3 
  491000    1.0811174   -6.4819678    203.57232  0.034550632  0.035243813            8 
  492000    1.0776599   -6.4495956    204.36069  0.034613938  0.035223662            5 
  493000     1.071636    -6.466498    204.60437  0.034584917  0.035203259            3 
  494000    1.0715196   -6.4909877    203.74102  0.034369268  0.035182313            2 
  495000    1.0332326   -6.4752245    204.26666  0.034388326  0.035161827            9 
  496000    1.0564163   -6.4411831    205.67173  0.034555063  0.035141959            3 
  497000    1.0552124   -6.4327122    205.69676  0.034489732  0.035122805            5 
  498000    1.0472894   -6.4335743    205.86727  0.034449007  0.035103195            5 
  499000    1.1078623   -6.4516368     206.1078   0.03442014  0.035083549            8 
  500000    1.0317161   -6.4669918    206.40506  0.034400843  0.035063758            4 
  501000    1.0542839   -6.4467029    207.28765  0.034478984  0.035044539            7 
  502000    1.0758663   -6.4269703    207.70787  0.034480058  0.035025452            5 
  503000    1.0576173   -6.4583488    207.80005  0.034426781  0.035006748            9 
  504000    1.0481234   -6.4510769    208.15154   0.03441659  0.034988219            3 
  505000    1.0398377   -6.4828102    208.85418  0.034464387  0.034969579            4 
  506000    1.0637566   -6.4932136     208.4259  0.034325741  0.034950822            5 
  507000    1.0450005   -6.4882384    208.53467  0.034275915  0.034931633            6 
  508000    1.0699253   -6.4544075    209.50381  0.034367423  0.034913203            9 
  509000    1.0532509   -6.4344044    209.37077  0.034278123  0.034893581            3 
  510000    1.0551991   -6.4559664    209.57827  0.034244815  0.034874027           11 
  511000    1.0497327    -6.461212    209.99339  0.034245497   0.03485437            5 
  512000    1.0471488   -6.4517969    210.14282  0.034202933   0.03483465            4 
  513000    1.0420115   -6.4832915    210.02354  0.034116885  0.034815132            5 
  514000    1.0326564   -6.4678949    210.33697  0.034101324  0.034795325            3 
  515000    1.0664121   -6.4733517    210.67094  0.034089149  0.034775244            5 
  516000    1.0521234   -6.4837897    210.79295  0.034042789  0.034755009            7 
  517000    1.0336865   -6.4672058    210.99409  0.034009363  0.034734332            3 
  518000     1.047452   -6.4475534    211.69601   0.03405663  0.034714061            4 
  519000    1.0582851   -6.4675967    211.67526  0.033987679  0.034693755            4 
  520000    1.0481971   -6.5293928    211.77362   0.03393808  0.034672929            6 
  521000    1.0767425    -6.539516    212.19338   0.03394008  0.034651753            2 
  522000    1.0479998    -6.492113     212.5271  0.033928336  0.034630269            3 
  523000    1.0641589   -6.4827021    213.36763  0.033997392  0.034609187            7 
  524000    1.0451403   -6.5126973    212.65416  0.033819046  0.034588187            4 
  525000    1.0547479    -6.483277    212.80159   0.03377803  0.034566845            5 
  526000    1.0404722   -6.5004686    213.10338  0.033761626  0.034545546            3 
  527000    1.0395868     -6.48181    213.62538  0.033780104  0.034524617            7 
  528000    1.0316161   -6.4811219    213.70882  0.033729296  0.034503208            4 
  529000    1.0334418   -6.4501537    213.93606  0.033701333  0.034481529            4 
  530000    1.0645641   -6.4739171    214.41074  0.033712381  0.034460588            8 
  531000    1.0423046   -6.4547416     215.1618  0.033766761  0.034439039            6 
  532000    1.0314437   -6.4772764    215.60713  0.033773047  0.034418396            3 
  533000    1.0193982    -6.518149    215.78964  0.033738217  0.034396867            3 
  534000    1.0460114   -6.4879984    215.76605  0.033671356  0.034375512            3 
  535000    1.0502531   -6.4768524    216.72384  0.033757607  0.034354621            4 
  536000    1.0686129   -6.4907575    216.58137  0.033672477  0.034333231            5 
  537000    1.0205965   -6.4674804    216.98257  0.033672031  0.034312323            4 
  538000    1.0346226   -6.4939196    217.31653  0.033661173   0.03429131            5 
  539000     1.035983   -6.4841305    217.55804  0.033636061  0.034269711            4 
  540000    1.0446577   -6.5099881    217.70151  0.033595912  0.034248574            5 
  541000    1.0250249   -6.4958144    218.05078  0.033587613  0.034227851           11 
  542000    1.0176399   -6.5111737    218.25701  0.033557351  0.034206665            6 
  543000    1.0378243   -6.4687264    217.98501  0.033453808  0.034185477            4 
  544000     1.045696   -6.4836447    219.37305   0.03360494  0.034164593            5 
  545000    1.0360713   -6.5094842    218.96907   0.03348151  0.034143209            3 
  546000    1.0381404   -6.5097282    219.21153  0.033457193  0.034121648            4 
  547000    1.0272962   -6.4944754    219.71634  0.033472934  0.034099943            5 
  548000     1.030009   -6.4867441    219.06862  0.033313355  0.034078301            5 
  549000    1.0314634   -6.5164976    218.80936  0.033213321  0.034056567            5 
  550000    1.0386904   -6.4881953     219.3705  0.033237954   0.03403415            7 
  551000     1.027603   -6.4397988    220.03554  0.033278213  0.034012074            3 
  552000    1.0294913   -6.4419771    220.21732  0.033245368  0.033989997            4 
  553000    1.0278067   -6.4664251    220.21754  0.033185283  0.033968025            8 
  554000    1.0221046   -6.4464633      221.105  0.033258876   0.03394633            5 
  555000    1.0075777   -6.5012979    221.10342  0.033198711  0.033924216            4 
  556000    1.0502954   -6.5013954    221.78116  0.033240581  0.033902047            9 
  557000    1.0549728   -6.4954003    222.39362  0.033272534  0.033880507            4 
  558000      1.03352    -6.493759    221.54748  0.033086542   0.03385879            4 
  559000    1.0240308   -6.4868819    221.50445  0.033020937  0.033836378            6 
  560000    1.0474317   -6.4856735    222.90828  0.033170874  0.033814601            2 
  561000    1.0272691   -6.4958541    223.57808  0.033211242  0.033793198            5 
  562000    1.0243742   -6.5109739    223.13968  0.033087141  0.033771587            3 
  563000    1.0246012   -6.4865297      222.984  0.033005328  0.033749785            3 
  564000    1.0207068   -6.5423917     223.1175  0.032966534  0.033728118            7 
  565000     1.003141   -6.5455226    223.68991  0.032992612  0.033706476            5 
  566000    1.0259992   -6.5215253    224.17197  0.033005296  0.033684861            3 
  567000    1.0340419   -6.4670132     224.5251  0.032998986  0.033663653            3 
  568000    1.0271763   -6.5294384    225.09876  0.033025053  0.033642247            4 
  569000    1.0272196   -6.5001395    225.84296  0.033076004  0.033621331            6 
  570000     1.016387    -6.541104    225.28382  0.032936231   0.03360043            5 
  571000    1.0280122   -6.4736304    226.53291  0.033060844  0.033579393            4 
  572000    1.0280039   -6.5283586    226.00502  0.032926139  0.033558776            5 
  573000    1.0045169   -6.5102376    226.42515  0.032929777  0.033538211            4 
  574000    1.0591051   -6.4789993    226.83488  0.032931894  0.033517891            8 
  575000    1.0267793   -6.5041166     226.9467  0.032890825  0.033497338            3 
  576000   0.99873129   -6.5267023    227.26566  0.032879869    0.0334768            3 
  577000    1.0146074   -6.5279387    228.40248   0.03298707  0.033456205            3 
  578000    1.0209729   -6.4873988    228.24506  0.032907304  0.033435888            4 
  579000    1.0199676   -6.5266534    228.85456  0.032938192  0.033415588            4 
  580000    1.0018421   -6.5179487    228.40363  0.032816613  0.033395925            7 
  581000    1.0162772   -6.5068794    229.20131  0.032874542  0.033375435            4 
  582000    1.0191388   -6.4898069    229.59167  0.032873951  0.033355483            4 
  583000    1.0192219   -6.5187511    229.87424  0.032857953  0.033335552            6 
  584000    1.0072528   -6.5482266    229.08712  0.032689372  0.033315455            6 
  585000    1.0271084   -6.5128723    229.91507  0.032751434   0.03329501            3 
  586000    1.0271267   -6.4994181    230.67878  0.032804149  0.033275031            3 
  587000    1.0223951   -6.5279908    230.47023  0.032718658   0.03325491            3 
  588000    1.0282373   -6.5060583    230.94211  0.032729891   0.03323456            3 
  589000    1.0236931    -6.539855    231.09427   0.03269585  0.033214314            4 
  590000    1.0227287   -6.5089622     231.3203  0.032672359  0.033194227            4 
  591000    1.0089603   -6.5104158    231.51729  0.032644852  0.033174291            6 
  592000    1.0388539   -6.5346416     231.8584  0.032637726  0.033154275            7 
  593000     1.028298    -6.506217    232.20449  0.032631322  0.033134157            7 
  594000    1.0397122   -6.5433549    232.85484  0.032667627  0.033113944            3 
  595000    1.0084275    -6.543385    233.31505  0.032677178   0.03309433            3 
  596000    1.0178042    -6.533875    232.89635  0.032563807  0.033074982            3 
  597000    1.0328619   -6.5312806    233.49343  0.032592606  0.033055375            5 
  598000    1.0125537   -6.5260816    233.78676   0.03257898  0.033035634            4 
  599000    1.0115258   -6.5519567    233.90601  0.032541181   0.03301607            5 
  600000   0.99700895   -6.5685548    234.42263  0.032558698  0.032996213            3 
  601000    1.0179466   -6.4949341    235.13389  0.032603146  0.032976707            8 
  602000    1.0208572   -6.5281679    234.50803  0.032462351  0.032957532            5 
  603000    1.0182822   -6.5114298    235.44016  0.032537335  0.032938242            7 
  604000    1.0219211   -6.5496509    235.05656  0.032430541  0.032918268            5 
  605000   0.99448618   -6.5650046     235.3961  0.032423706  0.032898402            4 
  606000    1.0352713   -6.4942014    235.79765  0.032425419  0.032878617            2 
  607000    1.0143424   -6.5568227     235.9623  0.032394604  0.032858913            6 
  608000    1.0282403   -6.5255236    236.46339  0.032410004  0.032839361            5 
  609000    1.0289372   -6.5133038    236.32982  0.032338509  0.032819829            3 
  610000    1.0064114   -6.5331561    236.97967  0.032374271  0.032800074            3 
  611000    1.0260829   -6.5567281    236.52961  0.032259904  0.032780195            4 
  612000    1.0173472   -6.5511885    236.82606  0.032247558  0.032760281            3 
  613000    1.0072132   -6.5393861    238.04048  0.032360044  0.032739999            2 
  614000    1.0187379   -6.5447138    237.55719  0.032241746  0.032719783            6 
  615000    1.0144827    -6.534648    237.91517  0.032237827  0.032699821            4 
  616000   0.99559252   -6.5316374    237.98065  0.032194352  0.032679679            3 
  617000   0.98900969   -6.5671586     238.6822  0.032236926   0.03265946            3 
  618000    1.0016703   -6.5507835    239.00033  0.032227661  0.032639427            5 
  619000    1.0230695   -6.5365773    239.48396  0.032240706  0.032619934            3 
  620000    1.0195452   -6.5390188    239.39214  0.032176363  0.032600113            4 
  621000    1.0079505   -6.5287448    239.45409  0.032132863  0.032580466            4 
  622000    1.0070922   -6.5338457    239.96674  0.032149885  0.032560579            2 
  623000   0.99916662   -6.5193612    240.25032  0.032136212  0.032540749            4 
  624000    1.0247696    -6.571525    239.07259   0.03192743  0.032520443            3 
  625000    1.0091633   -6.5160883    239.62897   0.03195053  0.032499695            3 
  626000    1.0348384   -6.5456285    239.59269   0.03189466  0.032478752           11 
  627000     1.008052   -6.5655631    239.89637  0.031884153  0.032457891            5 
  628000   0.99516432   -6.5453775    239.77983  0.031817918  0.032437041            3 
  629000    1.0104455    -6.570211    240.61027  0.031877355  0.032415704           15 
  630000   0.99000384   -6.5514082    240.48448  0.031810117  0.032394628            3 
  631000    1.0033253   -6.5779257     240.2896  0.031733967  0.032372992           10 
  632000    0.9910272   -6.5608958    241.22787  0.031807472  0.032351365            6 
  633000   0.97518758   -6.5129061    241.61544  0.031808247  0.032330035            3 
  634000   0.99425827   -6.5749636    241.66374  0.031764425   0.03230861            4 
  635000   0.99039269   -6.5461651    240.82607  0.031604472  0.032286958            5 
  636000    1.0072436   -6.5367894    242.05628  0.031715969   0.03226574            5 
  637000   0.99838723   -6.5524377    241.98242  0.031656518  0.032244334            3 
  638000    1.0083677    -6.586976    242.15509  0.031629453  0.032222784            5 
  639000    0.9996295   -6.5455234     241.9346    0.0315512  0.032200972            4 
  640000    1.0146462   -6.5567964    241.76174  0.031479393  0.032179295            8 
  641000    1.0137465   -6.5365402     243.1332  0.031608581  0.032157686            5 
  642000   0.99795857   -6.5808748    242.78744  0.031514465  0.032136098            4 
  643000   0.98667478   -6.5957811    242.61067  0.031442544  0.032114414            6 
  644000   0.98861184   -6.5654835    244.24809  0.031605601  0.032092765            3 
  645000   0.98493329   -6.5895845    243.52616  0.031463328  0.032071355            4 
  646000    0.9955553   -6.5532713    243.52451   0.03141441  0.032049822            4 
  647000     1.005958   -6.5759187    244.05464  0.031434137  0.032028358            6 
  648000   0.99137534   -6.5453675     244.2137  0.031406083  0.032006808            6 
  649000    1.0217207   -6.5711047    244.70981  0.031421393  0.031985338            6 
  650000    0.9920623   -6.5549634    246.07081   0.03154754  0.031964014            3 
  651000    1.0037945   -6.5635725    245.55261  0.031432746  0.031942904            3 
  652000   0.98722574    -6.590632    245.42567  0.031368312  0.031921958            6 
  653000   0.96706309   -6.5763733    245.99994   0.03139356  0.031900988            2 
  654000   0.99735172   -6.5668514    245.98574  0.031343749  0.031879949            6 
  655000   0.98102433   -6.5734519    246.29896  0.031335745  0.031858659            8 
  656000   0.97018774   -6.5504527    246.98604   0.03137526  0.031837503            8 
  657000   0.98245827   -6.6023046    246.32758  0.031243985  0.031816178            7 
  658000   0.98908987   -6.6092489    246.41175  0.031207162  0.031794866            7 
  659000   0.98005764   -6.6169607    247.14727  0.031252816  0.031773647            4 
  660000   0.99315514   -6.5961853    246.46272  0.031119031  0.031752392            6 
  661000   0.97608674   -6.5696767    247.92167  0.031255883  0.031731011            3 
  662000   0.98409696    -6.589904    247.18531  0.031115976  0.031709582            7 
  663000   0.98590735   -6.5905025    247.94521  0.031164556  0.031688305            5 
  664000    1.0082103   -6.6030732    247.76555  0.031095074  0.031666937            6 
  665000    1.0081685   -6.5700191    248.55704  0.031147499  0.031645677            5 
  666000   0.97787077   -6.5806633    248.76984  0.031127357  0.031624835            5 
  667000   0.97146249   -6.5827104    249.10136  0.031122109  0.031603499            8 
  668000     0.977868   -6.6494508    248.67474  0.031022298    0.0315819           10 
  669000   0.97736907   -6.6049421    249.22904  0.031044973  0.031560392            3 
  670000   0.99363996   -6.5752623    249.51742  0.031034505  0.031538925            3 
  671000   0.99742165   -6.5307648    249.89769  0.031035481  0.031517534            4 
  672000   0.98761762   -6.5643451    249.96192  0.030997261  0.031496635            7 
  673000     0.982262   -6.6020551    249.61148   0.03090781  0.031475475            5 
  674000   0.98012296   -6.5931063    250.12705  0.030925698  0.031454131            4 
  675000   0.96806495   -6.5873758      250.071  0.030872963  0.031432996            4 
  676000   0.97455029   -6.5973769    251.37733   0.03098833  0.031412104            7 
  677000   0.97922663   -6.5846744    251.51613  0.030959642  0.031391702            5 
  678000   0.98917826   -6.6003903    251.36556  0.030895472  0.031370922            5 
  679000    0.9826769   -6.5987725    251.39814   0.03085397  0.031350397           10 
  680000   0.97504089   -6.5679815    253.04559   0.03101049   0.03132972            4 
  681000   0.96322482   -6.5771927    252.78315  0.030932838  0.031309655            6 
  682000   0.99324208   -6.6208523    252.55106  0.030859123  0.031289281            4 
  683000   0.96176694   -6.6212792      253.145  0.030886408  0.031269288            5 
  684000   0.97017125   -6.5770332    254.16865  0.030965966  0.031249488            7 
  685000   0.97216944   -6.5938152    253.87457  0.030884985  0.031229462            2 
  686000    0.9838456   -6.5957243    254.81728  0.030954481  0.031209818           14 
  687000   0.98583086   -6.6006303    254.29935  0.030846597  0.031189825            7 
  688000   0.99084609   -6.6025349    254.88386  0.030872561  0.031170163            7 
  689000   0.96449588      -6.6159    255.07199  0.030850506  0.031150412            7 
  690000   0.98449245   -6.5868764    254.35554  0.030719269  0.031130595            5 
  691000   0.99599508    -6.564623    255.74607  0.030842507  0.031111115            3 
  692000   0.98831905   -6.6187167    255.79532  0.030803868  0.031091942            7 
  693000    0.9739513   -6.5970359    255.38481  0.030710054   0.03107263            6 
  694000   0.98138578   -6.5932853    255.74418  0.030708956  0.031053188            3 
  695000   0.96345617   -6.6105974    256.55849  0.030762409  0.031033956            6 
  696000   0.96980596   -6.6493875    255.67444  0.030612362  0.031014492            6 
  697000   0.99000584   -6.6000084    257.37058  0.030771232  0.030994963            5 
  698000   0.97889683   -6.5954387    257.57086  0.030751058  0.030975643            4 
  699000   0.97581307   -6.6150536    257.58902   0.03070923  0.030956268            5 
  700000    0.9493062   -6.6206867    257.44685  0.030648435  0.030936542            7 
  701000   0.97329158    -6.634646     257.6265   0.03062607  0.030917132            7 
  702000   0.96396251    -6.592236    258.65477  0.030704507  0.030897348            3 
  703000   0.97367649   -6.5880118    257.85777  0.030566355  0.030878202            5 
  704000   0.96166488    -6.620835    258.35214  0.030581456  0.030859032            4 
  705000   0.98163804   -6.6016305    258.90917  0.030603921  0.030840136            3 
  706000   0.96853922   -6.6144516    259.44135  0.030623389  0.030821418            3 
  707000   0.97608778   -6.5831947    259.13105    0.0305435  0.030802863            4 
  708000   0.98608237   -6.6201013    260.04186  0.030607563  0.030784151           10 
  709000   0.95829645    -6.609961    260.44195  0.030611418  0.030765638            4 
  710000   0.98927109   -6.6264585    260.66651  0.030594661  0.030747297            5 
  711000   0.96537151   -6.6108365    261.41141  0.030638937  0.030728972            4 
  712000   0.98244997    -6.600471     261.8862  0.030651475  0.030710934            4 
  713000   0.96234568   -6.6318126    261.15402   0.03052291  0.030692811            3 
  714000   0.97298012   -6.6136478    261.67751  0.030541259  0.030674862            6 
  715000    0.9485699   -6.6355739    261.65066  0.030495415  0.030656644            7 
  716000   0.95677991   -6.6247696    261.70534  0.030459188  0.030638236            5 
  717000   0.95911052   -6.6309656     262.5559  0.030515563  0.030620112           10 
  718000   0.96670286   -6.5929832    262.87561  0.030510168  0.030602157            6 
  719000   0.97275978   -6.6397265    262.35527  0.030407426  0.030584248            3 
  720000   0.97448778   -6.6461419    263.19424  0.030462297  0.030566013            5 
  721000    0.9913599   -6.6539356    262.91983  0.030388329  0.030547641            5 
  722000   0.96696187   -6.6107563    263.61169  0.030426095  0.030529261            5 
  723000   0.96959469   -6.6258785    263.06014  0.030320441  0.030511114            3 
  724000   0.98083366   -6.6359147    264.08896  0.030396979  0.030493202            3 
  725000   0.97893827   -6.6475358       263.25   0.03025862  0.030475178            6 
  726000   0.95194356   -6.6097841    265.06971  0.030425816  0.030457091            5 
  727000   0.96887747   -6.6364215    264.84111  0.030357761  0.030439059            8 
  728000   0.93911379   -6.6506152    263.91466  0.030210012  0.030421012            4 
  729000   0.94144307   -6.6557184    265.32818  0.030330153  0.030402696            8 
  730000   0.94767699   -6.6396548    264.69059   0.03021582  0.030384327            6 
  731000   0.96068028   -6.6225489    265.67343  0.030286529  0.030366127           10 
  732000   0.97586729   -6.6171801    266.20744  0.030305947  0.030347956            2 
  733000   0.97734171   -6.6285931    265.99303  0.030240227  0.030329631            5 
  734000   0.97952609   -6.6115017    265.89722   0.03018815   0.03031131            6 
  735000   0.96303678   -6.6074129    266.20106  0.030181527  0.030292974            3 
  736000    0.9693221   -6.6425132    266.52425  0.030177112  0.030274807            4 
  737000   0.97136867   -6.6273597    266.20533  0.030100105  0.030256447            6 
  738000   0.96302091   -6.5959568     267.6573  0.030223273  0.030238724            6 
  739000   0.95775712    -6.632883    266.75108  0.030080185  0.030220965            7 
  740000   0.95192368   -6.6893632    266.77654  0.030042403  0.030203088            6 
  741000   0.97053255   -6.6490019    267.95291  0.030134155  0.030185316            3 
  742000   0.98701641   -6.6383278      268.815  0.030190364  0.030168112            6 
  743000   0.95480341   -6.6433148    268.43819  0.030107468   0.03015084            5 
  744000   0.96304869   -6.6340352    269.09099   0.03014012  0.030133234            7 
  745000   0.95945035   -6.6402684    268.74656  0.030061136  0.030115668            6 
  746000   0.93211188   -6.6264013    268.72635  0.030018582  0.030098131            7 
  747000   0.95380675   -6.6406711    269.29468  0.030041799  0.030080794            5 
  748000   0.95513399   -6.6275536    269.66693  0.030043107   0.03006346            6 
  749000   0.96112859   -6.6318963    269.95604  0.030035162  0.030046233            5 
  750000    0.9429485   -6.6437944    269.78875  0.029976528  0.030028812            4 
  751000   0.96842246   -6.6370584    270.65338  0.030032554  0.030011749            4 
  752000   0.97132661   -6.6664756    269.66582   0.02988318  0.029994699            5 
  753000   0.97959166   -6.6513487    270.51194  0.029937133  0.029977141            7 
  754000    0.9397308   -6.6362641    270.63213  0.029910713  0.029959736            6 
  755000   0.94921917   -6.6357587    270.76295  0.029885535  0.029942171            7 
  756000   0.95219649   -6.6206019    271.29314  0.029904446  0.029924544            4 
  757000    0.9492676   -6.6297893    270.86707   0.02981804  0.029907002            9 
  758000   0.95524786   -6.6657502    271.66851  0.029866811  0.029889441            3 
  759000    0.9560249   -6.6538874    271.99345  0.029863136  0.029871726            3 
  760000   0.94916714   -6.6386973    271.17254  0.029733831  0.029854179            5 
  761000   0.93920542   -6.6848416    272.16805  0.029803773  0.029836539            7 
  762000   0.94391468   -6.6604167    272.38077  0.029787923  0.029819013           12 
  763000   0.95074507   -6.6567965    271.67239  0.029671515  0.029801512           11 
  764000   0.95864904   -6.6804195    271.98908   0.02966722  0.029783702            5 
  765000   0.94276973   -6.6800235    272.74535  0.029710822  0.029765809            8 
  766000   0.94222747   -6.6669231    273.42431    0.0297459  0.029747989            4 
  767000   0.96457392   -6.6607836    272.48428  0.029604984  0.029730551            4 
  768000     0.955487   -6.6819982    273.17046  0.029640892   0.02971309            3 
  769000   0.94052377   -6.6702639    273.68793  0.029658423    0.0296956            6 
  770000   0.95455605   -6.6756954    274.49312  0.029707048  0.029678045            6 
  771000   0.94245024   -6.6969407    272.69593  0.029474268  0.029660454            6 
  772000   0.95455815   -6.6529594    274.91988  0.029676152  0.029642913           12 
  773000   0.94534107   -6.6684215    274.44683  0.029586765  0.029625856            7 
  774000   0.97657585   -6.7089674    273.65195  0.029462958  0.029608152            8 
  775000    0.9359191   -6.6629863     274.8941  0.029558506  0.029590791           12 
  776000   0.94409611    -6.699142    274.94975   0.02952639  0.029573177           13 
  777000    0.9426003   -6.6798416    275.30383  0.029526366  0.029555733            3 
  778000   0.94070566   -6.7256458    274.36705  0.029388073  0.029538307            5 
  779000   0.95607585   -6.6664248    276.07262  0.029532801  0.029520872            4 
  780000   0.93293901   -6.6772751    275.94538  0.029481344   0.02950372            4 
  781000   0.92735091   -6.6779654    276.20424  0.029471216  0.029486599           10 
  782000   0.93412908   -6.6498259    276.53757   0.02946905  0.029469576            6 
  783000   0.93435768   -6.6897719    275.78272  0.029351077  0.029451977            6 
  784000   0.96712631   -6.6932501     276.7306  0.029414392  0.029434372            5 
  785000   0.93267299   -6.7010947     276.5764  0.029360552  0.029416814            3 
  786000   0.94101374   -6.7151347     277.1201  0.029380842  0.029399281            4 
  787000   0.92630531   -6.6712078    277.39642  0.029372767   0.02938182            4 
  788000   0.96005024   -6.6672608    277.23418  0.029318335  0.029364296            5 
  789000   0.95998182   -6.6649755    277.42427  0.029301253  0.029346642            5 
  790000   0.94885887    -6.656794    278.10929  0.029336423  0.029329298            2 
  791000   0.93129878   -6.7199382    277.30876  0.029214998  0.029311803            4 
  792000   0.93834396   -6.6707986    278.32205  0.029284727  0.029294142            4 
  793000   0.92500833   -6.6867728    277.80561  0.029193528  0.029276633            7 
  794000   0.94999175   -6.6763592    278.88169  0.029269698  0.029258969            4 
  795000   0.95085384   -6.6532137     278.2595  0.029167663  0.029241392           14 
  796000   0.93182155   -6.6896004    278.82675  0.029190405  0.029223674            5 
  797000   0.90644322   -6.6856475    278.68779   0.02913925  0.029205971            5 
  798000   0.92489316   -6.6899005    278.72191  0.029106298  0.029187991            4 
  799000    0.9210878   -6.6946301     277.9974  0.028994306  0.029169932            5 
  800000   0.92559533   -6.7217339    279.21017  0.029084392  0.029151901            4 
  801000   0.92692627   -6.6846139    279.29848   0.02905727  0.029134017            4 
  802000   0.95212768   -6.6910298    279.40683  0.029032298  0.029116406            9 
  803000   0.93695724   -6.7204123    278.94774  0.028948499  0.029098719            5 
  804000   0.93110186   -6.7152523    279.60856  0.028980987  0.029080991            7 
  805000   0.96297718   -6.7145037    280.00982  0.028986524   0.02906306           11 
  806000   0.94023816   -6.6563499    279.82712  0.028931671  0.029045205            5 
  807000   0.93738147    -6.735753     279.8222  0.028895312  0.029027464            9 
  808000   0.91491153    -6.678511    281.66492  0.029049599  0.029009684            5 
  809000   0.92123124   -6.6992956    281.61808  0.029008866  0.028992303            7 
  810000   0.92050854   -6.7078261    281.43558  0.028954277  0.028974832            8 
  811000   0.91888798   -6.7115495     281.3594  0.028910748  0.028957373            5 
  812000   0.92435972    -6.686851    281.35273  0.028874459  0.028940003            7 
  813000   0.94227537   -6.7070029    281.52123  0.028856214  0.028922507            6 
  814000   0.91090253   -6.7096784    282.21029  0.028891307  0.028904972            5 
  815000   0.92225851   -6.7215876    281.54415  0.028787746  0.028887355            6 
  816000   0.92208278    -6.702292    282.76346  0.028876987  0.028869708            3 
  817000   0.91730483    -6.719677    282.95696  0.028861379  0.028852138            4 
  818000    0.9203683   -6.6855295    282.80909  0.028811032  0.028834654            5 
  819000   0.93339375   -6.6820563    282.82471  0.028777443  0.028817137            4 
  820000   0.90807428   -6.7163128    283.01314  0.028761498  0.028799734            6 
  821000   0.91494364   -6.7236118    283.40847  0.028766593  0.028782281            9 
  822000   0.93564078   -6.7042953    283.68323  0.028759451  0.028764775            5 
  823000   0.93619082   -6.7082228    283.13842  0.028669342  0.028747013           11 
  824000   0.92963458    -6.699489    284.07879  0.028729652    0.0287294           10 
  825000   0.94399824   -6.6932062     284.4913  0.028736495  0.028711933           12 
  826000   0.92061562   -6.7068337     283.9094  0.028642998  0.028694328            3 
  827000   0.94370586   -6.6928493    283.80286  0.028597628  0.028676738            7 
  828000   0.92028628   -6.6915567    283.83084  0.028565906   0.02865905            4 
  829000   0.91962418   -6.7082323      284.705  0.028619321   0.02864143            6 
  830000   0.91323897   -6.6808726    284.87205  0.028601612  0.028623898            4 
  831000   0.92742666   -6.7547156    284.26764  0.028506583  0.028606167            7 
  832000   0.92746663   -6.7059763     285.1777  0.028563472  0.028588494            6 
  833000   0.94338945   -6.7076331    285.63371  0.028574801   0.02857085            3 
  834000   0.92119131   -6.7102338     285.2986  0.028507055  0.028553045           10 
  835000   0.91376141   -6.6762362    284.94279  0.028437404  0.028535022            4 
  836000   0.91512264    -6.719886    285.35908  0.028444884  0.028517137            5 
  837000    0.9205541   -6.7140314    285.08122  0.028383235  0.028498879            8 
  838000   0.92300945   -6.7133853    285.91136  0.028431917  0.028480763            4 
  839000   0.92080518   -6.6963784    285.42628  0.028349849  0.028462814            5 
  840000   0.90995059   -6.7338996    284.76041  0.028250041   0.02844442            8 
  841000   0.92651182   -6.7180178    286.38417  0.028377345  0.028426264            4 
  842000   0.91127193   -6.7185779    285.90524  0.028296243  0.028408109            8 
  843000    0.9013141   -6.7414716    286.47571  0.028319069  0.028389855           14 
  844000   0.91866991   -6.7437976    285.78329  0.028217149  0.028371614            9 
  845000   0.90391256   -6.7405607    286.66373  0.028270585  0.028353443            7 
  846000   0.91777318   -6.7176682    286.32729  0.028204028   0.02833527           10 
  847000   0.90708019   -6.7075645     287.8644   0.02832196  0.028317226           13 
  848000   0.90791229   -6.7123567    287.34417  0.028237438  0.028299457            6 
  849000   0.92645122   -6.7383486    287.54432  0.028223825  0.028281834            5 
  850000   0.92323017   -6.7436193    288.05354  0.028240543  0.028264194            5 
  851000   0.92566662   -6.7043719    287.80034  0.028182563   0.02824636           11 
  852000   0.90470396   -6.7335392     288.2469  0.028193163  0.028228542            6 
  853000   0.90604048   -6.6987817    288.50438  0.028185266  0.028210814            4 
  854000   0.90717527   -6.7268182    288.66818  0.028168245  0.028193312            3 
  855000   0.92459516   -6.7213175     288.5954  0.028128207  0.028175824            8 
  856000    0.9216277   -6.7237495    289.04583  0.028139197   0.02815837            6 
  857000   0.91487641   -6.7429135      289.411  0.028141871  0.028140773            5 
  858000   0.91161347   -6.7120311    290.16882  0.028182675  0.028123493            7 
  859000    0.9230969   -6.7318788    289.44396  0.028079546  0.028106087           11 
  860000   0.91929619   -6.7624315    289.29288  0.028032256  0.028088365            8 
  861000    0.8896499   -6.7510566    289.14166  0.027985062  0.028070724            7 
  862000   0.92235707   -6.7493272    289.91436  0.028027297  0.028052995            3 
  863000   0.90285052   -6.7000241    290.08664  0.028011456  0.028035478            3 
  864000   0.90742711   -6.7207629    290.92951  0.028060331   0.02801817            4 
  865000   0.91367423   -6.7324263    289.92489  0.027931107   0.02800068            7 
  866000   0.90330517   -6.7373314     291.1114  0.028013029  0.027983209            5 
  867000   0.90842196   -6.7532314    290.49826  0.027921786  0.027965647            7 
  868000   0.91103807   -6.7223042    291.16029  0.027953177  0.027947853            4 
  869000   0.92479507   -6.7541257     290.8681   0.02789299  0.027930283            7 
  870000    0.9059841   -6.7430595    290.74151  0.027848804  0.027912631           16 
  871000   0.90998017    -6.751175    291.49192  0.027888626  0.027894899            4 
  872000   0.89981494   -6.7078092    291.73949  0.027880303  0.027877092            5 
  873000   0.91485085   -6.7399793    291.93647  0.027867169  0.027859421            5 
  874000   0.89281422   -6.7893181    291.75624  0.027818101  0.027841741           11 
  875000   0.90941464   -6.7573839     291.0277  0.027716923  0.027823887            9 
  876000     0.917405   -6.7337182    291.71499  0.027750665  0.027806075            9 
  877000   0.89269281   -6.7641671     292.2149  0.027766525  0.027788373            5 
  878000   0.92919598    -6.733107    292.33277  0.027746086  0.027770699           11 
  879000   0.89418988   -6.7472788    292.04473  0.027687214   0.02775309            5 
  880000   0.90475378   -6.7371301    292.46065  0.027695137  0.027735328            7 
  881000   0.90485688   -6.7648965     292.5555  0.027672673  0.027717465            7 
  882000   0.90797959   -6.8118746    291.95184  0.027584263  0.027699513           12 
  883000   0.91695904   -6.7981469    291.98466  0.027556121  0.027681636            8 
  884000   0.90686722   -6.7360826    293.36763   0.02765532  0.027663883            6 
  885000   0.91441847   -6.7458275    293.16856  0.027605325  0.027646145            5 
  886000   0.90321624   -6.7739568     292.5869   0.02751946  0.027628143            6 
  887000   0.91395113    -6.754596     293.6705  0.027590239  0.027610291            7 
  888000    0.8989226   -6.7617394    293.98115  0.027588321  0.027592479            9 
  889000   0.92445307   -6.7520467    294.02014  0.027560943  0.027574589            9 
  890000   0.89359473   -6.7450764    294.00934  0.027528964  0.027556667            9 
  891000    0.8895336   -6.7834926    294.03634  0.027500593  0.027538922            5 
  892000   0.89935996   -6.7815375    294.36227  0.027500212  0.027521164            6 
  893000   0.89075295   -6.7531434     294.5677  0.027488587  0.027503404            7 
  894000   0.87348676   -6.7827114    294.70312  0.027470463  0.027485804            5 
  895000   0.89036068   -6.7699656    294.81916  0.027450574   0.02746819            6 
  896000   0.88574871   -6.7444164      295.134  0.027449219  0.027450687            6 
  897000   0.90904484   -6.7497448    294.65163  0.027373804  0.027433288            6 
  898000   0.88520742   -6.7550648    295.62303  0.027433466  0.027415721            7 
  899000   0.88742974   -6.7810153     294.0215  0.027254496  0.027397944            8 
  900000   0.90228279    -6.755473    295.26432  0.027339289   0.02738016            9 
  901000   0.91082325   -6.7343189    295.63441  0.027343175  0.027362534            4 
  902000   0.87991517   -6.7753813    296.08388  0.027354387  0.027344758            7 
  903000   0.90002034   -6.7710613    296.02092  0.027318284  0.027327079            5 
  904000   0.88720393   -6.7674304     294.9121   0.02718585   0.02730936            9 
  905000   0.90585635    -6.774488    296.05365  0.027260926  0.027291703           10 
  906000   0.89308269   -6.7656423    295.73271  0.027201317  0.027273885            6 
  907000     0.879509   -6.7458085     296.1013  0.027205191  0.027256048            5 
  908000   0.90101556    -6.776083    296.45273  0.027207483  0.027238157            6 
  909000   0.87701682   -6.7437454    296.26934  0.027160739  0.027220531           17 
  910000   0.90060577   -6.7819094    296.17441  0.027122199   0.02720288            6 
  911000   0.89019953   -6.7827144    296.61174  0.027132432  0.027185142           10 
  912000   0.86781508   -6.7666076    296.39813  0.027083163  0.027167406            5 
  913000    0.8775546   -6.7831534    297.32086   0.02713772  0.027149709            7 
  914000   0.88000413   -6.7630858    297.56946  0.027130695  0.027132011           22 
  915000   0.88236281   -6.7513739    297.36343  0.027082279  0.027114395           10 
  916000   0.88984363   -6.7958172    297.33778  0.027050381  0.027096531            9 
  917000   0.89075159   -6.7720117    297.30168  0.027017601  0.027078728           12 
  918000   0.88465464   -6.7878304    297.34112   0.02699175  0.027060808            3 
  919000   0.85694907   -6.8047991    297.81778  0.027005602  0.027043083            8 
  920000   0.88459546   -6.7819432    298.44163  0.027032757  0.027025381            6 
  921000   0.87524573   -6.8040497    298.78904  0.027034839  0.027007666            8 
  922000   0.88448302   -6.7592013    297.81491  0.026917472  0.026990062            4 
  923000   0.88091662   -6.7658886    299.48748  0.027039317  0.026972811            4 
  924000   0.88479221   -6.7796436    299.28745  0.026992014  0.026955526           12 
  925000   0.88178109   -6.7869655    299.55112  0.026986588  0.026938174            7 
  926000   0.87001852   -6.7840284    299.02594  0.026910181  0.026920737            5 
  927000   0.89742001   -6.8026388    299.66893  0.026938954  0.026903036           15 
  928000   0.87113967   -6.8065672    299.37658  0.026883673  0.026885496           11 
  929000   0.87956804   -6.8173112    299.47259  0.026863347  0.026867717            5 
  930000    0.8851094   -6.8103166    299.55542  0.026841884  0.026850059            8 
  931000   0.88024975   -6.7986278    299.78407  0.026833519   0.02683261           10 
  932000   0.88550651   -6.8013677    300.27547  0.026848665   0.02681537            9 
  933000   0.86176908   -6.7927895    301.11232  0.026894634  0.026798204           10 
  934000   0.87648479   -6.8013645    301.59891  0.026909253  0.026780964            6 
  935000   0.87119165   -6.7702165    300.68971  0.026799439  0.026763727            6 
  936000   0.89706953   -6.8039798    301.56358  0.026848609  0.026746485            4 
  937000     0.878023   -6.7992056    301.54335  0.026818156  0.026729323            4 
  938000   0.86756823   -6.7859459    301.15514  0.026755077  0.026712034           13 
  939000   0.86024544   -6.8164793     301.1077  0.026722373  0.026694649            4 
  940000   0.87747553    -6.822674    301.12867  0.026695804  0.026677204            4 
  941000   0.87828141   -6.8047095    301.18153  0.026672116  0.026659806            5 
  942000   0.85869856   -6.7888743    301.92708  0.026709756  0.026642379           12 
  943000   0.87336371   -6.8167754    302.02558  0.026690136  0.026625053           13 
  944000   0.85622976   -6.8361788     302.0633  0.026665192  0.026607651           10 
  945000    0.8778042   -6.7962214     301.8983  0.026622425   0.02659041           24 
  946000   0.88476021   -6.7940127    302.74601  0.026668958  0.026573096           10 
  947000   0.87953511    -6.824568    301.66073  0.026545294  0.026555621            8 
  948000   0.88637442   -6.8122362    302.84677  0.026621551  0.026538225            8 
  949000   0.86603612   -6.7921907    303.33836  0.026636666  0.026520743           12 
  950000   0.88683302   -6.7994355    302.75975  0.026557873  0.026503282            7 
  951000   0.87694871   -6.8010778    302.41859  0.026500052  0.026485635           14 
  952000   0.88027374   -6.8462655    302.14617  0.026448369   0.02646803           13 
  953000   0.89286433   -6.7916874    302.52697  0.026453915  0.026450435            7 
  954000   0.88293708    -6.797143    302.14345  0.026392684  0.026432835            6 
  955000   0.88388046   -6.7869568    303.18015  0.026455511  0.026415286            4 
  956000   0.88247919   -6.7891347    303.22123  0.026431418   0.02639756           12 
  957000   0.89325401   -6.8227184    302.04817  0.026301652  0.026379779            5 
  958000   0.88118574   -6.7863175    302.98529  0.026355714  0.026362078            3 
  959000   0.87902446   -6.7953574    302.90767  0.026321486  0.026344448            4 
  960000   0.87206462   -6.8150827     302.8936  0.026292847  0.026326725            7 
  961000   0.87043846   -6.8049425     303.5614  0.026323396  0.026308972            8 
  962000   0.86512659   -6.8029557    303.17749  0.026262776  0.026291182            4 
  963000   0.85162136   -6.8391819    303.01632  0.026221557  0.026273459            3 
  964000   0.87496385   -6.8232837    303.35447  0.026223589  0.026255714            5 
  965000   0.85609265   -6.7884286    303.46667  0.026206103  0.026237955            4 
  966000   0.87950543   -6.8356692    302.20022  0.026069722  0.026220154           10 
  967000   0.86827828   -6.8135611    304.00158  0.026197999  0.026202412            3 
  968000   0.87710808   -6.8050111    303.83865  0.026156909   0.02618483           10 
  969000   0.86148392   -6.8177956    303.68617  0.026116802  0.026167268            5 
  970000    0.8898086    -6.816171    304.20931   0.02613482  0.026149623            5 
  971000   0.87120101    -6.843642    304.41641  0.026125679  0.026131947            5 
  972000   0.86982523   -6.7976842    304.53203  0.026108714  0.026114304            9 
  973000   0.86650193    -6.799599    305.36194  0.026152958  0.026096831           11 
  974000   0.86676501   -6.8433173    304.74461   0.02607329   0.02607931           11 
  975000   0.89103585   -6.8209337    305.55041  0.026115419  0.026061856           10 
  976000   0.86954591    -6.823585     304.7591  0.026021098  0.026044369           16 
  977000   0.85042128   -6.8125477    304.51615  0.025973742  0.026026781           10 
  978000   0.84955135   -6.8340063     305.3051  0.026014409   0.02600911            4 
  979000   0.87325052   -6.8249657     305.9534   0.02604302   0.02599148            8 
  980000   0.86097065   -6.8479142    304.86018  0.025923485  0.025973795            5 
  981000   0.85362302   -6.8055042    305.89527  0.025984987  0.025956171            5 
  982000   0.84552961   -6.8073741    306.10172  0.025976046  0.025938525            3 
  983000   0.86439981   -6.8254793    305.41292  0.025891228   0.02592092            8 
  984000   0.86009595   -6.8197185    306.13481  0.025926051   0.02590327            5 
  985000   0.85768085   -6.8186639     306.1784  0.025903418  0.025885653            8 
  986000    0.8781299   -6.8016513    305.85415  0.025849742  0.025867997            3 
  987000   0.85717549   -6.8069801    306.12806  0.025846678  0.025850371            4 
  988000   0.86747396   -6.8071251     306.2658  0.025832136  0.025832761            9 
  989000   0.87988637   -6.8267646    305.97903  0.025781853  0.025815053            4 
  990000   0.85523242   -6.8412322    306.28597  0.025781647  0.025797245           15 
  991000   0.88300807   -6.8715592     307.1181  0.025825605  0.025779543            5 
  992000   0.88098723   -6.8612456    305.89131  0.025696515  0.025761815           18 
  993000   0.85557223   -6.8635472    306.91573  0.025756607  0.025744134           14 
  994000   0.89146854   -6.8757217     307.0871  0.025745062  0.025726633           13 
  995000   0.86612199   -6.8387824    307.47429  0.025751616  0.025709086            6 
  996000   0.86600603   -6.8491366    306.57888  0.025650843  0.025691479            6 
  997000   0.85257088   -6.8510205    307.47291  0.025699842  0.025673732            7 
  998000   0.85433474   -6.8667696    306.90754  0.025626882   0.02565595            6 
  999000   0.84413929   -6.8999796    307.01506  0.025610198  0.025638253            7 
 1000000   0.85935894    -6.861427    307.49201  0.025624334  0.025620601           11 
 1001000   0.85448858   -6.8312042     308.1241  0.025651357  0.025603158            5 
 1002000   0.85429444   -6.8574918    307.52704  0.025576101  0.025585744            7 
 1003000   0.85899774   -6.8201785    307.95025  0.025585764  0.025568343            7 
 1004000   0.85975782   -6.8798949      308.025  0.025566484  0.025550784            5 
 1005000   0.83408912   -6.8453081    307.80854  0.025523096   0.02553323            4 
 1006000   0.85558517   -6.8560463    308.21206  0.025531151  0.025515807            7 
 1007000   0.84192653   -6.8145929    308.07942  0.025494821  0.025498409           17 
 1008000   0.86757117   -6.8574039    309.49563   0.02558661  0.025481196            5 
 1009000    0.8448264   -6.8657867    309.33611  0.025548076  0.025463955           11 
 1010000   0.84382483   -6.8788663    308.89997  0.025486796  0.025446643            9 
 1011000    0.8532815   -6.8253141    309.85205  0.025540063  0.025429298           13 
 1012000   0.87267116   -6.8583959    309.94732  0.025522671   0.02541194           11 
 1013000   0.86020401   -6.8497758    309.50111  0.025460769  0.025394697           11 
 1014000   0.85263044   -6.8790359    309.33635  0.025422119  0.025377226            7 
 1015000   0.84223287   -6.8579963    309.63088  0.025421255  0.025359812            8 
 1016000   0.83144558   -6.8468187    310.57037  0.025473292  0.025342534           10 
 1017000   0.82891174   -6.8622501    310.18227  0.025416443  0.025325247            7 
 1018000   0.82294679   -6.8258133    310.12851  0.025387075  0.025308045            8 
 1019000   0.84596789    -6.888452    310.27288  0.025373968  0.025290845            9 
 1020000   0.84265708   -6.8390319    311.32471  0.025435025  0.025273582           17 
 1021000   0.86052223   -6.8775761    310.40128  0.025334744  0.025256275            7 
 1022000   0.85485175   -6.8664077    310.47921  0.025316308  0.025238967            8 
 1023000   0.84460774   -6.8480276    311.16239  0.025347213  0.025221741            8 
 1024000   0.84860794   -6.8505088     310.6679  0.025282219  0.025204721            5 
 1025000   0.85211597   -6.8559296    310.40457  0.025236144   0.02518767            6 
 1026000   0.84020644    -6.860684    311.08429  0.025266755  0.025170648            6 
 1027000   0.82643267   -6.8843693    311.35945   0.02526448   0.02515358            8 
 1028000   0.83133527   -6.8682212    311.36961  0.025240727  0.025136496           10 
 1029000   0.84154419   -6.8747535    312.13621  0.025278281  0.025119373            5 
 1030000   0.83981146   -6.8905151    311.18402  0.025176701  0.025102265            4 
 1031000   0.85306798   -6.8668393    312.04134  0.025221576  0.025085167            4 
 1032000   0.85437568   -6.8990873    312.29813  0.025217872  0.025068212            5 
 1033000   0.84479583   -6.8568624     312.4861  0.025208624  0.025051279           10 
 1034000     0.846201   -6.8791074    313.11454  0.025234892  0.025034463            9 
 1035000   0.83854546    -6.885647    312.50684  0.025161581  0.025017642            6 
 1036000   0.82414398   -6.8805055    312.31773  0.025122082  0.025000785           10 
 1037000   0.83485743   -6.9009787    312.92962  0.025147028  0.024983886            9 
 1038000    0.8335816   -6.9079143    312.69315  0.025103817  0.024967056           20 
 1039000    0.8234881   -6.9021184    312.29516  0.025047735  0.024950185           24 
 1040000   0.84007372   -6.9007437    312.32574  0.025026101   0.02493314            7 
 1041000   0.83058642   -6.8988704      312.748  0.025035863  0.024916042            5 
 1042000   0.82572609   -6.8687974    311.97955   0.02495038   0.02489911            7 
 1043000   0.83157643   -6.8867235    312.45232  0.024964231  0.024882237           18 
 1044000   0.83135726   -6.8723952    313.15217  0.024996182  0.024865403            7 
 1045000   0.83624431   -6.8911005    314.13174  0.025050378  0.024848563            7 
 1046000   0.82842864    -6.901071    313.15631  0.024948718  0.024831737            6 
 1047000   0.84779769   -6.8586447    313.68122  0.024966669  0.024814862            7 
 1048000   0.83832146   -6.9075368    313.45897  0.024925173  0.024798046            9 
 1049000   0.83541641   -6.8858387    313.45016  0.024900712  0.024781204            7 
 1050000   0.82396548   -6.8653026    313.71266   0.02489783  0.024764393            7 
 1051000   0.83345918   -6.8647221    314.22425  0.024914704  0.024747622            4 
 1052000   0.84168854   -6.8791531    314.30386  0.024897327  0.024730991            4 
 1053000   0.83607588   -6.8895635    314.31077   0.02487423  0.024714289            9 
 1054000   0.83518278   -6.8784619    314.32871  0.024852048  0.024697609           18 
 1055000   0.84771848   -6.9011605    313.87363  0.024792546  0.024680744           15 
 1056000   0.81788248   -6.9073449    314.79492  0.024841771  0.024663974            8 
 1057000   0.82710042   -6.8752345    315.02979  0.024836785  0.024647417           10 
 1058000   0.82928486   -6.9010287    314.95695  0.024807573  0.024630856            9 
 1059000   0.83411502   -6.8677644    315.27118  0.024808875  0.024614288            8 
 1060000    0.8331626   -6.8726607    314.94531  0.024759852  0.024597723            8 
 1061000   0.80965336   -6.8739273    315.53608  0.024782916  0.024581252            6 
 1062000   0.84219028   -6.9017854    315.16596  0.024730537  0.024564814            8 
 1063000   0.84803931   -6.8682506    316.07793  0.024778766  0.024548325           10 
 1064000   0.82199033   -6.8913116    316.36513  0.024777971  0.024531902            9 
 1065000   0.82072344    -6.889263    316.19665  0.024741522  0.024515519           17 
 1066000   0.82532741   -6.8611083    316.80914  0.024766193  0.024499072            7 
 1067000   0.83865706   -6.8991133     316.8443  0.024745728  0.024482682            8 
 1068000    0.8395965   -6.8754143    316.76862  0.024716652  0.024466249            5 
 1069000    0.8380605   -6.8925367    316.43345  0.024667404  0.024449776            4 
 1070000   0.80990841   -6.8950321    316.18988   0.02462538   0.02443334           16 
 1071000   0.82201415   -6.9089297    316.53707  0.024629402  0.024416741            6 
 1072000   0.82572044   -6.9258894     316.4279   0.02459794  0.024400177            7 
 1073000    0.8241407   -6.9295779    316.72403  0.024598014   0.02438378           11 
 1074000   0.82101658   -6.9123458     317.4101  0.024628344  0.024367502           11 
 1075000   0.83822768    -6.912855    316.44238  0.024530417   0.02435131           10 
 1076000    0.8382761   -6.9234297    316.66907  0.024525176  0.024335039            7 
 1077000   0.81474047   -6.9141104    317.36382  0.024556161  0.024318619            9 
 1078000   0.83298421   -6.9238832    317.06807  0.024510519  0.024302197           31 
 1079000   0.83440542   -6.8930703    317.67865  0.024534959  0.024285835           10 
 1080000   0.82154587    -6.898265    317.02144  0.024461531  0.024269513            8 
 1081000   0.82846951   -6.9405281    317.32978  0.024462672  0.024253066            9 
 1082000    0.8240179   -6.9399907     317.5237  0.024454999  0.024236669            7 
 1083000   0.82567063   -6.9161493    318.64061   0.02451836  0.024220326            6 
 1084000   0.82469767   -6.9354181    317.79963  0.024431091  0.024203945           12 
 1085000   0.82531817   -6.9192939    317.19974  0.024362499  0.024187498            8 
 1086000   0.83539579   -6.9324223     318.3737  0.024430149  0.024171133            6 
 1087000   0.81580268   -6.9076807    318.21512  0.024395517  0.024154803           13 
 1088000   0.83079756   -6.8784913    318.50229   0.02439509  0.024138568            9 
 1089000   0.82881497   -6.8830998    318.68096  0.024386361  0.024122412           20 
 1090000   0.81753905   -6.9232503    318.16373  0.024324444  0.024106013            5 
 1091000   0.82791669   -6.8982563    318.59864  0.024335368  0.024089714           10 
 1092000   0.80850987   -6.9251111    318.26454  0.024287587  0.024073384            6 
 1093000   0.80646003   -6.9049016    317.75317  0.024226377  0.024057046           13 
 1094000   0.82296296   -6.9227457    319.04118  0.024302345  0.024040694           14 
 1095000   0.81069828   -6.9273488    318.05654  0.024205216  0.024024394            5 
 1096000   0.80842014   -6.8929718    319.75911  0.024312584  0.024008177            6 
 1097000   0.80563084   -6.8966704    319.49109  0.024270062  0.023992072            4 
 1098000   0.81192052   -6.8909775    320.40788  0.024317538  0.023976092           10 
 1099000   0.81724926   -6.9051983    319.03179  0.024191067  0.023960103            6 
 1100000   0.82384827    -6.924228    319.51348  0.024205567  0.023944005            6 
 1101000   0.82054553   -6.9076427    318.46675  0.024104356  0.023927819            8 
 1102000   0.80015763   -6.9078758    319.24205  0.024141111   0.02391155           11 
 1103000   0.82463106    -6.922469    320.12974   0.02418629  0.023895345           10 
 1104000   0.81714825   -6.9433646     320.0249  0.024156469  0.023879312           13 
 1105000   0.81648713   -6.9259903    319.57928  0.024101002  0.023863329            5 
 1106000   0.81728148   -6.9102396    320.83648  0.024173936  0.023847526           14 
 1107000   0.80248563   -6.9501298    320.37092  0.024117052  0.023831547           17 
 1108000   0.81348525    -6.939995    319.60214  0.024037465  0.023815387           17 
 1109000   0.80841201   -6.9247562     320.0557  0.024049872  0.023799303           11 
 1110000   0.80226797   -6.9423647    321.07263  0.024104552  0.023783177           22 
 1111000   0.81922092   -6.9445933    320.19397  0.024016949  0.023767052           43 
 1112000   0.80031896   -6.9209395    320.30165  0.024003421  0.023750921           25 
 1113000   0.82054506    -6.937588    320.77512  0.024017304  0.023734926           11 
 1114000   0.80208786   -6.9309471    321.13491  0.024022659  0.023718999           10 
 1115000   0.82309119   -6.9223217    321.21108  0.024006807  0.023703036           12 
 1116000   0.81272122   -6.9285857    321.08247  0.023975692  0.023687061            6 
 1117000   0.80557231   -6.9689339    321.48083  0.023983947  0.023671031            7 
 1118000   0.80469819   -6.9389583    321.46871  0.023961591  0.023655071           14 
 1119000   0.80321929   -6.9276619    321.25514  0.023924273   0.02363917           14 
 1120000   0.79628334   -6.9294707     321.6536   0.02393256  0.023623361            8 
 1121000   0.79387808   -6.9476758    321.73993  0.023917628  0.023607615           10 
 1122000   0.79370465   -6.9725565    322.10639  0.023923528  0.023591679           56 
 1123000   0.80687145   -6.9635273    322.06477  0.023899137   0.02357587           25 
 1124000   0.80896081   -6.9919525    321.59465   0.02384302  0.023559987           18 
 1125000   0.79789702    -6.980114    321.41243  0.023808328  0.023543908           19 
 1126000    0.8024869   -6.9413109    322.28532  0.023851785  0.023528028           25 
 1127000   0.79202711   -6.9150343    322.47219  0.023844439  0.023512212            6 
 1128000   0.80501203   -6.9479857    322.11292  0.023796759  0.023496268            4 
 1129000   0.79866324   -6.9509569     321.6487  0.023741416   0.02348035            9 
 1130000   0.79690976   -6.9558102     323.1661  0.023832308  0.023464434            9 
 1131000   0.79957867   -6.9544162    322.05816  0.023729602  0.023448608            6 
 1132000    0.8239341    -6.929116    323.34711  0.023803527  0.023432861           12 
 1133000   0.80953142   -6.9353982    322.95609  0.023753758  0.023417153            7 
 1134000   0.80950019   -6.9707989    322.84394  0.023724569   0.02340145           14 
 1135000   0.81389751   -6.9450451    322.64337   0.02368894  0.023385622            5 
 1136000   0.80750931     -6.97755    322.48897  0.023656761  0.023369774           11 
 1137000    0.8004912   -6.9639845    323.44826  0.023706264  0.023354099            7 
 1138000   0.80725791   -6.9659283     322.8511  0.023641703  0.023338429           17 
 1139000   0.80496503   -6.9510326    323.10213  0.023639313  0.023322776           13 
 1140000   0.79833727   -6.9560525    323.26789  0.023630694  0.023307103           12 
 1141000   0.78736439   -6.9599788    324.27925  0.023683848  0.023291327           11 
 1142000   0.78772777   -6.9277685    323.52255  0.023607892  0.023275594            9 
 1143000   0.79232837   -6.9403462    323.33212  0.023573354  0.023259937            8 
 1144000   0.79860043   -6.9596182    323.71085  0.023580336  0.023244126            5 
 1145000   0.80180537   -6.9784949    322.89376  0.023500274   0.02322829           15 
 1146000   0.78551601   -6.9639609    323.44638  0.023519952    0.0232125           15 
 1147000   0.79322077   -6.9587474    323.38645  0.023495092  0.023196741           11 
 1148000    0.8031626   -6.9522706    323.83441  0.023507143  0.023180953           11 
 1149000   0.79714187   -6.9622253    324.14985  0.023509563  0.023165214           10 
 1150000   0.79001222   -6.9585322    323.18449  0.023419166  0.023149426           14 
 1151000   0.80374325   -6.9656331    324.12662   0.02346703  0.023133562            8 
 1152000   0.78953444   -6.9818113    323.92718  0.023432232  0.023117711            9 
 1153000   0.79742948   -6.9655074    323.64387  0.023391433  0.023101934           12 
 1154000   0.79766994   -6.9661702    324.25578  0.023415351  0.023086157           14 
 1155000   0.79896607   -6.9738208    323.56698  0.023345381  0.023070237            8 
 1156000   0.79471035   -6.9970524    323.60086  0.023327628  0.023054211            6 
 1157000   0.81574391   -6.9653026    323.39289  0.023292487   0.02303816           12 
 1158000   0.78333548   -6.9799311    324.20207  0.023330604  0.023022134           10 
 1159000   0.78231277   -6.9762726    323.97315  0.023294014  0.023006113            7 
 1160000   0.79745314   -6.9866794    324.00456  0.023276189  0.022989982            8 
 1161000   0.78623416   -6.9853718    323.98475  0.023254719   0.02297382           16 
 1162000   0.79174674   -6.9784629    323.65505  0.023211062  0.022957693           18 
 1163000   0.81271083   -6.9743908    323.31232  0.023166546  0.022941698           21 
 1164000   0.79259562    -7.000461    323.45376  0.023156769  0.022925649           13 
 1165000   0.77585898   -6.9754194    324.00913  0.023176619  0.022909598           10 
 1166000   0.79072852   -6.9793874     324.3286  0.023179574  0.022893523           12 
 1167000   0.77983761   -6.9252956    325.00298  0.023207867  0.022877628           12 
 1168000   0.79892214    -6.957446    324.70435  0.023166691  0.022861799           10 
 1169000   0.77505844   -6.9896439    324.36715  0.023122837  0.022845938            9 
 1170000   0.79210999   -6.9709604    325.15264   0.02315902  0.022830048            9 
 1171000   0.79194419   -7.0088162    324.38171   0.02308438  0.022814115            5 
 1172000   0.79683643   -6.9741304    324.22586  0.023053602  0.022798214            7 
 1173000   0.78276009   -6.9723451    324.87701  0.023080208  0.022782336            8 
 1174000   0.78106476   -6.9736413    325.62558  0.023113684   0.02276643           11 
 1175000   0.78326523   -6.9537467    325.54666  0.023088415  0.022750571           10 
 1176000   0.78080976   -6.9554716    324.95857  0.023027109  0.022734733           18 
 1177000   0.76912219   -6.9994115    325.29299  0.023031223   0.02271889            5 
 1178000   0.78857813   -7.0110766    325.43717  0.023021871  0.022702956           25 
 1179000   0.77622296   -7.0020935    325.74149  0.023023854  0.022687086           10 
 1180000   0.77694366   -6.9969074    325.07913  0.022957566  0.022671189            5 
 1181000   0.77199806   -6.9828739     325.6674  0.022979636  0.022655293            4 
 1182000   0.77684617   -6.9879201     325.7524  0.022966187  0.022639431            9 
 1183000   0.78942551   -6.9909078     325.6066  0.022936503  0.022623474           26 
 1184000   0.77247147   -6.9818728    326.06298  0.022949252  0.022607534            5 
 1185000   0.78860362   -6.9702749    324.51314  0.022820896  0.022591587           10 
 1186000   0.80127369   -7.0109245    325.71142   0.02288585  0.022575678            9 
 1187000   0.78062321   -6.9726979    326.03226  0.022889095  0.022559799           14 
 1188000   0.76154117   -6.9698562    326.59574  0.022909354  0.022544018           16 
 1189000   0.78308274   -6.9982183    325.97294  0.022846436  0.022528258           10 
 1190000    0.7805159   -7.0013875    326.69088  0.022877513  0.022512487           12 
 1191000   0.76667059   -7.0313228    326.26886  0.022828776  0.022496675           13 
 1192000   0.77645738    -7.019653    325.82885  0.022778863  0.022480805           17 
 1193000   0.77898091   -7.0110479    326.36159  0.022796981  0.022465003            7 
 1194000   0.76693517   -7.0039444    326.02498  0.022754396  0.022449231           15 
 1195000   0.77473565   -6.9957168    325.80658  0.022720124  0.022433496            8 
 1196000   0.78763731   -7.0070814    326.29747  0.022735331  0.022417708           11 
 1197000   0.79440248   -7.0194848    325.58656  0.022666845  0.022401947           11 
 1198000    0.7783157   -7.0189875    327.23371  0.022762501  0.022386156           12 
 1199000   0.78915202   -6.9842282    326.20319  0.022671892  0.022370483           21 
 1200000   0.78555642   -7.0031821    326.77391  0.022692632  0.022354832           14 
 1201000   0.77307733   -7.0296739    327.85774  0.022748941  0.022339278           14 
 1202000   0.75993909   -7.0187405    327.19315   0.02268394  0.022323732           27 
 1203000   0.78142974   -7.0107717     327.3149  0.022673517  0.022308243           22 
 1204000   0.75661341   -7.0023463    327.48617   0.02266654   0.02229278           17 
 1205000    0.7805285   -6.9715207    327.44395   0.02264481  0.022277388            9 
 1206000   0.77475442   -7.0274986    327.99675  0.022664231  0.022261964           15 
 1207000   0.77009065   -7.0171994    327.88481  0.022637725  0.022246489            9 
 1208000   0.77691678   -7.0240938    327.53859  0.022595101  0.022230955            7 
 1209000   0.75333225   -7.0479212    327.20894   0.02255369  0.022215404           10 
 1210000   0.77324689   -7.0276766    327.07497  0.022525824  0.022199782           22 
 1211000   0.80023257   -7.0196739    328.06396   0.02257528  0.022184172           14 
 1212000   0.76635554   -6.9866423    327.36509  0.022508601  0.022168665           33 
 1213000   0.76957328   -7.0211247    327.58871  0.022505407  0.022153134           13 
 1214000   0.77393694   -6.9949329    327.89469  0.022507873  0.022137568            6 
 1215000   0.77610742   -7.0297754     327.9035  0.022489952  0.022122051           12 
 1216000   0.77544104   -7.0203033    328.18737  0.022490911  0.022106529           20 
 1217000   0.78928156   -7.0146517    327.84442  0.022448947   0.02209104            7 
 1218000    0.7611707    -7.013211    328.18276  0.022453664  0.022075532           12 
 1219000   0.76886863   -6.9993699    328.11874  0.022430868  0.022060066            9 
 1220000   0.77265508   -6.9935419    328.47078  0.022436529  0.022044588           12 
 1221000   0.77580322   -7.0173065    328.88313  0.022446296  0.022029084           12 
 1222000   0.75313659    -6.994245     328.6042  0.022408906  0.022013683            8 
 1223000    0.7684269   -7.0116832    328.26714  0.022367617   0.02199823           14 
 1224000   0.76853945   -6.9879591    328.56141  0.022369377  0.021982851            9 
 1225000   0.74643369   -7.0315445    328.77885  0.022365908   0.02196752           12 
 1226000   0.76731513   -7.0391748    328.92566  0.022357644  0.021952117            7 
 1227000    0.7618417   -7.0456166    328.23047  0.022292208  0.021936699            8 
 1228000   0.75584628   -7.0172629    328.19419  0.022271592  0.021921222            8 
 1229000   0.75838987   -7.0442673    328.87877  0.022299889  0.021905832            6 
 1230000   0.75637668   -7.0323898    328.95852  0.022287163  0.021890423           19 
 1231000   0.75633467   -7.0483473    328.46075  0.022235361  0.021875171           14 
 1232000   0.75008496   -7.0348567    329.35952  0.022278106  0.021859973            9 
 1233000   0.77505174   -7.0204943    330.34652  0.022326745  0.021844797           15 
 1234000   0.77900322   -7.0557207    329.75386  0.022268629  0.021829679            9 
 1235000   0.75891595   -7.0301243    330.27131  0.022285513  0.021814513           16 
 1236000   0.75509069   -7.0576724    330.08061  0.022254626   0.02179934           10 
 1237000   0.76768362   -7.0359935    329.83017  0.022219763  0.021784184            8 
 1238000   0.76134873   -7.0443528    330.02093  0.022214656  0.021769104            7 
 1239000   0.76159308   -7.0491882    330.26637  0.022213234  0.021754022           18 
 1240000   0.76191265   -7.0932168     330.3301  0.022199604  0.021738971            9 
 1241000   0.76259644   -7.0461662    330.65728  0.022203685  0.021723983            7 
 1242000   0.74282028   -7.0607932    330.52764  0.022177109  0.021708976           36 
 1243000   0.75977349   -7.0140221     330.7739  0.022175778   0.02169395           16 
 1244000   0.76458539    -7.045115    330.74324  0.022155897  0.021678993           11 
 1245000     0.759783    -7.054588    330.83155  0.022144012  0.021663964           23 
 1246000    0.7428717   -7.0554666    330.81272  0.022124981  0.021648957           13 
 1247000   0.75938087   -7.0508227     329.9484  0.022049478  0.021634019           10 
 1248000   0.75024383   -7.0542398    330.83234  0.022090835  0.021619089           14 
 1249000   0.75446096   -7.0639644    329.82407  0.022005876  0.021604072            7 
 1250000   0.75781499    -7.041417     330.7683   0.02205122  0.021589147            8 
 1251000   0.75853401   -7.0346084    331.03933  0.022051647  0.021574286           12 
 1252000   0.76139506   -7.0492475    331.28842  0.022050614  0.021559422           26 
 1253000   0.75510577   -7.0562663    331.37755  0.022038943  0.021544502           10 
 1254000   0.77044809   -7.0585394    331.29166   0.02201566  0.021529633           12 
 1255000   0.75803517   -7.0601336    331.73077  0.022027276  0.021514819           10 
 1256000   0.74885508   -7.0391605    331.55598  0.021998141  0.021499981           13 
 1257000   0.75032294   -7.0377461    331.69506  0.021989861  0.021485212            8 
 1258000   0.74766649   -7.0560679    331.32068  0.021947581  0.021470382           12 
 1259000    0.7344437   -7.0570029    331.75474  0.021958879  0.021455542           12 
 1260000   0.74481337   -7.0515565    331.87397  0.021949337  0.021440818           12 
 1261000   0.76575875   -7.0836271    332.15148  0.021950269  0.021426102           13 
 1262000   0.74439337   -7.0674726    331.61908  0.021897721  0.021411335           17 
 1263000   0.74636297   -7.0505668    331.94623  0.021901968  0.021396585            8 
 1264000   0.74252555   -7.0684603    332.45741  0.021918342   0.02138181           12 
 1265000   0.75758274   -7.0654058    331.90554   0.02186466  0.021367056           17 
 1266000   0.74115268   -7.0760861    331.86871  0.021844965  0.021352316           11 
 1267000   0.75334307   -7.0488932    332.36784  0.021860553  0.021337559            9 
 1268000   0.74096967   -7.0566411    332.27572  0.021837258  0.021322785           22 
 1269000   0.73704212   -7.0735515    332.52035  0.021836114   0.02130809           25 
 1270000   0.73898345    -7.057721    331.73277  0.021767242  0.021293322           10 
 1271000   0.74297272   -7.0684551    332.02369   0.02176919  0.021278545           23 
 1272000   0.73629035   -7.0482254    332.97069  0.021814118  0.021263826           32 
 1273000   0.73956155   -7.0720587    332.54934  0.021769399  0.021249177            9 
 1274000   0.74128027   -7.0232492    332.57105  0.021753732  0.021234522           13 
 1275000   0.76240309   -7.0521717    332.73581  0.021747439  0.021219885           20 
 1276000   0.75309268   -7.0573361    332.58247  0.021720381  0.021205183           15 
 1277000     0.756158   -7.0550392    332.69482  0.021710704  0.021190538           29 
 1278000   0.74133035   -7.0747766    332.75241  0.021697471   0.02117578           32 
 1279000   0.74902019   -7.0984295    332.59261  0.021670094  0.021161037           40 
 1280000   0.74214126   -7.0968005    332.59258  0.021653163  0.021146316           22 
 1281000   0.74206664   -7.0685759    333.15683  0.021672966  0.021131595           23 
 1282000   0.76030486   -7.0843581     333.1643  0.021656546  0.021116912           26 
 1283000   0.74071185   -7.0533014    332.73499  0.021611781  0.021102226           16 
 1284000   0.73984585   -7.1031181    332.64528  0.021589127  0.021087448           16 
 1285000   0.73402861   -7.0834621    332.57131   0.02156753  0.021072701           35 
 1286000   0.73759106   -7.0946068    333.71168  0.021624656  0.021058007           18 
 1287000   0.74404676   -7.0886445    333.67227  0.021605301  0.021043386           20 
 1288000    0.7369596   -7.0690321    333.26357  0.021562084  0.021028734            5 
 1289000   0.72408128    -7.075343    333.47421  0.021558974  0.021014037            7 
 1290000   0.73903926   -7.0926708    333.49823  0.021543814  0.020999397            6 
 1291000   0.73395862   -7.0749889    333.80099  0.021546668  0.020984797           14 
 1292000   0.73536266   -7.0699966     333.3843  0.021503115  0.020970212           11 
 1293000   0.74751536   -7.0818476    333.51859   0.02149514  0.020955595            9 
 1294000   0.74252703   -7.0775589    333.62819  0.021485587  0.020940958           10 
 1295000   0.73397571   -7.0791085    333.39222  0.021453811   0.02092632           31 
 1296000   0.72407094   -7.0674503     333.7683  0.021461439  0.020911744            7 
 1297000   0.73502106   -7.1219919    334.01986  0.021461055  0.020897139           11 
 1298000   0.72932371   -7.0947777    333.73648  0.021426327  0.020882501           11 
 1299000   0.73544361   -7.0945994    333.92178   0.02142172  0.020867886           12 
 1300000    0.7314282   -7.0844406    334.63371  0.021450879  0.020853409           15 
 1301000   0.72797751    -7.110832    333.80553  0.021381343  0.020838938           47 
 1302000   0.73158968   -7.0801537    333.03208  0.021315417  0.020824416           40 
 1303000   0.73575953    -7.105952    333.83196  0.021350215  0.020809872           32 
 1304000   0.73561651   -7.0923568    334.16444   0.02135509  0.020795368           18 
 1305000   0.73961937   -7.0973151    334.97731  0.021390633  0.020780846           17 
 1306000   0.72387968   -7.0741985    334.18692  0.021323821  0.020766276           27 
 1307000   0.73039379   -7.1114512    333.48489  0.021262745  0.020751733           15 
 1308000   0.73361775   -7.0888426    334.29653  0.021298199  0.020737202           12 
 1309000   0.72640328   -7.0998151    334.07422  0.021267776  0.020722605           20 
 1310000   0.72695993   -7.0872759    333.38655  0.021207796  0.020708058            4 
 1311000   0.72365716   -7.0893013    334.03722  0.021232979  0.020693535           10 
 1312000   0.73420251   -7.0768101    334.28802  0.021232725  0.020679048           18 
 1313000   0.72547355   -7.0967149    333.98392  0.021197253  0.020664576            5 
 1314000   0.73605056   -7.0708438    334.27566  0.021199623  0.020650131           21 
 1315000   0.72462801   -7.0952035    334.61742   0.02120516  0.020635794           29 
 1316000   0.70916348   -7.0766679    335.11601  0.021220619  0.020621472           28 
 1317000   0.72666294   -7.0971833    335.62021  0.021236409  0.020607098           25 
 1318000   0.72668389   -7.0939491    334.44247  0.021145831  0.020592688           29 
 1319000    0.7341148   -7.0979002    335.00208  0.021165156  0.020578323           11 
 1320000   0.74557081   -7.1153106      334.448  0.021114142  0.020563978           15 
 1321000   0.73178379    -7.107619     335.6732  0.021175448  0.020549602           28 
 1322000   0.71932257   -7.0939586    335.17536  0.021128048  0.020535272           20 
 1323000   0.71837475   -7.1111834    335.13207  0.021109352  0.020520979           12 
 1324000   0.71741654   -7.0987195    334.77853  0.021071156  0.020506718           16 
 1325000   0.71926243   -7.0996724    335.70315  0.021113405  0.020492497           18 
 1326000   0.70619315   -7.1170096    335.75393  0.021100675  0.020478308           16 
 1327000   0.70566678   -7.0899679    335.88456  0.021092977   0.02046417           12 
 1328000   0.71907749   -7.0986819    336.02872   0.02108614  0.020449995           15 
 1329000   0.70609077   -7.0993099    335.87529  0.021060653  0.020435809           19 
 1330000   0.72018548    -7.118329    336.04678  0.021055562  0.020421652           11 
 1331000   0.73488754   -7.0949472    336.14045  0.021045608  0.020407439           19 
 1332000   0.73505434   -7.1319244    335.23924  0.020973426  0.020393274            8 
 1333000   0.71106654   -7.1173511    336.20405  0.021018008  0.020379042           11 
 1334000    0.7083844   -7.1256706    335.91308  0.020984076  0.020364836           14 
 1335000   0.71454447   -7.1115461    335.96405  0.020971539   0.02035072           25 
 1336000    0.7100123   -7.1029845    336.34761  0.020979766  0.020336609           20 
 1337000   0.71741484   -7.1306462    335.55546  0.020914701    0.0203224           24 
 1338000   0.71616231   -7.1309584    336.29338  0.020945028  0.020308134           11 
 1339000   0.72943321     -7.13092    335.46101  0.020877583  0.020293932           13 
 1340000   0.71505224   -7.1337705    336.16274  0.020905643  0.020279741           10 
 1341000   0.71148472   -7.1268838    335.93597  0.020875961  0.020265585           17 
 1342000   0.71616534   -7.1255911    336.10694  0.020871022  0.020251445           19 
 1343000   0.73718084   -7.1260766     335.6573  0.020827581  0.020237258           13 
 1344000   0.72339307   -7.1209916    336.58418  0.020869555  0.020223174           11 
 1345000   0.72371112   -7.1467765    336.29166  0.020835915     0.020209           19 
 1346000   0.71621493   -7.1207237    336.26411  0.020818729  0.020194834           26 
 1347000   0.72900654   -7.1112656    336.13691  0.020795404  0.020180718           24 
 1348000   0.72702266   -7.1280481     336.7483  0.020817773  0.020166628           61 
 1349000   0.71623682   -7.1334529     336.8358  0.020807746  0.020152521           19 
 1350000   0.72316124   -7.1460088    336.76033  0.020787675  0.020138443           18 
 1351000   0.72798258   -7.1349147    336.21183  0.020738455  0.020124366           16 
 1352000   0.71664639    -7.112969    335.94561  0.020706707  0.020110326           27 
 1353000   0.72178305   -7.1334398    336.76579  0.020741918  0.020096332           27 
 1354000   0.71005587   -7.1322644    336.23651  0.020694025  0.020082313           15 
 1355000   0.72703393   -7.1479934     336.7296  0.020709077  0.020068264           17 
 1356000   0.71039635   -7.0990456      336.447  0.020676438  0.020054267           16 
 1357000   0.71342964   -7.1207296    336.99168   0.02069465  0.020040311           18 
 1358000   0.71377469   -7.1427142    335.04292  0.020559825  0.020026262           12 
 1359000   0.71871361   -7.1359589    336.89317  0.020658154   0.02001216           21 
 1360000   0.70783412   -7.1527835    336.65925   0.02062863  0.019998102           52 
 1361000   0.72112525    -7.129082    336.68406  0.020614993  0.019984057           11 
 1362000    0.7152789   -7.1463088    336.70507  0.020601143  0.019969991           12 
 1363000   0.70331524   -7.1342609    336.66196  0.020583392  0.019955932           19 
 1364000   0.70870792   -7.1246262    336.51353  0.020559233  0.019941936           10 
 1365000    0.7112976   -7.1331603    336.77702  0.020560258  0.019927923            9 
 1366000   0.72094786   -7.1580758    336.14627  0.020506727  0.019913801            6 
 1367000    0.6975379   -7.1409506    336.68264  0.020524423  0.019899691           19 
 1368000   0.71915142   -7.1282974    336.38428  0.020491245  0.019885523           21 
 1369000   0.69706402   -7.1366965    336.45044  0.020480305  0.019871429           21 
 1370000   0.69941662   -7.1617699    336.23453  0.020452222  0.019857328           11 
 1371000   0.70205176   -7.1831153    336.63161   0.02046144  0.019843216           45 
 1372000   0.71377899   -7.1489598      337.864   0.02052138  0.019829116           12 
 1373000   0.70297967   -7.1393611    336.77819  0.020440531  0.019815015           17 
 1374000   0.69821671   -7.1567149    337.39847  0.020463275  0.019800917           14 
 1375000   0.72382467   -7.1882379    336.94166  0.020420707  0.019786836           19 
 1376000   0.71187965     -7.16712    336.98407  0.020408434  0.019772729           25 
 1377000   0.71122995    -7.153565    337.67857  0.020435643  0.019758651           25 
 1378000   0.70794885   -7.1605236    336.63785  0.020357876  0.019744616           22 
 1379000   0.70578469     -7.13568    336.56151  0.020338501   0.01973058           32 
 1380000   0.71541525   -7.1336909    337.21288  0.020363096  0.019716557           14 
 1381000   0.70753836   -7.1407167    336.76859  0.020321542  0.019702551           20 
 1382000   0.71532355   -7.1790467    337.07127  0.020325089  0.019688524           40 
 1383000   0.70206358   -7.1396936    336.85407  0.020297304  0.019674449           39 
 1384000   0.70031073   -7.1557933    336.49001  0.020260718  0.019660414           23 
 1385000   0.69913535   -7.1692259    337.19856  0.020288722   0.01964637           21 
 1386000   0.68767641   -7.1583326    336.91707  0.020257159  0.019632337           12 
 1387000   0.69242039   -7.1715314    337.94699  0.020304434  0.019618392           63 
 1388000   0.70050339   -7.1616713    337.56285  0.020266742  0.019604411           29 
 1389000   0.70494339   -7.1646738    337.20992  0.020230977  0.019590421           10 
 1390000   0.71280844   -7.1646774    337.34057  0.020224255  0.019576426           16 
 1391000   0.67374389   -7.1661313    337.35113  0.020210348  0.019562461           10 
 1392000   0.70338707   -7.1756362    337.37368  0.020197179  0.019548495           20 
 1393000    0.7021257   -7.1643251    338.03215  0.020222072  0.019534581           17 
 1394000   0.69711612   -7.1807672    337.91476  0.020200548  0.019520705           15 
 1395000   0.70541807   -7.1641037    337.68285  0.020172213  0.019506826           21 
 1396000   0.70538184   -7.1800962    338.08974  0.020182052   0.01949299           29 
 1397000   0.69049853   -7.1677899    337.53851  0.020134724  0.019479172           29 
 1398000   0.69446215   -7.1764564    337.45735  0.020115484  0.019465285           44 
 1399000   0.68384402     -7.13576    337.47776   0.02010232  0.019451403           33 
 1400000   0.70113069   -7.1508911    337.45019  0.020086321  0.019437569           11 
 1401000   0.68227726   -7.1778625    337.82285   0.02009415  0.019423683           33 
 1402000   0.69791171   -7.1647674    337.43435  0.020056726  0.019409834           25 
 1403000   0.69231951   -7.1993386     337.3668  0.020038417  0.019395954           19 
 1404000    0.6824092   -7.1615265    337.93442  0.020057836  0.019382064           22 
 1405000   0.70074347   -7.1791322    337.40675  0.020012263  0.019368171           20 
 1406000   0.69864972   -7.2009748    337.06907  0.019978015  0.019354264           35 
 1407000   0.69224622   -7.2012446    337.87782  0.020011716  0.019340322           26 
 1408000   0.69158582   -7.1652204    337.92635  0.020000376  0.019326387           24 
 1409000   0.68576468   -7.1831986    338.32807   0.02000994  0.019312504           26 
 1410000   0.68355369    -7.224834    337.53273  0.019948743  0.019298622           95 
 1411000   0.70220303   -7.1971047    337.34452  0.019923489  0.019284775           22 
 1412000   0.68194438   -7.1801481    338.30935  0.019966322  0.019270896           53 
 1413000   0.68076059   -7.2070059    337.94626  0.019930777  0.019257072           38 
 1414000   0.68318092   -7.1823231    337.39336  0.019884097  0.019243258           34 
 1415000   0.69094979    -7.205814    337.56175  0.019879962  0.019229467           30 
 1416000    0.6826552   -7.1815311    338.32759  0.019910993  0.019215703           37 
 1417000   0.69245354   -7.1813761     338.8224  0.019926041  0.019202009           55 
 1418000   0.68375433    -7.185812    338.97892  0.019921187  0.019188262           59 
 1419000   0.67807307   -7.2245841    337.82735   0.01983952  0.019174524          107 
 1420000   0.69779875   -7.1962071    337.89029  0.019829242  0.019160829           57 
 1421000   0.69213316   -7.1791021    338.15078  0.019830564  0.019147123           50 
 1422000    0.6655032   -7.2099084    338.63713   0.01984512  0.019133404           83 
 1423000    0.6988005   -7.2045271    338.83731  0.019842897  0.019119733          140 
 1424000   0.68074417   -7.2078792    338.38128  0.019802275  0.019106093          136 
 1425000   0.67767986   -7.2050203    339.36613  0.019845973  0.019092496          110 
 1426000   0.68485565    -7.197055    339.71366  0.019852365  0.019078918           87 
 1427000   0.68647975   -7.1823412    338.07421  0.019742713  0.019065322          119 
 1428000   0.68849562   -7.1796279    338.99375  0.019782548  0.019051766          148 
 1429000   0.69175289   -7.2163974    338.97095  0.019767375  0.019038161          130 
 1430000   0.66293719   -7.1809094     340.0139   0.01981433  0.019024647          136 
 1431000   0.68811447   -7.2046109     339.5245  0.019771983  0.019011117          133 
 1432000   0.68367166   -7.2074987    339.12515  0.019734937  0.018997595          191 
 1433000    0.6776514   -7.2136923    339.14237  0.019722166  0.018984098          165 
 1434000   0.68251297   -7.2104636    339.09415  0.019705611  0.018970557          158 
 1435000   0.68421114   -7.2236347    338.95076  0.019683552  0.018956926          167 
 1436000    0.6908767    -7.210238    338.28909  0.019631447  0.018943339          137 
 1437000   0.68468238    -7.218381    338.19877  0.019612548  0.018929746          119 
 1438000   0.68725278   -7.2239737    338.97805  0.019644069  0.018916165          136 
 1439000   0.67899616   -7.2332987    338.40165  0.019597038  0.018902541          198 
 1440000   0.66995223   -7.2170244     338.1744  0.019570277  0.018888939          144 
 1441000   0.69732904   -7.2171749    338.18004  0.019557023  0.018875403          171 
 1442000   0.66210443   -7.2309117    338.92794  0.019586682  0.018861823          221 
 1443000   0.68217799   -7.2305109    338.84512  0.019568325  0.018848255          197 
 1444000   0.66988955   -7.2296752    339.31604  0.019581951  0.018834669          165 
 1445000   0.67803687   -7.2311375    338.75273  0.019535913  0.018821122          255 
 1446000   0.67257748   -7.2175014    339.28772  0.019553234  0.018807569          199 
 1447000   0.68513793   -7.2190697    338.87296  0.019515835  0.018794046          159 
 1448000   0.68509859   -7.2009737    339.01167   0.01951034   0.01878056          152 
 1449000   0.66979075   -7.1957236    339.49326  0.019524572  0.018767053          158 
 1450000   0.66543585   -7.2263498    339.06984  0.019486773  0.018753562          130 
 1451000   0.66401887   -7.2287006    338.78676  0.019457085  0.018740052          276 
 1452000   0.67333544   -7.2364391     338.4689  0.019425442  0.018726539          264 
 1453000   0.67735854   -7.2106612    339.07646  0.019446918   0.01871305          204 
 1454000   0.68052053   -7.2292238    338.94544  0.019426034  0.018699611          207 
 1455000   0.68179847   -7.2185718    338.93141  0.019411879   0.01868611          191 
 1456000   0.67309408   -7.2060427    338.88598  0.019395946  0.018672603          162 
 1457000   0.68426311   -7.2169728    339.47036  0.019416058  0.018659134          152 
 1458000   0.68558794   -7.2520886    339.83947  0.019423838  0.018645662          219 
 1459000   0.67062475   -7.2541068    339.41258  0.019386142  0.018632178          156 
 1460000   0.67336308   -7.2273539    338.40611  0.019315417  0.018618721          189 
 1461000   0.66924194   -7.2293268    338.59067  0.019312723  0.018605276          169 
 1462000   0.67810068   -7.2488242    338.08815   0.01927087  0.018591826          192 
 1463000   0.67966218   -7.2449266    338.97461  0.019308191  0.018578363          194 
 1464000    0.6658618   -7.2228298    338.83833  0.019287246  0.018564909          217 
 1465000    0.6735829   -7.2315686    339.15189  0.019291917  0.018551441          147 
 1466000   0.66750273   -7.2569281    339.66164  0.019307733  0.018537988          178 
 1467000   0.65795654   -7.2623502    339.38466  0.019278837  0.018524558          174 
 1468000   0.66974839    -7.254483     337.9896  0.019186512  0.018511147          150 
 1469000   0.68164057   -7.2256853    339.85414  0.019279223  0.018497755          123 
 1470000   0.67390097   -7.2693567    339.13736  0.019225474  0.018484394          156 
 1471000   0.65999742   -7.2500796    338.59516  0.019181688  0.018471023          138 
 1472000   0.66054123   -7.2425949    339.30057  0.019208592  0.018457633          144 
 1473000    0.6713843    -7.240611    339.73605  0.019220188  0.018444289          115 
 1474000   0.68305317   -7.2435624    339.96723  0.019220219  0.018430978          140 
 1475000   0.67851015   -7.2593094    339.70198  0.019192202  0.018417677          122 
 1476000   0.65123838   -7.2443236    339.59544  0.019173184  0.018404386          139 
 1477000   0.65770703   -7.2223024    339.37246  0.019147623  0.018391139           86 
 1478000   0.66372181   -7.2365503    340.54928  0.019201019   0.01837791          107 
 1479000    0.6780395   -7.2372125    339.90204  0.019151569  0.018364656          100 
 1480000   0.67149648   -7.2449009    339.89976    0.0191385  0.018351379          110 
 1481000   0.64970184   -7.2531973    339.35241  0.019094779  0.018338109          155 
 1482000   0.66684362   -7.2576877    339.00418  0.019062313  0.018324818          121 
 1483000   0.66550789   -7.2345988    340.33002  0.019123962  0.018311531          121 
 1484000   0.66930911   -7.2674966    339.72227  0.019076947  0.018298206          132 
 1485000   0.65233017   -7.2453257    339.48548  0.019050812  0.018284895          154 
 1486000   0.66432235   -7.2455552    339.67059  0.019048373  0.018271623          156 
 1487000    0.6529226   -7.2710569    339.75323  0.019040194  0.018258337          118 
 1488000   0.66663826   -7.2497962    339.27092  0.019000387  0.018245045          114 
 1489000   0.64213577   -7.2679122    339.26182  0.018987118  0.018231716          126 
 1490000   0.65203198    -7.257987    339.71792  0.018999884   0.01821839          122 
 1491000   0.65962076   -7.2725404    339.26428  0.018961786  0.018205072          162 
 1492000    0.6645375   -7.2667148    339.25896   0.01894878  0.018191795          156 
 1493000   0.67059595   -7.2572776    339.14871  0.018929935   0.01817853          122 
 1494000   0.64901646    -7.262529    339.53985  0.018939082  0.018165225          121 
 1495000    0.6718751   -7.2620842    339.02638  0.018897791  0.018151915          125 
 1496000   0.65627412   -7.2759383    339.81592   0.01892914  0.018138614          125 
 1497000   0.64556418   -7.2632797    339.23674  0.018884254  0.018125294          173 
 1498000   0.65823735   -7.2693261    338.85763  0.018850558  0.018112004          162 
 1499000   0.64791112   -7.2757894    339.09468  0.018851161    0.0180987          152 
 1500000    0.6772385   -7.2585708    339.29214  0.018849563  0.018085409          163 
 1501000   0.65191424    -7.278499    339.46637  0.018846678  0.018072144          190 
 1502000   0.64031239   -7.2538995    339.83018  0.018854315  0.018058927          168 
 1503000   0.64618263   -7.2691132    339.40827  0.018818378  0.018045663          226 
 1504000   0.65319973   -7.2860641    339.38891  0.018804794  0.018032408          232 
 1505000    0.6580146   -7.2941555    339.15736  0.018779478  0.018019169          249 
 1506000   0.66230117   -7.2671366    339.74067  0.018799285  0.018005922          213 
 1507000   0.65217897   -7.2761199    339.77042  0.018788455  0.017992688          263 
 1508000   0.64044952   -7.2546221    339.95016  0.018785929  0.017979486          337 
 1509000    0.6536113   -7.2905877    339.52055  0.018749754  0.017966325          286 
 1510000   0.65734377   -7.2683877    339.25995  0.018722955  0.017953111          252 
 1511000   0.65369138   -7.2766725    339.34059  0.018715012   0.01793988          289 
 1512000   0.63970396   -7.2829541    339.13737  0.018691433  0.017926588          328 
 1513000   0.63942851   -7.2936948    338.89212  0.018665571  0.017913302          457 
 1514000   0.65286091   -7.2978892    338.94251  0.018656017  0.017900006          294 
 1515000   0.63516336   -7.2946959    339.14608    0.0186549  0.017886738          292 
 1516000   0.64170983   -7.3071575    339.15481  0.018643074  0.017873496          304 
 1517000   0.65132313   -7.2793633    339.25908  0.018636513  0.017860262          296 
 1518000   0.64880826   -7.2725705    339.13583   0.01861747  0.017847067          265 
 1519000    0.6331093   -7.2916115     338.7988  0.018586724  0.017833833          299 
 1520000   0.65612809   -7.2839334    339.05021  0.018588279  0.017820606          275 
 1521000   0.65227512   -7.3001915    339.22005  0.018585363  0.017807397          422 
 1522000   0.64535659   -7.3112922    339.73184  0.018601174  0.017794167          489 
 1523000   0.64565515   -7.3016285    339.54271  0.018578612  0.017780978          364 
 1524000   0.63179252    -7.300904     339.4426  0.018560947  0.017767772          373 
 1525000   0.63587199   -7.2734845    339.01689  0.018525513  0.017754593          430 
 1526000   0.64130007   -7.3145806     338.5286  0.018486708  0.017741406          395 
 1527000   0.63943588   -7.2889867    338.71753  0.018484912  0.017728196          506 
 1528000   0.63801688   -7.3074598    338.94213  0.018485064  0.017715011          382 
 1529000   0.64745352   -7.2984026     339.2141  0.018487797  0.017701823          418 
 1530000   0.63822228   -7.3209219    338.20223  0.018420601  0.017688614          385 
 1531000   0.64584627   -7.2849679     339.2529  0.018465758  0.017675451          382 
 1532000   0.63655137   -7.3252792     338.6607  0.018421491  0.017662291          435 
 1533000   0.63571926   -7.3189316    338.91502  0.018423299  0.017649115          539 
 1534000   0.65131327   -7.3164103    338.56319  0.018392177  0.017635938          551 
 1535000   0.65914246   -7.3238326    338.96925  0.018402239  0.017622772          565 
 1536000    0.6376123   -7.3127682    339.46575  0.018417196  0.017609637          571 
 1537000   0.62753454   -7.3032319    339.41454  0.018402437  0.017596477          443 
 1538000    0.6419103   -7.3524713    338.93092  0.018364268  0.017583308          586 
 1539000   0.63581361    -7.338614    339.30908  0.018372811  0.017570147          593 
 1540000    0.6335001   -7.3383183     339.0777  0.018348361  0.017556986          661 
 1541000   0.63642578   -7.3286702    338.56249  0.018308592  0.017543844          676 
 1542000   0.64442738   -7.3395264    338.71385  0.018304899  0.017530688          650 
 1543000   0.64177232   -7.3284921    339.29151  0.018324234  0.017517549          659 
 1544000   0.63157758   -7.3362715    338.58696  0.018274339  0.017504435          681 
 1545000   0.63784526   -7.3471911     338.7439  0.018270976  0.017491295          627 
 1546000   0.63553479   -7.3408908    338.41781  0.018241581  0.017478187          681 
 1547000   0.62847887   -7.3488958    339.13066  0.018268189  0.017465094          678 
 1548000   0.63509607   -7.3446889     339.3869  0.018270182  0.017452046          705 
 1549000   0.64686816   -7.3470432    338.97403  0.018236175  0.017438973          674 
 1550000   0.63339475   -7.3754686    338.84214   0.01821732  0.017425893          630 
 1551000   0.63001883   -7.3617781    339.05795  0.018217169   0.01741281          580 
 1552000   0.65026541   -7.3545883    339.26354   0.01821647  0.017399739          624 
 1553000   0.63719296   -7.3847542    338.52056  0.018164872  0.017386686          664 
 1554000   0.63557457   -7.3532286    338.63258   0.01815919  0.017373619          657 
 1555000   0.62626062   -7.3568475    339.31793  0.018184241  0.017360562          712 
 1556000   0.63132708   -7.3245665    339.36781  0.018175225  0.017347512          638 
 1557000   0.64050102   -7.3668116    339.49188  0.018170193  0.017334495          681 
 1558000   0.64183649   -7.3586465    338.57035   0.01810924  0.017321447          638 
 1559000   0.61691849   -7.3623934    339.53289  0.018149075  0.017308385          666 
 1560000   0.63504105   -7.3645972    339.13476  0.018116173  0.017295368          653 
 1561000   0.62759744   -7.3807146    338.91446  0.018092807  0.017282324          641 
 1562000   0.64113478   -7.3510942     338.6026  0.018064586  0.017269275          604 
 1563000   0.63494397   -7.3590009    338.71382  0.018058958  0.017256229          590 
 1564000   0.63776448   -7.3534182     338.3839  0.018029833  0.017243198          691 
 1565000   0.63365227   -7.3773642    338.12237  0.018004386  0.017230179          646 
 1566000   0.63593311    -7.368417    338.54055  0.018015142  0.017217174          680 
 1567000   0.62420219   -7.3462868    338.72138  0.018013262  0.017204186          663 
 1568000   0.63838805   -7.3566975    338.79325  0.018005594  0.017191207          664 
 1569000   0.61362313   -7.3646765    338.74046  0.017991314  0.017178231          672 
 1570000   0.63055715   -7.3588438    338.35114   0.01795919   0.01716528          694 
 1571000   0.61599442   -7.3635244    338.41018   0.01795089  0.017152333          730 
 1572000   0.62583741   -7.3661796    338.44449   0.01794129   0.01713942          716 
 1573000   0.61540837   -7.3783791     338.8616  0.017951981  0.017126491          706 
 1574000   0.62171508    -7.368608    338.88417  0.017941771   0.01711358          740 
 1575000   0.61808698   -7.3671231    339.11605  0.017942648    0.0171007          743 
 1576000   0.61821072   -7.3774463    339.11647  0.017931286  0.017087815          754 
 1577000   0.63216407   -7.3855466    339.03148  0.017915424  0.017074964          751 
 1578000   0.64042048   -7.3731696    338.58076  0.017880268  0.017062095          694 
 1579000   0.62654386   -7.3809128    339.05294  0.017893864  0.017049236          820 
 1580000   0.61518611   -7.3770463    339.43118  0.017902489  0.017036379          766 
 1581000   0.63114837   -7.3870764    338.55748  0.017845113  0.017023502          773 
 1582000   0.62332097   -7.3831043    338.72107   0.01784245  0.017010648          836 
 1583000   0.62372051   -7.3836051    338.87652  0.017839362  0.016997785          789 
 1584000   0.62149455   -7.3766704    338.76226  0.017822088  0.016984949          732 
 1585000   0.62077628   -7.4065516    339.03496  0.017825182  0.016972115          757 
 1586000   0.61528655   -7.3806983    338.99082  0.017811624  0.016959332          779 
 1587000   0.60630699   -7.3770241    338.77295   0.01778896   0.01694653          753 
 1588000   0.61765842    -7.394995    338.76953  0.017777578  0.016933756          801 
 1589000   0.62174455   -7.3700049    339.06667  0.017781973  0.016920991          838 
 1590000   0.64141899   -7.3946215    338.68421  0.017750745  0.016908225          719 
 1591000   0.62387911   -7.3938599    338.35228  0.017722202  0.016895465          886 
 1592000   0.62712507   -7.3906718    338.39521  0.017713317  0.016882689          909 
 1593000    0.6198993   -7.3929951      338.849  0.017725936  0.016869922          774 
 1594000   0.62766698   -7.3901217    338.29957  0.017686092  0.016857161          976 
 1595000   0.60689483   -7.3869047    339.35339  0.017730062  0.016844402          884 
 1596000   0.60948596   -7.4088653    338.86383  0.017693391  0.016831646          957 
 1597000   0.60488133   -7.3910299    338.91792  0.017685134  0.016818892          962 
 1598000   0.62225561   -7.4226393     339.5764  0.017708407  0.016806178          994 
 1599000   0.61711841    -7.411663    339.11035  0.017673043  0.016793459         1015 
 1600000   0.60649398   -7.4191221    338.21186  0.017615201  0.016780714         1068 
 1601000   0.61732714   -7.4096542    338.84412  0.017637108  0.016768025         1051 
 1602000   0.61209261     -7.39892    339.10384  0.017639609  0.016755342         1028 
 1603000   0.60672729   -7.4097419    338.45869  0.017595066  0.016742674          987 
 1604000   0.61733551   -7.4017286    338.60473  0.017591684  0.016730008          941 
 1605000   0.61924021   -7.4052581    339.01618  0.017602086  0.016717365          973 
 1606000   0.60897455   -7.4237491    339.25026  0.017603272   0.01670475          921 
 1607000   0.61347169   -7.4007074    339.00797  0.017579753  0.016692127          956 
 1608000   0.61129413   -7.4228636    339.00829  0.017568837  0.016679496          956 
 1609000   0.62208696   -7.4029065     338.8058  0.017547431  0.016666855          988 
 1610000   0.60719181   -7.4144504    339.09112    0.0175513  0.016654212          991 
 1611000   0.60761389   -7.4095886    338.57809  0.017513868  0.016641544         1089 
 1612000   0.61905115   -7.4168197    338.59512  0.017503884   0.01662891         1027 
 1613000    0.6117856   -7.4167831    338.26522  0.017475988  0.016616284         1075 
 1614000   0.61421849   -7.4222799      338.688  0.017486989  0.016603673         1069 
 1615000   0.61863423    -7.423677    338.96581  0.017490496  0.016591096         1047 
 1616000   0.60587558   -7.4104129    338.18291    0.0174393  0.016578484         1037 
 1617000   0.61388334   -7.4196018    338.78107  0.017459342  0.016565898         1136 
 1618000   0.60903329   -7.4312306    338.83033  0.017451088  0.016553299         1116 
 1619000   0.59679981   -7.4149063     338.4569  0.017421088   0.01654073         1157 
 1620000   0.61277484   -7.4300441    338.89508  0.017432874   0.01652817         1120 
 1621000    0.5880467   -7.4292687     339.1577  0.017435621  0.016515624         1122 
 1622000   0.61277771   -7.4383237    338.89706  0.017411481  0.016503072         1111 
 1623000   0.59697527   -7.4327999    338.60436  0.017385724  0.016490518         1108 
 1624000   0.59983915   -7.4233481    338.50603  0.017369973  0.016477965         1017 
 1625000    0.6155736   -7.4355656    339.29509  0.017399748  0.016465441         1064 
 1626000   0.60666992   -7.4215683    338.50214  0.017348408   0.01645293         1013 
 1627000   0.59744565   -7.4221831    338.94344  0.017360348  0.016440415         1076 
 1628000   0.59568053   -7.4193118    339.20211  0.017362925    0.0164279         1103 
 1629000   0.60399568   -7.4331545    338.81381  0.017332403  0.016415386         1115 
 1630000   0.59549598   -7.4114427    338.96957  0.017329732  0.016402898         1116 
 1631000    0.5930435   -7.4452221    338.41897  0.017290976  0.016390398         1093 
 1632000   0.61019874   -7.4280792    338.74924  0.017297245  0.016377893         1124 
 1633000   0.59564244   -7.4496928    338.55842  0.017276915  0.016365396         1139 
 1634000   0.60174996   -7.4311099    338.47042  0.017261853  0.016352911         1115 
 1635000   0.60738525   -7.4443553    339.03458   0.01728005  0.016340428         1101 
 1636000   0.59576678   -7.4410617    338.68811  0.017251839  0.016327965         1079 
 1637000    0.5856081   -7.4205599    338.43861  0.017228599  0.016315497         1097 
 1638000   0.60671483   -7.4413588    338.44574  0.017218444  0.016303021         1077 
 1639000   0.60045171   -7.4267405    338.38057  0.017204625  0.016290555         1098 
 1640000   0.60680561   -7.4571193    338.18718  0.017184308  0.016278099         1106 
 1641000   0.59186921   -7.4380202    338.80804  0.017205365  0.016265625         1095 
 1642000   0.59882156   -7.4637678    338.33679   0.01717097  0.016253182         1066 
 1643000   0.60295643   -7.4419446    338.92013  0.017190106  0.016240751         1105 
 1644000   0.60438732    -7.452243    338.15797  0.017141016  0.016228318         1121 
 1645000    0.5980258   -7.4587101    338.00366  0.017122779  0.016215908         1153 
 1646000   0.58995535   -7.4415939    338.23913  0.017124298  0.016203496         1134 
 1647000   0.60457493   -7.4351756    338.30593  0.017117281  0.016191085         1055 
 1648000   0.59712586   -7.4544551    338.38343  0.017110813   0.01617869         1076 
 1649000   0.58519261   -7.4469118    338.11537  0.017086889  0.016166291         1141 
 1650000   0.59760341   -7.4397389    338.20713  0.017081168  0.016153897         1152 
 1651000   0.59463743   -7.4601566    338.49281  0.017085242  0.016141503         1127 
 1652000   0.59716576    -7.468019    338.08815  0.017054487  0.016129115         1181 
 1653000     0.605182   -7.4630821    338.38391   0.01705908  0.016116755         1180 
 1654000   0.58943783   -7.4473456    338.48786  0.017054003  0.016104401         1158 
 1655000   0.59516197   -7.4524602    338.45082  0.017041834  0.016092045         1179 
 1656000   0.58576538   -7.4615242    338.23524  0.017020694    0.0160797         1230 
 1657000   0.58153299   -7.4640065    338.29906  0.017013632  0.016067356         1234 
 1658000   0.59424887    -7.464683    337.78061  0.016977313  0.016055003         1201 
 1659000   0.60008641   -7.4715846    337.97066  0.016976625   0.01604265         1187 
 1660000   0.58886016    -7.491592    338.26953  0.016981402  0.016030284         1215 
 1661000   0.59630735   -7.4720525    337.96433  0.016955866  0.016017935         1193 
 1662000   0.59276732   -7.4507279    338.09887   0.01695241  0.016005596         1195 
 1663000    0.5852505   -7.4637047     337.8948  0.016931991  0.015993254         1178 
 1664000   0.59149342   -7.4625867    338.43978  0.016949107  0.015980919         1187 
 1665000   0.59496469   -7.4724786    337.74942  0.016904375  0.015968576         1195 
 1666000    0.5921165   -7.4763251    336.68898  0.016841185  0.015956245         1209 
 1667000   0.59810168   -7.4689265    337.64748  0.016878998  0.015943921         1195 
 1668000    0.5820949   -7.4771417    337.74721  0.016873862  0.015931612         1240 
 1669000   0.58224565   -7.4941737    337.60397  0.016856599  0.015919318         1156 
 1670000   0.57760765   -7.4820345    338.01648   0.01686709  0.015907028         1232 
 1671000   0.59364226    -7.497324    338.12518  0.016862417  0.015894757         1143 
 1672000   0.59092555   -7.4773505    338.23816  0.016857963  0.015882478         1127 
 1673000   0.59456996   -7.4896377    337.90906  0.016831494  0.015870218         1149 
 1674000   0.57997594   -7.4678497    337.61159   0.01680663  0.015857959         1179 
 1675000   0.59756588    -7.452636    338.01754  0.016816793  0.015845726         1140 
 1676000   0.58823852    -7.481094    337.42089  0.016777093  0.015833495         1162 
 1677000   0.56957428   -7.4797966    337.81332  0.016786589   0.01582127         1080 
 1678000   0.58161191   -7.4771471      338.611    0.0168162  0.015809049         1152 
 1679000   0.58161976   -7.4957629     337.5251  0.016752288  0.015796847         1175 
 1680000   0.58302651   -7.4838127    336.97006  0.016714785  0.015784638         1213 
 1681000   0.57047072   -7.4995344    337.12367  0.016712456  0.015772439         1221 
 1682000   0.57977742   -7.5001211    337.54398  0.016723344   0.01576025         1176 
 1683000     0.584903   -7.4904677    337.33655  0.016703137  0.015748059         1159 
 1684000    0.5980522   -7.4837173    337.59907  0.016706209  0.015735871         1195 
 1685000     0.580722   -7.4957639    338.04135  0.016718168  0.015723704         1191 
 1686000   0.57369512   -7.4822522    337.20383  0.016666856  0.015711542         1187 
 1687000    0.5890505   -7.5021052    337.59812  0.016676453  0.015699386         1187 
 1688000   0.58083855   -7.4864181    337.38147  0.016655878  0.015687254         1145 
 1689000    0.5804042   -7.5054191    337.71864  0.016662653  0.015675124         1244 
 1690000   0.58682416   -7.4892535    337.32886  0.016633573  0.015663011         1155 
 1691000   0.60149312   -7.4888707    337.10937   0.01661292  0.015650878         1190 
 1692000   0.58067928   -7.4788418    338.19884  0.016656759  0.015638775         1209 
 1693000   0.57351745   -7.4913783      336.853  0.016580676  0.015626652         1273 
 1694000   0.58596285   -7.5070998    337.41386  0.016598478  0.015614544         1162 
 1695000   0.57892659    -7.499981    336.93525  0.016565155  0.015602449         1210 
 1696000   0.57079324   -7.4891335    337.12429  0.016564676  0.015590367         1132 
 1697000   0.56793171   -7.4962338    337.44777    0.0165708  0.015578286         1168 
 1698000   0.57312541   -7.5075811    337.14837  0.016546347  0.015566206         1162 
 1699000   0.58116502   -7.5038385    337.17989  0.016538154  0.015554126         1213 
 1700000   0.58266675   -7.5004107    337.27096   0.01653289  0.015542078         1212 
 1701000   0.58228999   -7.4933032    337.25219  0.016522251  0.015530008         1179 
 1702000   0.57981964   -7.5164751    337.37276  0.016518447  0.015517963         1207 
 1703000   0.56546317   -7.4876628    337.27936  0.016504177  0.015505912         1211 
 1704000   0.56584501   -7.4890947    337.50958   0.01650575  0.015493884         1223 
 1705000   0.56907964   -7.5003991    336.97016  0.016469705  0.015481842         1195 
 1706000   0.57934729   -7.5147516    336.91464  0.016457339  0.015469821         1198 
 1707000   0.56917048   -7.4898674    338.19186   0.01651005   0.01545783         1171 
 1708000   0.57338989   -7.5168067    337.72399  0.016477556  0.015445835         1181 
 1709000   0.57405762   -7.5042341    337.95271  0.016479067  0.015433846         1167 
 1710000   0.57987941   -7.4897571    337.11167  0.016428444  0.015421882         1165 
 1711000   0.57649165   -7.5315955    337.13107  0.016419787  0.015409925         1194 
 1712000   0.55853763   -7.5098992    336.89982   0.01639894  0.015397947         1193 
 1713000   0.56504241    -7.505942    337.24429  0.016406124  0.015385993         1157 
 1714000   0.57039688   -7.5195397    336.82635  0.016376233  0.015374032         1172 
 1715000   0.58236757   -7.5018774    337.51146  0.016399974  0.015362094         1160 
 1716000   0.57386125   -7.5088937    337.21278  0.016375912   0.01535015         1192 
 1717000   0.57930252   -7.5071018    336.43751  0.016328748  0.015338206         1232 
 1718000   0.57488996   -7.5149193     336.9879   0.01634594  0.015326273         1187 
 1719000   0.56226614   -7.5214456    336.90241  0.016332287  0.015314363         1276 
 1720000   0.55541327   -7.5220235     336.7006  0.016313014  0.015302446         1274 
 1721000   0.56228608   -7.5256005    336.93916  0.016315086  0.015290545         1239 
 1722000   0.55516952    -7.513406    337.11508  0.016314125  0.015278636         1197 
 1723000   0.56874517   -7.4879944    336.97489  0.016297876  0.015266749         1174 
 1724000   0.56851099    -7.504691    337.09545   0.01629425  0.015254875         1217 
 1725000   0.54625047   -7.5151049    337.05033  0.016282624  0.015243015         1160 
 1726000   0.56975567   -7.5217158    336.76428   0.01625938  0.015231165         1250 
 1727000   0.56100202   -7.5127385    336.79407  0.016251403  0.015219309         1224 
 1728000   0.56023685   -7.5187118    336.45819    0.0162258  0.015207463         1211 
 1729000   0.56328025    -7.533099    336.72971  0.016229502  0.015195616         1198 
 1730000   0.56429954   -7.5161481     337.4153  0.016253145  0.015183791         1145 
 1731000   0.55505265   -7.5180183    336.69983  0.016209312   0.01517198         1199 
 1732000   0.55753449   -7.5408675    337.26436  0.016227115  0.015160177         1164 
 1733000    0.5592243   -7.5230317    336.57133  0.016184427  0.015148373         1210 
 1734000   0.55780772   -7.5081305    337.01226  0.016196283  0.015136571         1258 
 1735000   0.55976852   -7.5142106    337.11577   0.01619192  0.015124776         1208 
 1736000   0.55375867   -7.5298361    336.57359  0.016156566   0.01511299         1214 
 1737000   0.56119128   -7.5382404    337.09452  0.016172257   0.01510121         1170 
 1738000   0.56804993   -7.5295767    337.04369  0.016160515  0.015089452         1200 
 1739000   0.55444401   -7.5443723    336.89761  0.016144221  0.015077686         1223 
 1740000   0.55381023   -7.5360503    336.70051  0.016125503  0.015065934         1200 
 1741000   0.55738824   -7.5442415    337.01472  0.016131281  0.015054192         1208 
 1742000    0.5629353   -7.5314721     336.9596  0.016119384  0.015042465         1217 
 1743000   0.55849036   -7.5295949    336.64596  0.016095141  0.015030742         1194 
 1744000   0.55581465   -7.5533794    336.93555  0.016099749  0.015019033         1217 
 1745000    0.5611285   -7.5228053    336.76352  0.016082308  0.015007335         1202 
 1746000    0.5588216   -7.5402262    337.17967  0.016092959  0.014995651         1158 
 1747000   0.56253036   -7.5407146    337.26854  0.016087986  0.014983974         1239 
 1748000   0.55805602   -7.5384417    336.54759  0.016044412  0.014972297         1207 
 1749000   0.54646398    -7.543918    336.24528  0.016020835  0.014960627         1278 
 1750000   0.56309022   -7.5514995    336.94685  0.016045088  0.014948965         1220 
 1751000   0.55807391   -7.5302588    337.03448  0.016040095  0.014937309         1238 
 1752000   0.54872168   -7.5392567     337.1645  0.016037124  0.014925674         1210 
 1753000   0.55136073   -7.5449569    336.88911  0.016014885  0.014914053         1211 
 1754000   0.55136462   -7.5444614    337.00652  0.016011332  0.014902433         1272 
 1755000   0.56019476   -7.5390926     337.0024  0.016002013  0.014890838         1227 
 1756000   0.54371096   -7.5400701    336.45985  0.015967153  0.014879246         1223 
 1757000   0.54668112   -7.5459699    336.81877  0.015975089   0.01486766         1268 
 1758000   0.53919978   -7.5434461     336.5637  0.015953911  0.014856067         1190 
 1759000   0.55466526   -7.5495985    336.36099  0.015935237  0.014844474         1278 
 1760000   0.54802841   -7.5423067    336.20701  0.015918893   0.01483291         1241 
 1761000   0.54950556   -7.5501465    336.93527  0.015944315  0.014821354         1257 
 1762000   0.54393187   -7.5613585    336.14444  0.015897864  0.014809798         1320 
 1763000   0.55072691   -7.5292608    336.23164  0.015892968  0.014798244         1243 
 1764000    0.5737808   -7.5397446    336.28906  0.015886671  0.014786707         1227 
 1765000   0.54338443   -7.5462134    336.41529   0.01588363  0.014775175         1244 
 1766000    0.5349895   -7.5619003    336.57582  0.015882211  0.014763654         1225 
 1767000   0.55352238   -7.5587739    336.45538  0.015867543  0.014752133         1301 
 1768000    0.5560734   -7.5332093    336.98523  0.015883542  0.014740634         1246 
 1769000   0.53644984   -7.5515316    336.75686  0.015863806  0.014729153         1303 
 1770000   0.54137644    -7.532683     336.6971  0.015852029  0.014717669         1249 
 1771000   0.55635679    -7.564487    336.05625  0.015812924  0.014706206         1250 
 1772000   0.53737213   -7.5367066    336.20271  0.015810888  0.014694754         1234 
 1773000    0.5452534   -7.5607708     336.9285  0.015836083  0.014683301         1276 
 1774000   0.55371816   -7.5574608    336.26864  0.015796159  0.014671851         1307 
 1775000   0.54267362    -7.558471    336.56069  0.015800971  0.014660425         1291 
 1776000   0.53888685    -7.559559    336.81931  0.015804209  0.014649003         1293 
 1777000   0.54957816   -7.5534035     335.9509  0.015754591  0.014637581         1310 
 1778000   0.55303395   -7.5701241    336.43944  0.015768628  0.014626175         1271 
 1779000   0.54046411   -7.5667218    336.48519  0.015761907  0.014614775         1264 
 1780000   0.54315592   -7.5655027    336.51089  0.015754255  0.014603391         1266 
 1781000    0.5464085   -7.5776666    336.48886  0.015744379  0.014592027         1269 
 1782000   0.54254796   -7.5809185    336.48505  0.015735365  0.014580647         1245 
 1783000   0.52849205   -7.5593102    336.23328  0.015714773   0.01456928         1225 
 1784000   0.53203896    -7.554519    336.00809  0.015695445  0.014557932         1266 
 1785000   0.54049837    -7.560067    336.71868  0.015719826  0.014546599         1279 
 1786000   0.55069281    -7.563398    336.51933  0.015701723  0.014535275         1279 
 1787000   0.55307166   -7.5816301    336.47535  0.015690886  0.014523958         1310 
 1788000   0.54031078   -7.5576837    336.12069   0.01566558  0.014512636         1214 
 1789000   0.53281349   -7.5811121    336.19981  0.015660509  0.014501329         1233 
 1790000   0.53982939   -7.5644665    336.84652  0.015681868  0.014490032         1344 
 1791000   0.53727123   -7.5777829    336.33002  0.015649079  0.014478738         1250 
 1792000   0.53289334   -7.5599097    336.14849  0.015631905  0.014467469         1288 
 1793000   0.53706698   -7.5635166    336.48593   0.01563887  0.014456191         1222 
 1794000   0.53441672   -7.5858631    336.02381  0.015608687   0.01444492         1223 
 1795000   0.53147205   -7.5794323    336.38164  0.015616604  0.014433669         1199 
 1796000   0.53594885   -7.5674745    336.14886  0.015597107  0.014422422         1230 
 1797000   0.53302756   -7.5760831    336.39123  0.015599667  0.014411191         1286 
 1798000   0.53511823   -7.5675569    336.26113  0.015584961  0.014399963         1269 
 1799000   0.53972602   -7.5727707    336.11016  0.015569305  0.014388753         1283 
 1800000   0.53797988   -7.5748666    336.32999  0.015570833  0.014377541         1301 
 1801000   0.54573542   -7.5727603    336.40659  0.015565731  0.014366333         1313 
 1802000   0.54052629   -7.5770346    336.54385  0.015563441  0.014355136         1222 
 1803000   0.53806987   -7.5881829     335.9736  0.015528453   0.01434395         1251 
 1804000   0.54176289   -7.5880941     336.2015  0.015530372  0.014332767         1293 
 1805000   0.53504606   -7.5820231    335.76934  0.015501816  0.014321597         1263 
 1806000   0.52788105   -7.5924728    336.20998  0.015513565  0.014310447         1258 
 1807000   0.53115871   -7.5828009    335.94977   0.01549298  0.014299307         1200 
 1808000   0.51314892   -7.5908264    335.64738  0.015470473  0.014288181         1273 
 1809000   0.53399797    -7.562792    336.05416  0.015480659  0.014277055         1287 
 1810000   0.52026876   -7.5752116    336.32647  0.015484644  0.014265944         1260 
 1811000    0.5369074   -7.5876661    336.31348  0.015475496   0.01425484         1286 
 1812000    0.5250579   -7.5749474    335.74279   0.01544071  0.014243759         1229 
 1813000   0.53365682   -7.5874965    336.40965  0.015462844  0.014232672         1279 
 1814000   0.53415758   -7.5890842    336.35561  0.015451838  0.014221591         1340 
 1815000    0.5414909   -7.5687598    336.12124  0.015432564  0.014210516         1219 
 1816000   0.52234778   -7.5948347    336.04013  0.015420344  0.014199452         1331 
 1817000   0.53368185    -7.586252    336.10844   0.01541499  0.014188401         1346 
 1818000   0.52161906   -7.5784285    336.23482  0.015412304  0.014177361         1328 
 1819000   0.53215338   -7.5848084    336.64746  0.015422735  0.014166333         1264 
 1820000   0.52639588   -7.5704141    336.09632  0.015389026  0.014155332         1351 
 1821000   0.52766307   -7.5970637    336.51512   0.01539974  0.014144327         1324 
 1822000   0.52479597   -7.5804134    335.91911  0.015364028  0.014133329         1321 
 1823000   0.52301659   -7.5728671      335.945  0.015356784   0.01412234         1252 
 1824000   0.51426185   -7.5972737    336.19748    0.0153599  0.014111359         1329 
 1825000   0.52604414    -7.590492    335.86054  0.015336098  0.014100392         1330 
 1826000   0.51341284   -7.5883492    335.59804  0.015315719  0.014089416         1346 
 1827000   0.52107452   -7.5937367    335.60156  0.015307497  0.014078451         1279 
 1828000   0.52149616     -7.57659    335.56435  0.015297426  0.014067479         1268 
 1829000    0.5276968   -7.5951567    335.66388  0.015293598  0.014056528         1293 
 1830000    0.5335278   -7.5853982    335.40786  0.015273582  0.014045589         1330 
 1831000   0.52665946   -7.5854914     336.1247  0.015297865  0.014034652         1329 
 1832000   0.52040925    -7.603893     336.0247  0.015284967  0.014023735         1319 
 1833000   0.53251279   -7.6043613    336.23137  0.015286023  0.014012832         1331 
 1834000    0.5284732   -7.5926004    335.77414  0.015256913   0.01400193         1373 
 1835000   0.51924069   -7.5936563    335.92934  0.015255647  0.013991047         1335 
 1836000   0.52561827   -7.5989862    336.01939  0.015251425  0.013980154         1367 
 1837000   0.51476478   -7.6028014    336.01604   0.01524297  0.013969293         1309 
 1838000   0.52040291   -7.6034469    335.79494  0.015224653  0.013958424         1350 
 1839000   0.51142026   -7.6099703    335.52276   0.01520404  0.013947546         1352 
 1840000   0.51257704   -7.6063932    335.36575  0.015188666  0.013936677         1328 
 1841000   0.51327645   -7.6121085    335.48939  0.015186013  0.013925819         1339 
 1842000   0.51913308   -7.6192459     335.9672  0.015199385  0.013914967         1349 
 1843000   0.52392975   -7.6012051    335.72526  0.015180198  0.013904132         1349 
 1844000   0.52312488   -7.6240768    335.96274  0.015182698  0.013893308         1327 
 1845000   0.51622997   -7.5903241    335.49763  0.015153461  0.013882494         1357 
 1846000   0.50430452    -7.609147    335.71935  0.015155261  0.013871687         1344 
 1847000   0.52025599   -7.5960957    335.79703  0.015150561   0.01386089         1349 
 1848000   0.53396545   -7.6014229    335.22752  0.015116681  0.013850108         1311 
 1849000   0.50723003   -7.6101819    335.40524  0.015116515  0.013839342         1375 
 1850000   0.52144397   -7.6134973    335.62885  0.015118417  0.013828583         1337 
 1851000   0.51165273   -7.6133773    335.53335   0.01510595  0.013817808         1365 
 1852000   0.51451307   -7.6175526     335.7789  0.015108842  0.013807055         1350 
 1853000   0.50653231   -7.6092062    335.87149  0.015104852  0.013796321         1310 
 1854000   0.51428208   -7.6064286    335.98954  0.015102011    0.0137856         1311 
 1855000   0.51068207    -7.627519     335.6229  0.015077399  0.013774885         1317 
 1856000    0.5187866   -7.6222744    335.77732  0.015076209  0.013764181         1345 
 1857000   0.50782895   -7.6101473    335.33443  0.015048215  0.013753479         1353 
 1858000   0.52337903   -7.6135455    335.87581  0.015064398  0.013742796         1295 
 1859000   0.50628805   -7.6090489    335.93125  0.015058779  0.013732119         1321 
 1860000   0.50434464   -7.6162159    335.84297  0.015046728  0.013721452         1293 
 1861000   0.51306594   -7.6288789    335.46712  0.015021813  0.013710796         1327 
 1862000   0.52156322   -7.6295737    335.76381  0.015027024  0.013700148         1340 
 1863000   0.51316159   -7.6233218    335.45567  0.015005174  0.013689513         1304 
 1864000    0.5161654   -7.6063038    335.46617  0.014997594  0.013678887         1323 
 1865000   0.50607296   -7.6275958    335.84949  0.015006679  0.013668266         1299 
 1866000    0.5104355    -7.612709    335.57546    0.0149864  0.013657662         1322 
 1867000   0.50385736   -7.6222029     335.9792  0.014996393  0.013647057         1300 
 1868000   0.51210708    -7.625524    335.61328  0.014972042  0.013636467         1372 
 1869000   0.51849123   -7.6107745    335.43716  0.014956178  0.013625886         1313 
 1870000   0.50955079   -7.6151658    335.59319  0.014955133  0.013615298         1356 
 1871000   0.49983961    -7.621241       335.23  0.014930964  0.013604723         1287 
 1872000   0.50577231    -7.621431    335.26879  0.014924715  0.013594147         1261 
 1873000   0.50941304   -7.6278271    335.75757  0.014938493  0.013583595         1314 
 1874000   0.50728576   -7.6248953    335.83838  0.014934115  0.013573055         1349 
 1875000   0.50405662   -7.6144325    336.02549  0.014934466  0.013562523         1310 
 1876000   0.50910225   -7.6157073    335.70314  0.014912186  0.013551999         1333 
 1877000   0.48997815   -7.6296345    335.02053  0.014873936  0.013541484         1327 
 1878000   0.50440236   -7.6373251    334.75652  0.014854301  0.013530977         1365 
 1879000   0.50573316   -7.6139812    335.43469  0.014876472  0.013520473         1338 
 1880000   0.49908593    -7.623294     335.5235  0.014872496   0.01350999         1339 
 1881000   0.50680466   -7.6280357    335.62392  0.014869038  0.013499522         1312 
 1882000   0.49644897   -7.6156109    335.61438  0.014860715  0.013489068         1276 
 1883000   0.50238027    -7.639392     335.5477  0.014849872  0.013478602         1339 
 1884000   0.50298478   -7.6312489    335.74724  0.014850815  0.013468151         1318 
 1885000   0.49639088   -7.6323736    335.66541   0.01483932  0.013457709         1291 
 1886000   0.49936613   -7.6280566    335.36484  0.014818171  0.013447267         1365 
 1887000    0.5065103   -7.6232726    335.08944  0.014798156  0.013436838         1372 
 1888000   0.49922403   -7.6358399    335.40788  0.014804373  0.013426406         1344 
 1889000   0.48864454   -7.6316102    334.81242  0.014770268  0.013415985         1351 
 1890000   0.50165161   -7.6240083    335.02959  0.014772028  0.013405578         1349 
 1891000   0.49806791   -7.6282973    335.59601  0.014789177  0.013395189         1292 
 1892000   0.50230577   -7.6322269    334.93301  0.014752158  0.013384796         1366 
 1893000   0.49634059   -7.6247303    335.44651  0.014766971  0.013374416         1385 
 1894000    0.5037302   -7.6366514    335.16811  0.014746925  0.013364053         1349 
 1895000   0.49106253   -7.6276474    335.68851  0.014762028  0.013353694         1386 
 1896000   0.49438551   -7.6290577    334.81822  0.014715991  0.013343344         1375 
 1897000   0.50745553   -7.6347836    334.86449  0.014710266  0.013333003         1344 
 1898000   0.48401237   -7.6580149    335.10538  0.014713092  0.013322663         1378 
 1899000   0.49396304   -7.6252913      335.033  0.014702168  0.013312329         1288 
 1900000   0.49362601   -7.6298623    335.05359  0.014695333  0.013302012         1291 
 1901000   0.49460364   -7.6454837     335.3065  0.014698689  0.013291709         1343 
 1902000   0.49012246   -7.6330323     334.9316  0.014674536  0.013281403         1367 
 1903000   0.50356259   -7.6502624    334.87416  0.014664309  0.013271108         1358 
 1904000   0.49507809   -7.6443714    334.89807  0.014657654   0.01326082         1407 
 1905000   0.49579547   -7.6462399    335.23424  0.014664665  0.013250535         1371 
 1906000   0.49169185   -7.6667488    335.60175  0.014673039  0.013240276         1379 
 1907000   0.49629614   -7.6568909    335.05533  0.014641467   0.01323002         1313 
 1908000   0.49018769   -7.6520406    335.60586  0.014657838  0.013219756         1352 
 1909000   0.49816194    -7.645861    334.72176  0.014611566   0.01320951         1371 
 1910000   0.48098482   -7.6690847    335.45682  0.014635987  0.013199275         1405 
 1911000   0.48714865   -7.6464828    334.62801  0.014592186  0.013189051         1334 
 1912000   0.48054618   -7.6538093    334.52471  0.014580052  0.013178851         1389 
 1913000   0.48720089   -7.6404655    334.95157  0.014591025  0.013168648         1338 
 1914000   0.49207098    -7.659453    335.46559  0.014605781  0.013158455         1363 
 1915000   0.48900993    -7.646652    334.88386   0.01457284  0.013148259         1413 
 1916000   0.48865338   -7.6410652    334.90639  0.014566214  0.013138079         1365 
 1917000   0.49008665   -7.6665071    335.15368  0.014569365  0.013127909         1389 
 1918000   0.49051769   -7.6533139    335.16425  0.014562229  0.013117753         1360 
 1919000   0.48684833   -7.6467596    335.24903  0.014558322  0.013107598         1299 
 1920000   0.48481581   -7.6551003    334.68547  0.014526279  0.013097457         1390 
 1921000   0.48559908   -7.6525284    335.03293   0.01453379  0.013087323         1286 
 1922000    0.4923723   -7.6626337    334.47953  0.014502234  0.013077205         1335 
 1923000   0.50304414   -7.6400654    334.69516  0.014504037  0.013067084         1324 
 1924000   0.47424048   -7.6563526    335.09392   0.01451377  0.013056987         1346 
 1925000   0.48189142    -7.658093    335.27444  0.014514045  0.013046892         1333 
 1926000   0.47405196   -7.6520479    334.85777  0.014488481  0.013036802         1340 
 1927000   0.48682272   -7.6327097    334.43858  0.014462834  0.013026716         1341 
 1928000   0.47373596   -7.6424835    334.69504  0.014466418  0.013016644         1326 
 1929000   0.48148893   -7.6584324     334.2654  0.014440358  0.013006577         1331 
 1930000   0.49417019   -7.6589513    335.01414  0.014465205  0.012996523         1318 
 1931000   0.47216267   -7.6600314    334.32423   0.01442794  0.012986478         1399 
 1932000    0.4810578   -7.6578465    335.09443  0.014453693  0.012976437         1338 
 1933000   0.47960682   -7.6669556    334.77979  0.014432652  0.012966412         1373 
 1934000   0.48238404   -7.6658138    334.86166  0.014428717  0.012956387         1325 
 1935000   0.47600686   -7.6661174    334.77299  0.014417441  0.012946371         1306 
 1936000   0.48813436   -7.6515051    334.78008    0.0144103  0.012936382         1358 
 1937000   0.47610584   -7.6477612    334.75936  0.014401968  0.012926393         1347 
 1938000   0.47738136   -7.6653322     334.7746  0.014395192  0.012916409         1321 
 1939000   0.48014796   -7.6757608    335.47473  0.014417858  0.012906436         1337 
 1940000   0.47840088   -7.6578173    334.96112  0.014388364  0.012896483         1350 
 1941000   0.48337964   -7.6674154     334.9053  0.014378555  0.012886536         1353 
 1942000   0.48201607   -7.6640223    334.59722  0.014357931  0.012876595         1369 
 1943000   0.47645356   -7.6587682    335.41902  0.014385787  0.012866668         1338 
 1944000   0.48257135   -7.6645536    334.64844  0.014345355  0.012856737         1431 
 1945000   0.48073022   -7.6560794    335.15204  0.014359556  0.012846823         1377 
 1946000   0.47719774   -7.6521356    334.45528   0.01432234   0.01283692         1349 
 1947000   0.47178714   -7.6665791    334.72368  0.014326472  0.012827017         1341 
 1948000   0.48535548   -7.6750813    334.64193   0.01431562   0.01281713         1374 
 1949000   0.46235191   -7.6556948    334.28196  0.014292883  0.012807245         1314 
 1950000   0.46580314   -7.6780092    334.82067  0.014308576  0.012797371         1323 
 1951000   0.47523905   -7.6737965    335.00427  0.014309084  0.012787511         1356 
 1952000   0.48500983   -7.6701969    334.46859  0.014278885  0.012777667         1388 
 1953000   0.47471078   -7.6845903    334.20479  0.014260317  0.012767819         1454 
 1954000   0.47119958   -7.6727817    333.94688   0.01424202  0.012757977         1376 
 1955000   0.48391545   -7.6768885     334.7943  0.014270857  0.012748158         1393 
 1956000   0.47783191   -7.6731284    334.62954  0.014256541  0.012738348         1325 
 1957000   0.46946462   -7.6650853    334.62928  0.014249245  0.012728549         1320 
 1958000   0.47792708   -7.6806402    334.15423   0.01422175  0.012718743         1393 
 1959000   0.46829295   -7.6803047    334.76143  0.014240319  0.012708962         1329 
 1960000   0.46851894   -7.6764332    334.98338  0.014242491  0.012699181         1349 
 1961000   0.45708556   -7.6788157    334.54427  0.014216568  0.012689405         1382 
 1962000    0.4672227   -7.6748945    335.17811  0.014236243  0.012679635         1340 
 1963000   0.46680294   -7.6661825    334.83645  0.014214487  0.012669876         1321 
 1964000   0.46576042   -7.6616394    334.11752  0.014176745  0.012660135         1326 
 1965000   0.46115838   -7.6726047    334.20093  0.014173067  0.012650394         1343 
 1966000   0.47577457   -7.6916719    334.62425  0.014183802  0.012640666         1341 
 1967000   0.47201691   -7.6776825    334.46661  0.014169912  0.012630949         1335 
 1968000   0.46806585   -7.6744091    334.03793   0.01414456   0.01262124         1374 
 1969000   0.46236001   -7.6769807    334.25162   0.01414642  0.012611537         1360 
 1970000   0.47302419   -7.6905203     334.1436   0.01413467  0.012601839         1307 
 1971000   0.46401982   -7.6695807    334.52061  0.014143439  0.012592159         1348 
 1972000     0.463743   -7.6745406    334.84767  0.014150087  0.012582479         1369 
 1973000   0.46610748   -7.6767786    334.56413   0.01413094  0.012572816         1347 
 1974000   0.45771726   -7.6649821    333.91671   0.01409645  0.012563155         1325 
 1975000   0.46692813   -7.6896749    334.29829  0.014105413  0.012553498         1337 
 1976000   0.47489076    -7.686823    334.45813  0.014105016  0.012543856         1351 
 1977000   0.46854786   -7.6864125     334.7076  0.014108396  0.012534219         1403 
 1978000   0.47356465   -7.7028857    334.46068  0.014090861   0.01252459         1398 
 1979000   0.46869858   -7.6759249     334.4458  0.014083114  0.012514975         1359 
 1980000   0.46237376   -7.6868492    333.93873   0.01405466   0.01250537         1351 
 1981000   0.45400569   -7.6868778    334.27731  0.014061808  0.012495773         1336 
 1982000   0.45267226   -7.6773615    334.16558  0.014050016  0.012486173         1353 
 1983000   0.46764595   -7.7126733    334.54031  0.014058678  0.012476588         1339 
 1984000   0.47010826   -7.6940973    334.49653  0.014049753   0.01246701         1320 
 1985000   0.45309166   -7.6924618    334.27791  0.014033498  0.012457437         1331 
 1986000   0.45077959   -7.6942073    333.91301   0.01401112  0.012447884         1398 
 1987000   0.45664156   -7.6963441    334.64688  0.014034846  0.012438335         1372 
 1988000   0.46259216   -7.6758894    334.32707  0.014014381  0.012428802         1351 
 1989000   0.46505303   -7.6895312    333.81793  0.013986003  0.012419276         1347 
 1990000   0.46250568   -7.6919631    334.61113  0.014012191  0.012409754         1274 
 1991000   0.45650615   -7.6940439    334.36973   0.01399505   0.01240025         1352 
 1992000   0.45993971    -7.681474    334.42451  0.013990316  0.012390753         1381 
 1993000   0.44946988   -7.6872268    334.44852    0.0139843  0.012381263         1368 
 1994000   0.46395505   -7.6980982    334.38898  0.013974799  0.012371784         1400 
 1995000   0.44377803    -7.682367    333.99073  0.013951158  0.012362311         1426 
 1996000    0.4685615   -7.6981023    334.16351  0.013951383  0.012352844         1372 
 1997000   0.46548413   -7.6915882    334.57243   0.01396146  0.012343387         1385 
 1998000   0.46419764   -7.6900086    334.13257  0.013936127  0.012333938         1388 
 1999000   0.45896035   -7.6931969    333.97935  0.013922768  0.012324492         1366 
 2000000   0.44237336   -7.6999565    334.02278  0.013917616   0.01231506         1393 
 2001000   0.44603485   -7.6956587    333.93487  0.013906999  0.012305636         1371 
 2002000   0.45796604   -7.7060974    334.26357  0.013913735  0.012296226         1366 
 2003000   0.45315242   -7.7018339    333.95744  0.013894052  0.012286821         1351 
 2004000   0.45484093    -7.683179     333.7247  0.013877441  0.012277417         1399 
 2005000   0.45335743   -7.6991437     334.4463  0.013900511  0.012268019         1344 
 2006000   0.44683646   -7.7103866     334.1013   0.01387925  0.012258635         1394 
 2007000   0.44991103   -7.6980237    333.72484  0.013856703  0.012249263         1387 
 2008000   0.45203325   -7.7128961     334.4882  0.013881482  0.012239894         1364 
 2009000   0.44477198   -7.7110117    334.06835  0.013857157  0.012230539         1412 
 2010000   0.43773769   -7.7023333    334.23307  0.013857092  0.012221187         1359 
 2011000   0.45295673   -7.7131046    334.43362  0.013858513  0.012211843         1434 
 2012000   0.44088396   -7.7077444    333.98298   0.01383296  0.012202509         1386 
Loop time of 4349.85 on 48 procs for 2000000 steps with 4000 atoms

Performance: 79451.049 tau/day, 459.786 timesteps/s
99.4% CPU use with 48 MPI tasks x no OpenMP threads

MPI task timing breakdown:
Section |  min time  |  avg time  |  max time  |%varavg| %total
---------------------------------------------------------------
Pair    | 283.75     | 302.3      | 317.17     |  53.2 |  6.95
Neigh   | 26.683     | 27.316     | 28.018     |   5.2 |  0.63
Comm    | 238.43     | 254.99     | 277.18     |  56.9 |  5.86
Output  | 4.4673     | 4.4694     | 4.5064     |   0.3 |  0.10
Modify  | 3687.3     | 3709.5     | 3731.9     |  18.8 | 85.28
Other   |            | 51.32      |            |       |  1.18

Nlocal:        83.3333 ave          89 max          77 min
Histogram: 5 4 2 2 5 12 4 4 5 5
Nghost:        1788.73 ave        1811 max        1756 min
Histogram: 2 0 1 4 7 6 13 7 6 2
Neighs:        10938.0 ave       11843 max        9848 min
Histogram: 2 2 5 7 4 8 6 4 6 4
FullNghs:      21875.6 ave       23621 max       19761 min
Histogram: 2 4 3 3 8 8 6 6 4 4

Total # of neighbors = 1050028
Ave neighs/atom = 262.50700
Neighbor list builds = 107883
Dangerous builds = 0

#clear
#
#next RN
#
#jump SELF
Total wall time: 1:12:33
