
units lj                  # Use reduced LJ style units
atom_style atomic         # Uncharged point particles
atom_modify map hash      # Needed for indexing of clusters etc
                          # Used to be able to find where atoms are in relation to each other.

lattice fcc 1.0 spacing 1 1 1
Lattice spacing in x,y,z = 1.5874011 1.5874011 1.5874011
region box block 0 10 0 10 0 10 units lattice
create_box 2 box
Created orthogonal box = (0.0000000 0.0000000 0.0000000) to (15.874011 15.874011 15.874011)
  3 by 4 by 4 MPI processor grid
create_atoms 1 box
Created 4000 atoms
  using lattice units in orthogonal box = (0.0000000 0.0000000 0.0000000) to (15.874011 15.874011 15.874011)
  create_atoms CPU = 0.002 seconds
set type 1 type/fraction 2 0.36 78393
Setting atom values ...
  1453 settings made for type/fraction
mass 1 1.0
mass 2 1.0
pair_style lj/cut  3.5
pair_modify tail  yes
pair_coeff 1  1  1.0  1.0   # Intearaction between 1 and 1 set with epsilon = 1 and sigma = 1
pair_coeff 1  2  1.5  0.8
pair_coeff 2  2  0.5  0.88

write_data data.0
System init for write_data ...
Neighbor list info ...
  update every 1 steps, delay 10 steps, check yes
  max neighbors/atom: 2000, page size: 100000
  master list distance cutoff = 3.8
  ghost atom cutoff = 3.8
  binsize = 1.9, bins = 9 9 9
  1 neighbor lists, perpetual/occasional/extra = 1 0 0
  (1) pair lj/cut, perpetual
      attributes: half, newton on
      pair build: half/bin/atomonly/newton
      stencil: half/bin/3d
      bin: standard
WARNING: Not all mixed pair coeffs generated from mixing. Use write_data with 'pair ij' option to store all pair coeffs. (../write_data.cpp:312)


#############################
#   M E L T   S Y S T E M   #
#############################

velocity all create 2.4 6583654 mom yes dist gaussian # Assign velocities
                                                    # Temperature 2.4, random number seed, zero linear momentum
                                                                                # Gaussian distribution

timestep 0.002   # simulation timestep
thermo 1000       # output thermodynamic data every 1000 steps bf 100

# Define a fix  in this case with index 1 applied to all
# particles in the simulation. This fix is for simulations
# in the anisotropic NPT ensemble. Note that we use the MTK
# correction.
fix 1 all npt temp 2.4 2.4 0.1 iso 5.68 5.68 0.5 mtk yes tchain 5 pchain 5 # Use NPT ensemble
                                                                         # Set temperature and pressure and damping
                                                                         # Numbers of thermostats in chain and in barostat
run 10000          # run for 10000 steps
Per MPI rank memory allocation (min/avg/max) = 3.642 | 3.644 | 3.648 Mbytes
Step Temp E_pair E_mol TotEng Press Volume 
       0          2.4   -6.0964775            0   -2.4973775   -4.1129651         4000 
    1000    2.4407796   -5.0138443            0   -1.3535902    5.3496822     4019.822 
    2000    2.3359496   -5.1074525            0   -1.6044042    5.3252397     3979.583 
    3000    2.4056775   -4.9956978            0   -1.3880837    5.7485335    4003.3455 
    4000      2.42104   -5.0490921            0     -1.41844    5.7528053    3978.0326 
    5000    2.3743568   -5.0085873            0   -1.4479425    5.6528873     3998.895 
    6000    2.4241201   -4.9687134            0   -1.3334423    6.1127619    3988.6013 
    7000     2.434211   -5.0761598            0   -1.4257562    5.6047672    3974.3957 
    8000     2.360824   -4.9694421            0   -1.4290915    5.6590095    4016.0463 
    9000    2.3910462   -5.0289165            0   -1.4432438    5.3886933    4019.3024 
   10000    2.4062083   -5.0453595            0   -1.4369493     6.005089    3958.4657 
Loop time of 2.48999 on 48 procs for 10000 steps with 4000 atoms

Performance: 693977.427 tau/day, 4016.073 timesteps/s
99.6% CPU use with 48 MPI tasks x no OpenMP threads

MPI task timing breakdown:
Section |  min time  |  avg time  |  max time  |%varavg| %total
---------------------------------------------------------------
Pair    | 1.0878     | 1.1565     | 1.3213     |   4.3 | 46.45
Neigh   | 0.2051     | 0.21483    | 0.24061    |   1.4 |  8.63
Comm    | 0.68213    | 0.85993    | 0.9376     |   5.7 | 34.54
Output  | 0.00024943 | 0.00025397 | 0.00032098 |   0.0 |  0.01
Modify  | 0.19964    | 0.24341    | 0.31586    |   5.5 |  9.78
Other   |            | 0.01508    |            |       |  0.61

Nlocal:        83.3333 ave          93 max          73 min
Histogram: 2 1 4 5 7 11 6 7 2 3
Nghost:        1659.96 ave        1692 max        1633 min
Histogram: 2 6 7 4 4 14 5 3 1 2
Neighs:        9638.31 ave       11014 max        8346 min
Histogram: 2 4 3 9 7 8 8 2 3 2

Total # of neighbors = 462639
Ave neighs/atom = 115.65975
Neighbor list builds = 907
Dangerous builds = 219

# Equilibrate just above the melting temperature to avoid step fn in T

fix 1 all npt temp 1.25 1.25 0.1 iso 5.68 5.68 0.5 mtk yes tchain 5 pchain 5
run 2000
Per MPI rank memory allocation (min/avg/max) = 3.643 | 3.645 | 3.649 Mbytes
Step Temp E_pair E_mol TotEng Press Volume 
   10000    2.4062083   -5.0453595            0   -1.4369493     6.005089    3958.4657 
   11000     1.231895   -6.9593332            0   -5.1119526    5.5628028    3197.1114 
   12000    1.2511575   -7.0270143            0   -5.1507472    5.2616289    3189.0917 
Loop time of 0.59295 on 48 procs for 2000 steps with 4000 atoms

Performance: 582848.551 tau/day, 3372.966 timesteps/s
99.6% CPU use with 48 MPI tasks x no OpenMP threads

MPI task timing breakdown:
Section |  min time  |  avg time  |  max time  |%varavg| %total
---------------------------------------------------------------
Pair    | 0.25723    | 0.28369    | 0.30698    |   1.9 | 47.84
Neigh   | 0.038623   | 0.041314   | 0.044761   |   0.6 |  6.97
Comm    | 0.18817    | 0.21708    | 0.24606    |   2.5 | 36.61
Output  | 4.9966e-05 | 5.1211e-05 | 6.6986e-05 |   0.0 |  0.01
Modify  | 0.039937   | 0.046193   | 0.051489   |   1.5 |  7.79
Other   |            | 0.004617   |            |       |  0.78

Nlocal:        83.3333 ave          90 max          75 min
Histogram: 1 0 6 2 13 3 11 2 6 4
Nghost:        1915.27 ave        1941 max        1891 min
Histogram: 4 1 2 11 9 5 6 5 3 2
Neighs:        11992.3 ave       13678 max       10112 min
Histogram: 1 1 1 10 7 14 3 8 2 1

Total # of neighbors = 575630
Ave neighs/atom = 143.90750
Neighbor list builds = 145
Dangerous builds = 8

#############################
# L I N E A R  Q U E N C H  #
#############################

# Define solid atoms. This closely follows ten Wolde  Ruiz-Montero and Frenkel  Faraday Discuss  1996  104  93-110
# Compute components of the per-atom q6 vector
compute q6 all orientorder/atom degrees 1 6 components 6 nnn NULL cutoff 1.3 # compute the Q6 parameter.
                                                                             # Use all neighbours within 1.3 unit cell.

# get number of connections
compute coord_number all coord/atom orientorder q6 0.5

# An atom is solid if it has 8 or more connections (of a possible 14)
variable is_solid atom c_coord_number>=8
group solid dynamic all var is_solid    # Must be dynamic to update
dynamic group solid defined

# do clustering
compute cluster solid cluster/atom 1.3 # Create a cluster where all atoms within are solid and max 1.3 units from another member

# define chunks one chunk per cluster
compute clus_chunks solid chunk/atom c_cluster nchunk every compress yes  # Says which atoms are in which chunk

# count the size of each chunk
compute size_chunks solid property/chunk clus_chunks count


# Find the maximum entry in the vector of chunk sizes
variable max_n equal max(c_size_chunks)


# Thermo style which includes this variable
# thermo_style custom step temp pe vol v_max_n

thermo ${N}  # Print the thermo information every 100 steps
thermo 1000  

# Reset the npt fix at a lower temperature (below freezing)
fix 1  all npt temp  ${temp} ${temp}  0.1  iso  5.68  5.68  0.5  mtk yes tchain  5  pchain  5
fix 1  all npt temp  0.45 ${temp}  0.1  iso  5.68  5.68  0.5  mtk yes tchain  5  pchain  5
fix 1  all npt temp  0.45 0.45  0.1  iso  5.68  5.68  0.5  mtk yes tchain  5  pchain  5

dump dmp2 all dcd ${N} traj.dcd
dump dmp2 all dcd 1000 traj.dcd


compute msd all msd com yes
variable twopoint equal c_msd[4]/6/(step*dt+1.0e-6)
fix 9 all vector 10 c_msd[4]
variable fit equal slope(f_9)/6/(10*dt)
thermo_style custom step temp pe c_msd[4] v_twopoint v_fit v_max_n

fix 1 all npt temp 1.25 ${temp} 0.1 iso 5.68 5.68 0.5 mtk yes tchain 5 pchain 5
fix 1 all npt temp 1.25 0.45 0.1 iso 5.68 5.68 0.5 mtk yes tchain 5 pchain 5
run 500000 # 5000000  # Run for this many steps
Neighbor list info ...
  update every 1 steps, delay 10 steps, check yes
  max neighbors/atom: 2000, page size: 100000
  master list distance cutoff = 3.8
  ghost atom cutoff = 3.8
  binsize = 1.9, bins = 8 8 8
  4 neighbor lists, perpetual/occasional/extra = 1 3 0
  (1) pair lj/cut, perpetual
      attributes: half, newton on
      pair build: half/bin/atomonly/newton
      stencil: half/bin/3d
      bin: standard
  (2) compute orientorder/atom, occasional
      attributes: full, newton on
      pair build: full/bin/atomonly
      stencil: full/bin/3d
      bin: standard
  (3) compute coord/atom, occasional
      attributes: full, newton on
      pair build: full/bin/atomonly
      stencil: full/bin/3d
      bin: standard
  (4) compute cluster/atom, occasional
      attributes: full, newton on
      pair build: full/bin/atomonly
      stencil: full/bin/3d
      bin: standard
Per MPI rank memory allocation (min/avg/max) = 9.819 | 9.823 | 9.826 Mbytes
Step Temp PotEng c_msd[4] v_twopoint v_fit v_max_n 
   12000    1.2511575   -7.0270143 7.5217887e-31 5.2234642e-33 8.3333333e+20            1 
   13000    1.2543743   -7.0467898   0.46313951 0.0029688429   0.03786046            2 
   14000    1.2639841   -7.0005465   0.89135243 0.0053056691  0.036505779            2 
   15000    1.2494645   -7.0517148    1.3520805 0.0075115578   0.03614065            1 
   16000    1.2336473   -7.0485024    1.8003289 0.0093767127  0.037064316            1 
   17000    1.2469911   -7.0257351    2.1976405  0.010772747  0.036996006            1 
   18000    1.2460769   -7.0712378    2.6664983  0.012344899  0.036560102            2 
   19000    1.2403622   -6.9832791    3.1001044  0.013596949  0.036573628            1 
   20000    1.2444364   -7.0492402    3.5263249   0.01469302  0.036474652            1 
   21000    1.2320073   -7.0412093    4.0102327  0.015913621  0.036649714            1 
   22000    1.2137013     -7.04456    4.5250094  0.017140187  0.036971051            1 
   23000    1.2366399   -7.0548523    4.9698063  0.018006544  0.037272291            2 
   24000    1.2521682   -7.0924131    5.3883514  0.018709553  0.037347541            3 
   25000    1.2257076   -7.0812877      5.76669    0.0192223  0.037250388            2 
   26000    1.2378071   -7.0821266    6.2717908  0.020101893  0.037183677            2 
   27000    1.2294144   -7.0353703    6.7037945  0.020690723  0.037174094            3 
   28000    1.2185829   -7.0902827    7.1662847  0.021328228  0.037215465            1 
   29000    1.2273681   -7.0846277    7.6951614  0.022112532  0.037389715            1 
   30000    1.2248384   -7.0705751    8.0037125  0.022232534  0.037415068            2 
   31000    1.2330942   -7.0760063    8.4156992  0.022622847  0.037320439            1 
   32000    1.2284932   -7.1103518    9.0233561  0.023498323  0.037297353            1 
   33000    1.2007675   -7.1414471    9.4830331  0.023947053  0.037358156            1 
   34000    1.2057545   -7.1317159    9.8773886  0.024209285  0.037400426            1 
   35000    1.2137915   -7.0833391    10.382565  0.024720393  0.037425728            2 
   36000    1.2050872    -7.106468    10.693909  0.024754419  0.037428708            2 
   37000     1.224052   -7.0677512    11.117759  0.025039997  0.037377018            8 
   38000    1.2101404   -7.1180802    11.570876  0.025374727  0.037310075            2 
   39000    1.1912455   -7.0769354    12.049691  0.025747202  0.037262419            2 
   40000    1.2061338   -7.1406887    12.525741  0.026095293  0.037242144            1 
   41000    1.2022337   -7.0898367    12.829213  0.026075636   0.03721533            3 
   42000    1.2018635   -7.1263475    13.106866  0.026005686  0.037087752            2 
   43000    1.1923024   -7.1570884    13.516204  0.026194194  0.036932752            1 
   44000    1.2131233   -7.1453196    13.845484  0.026222508  0.036780976            1 
   45000    1.2250702    -7.175347    14.115399  0.026139628  0.036581808            2 
   46000    1.1727362   -7.1230066    14.484341  0.026239748  0.036373243            2 
   47000    1.2138007   -7.1369837    14.867517  0.026360845  0.036166037            2 
   48000    1.2114574   -7.1830549     15.38783  0.026714983  0.036008769            1 
   49000     1.202028   -7.1835777     15.66888  0.026647754  0.035868678            2 
   50000    1.1763765   -7.1310113    16.084063  0.026806771  0.035721497            1 
   51000     1.178541   -7.1409788    16.355924  0.026725365  0.035553655            2 
   52000    1.1726545   -7.1291681    16.646731  0.026677453  0.035361115            1 
   53000    1.1812288   -7.1700445    16.940515   0.02663603  0.035163774            2 
   54000    1.1971436    -7.168452     17.35248  0.026778519  0.034973006            1 
   55000    1.1996631   -7.1738114    17.571905  0.026624098  0.034784206            1 
   56000    1.1687171   -7.1652831    18.011099  0.026802231  0.034602286            1 
   57000    1.1825715   -7.1598284    18.351538  0.026829734  0.034435527            2 
   58000    1.1922166   -7.1750332    18.730818  0.026912094  0.034272752            2 
   59000    1.1817096   -7.2016368    19.243613  0.027180244  0.034136336            1 
   60000    1.1597833   -7.1967397    19.565243  0.027173948  0.034031482            2 
   61000    1.1664845   -7.1802614    20.014592  0.027342339  0.033928315            1 
   62000    1.1731057   -7.2091678    20.406631  0.027428267   0.03383221            1 
   63000     1.192213   -7.2284742    20.609093  0.027260705  0.033731454            2 
   64000    1.1668758   -7.2243365    20.907086  0.027222768  0.033606543            2 
   65000    1.1448983   -7.1972536    21.059714  0.026999633  0.033466142            2 
   66000    1.1589129   -7.1963495    21.468737   0.02710699  0.033333886            3 
   67000     1.169051   -7.2331252    21.826944   0.02714794  0.033208298            1 
   68000    1.1808402   -7.1874467    22.151436  0.027146368  0.033087148            2 
   69000    1.1467614   -7.2459668    22.505215  0.027180212  0.032966909            2 
   70000    1.1561039   -7.2209618     22.90649  0.027269631  0.032848266            1 
   71000    1.1566457   -7.2012922     23.32463  0.027376326  0.032741478            3 
   72000    1.1350863   -7.2709218    23.800295  0.027546637  0.032656166            1 
   73000    1.1547618   -7.2405083    24.057518   0.02746292  0.032585072            1 
   74000     1.139086   -7.2348822    24.476787   0.02756395  0.032506483            1 
   75000     1.154732   -7.2527036    24.668144  0.027409049   0.03242569            2 
   76000    1.1476396   -7.2634667    25.032839  0.027448288  0.032339465            1 
   77000    1.1350779   -7.2525896    25.289157  0.027369217  0.032252552            1 
   78000    1.1480408   -7.2819171    25.621112  0.027372982  0.032156921            1 
   79000    1.1489524   -7.2383465    25.932179  0.027354619  0.032063943            1 
   80000    1.1427447   -7.2837639    26.198663  0.027290274  0.031968462            4 
   81000    1.1175302   -7.2304939    26.462729  0.027225029  0.031877857            1 
   82000    1.1084128   -7.2868128    26.800077   0.02723585  0.031778575            3 
   83000     1.130539   -7.2525348    26.935368  0.027043542  0.031673162            1 
   84000    1.1473604   -7.2968978    27.198156  0.026982297  0.031565227            1 
   85000    1.1316133   -7.2876976    27.585931   0.02704503   0.03145265            3 
   86000    1.1502579    -7.306644    27.799998  0.026937983  0.031339865            2 
   87000    1.0885991    -7.294515    27.926049  0.026749089   0.03122531            1 
   88000      1.11933   -7.2712593    28.297997  0.026797346  0.031109781            2 
   89000    1.1252824   -7.3389582    28.356881  0.026551387  0.030988707            3 
   90000    1.1221269   -7.2796179    28.764436  0.026633737  0.030861233            1 
   91000    1.1186212   -7.2993379    29.011616  0.026567413  0.030742365            2 
   92000     1.103338   -7.3229336    29.212693  0.026460772  0.030625696            2 
   93000    1.1313995   -7.3043146    29.680732  0.026595638  0.030512627            1 
   94000     1.153287   -7.3386063    29.912055  0.026517779  0.030402625            1 
   95000    1.1225132   -7.3107276    30.294839   0.02657442  0.030302612            1 
   96000    1.0966553   -7.3109337    30.645677   0.02660215  0.030211506            1 
   97000    1.1291181   -7.3680349    30.970306  0.026606792  0.030129922            1 
   98000    1.1156015   -7.2981122    31.422266  0.026719614  0.030044845            2 
   99000    1.1265907   -7.3500646    31.637388  0.026630798  0.029966756            3 
  100000    1.1213047   -7.3446314    31.971352  0.026642793  0.029891816            3 
  101000    1.1099627   -7.3649833     32.31663  0.026663886  0.029820219            1 
  102000    1.1134674   -7.3340649    32.645391  0.026671071   0.02975039            1 
  103000     1.093233   -7.3179652    33.058128  0.026746058  0.029684581            2 
  104000    1.1081465   -7.3756353    33.194641   0.02659827  0.029613116            2 
  105000    1.1072462   -7.3551283     33.44642  0.026544778  0.029539593            1 
  106000    1.1189534   -7.3572056     33.75894  0.026540047  0.029468449            3 
  107000    1.1182165   -7.3983986    34.182449  0.026621845  0.029403793            2 
  108000    1.0943839   -7.4133158    34.453055  0.026584147  0.029342038            1 
  109000    1.1002427   -7.3854883     34.74624  0.026564403  0.029281051            2 
  110000    1.0861768    -7.347532    35.055567  0.026557248  0.029216871            1 
  111000    1.1251309   -7.4053267    35.038286  0.026305019  0.029150714            1 
  112000    1.0936918    -7.396768    35.375193  0.026320828  0.029076064            1 
  113000    1.0669867    -7.404056    35.634662  0.026279249   0.02900363            1 
  114000    1.1073613   -7.3900387    36.074887  0.026370531  0.028936444            1 
  115000    1.0819444   -7.4248909    36.153326  0.026198062     0.028867            4 
  116000    1.0786635   -7.3959456    36.431759  0.026172241  0.028793116            2 
  117000    1.0727806   -7.4487355    36.736244  0.026165416  0.028725813            3 
  118000     1.082695   -7.4092558    37.049182  0.026164677  0.028659188            3 
  119000    1.0820695   -7.3973147     37.28882  0.026112619  0.028592469            3 
  120000    1.0697835   -7.4495777    37.489038  0.026034054  0.028524872            1 
  121000    1.0715731   -7.4393658    37.698362  0.025963059  0.028457144            1 
  122000    1.0997719   -7.4307161    38.088579  0.026016789  0.028392994            1 
  123000    1.0713715   -7.4049714    38.549259  0.026117384  0.028331929            2 
  124000    1.0648642   -7.3632869    38.819754  0.026088544  0.028273691            1 
  125000    1.0700554    -7.398947    38.809639  0.025873092  0.028211568            1 
  126000    1.0617344   -7.4291665    38.906925  0.025732093  0.028140443            2 
  127000    1.0302296   -7.4586337    39.252733  0.025756387  0.028067495            1 
  128000    1.0590062   -7.4379804    39.594577  0.025777719  0.028002974            2 
  129000    1.0586927   -7.4168147    39.867829  0.025754411  0.027936897            2 
  130000    1.0475291   -7.4253218    39.999106  0.025640453  0.027867082            1 
  131000    1.0597053   -7.4772386    40.045512  0.025474244  0.027793426            2 
  132000    1.0765782   -7.4592055     40.33996  0.025467146  0.027722221            2 
  133000     1.052253   -7.4609838    40.565033  0.025416688  0.027649794            2 
  134000    1.0759275   -7.4819365    40.819322   0.02538515  0.027578579            2 
  135000    1.0399539   -7.4873165    41.022716  0.025322664  0.027508729            1 
  136000    1.0638236   -7.4666243    41.447181  0.025396557  0.027440824            1 
  137000    1.0589624   -7.4543324    41.716482  0.025374989   0.02737489            3 
  138000    1.0426777   -7.4617884    41.907219  0.025306292  0.027310328            4 
  139000    1.0549059   -7.5080662    42.198969  0.025299142  0.027246015            2 
  140000    1.0269627   -7.4997256    42.252911  0.025150542  0.027179367            2 
  141000    1.0434377   -7.5270829    42.497195  0.025116545   0.02711312            3 
  142000    1.0498461   -7.4899258    42.691437   0.02505366  0.027045552            3 
  143000     1.040333   -7.5308767    42.810794  0.024948015  0.026974044            2 
  144000    1.0468735   -7.5172168    43.242922  0.025024839  0.026906344            1 
  145000     1.025139   -7.5053834    43.378856  0.024930377  0.026838127            2 
  146000    1.0541959   -7.5292894    43.526281  0.024843767  0.026769292            3 
  147000    1.0282091   -7.5213359    43.887763  0.024879684  0.026700996            3 
  148000    1.0202576    -7.517603    44.212436  0.024894389  0.026634877            1 
  149000    1.0398903    -7.504267    44.570294  0.024927457  0.026571059            1 
  150000    1.0435387   -7.5382212    44.625259   0.02479181    0.0265053            2 
  151000    1.0233306   -7.5166928    44.812811  0.024731132  0.026441643            1 
  152000    1.0289745   -7.5265994    45.054801  0.024701097  0.026378733            1 
  153000    1.0162585   -7.4932783    45.446818  0.024753169  0.026317814            3 
  154000    0.9918665   -7.5218297    45.653149  0.024704085  0.026259804            2 
  155000    1.0042571   -7.5369407    45.761798  0.024603117  0.026200721            2 
  156000   0.99999478   -7.5853347    46.086055  0.024618619  0.026141359            1 
  157000    1.0207502   -7.5529949      46.2701  0.024559501  0.026083387            1 
  158000    1.0127258   -7.5229279    46.504947  0.024527925  0.026024487            1 
  159000   0.99302007   -7.5438737    46.711663  0.024482004  0.025966078            2 
  160000    1.0107731   -7.5516594    47.114202  0.024538647  0.025909246            2 
  161000    1.0069999   -7.5504844    47.381118  0.024524388  0.025853603            3 
  162000    1.0117257   -7.5752201    47.509114  0.024438845  0.025799492            1 
  163000   0.99353185    -7.608334    47.543394  0.024306439  0.025744005            2 
  164000    1.0039448   -7.5768897    47.984903  0.024382573  0.025686871            1 
  165000    1.0170224   -7.5500433    48.385685  0.024437215    0.0256322            1 
  166000    1.0027914    -7.581785    48.509451  0.024352134  0.025579359            1 
  167000    1.0175803   -7.5449832    48.692415  0.024297612  0.025526017            2 
  168000   0.98184534   -7.6028949    48.671381   0.02414255  0.025471491            3 
  169000    1.0207549   -7.6001581    48.781852  0.024054168  0.025414379            2 
  170000   0.99827352   -7.6266879    48.776414  0.023910007   0.02535423            2 
  171000   0.99159276   -7.6131659    48.881053  0.023821176  0.025292075            1 
  172000   0.98116792   -7.6330229    49.260909  0.023866719  0.025231396            3 
  173000   0.97810272   -7.6155839    49.585426   0.02388508  0.025172396            4 
  174000    0.9878154   -7.6014029    49.929884  0.023912779  0.025114311            2 
  175000    0.9816017   -7.6429722    49.941183  0.023781516  0.025056783            2 
  176000    1.0043913   -7.6448215    50.033455  0.023690083  0.024998255            2 
  177000   0.95920094   -7.6142936    50.356636  0.023708397  0.024940405            1 
  178000   0.97397684   -7.6771827    50.483238  0.023634475  0.024881811            1 
  179000   0.95488701   -7.6657843    50.542549  0.023530051  0.024823476            3 
  180000   0.98011689   -7.6791951    50.856537  0.023544693  0.024764501            2 
  181000   0.98801633   -7.6239283    51.094718  0.023524271  0.024705598            2 
  182000    1.0033823    -7.646445     51.28018  0.023479936  0.024648757            3 
  183000   0.98446528   -7.6498988    51.430468  0.023420067  0.024591245            2 
  184000   0.98288262   -7.6311462    51.909763  0.023509856  0.024533957            2 
  185000    0.9636985   -7.7004924    51.739805  0.023306218  0.024477095            1 
  186000    1.0084699   -7.6498084    51.893245  0.023249662  0.024419236            2 
  187000    0.9788911   -7.6578271    52.178824  0.023252595  0.024360288            3 
  188000   0.96570047   -7.6988987    52.250971  0.023160891  0.024303956            3 
  189000    0.9790804   -7.6927527     52.46556  0.023132963    0.0242471            1 
  190000   0.96666064   -7.6669923    52.534762  0.023041562  0.024188796            1 
  191000   0.96353021    -7.685423     52.77484  0.023025672  0.024129627            2 
  192000   0.97419002   -7.6755582    52.819264  0.022925028  0.024070641            3 
  193000   0.97063346   -7.6763195    53.159673  0.022953226  0.024011375            1 
  194000   0.94344413   -7.6837542    53.039221   0.02278317  0.023951635            1 
  195000   0.96612355   -7.7087446    53.287559  0.022772461  0.023892536            1 
  196000   0.92547729   -7.7043303    53.364666  0.022689059  0.023830629            4 
  197000   0.95585317   -7.6921262    53.567573  0.022659718  0.023769804            1 
  198000    0.9701232   -7.7118514    53.911569  0.022690054  0.023709681            2 
  199000   0.95404364   -7.7042688    53.766775    0.0225154  0.023649491            3 
  200000   0.95316465   -7.6935217    54.035762  0.022514901  0.023589003            1 
  201000   0.93976019   -7.7264475     54.29831  0.022511737  0.023529122            3 
  202000   0.95764426   -7.7175952    54.519171  0.022491407  0.023471785            2 
  203000   0.93962338   -7.7570654    54.971929  0.022566473  0.023415626            1 
  204000   0.92044224   -7.7109146    54.957325  0.022449887  0.023360166            3 
  205000   0.92868958   -7.7306947    55.289876  0.022475559  0.023305674            1 
  206000   0.93217911   -7.7489089    55.301774  0.022371268  0.023252601            2 
  207000   0.94798509    -7.757961    55.479469   0.02233473  0.023197865            2 
  208000   0.95728181   -7.7771832    55.338164  0.022170739  0.023141416            3 
  209000   0.92720299   -7.7509734    55.731122   0.02222134    0.0230852            3 
  210000   0.92142276   -7.7557064    55.746845  0.022121764  0.023029383            3 
  211000    0.9100238   -7.7786374    55.777843  0.022029164  0.022972488            3 
  212000   0.92091826   -7.7644848    56.175335    0.0220815   0.02291596            2 
  213000   0.92695991   -7.7858186    56.039297  0.021924608  0.022857481            1 
  214000   0.91526454   -7.7776392    56.180504  0.021877143  0.022799013            1 
  215000   0.93563854   -7.7712088     56.38039  0.021852864  0.022741654            2 
  216000   0.91404702   -7.7999316    56.526555  0.021808084  0.022683798            2 
  217000    0.9179032    -7.789128    56.440042  0.021674363  0.022624689            2 
  218000   0.90571471   -7.7947712    56.754546  0.021695163  0.022565611            2 
  219000    0.9214284   -7.7763721    56.719863  0.021582901  0.022506278            3 
  220000   0.90156575    -7.761059    56.807358  0.021517938  0.022446747            2 
  221000   0.92724266    -7.805953    56.820245  0.021425432  0.022386616            2 
  222000   0.89975815   -7.8205214    56.993154  0.021393826  0.022325785            2 
  223000   0.91247642   -7.8188938    57.179197  0.021367413  0.022264591            2 
  224000   0.90324266   -7.8347637    57.169041  0.021268244  0.022204058            2 
  225000   0.90529565   -7.8256715    57.436196  0.021272665  0.022143178            1 
  226000   0.90588451   -7.8154864    57.399869  0.021165143  0.022082789            2 
  227000   0.91274468   -7.8282362    57.409469  0.021075429   0.02202109            2 
  228000   0.92499611   -7.8458684    57.578401  0.021044737  0.021959142            2 
  229000    0.9169952   -7.8501788    57.449331   0.02090587  0.021896129            6 
  230000   0.89853651   -7.8884802    57.369951  0.020786214  0.021832296            1 
  231000   0.91657806   -7.8231176    57.805505  0.020853357   0.02176954            1 
  232000   0.87229513   -7.8637203    57.725728  0.020734816  0.021706602            3 
  233000   0.90015704   -7.8498391    57.966355  0.020731886  0.021643826            8 
  234000   0.90066257   -7.8822523     57.92711  0.020629313  0.021579905            2 
  235000   0.90257888   -7.8892641    58.117286  0.020608967  0.021515943            1 
  236000    0.8980635   -7.9060063    57.973514  0.020470874  0.021452428            3 
  237000   0.90161887   -7.9077175    58.050863  0.020411696  0.021388431            2 
  238000   0.88939093    -7.868744    58.425595  0.020457141  0.021325497            2 
  239000   0.87644692   -7.8807823    58.452551  0.020380945  0.021262773            2 
  240000   0.88871314   -7.9019684    58.477556  0.020304707  0.021199413            1 
  241000   0.88118268   -7.9105263    58.662265  0.020284324  0.021136273            1 
  242000   0.88602531   -7.9011585    58.642106  0.020193563  0.021073925            2 
  243000   0.90447587   -7.9024057    58.864612  0.020186767  0.021011497            2 
  244000   0.85705838   -7.8990734    59.015583  0.020155595  0.020949755            1 
  245000   0.87699752   -7.9395201    58.974949  0.020059507  0.020888588            1 
  246000   0.88005898   -7.9426005    59.145768  0.020035829  0.020827341            2 
  247000    0.8725677   -7.9087358     59.41832  0.020046667  0.020766618            3 
  248000   0.86615568   -7.9189909    59.252798  0.019910214  0.020705275            1 
  249000   0.88005118   -7.9344256    59.370779  0.019869739  0.020643521            5 
  250000   0.85315022   -7.8987282    59.668311  0.019889437   0.02058157            1 
  251000   0.85368768   -7.9640711    59.358009  0.019707174  0.020519876            2 
  252000   0.83789121    -7.936258    59.464531  0.019664197  0.020457669            6 
  253000   0.85164806   -7.9104435    59.469394  0.019588074  0.020395326            1 
  254000   0.88951368   -7.9433337      59.7735  0.019610728  0.020332968            3 
  255000   0.87687336   -7.9716852    59.488256  0.019440607  0.020270834            2 
  256000   0.84999568   -7.9529346     59.81029  0.019469495  0.020208673            2 
  257000   0.86128678   -7.9550387    59.995359  0.019453748  0.020147208            1 
  258000   0.83874951   -7.9628349    59.737134   0.01929494  0.020084977            1 
  259000   0.85271475   -7.9473003     59.76049  0.019227957  0.020021969            1 
  260000   0.85936409   -7.9947549    59.695306  0.019133111  0.019958713            3 
  261000   0.84071188   -7.9593063    59.779332  0.019086632   0.01989493            1 
  262000   0.83734438    -7.970079     59.98593  0.019079494  0.019831187            4 
  263000   0.84564737   -7.9818366    60.069637  0.019033472   0.01976785            3 
  264000   0.83659738   -7.9789707    59.995857  0.018938086  0.019704627            5 
  265000   0.84147205   -8.0180948    60.276894  0.018954998  0.019642593            2 
  266000   0.86417822   -8.0013632    60.309209  0.018893863   0.01958059            2 
  267000   0.83253816   -8.0074472    60.349521  0.018835681  0.019518145            3 
  268000   0.83124723   -7.9822171     60.46991  0.018802833  0.019456409            2 
  269000   0.84619424   -7.9928265      60.4894  0.018738971  0.019394594            2 
  270000    0.8347437   -8.0233206    60.430104  0.018651267  0.019332495            2 
  271000   0.82916173   -8.0309172    60.372848  0.018564836  0.019270352            3 
  272000   0.83985007   -8.0471171    60.282051  0.018468765  0.019207303            3 
  273000   0.83481245   -8.0672693    60.377032  0.018430108  0.019144476            4 
  274000   0.83970252   -8.0089824    60.666107  0.018450762  0.019082084            5 
  275000   0.84884671   -8.0381867    60.674482  0.018386206  0.019019707            3 
  276000   0.85214214    -8.052947    60.879782  0.018381577  0.018958345            3 
  277000   0.82656495   -8.0526399    60.823063  0.018298154  0.018896735            2 
  278000   0.82266682   -8.0432386    60.649558  0.018180323  0.018834877            2 
  279000   0.83732743    -8.046848    60.781711  0.018154633  0.018772905            2 
  280000   0.81909365   -8.0458029     60.72423  0.018072687  0.018710922            2 
  281000   0.83534594    -8.065936    60.714854  0.018005591   0.01864831            2 
  282000   0.82187303   -8.0885973    60.681387  0.017931852  0.018586122            1 
  283000   0.84590672   -8.0790224    60.788235  0.017899951  0.018523957            1 
  284000   0.82496103   -8.1021297    60.663679  0.017800375  0.018461692            3 
  285000   0.85786588   -8.1301842    60.806669  0.017779728  0.018399455            2 
  286000   0.78816599   -8.1021973     60.86626  0.017734924  0.018336929            3 
  287000   0.81756483   -8.0370337    60.978011  0.017705578  0.018274643            7 
  288000   0.81434919   -8.1109309    60.930616  0.017630386  0.018212633            3 
  289000   0.79628445   -8.0658139    61.059958  0.017606677  0.018150738            3 
  290000   0.78599917   -8.0937074     61.04846  0.017542661  0.018089676            2 
  291000   0.82705179   -8.0798041    61.107335  0.017499237  0.018028547            1 
  292000    0.8254187   -8.1119128    61.102518  0.017437933  0.017966975            2 
  293000   0.81921569   -8.0900583    60.944947  0.017333603  0.017905272            2 
  294000   0.79267997   -8.1253709    60.972046  0.017282326  0.017843773            1 
  295000   0.80451779   -8.1235776    61.174005  0.017280792  0.017782558            1 
  296000   0.79259483   -8.1500558    61.124888  0.017208583  0.017721464            1 
  297000   0.78509267    -8.143309    61.227313  0.017179381  0.017660418            5 
  298000   0.78608304   -8.1530455    61.475982   0.01719127  0.017600185            2 
  299000   0.78922294    -8.123704     61.37427  0.017105426  0.017540293            2 
  300000   0.80132167   -8.1425622    61.356331  0.017043425  0.017480727            2 
  301000    0.7836499   -8.1478512    61.453318  0.017013654  0.017421497            1 
  302000   0.79898584   -8.1631341    61.518228  0.016975228  0.017362225            1 
  303000     0.788306   -8.1545162    61.552753    0.0169287  0.017303085            2 
  304000   0.78547629   -8.1829409    61.547911  0.016871686  0.017244035            3 
  305000   0.78164219   -8.1808416     61.55278  0.016817699  0.017185017            2 
  306000    0.7805646   -8.1568621    61.600104  0.016775627   0.01712601            2 
  307000   0.76833796   -8.1789189    61.519069  0.016698987  0.017067397            2 
  308000    0.7648994   -8.2066134    61.319142  0.016590677  0.017008297            2 
  309000   0.78167873   -8.1821299    61.491243  0.016583399  0.016949249            3 
  310000   0.77719085   -8.1913297    61.578038  0.016553236  0.016890612            2 
  311000   0.77101409   -8.2189967     61.45077  0.016465908  0.016831591            1 
  312000   0.77055947     -8.21879    61.560222  0.016442367   0.01677249            4 
  313000   0.76419044   -8.2060154     61.45311  0.016361318  0.016714057            2 
  314000   0.77005139   -8.2204172    61.635451  0.016357604  0.016655704            2 
  315000   0.76681225   -8.2227271    61.630195  0.016304284  0.016597669            1 
  316000   0.75556299   -8.2078436    61.737616  0.016281017  0.016539968            4 
  317000   0.77208668   -8.2395626    61.696992  0.016218978  0.016482521            3 
  318000   0.75061989   -8.2145188    61.788768  0.016192025  0.016425398            1 
  319000   0.76186948   -8.2038915    61.777026  0.016138199  0.016368359            2 
  320000   0.74618603   -8.2073167     61.88716  0.016116448   0.01631197            3 
  321000    0.7572371   -8.2088263    61.778105   0.01603793  0.016255433            2 
  322000   0.75813888   -8.2207749     61.84529   0.01600551    0.0161992            5 
  323000   0.75675369   -8.2055541    61.864308  0.015960864  0.016143251            3 
  324000   0.75614982   -8.2462424    61.776833  0.015889103  0.016087254            5 
  325000    0.7657054    -8.236521    61.809753  0.015848655  0.016030972            4 
  326000   0.75267368   -8.2364712    61.850993  0.015810581  0.015974895            3 
  327000   0.73826022     -8.25661    61.900494  0.015774846  0.015918988            2 
  328000   0.74388802   -8.2609426    61.893526  0.015724981  0.015863338            3 
  329000   0.73405772   -8.2568546    62.047845  0.015716273  0.015808224            3 
  330000     0.742884   -8.2588931    62.015462   0.01566047   0.01575327            1 
  331000     0.729187   -8.2911421    61.906123   0.01558563  0.015698575            3 
  332000   0.73138742   -8.2734454    61.982904  0.015557958  0.015644079            1 
  333000   0.73307777   -8.2521742    62.114216  0.015544098  0.015589886            2 
  334000   0.74811682   -8.2617077    62.179844  0.015513933  0.015535904            2 
  335000   0.74345239   -8.2761559    62.263708  0.015488485  0.015482192            3 
  336000    0.7218513   -8.2902196    62.304406  0.015452482  0.015429082            2 
  337000   0.73165159    -8.317289    62.167949  0.015372885  0.015375837            2 
  338000   0.72438828   -8.2618432    62.070038  0.015303264   0.01532292            3 
  339000     0.718936   -8.3107999     62.15507  0.015279024  0.015269881            1 
  340000     0.718907   -8.2920873    62.234918  0.015253656   0.01521712            2 
  341000   0.73413689    -8.334426    62.245167  0.015211429  0.015164589            1 
  342000    0.7038146   -8.3133472    62.186721   0.01515271   0.01511207            2 
  343000    0.7126276   -8.3354298    62.314759   0.01513964  0.015059795            2 
  344000   0.72071765   -8.3457671    62.395251  0.015115129  0.015008184            2 
  345000   0.72008785   -8.3249997    62.326387  0.015054683  0.014956645            4 
  346000   0.70918779   -8.3359722    62.391409  0.015026833  0.014905519            2 
  347000   0.69547714   -8.3587459    62.405615  0.014986939  0.014854571            1 
  348000   0.70524354   -8.3433793    62.399495  0.014942408  0.014803955            5 
  349000   0.72137598   -8.3330963    62.478749  0.014918517  0.014753366            2 
  350000   0.69931843   -8.3639077    62.395893  0.014856165  0.014703012            2 
  351000   0.71747562   -8.3820802    62.440502  0.014824431  0.014652601            3 
  352000   0.71053494    -8.379149    62.517066  0.014800442   0.01460246            2 
  353000   0.70517958   -8.3756517    62.364453  0.014722487   0.01455243            2 
  354000   0.68776119    -8.366847    62.391085  0.014687167  0.014502426            5 
  355000   0.69527153   -8.3899392    62.417935  0.014652097  0.014452565            2 
  356000   0.68900965   -8.3690929    62.364306  0.014598386  0.014402621            1 
  357000   0.70749092    -8.385824    62.472483  0.014582746  0.014352932            1 
  358000   0.68995614   -8.3907028    62.426008  0.014531194  0.014303434            2 
  359000   0.68874738   -8.3922105     62.21921  0.014442714  0.014253604            3 
  360000   0.70455651   -8.4110484    62.423599  0.014449907  0.014203954            1 
  361000   0.68047127   -8.4137292    62.294641  0.014380111  0.014154533            3 
  362000   0.69019854   -8.4192821    62.316531  0.014345426  0.014105084            1 
  363000   0.69682521   -8.4199753    62.296759  0.014301368   0.01405579            1 
  364000   0.68474647   -8.4005321     62.36405  0.014277484  0.014006886            2 
  365000   0.68529598   -8.4215753    62.387447  0.014243709  0.013957726            2 
  366000    0.6784643   -8.3872177    62.391576  0.014205732  0.013909011            3 
  367000   0.67593204   -8.4315856    62.254225  0.014135837  0.013860206            1 
  368000   0.68098761   -8.4270754    62.255307  0.014097669  0.013811678            2 
  369000   0.67486108   -8.4269632    62.235456  0.014054981  0.013762988            1 
  370000   0.67627587   -8.4480384    62.122953  0.013991656   0.01371449            2 
  371000   0.69077843   -8.4285134    62.258528  0.013984395  0.013665981            2 
  372000   0.67003199   -8.4544096    62.252974  0.013945559  0.013617962            2 
  373000   0.66094235   -8.4635077    62.235278  0.013904218  0.013570121            2 
  374000   0.67899321   -8.4536902    62.272455  0.013875324  0.013522434            1 
  375000   0.66343013   -8.4646654    62.387116  0.013863804  0.013474937            1 
  376000   0.66368158   -8.4651495    62.332301  0.013814783  0.013427731            1 
  377000    0.6764749   -8.4731638    62.235361  0.013756711  0.013380704            2 
  378000   0.67406306   -8.4879581    62.242473  0.013721885  0.013333709            2 
  379000   0.66000839   -8.4805427     62.30172  0.013698707  0.013286944            4 
  380000   0.64788088    -8.474542    62.305176  0.013663416  0.013240346            1 
  381000   0.66351362   -8.4622846    62.288358  0.013623875  0.013193818            3 
  382000   0.64219854   -8.4891426    62.343052  0.013600142  0.013147553            1 
  383000   0.66514352   -8.4512242    62.429341  0.013583407   0.01310157            1 
  384000   0.66125008    -8.506084     62.26933  0.013513309  0.013055732            2 
  385000   0.65020766   -8.4990577    62.315436   0.01348819  0.013010019            4 
  386000   0.65918634   -8.4947239    62.388152  0.013468945   0.01296451            2 
  387000    0.6492932   -8.5014048    62.320521  0.013419578  0.012919309            1 
  388000    0.6559744   -8.5045119    62.301953  0.013381004   0.01287402            6 
  389000   0.64750757   -8.5103616    62.377185  0.013362722  0.012828859            1 
  390000    0.6515692   -8.5085599    62.212139  0.013293192  0.012783875            2 
  391000   0.63503598   -8.5214729    62.167364  0.013249651   0.01273898            3 
  392000    0.6285259   -8.5211814    62.190267   0.01322072  0.012694129            5 
  393000   0.64245129   -8.4955063    62.131926  0.013174709  0.012649525            1 
  394000   0.63835677    -8.538986    62.216233  0.013159102  0.012605041            2 
  395000   0.64334527   -8.5300275    62.200145  0.013122393  0.012560638            2 
  396000      0.62234   -8.5212526     62.13402  0.013075341  0.012516451            2 
  397000   0.63455299   -8.5431229    62.241781  0.013065025  0.012472542            1 
  398000   0.63456659   -8.5449707    62.169089  0.013016978  0.012428808            2 
  399000   0.62637567    -8.540401     62.21998  0.012994983  0.012385185            1 
  400000   0.63537763   -8.5675484    62.085264   0.01293443  0.012341755            2 
  401000   0.62422858   -8.5468444    62.201466  0.012926323  0.012298468            2 
  402000   0.62808432    -8.556568    62.155394  0.012884617  0.012255444            2 
  403000   0.63325751   -8.5500609    62.112922  0.012843863   0.01221259            4 
  404000   0.63816784   -8.5793793    62.097527  0.012808896  0.012169727            3 
  405000   0.61632624   -8.5566217    62.058601  0.012769259  0.012126935            2 
  406000   0.62238156   -8.5508759    62.100555  0.012746419  0.012084406            2 
  407000    0.6239797   -8.5736654    62.030957  0.012700851  0.012042075            3 
  408000   0.59996728   -8.5792545    62.098381  0.012683493  0.011999849            7 
  409000   0.61793956   -8.5828442    62.134658  0.012659873   0.01195792            5 
  410000   0.60578193   -8.5626735    62.119178  0.012625849  0.011916227            3 
  411000   0.59401002   -8.5810967    62.063921  0.012583926  0.011874702            1 
  412000   0.61348898   -8.5661968    62.159212  0.012572656  0.011833441            2 
  413000   0.60650741   -8.5899852    62.161946  0.012542766  0.011792197            1 
  414000   0.60458296   -8.5811838    62.244668   0.01252912  0.011751122            3 
  415000   0.60890737   -8.5875986    62.080555  0.012465975  0.011710247            3 
  416000   0.60187865   -8.5884007    62.084108   0.01243672  0.011669495            2 
  417000   0.61566511   -8.5849553    62.117991  0.012413667  0.011628875            1 
  418000   0.60843243   -8.5935726    62.252102  0.012410706  0.011588462            2 
  419000   0.60263665   -8.6153301    62.060567  0.012342993  0.011548118            2 
  420000   0.59258272   -8.6118737    62.133323   0.01232804  0.011507803            3 
  421000   0.59705662   -8.6117219    62.072793  0.012286776  0.011467731            4 
  422000   0.59028669   -8.6153182    61.977977  0.012238937  0.011427715            2 
  423000   0.59027072   -8.6292503    61.978099  0.012210027  0.011387878            1 
  424000   0.59910111   -8.6241654    61.961102   0.01217789  0.011348134            4 
  425000   0.57858026   -8.6230967    61.898627  0.012136986  0.011308526            8 
  426000   0.59194357   -8.6250415    61.986141  0.012125615  0.011269218            3 
  427000   0.59238261    -8.628288     61.98834  0.012097646  0.011230011            2 
  428000   0.58548754    -8.622956    61.956181  0.012063119  0.011190849            1 
  429000   0.59050255   -8.6576235    61.911828  0.012026385  0.011151979            2 
  430000   0.58695296   -8.6439519    61.975044  0.012010667  0.011113187            1 
  431000   0.57913316   -8.6195749    61.922224  0.011972588  0.011074532            2 
  432000   0.57175721   -8.6503519    62.093944  0.011977998  0.011036132            5 
  433000   0.57183143   -8.6485012    61.962223  0.011924985  0.010997841            2 
  434000   0.56775083   -8.6505506    61.919455  0.011889296  0.010959699            3 
  435000   0.57934771   -8.6639684    61.853519  0.011849333  0.010921642            3 
  436000   0.57810108   -8.6574263    61.910286  0.011833006   0.01088378            3 
  437000    0.5596085   -8.6683215    61.927006  0.011809116  0.010846047            2 
  438000   0.56590766   -8.6886175    61.950863  0.011786694   0.01080848            1 
  439000   0.56324376   -8.6571033    61.812103  0.011733505  0.010771081            1 
  440000   0.57994941   -8.6532852    61.984751  0.011739536  0.010733793            1 
  441000    0.5617895   -8.6841068    61.820582  0.011681894  0.010696686            2 
  442000   0.56138665   -8.6684601    61.876629  0.011666031  0.010659731            1 
  443000   0.56183812   -8.6758744    61.825249  0.011630032  0.010623012            2 
  444000   0.54567861   -8.6629472    61.819879   0.01160283  0.010586364            1 
  445000   0.55521254   -8.6965282    61.853621  0.011583075  0.010549877            1 
  446000   0.55552398   -8.6629161    61.966295  0.011578157  0.010513503            3 
  447000   0.54755659   -8.6842363    61.853252   0.01153118  0.010477284            1 
  448000    0.5584879   -8.6922675    61.751946  0.011486597  0.010441163            1 
  449000   0.53730143   -8.7004321    61.790463  0.011468163  0.010405147            2 
  450000   0.54190987   -8.6868431    61.917899  0.011466278   0.01036935            2 
  451000   0.54798955   -8.7024586    61.801157  0.011419283  0.010333644            3 
  452000    0.5413579   -8.6948542    61.912539  0.011414554  0.010298103            2 
  453000   0.54868689   -8.7306274    61.680114  0.011346599  0.010262661            3 
  454000   0.53909738   -8.7145372    61.823489  0.011347924  0.010227388            1 
  455000   0.53630207   -8.6991907    61.734673  0.011306717  0.010192247            1 
  456000   0.53612128    -8.726169    61.770386  0.011288448  0.010157279            2 
  457000   0.54226779   -8.7093276    61.775074  0.011264601  0.010122398            3 
  458000    0.5394859    -8.716353    61.724974   0.01123089    0.0100876            1 
  459000   0.54242307   -8.7295221    61.687407  0.011199602  0.010052974            2 
  460000   0.52900095   -8.7293333    61.713439  0.011179971  0.010018428            2 
  461000   0.52742168   -8.7447607    61.696695  0.011152692 0.0099840984            1 
  462000   0.52108046   -8.7327714    61.694602  0.011128175 0.0099499074            1 
  463000   0.51779987   -8.7270537    61.680669  0.011101632 0.0099158656            1 
  464000   0.52529587   -8.7328079    61.678884  0.011077386  0.009881964            2 
  465000   0.52378096   -8.7267423    61.647624  0.011047961 0.0098481681            2 
  466000   0.51994276   -8.7350459    61.625339  0.011020268 0.0098145438            2 
  467000   0.53098725    -8.742929    61.672985  0.011005172  0.009781052            2 
  468000     0.522283   -8.7417507    61.626905  0.010973452 0.0097477363            2 
  469000   0.51390537   -8.7807087    61.571315  0.010940177 0.0097145983            1 
  470000   0.51212385   -8.7523459    61.651555  0.010931127 0.0096815351            2 
  471000   0.51296382   -8.7644542    61.591692  0.010897327 0.0096485848            4 
  472000    0.5229669   -8.7648802    61.553915   0.01086757 0.0096157363            1 
  473000   0.50235803   -8.7653848    61.646335  0.010860876 0.0095830224            1 
  474000   0.51183025   -8.7686151    61.511432  0.010814246 0.0095504489            3 
  475000   0.51167436   -8.7727662    61.628432  0.010812006 0.0095179945            2 
  476000   0.50306521   -8.7701188    61.576539  0.010780206 0.0094856692            2 
  477000   0.50736915   -8.7853506    61.568377   0.01075618 0.0094535211            1 
  478000   0.49843638   -8.7922474     61.50167  0.010722048 0.0094214959            2 
  479000   0.51111638   -8.7948601    61.420582  0.010685557 0.0093895707            2 
  480000   0.50863468   -8.8021271    61.496125  0.010676411 0.0093577578            1 
  481000    0.4965693   -8.7938097    61.345003  0.010628032 0.0093261281            3 
  482000   0.50128065   -8.8037724    61.525319  0.010637157 0.0092946269            1 
  483000   0.49517999   -8.7796233    61.502934  0.010611272 0.0092632935            2 
  484000   0.50438575   -8.7855533    61.491614  0.010587399 0.0092320806            1 
  485000    0.4873092   -8.8016593    61.452959  0.010558928 0.0092009865            1 
  486000   0.49385179   -8.8119438    61.529084  0.010550255 0.0091699571            2 
  487000   0.48151257   -8.8014074    61.425516  0.010510869 0.0091390993            2 
  488000   0.49024935   -8.7948442    61.393772  0.010483909  0.009108396            3 
  489000   0.47509702   -8.8091175    61.452829  0.010472534  0.009077809            2 
  490000   0.48151121   -8.7992958    61.409402  0.010443776 0.0090473388            1 
  491000   0.49003138   -8.7957574    61.474985  0.010433636 0.0090170955            2 
  492000   0.47818643   -8.8092135    61.411751  0.010401719  0.008986906            2 
  493000   0.48744178   -8.8022604    61.476678  0.010391595   0.00895689            1 
  494000   0.47170355   -8.8177616    61.443158  0.010364905 0.0089269808            2 
  495000   0.48668258   -8.8235685    61.324243  0.010323947 0.0088971901            2 
  496000   0.47430557    -8.807487    61.380252  0.010312542 0.0088675348            1 
  497000   0.47596834   -8.8252802    61.442725  0.010302268 0.0088380334            1 
  498000    0.4705056   -8.8240941    61.333189  0.010263251 0.0088086153            2 
  499000   0.46302957   -8.8269855    61.423995  0.010257848 0.0087793477            1 
  500000   0.47871967   -8.8206515    61.392858  0.010232143  0.008750218            4 
  501000   0.47069975    -8.860987     61.40849   0.01021432  0.008721205            2 
  502000    0.4710849   -8.8396491    61.423778   0.01019651 0.0086923234            1 
  503000   0.46900285   -8.8349588    61.399219   0.01017217 0.0086635947            1 
  504000    0.4724909   -8.8502274    61.386283  0.010149848 0.0086349548            1 
  505000   0.46061014    -8.840778    61.420628  0.010135417 0.0086064559            1 
  506000   0.45477237    -8.843554     61.33121   0.01010066 0.0085780439            1 
  507000   0.45310399   -8.8538113     61.41908  0.010095181 0.0085497602            1 
  508000   0.45692479   -8.8446281    61.294678  0.010054901 0.0085215585            2 
  509000   0.45879824   -8.8701338    61.240344  0.010026252 0.0084935308            3 
  510000   0.45370795   -8.8609466     61.35582  0.010025461 0.0084656089            2 
  511000   0.46347269   -8.8569047    61.373418  0.010008711 0.0084378071            1 
  512000   0.45780743   -8.8668645    61.300754 0.0099773363 0.0084101324            1 
Loop time of 1215.48 on 48 procs for 500000 steps with 4000 atoms

Performance: 71083.209 tau/day, 411.361 timesteps/s
99.4% CPU use with 48 MPI tasks x no OpenMP threads

MPI task timing breakdown:
Section |  min time  |  avg time  |  max time  |%varavg| %total
---------------------------------------------------------------
Pair    | 78.616     | 83.488     | 88.491     |  29.1 |  6.87
Neigh   | 8.0459     | 8.3764     | 8.681      |   5.9 |  0.69
Comm    | 77.252     | 82.475     | 87.911     |  33.9 |  6.79
Output  | 0.8455     | 0.84603    | 0.85532    |   0.1 |  0.07
Modify  | 1025.9     | 1029       | 1031.8     |   4.4 | 84.66
Other   |            | 11.27      |            |       |  0.93

Nlocal:        83.3333 ave          90 max          75 min
Histogram: 2 0 5 2 10 4 12 5 6 2
Nghost:        2130.73 ave        2145 max        2117 min
Histogram: 2 2 7 7 5 10 6 5 2 2
Neighs:        14064.7 ave       15211 max       12198 min
Histogram: 2 1 3 3 2 11 5 11 6 4
FullNghs:      28129.8 ave       30475 max       25092 min
Histogram: 2 0 5 2 11 4 12 5 4 3

Total # of neighbors = 1350232
Ave neighs/atom = 337.55800
Neighbor list builds = 26729
Dangerous builds = 0

#clear
#
#next RN
#
#jump SELF
Total wall time: 0:20:18
