
units lj                  # Use reduced LJ style units
atom_style atomic         # Uncharged point particles
atom_modify map hash      # Needed for indexing of clusters etc
                          # Used to be able to find where atoms are in relation to each other.

lattice fcc 1.0 spacing 1 1 1
Lattice spacing in x,y,z = 1.5874011 1.5874011 1.5874011
region box block 0 10 0 10 0 10 units lattice
create_box 2 box
Created orthogonal box = (0.0000000 0.0000000 0.0000000) to (15.874011 15.874011 15.874011)
  3 by 4 by 4 MPI processor grid
create_atoms 1 box
Created 4000 atoms
  using lattice units in orthogonal box = (0.0000000 0.0000000 0.0000000) to (15.874011 15.874011 15.874011)
  create_atoms CPU = 0.002 seconds
set type 1 type/fraction 2 0.82 78393
Setting atom values ...
  3266 settings made for type/fraction
mass 1 1.0
mass 2 1.0
pair_style lj/cut  3.5
pair_modify tail  yes
pair_coeff 1  1  1.0  1.0   # Intearaction between 1 and 1 set with epsilon = 1 and sigma = 1
pair_coeff 1  2  1.5  0.8
pair_coeff 2  2  0.5  0.88

write_data data.0
System init for write_data ...
Neighbor list info ...
  update every 1 steps, delay 10 steps, check yes
  max neighbors/atom: 2000, page size: 100000
  master list distance cutoff = 3.8
  ghost atom cutoff = 3.8
  binsize = 1.9, bins = 9 9 9
  1 neighbor lists, perpetual/occasional/extra = 1 0 0
  (1) pair lj/cut, perpetual
      attributes: half, newton on
      pair build: half/bin/atomonly/newton
      stencil: half/bin/3d
      bin: standard
WARNING: Not all mixed pair coeffs generated from mixing. Use write_data with 'pair ij' option to store all pair coeffs. (../write_data.cpp:312)


#############################
#   M E L T   S Y S T E M   #
#############################

velocity all create 2.4 9622624 mom yes dist gaussian # Assign velocities
                                                    # Temperature 2.4, random number seed, zero linear momentum
                                                                                # Gaussian distribution

timestep 0.002   # simulation timestep
thermo 1000       # output thermodynamic data every 1000 steps bf 100

# Define a fix  in this case with index 1 applied to all
# particles in the simulation. This fix is for simulations
# in the anisotropic NPT ensemble. Note that we use the MTK
# correction.
fix 1 all npt temp 2.4 2.4 0.1 iso 5.68 5.68 0.5 mtk yes tchain 5 pchain 5 # Use NPT ensemble
                                                                         # Set temperature and pressure and damping
                                                                         # Numbers of thermostats in chain and in barostat
run 10000          # run for 10000 steps
Per MPI rank memory allocation (min/avg/max) = 3.642 | 3.644 | 3.648 Mbytes
Step Temp E_pair E_mol TotEng Press Volume 
       0          2.4    -3.598932            0 0.00016796869   -3.1561227         4000 
    1000    2.4189885   -2.9100024            0   0.71757325    5.6316671    3828.8203 
    2000    2.4513661   -2.8598685            0   0.81626145    5.8529246    3840.9605 
    3000       2.4204   -2.9176708            0   0.71202153    5.8030183    3797.1742 
    4000    2.3529585   -2.9036305            0   0.62492491    5.3636762    3858.4982 
    5000    2.4157311   -2.8918759            0   0.73081486    5.6834394    3847.3377 
    6000     2.344628   -2.8742549            0    0.6418079    5.6314822    3844.6779 
    7000    2.3651624   -2.8801982            0   0.66665846    5.7086276    3837.7961 
    8000      2.41808   -2.8201711            0   0.80604207    5.9955987    3836.9742 
    9000    2.3710745   -2.9704099            0   0.58531272    5.5968478    3783.6072 
   10000    2.3722309   -2.9160276            0   0.64142924    5.7881819    3798.3076 
Loop time of 2.52483 on 48 procs for 10000 steps with 4000 atoms

Performance: 684401.790 tau/day, 3960.659 timesteps/s
99.6% CPU use with 48 MPI tasks x no OpenMP threads

MPI task timing breakdown:
Section |  min time  |  avg time  |  max time  |%varavg| %total
---------------------------------------------------------------
Pair    | 1.1272     | 1.2008     | 1.2895     |   3.1 | 47.56
Neigh   | 0.20993    | 0.21911    | 0.2312     |   1.0 |  8.68
Comm    | 0.77932    | 0.85278    | 0.94203    |   4.1 | 33.78
Output  | 0.00024232 | 0.00024833 | 0.00032229 |   0.0 |  0.01
Modify  | 0.2096     | 0.23676    | 0.26422    |   2.8 |  9.38
Other   |            | 0.01515    |            |       |  0.60

Nlocal:        83.3333 ave          95 max          72 min
Histogram: 3 3 3 6 8 11 6 3 4 1
Nghost:        1692.90 ave        1724 max        1659 min
Histogram: 4 0 5 7 5 6 12 3 4 2
Neighs:        10045.2 ave       11715 max        8118 min
Histogram: 1 2 4 5 6 14 9 2 2 3

Total # of neighbors = 482168
Ave neighs/atom = 120.54200
Neighbor list builds = 909
Dangerous builds = 230

# Equilibrate just above the melting temperature to avoid step fn in T

fix 1 all npt temp 1.25 1.25 0.1 iso 5.68 5.68 0.5 mtk yes tchain 5 pchain 5
run 2000
Per MPI rank memory allocation (min/avg/max) = 3.644 | 3.645 | 3.649 Mbytes
Step Temp E_pair E_mol TotEng Press Volume 
   10000    2.3722309   -2.9160276            0   0.64142924    5.7881819    3798.3076 
   11000    1.2415866    -4.257069            0   -2.3951547    5.9254897    2942.9057 
   12000    1.2478177   -4.3220258            0   -2.4507672    5.5740192    2934.2309 
Loop time of 0.626302 on 48 procs for 2000 steps with 4000 atoms

Performance: 551810.557 tau/day, 3193.348 timesteps/s
99.6% CPU use with 48 MPI tasks x no OpenMP threads

MPI task timing breakdown:
Section |  min time  |  avg time  |  max time  |%varavg| %total
---------------------------------------------------------------
Pair    | 0.28146    | 0.30611    | 0.33057    |   2.1 | 48.88
Neigh   | 0.040271   | 0.042685   | 0.044643   |   0.5 |  6.82
Comm    | 0.20084    | 0.22891    | 0.25968    |   2.8 | 36.55
Output  | 5.2384e-05 | 5.3715e-05 | 6.9616e-05 |   0.0 |  0.01
Modify  | 0.039769   | 0.043766   | 0.047852   |   1.0 |  6.99
Other   |            | 0.004779   |            |       |  0.76

Nlocal:        83.3333 ave          89 max          72 min
Histogram: 1 0 2 2 5 8 2 14 9 5
Nghost:        2022.79 ave        2051 max        1996 min
Histogram: 1 3 4 6 10 13 4 3 2 2
Neighs:        13019.2 ave       14378 max       10902 min
Histogram: 1 1 1 5 5 7 12 7 6 3

Total # of neighbors = 624922
Ave neighs/atom = 156.23050
Neighbor list builds = 144
Dangerous builds = 13

#############################
# L I N E A R  Q U E N C H  #
#############################

# Define solid atoms. This closely follows ten Wolde  Ruiz-Montero and Frenkel  Faraday Discuss  1996  104  93-110
# Compute components of the per-atom q6 vector
compute q6 all orientorder/atom degrees 1 6 components 6 nnn NULL cutoff 1.3 # compute the Q6 parameter.
                                                                             # Use all neighbours within 1.3 unit cell.

# get number of connections
compute coord_number all coord/atom orientorder q6 0.5

# An atom is solid if it has 8 or more connections (of a possible 14)
variable is_solid atom c_coord_number>=8
group solid dynamic all var is_solid    # Must be dynamic to update
dynamic group solid defined

# do clustering
compute cluster solid cluster/atom 1.3 # Create a cluster where all atoms within are solid and max 1.3 units from another member

# define chunks one chunk per cluster
compute clus_chunks solid chunk/atom c_cluster nchunk every compress yes  # Says which atoms are in which chunk

# count the size of each chunk
compute size_chunks solid property/chunk clus_chunks count


# Find the maximum entry in the vector of chunk sizes
variable max_n equal max(c_size_chunks)


# Thermo style which includes this variable
# thermo_style custom step temp pe vol v_max_n

thermo ${N}  # Print the thermo information every 100 steps
thermo 1000  

# Reset the npt fix at a lower temperature (below freezing)
fix 1  all npt temp  ${temp} ${temp}  0.1  iso  5.68  5.68  0.5  mtk yes tchain  5  pchain  5
fix 1  all npt temp  0.45 ${temp}  0.1  iso  5.68  5.68  0.5  mtk yes tchain  5  pchain  5
fix 1  all npt temp  0.45 0.45  0.1  iso  5.68  5.68  0.5  mtk yes tchain  5  pchain  5

dump dmp2 all dcd ${N} traj.dcd
dump dmp2 all dcd 1000 traj.dcd


compute msd all msd com yes
variable twopoint equal c_msd[4]/6/(step*dt+1.0e-6)
fix 9 all vector 10 c_msd[4]
variable fit equal slope(f_9)/6/(10*dt)
thermo_style custom step temp pe c_msd[4] v_twopoint v_fit v_max_n

fix 1 all npt temp 1.25 ${temp} 0.1 iso 5.68 5.68 0.5 mtk yes tchain 5 pchain 5
fix 1 all npt temp 1.25 0.45 0.1 iso 5.68 5.68 0.5 mtk yes tchain 5 pchain 5
run 500000 # 5000000  # Run for this many steps
Neighbor list info ...
  update every 1 steps, delay 10 steps, check yes
  max neighbors/atom: 2000, page size: 100000
  master list distance cutoff = 3.8
  ghost atom cutoff = 3.8
  binsize = 1.9, bins = 8 8 8
  4 neighbor lists, perpetual/occasional/extra = 1 3 0
  (1) pair lj/cut, perpetual
      attributes: half, newton on
      pair build: half/bin/atomonly/newton
      stencil: half/bin/3d
      bin: standard
  (2) compute orientorder/atom, occasional
      attributes: full, newton on
      pair build: full/bin/atomonly
      stencil: full/bin/3d
      bin: standard
  (3) compute coord/atom, occasional
      attributes: full, newton on
      pair build: full/bin/atomonly
      stencil: full/bin/3d
      bin: standard
  (4) compute cluster/atom, occasional
      attributes: full, newton on
      pair build: full/bin/atomonly
      stencil: full/bin/3d
      bin: standard
Per MPI rank memory allocation (min/avg/max) = 9.833 | 9.839 | 9.847 Mbytes
Step Temp PotEng c_msd[4] v_twopoint v_fit v_max_n 
   12000    1.2478177   -4.3220258 8.3323433e-31 5.7863493e-33 8.3333333e+20            1 
   13000     1.261124   -4.2845652   0.82067277 0.0052607227  0.068139992            2 
   14000    1.2286644   -4.3278697    1.6535284 0.0098424307  0.070130537            3 
   15000    1.2514839   -4.2921514    2.4468428  0.013593571  0.069174045            2 
   16000    1.2507814   -4.3243525    3.3009961  0.017192688   0.06913426            3 
   17000    1.2218573    -4.340456    4.1913116  0.020545645  0.069533735            3 
   18000    1.2363098   -4.3127059    5.1105115  0.023659775  0.070929054            7 
   19000    1.2531677   -4.2936489    5.9115752  0.025927961  0.071247195            2 
   20000    1.2303603   -4.2881291     6.821936  0.028424733  0.071291734            1 
   21000     1.234078   -4.3307205    7.5420442  0.029928746  0.070923752            2 
   22000    1.2178745   -4.3276471    8.3096852   0.03147608  0.070345894            2 
   23000    1.2206094   -4.3354957     9.199703  0.033332256  0.069957948            4 
   24000     1.244561   -4.3182011     10.02335  0.034803298  0.069955267            3 
   25000    1.2199121   -4.3513026    10.752146  0.035840487  0.069710278            2 
   26000    1.2324001   -4.3328689    11.628824  0.037271872  0.069458313            3 
   27000     1.229545   -4.3488791      12.5384  0.038698765  0.069400043            2 
   28000    1.2354982   -4.3579799    13.416828  0.039931035  0.069582062            3 
   29000    1.1884641   -4.3278339    14.360155  0.041264813  0.069785491            1 
   30000    1.2223855   -4.3334798    15.107844  0.041966233  0.069886896            3 
   31000    1.2370083   -4.3579475    15.977688  0.042950772  0.069957187            5 
   32000    1.2055328   -4.3725117    16.797082  0.043742401  0.069955109            4 
   33000    1.2332444   -4.3325606    17.671997  0.044626255  0.069903406            1 
   34000     1.206055   -4.3549958    18.442748  0.045202814  0.069901997            1 
   35000    1.2494751   -4.3377053    19.499739   0.04642795  0.070023822            3 
   36000    1.2056826   -4.3962537    20.321815  0.047041237  0.070185135            3 
   37000    1.2070021   -4.3606568    21.279288  0.047926324  0.070314046            2 
   38000    1.2125354   -4.3772923     21.98917  0.048221864  0.070437346            2 
   39000    1.2103185   -4.3481366    22.796643  0.048710775  0.070480751            4 
   40000    1.1963223   -4.3749016    23.793077  0.049568909  0.070551565            2 
   41000    1.2081288    -4.354973    24.927273  0.050665188  0.070739363            2 
   42000    1.1721604   -4.3675536    25.803577  0.051197572  0.070967083            2 
   43000    1.1824382   -4.3777703    26.397937  0.051158792   0.07106833            3 
   44000    1.1920055   -4.4003667    27.205436  0.051525446   0.07113018            1 
   45000    1.1752655   -4.3864367    27.974495   0.05180462  0.071173721            1 
   46000    1.2068929   -4.3846707    28.682182  0.051960474  0.071133749            1 
   47000    1.2092815   -4.3956902     29.52341  0.052346471  0.071070535            2 
   48000    1.2062882   -4.4199969    30.159697  0.052360585  0.070953854            3 
   49000    1.1861881   -4.4114279    30.814497  0.052405606   0.07084838            2 
   50000    1.1753898   -4.4069148    31.685481  0.052809135   0.07071456            4 
   51000    1.1863954   -4.4089649    32.578417  0.053232706  0.070570131            3 
   52000    1.1852252   -4.4112527    33.057044  0.052976031  0.070404854            2 
   53000    1.2151912   -4.4529435    33.793184  0.053133937  0.070211313            3 
   54000    1.1836529   -4.3904787    35.006183  0.054021887   0.07006951            1 
   55000    1.1570933    -4.422156    35.545624  0.053857006  0.069921842            5 
   56000    1.1702314   -4.3936129    36.223242  0.053903634  0.069729691            1 
   57000    1.1607059   -4.4096379    36.967134  0.054045517  0.069542337            3 
   58000    1.1764172   -4.3928019    37.796019  0.054304624   0.06936383            1 
   59000     1.167983   -4.4238719    38.636771  0.054571709  0.069199248            3 
   60000    1.1676573   -4.4222583    39.154633  0.054381434  0.069042227            2 
   61000    1.1358513   -4.4552172     39.97249  0.054607227  0.068879895            2 
   62000    1.1749907    -4.488865    40.515877  0.054456823  0.068701651            6 
   63000     1.189408   -4.4180983    41.602862   0.05503024  0.068528356            2 
   64000    1.1545629   -4.4149797    42.403883  0.055213388  0.068386005            4 
   65000    1.1352748   -4.4507637    42.913477  0.055017278  0.068248173            3 
   66000    1.1849324   -4.4228451    43.881468  0.055405894  0.068127805            2 
   67000    1.1611354    -4.423097     44.92032  0.055871045  0.068021763            2 
   68000    1.1438869   -4.4129981    45.408918  0.055648183   0.06791941            1 
   69000    1.1462678    -4.498173     45.98566  0.055538237  0.067821426            2 
   70000     1.161131   -4.4648656    46.922279  0.055859855  0.067719923            2 
   71000    1.1707348   -4.4491279    47.690222  0.055974438  0.067620838            2 
   72000    1.1620542   -4.4580097    48.362194  0.055974761  0.067508828            4 
   73000     1.164333   -4.4355674    48.934385   0.05586117  0.067397486            2 
   74000     1.148812   -4.4484344    49.607995  0.055864859   0.06726752            2 
   75000    1.1550843   -4.4781719    50.513065  0.056125628  0.067147188            4 
   76000    1.1325875   -4.4607538    51.351532  0.056306504  0.067045737            3 
   77000    1.1696759   -4.4648396    51.854132   0.05611919  0.066933211            2 
   78000    1.1490588   -4.4488686    52.905164  0.056522611  0.066838262            2 
   79000    1.1404764    -4.459645    53.613434  0.056554255  0.066755779            1 
   80000    1.1240005   -4.4627622    54.563292  0.056836762  0.066679053            2 
   81000    1.1547384   -4.4946767    54.803589  0.056382293  0.066584426            1 
   82000    1.1457211   -4.4949429    55.637151  0.056541819  0.066480946            4 
   83000    1.1344732   -4.4629046    56.332038   0.05655827  0.066369379            3 
   84000    1.1324532   -4.5155021    56.581263  0.056132205   0.06625091            5 
   85000    1.1421368    -4.498542    57.571804  0.056442945  0.066120574            4 
   86000    1.1212398   -4.4813742    58.245813  0.056439741  0.065993398            4 
   87000    1.1372379   -4.4734234    59.095749  0.056605123  0.065883751            3 
   88000    1.1124789   -4.4583591    59.786651  0.056616146  0.065775294            2 
   89000    1.1547086   -4.4921481    60.226611  0.056391957  0.065662203            3 
   90000    1.1325527   -4.4938928    60.880605   0.05637093  0.065538243            2 
   91000    1.1072581    -4.517145    61.392362  0.056220112  0.065409655            3 
   92000    1.1250246   -4.5411502    62.376375  0.056500339  0.065288864            1 
   93000    1.1375691    -4.515723    63.315347  0.056734181   0.06517685            2 
   94000    1.1242011   -4.5237352     63.92565  0.056671675  0.065071545            1 
   95000    1.1248182   -4.5442409    64.733699  0.056783947   0.06498231            4 
   96000    1.1227783   -4.5182445    65.284331  0.056670426   0.06488092            2 
   97000    1.1269248   -4.5381452    65.955027  0.056662394  0.064786542            3 
   98000    1.1075243   -4.5191721     66.80335  0.056805569  0.064711718            3 
   99000      1.12887    -4.537717    67.805686  0.057075493  0.064630471            1 
  100000    1.1196871   -4.5219543    68.125122  0.056770935   0.06454762            3 
  101000    1.0931242   -4.5399783    68.954455  0.056893115  0.064460943            3 
  102000    1.0978823   -4.5339182    69.330267  0.056642374  0.064361179            3 
  103000    1.0987582   -4.5324769    70.162172  0.056765511  0.064250537            3 
  104000    1.1062707   -4.5396591    70.849462  0.056770402  0.064147161            1 
  105000    1.1108309   -4.5366088     71.66452  0.056876603  0.064065082            3 
  106000    1.0878726     -4.53805    72.002721  0.056605912  0.063968956            7 
  107000      1.08623    -4.540357    72.822662  0.056715469  0.063885041            2 
  108000    1.0850786   -4.5628414    73.357844  0.056603275  0.063789788            2 
  109000    1.0681357   -4.5620679    73.943915  0.056532045  0.063694809            5 
  110000     1.096611   -4.5416542    74.550692  0.056477797  0.063588878            2 
  111000    1.0939006   -4.5537094    74.868347  0.056207467  0.063468897            3 
  112000    1.1026269   -4.5651044    75.423933  0.056118998  0.063348116            3 
  113000    1.0929191   -4.5783307    76.141462   0.05615152  0.063232801            2 
  114000     1.098036    -4.603065     76.62141  0.056009802  0.063117091            3 
  115000    1.0773947   -4.5745322    77.084847  0.055858584  0.062999376            2 
  116000    1.0708133   -4.5623319    77.873118  0.055943332  0.062877902            2 
  117000    1.0836203   -4.6109041    78.457405  0.055881342  0.062758972            5 
  118000    1.0967111   -4.6081733    78.790713  0.055643158  0.062642555            2 
  119000    1.0524585   -4.5849217    79.951428  0.055988395  0.062525226            3 
  120000    1.0753337   -4.5871867    80.606256  0.055976566  0.062398389            2 
  121000    1.0777748   -4.5846649    80.985981  0.055775469  0.062272567            2 
  122000    1.0714678   -4.5795553    81.250609   0.05549905  0.062140534            3 
  123000    1.0852468   -4.5972637    81.839206  0.055446616  0.062017428            5 
  124000    1.0800294    -4.584679    82.872664  0.055693995  0.061898793            4 
  125000    1.0800605   -4.6260651    83.317931  0.055545287  0.061784622            2 
  126000    1.0741816   -4.6107417    83.939965   0.05551585  0.061668422            3 
  127000    1.0549901   -4.5870973    84.325487  0.055331684  0.061551042            2 
  128000     1.070536   -4.6089329    84.971052  0.055319695  0.061432384            5 
  129000    1.0793222   -4.6099439    85.474044  0.055215791  0.061315652            4 
  130000    1.0682013   -4.6107265    86.333483  0.055341976  0.061197811            5 
  131000    1.0920649   -4.6490735    86.683199  0.055141984  0.061077249            3 
  132000    1.0794012   -4.6106654    87.356351  0.055149211  0.060960565            3 
  133000    1.0498709   -4.6551764    87.379395  0.054748994  0.060839688            3 
  134000    1.0674344   -4.6527298    88.088253  0.054781252  0.060709092            3 
  135000    1.0522734   -4.6490584    88.403304  0.054569941  0.060581273            3 
  136000    1.0843032   -4.6359537    89.479765  0.054828287  0.060452591            4 
  137000    1.0381963   -4.6387034    89.402951  0.054381357   0.06032196            5 
  138000    1.0491157   -4.6065168    90.255856  0.054502328   0.06018739            3 
  139000        1.042   -4.6497702    90.567489  0.054297056  0.060055279            2 
  140000     1.040711   -4.6662373    91.407041  0.054408953  0.059923412            6 
  141000    1.0374171   -4.6840499    91.424475  0.054033378  0.059787275            6 
  142000    1.0286438   -4.6297817    92.366976  0.054205971   0.05965469            2 
  143000    1.0380018    -4.682932    92.410374  0.053852199  0.059525097            5 
  144000    1.0397075   -4.6710148    93.476233  0.054095042  0.059393086            1 
  145000    1.0375551   -4.6460567    94.121196  0.054092641  0.059271073            3 
  146000    1.0161112   -4.6356265    94.910156  0.054172463  0.059147551            4 
  147000    1.0062597   -4.6817931    94.708667   0.05368972  0.059018802            2 
  148000    1.0170051   -4.6553103    95.111872  0.053553982   0.05888265            3 
  149000    1.0329894   -4.6690754    95.659893  0.053501059  0.058746161            2 
  150000    1.0265964   -4.6774203    95.791979  0.053217766  0.058607014            3 
  151000    1.0148384   -4.6731951    96.366305  0.053182287   0.05847047            3 
  152000    1.0578056   -4.6784665    96.190597  0.052736073  0.058326042            4 
  153000    1.0376607   -4.6721918    97.244998  0.052965685  0.058181026            5 
  154000    1.0301843   -4.7229303    97.576054  0.052800895  0.058039299            2 
  155000    1.0123557    -4.698225    98.524683   0.05297026  0.057899956            3 
  156000    1.0140953   -4.6926683    98.744143   0.05274794  0.057767459            3 
  157000    1.0242951   -4.6611534    99.353439  0.052735371  0.057632017            5 
  158000     1.037893   -4.6860077    99.622192   0.05254335  0.057497534            3 
  159000    1.0056538   -4.7170433    100.40781  0.052624637  0.057369112            3 
  160000    1.0059028   -4.6883813    101.22783  0.052722829  0.057240994            3 
  161000    1.0177181   -4.7080081    101.41543  0.052492459  0.057116426            3 
  162000    1.0075937   -4.6998561    102.42776  0.052689178  0.056992986            3 
  163000    1.0123542   -4.7098666    103.03424  0.052675993  0.056875518            4 
  164000   0.99248393   -4.7377159    103.38287  0.052531945   0.05675662            8 
  165000    1.0054839   -4.7203454    103.61344  0.052330018  0.056639335            1 
  166000      1.00703   -4.7480969    104.23343  0.052326019  0.056520699            7 
  167000   0.99892753   -4.7152762    104.85193  0.052321322  0.056402651            2 
  168000    1.0104814   -4.7286354     105.3999  0.052281697  0.056284932            2 
  169000   0.98348661   -4.7306173    105.72362  0.052131964  0.056168167            3 
  170000    1.0057896   -4.7063148    106.20295  0.052060269  0.056050191            4 
  171000    0.9938503   -4.7530611    106.22658  0.051767339  0.055928058            2 
  172000   0.99633756   -4.7522872    106.22868  0.051467385  0.055802667            3 
  173000   0.99390243    -4.766073    106.90174  0.051494094  0.055673043            2 
  174000   0.98732106   -4.7621261    107.32779    0.0514022  0.055548572            2 
  175000   0.98776066   -4.7525826     107.6698  0.051271334  0.055421835            2 
  176000   0.98688909   -4.7407726    108.14512  0.051205077  0.055295432            2 
  177000   0.98121206   -4.7386226    108.86053  0.051252605  0.055171313            9 
  178000   0.98079308   -4.7496329    109.38262  0.051209092   0.05504938            2 
  179000   0.95480569    -4.746497    110.26721  0.051334825  0.054931916            3 
  180000   0.97069251   -4.7775397    110.08343   0.05096455  0.054817191            5 
  181000   0.97660228   -4.7460655    110.59156  0.050916922  0.054699719            3 
  182000   0.97052545   -4.7987171    110.47433  0.050583485  0.054577411            3 
  183000    1.0034785   -4.7758327    111.40684  0.050731712  0.054456832            3 
  184000   0.95817752   -4.7550833    112.23807   0.05083246  0.054342188            2 
  185000   0.98088717   -4.7900401    111.54959  0.050247564   0.05421903            4 
  186000   0.97260197   -4.8356013    111.99701  0.050177873  0.054090484            3 
  187000   0.96575855   -4.7809492    112.59508  0.050176061  0.053964401            4 
  188000   0.98569317   -4.7903437    112.88624  0.050038225  0.053838213            2 
  189000   0.98125792   -4.8152958    113.42504   0.05001104   0.05371478            5 
  190000   0.97833244   -4.7976221     114.0178  0.050007805   0.05359229            3 
  191000   0.95535622   -4.7790983     114.4146   0.04991911  0.053469524            5 
  192000   0.94417108   -4.8038468    114.60793  0.049743023  0.053345093            8 
  193000   0.97687377   -4.8236107    114.84144  0.049586113  0.053216647            2 
  194000   0.95891799   -4.7852588    115.35433  0.049550827  0.053087765            5 
  195000    0.9635222   -4.8162858    115.46638  0.049344608  0.052956383            5 
  196000    0.9609487   -4.8273485    115.64889  0.049170447   0.05282578            2 
  197000    0.9283562   -4.8107884    116.52358  0.049290854   0.05270294            3 
  198000   0.93498597    -4.832656    117.12925  0.049296821  0.052582135            3 
  199000   0.94676399   -4.7961513    117.66419  0.049273112  0.052463521            5 
  200000   0.95148895    -4.858251    117.60738  0.049003074  0.052346826            5 
  201000   0.94364698   -4.8365383    118.16276  0.048989535  0.052229147            5 
  202000   0.94827625   -4.8472307    118.63691   0.04894262  0.052113526            3 
  203000   0.93315208   -4.8209722    119.38788  0.049009802  0.051999676            2 
  204000    0.9248877   -4.8332022    119.93398   0.04899264  0.051886466            4 
  205000    0.9404644   -4.8221382    120.37024  0.048930994  0.051772889            2 
  206000   0.95820113   -4.8053439    120.86161  0.048892235  0.051660122            2 
  207000   0.93127907   -4.8464461    121.26566  0.048818705  0.051547659            7 
  208000   0.92581041   -4.8531681    121.11162  0.048522282  0.051434754            2 
  209000   0.92890399   -4.8730593    121.25601  0.048347693  0.051324675            3 
  210000   0.95909312   -4.8680385    122.04949  0.048432336  0.051213798            8 
  211000   0.95441413   -4.8288686    122.44999  0.048360975  0.051102724            4 
  212000   0.91642173   -4.8394655    122.80396  0.048271996  0.050991149            6 
  213000   0.93598647   -4.8638843    123.15625  0.048183197  0.050877839            5 
  214000    0.9272925   -4.8959472    123.60264  0.048131868  0.050768902            7 
  215000   0.93074781   -4.9087336    123.24325  0.047768702  0.050655931            3 
  216000   0.91978309    -4.882978    124.02177  0.047847905   0.05054074            5 
  217000   0.93307721   -4.8790564    124.23234  0.047708273  0.050429872            3 
  218000   0.93696138   -4.8703138    124.73789  0.047682678  0.050318033            2 
  219000   0.92214442   -4.8592452    125.36937   0.04770524  0.050211302            3 
  220000   0.92103154   -4.8674769    126.36454  0.047865356  0.050103737            5 
  221000   0.92138441   -4.9109606     125.6993  0.047397928  0.049995901            3 
  222000   0.90610059   -4.8775699    126.76082  0.047582891  0.049886422            5 
  223000   0.89763475   -4.8727481    126.83241  0.047396266  0.049777603            9 
  224000   0.92319854    -4.897398    126.60801  0.047101195  0.049665316            3 
  225000   0.91782506   -4.8885743    126.97931  0.047029373  0.049554784            3 
  226000   0.91889967    -4.875999    127.17824  0.046894632  0.049445757            5 
  227000   0.88886721   -4.9116259    128.02132  0.046997548  0.049339424            3 
  228000   0.90217392   -4.9415879    128.14936  0.046838215  0.049232198            4 
  229000   0.91371849   -4.8897438    128.58985  0.046793977  0.049124497            6 
  230000   0.88654261   -4.8958318    129.03698  0.046752528  0.049017309            4 
  231000   0.89712042   -4.9167455     129.2176  0.046615296  0.048911255            5 
  232000   0.89087461   -4.9120659    129.58152  0.046545086  0.048804539            5 
  233000    0.8883971   -4.9482209    129.25971  0.046230225  0.048696146            8 
  234000   0.88793383   -4.9134117    129.76105    0.0462112  0.048586943            2 
  235000   0.89931045   -4.9532393    130.26701  0.046193976   0.04847965            7 
  236000    0.9040846   -4.9401244    130.55284  0.046099165  0.048371803            6 
  237000    0.9054615   -4.9520831    131.20757  0.046134871  0.048264514            5 
  238000   0.90150219   -4.9424528    130.99961  0.045868211  0.048157868            3 
  239000   0.87952267   -4.9795746    131.96193   0.04601183  0.048050917            5 
  240000   0.87760956   -4.9610768     132.0331  0.045844826  0.047944257            5 
  241000   0.86040591   -4.9427248    132.47814  0.045808487  0.047838733            4 
  242000   0.87028707   -4.9778806     132.2051  0.045525173  0.047733318           12 
  243000   0.87162858   -4.9843528    132.40669  0.045406958  0.047624638            5 
  244000    0.8990243     -4.95532    133.26668  0.045514575   0.04751568            4 
  245000   0.88530564   -4.9325706    133.87376  0.045535292  0.047412036            5 
  246000   0.89383747   -4.9602687    134.12445  0.045435111  0.047307674            7 
  247000   0.87665623    -4.964221    134.16624  0.045265265  0.047201513            1 
  248000   0.85331606   -4.9921585    133.91885  0.044999612   0.04709791            5 
  249000    0.8759138   -4.9820083    134.80199  0.045114456  0.046992643            2 
  250000   0.87250158   -5.0055444    134.68727  0.044895758  0.046885867            7 
  251000   0.85965565   -4.9906687    135.34483  0.044935203  0.046778557            3 
  252000    0.8715653   -4.9938033    135.82743  0.044916478  0.046674314            2 
  253000   0.86077736    -4.970356    136.33757  0.044906973  0.046571391            7 
  254000   0.86475629     -4.97058    136.11527  0.044657242  0.046468718            5 
  255000   0.86396807   -5.0118815    135.73724  0.044358575  0.046364856            3 
  256000   0.85558791   -4.9786447    137.01789  0.044602177   0.04626145            5 
  257000   0.85154757   -5.0029885    136.77257  0.044349082  0.046156716            3 
  258000    0.8615269   -5.0114473    136.44016  0.044069819  0.046051326            8 
  259000   0.85703487   -4.9825014    136.78478  0.044010548  0.045945683            6 
  260000   0.85451825   -5.0042342    137.21705  0.043979823  0.045839178            3 
  261000   0.85409963   -5.0189698    137.11369  0.043778316  0.045731858            7 
  262000   0.84852595   -5.0009916    137.55092  0.043750294    0.0456249            4 
  263000   0.86003737   -5.0153021    137.54706   0.04358272  0.045517413            3 
  264000    0.8423877   -5.0074133    138.39779  0.043686172  0.045412167            3 
  265000   0.85680409   -5.0303556    138.41804  0.043527686  0.045308017            7 
  266000   0.83871459   -5.0243484     138.5191  0.043395707  0.045202047            7 
  267000   0.84542814     -5.03288    138.82916  0.043329951  0.045095582            9 
  268000   0.84565818   -5.0407843    139.15193  0.043268635  0.044989271            5 
  269000   0.85666331    -5.041012    139.62317  0.043253771  0.044883873            3 
  270000   0.83477319   -5.0543396    139.11055  0.042935355  0.044776788            6 
  271000   0.82820181     -5.05151    139.84881  0.043003938  0.044670073            6 
  272000   0.83530366    -5.031275    139.87907  0.042855108  0.044565595            5 
  273000   0.84584363    -5.050213     140.3095  0.042829517   0.04446052            7 
  274000   0.81997962    -5.066084    140.19307  0.042637796  0.044354709           12 
  275000   0.82581281   -5.0440138     140.9446  0.042710485  0.044248085            6 
  276000   0.84380058   -5.0445644    140.40442  0.042392638  0.044141419            3 
  277000   0.83322949   -5.0600587    140.38581  0.042233999  0.044033699            5 
  278000   0.82602715   -5.0567231    141.17164  0.042317637  0.043927071            9 
  279000   0.82406048   -5.0591919    141.31183  0.042207836  0.043821081            7 
  280000   0.82571333   -5.0894364     141.4448  0.042096667  0.043714439            7 
  281000   0.81430549   -5.0568906    141.64304  0.042005646  0.043608052            4 
  282000   0.81119627   -5.1032849    141.51129  0.041817756  0.043502792            7 
  283000   0.83592839   -5.0999125    141.71001  0.041728506  0.043396302            8 
  284000   0.81277945   -5.1271058    142.19858  0.041724935  0.043290333            7 
  285000   0.83342905    -5.080887    142.68126  0.041719668  0.043186271            7 
  286000   0.78597037   -5.0845287    142.44172  0.041503997  0.043080838            6 
  287000   0.81152318   -5.1114343    142.56294  0.041394581   0.04297561            5 
  288000   0.80073821   -5.0848739    142.97859  0.041371119  0.042868824            2 
  289000   0.80224638   -5.1059745    143.24191  0.041303897  0.042764387            8 
  290000   0.80601738   -5.1161771    144.14425  0.041420762  0.042662427            5 
  291000   0.77889728   -5.0935403    144.27244  0.041315133  0.042560632            4 
  292000   0.79510702    -5.130165    144.40035  0.041210146  0.042459782            4 
  293000   0.80579132   -5.1479966    144.03893  0.040966704  0.042358015           11 
  294000   0.79511241   -5.1303103    143.80608  0.040761359  0.042254796            3 
  295000   0.80764137    -5.128505    144.06812  0.040697208  0.042151474            4 
  296000   0.79385266   -5.1173463     144.6281  0.040717371  0.042049536            5 
  297000   0.80808742   -5.1519772    144.68636  0.040596622  0.041948042            5 
  298000   0.79015583   -5.1424151    145.41569  0.040664344  0.041847058            3 
  299000   0.79072075     -5.12701    145.36239  0.040513485  0.041746025            5 
  300000   0.78361961   -5.1572981    145.55527   0.04043202  0.041644019            6 
  301000   0.78408064   -5.1627873    145.35107   0.04024116   0.04154262            7 
  302000   0.78775317    -5.127193    145.90726  0.040261384  0.041440671            8 
  303000   0.78862794   -5.1361752    146.06082  0.040170743  0.041338267           10 
  304000   0.79785454   -5.1832618    145.65219  0.039926586  0.041235281            3 
  305000   0.77904689    -5.138548    145.74942  0.039822245  0.041131706            3 
  306000   0.79035083   -5.1791593    146.24628  0.039827419  0.041027864            4 
  307000    0.7920802   -5.1765131     145.9672  0.039621933  0.040923858            2 
  308000   0.77309925   -5.1928237    145.78318  0.039443501  0.040818662            7 
  309000   0.77255501   -5.1508851    146.35191  0.039469231  0.040714382           12 
  310000   0.78325094   -5.1608432    146.33614  0.039337673  0.040611719            8 
  311000   0.76216581   -5.1782535    146.33493   0.03921086  0.040508438            4 
  312000   0.77886315    -5.163748    146.96585  0.039253699  0.040405224            4 
  313000    0.7579357   -5.1890342    146.94604  0.039123014   0.04030356            4 
  314000   0.74593111   -5.1579565    147.09024  0.039036687  0.040201423            5 
  315000   0.76958845   -5.1804193     147.4513  0.039008281  0.040098631            8 
  316000   0.76474643   -5.2078199    147.38947  0.038868531  0.039996384            8 
  317000   0.76789681   -5.1873506    147.62647  0.038808219  0.039894675            7 
  318000   0.75619913   -5.1951113    148.08732  0.038806951  0.039795188            6 
  319000   0.75733973   -5.1933029    148.25521  0.038729156  0.039694956            3 
  320000   0.74906269   -5.2052207    148.74421  0.038735471  0.039596001            4 
  321000   0.75181701   -5.2175834    148.55156  0.038564786  0.039496689            8 
  322000   0.75087531   -5.1946312    148.65478  0.038471735  0.039397943            8 
  323000   0.76810122   -5.2263327    148.69763  0.038363681  0.039299018            8 
  324000   0.74073983   -5.2548552    148.84594  0.038283422  0.039200209           10 
  325000   0.75216173   -5.2191414    148.71088  0.038130996  0.039101737            4 
  326000    0.7444287   -5.2417626    149.02266  0.038093727  0.039002957            7 
  327000   0.74258755   -5.2361725    149.45961  0.038088587  0.038904065            5 
  328000   0.74700057   -5.2346691    149.85889  0.038073904  0.038805714            9 
  329000   0.74333224   -5.2707365    149.51792  0.037871813  0.038708155            5 
  330000    0.7402767   -5.2222969    149.81733  0.037832658  0.038610387            7 
  331000   0.74056162   -5.2493051      149.666  0.037680261  0.038513152            6 
  332000   0.73931281   -5.2629674     149.6381  0.037559765   0.03841599            9 
  333000   0.73094455   -5.2440454    150.45174  0.037650586  0.038318718           19 
  334000   0.73069218    -5.259358    150.53848    0.0375595  0.038222231           15 
  335000    0.7336257   -5.2562766    150.82051  0.037517539  0.038126547            8 
  336000   0.72433269    -5.278117    150.69377  0.037374448  0.038031426            8 
  337000   0.72617629   -5.2883396    150.89901  0.037314295  0.037936799           19 
  338000   0.71265801   -5.2653431    150.98916  0.037226124     0.037843           10 
  339000   0.72429156   -5.2852283     151.4073  0.037219101  0.037749376           11 
  340000   0.72772736   -5.2906216    151.49313  0.037130668   0.03765672           10 
  341000   0.72370634   -5.2804039     151.1682  0.036942376   0.03756361            6 
  342000   0.74436852   -5.2850604    151.59539  0.036938447  0.037470588            7 
  343000   0.72687302   -5.2986098    151.46666  0.036799481   0.03737724            9 
  344000   0.71598333    -5.273635    151.26176  0.036642868  0.037283444           15 
  345000   0.72811168   -5.3418609     151.2366  0.036530579  0.037188741            8 
  346000   0.71304896   -5.3005991     151.2892  0.036437668  0.037093837            4 
  347000    0.7136839   -5.2983285    151.98322  0.036499332  0.036998965            4 
  348000   0.71198385   -5.2927999    151.95302  0.036387217   0.03690588           10 
  349000   0.70648316   -5.3064969    151.84525  0.036257223  0.036812272           15 
  350000   0.71190357   -5.3120556     152.2806  0.036257285  0.036718542            6 
  351000   0.72264577   -5.3589537    151.82386  0.036045551  0.036624563           12 
  352000   0.71602387   -5.3262669    151.59196  0.035888248  0.036529472           16 
  353000    0.6973167   -5.3582444          152  0.035882908   0.03643481            5 
  354000   0.70926235   -5.3511056    152.62475  0.035928614  0.036340505            5 
  355000   0.70496998   -5.3371911     152.1894  0.035725211  0.036246257           10 
  356000   0.70229489   -5.3484684    152.30666  0.035652309  0.036152148            6 
  357000   0.68279603   -5.3488347    152.56425  0.035612571  0.036058012            9 
  358000   0.69737322   -5.3253095    152.64464  0.035531807   0.03596518            8 
  359000   0.69661345   -5.3384255    152.74583  0.035456321  0.035872866            6 
  360000   0.69929268   -5.3299875    152.86809  0.035386133  0.035780268            9 
  361000   0.69445288   -5.3706586    152.56233  0.035217528  0.035686804            9 
  362000   0.68063994   -5.3693633    152.54438   0.03511611  0.035592616            7 
  363000   0.68218525   -5.4065342    152.15975  0.034931071  0.035497866           11 
  364000   0.68152701   -5.3846962    152.52652  0.034919075  0.035403761            7 
  365000   0.70120281   -5.4005118    153.07728  0.034949151    0.0353101           13 
  366000   0.67701299   -5.3765985    153.45464  0.034939582  0.035217222            7 
  367000   0.70175032   -5.3932515    153.00346   0.03474193  0.035124723            7 
  368000   0.67497802   -5.3743784     153.0144      0.03465  0.035032921           19 
  369000    0.6897388   -5.3756034    153.27721   0.03461545  0.034941959            8 
  370000   0.66614764   -5.3593638    153.56181  0.034585993  0.034852072           10 
  371000   0.68304189   -5.3795985    153.61451  0.034504607  0.034762062            8 
  372000   0.67415441   -5.3835534    153.73956  0.034439866  0.034672127            5 
  373000   0.66619464   -5.3754975    154.14452  0.034438006  0.034582499            8 
  374000   0.67656799   -5.4186429    153.83164  0.034276211  0.034492683           16 
  375000   0.68238819   -5.3961475    154.31128  0.034291395  0.034403354            7 
  376000    0.6590147   -5.3901112    153.98812  0.034128572  0.034314399           13 
  377000    0.6542097   -5.3987623    154.44763  0.034139616   0.03422555            8 
  378000   0.66998936   -5.4112242    154.39929  0.034038644  0.034136734            8 
  379000   0.65689751   -5.4206754    154.67534  0.034009529  0.034048459            7 
  380000   0.66799157   -5.4212989     154.2236  0.033820966  0.033959666           13 
  381000   0.63828521   -5.4110247    154.47803  0.033787845  0.033870872           22 
  382000   0.66197204   -5.4358902    154.00282   0.03359573  0.033782347            6 
  383000   0.65912774    -5.456862    154.70516  0.033660827  0.033693811            9 
  384000   0.65137024   -5.4470198    154.83239  0.033600779  0.033606333           27 
  385000   0.65263252   -5.4288884    154.89868  0.033527852  0.033519258           10 
  386000   0.64214122   -5.4520737    154.86218  0.033433113  0.033431891            7 
  387000   0.65377308   -5.4419322    155.21984  0.033423739  0.033344345            7 
  388000   0.65234109   -5.4548949    154.80233  0.033247923  0.033258214           15 
  389000   0.63234629   -5.4543906    155.45542  0.033302361  0.033172105            8 
  390000   0.65124114   -5.4563086     154.9836  0.033116155    0.0330853           11 
  391000   0.66438871   -5.4623297    155.11317  0.033059073  0.032999368            7 
  392000   0.63576925   -5.4796908    155.12113   0.03297643  0.032912697           21 
  393000   0.64553094   -5.4700015    155.22843  0.032915274  0.032826412           15 
  394000   0.64028125   -5.4586403    155.20217  0.032826178  0.032740087            4 
  395000   0.64638958    -5.486377    155.36968  0.032778413  0.032653743           15 
  396000   0.62390788   -5.4751303    155.13322   0.03264588  0.032567857           25 
  397000   0.63524569   -5.4798127    155.07788  0.032552032  0.032481432            8 
  398000   0.64286234   -5.4908319    155.00818  0.032455648  0.032394811           19 
  399000   0.64300855   -5.5002462    155.22672   0.03241995    0.0323089           17 
  400000   0.62712129   -5.5187516    155.44317  0.032383994  0.032223009           13 
  401000   0.63855042   -5.5053818    155.08163  0.032228103  0.032137272            5 
  402000   0.61898883   -5.5103614    155.23729  0.032180201  0.032051571           21 
  403000    0.6298383   -5.5173891    155.19552  0.032091712   0.03196606           13 
  404000   0.63378881   -5.5286269    155.38565  0.032051496  0.031880744           17 
  405000   0.64579578   -5.5369651    155.36737  0.031968594  0.031796108            9 
  406000   0.62629302   -5.5163928    155.31134  0.031878353  0.031711186            9 
  407000   0.63116233   -5.5413329    155.35208  0.031808371  0.031626186            9 
  408000    0.6148255   -5.5399827    155.33108   0.03172612  0.031541573           14 
  409000   0.62203353   -5.5267624    155.56497  0.031696204  0.031457056           18 
  410000   0.62427077   -5.5210646    155.75432  0.031657382  0.031373085           13 
  411000   0.60180984   -5.5189793     155.7223  0.031573865  0.031289317           17 
  412000   0.61670651   -5.5326309    155.52683  0.031457693  0.031205583           12 
  413000   0.61565458   -5.5496044    155.71706  0.031419907  0.031121725           13 
  414000   0.60452798   -5.5481306    155.86648   0.03137409  0.031037907            6 
  415000   0.60510052   -5.5414354    155.59434  0.031243843  0.030953638           10 
  416000   0.60096037   -5.5642506    155.52426  0.031154699  0.030869481            8 
  417000    0.5926206   -5.5511467    155.31037  0.031037243  0.030785494           14 
  418000    0.5789225   -5.5690012    155.45332  0.030991491  0.030701735           11 
  419000   0.60041155    -5.566415    155.64882  0.030956407  0.030618182           12 
  420000   0.59043383   -5.5914903    155.24422  0.030802424  0.030534429           19 
  421000   0.60086765   -5.5804482    155.39827  0.030759753  0.030450869            8 
  422000    0.5765108   -5.5785312    155.17322  0.030642421  0.030367258           11 
  423000   0.59464371   -5.5889429    154.78615  0.030493726  0.030283662           20 
  424000   0.58013813   -5.6001536    154.99115  0.030462098  0.030199855           18 
  425000   0.59159089   -5.6021107    155.12711  0.030417081  0.030116008           19 
  426000   0.58298149   -5.5985325    154.97797  0.030316503  0.030032695           12 
  427000   0.59473309   -5.6007087    154.88725    0.0302278  0.029949611           14 
  428000    0.5904674   -5.6015298    155.19573  0.030217238   0.02986655           22 
  429000   0.58930242    -5.618683    154.94427  0.030097955  0.029783763           15 
  430000   0.58112306   -5.6201254    155.11059  0.030060192   0.02970088           16 
  431000   0.59419442   -5.6263384    154.99734  0.029968551  0.029617906            8 
  432000     0.584506    -5.604182    154.99173  0.029898096  0.029535058           11 
  433000   0.56617977   -5.6209758    155.37334  0.029902489  0.029452728           19 
  434000   0.58018053   -5.6317083    155.31649  0.029822675  0.029370325            7 
  435000   0.57169096   -5.6213118    155.00736  0.029694896  0.029288075           29 
  436000   0.58478464   -5.6234798    155.35709  0.029693633  0.029206865           21 
  437000   0.58240291   -5.6379023     155.2804  0.029611061  0.029125676           29 
  438000    0.5663874   -5.6321358    155.10107  0.029509336  0.029044568           33 
  439000   0.56599081   -5.6359458     155.3379  0.029487073  0.028963569           19 
  440000   0.56601807   -5.6292764    155.22264  0.029398227  0.028883298            6 
  441000   0.55009295   -5.6216987    155.31035  0.029348138  0.028802931            7 
  442000   0.57633599    -5.618988    155.20616  0.029262096  0.028722973           20 
  443000   0.54522178   -5.6453471    155.48222  0.029247971  0.028643404           31 
  444000   0.55821288    -5.664958    154.95103    0.0290824  0.028563708           64 
  445000   0.56579555    -5.676778    154.98811  0.029023991  0.028483845           13 
  446000   0.54990904   -5.6710985    155.46614  0.029048232  0.028404016           62 
  447000   0.55584223   -5.6765085    154.99342  0.028895119  0.028324226           31 
  448000   0.54901942   -5.6668813    155.17612  0.028864606     0.028245           47 
  449000   0.54382248   -5.6806149    155.48611  0.028857853  0.028165797           12 
  450000   0.54915585   -5.6713815    155.67538  0.028828774  0.028087206           13 
  451000   0.54801881   -5.6857623    155.06848  0.028652712  0.028008841           10 
  452000   0.54716209   -5.6799564    155.26251  0.028625093  0.027930159           16 
  453000   0.53775888     -5.69135    155.06566  0.028525692  0.027851677           11 
  454000   0.53737786   -5.6906241    155.20793  0.028488975  0.027773382           33 
  455000   0.53820556   -5.7096571    155.41939   0.02846509  0.027695549           70 
  456000   0.53231844   -5.7042398    155.24334  0.028370493  0.027617411           33 
  457000   0.53742373    -5.678331    155.27128  0.028313508  0.027539899           25 
  458000   0.53734788   -5.7010026    155.25174  0.028248134   0.02746253           37 
  459000    0.5471583   -5.6861061     155.4034  0.028214125  0.027385538           11 
  460000   0.53383369   -5.7034075    154.99025  0.028077944  0.027308529           14 
  461000   0.54273126   -5.7181783    155.20852  0.028056494  0.027231691           16 
  462000   0.52669818   -5.7309695    155.11973   0.02797975  0.027155098           31 
  463000    0.5324859   -5.7219011    155.50311  0.027988322  0.027078571           13 
  464000   0.51760409    -5.725042    155.31032  0.027893377  0.027002703           24 
  465000   0.52221934    -5.737635    155.33477  0.027837773  0.026927256           31 
  466000   0.51885615   -5.7298556    155.28828  0.027769721  0.026851884           26 
  467000   0.52630568   -5.7302665    155.14451  0.027684602  0.026776722           44 
  468000   0.51796411   -5.7568603    155.10729  0.027618819  0.026701578           48 
  469000   0.53259625   -5.7534421    155.10761  0.027559988  0.026626695           38 
  470000   0.52059587   -5.7432882    154.97047  0.027477034  0.026552016           80 
  471000   0.51772012   -5.7348228    155.75906  0.027558221  0.026477594          143 
  472000    0.5061114   -5.7612713    155.23251   0.02740687  0.026403459           73 
  473000   0.51619674    -5.757609     155.1244  0.027329881  0.026329348           84 
  474000   0.50995504   -5.7364647    155.02431  0.027254626  0.026255423           84 
  475000   0.50756618   -5.7524098    155.25907  0.027238433  0.026181714           42 
  476000   0.50200747   -5.7674155    155.25414  0.027180346  0.026108366           64 
  477000   0.50038172   -5.7533682    155.28151  0.027128146  0.026034987           58 
  478000   0.49515577   -5.7710356    154.70808  0.026971423  0.025961931           62 
  479000   0.50280165   -5.7746567    155.08731   0.02698109  0.025889074          104 
  480000   0.50795323   -5.7587564    155.04443  0.026917436  0.025816223           43 
  481000   0.50256946   -5.7829611    154.95815  0.026846526   0.02574385           33 
  482000   0.50438238   -5.7733713    155.24582  0.026840564  0.025671423           32 
  483000   0.49168944   -5.7837811    154.82477  0.026712347  0.025599126           86 
  484000   0.48764668   -5.7793354     155.1231  0.026708522  0.025526837           47 
  485000   0.49538409   -5.8149726    154.86087  0.026608397  0.025454522           44 
  486000   0.49683684   -5.8099813    154.70298  0.026526575  0.025382365           29 
  487000   0.49335058   -5.8039398    154.93228  0.026511342  0.025310392           37 
  488000   0.49237205    -5.823135    154.61909  0.026403532  0.025238663           71 
  489000   0.47775667   -5.8139793    154.72888  0.026368248  0.025167096           47 
  490000   0.48078027    -5.808577    154.59119  0.026291018  0.025095671           32 
  491000   0.49393782   -5.8133555     154.5791  0.026235421  0.025024412           61 
  492000   0.48123962   -5.8366736    154.80978  0.026221169  0.024953379           60 
  493000   0.48324394   -5.8264509    154.66104   0.02614284  0.024882423           42 
  494000   0.47063349   -5.8327255    154.53434  0.026068546  0.024811706           54 
  495000    0.4906715   -5.8388812    154.69091   0.02604224  0.024741419           41 
  496000   0.47089401   -5.8424881    154.46133  0.025951165  0.024671322           51 
  497000   0.47825519     -5.84526    154.49917  0.025905294  0.024601234           70 
  498000   0.47665421   -5.8700272    154.25894  0.025813076  0.024531029           29 
  499000   0.46818034   -5.8707182    154.39071  0.025783352  0.024461135          129 
  500000   0.46304961    -5.847153     154.1241  0.025687351  0.024391405           52 
  501000   0.46808722   -5.8639391     154.2054  0.025649602  0.024321851           91 
  502000   0.46081577   -5.8591476    154.06664  0.025575472  0.024252389           59 
  503000   0.46007054   -5.8638156    154.06255  0.025523948  0.024182975          120 
  504000   0.47067923    -5.870483    154.40215  0.025529456  0.024113795           75 
  505000   0.45845822    -5.865801    154.18286  0.025442716  0.024044954           58 
  506000   0.46052216   -5.8770047    153.89424  0.025344902  0.023976095           76 
  507000    0.4563077   -5.8721569    154.03554  0.025318136  0.023907454           89 
  508000   0.45446416   -5.8654153    154.03424  0.025268083   0.02383912          101 
  509000   0.44467551   -5.8955647    153.81553  0.025182634  0.023770853          147 
  510000   0.45247136   -5.9028597    153.76087  0.025124324  0.023702621           56 
  511000   0.43964096   -5.8780753    153.91157  0.025099734  0.023634556           80 
  512000   0.45768786   -5.9001379    153.62224  0.025003619  0.023566853           96 
Loop time of 1266.72 on 48 procs for 500000 steps with 4000 atoms

Performance: 68207.726 tau/day, 394.721 timesteps/s
99.4% CPU use with 48 MPI tasks x no OpenMP threads

MPI task timing breakdown:
Section |  min time  |  avg time  |  max time  |%varavg| %total
---------------------------------------------------------------
Pair    | 87.026     | 92.805     | 99.683     |  30.7 |  7.33
Neigh   | 8.5709     | 8.911      | 9.273      |   5.7 |  0.70
Comm    | 79.402     | 87.515     | 94.207     |  34.8 |  6.91
Output  | 0.91716    | 0.91797    | 0.94082    |   0.3 |  0.07
Modify  | 1061       | 1064.8     | 1068       |   5.8 | 84.06
Other   |            | 11.79      |            |       |  0.93

Nlocal:        83.3333 ave          90 max          77 min
Histogram: 1 6 4 8 4 6 12 4 1 2
Nghost:        2345.08 ave        2369 max        2321 min
Histogram: 2 1 6 9 7 6 8 4 2 3
Neighs:        16025.0 ave       17988 max       14691 min
Histogram: 3 8 8 9 5 4 3 3 2 3
FullNghs:      32049.7 ave       34812 max       29388 min
Histogram: 1 6 4 7 4 10 7 5 3 1

Total # of neighbors = 1538386
Ave neighs/atom = 384.59650
Neighbor list builds = 26902
Dangerous builds = 0

#clear
#
#next RN
#
#jump SELF
Total wall time: 0:21:10
