
units lj                  # Use reduced LJ style units
atom_style atomic         # Uncharged point particles
atom_modify map hash      # Needed for indexing of clusters etc
                          # Used to be able to find where atoms are in relation to each other.

lattice fcc 1.0 spacing 1 1 1
Lattice spacing in x,y,z = 1.5874011 1.5874011 1.5874011
region box block 0 10 0 10 0 10 units lattice
create_box 2 box
Created orthogonal box = (0.0000000 0.0000000 0.0000000) to (15.874011 15.874011 15.874011)
  3 by 4 by 4 MPI processor grid
create_atoms 1 box
Created 4000 atoms
  using lattice units in orthogonal box = (0.0000000 0.0000000 0.0000000) to (15.874011 15.874011 15.874011)
  create_atoms CPU = 0.002 seconds
set type 1 type/fraction 2 0.91 78393
Setting atom values ...
  3634 settings made for type/fraction
mass 1 1.0
mass 2 1.0
pair_style lj/cut  3.5
pair_modify tail  yes
pair_coeff 1  1  1.0  1.0   # Intearaction between 1 and 1 set with epsilon = 1 and sigma = 1
pair_coeff 1  2  1.5  0.8
pair_coeff 2  2  0.5  0.88

write_data data.0
System init for write_data ...
Neighbor list info ...
  update every 1 steps, delay 10 steps, check yes
  max neighbors/atom: 2000, page size: 100000
  master list distance cutoff = 3.8
  ghost atom cutoff = 3.8
  binsize = 1.9, bins = 9 9 9
  1 neighbor lists, perpetual/occasional/extra = 1 0 0
  (1) pair lj/cut, perpetual
      attributes: half, newton on
      pair build: half/bin/atomonly/newton
      stencil: half/bin/3d
      bin: standard
WARNING: Not all mixed pair coeffs generated from mixing. Use write_data with 'pair ij' option to store all pair coeffs. (../write_data.cpp:312)


#############################
#   M E L T   S Y S T E M   #
#############################

velocity all create 2.4 6229865 mom yes dist gaussian # Assign velocities
                                                    # Temperature 2.4, random number seed, zero linear momentum
                                                                                # Gaussian distribution

timestep 0.002   # simulation timestep
thermo 1000       # output thermodynamic data every 1000 steps bf 100

# Define a fix  in this case with index 1 applied to all
# particles in the simulation. This fix is for simulations
# in the anisotropic NPT ensemble. Note that we use the MTK
# correction.
fix 1 all npt temp 2.4 2.4 0.1 iso 5.68 5.68 0.5 mtk yes tchain 5 pchain 5 # Use NPT ensemble
                                                                         # Set temperature and pressure and damping
                                                                         # Numbers of thermostats in chain and in barostat
run 10000          # run for 10000 steps
Per MPI rank memory allocation (min/avg/max) = 3.642 | 3.644 | 3.648 Mbytes
Step Temp E_pair E_mol TotEng Press Volume 
       0          2.4    -3.140535            0     0.458565   -2.4974117         4000 
    1000      2.38256   -2.1436116            0    1.4293349     5.622357    4038.5944 
    2000    2.3566378   -2.2055993            0    1.3284737    5.7158149     3979.339 
    3000    2.4127978   -2.1565354            0    1.4617565    5.5824616    4043.2447 
    4000    2.3886574   -2.1319304            0      1.45016    5.6845931    4045.2891 
    5000    2.3488563   -2.1585355            0    1.3638681    5.4011669    4064.5723 
    6000    2.3664056   -2.2089568            0    1.3397642    5.3227365    4027.8934 
    7000    2.3434695   -2.1351851            0    1.3791403    5.6543484    4041.5754 
    8000    2.3945614   -2.1498893            0    1.4410548    5.5973881    4046.3878 
    9000    2.4111001   -2.1780079            0    1.4377381    5.5161563    4025.0202 
   10000    2.4401411   -2.1464462            0    1.5128503     5.583975    4049.3083 
Loop time of 2.81986 on 48 procs for 10000 steps with 4000 atoms

Performance: 612796.210 tau/day, 3546.274 timesteps/s
99.3% CPU use with 48 MPI tasks x no OpenMP threads

MPI task timing breakdown:
Section |  min time  |  avg time  |  max time  |%varavg| %total
---------------------------------------------------------------
Pair    | 1.0695     | 1.1416     | 1.2026     |   2.9 | 40.49
Neigh   | 0.20369    | 0.2124     | 0.22059    |   0.9 |  7.53
Comm    | 0.81095    | 1.0081     | 1.1782     |   8.9 | 35.75
Output  | 0.00024928 | 0.000254   | 0.00033317 |   0.0 |  0.01
Modify  | 0.29441    | 0.44247    | 0.58512    |  11.8 | 15.69
Other   |            | 0.01497    |            |       |  0.53

Nlocal:        83.3333 ave          97 max          74 min
Histogram: 3 4 5 16 4 7 5 2 1 1
Nghost:        1633.27 ave        1672 max        1602 min
Histogram: 2 3 9 10 6 5 3 6 2 2
Neighs:        9426.35 ave       11104 max        8198 min
Histogram: 2 4 7 12 8 5 4 4 1 1

Total # of neighbors = 452465
Ave neighs/atom = 113.11625
Neighbor list builds = 903
Dangerous builds = 196

# Equilibrate just above the melting temperature to avoid step fn in T

fix 1 all npt temp 1.25 1.25 0.1 iso 5.68 5.68 0.5 mtk yes tchain 5 pchain 5
run 2000
Per MPI rank memory allocation (min/avg/max) = 3.643 | 3.645 | 3.649 Mbytes
Step Temp E_pair E_mol TotEng Press Volume 
   10000    2.4401411   -2.1464462            0    1.5128503     5.583975    4049.3083 
   11000     1.237279   -3.2283039            0   -1.3728494    5.6645345     3115.942 
   12000    1.2569293    -3.196551            0   -1.3116284    5.6032745    3141.2575 
Loop time of 0.729513 on 48 procs for 2000 steps with 4000 atoms

Performance: 473740.643 tau/day, 2741.555 timesteps/s
99.2% CPU use with 48 MPI tasks x no OpenMP threads

MPI task timing breakdown:
Section |  min time  |  avg time  |  max time  |%varavg| %total
---------------------------------------------------------------
Pair    | 0.26596    | 0.28748    | 0.30922    |   2.1 | 39.41
Neigh   | 0.039344   | 0.041304   | 0.04344    |   0.6 |  5.66
Comm    | 0.19593    | 0.23725    | 0.3306     |   8.4 | 32.52
Output  | 5.1241e-05 | 5.2345e-05 | 6.9157e-05 |   0.0 |  0.01
Modify  | 0.084617   | 0.15879    | 0.18162    |   8.8 | 21.77
Other   |            | 0.004638   |            |       |  0.64

Nlocal:        83.3333 ave          93 max          75 min
Histogram: 2 3 5 10 6 10 5 4 2 1
Nghost:        1940.06 ave        1964 max        1913 min
Histogram: 2 1 4 4 10 9 10 3 3 2
Neighs:        12159.1 ave       13962 max       10508 min
Histogram: 2 1 6 10 7 9 7 2 3 1

Total # of neighbors = 583635
Ave neighs/atom = 145.90875
Neighbor list builds = 144
Dangerous builds = 18

#############################
# L I N E A R  Q U E N C H  #
#############################

# Define solid atoms. This closely follows ten Wolde  Ruiz-Montero and Frenkel  Faraday Discuss  1996  104  93-110
# Compute components of the per-atom q6 vector
compute q6 all orientorder/atom degrees 1 6 components 6 nnn NULL cutoff 1.3 # compute the Q6 parameter.
                                                                             # Use all neighbours within 1.3 unit cell.

# get number of connections
compute coord_number all coord/atom orientorder q6 0.5

# An atom is solid if it has 8 or more connections (of a possible 14)
variable is_solid atom c_coord_number>=8
group solid dynamic all var is_solid    # Must be dynamic to update
dynamic group solid defined

# do clustering
compute cluster solid cluster/atom 1.3 # Create a cluster where all atoms within are solid and max 1.3 units from another member

# define chunks one chunk per cluster
compute clus_chunks solid chunk/atom c_cluster nchunk every compress yes  # Says which atoms are in which chunk

# count the size of each chunk
compute size_chunks solid property/chunk clus_chunks count


# Find the maximum entry in the vector of chunk sizes
variable max_n equal max(c_size_chunks)


# Thermo style which includes this variable
# thermo_style custom step temp pe vol v_max_n

thermo ${N}  # Print the thermo information every 100 steps
thermo 1000  

# Reset the npt fix at a lower temperature (below freezing)
fix 1  all npt temp  ${temp} ${temp}  0.1  iso  5.68  5.68  0.5  mtk yes tchain  5  pchain  5
fix 1  all npt temp  0.45 ${temp}  0.1  iso  5.68  5.68  0.5  mtk yes tchain  5  pchain  5
fix 1  all npt temp  0.45 0.45  0.1  iso  5.68  5.68  0.5  mtk yes tchain  5  pchain  5

dump dmp2 all dcd ${N} traj.dcd
dump dmp2 all dcd 1000 traj.dcd


compute msd all msd com yes
variable twopoint equal c_msd[4]/6/(step*dt+1.0e-6)
fix 9 all vector 10 c_msd[4]
variable fit equal slope(f_9)/6/(10*dt)
thermo_style custom step temp pe c_msd[4] v_twopoint v_fit v_max_n

fix 1 all npt temp 1.25 ${temp} 0.1 iso 5.68 5.68 0.5 mtk yes tchain 5 pchain 5
fix 1 all npt temp 1.25 0.45 0.1 iso 5.68 5.68 0.5 mtk yes tchain 5 pchain 5
run 2000000 # 5000000  # Run for this many steps
Neighbor list info ...
  update every 1 steps, delay 10 steps, check yes
  max neighbors/atom: 2000, page size: 100000
  master list distance cutoff = 3.8
  ghost atom cutoff = 3.8
  binsize = 1.9, bins = 8 8 8
  4 neighbor lists, perpetual/occasional/extra = 1 3 0
  (1) pair lj/cut, perpetual
      attributes: half, newton on
      pair build: half/bin/atomonly/newton
      stencil: half/bin/3d
      bin: standard
  (2) compute orientorder/atom, occasional
      attributes: full, newton on
      pair build: full/bin/atomonly
      stencil: full/bin/3d
      bin: standard
  (3) compute coord/atom, occasional
      attributes: full, newton on
      pair build: full/bin/atomonly
      stencil: full/bin/3d
      bin: standard
  (4) compute cluster/atom, occasional
      attributes: full, newton on
      pair build: full/bin/atomonly
      stencil: full/bin/3d
      bin: standard
Per MPI rank memory allocation (min/avg/max) = 9.823 | 9.827 | 9.833 Mbytes
Step Temp PotEng c_msd[4] v_twopoint v_fit v_max_n 
   12000    1.2569293    -3.196551 2.0782541e-30 1.4432319e-32 8.3333333e+20            1 
   13000    1.2256874   -3.2270028    1.0301859 0.0066037553  0.088207734            2 
   14000    1.2491426   -3.2058251    2.1838407  0.012999051  0.092802014            1 
   15000    1.2231351    -3.247278    3.3330176  0.018516764  0.094133348            2 
   16000    1.2408727   -3.2227617      4.52374  0.023561145  0.095268836            4 
   17000    1.2513031   -3.2283906    5.6198656   0.02754836   0.09525649            3 
   18000    1.2608837   -3.2300576    6.7427502  0.031216435  0.095128014            1 
   19000    1.2047998   -3.2659808    7.8508168  0.034433406  0.095111138            1 
   20000    1.2412378   -3.2130576    8.9958749  0.037482811    0.0947477            1 
   21000    1.2490536    -3.223569    10.110238  0.040119992  0.094307864            2 
   22000    1.2285238   -3.2453149     11.13807  0.042189658  0.093822518            2 
   23000    1.2100535   -3.1963596     12.26581  0.044441339  0.093418027            2 
   24000    1.2426279   -3.2397265    13.423357  0.046608879   0.09331694            2 
   25000     1.255779   -3.2429719    14.496559  0.048321864  0.093291471            1 
   26000    1.2492071   -3.2241472    15.574765  0.049919117  0.093194732            1 
   27000    1.2473558    -3.262541    16.587081  0.051194692  0.093063464            1 
   28000    1.2111918   -3.2209738    17.821735  0.053040878  0.092920127            3 
   29000    1.2345161   -3.2202216    18.874688  0.054237609  0.092735325            4 
   30000    1.2434135   -3.2514994    19.786972   0.05496381  0.092629073            1 
   31000    1.2286357   -3.2310509    20.954413  0.056329067  0.092441229            2 
   32000    1.2273356   -3.2350104    21.817044  0.056815218   0.09213693            2 
   33000    1.2429235   -3.2293444    22.945956  0.057944332  0.091723892            2 
   34000    1.2343676   -3.2280453    24.116916  0.059110087  0.091473847            1 
   35000    1.2493207   -3.2136084    25.240908    0.0600974  0.091347746            3 
   36000    1.2435425   -3.1997378    26.400964  0.061113342  0.091260054            2 
   37000    1.2016516   -3.2231299    27.531413  0.062007686  0.091183647            1 
   38000    1.2570281   -3.2284815    28.491925  0.062482291  0.091130746            3 
   39000    1.2015587   -3.2225419     29.66795  0.063393056  0.091071607            2 
   40000    1.2390508   -3.2506102    30.701977  0.063962451  0.091055746            5 
   41000     1.208314   -3.2324958    31.881739  0.064800281  0.091050687            1 
   42000    1.2532222    -3.232798    33.159648  0.065792953  0.091048887            1 
   43000    1.2467644   -3.2440543    33.898955  0.065695648  0.091044087            2 
   44000    1.2410473   -3.2372194    34.884693  0.066069494  0.091024344            3 
   45000    1.2252538   -3.2073562    36.205457  0.067047141  0.091037007            2 
   46000    1.2471976   -3.2572889    37.195744  0.067383594  0.091038333            1 
   47000    1.2259188   -3.2529233    38.376552  0.068043532  0.090972917            2 
   48000    1.2585204   -3.2069651    39.559509  0.068679702   0.09095235            1 
   49000    1.2421028   -3.2225104    40.527759   0.06892476  0.090981425            2 
   50000    1.2352359   -3.2477469    41.918698  0.069864495  0.091010017            2 
   51000    1.2266031   -3.2603795    42.742767  0.069841122  0.090989529            1 
   52000    1.2136601   -3.2490589    43.659593  0.069967296    0.0909437            1 
   53000    1.2245232   -3.2476328    44.688857  0.070265497  0.090861303            1 
   54000    1.2313594   -3.2717904    45.490917  0.070202032  0.090747621            3 
   55000    1.2276257   -3.2322985    46.391005  0.070289401  0.090584553            1 
   56000    1.2482349   -3.2495362    47.565696  0.070782285  0.090465056            1 
   57000    1.2434387   -3.2584883    48.862388  0.071436239  0.090392244            3 
   58000    1.2429769   -3.2463807    49.566425  0.071216127  0.090283824            2 
   59000    1.2307712   -3.2419049    50.821591  0.071781907  0.090163884            4 
   60000    1.2364781   -3.2308659    52.007892  0.072233183   0.09007232            1 
   61000    1.2035623   -3.2098761    52.890471  0.072254741  0.089974724            1 
   62000    1.2568771   -3.2480451    53.677812  0.072147596  0.089851528            2 
   63000    1.2112611   -3.2623444    54.826242  0.072521483  0.089723479            3 
   64000    1.2224711   -3.2252856    55.884646  0.072766466  0.089606961            2 
   65000    1.2387769   -3.2044858    57.025617  0.073109765  0.089527382            2 
   66000    1.2293428   -3.2724681    58.055943  0.073302958  0.089468365            1 
   67000    1.2160147   -3.2879218    59.125547  0.073539237  0.089430561            2 
   68000    1.2084309   -3.2301163    60.818343  0.074532283  0.089411346            1 
   69000    1.2231648   -3.2580909    61.623559  0.074424587  0.089415115            3 
   70000    1.2057788   -3.2699878    62.472308  0.074371795  0.089381504            1 
   71000    1.2363674   -3.2316064    63.428304  0.074446366  0.089307069            1 
   72000    1.2028501   -3.2410581    64.460973  0.074607607   0.08928917            2 
   73000     1.210974   -3.2415055      66.0023  0.075345091  0.089267688            1 
   74000    1.2135168   -3.2325641    66.912987  0.075352462  0.089260563            2 
   75000    1.2087478   -3.2667688    68.005305   0.07556145   0.08925442            1 
   76000    1.2423583   -3.2415787     68.71527  0.075345691  0.089263201            2 
   77000    1.2313239   -3.2403177    70.292266   0.07607388  0.089272521            1 
   78000    1.2372657   -3.2704176    70.829112  0.075672128  0.089286183            2 
   79000    1.2124394   -3.2680697    72.602505  0.076584921  0.089292431            3 
   80000    1.2518185   -3.2551255     73.75044  0.076823375  0.089314679            2 
   81000    1.2078115   -3.2584194    74.433686  0.076577866  0.089342474            1 
   82000    1.2397204    -3.232395    76.505322   0.07774931  0.089385531            1 
   83000    1.2079097    -3.256996    77.468089  0.077779205  0.089448068            1 
   84000    1.1842805   -3.2816156    78.523194  0.077899994  0.089517651            2 
   85000    1.2528173   -3.2609145    79.787059  0.078222607  0.089594647            1 
   86000    1.2156073   -3.2502284    81.100763   0.07858601  0.089679486            1 
   87000    1.2311081   -3.2523774    81.618469   0.07817861  0.089750261            2 
   88000    1.2278749   -3.2561124    82.904213  0.078507777  0.089801267            1 
   89000    1.2099164   -3.2844421    83.989945   0.07864227  0.089851617            1 
   90000    1.2362933   -3.2430364    85.239674  0.078925624  0.089908646            1 
   91000    1.2101964    -3.259535    86.611391   0.07931446  0.089987136            1 
   92000    1.2135681     -3.24639    87.205783  0.078990745  0.090057676            1 
   93000    1.2120555   -3.2635242    88.467876   0.07927229  0.090102763            2 
   94000    1.1935282   -3.2644857    89.732409  0.079550008  0.090164477            2 
   95000    1.2346188   -3.2739131    90.981199  0.079808069  0.090251835            3 
   96000    1.2150257   -3.2876745    91.741714  0.079636904  0.090318703            3 
   97000    1.2058733   -3.2538367    93.481679   0.08031072  0.090394874            1 
   98000    1.2116779   -3.2808506      93.8764  0.079826871  0.090463055            1 
   99000    1.2263634   -3.2749298    95.342464  0.080254599  0.090500789            1 
  100000    1.2108578   -3.2539853    95.951428  0.079959523  0.090529531            1 
  101000    1.2197643   -3.2463466    97.325672  0.080301709  0.090559257            2 
  102000    1.2497765    -3.244634    98.424014  0.080411775  0.090573417            2 
  103000    1.2004053   -3.2647867    99.271345  0.080316621  0.090597883            1 
  104000    1.1878831   -3.2568294    100.22637  0.080309589  0.090602805            2 
  105000    1.1948568   -3.2726532    100.78354   0.07998694  0.090613583            2 
  106000      1.21363   -3.2710281    101.88235  0.080096188  0.090599495            1 
  107000    1.2209242   -3.2246146    102.63867  0.079936659  0.090561708            1 
  108000    1.2072392   -3.2586802    103.49975  0.079860917  0.090525831            1 
  109000    1.2244147   -3.2550591    104.15803  0.079631519   0.09045813            2 
  110000     1.212741   -3.2799077    105.68059  0.080061052  0.090390548            3 
  111000    1.2403406    -3.273969    106.72486   0.08012377  0.090344517            2 
  112000    1.2070619   -3.2859007    107.79408   0.08020393  0.090306646            1 
  113000    1.1931324   -3.2690432    108.73549  0.080188416  0.090269055            2 
  114000    1.1980858   -3.2831931    109.68127  0.080176365  0.090223851            2 
  115000    1.2047051   -3.2669578    111.39703  0.080722488  0.090183366            1 
  116000    1.2143835   -3.2736609    112.09927  0.080531086  0.090154029            1 
  117000    1.2105275    -3.257784    113.58136  0.080898401  0.090138041            1 
  118000    1.1925758    -3.276229    114.91459  0.081154374  0.090117386            2 
  119000    1.2439496   -3.2926638     115.0309  0.080553853  0.090101947            2 
  120000    1.2077518   -3.2686178    116.31751  0.080776046  0.090070957            1 
  121000    1.2077801   -3.2639017    117.09113  0.080641271  0.090036314            1 
  122000    1.2011071   -3.2736167      118.291  0.080799861  0.090001837            2 
  123000    1.2274293   -3.2739748     118.9452  0.080586181  0.089965444            2 
  124000    1.2019752   -3.2508663    120.27965  0.080833096  0.089922218            2 
  125000    1.1949796   -3.2854084    120.64457  0.080429711  0.089875565            2 
  126000    1.2074354   -3.2655677    121.89371  0.080617534  0.089819023            2 
  127000    1.2183213    -3.300945    123.26086  0.080879829  0.089779065            5 
  128000    1.2007733   -3.3116641     123.6362  0.080492315  0.089729656            3 
  129000     1.201243    -3.275894    125.06651  0.080792319  0.089675147            1 
  130000    1.2203359   -3.2513217    126.37587  0.081010173  0.089623168            3 
  131000    1.2144534   -3.2748478    126.75158  0.080630774  0.089574849            1 
  132000    1.2487736   -3.2759898     127.5297  0.080511173  0.089517158            3 
  133000    1.2181671   -3.3051929    128.53089   0.08053314  0.089460564            2 
  134000    1.2037646   -3.2705486    129.65525  0.080631373  0.089407907            2 
  135000    1.2121179   -3.3059118    130.84873  0.080770819  0.089352539            2 
  136000    1.2032042   -3.2919194    131.58542  0.080628318  0.089289763            1 
  137000    1.2252836   -3.2990036     133.3656   0.08112263  0.089232474            1 
  138000    1.1969791   -3.2914533    134.39145  0.081154259  0.089188966            2 
  139000    1.1820317   -3.3069187    135.11535  0.081004403  0.089150447            3 
  140000    1.1977218   -3.2962375    137.15323  0.081638824  0.089118506            2 
  141000    1.2218815   -3.2862598    138.61906   0.08192616  0.089095209            1 
  142000    1.1852318   -3.2507362    138.78277  0.081445286   0.08906936            4 
  143000    1.1817624   -3.2785722    140.26132  0.081737367  0.089044518            2 
  144000    1.1821699   -3.2842537    141.42388  0.081842526  0.089027805            3 
  145000      1.21373   -3.3188121    141.76581  0.081474602  0.089010501            1 
  146000     1.184018   -3.3003478     142.7559  0.081481679  0.088991994            5 
  147000    1.1863267   -3.3088076    143.90311  0.081577726  0.088966242            2 
  148000    1.1923477   -3.2776913    145.34921  0.081840771  0.088936397            2 
  149000    1.1986293   -3.2472298    146.31612  0.081832281  0.088903961            1 
  150000    1.2019021   -3.3142363    146.88043  0.081600237  0.088871397            2 
  151000    1.2107215   -3.3148748    147.02793  0.081141242  0.088838546            2 
  152000    1.2036411   -3.2640145    149.16721  0.081780268  0.088801273            2 
  153000    1.1907315    -3.290035    149.58546   0.08147356  0.088772158            2 
  154000     1.207374   -3.3006856    151.04415  0.081733846  0.088746256            2 
  155000     1.200502    -3.315341    152.29269  0.081877789  0.088720007            3 
  156000    1.1906492   -3.2817951    153.76784  0.082140939  0.088697001            2 
  157000    1.1964325   -3.2474513    154.67864   0.08210119   0.08868176            2 
  158000    1.2035219   -3.2671775    154.97893  0.081739943  0.088663775            3 
  159000    1.1520685   -3.2727833    156.62491  0.082088527  0.088639445            2 
  160000    1.1921789   -3.2663389    157.31419  0.081934473  0.088612087            1 
  161000     1.187798   -3.2734811    158.19751  0.081882769  0.088579029            2 
  162000    1.1811896   -3.2825454    158.26694  0.081413034  0.088538162            2 
  163000    1.1914526   -3.2991994    159.72025  0.081656569  0.088489457            1 
  164000    1.2025333   -3.3151082    160.36431  0.081485931  0.088443632            3 
  165000    1.1956559   -3.2874859    162.17284  0.081905475    0.0884031            4 
  166000    1.1712552   -3.2978059    162.62249  0.081637798  0.088357721            3 
  167000    1.1716922   -3.2875928     163.9238  0.081798304  0.088311238            1 
  168000    1.2049283   -3.2917423    164.58999  0.081641858  0.088259664            3 
  169000    1.1927918   -3.3366993    165.17367  0.081446582  0.088211866            1 
  170000    1.2179323   -3.2910238    166.52995  0.081632327  0.088165818            1 
  171000    1.1726428   -3.3131792    166.84955  0.081310697  0.088118271            3 
  172000    1.1833293   -3.3004936    167.70595   0.08125288   0.08807141            1 
  173000    1.1832787   -3.2906381    168.27656  0.081058072  0.088024034            2 
  174000    1.1805287   -3.3104029    170.07329  0.081452726  0.087971435            1 
  175000    1.1586741   -3.3250465    169.99975  0.080952259  0.087929001            1 
  176000    1.1913066    -3.289701    171.88794  0.081386333  0.087887687            5 
  177000    1.1838876    -3.339615    173.03039  0.081464402  0.087844183            2 
  178000    1.1895402   -3.2760102    175.43411  0.082132074  0.087804553            2 
  179000    1.1637007   -3.3289672    175.48829  0.081698458  0.087767964            5 
  180000    1.1853149   -3.3065238    176.45702  0.081693062  0.087730486            2 
  181000    1.1644411   -3.3032242    177.00619  0.081494564  0.087695396            3 
  182000    1.1710227   -3.3386073    177.65114  0.081342095   0.08766183            1 
  183000    1.1790721   -3.3007541    179.20746  0.081606311  0.087619723            3 
  184000    1.2027954   -3.3061371    179.36282  0.081233159  0.087573706            1 
  185000    1.1563686   -3.3021215    180.21302  0.081177038  0.087528681            3 
  186000    1.1562262   -3.3066844    182.27069  0.081662495  0.087485859            1 
  187000    1.2028697   -3.3509306    181.74578   0.08099188  0.087437509            1 
  188000    1.1368152   -3.2978225    183.05219  0.081140153  0.087381872            1 
  189000    1.1566261   -3.3440841    184.03272  0.081143173  0.087333608            2 
  190000    1.1733299   -3.3080746    184.44094  0.080895148  0.087283476            1 
  191000    1.1852501   -3.2892521    185.90566  0.081110673  0.087231167            4 
  192000    1.1797187   -3.3208431    187.98358  0.081590094  0.087183173            2 
  193000    1.1430356   -3.2879037    187.84718  0.081108455  0.087140652            3 
  194000     1.180289   -3.3015672    189.66005  0.081469094  0.087093424            1 
  195000    1.1569428   -3.2829859    190.64925  0.081474039  0.087046534            2 
  196000    1.1723827    -3.314658    190.70325  0.081081315  0.086993917            3 
  197000    1.1664962   -3.2972703    191.93407  0.081190384  0.086944223            2 
  198000    1.1949246   -3.3279416    192.37068  0.080964092  0.086896056            1 
  199000    1.1502219   -3.3052381    194.16172  0.081307251  0.086840726            2 
  200000    1.1972222   -3.2716364    194.47979  0.081033244  0.086786837            2 
  201000    1.1682716   -3.3130127    195.89307  0.081216032  0.086736159            3 
  202000     1.156024   -3.3387135    196.07889  0.080890632  0.086686805            3 
  203000    1.1560887   -3.3327987    197.46911  0.081062855  0.086645471            1 
  204000    1.1736234   -3.2938176    199.01904  0.081298627  0.086602625            1 
  205000    1.1753202   -3.3519359     200.1477  0.081360852  0.086562769            3 
  206000    1.1680185   -3.3349995    200.80527  0.081231903   0.08652647            3 
  207000    1.1821978   -3.2846091     203.2005  0.081803743  0.086490144            2 
  208000    1.1802063   -3.3018319    202.81117  0.081254474  0.086454248            4 
  209000    1.1815759   -3.3082732    204.42081  0.081507501  0.086420906            1 
  210000    1.1679909   -3.2948622    206.07021  0.081773893  0.086389948            2 
  211000    1.1715197   -3.3252731    206.49411  0.081553757  0.086361156            1 
  212000    1.1800874   -3.3091138    206.94762  0.081347335  0.086326881            5 
  213000    1.1500295   -3.3467411    208.02743  0.081387882  0.086287787            2 
  214000    1.1755206   -3.3060356    208.90266  0.081348386  0.086255393            3 
  215000    1.1448207    -3.318185    209.62738  0.081250923  0.086222364            1 
  216000    1.1852734   -3.3243583    211.29301  0.081517363  0.086191797            1 
  217000     1.179508    -3.320805    211.74613  0.081315717  0.086163405            2 
  218000    1.1554653   -3.3315966    213.14243  0.081476464  0.086134768            1 
  219000    1.1559467   -3.3459482    214.14833  0.081487186  0.086102903            3 
  220000    1.1955109    -3.310568    215.94331  0.081796708  0.086074541            2 
  221000    1.1637938   -3.3650932    217.29057  0.081934605  0.086059848            4 
  222000    1.1673138   -3.3139745     218.3024  0.081945346  0.086045791            1 
  223000    1.1522095   -3.3055861    219.43844  0.082002405  0.086024748            3 
  224000    1.1730731   -3.3235393    220.45518  0.082014576  0.086009507            2 
  225000    1.1510362   -3.3403493     221.4851  0.082031518  0.085996787            1 
  226000    1.1433737   -3.2979558     222.4121  0.082010362  0.085983111            4 
  227000    1.1752377   -3.3072409    223.92894  0.082205927  0.085974753            2 
  228000    1.1719421   -3.3312221    223.53177  0.081700208  0.085963189            1 
  229000    1.1632686   -3.3249637    225.81059  0.082172703  0.085952084            9 
  230000    1.1488428   -3.3294634    226.84113  0.082188816  0.085936499            2 
  231000    1.1644146   -3.3292344    226.32999  0.081648625  0.085913285            2 
  232000    1.1713075   -3.3406979    226.66829  0.081418207  0.085884612            2 
  233000    1.1311851    -3.341826    228.30388  0.081653747  0.085860948            1 
  234000    1.1683237   -3.3381851     229.9328  0.081884899  0.085838462            1 
  235000    1.1824841   -3.3182618    231.62596  0.082136864  0.085817601            2 
  236000    1.1906978   -3.3319566    231.25322  0.081657211  0.085797266            2 
  237000    1.1797475   -3.3448356    233.32333  0.082040551  0.085776797            2 
  238000    1.1287205   -3.3195261    233.49473  0.081755857  0.085753597            2 
  239000    1.1910382   -3.3417342    232.71826  0.081143049  0.085728737            2 
  240000    1.1522084   -3.3309445    235.35517  0.081720544  0.085703023            1 
  241000    1.1507069   -3.3132162     235.1752  0.081319225  0.085676212            2 
  242000     1.162236   -3.3240228    237.14429  0.081661258  0.085651081            2 
  243000     1.151835   -3.3286183    237.30134  0.081379061  0.085625765            2 
  244000    1.1693795   -3.2969023    239.93635  0.081945475  0.085600187            1 
  245000    1.1745602   -3.3312092    239.33025  0.081404848   0.08557133            2 
  246000    1.1820955   -3.3206811    240.30189   0.08140308   0.08554046            2 
  247000    1.1571758   -3.3080213    241.25078  0.081393651  0.085512214            2 
  248000    1.1600783   -3.3136766    241.81944  0.081256532   0.08548476            2 
  249000     1.128329   -3.3427218    243.07791  0.081351374  0.085457557            2 
  250000    1.1375406   -3.3351843    244.23394  0.081411314  0.085429017            1 
  251000    1.1526186   -3.3236002    245.22405  0.081415688  0.085405247            1 
  252000    1.1717538   -3.3245288    246.33302  0.081459331  0.085380084            1 
  253000    1.1553515    -3.329667     247.9741  0.081677898  0.085355071            1 
  254000      1.16992   -3.3486391    247.21543  0.081107425  0.085325159            2 
  255000    1.1268453    -3.347266    248.60167  0.081242377   0.08529162            3 
  256000    1.1371216   -3.3409731    248.46231  0.080879658  0.085262752            2 
  257000    1.1326797   -3.3634259     250.5632  0.081246173  0.085231742            1 
  258000    1.1433673   -3.3445632     251.8212  0.081337596  0.085198262            1 
  259000    1.1669067   -3.3421774    252.53866  0.081254396  0.085168467            1 
  260000    1.1482917   -3.3542962    252.53549  0.080940861  0.085137434            3 
  261000    1.1656028   -3.3332909     252.8167  0.080720529  0.085100476            3 
  262000    1.1125951   -3.3402038    254.29414  0.080882359    0.0850649            3 
  263000    1.1403801   -3.3632865    254.82542  0.080743162  0.085026937            2 
  264000    1.1699283   -3.3384009    256.18794  0.080867406  0.084986997            1 
  265000    1.1762085   -3.3722093    257.58179  0.081000563   0.08494619            2 
  266000    1.1548815   -3.3753779    257.09574  0.080543776  0.084908404            3 
  267000    1.1600992   -3.3499428    259.10915   0.08087052  0.084870633            1 
  268000      1.14813   -3.3496672    259.97426  0.080837768  0.084835054            1 
  269000    1.1299759   -3.3762899    260.53145  0.080709867  0.084797591            1 
  270000    1.1360155   -3.3455235    262.82281   0.08111815  0.084762883            2 
  271000    1.1578481    -3.363119    262.69807  0.080780464  0.084730754            2 
  272000    1.1399294   -3.3742976    264.37116  0.080996067  0.084699538            3 
  273000    1.1442569   -3.3472716    264.87701  0.080853788  0.084668046            1 
  274000    1.1315503   -3.3497278    265.65948   0.08079668  0.084638341            2 
  275000    1.1284076   -3.3002337    268.69549  0.081422876  0.084606091            2 
  276000    1.1580926   -3.3527419    266.23433  0.080384762   0.08456868            1 
  277000    1.1366438   -3.3165478      267.929  0.080604392  0.084529138            3 
  278000    1.1453382   -3.3268967    268.97825  0.080628972  0.084490551            2 
  279000     1.163283   -3.3356394      271.575   0.08111559  0.084458944            2 
  280000    1.1310902   -3.3290439    270.26765  0.080436801  0.084423754            2 
  281000    1.1530944   -3.3472797    272.13705  0.080704937  0.084386075            3 
  282000    1.1240905   -3.3272391    271.89472  0.080347138  0.084348586            1 
  283000    1.1477041    -3.360639    273.27687  0.080470222  0.084308863            3 
  284000     1.147276   -3.3461858    273.48542   0.08024807  0.084272112            3 
  285000    1.1187943   -3.3633246    275.16114  0.080456472  0.084232265            1 
  286000    1.1639408   -3.3432046    276.08599  0.080444637  0.084193091            3 
  287000    1.1459015   -3.3657886    277.06105   0.08044746  0.084152585            1 
  288000    1.1161427    -3.359529    276.34256  0.079960231  0.084112266            3 
  289000    1.1413835   -3.3428405    278.67593   0.08035638  0.084073836            2 
  290000    1.1147462   -3.3843062    279.11535   0.08020556  0.084036128            2 
  291000    1.1377847   -3.3710246    280.91247   0.08044458  0.083998883            2 
  292000    1.1496851   -3.3764146    280.45026  0.080037174  0.083961907            4 
  293000    1.1401362    -3.345076    281.77411  0.080140531  0.083923018            1 
  294000    1.1458869   -3.3650541    282.08441  0.079955899  0.083882719            2 
  295000    1.1215181   -3.3731863    283.24045  0.080011427   0.08384252            2 
  296000    1.1173798   -3.3681814    284.99672  0.080235564  0.083803154            2 
  297000    1.1389633   -3.3452257    284.70547   0.07988369  0.083762654            1 
  298000     1.137253   -3.3291038     285.8966  0.079948715  0.083721208            1 
  299000    1.1262239    -3.345907    286.87469  0.079953926  0.083680199            3 
  300000    1.1168328   -3.3841403    286.26357  0.079517658  0.083636931            2 
  301000    1.1443225   -3.3754409    288.41066  0.079847914  0.083590231            3 
  302000    1.1406617   -3.3901086    288.73379  0.079672679  0.083548633            3 
  303000    1.1264967   -3.3647916    290.28818  0.079837234  0.083507645            1 
  304000    1.1283193    -3.351294    291.31927  0.079857256  0.083467765            1 
  305000    1.1316366   -3.3543778    293.77061  0.080265193  0.083430642            3 
  306000    1.1328983   -3.3890426    293.19711  0.079846709  0.083395077            1 
  307000    1.1207803   -3.3672796     294.5562  0.079955538  0.083352563            1 
  308000    1.1368333    -3.347314    293.24968  0.079342446  0.083308181            2 
  309000     1.142396   -3.3746911    295.29947  0.079638477  0.083261883            2 
  310000    1.1325156   -3.3714608    296.38159   0.07967247  0.083217318            2 
  311000    1.0841106   -3.3723725    296.35222  0.079408418  0.083172396            4 
  312000    1.1324816   -3.3589784    297.71265  0.079517267  0.083126452            3 
  313000    1.1156121   -3.3822092    296.93526  0.079056246  0.083078277            4 
  314000    1.1354605   -3.3747656    298.71485  0.079276766   0.08302978            1 
  315000    1.1349963   -3.4040334    297.28405  0.078646574  0.082979443            3 
  316000    1.1155821   -3.3587337    299.75961  0.079050531  0.082929585            3 
  317000    1.1189479   -3.3770838    299.80014  0.078811813  0.082878523            2 
  318000     1.121389   -3.3722368     299.2203  0.078412028  0.082823856            2 
  319000    1.1224007   -3.3822524    299.87338  0.078336829  0.082769943            1 
  320000     1.140539    -3.341081    302.56176  0.078792125   0.08271725            1 
  321000    1.1137026   -3.3776435    302.58081  0.078551613  0.082666941            1 
  322000    1.1344843   -3.3735303    304.61766  0.078834798  0.082618055            3 
  323000    1.1005898   -3.3461028    305.78267  0.078891296  0.082572405            3 
  324000    1.1256621     -3.37325    306.47252  0.078825237  0.082524647            3 
  325000    1.1068965   -3.3719766    307.19637    0.0787683  0.082479049            2 
  326000    1.1287646   -3.3958853    307.92938  0.078714055  0.082432641            2 
  327000    1.1255672   -3.3965959     309.2484   0.07880948  0.082385184            3 
  328000    1.1129116    -3.381049    309.54891  0.078645557  0.082340197            1 
  329000    1.1420423   -3.3519811    311.07693  0.078793548  0.082296739            1 
  330000    1.1329019   -3.3535415    309.97418  0.078276308   0.08225006            1 
  331000    1.1329307   -3.4018581    311.33927  0.078383501  0.082201912            1 
  332000    1.1092687   -3.4142212    312.77613  0.078508065  0.082155496            2 
  333000    1.1045471   -3.3907718     312.7496  0.078265665  0.082108488            2 
  334000    1.1186944   -3.3810989    315.43367  0.078701014  0.082063921            1 
  335000    1.1230149   -3.4329959    314.41385    0.0782124  0.082017527            1 
  336000    1.1563206   -3.3777737    316.09597  0.078396817  0.081971796            1 
  337000    1.1402986    -3.399624    317.47966  0.078506344  0.081927622            3 
  338000    1.1202165   -3.3971553    318.44368  0.078511754  0.081882974            2 
  339000    1.1140779   -3.3933194    319.30473  0.078491821  0.081835815            2 
  340000    1.0944438    -3.433779    318.13933  0.077975327  0.081784708            3 
  341000    1.1302994   -3.4143828    319.18198  0.078001462  0.081736517            4 
  342000    1.1191387   -3.3756565    320.72168  0.078148557  0.081689192            2 
  343000    1.1427334   -3.3652808    323.12349  0.078504249  0.081641745            2 
  344000    1.0898808   -3.3836388    322.98497  0.078242482   0.08159604            1 
  345000    1.1285384   -3.3948438    322.90159  0.077995552  0.081549272            2 
  346000    1.1339564   -3.4165234     323.1398  0.077827506   0.08150126            2 
  347000    1.1297439   -3.3791879    325.52377  0.078175737  0.081451655            2 
  348000     1.137949   -3.4034826    324.57557  0.077724036  0.081402893            2 
  349000    1.1191407   -3.3673426    326.09448  0.077864012  0.081350981            2 
  350000    1.1259988   -3.4040673    326.42549  0.077720356  0.081303005            4 
  351000    1.1094989   -3.3764511    327.71475  0.077805022  0.081254258            2 
  352000    1.0908575    -3.403985    327.32692  0.077492168  0.081206529            2 
  353000    1.0971159   -3.3742388    331.20315  0.078187712  0.081157825            2 
  354000    1.1095939   -3.4297971    328.76377  0.077392601  0.081109869            2 
  355000    1.1121335   -3.4190164    329.81469  0.077421288  0.081061454            2 
  356000    1.1231137   -3.4124253    332.42115   0.07781394  0.081014748            1 
  357000    1.1240919   -3.3914647    333.36151  0.077815479  0.080966765            2 
  358000     1.085874   -3.4023133    333.91165  0.077726175  0.080920391            2 
  359000    1.0836623   -3.4080165    335.47123  0.077871688  0.080873946            3 
  360000    1.1043167   -3.4108417    334.19233  0.077359335   0.08082688            1 
  361000    1.1191332    -3.404116    335.37278   0.07741754  0.080776849            3 
  362000    1.0906125   -3.4346908     335.8129  0.077304995  0.080727001            3 
  363000      1.13327   -3.4059762    337.80629  0.077549653  0.080679322            2 
  364000    1.1235558   -3.3715327    339.89959  0.077815841  0.080635641            2 
  365000    1.1200986   -3.4139681    339.25907  0.077456409  0.080589709            2 
  366000    1.1140199   -3.4252805    340.27749   0.07747666  0.080547018            2 
  367000    1.1069005   -3.3852913     342.0688  0.077672297  0.080504383            2 
  368000     1.124919   -3.4116005     343.0292  0.077678714  0.080461984            2 
  369000    1.1000562   -3.4274827     343.3149  0.077532722  0.080419087            3 
  370000    1.1424198   -3.4146401    344.10455  0.077501024  0.080376985            1 
  371000     1.124261   -3.4504539    344.50444   0.07738195  0.080333599            1 
  372000    1.1219631   -3.4084142    345.81334  0.077467147  0.080289924            4 
  373000     1.123506   -3.3710821    347.22079  0.077573902  0.080249116            1 
  374000    1.1051013   -3.4066663    347.83426  0.077503177     0.080208            2 
  375000    1.1108154   -3.3884166    347.08514  0.077130031  0.080164225            2 
  376000    1.1018136   -3.4143051    348.74803  0.077293446  0.080119315            2 
  377000    1.1029117   -3.4062469     349.3667  0.077225177  0.080076892            4 
  378000    1.0997021   -3.4093983     351.8692  0.077572575  0.080036393            2 
  379000    1.1249684   -3.4247651      351.695  0.077329596  0.079996993            1 
  380000    1.0749535   -3.3930184    352.58264  0.077320754  0.079956651            2 
  381000     1.124657    -3.407787    353.60928  0.077342362  0.079918947            2 
  382000    1.1050622   -3.4291796    355.40495   0.07753162  0.079879876            1 
  383000    1.1036623   -3.4027321    355.01108   0.07724349  0.079841768            2 
  384000    1.1127623   -3.4107378    356.56637  0.077379854  0.079804724            2 
  385000    1.1029685   -3.3821383    359.08097  0.077723154  0.079768953            2 
  386000    1.0965399   -3.4258059    358.84431  0.077470706  0.079732276            3 
  387000    1.1035474   -3.4150566    359.37547  0.077384899  0.079697521            3 
  388000    1.1059146   -3.3981804    360.85505  0.077503232  0.079661183            3 
  389000    1.0903183   -3.4089767    361.59174  0.077461812  0.079625442            3 
  390000    1.1258532   -3.3949259    361.52552  0.077249042  0.079590268            1 
  391000    1.0992635   -3.4258205    363.70259  0.077515471  0.079554973            2 
  392000    1.0815139   -3.4089989    362.94934  0.077157598   0.07952134            1 
  393000    1.1066895   -3.4066486    363.64612  0.077109016  0.079486119            2 
  394000    1.1098339   -3.4301528    365.81467  0.077371968  0.079452773            1 
  395000    1.0704446   -3.4181429     365.8635  0.077186391   0.07941934            3 
  396000    1.0851781   -3.4334798    366.89659  0.077208879  0.079385585            2 
  397000    1.1062214   -3.3888851     368.0597  0.077258544  0.079353794            7 
  398000    1.0879096   -3.4285767    367.98923  0.077049671  0.079317247            3 
  399000    1.1005123   -3.4095258     368.5184  0.076967084  0.079279698            3 
  400000    1.0965126   -3.4021086     368.5322  0.076777542  0.079242077            4 
  401000    1.0864941    -3.461368    370.12369   0.07691681  0.079205259            1 
  402000    1.0939713     -3.41997    371.69588  0.077051385  0.079167945            1 
  403000    1.0836979    -3.429087    371.57365  0.076834914  0.079130918            4 
  404000    1.1040265   -3.4288352    372.61027  0.076858555  0.079096546            2 
  405000    1.1091311   -3.4254619    373.04577   0.07675839  0.079062625            4 
  406000    1.0817159   -3.4321489    374.16859  0.076799792  0.079028491            3 
  407000     1.109344   -3.4589334    373.94612  0.076565545  0.078993803            4 
  408000    1.0778698   -3.4474829    374.80721   0.07655376  0.078956243            2 
  409000    1.0757033   -3.4275887    376.01381   0.07661243  0.078918827            2 
  410000    1.1046691    -3.440175    375.68207  0.076358144  0.078880225            3 
  411000     1.097588   -3.4449984    377.84365  0.076610634  0.078845131            6 
  412000    1.0715044   -3.4217199    378.18627  0.076493987   0.07880814            1 
  413000    1.1134546   -3.4232565    380.83207  0.076842629   0.07877153            2 
  414000    1.0753155   -3.4508181    378.86695  0.076261462  0.078734982            2 
  415000    1.0639725   -3.4746597    379.61015  0.076226938  0.078695071            2 
  416000    1.0949936   -3.4381225    380.33546  0.076188994  0.078655909            4 
  417000    1.0767757   -3.4358706    384.85614  0.076909701   0.07861759            4 
  418000     1.081121   -3.4147101    384.11734  0.076578418  0.078580824            3 
  419000    1.0974817    -3.417681    384.14303  0.076400761  0.078545941            3 
  420000    1.0976119   -3.4302277    384.37341  0.076264565  0.078510869            2 
  421000    1.0917624   -3.4264389    384.22344  0.076053729  0.078476819            2 
  422000    1.0967727   -3.4247549     388.0851  0.076636079  0.078442679            3 
  423000    1.0619326   -3.4215038    387.48543  0.076336767  0.078409142            1 
  424000    1.1161138   -3.4373179    387.89974  0.076238156  0.078373898            1 
  425000     1.091723   -3.4372508    389.26187  0.076325856   0.07833843            1 
  426000    1.1028085   -3.4421636    389.76639  0.076245382  0.078303335            4 
  427000    1.0940654   -3.4430081    390.62493  0.076234374  0.078266621            2 
  428000    1.0817623   -3.4296223    391.55226   0.07623681  0.078229882            2 
  429000    1.0885949   -3.4106027    390.80013     0.075913  0.078193271            2 
  430000    1.0896043   -3.4460728     392.0141  0.075971725  0.078156785            1 
  431000    1.1021789   -3.4378679     392.2829  0.075847429    0.0781202            2 
  432000    1.0932512   -3.4578689    393.24014  0.075856508  0.078083648            2 
  433000    1.0747913    -3.461064     393.5682  0.075744457  0.078047438            1 
  434000    1.0824136   -3.4483796    396.95875  0.076220958  0.078009946            3 
  435000    1.0980435   -3.4291673    395.64772  0.075794582  0.077972653            1 
  436000    1.0673155   -3.4624835    396.14779  0.075716321  0.077934767            5 
  437000    1.0888486   -3.4190221    396.29781  0.075571665  0.077894546            3 
  438000     1.066415   -3.4287722    396.44296  0.075426742  0.077856164            3 
  439000    1.0810384   -3.4339683    398.45526  0.075636914  0.077819425            2 
  440000    1.0826553    -3.498858    398.53928  0.075480924  0.077781437            2 
  441000    1.0799205   -3.4443988    399.86695  0.075560649  0.077744918            3 
  442000    1.0757481    -3.440597    400.91224  0.075586772  0.077708703            3 
  443000    1.0935383   -3.4461423    402.47751  0.075710592  0.077672369            2 
  444000    1.0752575   -3.4509446    403.66838  0.075763584  0.077635477            1 
  445000    1.0606475   -3.4459618     404.4381  0.075737472  0.077601283            2 
  446000    1.1060062   -3.4572914     403.8356  0.075455081  0.077566416            2 
  447000    1.0798347   -3.4560647    405.81537  0.075655363  0.077531594            2 
  448000     1.073123   -3.4443226    407.72239  0.075841219  0.077498653            2 
  449000    1.0810273   -3.4557263    405.37761  0.075237122  0.077462625            1 
  450000    1.0775585   -3.4584113     406.5786  0.075292333  0.077425759            2 
  451000    1.0780263   -3.4493095    408.03503    0.0753945  0.077388372            1 
  452000    1.1111232   -3.4484413    410.02798  0.075595129  0.077352603            1 
  453000      1.09397    -3.429646    408.58859  0.075163464  0.077316728            2 
  454000     1.051561   -3.4403545    410.63902  0.075374269  0.077279986            3 
  455000    1.0973129   -3.4630427    410.59441  0.075200441    0.0772431            2 
  456000    1.0903628   -3.4686579    412.96308    0.0754684  0.077208835            1 
  457000    1.0718992   -3.4487376    411.80415   0.07509193  0.077174016            3 
  458000    1.0609876   -3.4770324    415.20422  0.075546619  0.077139078            2 
  459000    1.0776101   -3.4523211    416.32765  0.075585994  0.077107527            4 
  460000    1.0818245   -3.4726467    415.81659  0.075329092  0.077073297            3 
  461000     1.058622   -3.4800181    414.91538  0.075002779  0.077037055            2 
  462000    1.0575948   -3.4710166    417.22829  0.075257628  0.077001918            2 
  463000    1.0777222   -3.4461523    417.94381  0.075223868  0.076966655            3 
  464000    1.0452877   -3.4711158     418.2804  0.075122199  0.076931905            1 
  465000    1.0775468   -3.4516417     419.9591  0.075261487  0.076896364            2 
  466000    1.0646279   -3.4208106    421.48817  0.075373421   0.07686117            1 
  467000    1.0633002   -3.4749843    418.16302  0.074618669  0.076827351            2 
  468000    1.0645756   -3.4701418    421.42919   0.07504081   0.07679192            1 
  469000    1.0713422    -3.455949    422.74192  0.075114059  0.076755293            2 
  470000    1.0631579   -3.4609082    422.52667  0.074916076  0.076720555            2 
  471000    1.0771428   -3.4774967    424.46744  0.075100396  0.076686905            3 
  472000    1.0880969    -3.443512    424.61326  0.074967031  0.076653449            3 
  473000    1.0928694   -3.4801153    425.13505  0.074900466  0.076620769            3 
  474000    1.0482597   -3.4712779    428.10028  0.075263762  0.076589538            2 
  475000    1.0593418   -3.4849051    425.45611  0.074641423  0.076557615            2 
  476000    1.0494697   -3.4411535    429.82812  0.075250021  0.076525116            3 
  477000    1.0846399   -3.4372788    428.92874  0.074935139   0.07649244            3 
  478000    1.0657443    -3.459719    430.40641  0.075035985  0.076460717            2 
  479000     1.032611   -3.4607877    433.67869  0.075448623  0.076429475            2 
  480000    1.0544528   -3.4363836    433.28586  0.075223239  0.076399879            5 
  481000    1.0525778   -3.4561054    432.36176  0.074906749  0.076367485            2 
  482000    1.0830869   -3.4853847    431.77923  0.074650627  0.076336389            2 
  483000    1.0627993   -3.4514787    435.05983  0.075062083  0.076305311            1 
  484000    1.0760234   -3.4633963    435.77847  0.075030728  0.076276343            2 
  485000    1.0715736   -3.4527064    436.87241  0.075063988  0.076247731            3 
  486000    1.0663283   -3.4561889    437.53915  0.075023859  0.076219534            1 
  487000    1.0366709   -3.4659739    438.85494  0.075094959  0.076191115            2 
  488000     1.071469   -3.4697305    438.79158  0.074930256  0.076161802            4 
  489000    1.0691128   -3.4580669     439.6654  0.074925938  0.076132806            2 
  490000    1.0613644   -3.4658684    440.42901  0.074902892  0.076104172            2 
  491000    1.0899575   -3.4710891    440.11424  0.074696918  0.076076517            1 
  492000    1.0579262   -3.4761694    441.05497  0.074704432  0.076047654            3 
  493000    1.0535722   -3.4981564    441.56261   0.07463871  0.076019411            3 
  494000     1.040712   -3.4436133    445.05779  0.075077226  0.075992487            3 
  495000    1.0625594   -3.4662788    444.23632  0.074787258  0.075964913            2 
  496000    1.0977092   -3.4541882    444.93972  0.074754658  0.075937886            1 
  497000    1.0278139   -3.4826641    446.28513  0.074829833   0.07590996            4 
  498000    1.0548113   -3.5049707    445.56508  0.074559083  0.075882742            2 
  499000     1.071553   -3.4958588    446.57679  0.074578622  0.075855287            2 
  500000    1.0386347   -3.4841946    449.03026  0.074838377  0.075827264            2 
  501000    1.0498228   -3.4664858    448.62161  0.074621027  0.075799291            2 
  502000    1.0675478   -3.5329527    449.44471  0.074609015  0.075770944            1 
  503000    1.0482901   -3.4558972    448.15367  0.074246797  0.075742326            2 
  504000    1.0502343   -3.5038837    448.64939  0.074181446  0.075712282            2 
  505000    1.0395538   -3.4860743    448.84291  0.074066487  0.075682519            3 
  506000      1.03981   -3.4882721    450.20473  0.074144388  0.075650902            2 
  507000     1.018693   -3.4900423     449.8918  0.073946713  0.075618799            1 
  508000    1.0432783   -3.4790605    451.71576  0.074100354  0.075587008            4 
  509000    1.0358073   -3.4822478    451.85662  0.073977835  0.075554072            2 
  510000    1.0497285   -3.4880299    453.04268  0.074026582  0.075524747            3 
  511000    1.0545523   -3.4916808    453.74588  0.073996393  0.075493652            2 
  512000    1.0607272   -3.4875016    454.27096  0.073937331  0.075461881            5 
  513000    1.0450613   -3.5042388    455.72289   0.07402906  0.075429858            3 
  514000    1.0456438   -3.5234231    455.72963  0.073886127  0.075397892            3 
  515000    1.0565179   -3.4841107    456.22196  0.073822324  0.075366209            1 
  516000    1.0657876   -3.5101252    458.21447  0.074001045  0.075333676            1 
  517000     1.045145    -3.484814    458.47482  0.073899873  0.075302484            2 
  518000    1.0465911   -3.4937425    457.86411  0.073658962  0.075270833            1 
  519000    1.0407524   -3.4693638    460.28483  0.073905721  0.075238156            6 
  520000    1.0494066   -3.5284406     460.8462  0.073853558  0.075206687            1 
  521000    1.0549024   -3.4769871    461.10748  0.073753596  0.075174829            2 
  522000    1.0309466   -3.4678464     463.0471  0.073921951  0.075143295            3 
  523000    1.0444096   -3.4743263    461.63601   0.07355577  0.075111509            1 
  524000    1.0660564    -3.469911    463.94328  0.073782328  0.075080095            2 
  525000    1.0566541    -3.487156    464.47199  0.073725712  0.075049482            2 
  526000    1.0380537   -3.4962479     463.4914  0.073430197  0.075018609            3 
  527000     1.043936   -3.4609567    465.64521  0.073631437  0.074987261            2 
  528000    1.0530712    -3.522301    466.40436  0.073611799  0.074957057            3 
  529000     1.063864   -3.4985729    468.10168  0.073740025    0.0749267            3 
  530000    1.0578911    -3.512218    467.94488  0.073576239  0.074896386            4 
  531000    1.0527275   -3.5131667    468.24381   0.07348459  0.074865511            2 
  532000    1.0447141   -3.4803781    468.47971  0.073383413  0.074834076            2 
  533000    1.0563835   -3.4709618     472.4779  0.073870842  0.074806501            2 
  534000    1.0528535   -3.5144367    470.31758  0.073395378  0.074777043            2 
  535000    1.0506298   -3.5185675    474.10834  0.073848651  0.074747363            3 
  536000    1.0576975   -3.4862026    473.99298  0.073692938  0.074718488            2 
  537000    1.0460509   -3.4799401    475.28659  0.073756454  0.074689973            2 
  538000    1.0341338   -3.4935633     475.1472  0.073597769  0.074661967            2 
  539000    1.0582834   -3.4887921    476.01026   0.07359466  0.074632889            3 
  540000    1.0066169   -3.4762452     477.9812   0.07376253  0.074603498            3 
  541000    1.0247688    -3.490555     476.1256  0.073340357  0.074574273            4 
  542000    1.0426785   -3.5192006    475.17182  0.073058398   0.07454528            4 
  543000    1.0559594    -3.500547    477.86569  0.073337276  0.074515744            2 
  544000    1.0427155   -3.5002913    480.96863  0.073677793  0.074487172            7 
  545000    1.0232466   -3.4920972    479.26763  0.073282511  0.074458501            2 
  546000    1.0241492   -3.5046779    481.07748  0.073424524  0.074431963            1 
  547000    1.0299193   -3.5085166       482.33  0.073481109  0.074403064            4 
  548000     1.038659   -3.5232102    480.83195  0.073119214  0.074376416            3 
  549000    1.0406522   -3.5085391    484.24428  0.073503989  0.074350336            2 
  550000    1.0345686   -3.5261763    482.87297  0.073162571  0.074321991            3 
  551000    1.0521036   -3.4839741    488.10295  0.073820772   0.07429528            3 
  552000    1.0298765   -3.5165801     483.3109  0.072963602  0.074268684            3 
  553000    1.0256921   -3.5065939    485.48141  0.073158742  0.074241371            3 
  554000    1.0120136   -3.4950222    486.29089  0.073148449  0.074211497            4 
  555000    1.0380279   -3.5068158     488.7172  0.073380961  0.074183476            4 
  556000    1.0346782   -3.5410449    488.63894  0.073237251  0.074156378            2 
  557000    1.0296679   -3.5110171    489.55489  0.073242802  0.074128056            2 
  558000    1.0403525   -3.5059558     488.6955  0.072983199  0.074100686            3 
  559000    1.0316447   -3.5158498    490.64465  0.073143209  0.074073618            6 
  560000    1.0481797   -3.5216048    491.87631  0.073195879  0.074046157            2 
  561000    1.0157068   -3.5143038    491.02351  0.072938727  0.074019034            1 
  562000     1.021668   -3.5195277    492.83727  0.073077887   0.07399119            2 
  563000    1.0262787   -3.4896627    493.40156   0.07303161  0.073963046            2 
  564000    1.0110599   -3.4963255    494.08231  0.073002705  0.073933861            2 
  565000    1.0526786   -3.5167354    494.42677  0.072924302  0.073903719            4 
  566000    1.0159687   -3.4923298    496.05519  0.073035216  0.073874694            5 
  567000    1.0164374    -3.530358    494.65618  0.072700791   0.07384543            4 
  568000   0.99492521   -3.5196363    495.92653  0.072759174  0.073814445            3 
  569000     1.029088   -3.5291083    495.51196  0.072570586  0.073783793            4 
  570000    1.0490231   -3.5266983    495.42306  0.072430271  0.073752762            1 
  571000     1.026798   -3.5195018    498.42974  0.072742226  0.073723209            2 
  572000    1.0382149   -3.5339315    497.60979  0.072495599  0.073692753            2 
  573000    1.0082867   -3.5384744    496.46343   0.07220236  0.073662506            2 
  574000    1.0234418   -3.4920699    498.48124  0.072369519  0.073631687            2 
  575000    1.0218548   -3.5243028    500.39518   0.07252104  0.073601148            1 
  576000    1.0326566   -3.5310225     499.9876  0.072336168  0.073570927            4 
  577000    1.0318311   -3.5291199    500.52068  0.072287793   0.07354037            2 
  578000     1.040072   -3.5410082      502.305  0.072419982   0.07351105            6 
  579000    1.0383928   -3.5182372    503.68778  0.072493924  0.073481122            4 
  580000    1.0143069    -3.520792     503.7194  0.072373477  0.073452318            5 
  581000   0.99064263   -3.5433748     503.6831  0.072243704  0.073422452            3 
  582000    1.0136991   -3.4876025    504.45279  0.072229781   0.07339303            2 
  583000   0.99424576   -3.5230634    506.26751  0.072365282   0.07336332            7 
  584000     1.011095   -3.5462392    506.21531   0.07223392  0.073334473            2 
  585000    1.0480311   -3.5377166    504.65567  0.071888272  0.073304116            2 
  586000    1.0112674   -3.5333808    505.93717  0.071947834  0.073272623            2 
  587000    1.0204087   -3.5313275    506.54867  0.071912078  0.073241822            6 
  588000    1.0324128   -3.5108933    507.68206  0.071950406  0.073209843            4 
  589000    1.0228262   -3.5339904    508.92029  0.072003436  0.073177378            4 
  590000    1.0245994   -3.5234042    509.05046  0.071899782  0.073145355            2 
  591000    1.0259704   -3.5272453    507.99702  0.071629585  0.073113229            3 
  592000    1.0095082   -3.5485689    508.80756  0.071622686  0.073080317            4 
  593000    1.0011178    -3.586306    509.52462  0.071602673  0.073047029            2 
  594000   0.99792629   -3.5145225    511.37304  0.071741448  0.073013873            3 
  595000    1.0245037   -3.5095634    514.57316   0.07206907  0.072982552            3 
  596000    1.0093587   -3.5233629    512.12022  0.071605176  0.072950513            2 
  597000   0.99246933   -3.5117204    514.07665  0.071758327  0.072918968            4 
  598000    1.0153618   -3.5215784    514.17853  0.071652526  0.072886948            3 
  599000    1.0203657   -3.5315685    514.42028  0.071566539  0.072854869            3 
  600000    0.9748273   -3.5326365    516.14809  0.071687234  0.072823451            2 
  601000    1.0173975   -3.5454252    516.47683  0.071613537  0.072792105            8 
  602000   0.99773211   -3.5346912    516.63559  0.071516555  0.072759868            5 
  603000     1.026682   -3.5004953    518.51749  0.071658028  0.072728703            2 
  604000    1.0002694   -3.5042022    519.81318  0.071718154  0.072696581            2 
  605000    1.0117907   -3.5304109    518.04561  0.071356144  0.072663107            4 
  606000   0.99824238   -3.5331013    518.56318  0.071309568  0.072631076            2 
  607000    1.0189227   -3.5506333    519.00357  0.071252549  0.072597986            4 
  608000    1.0052898   -3.5305623    520.51942  0.071343122  0.072564361            2 
  609000    1.0120544   -3.5368955    518.60298  0.070963736  0.072529963            4 
  610000    1.0142321   -3.5305413      520.376  0.071089617  0.072496134            3 
  611000    1.0324358   -3.5440943    522.15375  0.071215732  0.072462535            3 
  612000   0.99115581   -3.5387481    524.00161  0.071350981  0.072429527            5 
  613000   0.98887216   -3.5595335    520.09435  0.070703419  0.072394059            3 
  614000    1.0029189   -3.5500316    521.94982  0.070840095  0.072358954            1 
  615000   0.99137485   -3.5614165    522.00988  0.070733046  0.072323566            3 
  616000    1.0026877   -3.5137612    524.23646  0.070919435   0.07228844            2 
  617000    1.0202153   -3.5698531    522.78212  0.070608066  0.072254163            3 
  618000    1.0051435   -3.5217043    523.18307  0.070547879  0.072219616            4 
  619000    1.0112558   -3.5198766     526.7196  0.070910016  0.072186033            3 
  620000    0.9893082   -3.5472331    526.65529  0.070787001  0.072151211            5 
  621000    1.0138232   -3.5439004    526.89044  0.070704568  0.072116909            4 
  622000    1.0310691   -3.5327852     527.4528  0.070666238  0.072082634            3 
  623000   0.99513377   -3.5697339    526.21217   0.07038686  0.072046616            3 
  624000   0.99938658   -3.5780864    525.86473  0.070227661  0.072011275            3 
  625000    1.0114314   -3.5807395    527.14803  0.070286404  0.071975708            4 
  626000   0.99490982   -3.5388218    529.45552    0.0704813  0.071941245            4 
  627000   0.99605745   -3.5099123    532.53433  0.070778088  0.071906693            2 
  628000   0.98825966   -3.5753742    530.77654  0.070432131    0.0718725            3 
  629000    1.0004709   -3.5641648    531.50309  0.070416413  0.071837112            4 
  630000   0.99873782    -3.560146    532.75341  0.070470028  0.071802433            3 
  631000   0.99772299   -3.5456674    532.81967  0.070367099  0.071768006            3 
  632000    1.0032856   -3.5737722    532.80425  0.070253725  0.071734992            3 
  633000     1.033612   -3.5473207    534.55063  0.070372647  0.071701285            1 
  634000    1.0132876   -3.5720731    535.81114  0.070427331   0.07166815            4 
  635000    1.0123526   -3.5412334    536.74053  0.070438389  0.071634658            1 
  636000   0.99641219   -3.5234686     536.4725  0.070292518  0.071601426            2 
  637000    1.0013884   -3.5610959    536.07189  0.070129761  0.071567255            2 
  638000    1.0200775   -3.5687185    536.59412  0.070088052  0.071533274            2 
  639000    1.0086821   -3.5377535    537.91448  0.070150558  0.071500057            5 
  640000   0.99809619   -3.5427356    540.43649  0.070369335  0.071466274            2 
  641000    1.0110944   -3.5415407    539.44266  0.070130351  0.071432512            5 
  642000    1.0011532   -3.5515307    542.80208  0.070457176  0.071399802            3 
  643000   0.98860462   -3.5555848    539.04991  0.069861316  0.071367078            3 
  644000   0.98235174   -3.5491529     543.0421  0.070269423  0.071334957            1 
  645000   0.98952663   -3.5449975    542.63012  0.070107251  0.071302531            2 
  646000   0.98314999   -3.5535895    540.67977  0.069747133  0.071269622            2 
  647000   0.99435369   -3.5490785    545.64208  0.070278475  0.071237147            2 
  648000   0.99670786   -3.5531738    542.08268  0.069712279   0.07120448            2 
  649000   0.98847964    -3.558157    547.01732  0.070238485  0.071171588            3 
  650000    1.0066872     -3.53898    546.83704  0.070107313   0.07113913            3 
  651000    1.0096318   -3.5570494    546.68153  0.069979715  0.071106183            2 
  652000   0.98378692   -3.5799466    544.33252  0.069572153  0.071071413            3 
  653000   0.99165055    -3.563196    547.01012  0.069807315   0.07103745            3 
  654000   0.99110997   -3.5637932    547.85378  0.069808076  0.071003907            2 
  655000   0.97803191   -3.5357387    544.92686  0.069329117  0.070969978            4 
  656000   0.99508208   -3.5739673    548.82527  0.069718658  0.070936201            2 
  657000   0.99596643   -3.5754967    548.97309  0.069631289  0.070902338            1 
  658000   0.99541913   -3.5726397     548.5657  0.069473872  0.070868607            3 
  659000   0.96608791   -3.5630276    552.02095  0.069805381  0.070835005            2 
  660000    1.0077688   -3.5699684    551.85845  0.069679097  0.070802465           10 
  661000   0.99116406   -3.5631525    554.22631  0.069872203  0.070769832            2 
  662000    1.0084344   -3.5473603    554.74195  0.069831564  0.070736992            5 
  663000    1.0008165   -3.5659495    552.01867  0.069383946  0.070703911            3 
  664000   0.96418373   -3.5725951    554.57246  0.069599958  0.070671155            3 
  665000    1.0126309   -3.5718129     555.1686      0.06957  0.070637681            1 
  666000   0.98985896    -3.571835     554.2841  0.069354867  0.070603491            2 
  667000   0.98362645   -3.5851604    555.42749  0.069393739   0.07056977            5 
  668000    1.0146592   -3.5813844    554.68202  0.069196859  0.070535969            3 
  669000    0.9991938   -3.5763862    555.85082  0.069239015  0.070501945            2 
  670000    1.0026183   -3.5634418    557.35605  0.069322892   0.07046804            2 
  671000   0.95270428   -3.5763348    556.01236  0.069052703  0.070434879            4 
  672000   0.98824527   -3.5895693    556.17533  0.068970155  0.070401408            2 
  673000   0.97525489   -3.6118857    555.41688  0.068773759  0.070368354            3 
  674000   0.99541048    -3.576402    561.15661   0.06938138  0.070336114            2 
  675000   0.97540079   -3.6079353      560.492  0.069196543  0.070303627            3 
  676000   0.97147234   -3.5946966    560.72633  0.069123068  0.070270097            4 
  677000    0.9895882   -3.5935458    560.13195  0.068947803  0.070236296            3 
  678000   0.98264056   -3.5769377    561.70878  0.069039919  0.070203032            6 
  679000   0.99201016   -3.5598167    561.94346  0.068967042  0.070169032            4 
  680000   0.97904391   -3.6115704    560.15849  0.068646874  0.070134456            2 
  681000   0.99111293   -3.5904835    563.19455  0.068917591  0.070099564            4 
  682000   0.98108109   -3.5811507    564.79539  0.069012144  0.070064276            2 
  683000   0.97829067   -3.5711349    563.82305  0.068792465  0.070029279            4 
  684000   0.98050146    -3.590353    564.01969  0.068715849  0.069994304            2 
  685000   0.97156949   -3.6092816    564.78667   0.06870884  0.069960095            3 
  686000   0.96711809   -3.6089391    565.03592   0.06863896   0.06992614            5 
  687000   0.98638205   -3.5907692    564.83833  0.068515082  0.069891959            4 
  688000   0.98438587   -3.5832235    566.34622  0.068598137  0.069857113            3 
  689000   0.95760133     -3.60787    569.25497  0.068850383  0.069822483            1 
  690000   0.97791312   -3.5840403    567.83279  0.068578839  0.069788408            2 
  691000   0.99941367    -3.577404    566.77186  0.068351648  0.069754676            3 
  692000   0.97667663   -3.5794053    568.92006  0.068511568  0.069719488            2 
  693000   0.95599804   -3.6368978    567.27264  0.068214603  0.069683743            5 
  694000   0.97831838   -3.5894762    569.40904  0.068372844  0.069647547            6 
  695000   0.98945498   -3.5734433    572.25252   0.06861541  0.069611421            4 
  696000   0.97690884   -3.5810967     571.5905  0.068437559  0.069576969            3 
  697000   0.99138622   -3.5836209    570.18338  0.068171135  0.069542191            6 
  698000   0.99846304    -3.574551    572.45406  0.068344563  0.069506681            4 
  699000   0.98879576   -3.5926792     571.9528  0.068187029  0.069472006            3 
  700000   0.96375513   -3.5953618      571.359  0.068018928  0.069437607            4 
  701000   0.97268955   -3.5705379    574.49425  0.068294609   0.06940187            2 
  702000   0.96647906   -3.6326301    574.73732  0.068226177  0.069366908            5 
  703000   0.97356296   -3.6009839    574.25236   0.06807164  0.069332446            2 
  704000   0.97819222   -3.5916741    574.36662  0.067988473  0.069297219            2 
  705000   0.94693009   -3.6134187    576.66317  0.068163495  0.069262725            4 
  706000   0.97165682   -3.6221373    576.07492  0.067997512  0.069227828            2 
  707000   0.97857174   -3.5712065     577.6672  0.068089014  0.069194087            2 
  708000   0.98479375   -3.6204649     578.4517  0.068085181  0.069160711            3 
  709000   0.97082424   -3.5998704    580.53117  0.068233565  0.069128041            4 
  710000   0.99060538    -3.637189    578.26811  0.067871844  0.069095482            1 
  711000   0.96108189   -3.5884998    581.38817  0.068142074  0.069062983            3 
  712000   0.98901584    -3.570895    581.52128  0.068061948  0.069031101            2 
  713000   0.96875547   -3.5996059    581.65147  0.067981706  0.068999115            4 
  714000   0.96224956   -3.5777136    582.91436  0.068033889   0.06896761            3 
  715000   0.97785907   -3.5913391     583.6783  0.068027773  0.068935508            2 
  716000   0.96290566   -3.6061902    585.15938  0.068105142   0.06890427            2 
  717000   0.96863253   -3.6086831    587.39109  0.068269536  0.068873273            4 
  718000   0.97409028   -3.6166414     585.9937  0.068012268   0.06884242            2 
  719000   0.96145168   -3.6199041    586.27276  0.067950018  0.068811214            3 
  720000    1.0004994   -3.5749318    589.65496  0.068247102  0.068780168            2 
  721000   0.96097176   -3.5933502    588.65113  0.068036423  0.068750145            3 
  722000   0.97362437   -3.6392517    587.42636  0.067800826  0.068720343            5 
  723000   0.96168627   -3.6059253    588.02837  0.067776438  0.068689322            3 
  724000   0.96865011   -3.6242675    587.64175  0.067638323  0.068657187            6 
  725000   0.96537007   -3.6178675    589.61822  0.067772209  0.068625625            5 
  726000   0.96754713   -3.6300844    590.38839  0.067767263  0.068594805            5 
  727000   0.92848353   -3.6376259    590.39098  0.067674344   0.06856443            2 
  728000   0.97479331   -3.6274365    591.07051   0.06765917  0.068533279            3 
  729000   0.97037766   -3.5914818    593.03697  0.067791149  0.068502343            2 
  730000   0.95091373    -3.605506    594.47704  0.067862676  0.068471817            2 
  731000   0.96566867   -3.6311814    592.22013  0.067512555  0.068440605            3 
  732000   0.93920949   -3.6283295    593.13818  0.067524839  0.068409918            3 
  733000   0.95780321   -3.6076661    595.35815  0.067685101  0.068378714            2 
  734000   0.97296805    -3.593136    596.95034  0.067773654  0.068348282            6 
  735000    0.9570151   -3.6236497     598.5587  0.067863798  0.068317321            4 
  736000   0.96538827   -3.5990214    596.62698  0.067552873  0.068288004            4 
  737000   0.97174959   -3.6056635    598.77177  0.067703728  0.068258521            4 
  738000   0.95584475   -3.5780783     599.5069  0.067694998  0.068228437            1 
  739000   0.95471193   -3.6198178    598.74712  0.067517718  0.068197951            3 
  740000    0.9484738    -3.638201    596.15968  0.067135099  0.068167517            4 
  741000   0.96032463   -3.6090684    600.59484  0.067543279  0.068137336            5 
  742000   0.95849769   -3.6461314    596.70544  0.067015436  0.068106238            4 
  743000   0.97466409   -3.6216032    599.43048  0.067230874  0.068074888            2 
  744000   0.95488844   -3.6192671    601.31738  0.067351857  0.068043404            3 
  745000   0.95353087   -3.6198314    599.86259  0.067098724  0.068012205            3 
  746000   0.94584564    -3.583039     602.3876   0.06729084  0.067980969            2 
  747000   0.93287751   -3.6145999    599.95091  0.066928928   0.06794918            3 
  748000   0.99617774    -3.620788    600.89241  0.066944341   0.06791697            3 
  749000   0.96427058   -3.6431874    602.59244  0.067044108  0.067885333            3 
  750000   0.97303937   -3.5982147    602.80097  0.066977886  0.067854259            3 
  751000   0.95109968   -3.6264665    603.45319  0.066961073  0.067823245            4 
  752000   0.93500921   -3.6017564    604.12338  0.066946297  0.067791489            3 
  753000    0.9613973    -3.639517    604.68835  0.066919915  0.067760302            2 
  754000   0.96183441   -3.6138256    606.48532  0.067029765   0.06772864            3 
  755000   0.95757883   -3.6416898    607.98016  0.067105978  0.067698073            6 
  756000   0.94410877   -3.6275986    607.52015  0.066966506  0.067668254            2 
  757000   0.94964924   -3.6334925    609.38808  0.067083672  0.067638658            4 
  758000   0.96154215   -3.6288932    610.88687  0.067159946  0.067608889            2 
  759000   0.97579181   -3.6081133    608.98413  0.066862552  0.067579683            5 
  760000   0.96269518   -3.6660837    611.18492  0.067015891  0.067551078            4 
  761000   0.94494665    -3.621768    610.47712   0.06685032  0.067521417            3 
  762000   0.94005464   -3.6094445    609.78221  0.066686594  0.067492678            4 
  763000   0.94382945   -3.6387937      612.263   0.06687014  0.067463496            2 
  764000   0.95176524   -3.6331743    613.70092  0.066939454  0.067434454            2 
  765000   0.93201495   -3.6176816    617.48725  0.067264406  0.067405859            4 
  766000   0.91244952   -3.6183185    614.44497  0.066845623   0.06737692            2 
  767000   0.96696475   -3.6384874     615.7382  0.066898979   0.06734826            2 
  768000   0.95620185     -3.64627     616.2047  0.066862489  0.067318529            2 
  769000   0.94666163   -3.6156586    618.17046  0.066988563  0.067289051            3 
  770000   0.92783441   -3.6058388    618.58906  0.066946868  0.067260551            2 
  771000   0.95029617   -3.6519269    616.83698  0.066670663  0.067231314            5 
  772000   0.94361281   -3.6603072     616.2369  0.066519527  0.067202173            2 
  773000   0.94548969   -3.6385186    618.05955  0.066629964  0.067172955            3 
  774000   0.95668035   -3.6274267    617.93588  0.066530564  0.067144087            2 
  775000   0.94590042   -3.6652851    618.89381  0.066547721  0.067115236            5 
  776000   0.95734386   -3.6489523    620.84979  0.066672013  0.067086892            2 
  777000   0.95037155   -3.6329785    621.00889   0.06660327  0.067058536            4 
  778000   0.93889446   -3.6373501     621.5337  0.066573876  0.067030444            3 
  779000   0.94607622   -3.6452741    620.54781   0.06638295  0.067001574            3 
  780000   0.92340857   -3.6386987    620.69301  0.066313356  0.066972602            3 
  781000   0.92474092   -3.6524449    623.97237  0.066578358  0.066943101            6 
  782000   0.95649099   -3.6595691    622.63451  0.066350651   0.06691389            2 
  783000   0.92684533   -3.6325046     621.6286  0.066158854  0.066884658            3 
  784000   0.94628606   -3.6612935    623.95697  0.066321957  0.066855474            5 
  785000    0.9485456   -3.6786176    626.35155  0.066491672  0.066826652            6 
  786000   0.95404272   -3.6725255    625.33074  0.066298848  0.066797157            5 
  787000   0.95071162   -3.6337796    627.26203  0.066419106  0.066768183            4 
  788000   0.95294956   -3.6205706    626.73189  0.066278753   0.06674031            6 
  789000   0.94136464   -3.6377823    629.13393   0.06644845   0.06671162            3 
  790000   0.94295647   -3.6275641    626.32697  0.066068246  0.066683273            4 
  791000   0.92576159   -3.6437006    630.54703  0.066429312  0.066654674            7 
  792000   0.93244743   -3.6458173     629.0819  0.066191278  0.066626259            3 
  793000   0.92630926    -3.660689    630.17856  0.066223052  0.066597561            3 
  794000   0.91153946   -3.6579392    631.30565   0.06625794  0.066568969            2 
  795000   0.94413644   -3.6421314    631.98136  0.066245426  0.066541133            4 
  796000   0.94569008   -3.6469525    632.95239   0.06626386  0.066512473            5 
  797000   0.92948568   -3.6323948    633.87156  0.066276826  0.066484871            4 
  798000    0.9404642   -3.6613076    632.49655  0.066050183  0.066457091            7 
  799000   0.91659856   -3.6740384    632.69442  0.065988154  0.066428534            5 
  800000   0.93461325    -3.620138    635.33142  0.066180356  0.066400438            4 
  801000   0.91678148   -3.6531428    635.91547  0.066158497  0.066372238            2 
  802000   0.93262484   -3.6547654    635.16733  0.065998268  0.066343607            3 
  803000   0.93322799   -3.6586191    634.71016  0.065868634  0.066314826            4 
  804000   0.93386095   -3.6721473    635.38915  0.065857085  0.066286498            4 
  805000   0.93342516   -3.6484077    636.15426  0.065854478  0.066258045            4 
  806000   0.93507389   -3.6607901    637.42991  0.065904664  0.066229511            4 
  807000   0.92474367   -3.6676861    636.57046  0.065734248  0.066201205            2 
  808000   0.92645065   -3.6715251    638.04155  0.065804616  0.066173394            3 
  809000   0.95035825   -3.6561382     639.0097  0.065823001  0.066144732            8 
  810000   0.95458465   -3.6526757    641.59396  0.066007609  0.066116583            6 
  811000   0.93349556   -3.6474617    639.07118  0.065666993   0.06608811            2 
  812000   0.95213235   -3.6871539    637.08409  0.065382193  0.066059385            3 
  813000   0.93107541   -3.6598091    642.05694  0.065811494  0.066030089            2 
  814000   0.91846934    -3.696197    637.29426  0.065243065  0.066001123            2 
  815000    0.9287527   -3.6530985    643.22592  0.065769522  0.065972689            5 
  816000   0.93024498   -3.6704709    642.29878  0.065594238  0.065943443            3 
  817000   0.93670872   -3.6446607    644.08296  0.065695937  0.065914313            3 
  818000   0.92498968   -3.6527218    641.04124   0.06530575  0.065885562            7 
  819000   0.90554203   -3.6704339    644.97745  0.065626521  0.065856349            2 
  820000   0.92188111   -3.6664756    641.94623  0.065238438  0.065826701            4 
  821000   0.91647487   -3.6807179    642.42903  0.065207981  0.065797288            4 
  822000   0.91197841   -3.6806666    642.68782  0.065154888  0.065768368            4 
  823000   0.91271325   -3.6767266     645.7388  0.065384649  0.065739577            2 
  824000   0.92210698   -3.6512211    647.44345  0.065477695   0.06571029            6 
  825000   0.91012029    -3.622305    645.73604  0.065225863  0.065681223            5 
  826000    0.9401284   -3.6624736    646.67378  0.065241503   0.06565231            4 
  827000    0.9135576   -3.6536986    647.45913  0.065241751  0.065623535            3 
  828000   0.91763419   -3.6641797    646.56811   0.06507328   0.06559455            3 
  829000   0.91057806   -3.6570705    647.69554  0.065108116  0.065565166            3 
  830000   0.93752733   -3.6974864    647.12509  0.064972399   0.06553563            4 
  831000   0.91805261    -3.687767    649.05526  0.065087772  0.065505553            2 
  832000   0.91877917    -3.695549    646.51133   0.06475474   0.06547557            5 
  833000   0.93227178   -3.6374267    648.97936  0.064923906  0.065445663            4 
  834000   0.93268824   -3.6731619    647.07245  0.064655521  0.065415763            4 
  835000   0.92942908   -3.6684002    652.00444  0.065070303   0.06538659            3 
  836000   0.91029235   -3.6811764    650.66575  0.064859026  0.065356815            3 
  837000   0.90567368   -3.6760714     648.7736  0.064593151    0.0653262            4 
  838000   0.91754911   -3.6919289    651.44237  0.064781461  0.065296073            6 
  839000   0.90507145     -3.68376    651.02956  0.064663246   0.06526592            4 
  840000   0.91258133   -3.6986497    654.31053  0.064911759  0.065236112            2 
  841000   0.91756302   -3.6870548    653.71251  0.064775318  0.065206727            1 
  842000   0.89617223   -3.7010327    652.96878   0.06462478  0.065177932            2 
  843000   0.91940197   -3.6842848    656.86057  0.064932837  0.065149161            2 
  844000   0.91512148   -3.7109818    656.14141  0.064784894  0.065120523            2 
  845000   0.90943598    -3.692677    655.49671  0.064644646  0.065091972            3 
  846000   0.91287531   -3.6853083    655.09978  0.064529135  0.065063379            2 
  847000   0.92075194   -3.7034584    657.20235  0.064659814  0.065034451            2 
  848000   0.90478131    -3.680234     658.3727  0.064698575  0.065005601            4 
  849000   0.89025021   -3.6890209    658.94279  0.064678327  0.064976905            2 
  850000   0.90781825   -3.7047527    659.31091  0.064638324  0.064947928            2 
  851000    0.9429276   -3.6710047     660.6851  0.064696935  0.064919476            3 
  852000   0.91261443   -3.6799773    658.29548  0.064387273  0.064890648            3 
  853000   0.91799862   -3.6647998    658.46294   0.06432815  0.064861802            6 
  854000   0.89903832   -3.7008356    661.12055  0.064512154  0.064833407            3 
  855000   0.93260593    -3.706658    660.34081  0.064360703   0.06480476            2 
  856000   0.90800997   -3.6971889    662.04107  0.064451039  0.064776371            2 
  857000   0.92611626   -3.6993658    659.99647  0.064177019  0.064748114            5 
  858000   0.92266124   -3.6969077    662.87465  0.064381765  0.064720327            2 
  859000   0.91297867   -3.6711722    665.76149  0.064586873  0.064692516            1 
  860000   0.90294922    -3.690564    663.51325   0.06429392  0.064664655            2 
  861000   0.89740312   -3.7131958    663.82848  0.064249756  0.064636365            5 
  862000    0.8908614   -3.6761888    664.09941  0.064201413  0.064608299            3 
  863000   0.89061774    -3.719824    665.01932  0.064215848  0.064579727            5 
  864000   0.91704397   -3.7006738    667.13684   0.06434576  0.064551071            2 
  865000   0.90480852   -3.6840625    668.89304  0.064440563  0.064523082            3 
  866000   0.89898347   -3.6713817    668.21416  0.064300824  0.064495306            1 
  867000   0.91178243   -3.6963778    668.78744  0.064281761   0.06446742            2 
  868000   0.88078485   -3.6740406    669.56429  0.064282286  0.064439275            3 
  869000   0.88716993   -3.6830365    670.70804  0.064317994  0.064411882            2 
  870000   0.91523276   -3.6993083    668.05369  0.063989817  0.064384507            2 
  871000   0.92778556   -3.6931387    670.76397  0.064175657  0.064356905            5 
  872000   0.90533818   -3.6927243    671.92555  0.064213068  0.064329323            4 
  873000   0.91745134   -3.7061724    672.57013  0.064201044  0.064301648            2 
  874000   0.89249301   -3.6859769    670.63959  0.063943515  0.064273948            3 
  875000      0.90032   -3.7072707    671.77579  0.063978647  0.064246524            3 
  876000    0.9090321   -3.6810965    675.20017  0.064231371  0.064220085            4 
  877000   0.90072396   -3.6856396    676.12789  0.064246284   0.06419337            2 
  878000   0.90733093     -3.71285    674.25254  0.063995116  0.064166079            2 
  879000   0.91273108   -3.6999792    676.66271  0.064150807  0.064138705            4 
  880000   0.90194487   -3.7041156    674.06312  0.063831735  0.064111664            3 
  881000   0.89353974   -3.6985936    678.31824  0.064161771  0.064085102            2 
  882000   0.89132147   -3.7333558    676.83437  0.063948826   0.06405809            2 
  883000   0.90081333   -3.6680491    678.83398  0.064065117  0.064031041            3 
  884000   0.92704783   -3.6901818    677.03056  0.063822639  0.064004634            4 
  885000   0.90568575   -3.7324044    674.56771  0.063518617  0.063977569            5 
  886000   0.90736166   -3.7181725    677.52457  0.063725035   0.06394964            4 
  887000   0.91097091   -3.6878398    679.02924  0.063794555  0.063922784            2 
  888000   0.89971372   -3.6969979    678.07741  0.063633391  0.063895991            4 
  889000   0.88953192   -3.6872896    681.54034  0.063886421  0.063868909            4 
  890000   0.88459663   -3.6774679    681.68786  0.063828451  0.063842273            5 
  891000   0.90814858   -3.7216409    678.36713  0.063446234  0.063814738            2 
  892000   0.90859091   -3.7019936    680.53655  0.063577779   0.06378752            3 
  893000   0.89735965    -3.728118    680.43058  0.063496695  0.063760567            7 
  894000     0.879848   -3.6996298    683.88484  0.063747655  0.063733903            4 
  895000   0.90016602   -3.7102149    681.66453  0.063469696  0.063707503            3 
  896000   0.87836085   -3.7246829    684.55223  0.063667432  0.063680998            3 
  897000   0.88141731   -3.7199295    685.16274  0.063653171  0.063654438            6 
  898000   0.89110122   -3.7085951     686.2801  0.063685978  0.063627437            4 
  899000   0.89294803   -3.7243332    683.30746  0.063339587  0.063600965            4 
  900000   0.88081623   -3.7510898    683.84906  0.063319357  0.063573722            3 
  901000   0.89818649    -3.716158    686.73277  0.063515794  0.063546898            2 
  902000    0.8801409   -3.6985765    688.10586  0.063572234  0.063520581            4 
  903000   0.88700482   -3.7147092    689.36218  0.063617772  0.063494576            4 
  904000   0.91140899   -3.7408096    688.65665  0.063482361  0.063468298            3 
  905000   0.88290619   -3.7494364    685.62217  0.063132797  0.063442075            4 
  906000   0.88672734   -3.7204543    690.57294  0.063518482   0.06341567            7 
  907000   0.88031109   -3.7266572    689.75155  0.063372983  0.063390377            4 
  908000   0.89980919   -3.6984005    691.14295  0.063430887  0.063364835            5 
  909000   0.89247484   -3.7252698    689.14653  0.063178083  0.063338698            5 
  910000   0.88269192    -3.740782    690.54339  0.063236574  0.063312754            6 
  911000   0.90259631   -3.7149051    693.00054  0.063391927  0.063287031           10 
  912000    0.8924318   -3.7050426    696.64097  0.063655059  0.063261796            4 
  913000   0.89402235    -3.709578    696.42468  0.063565597  0.063236898            3 
  914000   0.87880843   -3.7396751    696.23881  0.063479104  0.063211587            5 
  915000   0.89161672   -3.7421832    696.52198  0.063435517  0.063185644            4 
  916000   0.88426198   -3.7245596    695.27742  0.063253041  0.063159693            9 
  917000   0.88885387   -3.7242184    693.66366   0.06303741  0.063133472            2 
  918000   0.89863379   -3.7194742    696.60477  0.063235728  0.063107114            2 
  919000   0.89808693   -3.7278407    692.79416  0.062821378  0.063080579            3 
  920000    0.8961765   -3.7269601    694.25469  0.062885388  0.063053536            9 
  921000    0.8717102   -3.7543539    693.74774  0.062771239  0.063026723            5 
  922000   0.88493111   -3.7411504    698.86921  0.063166053  0.063000049            3 
  923000   0.89600264   -3.7301448    694.99258  0.062747614  0.062973545            6 
  924000   0.89012965   -3.7353803    696.47802  0.062813675  0.062947231            5 
  925000   0.86349583   -3.7183302    697.75802  0.062861083  0.062920483            5 
  926000   0.88332537   -3.7469524    698.74034    0.0628816  0.062892809            5 
  927000   0.86841715   -3.7478462     698.5733   0.06279875  0.062865516            6 
  928000   0.88481617   -3.7631057    699.08039  0.062776615  0.062838236            5 
  929000    0.8805548   -3.7396595    699.15695  0.062715909  0.062810951            3 
  930000   0.86819385   -3.7226032    698.59282  0.062597923   0.06278399            4 
  931000   0.85786229   -3.7235776    699.51373  0.062613116  0.062756603            3 
  932000   0.87056144   -3.7237895    700.83535  0.062664105  0.062729743            3 
  933000   0.87582629   -3.7605833    696.88567  0.062244165  0.062702523            2 
  934000   0.85988555   -3.7368681    698.60678  0.062331083  0.062674825            5 
  935000   0.89378246   -3.7651585    700.32899  0.062417914  0.062646884            3 
  936000   0.87103918   -3.7462338    702.45968  0.062540926  0.062619352            6 
  937000   0.88116052   -3.7418299    702.77808  0.062502497  0.062591902            3 
  938000   0.88740909    -3.756135    701.59889  0.062331102  0.062564307            4 
  939000    0.8783942   -3.7184719    702.34438  0.062330883  0.062535598            3 
  940000   0.88163912   -3.7395585    700.29759   0.06208312  0.062507822            2 
  941000   0.91298819   -3.7501423    704.48761  0.062388205  0.062479681            3 
  942000   0.89320681   -3.7381975    705.14999  0.062380572   0.06245165            2 
  943000   0.88410565   -3.7399114    701.64127  0.062004354  0.062423932            2 
  944000   0.89519116   -3.7176237    706.38564  0.062357489  0.062395432            2 
  945000   0.88464094   -3.7237782     703.1064  0.062002328  0.062367269            5 
  946000   0.89331802    -3.741778    705.64018  0.062159988  0.062339374            3 
  947000   0.87685947   -3.7610291    704.46767  0.061991171   0.06231057            3 
  948000   0.86759131   -3.7492239    703.87667  0.061873828  0.062282072           11 
  949000    0.8653876   -3.7414653    705.07098  0.061913504   0.06225337            3 
  950000   0.87940192   -3.7382083    705.94317   0.06192484  0.062224597            3 
  951000   0.86607839   -3.7534521    707.57537  0.062002749  0.062196171            5 
  952000   0.85895316   -3.7620079    708.06301  0.061980306  0.062167733            5 
  953000   0.84866341   -3.7453321    707.47907  0.061864207  0.062139951            3 
  954000   0.86474583   -3.7587789    709.42929  0.061969714   0.06211198            3 
  955000   0.87083073   -3.7611882    709.33616  0.061896698  0.062084045            6 
  956000   0.86229035    -3.766624    708.42082  0.061752163  0.062055948            3 
  957000    0.8675028   -3.7591492    707.47196  0.061605013  0.062027901            3 
  958000   0.87419123   -3.7472942    711.19777  0.061864803  0.061999333            4 
  959000   0.88509856   -3.7433575    711.65412  0.061839948  0.061971137            3 
  960000   0.85590658    -3.768735    707.01674  0.061372981  0.061942678            3 
  961000   0.88192237   -3.7564597    709.03539  0.061484165  0.061913889            3 
  962000   0.87759928   -3.7435365    712.16758  0.061691578  0.061885312            2 
  963000    0.8568313    -3.740008    714.09265  0.061794102   0.06185725            3 
  964000   0.87580027   -3.7346779    714.96271  0.061805214  0.061829457            4 
  965000   0.88637183   -3.7648764    713.36224  0.061602957   0.06180178            2 
  966000   0.87523219   -3.7578247    711.45526  0.061374678  0.061774447            2 
  967000   0.89194688   -3.7385344    715.78779  0.061684573  0.061746783            3 
  968000   0.87173709   -3.7571341    713.42072  0.061417073  0.061719197            3 
  969000   0.86545339   -3.7461144     717.2508  0.061683075  0.061691408            3 
  970000   0.85300437   -3.7490809    716.18325   0.06152777   0.06166338            4 
  971000   0.84800368   -3.7542684    716.57066  0.061497653  0.061635362            3 
  972000    0.8594534    -3.778865    716.16524  0.061399626  0.061607501            5 
  973000   0.85160508   -3.7720817    715.88269  0.061312323  0.061579371            2 
  974000   0.84167295   -3.7608015    715.91428  0.061252077  0.061551219            4 
  975000   0.84552787   -3.7884938    714.53615  0.061071466  0.061522957            2 
  976000   0.86907639   -3.7536351    717.27947  0.061243124  0.061494699            3 
  977000   0.85688646   -3.7775025    720.94767  0.061493319  0.061466254            3 
  978000   0.85801595   -3.7571445     720.1906  0.061365934  0.061438121            6 
  979000   0.85264465   -3.7552241    717.19477  0.061048244  0.061409914            9 
  980000   0.86456953   -3.7732255    722.07397  0.061400847  0.061381596            6 
  981000   0.85507305   -3.7739765    717.52241  0.060951614  0.061353148            2 
  982000   0.85297975   -3.7607523    720.52512  0.061144359   0.06132428            3 
  983000   0.87258949   -3.7696648    719.38244  0.060985286  0.061295969            5 
  984000   0.84240719   -3.7802079    720.40561   0.06100996  0.061267427            8 
  985000   0.84435184   -3.7439391    724.90274  0.061328489  0.061239247            7 
  986000   0.85121639   -3.7811351    718.58418  0.060732267  0.061210936           14 
  987000   0.85003046   -3.7475826    722.29528  0.060984066  0.061182437            3 
  988000   0.84307727   -3.7622554    724.36178  0.061096641  0.061154193            3 
  989000   0.86264566   -3.7568968    723.91065  0.060996853  0.061126131            2 
  990000   0.85519888   -3.8094424    722.52543  0.060818638  0.061097968            4 
  991000   0.86981713   -3.7933535    723.30772  0.060823051  0.061069494            6 
  992000   0.85792973   -3.7737646    723.45115  0.060773786   0.06104066            2 
  993000    0.8608334   -3.7941838    723.52465  0.060718752  0.061012263            2 
  994000   0.83929204   -3.8037737    722.31373  0.060556148  0.060983505            6 
  995000   0.85193675   -3.7833405    725.63406  0.060773372  0.060955039            3 
  996000   0.85547774   -3.7790757    726.79321  0.060809338  0.060926709            5 
  997000   0.85878058   -3.7955759    725.18944  0.060614296    0.0608987            5 
  998000   0.84809471   -3.7921757    724.37376  0.060485451  0.060870856            5 
  999000   0.85915155    -3.781288    725.76165  0.060540678  0.060843042            4 
 1000000   0.85396818   -3.7649418    726.40334  0.060533611  0.060815067            2 
 1001000   0.85212802   -3.7695046    724.61025  0.060323864  0.060786867            4 
 1002000   0.84718176   -3.7897201    726.78922  0.060444879  0.060758656            6 
 1003000   0.85120968   -3.7534153    730.25087  0.060672222  0.060730087           12 
 1004000   0.85464501   -3.8223969     729.1475  0.060520211  0.060701908            5 
 1005000   0.84195189   -3.7676372    730.40794  0.060564506  0.060673789            5 
 1006000   0.85429904   -3.7473156    731.55082  0.060598974  0.060646162            5 
 1007000   0.85967492   -3.7846127    732.06638  0.060581462  0.060618695            3 
 1008000   0.83017137   -3.7737413    734.06879  0.060686904  0.060591117            5 
 1009000   0.85170808   -3.7877163    732.91363  0.060531354  0.060564079            4 
 1010000   0.86140108   -3.7942478    732.48127  0.060435748  0.060537971            4 
 1011000    0.8249934   -3.7750811      736.271  0.060688345  0.060511376            3 
 1012000   0.85167704   -3.7848095    732.85787  0.060347321  0.060484856            3 
 1013000   0.86600321   -3.7988767    734.99913  0.060463897  0.060457781            4 
 1014000   0.84439167   -3.7964554    734.08025  0.060328752  0.060430517            7 
 1015000   0.85746768   -3.7791347    734.77144  0.060326062   0.06040352            8 
 1016000    0.8556003   -3.7678627    736.96355  0.060446486   0.06037684            4 
 1017000   0.85746412   -3.7872524    737.97517  0.060469942  0.060350212            5 
 1018000   0.85494013   -3.8041593    737.32077  0.060356972  0.060323638            4 
 1019000   0.85267586   -3.7734873    737.49744  0.060312189  0.060297178            3 
 1020000   0.83170864   -3.8010165    736.08392  0.060137575  0.060270702            5 
 1021000   0.84907988   -3.8165411    736.79687  0.060136865  0.060244147            5 
 1022000   0.84595727   -3.8104885    738.40961  0.060209525   0.06021732            3 
 1023000   0.84659654   -3.7944564    741.61746   0.06041198  0.060190695            1 
 1024000   0.84320084    -3.814078    738.54671  0.060103085  0.060164009            4 
 1025000   0.86030791     -3.79859    740.80414  0.060227979  0.060137362            4 
 1026000   0.84303908   -3.7971882    742.00451  0.060266773  0.060111278            2 
 1027000   0.84368499    -3.788427    740.15808  0.060058267  0.060084925            3 
 1028000   0.84315292   -3.7802247    740.55911  0.060032353  0.060058656            3 
 1029000   0.84698876   -3.7844615    739.84682  0.059916328  0.060032065            5 
 1030000    0.8395939   -3.8268905    740.86423  0.059940472   0.06000518            4 
 1031000   0.82049146   -3.7450746    743.82865  0.060121941   0.05997819            2 
 1032000   0.85360232   -3.7931675    741.53622  0.059878571  0.059951363            4 
 1033000   0.83292064   -3.8171969    743.20877  0.059955532  0.059924317            3 
 1034000   0.84683619   -3.8403048    742.29143  0.059823616  0.059897498            5 
 1035000   0.82937481   -3.8140769    742.24444  0.059762032  0.059870571            3 
 1036000   0.83956376    -3.805867    741.50398  0.059644786  0.059843748            2 
 1037000   0.83401329   -3.8188324    743.71587  0.059765017  0.059817153            4 
 1038000   0.84625935    -3.801742     745.4458  0.059846323   0.05979029            3 
 1039000   0.84565306   -3.8091008    744.54688  0.059716625  0.059762982            5 
 1040000   0.83584399   -3.8163801     744.1035  0.059623678  0.059736036            5 
 1041000   0.84700799   -3.8178241    745.12845  0.059648451  0.059709111            2 
 1042000   0.82849129   -3.8442883    743.21979  0.059438563  0.059681878            4 
 1043000   0.83640513   -3.7971531    746.68321  0.059658294  0.059654775            3 
 1044000   0.84555226   -3.8142677    747.45415  0.059662687  0.059627461            3 
 1045000   0.85267023   -3.8101372    746.96165   0.05956632  0.059600587            5 
 1046000    0.8378375   -3.8070521    747.15845  0.059525052  0.059573583            6 
 1047000   0.83794766   -3.7979729    747.25811  0.059476131  0.059547038            5 
 1048000   0.82700151   -3.8013348    748.09513  0.059485936  0.059520102            2 
 1049000   0.83957634   -3.8235082    748.75566  0.059481701  0.059493025            6 
 1050000    0.8538848   -3.8057496     747.2881  0.059308579  0.059465717            4 
 1051000   0.83449274   -3.8249028    746.79997  0.059213445  0.059438155            8 
 1052000   0.83364311   -3.8015684    750.42122  0.059444013  0.059410693            2 
 1053000   0.81135062    -3.846951    747.09509  0.059124335  0.059383829            8 
 1054000   0.83911425   -3.8103086    752.81657  0.059520601    0.0593566            5 
 1055000   0.84208563    -3.815596    748.89641  0.059154534  0.059330306            2 
 1056000   0.84623485   -3.8307055    750.91297  0.059257652  0.059303374            4 
 1057000   0.84501827   -3.8144101    748.11242  0.058980796  0.059276015            8 
 1058000   0.83652522   -3.8039578    753.67119  0.059362885  0.059248905            4 
 1059000    0.8285378   -3.8184834    751.46037  0.059132859  0.059221897            3 
 1060000   0.83853527   -3.8605161    751.58456  0.059086837  0.059194412            8 
 1061000   0.84438188   -3.8473209    751.95514  0.059060253  0.059167321            4 
 1062000    0.8452065   -3.8690663    750.75989  0.058910851   0.05913971            3 
 1063000   0.83465776   -3.8189059    753.23482  0.059049453  0.059111953            3 
 1064000   0.82119514   -3.8155703    752.68926  0.058951226  0.059084656            6 
 1065000   0.83388814   -3.8264199    755.68494  0.059130277  0.059057354            6 
 1066000   0.83203939    -3.833384    755.99894  0.059099354  0.059030361            2 
 1067000   0.83167441   -3.8318041    757.07885  0.059128307  0.059003513            4 
 1068000   0.83137027   -3.8077292    758.71982  0.059200985  0.058977299            3 
 1069000   0.82219367   -3.8195679     754.4672  0.058814094  0.058950668            4 
 1070000   0.82975077   -3.8118484    756.21407  0.058895177   0.05892387            3 
 1071000   0.81706709   -3.8517782    755.61699  0.058793728  0.058896626            7 
 1072000   0.82399468   -3.8466083    757.91445  0.058917479  0.058869683            5 
 1073000   0.80905837   -3.8383087    757.30376  0.058815141  0.058843069           11 
 1074000   0.83491001   -3.8488694    759.13926  0.058902798    0.0588161            4 
 1075000     0.820428    -3.814403    759.31263  0.058861444  0.058789572            4 
 1076000   0.84842224   -3.8352103    757.83468  0.058692277  0.058763002            6 
 1077000   0.83131929   -3.8244497    758.37968   0.05867995  0.058735994            3 
 1078000   0.81679753   -3.8287839    761.63707  0.058877325  0.058708976            4 
 1079000   0.84094102   -3.8432987    760.85454  0.058762321  0.058681937            7 
 1080000   0.83443654   -3.8297846    759.86266  0.058631378  0.058655223            4 
 1081000   0.84477126   -3.8324427    761.56855  0.058708646  0.058628268            3 
 1082000    0.8416991   -3.8320293    760.86553  0.058600241  0.058601451            2 
 1083000   0.81198384   -3.8194181    759.65623   0.05845308  0.058574269            7 
 1084000   0.83264623   -3.8324612    760.31801  0.058450031  0.058547136            6 
 1085000   0.82514453   -3.8624028    759.69968   0.05834867  0.058519467            2 
 1086000   0.81460488   -3.8234483    761.48391  0.058431853  0.058492172            5 
 1087000   0.82646218   -3.8449831    761.71735  0.058395994  0.058465102            4 
 1088000   0.80783296   -3.8381016    763.35904  0.058468064  0.058437591            4 
 1089000   0.82667771   -3.8192826    761.69442  0.058286993  0.058410431            5 
 1090000   0.81619949   -3.8470677    762.15833  0.058268985  0.058382938           11 
 1091000   0.80669777   -3.8336164    762.92195  0.058273904  0.058355917            7 
 1092000   0.82001586   -3.8345977    761.43814  0.058107306  0.058328618            5 
 1093000   0.82276921   -3.8235781    760.62492  0.057992141  0.058301561            5 
 1094000   0.81960432   -3.8349604    763.66158  0.058170444   0.05827411            5 
 1095000   0.81629853   -3.8304027     764.4397  0.058176537  0.058246661            4 
 1096000   0.81351927   -3.8609926    763.06707   0.05801909  0.058219003            4 
 1097000   0.80095906    -3.839469    762.95848  0.057957952  0.058191062            4 
 1098000   0.80548515   -3.8475951    763.63958  0.057956859  0.058163251            3 
 1099000   0.80472083   -3.8509329    764.74773   0.05798815  0.058134994            5 
 1100000   0.81135997   -3.8253355    765.17978  0.057968165   0.05810742            5 
 1101000   0.81603251   -3.8545559    763.53003  0.057790647  0.058079409            5 
 1102000   0.80660437   -3.8734313    764.80627  0.057834715  0.058051883            3 
 1103000   0.81788699   -3.8399863     766.8132  0.057933907  0.058023948            4 
 1104000   0.79970836   -3.8563387    767.14766  0.057906677  0.057995879            4 
 1105000   0.81173267     -3.83822    768.11266  0.057927048  0.057968067            4 
 1106000   0.78277403   -3.8491146    768.84222  0.057929643  0.057940052            8 
 1107000   0.80559667   -3.8471885    765.45534  0.057622353  0.057911837            3 
 1108000   0.81326135   -3.8413359    768.70424  0.057814699  0.057883804            6 
 1109000   0.80689767    -3.870371    765.09001  0.057490984  0.057855657            5 
 1110000   0.81409865   -3.8307493     768.5922  0.057702117  0.057827403            2 
 1111000   0.81075426    -3.867106    765.77033  0.057438519   0.05779912            5 
 1112000   0.81267473   -3.8533555    767.35488  0.057505612  0.057770772            5 
 1113000   0.80595241   -3.8626337    769.74464  0.057632872  0.057742351            5 
 1114000   0.80633858    -3.840993    769.49614  0.057562548  0.057713931            4 
 1115000   0.82101499   -3.8834608    768.19209   0.05741346   0.05768544            7 
 1116000   0.81759531   -3.8538759    766.15698  0.057210049  0.057657093            7 
 1117000   0.80910919   -3.8591959    766.20102  0.057162117  0.057628126            6 
 1118000   0.80928019   -3.8384548    766.97789  0.057168894  0.057599526            3 
 1119000   0.79942085   -3.8729764    768.16468  0.057206187  0.057570612            3 
 1120000    0.8193762   -3.8531558    768.78091   0.05720096  0.057541957            4 
 1121000   0.81264462   -3.8596671    768.08443  0.057098158  0.057513296           10 
 1122000   0.81839003   -3.8653516    770.32921  0.057213994  0.057484513            3 
 1123000   0.81431485   -3.8750613    769.22685  0.057081245  0.057455703            9 
 1124000   0.80757621   -3.8711493     770.2556  0.057106732  0.057426903            4 
 1125000   0.77852623   -3.8469732    771.44011  0.057143712  0.057398802            5 
 1126000   0.81065761   -3.8601333    770.67979  0.057036693  0.057370322            9 
 1127000   0.79087872   -3.9003016    770.49102  0.056972125  0.057341554           12 
 1128000   0.78937267   -3.8484096    769.47116  0.056846274  0.057312945            4 
 1129000   0.81139467   -3.8500261    773.53605  0.057095958   0.05728394            2 
 1130000   0.81628631    -3.868658    771.61944  0.056904088  0.057255356            2 
 1131000   0.79637013   -3.8893266    772.22625  0.056898486  0.057226655            5 
 1132000   0.81273851   -3.8639383    774.74823   0.05703388  0.057198028            5 
 1133000   0.80272044   -3.8674687    776.03893  0.057078474  0.057169642            1 
 1134000   0.78383472   -3.8823149    774.99316  0.056951291  0.057141461            3 
 1135000   0.81525597   -3.8805908    775.42026  0.056932472  0.057113013            2 
 1136000   0.80500099   -3.8691604    775.55113  0.056891955  0.057084203            6 
 1137000   0.80435052   -3.8571353    775.29715  0.056823303  0.057055703            4 
 1138000    0.7871158   -3.8547829    776.26948  0.056844572  0.057027653            9 
 1139000   0.80090723   -3.8511523    780.21128  0.057083061  0.056999591            3 
 1140000   0.79789386   -3.8630613    774.93921  0.056647603  0.056971554            7 
 1141000   0.79423463   -3.8778155     778.6892  0.056871837  0.056943659            3 
 1142000   0.80830059    -3.870319    777.46117  0.056732426  0.056915466            7 
 1143000     0.802396   -3.8868327    778.86479  0.056785126  0.056887195           13 
 1144000   0.80834697   -3.8894833     776.9021  0.056592519  0.056858782            4 
 1145000   0.79162627   -3.8593442    779.45193   0.05672867    0.0568304            2 
 1146000   0.76670413   -3.8714451    776.15233  0.056439233  0.056801818            6 
 1147000   0.79565373   -3.8858327    777.85054  0.056513407  0.056773648            4 
 1148000    0.7872407   -3.8874243    773.90227  0.056177575  0.056744933            3 
 1149000   0.78985403    -3.874533    776.63476  0.056326861  0.056716127            4 
 1150000   0.79945664   -3.8832554    779.69581  0.056499696  0.056687624            6 
 1151000   0.78985599   -3.9007448     778.4868  0.056363075  0.056659109            4 
 1152000   0.80305473   -3.8957158    779.74055  0.056404843  0.056630352            5 
 1153000   0.80150931   -3.8784743    778.96798  0.056300085  0.056602094            4 
 1154000   0.77505869   -3.9153103    777.45822  0.056142274  0.056573522            6 
 1155000   0.78637788   -3.8758118    780.68276  0.056326317  0.056544781            4 
 1156000   0.79933825    -3.877041    779.92588   0.05622303  0.056516574            6 
 1157000    0.7937543   -3.8725005    781.57139  0.056292955  0.056488137            5 
 1158000    0.7733094    -3.881083    778.88676  0.056051148   0.05645963            7 
 1159000   0.79130476   -3.8856168    781.97064  0.056224521  0.056430975            4 
 1160000   0.76696834    -3.885872     782.3995  0.056206861  0.056402833            4 
 1161000   0.77402731   -3.9004654    782.47813  0.056164092  0.056374701            6 
 1162000   0.77927331   -3.8954324    784.97425  0.056294768  0.056346606            9 
 1163000   0.79551707   -3.8783188     785.1238  0.056257079  0.056318981            7 
 1164000   0.79482694   -3.8839422    786.17062  0.056283693  0.056291234            8 
 1165000   0.80363206   -3.8919129    789.34342  0.056462333  0.056263491            6 
 1166000   0.77159893   -3.8966629    786.79242  0.056231591  0.056236249            8 
 1167000   0.78680659   -3.8748171    787.47569  0.056232197  0.056209253            4 
 1168000    0.7839885   -3.9110353    788.10607  0.056229029  0.056182331            5 
 1169000   0.77507497   -3.9071429    786.18713  0.056044135  0.056155251           10 
 1170000   0.76950723   -3.8958996    787.72009   0.05610542  0.056127842            3 
 1171000   0.78936012    -3.877858    786.85412  0.055995881  0.056100658           14 
 1172000   0.78833131   -3.8942841    789.18966  0.056114168  0.056073393            4 
 1173000   0.79067019   -3.9110695    787.74747  0.055963873     0.056046            3 
 1174000   0.78984443    -3.907733    787.82353  0.055921602  0.056018756            5 
 1175000   0.79753304   -3.8987631    788.18889  0.055899921   0.05599165            2 
 1176000   0.78804203   -3.8834588    792.78123  0.056177809  0.055964609            7 
 1177000   0.77897291   -3.8898531    792.13679  0.056084451  0.055937562            8 
 1178000   0.77123389   -3.8839135    791.21868  0.055971893  0.055910531            7 
 1179000   0.77956972   -3.9119081    792.12751  0.055988657  0.055883156            5 
 1180000   0.77482907   -3.9061291    792.14775  0.055942637  0.055855836            3 
 1181000   0.77890004   -3.9068871    792.11425  0.055892905  0.055828656            9 
 1182000    0.7797107   -3.9050657    791.25811  0.055785259  0.055801481            5 
 1183000   0.78271241   -3.8960942    793.39438  0.055888587  0.055774531            3 
 1184000    0.7675008   -3.9163013    794.17658  0.055896437  0.055747203            4 
 1185000   0.78395053   -3.9132837    792.60028  0.055738416  0.055719968            5 
 1186000   0.78861737   -3.9033594    792.68085   0.05569708  0.055692907            3 
 1187000   0.77256247   -3.9225226    793.14667  0.055682861  0.055666133            4 
 1188000   0.76832644   -3.9311838    794.50381  0.055731188   0.05563908            4 
 1189000   0.78266643   -3.9207949    793.27163  0.055597955    0.0556122            6 
 1190000   0.78066763   -3.8965388    793.33109  0.055555399  0.055585329            5 
 1191000   0.76045083   -3.9002605    797.52066  0.055801894  0.055558357            7 
 1192000   0.78911006   -3.9070884    793.91043  0.055502687  0.055531251            4 
 1193000   0.77787971   -3.8867794    799.30866  0.055833239  0.055504408            6 
 1194000   0.78037453   -3.9113042    797.10421  0.055632622  0.055477909            4 
 1195000   0.76130131   -3.9179842     797.3306  0.055601855  0.055451099           13 
 1196000   0.76093518   -3.9405467    793.47472    0.0552867  0.055424163            4 
 1197000   0.76710514   -3.9016795    797.12531  0.055494661  0.055397392            4 
 1198000   0.78132137   -3.9470435    796.11884  0.055378328  0.055370657           10 
 1199000   0.76743753   -3.9205816    796.17976  0.055336375  0.055343798            6 
 1200000   0.76290727   -3.9086157    799.31387  0.055507908  0.055316841            5 
 1201000   0.75844907   -3.9371955     796.6183  0.055274653   0.05528986            5 
 1202000    0.7720717   -3.9156201    797.16674  0.055266691  0.055262464            4 
 1203000   0.78457721   -3.9029815    797.24293  0.055226027  0.055235514            5 
 1204000   0.77772306   -3.8942056    796.33253  0.055117146  0.055208103            4 
 1205000    0.7631111   -3.9162846    794.93097  0.054974479  0.055180837            6 
 1206000   0.77401998   -3.9154428    799.98023  0.055277793  0.055153617            4 
 1207000   0.77953134   -3.9147962    800.74583  0.055284854  0.055127007            6 
 1208000   0.77121652   -3.9119682    796.87006   0.05497172  0.055100132            5 
 1209000   0.77861001   -3.9276926    795.97739  0.054864722  0.055072981            6 
 1210000   0.77512735    -3.932459    801.50148  0.055199826  0.055046114            4 
 1211000   0.77470496   -3.9342208    800.23492  0.055067088  0.055019056            3 
 1212000   0.76963872   -3.9465606    802.00126  0.055143101  0.054992122           12 
 1213000   0.76468506   -3.9096591    798.60087  0.054864033  0.054964861            4 
 1214000   0.76936827   -3.9038937    801.45478  0.055014743   0.05493779            5 
 1215000   0.75138552   -3.9393066    800.54014  0.054906731  0.054910864            4 
 1216000   0.76924396   -3.9253421    797.89429  0.054680256  0.054883917            3 
 1217000   0.77213315   -3.9021554    801.56937  0.054886974  0.054856501            6 
 1218000   0.77052413   -3.9186821    803.20614  0.054953896  0.054829494            4 
 1219000   0.76537675   -3.9221719    799.95076   0.05468627   0.05480221            3 
 1220000   0.77515369   -3.9375968    803.25297  0.054867006  0.054774778            9 
 1221000   0.76558587    -3.932541    798.13554  0.054472805  0.054747287            5 
 1222000   0.76359606   -3.9261004    799.27506  0.054505937  0.054719836            4 
 1223000   0.75763713   -3.9050491    803.28627  0.054734688  0.054692416            5 
 1224000   0.77493681   -3.9243341    802.98955  0.054669768  0.054664863            4 
 1225000   0.74716802   -3.9321483    803.85309  0.054683884  0.054637479            6 
 1226000   0.76549805   -3.9410382    802.90718  0.054574985   0.05461019            4 
 1227000   0.77261269    -3.954318    803.49989  0.054570761   0.05458293            6 
 1228000   0.75969922   -3.9270367    802.80445  0.054479129  0.054555623            5 
 1229000    0.7607585   -3.9381672    803.41409  0.054476139  0.054528143            6 
 1230000    0.7454086   -3.9331788    805.46412   0.05457074  0.054500936            4 
 1231000   0.75939456   -3.9302984    804.62349  0.054469502  0.054473584           11 
 1232000   0.78628065   -3.9126801    806.42797  0.054547347  0.054446374            3 
 1233000   0.76681598   -3.9295449    803.69526  0.054318415  0.054419186           11 
 1234000     0.757264   -3.9232969    803.23028  0.054242995  0.054391833            4 
 1235000    0.7625082   -3.9324248    804.38855   0.05427723   0.05436412            7 
 1236000   0.77756466   -3.9212736    804.98309  0.054273401  0.054336403            3 
 1237000    0.7607747   -3.9284858    803.68382  0.054141998   0.05430882           10 
 1238000   0.74379008   -3.9332497    803.76645  0.054103826  0.054281174            4 
 1239000   0.76100223   -3.9591271    804.43299   0.05410499  0.054253376            7 
 1240000   0.76419422   -3.9365932    807.68143  0.054279666  0.054225437            3 
 1241000   0.74224559   -3.9409597    806.52752  0.054158442  0.054197531            5 
 1242000   0.76713234   -3.9466199    804.75901  0.053996176  0.054169577            8 
 1243000   0.76601177   -3.9140597    807.27893  0.054121677  0.054141864            2 
 1244000   0.74293938   -3.9609781    805.94804  0.053989017  0.054113867            4 
 1245000   0.76204103   -3.9391073    806.28935  0.053968497  0.054086073            4 
 1246000   0.75295473   -3.9397845    809.02617  0.054108224  0.054058496           10 
 1247000   0.76555825   -3.9458619    808.38925   0.05402227  0.054031175            4 
 1248000   0.77271381   -3.9349185    808.97941   0.05401839  0.054003804            9 
 1249000   0.75745031   -3.9272913    809.21582  0.053990914  0.053976348            6 
 1250000   0.74852647   -3.9574223    806.08924  0.053739283  0.053948715            4 
 1251000   0.76481435   -3.9477425     808.3113  0.053844345  0.053921152            4 
 1252000   0.76610754   -3.9207765    810.61304  0.053954542   0.05389391            4 
 1253000   0.75390998   -3.9449159    809.09807  0.053810726  0.053866752            5 
 1254000   0.76060279   -3.9404749    807.48439  0.053660579  0.053839326            8 
 1255000   0.75890318   -3.9660743    809.77676  0.053770037  0.053811598            5 
 1256000   0.75402177   -3.9442095    810.99348  0.053807954  0.053783897            5 
 1257000   0.75680753   -3.9413001    807.41274  0.053527761  0.053756248            5 
 1258000   0.76066601   -3.9580784    809.78449  0.053642322  0.053728365            4 
 1259000   0.74952404   -3.9521508    811.96946  0.053744338  0.053700746           11 
 1260000   0.74238281   -3.9462245    812.65851  0.053747256  0.053673096            3 
 1261000   0.74123681   -3.9462773    812.42972  0.053689513  0.053645738            4 
 1262000   0.74836257   -3.9605581    812.60984  0.053658864  0.053618226            6 
 1263000   0.75074307   -3.9440112    810.97296  0.053508377  0.053590556            4 
 1264000   0.75794862   -3.9779806    812.96418  0.053597322  0.053563259            4 
 1265000   0.74595146   -3.9580944    812.27676  0.053509668  0.053535804            3 
 1266000   0.75503176   -3.9602607    811.12391  0.053391516  0.053508431            6 
 1267000   0.75647837   -3.9616901     812.7135  0.053453926  0.053480921           13 
 1268000   0.74886557     -3.94192    815.35297  0.053585237  0.053453905            5 
 1269000   0.73931431     -3.95308    811.52253  0.053291472  0.053426823            6 
 1270000   0.75953222   -3.9920395    812.19546  0.053293665  0.053399749            7 
 1271000   0.73416077   -3.9485797     814.7238  0.053417506  0.053372377            3 
 1272000   0.73442941   -3.9628999    812.37723  0.053221779   0.05334516            4 
 1273000   0.75804229   -3.9565973    813.60068   0.05326006  0.053317902            4 
 1274000   0.74254106    -3.976852    812.81672  0.053166975  0.053290631            3 
 1275000    0.7460616   -3.9716157    815.35196  0.053290978  0.053263145            4 
 1276000    0.7283661   -3.9713447    815.03657  0.053228616  0.053235871            6 
 1277000   0.72848389    -3.977497    816.01734  0.053250936  0.053208533           10 
 1278000   0.75315972    -3.957838    816.54168  0.053243459  0.053180906            3 
 1279000   0.74787238   -3.9541491    817.15543  0.053241818  0.053153679            4 
 1280000   0.73264241   -3.9752137    816.82882   0.05317896   0.05312633            5 
 1281000   0.74193198   -3.9785785    816.09635  0.053089796  0.053098983           18 
 1282000   0.74101444   -3.9716636        815.3   0.05299662  0.053071869            7 
 1283000   0.73933111   -3.9898864      813.843  0.052860678  0.053044365            4 
 1284000    0.7301945    -3.974076    816.57726  0.052996967  0.053016875           11 
 1285000    0.7205071   -3.9630277    817.78934  0.053034328  0.052989371            6 
 1286000   0.73393048   -3.9628819    818.06293  0.053010817  0.052961814            4 
 1287000   0.74492161   -3.9828024    815.48593  0.052802767  0.052934155            3 
 1288000   0.75037784   -3.9446783    817.41916   0.05288685  0.052906701            5 
 1289000   0.75812754   -3.9667716    814.99165  0.052688883  0.052879078            8 
 1290000   0.73806684   -3.9657483    820.60668  0.053010767  0.052851802            5 
 1291000   0.75704077   -3.9756827    816.67932  0.052716196  0.052824148            4 
 1292000   0.74417751   -3.9714239    818.96031  0.052822517  0.052796691            4 
 1293000   0.74153818   -3.9919449    818.81539  0.052772325  0.052768965            9 
 1294000   0.73669676   -3.9729337    817.89711  0.052672406  0.052741676            5 
 1295000   0.73924893   -3.9705183    818.83596  0.052692146  0.052714423            4 
 1296000   0.72026672   -3.9640088    819.81012  0.052714128  0.052687228            3 
 1297000   0.73788129   -3.9671814    819.30416  0.052640977  0.052660075            3 
 1298000     0.737266   -3.9657314    820.49133  0.052676639  0.052632625           10 
 1299000   0.74326126   -3.9743144    821.72537  0.052715253   0.05260567            4 
 1300000    0.7255213   -3.9905624    822.18783  0.052704348  0.052578607            5 
 1301000   0.73359546   -4.0037905    818.60616   0.05243442  0.052551023           14 
 1302000   0.73856414   -3.9718686    823.22256  0.052689616  0.052523563            9 
 1303000   0.72069658   -3.9776226    821.02712   0.05250877  0.052496116           15 
 1304000   0.73846419   -3.9987896    819.15858  0.052349091  0.052468586            4 
 1305000   0.72666826   -3.9506721    822.16064  0.052500679  0.052440869            6 
 1306000   0.73520564   -3.9695567    821.86387  0.052441544  0.052413286            8 
 1307000   0.74519872   -3.9522878    822.04518   0.05241298   0.05238569            5 
 1308000   0.73008289    -4.006636    821.53145  0.052340179  0.052358221            8 
 1309000     0.745274   -3.9823321    824.01767  0.052458471  0.052330831            5 
 1310000   0.72751275   -3.9933637    824.30687  0.052436823  0.052303324           18 
 1311000   0.71785767   -3.9828791    822.71287  0.052295504  0.052276085            6 
 1312000   0.72500079   -3.9945236    821.98373  0.052209332  0.052248828            5 
 1313000    0.7238886   -3.9994508    824.39376  0.052322528  0.052221372            4 
 1314000   0.73186385   -4.0111272    822.89033  0.052187362  0.052193907            4 
 1315000   0.73333421   -3.9720766    824.60251  0.052256179   0.05216658            4 
 1316000   0.72729154   -3.9971219    823.01143  0.052115719  0.052139439            6 
 1317000    0.7317099   -3.9737438    825.48259   0.05223251  0.052112407           10 
 1318000   0.73458439   -3.9751383     826.7913  0.052275626   0.05208567            5 
 1319000   0.71982019   -3.9933244    824.56383  0.052095264  0.052058492            6 
 1320000   0.74626117   -4.0029446    825.74089  0.052130107  0.052031271            5 
 1321000   0.72286583   -3.9910127    822.01905  0.051855857  0.052003996            7 
 1322000   0.74224949   -4.0036395    825.13152  0.052012829  0.051976602            4 
 1323000   0.72975018    -3.977275    826.72477   0.05207387  0.051949279            8 
 1324000   0.72076549   -3.9952853    825.16584   0.05193642  0.051921927            6 
 1325000   0.72560267   -4.0129776    823.73493  0.051807228   0.05189436            4 
 1326000   0.73042786   -4.0190924    822.39134  0.051683719  0.051866603            5 
 1327000   0.73681838   -3.9775897    825.54957  0.051843103  0.051839056            4 
 1328000   0.71397238   -3.9963813    827.57198  0.051930973  0.051811655            5 
 1329000   0.71693756   -4.0107576     824.0211  0.051669244  0.051783947            6 
 1330000   0.72130001   -4.0133343    825.19809  0.051704141  0.051756275            4 
 1331000   0.71159793   -4.0182267    825.36642  0.051675834  0.051728541            5 
 1332000   0.72418001   -4.0008957    826.72015  0.051721731  0.051701004            6 
 1333000   0.72000132   -4.0087005    825.92114  0.051632979  0.051673372            4 
 1334000   0.71714238   -3.9672519    827.55705  0.051696467  0.051645562           13 
 1335000   0.72346993   -4.0178837    826.67761  0.051602847  0.051617771            5 
 1336000   0.73348548   -4.0113177    824.72973  0.051442723  0.051590024            4 
 1337000   0.71662988   -4.0048588    826.95096  0.051542693  0.051562203            7 
 1338000   0.71667601   -4.0053016    826.14686   0.05145409  0.051534523            4 
 1339000   0.73199814   -4.0101639    829.28532  0.051610986  0.051507185            4 
 1340000   0.72218988   -4.0151866    829.00141  0.051554814  0.051479792            5 
 1341000   0.72806312   -3.9965737    829.74751  0.051562734  0.051452329            3 
 1342000   0.72044696   -3.9945965    828.15797  0.051425607  0.051425039            8 
 1343000   0.70611654   -4.0201659    825.26759  0.051207966  0.051397349            7 
 1344000   0.70250174   -4.0413115    824.19741   0.05110351  0.051369685            7 
 1345000   0.71396813   -4.0023234    831.78692  0.051535744  0.051342229            8 
 1346000   0.72258439   -4.0120575     829.3176  0.051344577  0.051315057            5 
 1347000   0.72722507   -4.0228413    827.59226  0.051199719  0.051287506            5 
 1348000   0.72083108   -4.0098099    827.93951  0.051183204  0.051260124            4 
 1349000   0.71563346   -3.9883471    830.19712  0.051284724  0.051232863            5 
 1350000   0.72671454   -3.9972852    830.50439  0.051265703   0.05120544            8 
 1351000   0.70585204   -3.9905853    831.16903  0.051268753  0.051178184            3 
 1352000   0.70512961   -4.0331377    829.58902  0.051133446  0.051150525            7 
 1353000   0.71193308   -4.0156752     829.4246  0.051085526  0.051122756            5 
 1354000    0.7228282   -4.0044609    830.73959  0.051128729  0.051094987            8 
 1355000    0.7115226   -4.0347239    829.95978  0.051043037  0.051067338            3 
 1356000   0.70836215   -3.9938159    830.09438  0.051013666  0.051039582            5 
 1357000   0.73049186   -4.0259691    826.98289  0.050784997  0.051011791            8 
 1358000   0.70306628   -4.0079055    828.83093  0.050861005   0.05098399           13 
 1359000   0.71391556   -4.0446204    826.63187  0.050688734  0.050956117            5 
 1360000   0.71081464    -4.021982    828.35945  0.050757319  0.050928628            8 
 1361000   0.71412452   -4.0519979    830.72467  0.050864846  0.050901082            6 
 1362000    0.7227958   -4.0320689    830.56599  0.050817792  0.050873405            6 
 1363000   0.69555443   -4.0368995     830.1587  0.050755606  0.050845706            7 
 1364000   0.71287186   -4.0132032    832.71912  0.050874824   0.05081798           14 
 1365000   0.68966161   -4.0600304    828.49482   0.05057966  0.050790369            4 
 1366000    0.7141383   -4.0290101    832.12377  0.050764017  0.050762471            6 
 1367000   0.70296957   -4.0179959    830.80491  0.050646483  0.050734892            7 
 1368000   0.72319022   -4.0394868    832.89854  0.050736997  0.050707256            5 
 1369000   0.70863485   -4.0144512    831.42455  0.050610211  0.050679715            4 
 1370000   0.70342705   -4.0381082    833.02196  0.050670435  0.050652273           11 
 1371000   0.71241687   -4.0518034    832.27664  0.050588174  0.050624774            9 
 1372000   0.69065112   -4.0375938    832.58695   0.05057015    0.0505973            7 
 1373000   0.69597996   -4.0165869    833.15533  0.050567816  0.050569935            5 
 1374000   0.70756136   -4.0371141     832.7596  0.050507011  0.050542545            3 
 1375000   0.70910612   -4.0373466    833.83473  0.050535438  0.050515055            3 
 1376000   0.69307047   -4.0282522    836.43443  0.050656155  0.050487782            3 
 1377000   0.70856563   -4.0166472    834.94238  0.050529072  0.050460643            5 
 1378000   0.69594184    -4.025432    833.23823  0.050389346  0.050433466            6 
 1379000   0.69770153   -4.0234607    837.60634  0.050616772  0.050406148            4 
 1380000   0.70789678   -4.0432374    834.66774  0.050402642  0.050378909            4 
 1381000   0.68396947   -4.0137662    836.31538  0.050465567  0.050351726            5 
 1382000   0.69736702   -4.0596962    833.60643  0.050265704  0.050324331            8 
 1383000    0.7023734    -4.038736    835.59164  0.050348978  0.050296997            5 
 1384000    0.6999819   -4.0665766    836.09156    0.0503427  0.050269449            6 
 1385000    0.6970408   -4.0432022    835.39361  0.050264357  0.050241996            4 
 1386000   0.71385495   -4.0393289    833.84214  0.050134809  0.050214533            6 
 1387000   0.69881431   -4.0402313    836.44126  0.050254822  0.050187277            7 
 1388000   0.69864307   -4.0331365    838.05921  0.050315754  0.050160154            8 
 1389000   0.68119657   -4.0332848    837.66248  0.050255728  0.050133079            6 
 1390000   0.70117613   -4.0280413    838.10471  0.050246085   0.05010598            7 
 1391000   0.70981346   -4.0553696    839.54909  0.050296495   0.05007897            6 
 1392000   0.69239778    -4.018662    840.59715  0.050323105  0.050052287            5 
 1393000   0.69123922   -4.0272941    837.52535  0.050103215  0.050025489            4 
 1394000   0.69046888   -4.0221733    838.97995  0.050154229  0.049998719           12 
 1395000   0.70497751   -4.0193131    841.86099  0.050290382  0.049971946            5 
 1396000    0.6826161   -4.0616087    838.31744  0.050042827  0.049945244            6 
 1397000   0.69783949   -4.0552425    838.76167  0.050033505  0.049918467            5 
 1398000   0.69880547   -4.0197572    840.22769  0.050085103   0.04989166            3 
 1399000    0.7029046   -4.0583705     837.9404  0.049913057  0.049864844            6 
 1400000   0.69560153   -4.0848772    837.91775  0.049876057  0.049837766            9 
 1401000    0.6917459   -4.0381324     839.7147  0.049947341  0.049810793            7 
 1402000   0.68459373   -4.0578725    841.23592  0.050002135  0.049784095            5 
 1403000   0.69230566   -4.0609899    839.44051  0.049859854  0.049757149            5 
 1404000   0.67819747   -4.0821143    838.19759  0.049750569  0.049730153            8 
 1405000   0.69350605   -4.0493153     841.8664  0.049932764  0.049703226            6 
 1406000   0.69133868    -4.066212    837.75553  0.049653599  0.049676196           12 
 1407000   0.70195289   -4.0568078    841.94554  0.049866474  0.049649183            5 
 1408000    0.6966964   -4.0533172    842.92587  0.049889079  0.049622411            6 
 1409000   0.68436891   -4.0550795    841.24795  0.049754433   0.04959567            6 
 1410000   0.69881812   -4.0776737     840.8987  0.049698505  0.049568679           15 
 1411000   0.69934914   -4.0578615    840.04434  0.049612824  0.049541689            3 
 1412000   0.68809109   -4.0615581    839.38745   0.04953892  0.049514757            6 
 1413000   0.69786859   -4.0650557    841.13779  0.049607088  0.049487828            4 
 1414000   0.67437464   -4.0621928     841.4057  0.049587794  0.049460881            6 
 1415000   0.68574511   -4.0595454    839.21166  0.049423537  0.049433732            7 
 1416000    0.6755698   -4.0460602    842.27825  0.049569106  0.049406608           11 
 1417000   0.69556955   -4.0808938    843.48649  0.049605181  0.049379417           13 
 1418000   0.66922704   -4.0575016    841.24205  0.049438296  0.049352214            3 
 1419000   0.67946797   -4.0540259    843.50356  0.049536267  0.049325132            5 
 1420000   0.69209738     -4.06731    838.86783  0.049229332  0.049298063            8 
 1421000   0.67736652   -4.0547265    841.17943  0.049330251  0.049270867            4 
 1422000   0.68553591    -4.057991    842.96796  0.049400373  0.049243876            6 
 1423000   0.69906081   -4.0763385    841.22021  0.049263306  0.049216625            9 
 1424000   0.69620701   -4.0732469    842.42181  0.049299029  0.049189591           12 
 1425000   0.69952977   -4.0652375    842.61545  0.049275757  0.049162528            5 
 1426000   0.67400537   -4.0684811    843.72918  0.049306287  0.049135439            5 
 1427000    0.6772471   -4.0688108    840.82661  0.049102231  0.049108049            4 
 1428000   0.67549914   -4.0964927    841.02237   0.04907927  0.049080738            8 
 1429000   0.68985424   -4.0933489    842.89802  0.049154305  0.049053432            5 
 1430000   0.69665524   -4.0773129    842.65742   0.04910591  0.049026376            9 
 1431000    0.6884703   -4.0721844    843.83845  0.049140371  0.048999402            8 
 1432000   0.69736426   -4.0877491     842.6621  0.049037599  0.048972494            3 
 1433000    0.6750175   -4.0936499    843.32468   0.04904191  0.048945469            6 
 1434000     0.675831   -4.0719227    847.60898  0.049256682  0.048918597            3 
 1435000   0.69404925   -4.0742481    843.36348  0.048975812   0.04889183            8 
 1436000   0.69293582   -4.0890443    844.31068  0.048996674  0.048864926            7 
 1437000   0.67359486   -4.0556568    845.87543  0.049053319   0.04883807            4 
 1438000   0.68553959   -4.0648373    843.64321  0.048889848  0.048811045            6 
 1439000   0.67869238   -4.0947841    845.19018  0.048945459  0.048784299            8 
 1440000   0.66761629   -4.0771515    844.40158  0.048865832  0.048757144            6 
 1441000   0.67473692   -4.0768084    847.01976  0.048983331  0.048730218            5 
 1442000   0.65851744   -4.0908089    844.27337  0.048790648  0.048703298           10 
 1443000   0.68288642   -4.0999357    845.85344  0.048848085  0.048676176           11 
 1444000    0.6702833   -4.0784158    843.38994  0.048672088   0.04864894            7 
 1445000   0.68360711   -4.0768601    845.56385  0.048763774   0.04862191            8 
 1446000   0.67274558   -4.0820024    846.47151   0.04878236  0.048595051            8 
 1447000   0.66724099   -4.0820698    845.67928  0.048703022  0.048567823            4 
 1448000   0.68024419   -4.0941595    846.34453  0.048707673  0.048540625            5 
 1449000   0.66759676    -4.100301    844.44763  0.048564966  0.048513548            4 
 1450000   0.68410828   -4.0966501     846.3669  0.048641776  0.048486451            5 
 1451000   0.68614189   -4.1152337    847.66382  0.048682737  0.048459242            4 
 1452000   0.67184887   -4.1114013    846.05301  0.048556761  0.048432006            7 
 1453000   0.66826123   -4.1013937    844.57106  0.048438349  0.048404606            7 
 1454000   0.66770043   -4.0884294    847.27373  0.048559934  0.048377271            7 
 1455000   0.67036404   -4.0820596    845.44454  0.048421795  0.048350243            7 
 1456000   0.67264493   -4.0713526    846.53774  0.048451107  0.048322881            4 
 1457000   0.67147162   -4.0951284    846.01185  0.048387774  0.048295732            4 
 1458000   0.68287174   -4.0873033    847.89813  0.048462399  0.048268539            8 
 1459000   0.65657011   -4.0846341    844.39788   0.04822926  0.048241438            3 
 1460000   0.67981129   -4.0989843     847.2451  0.048358739  0.048214269           10 
 1461000   0.66878401    -4.075922    846.60763  0.048289279  0.048187207            5 
 1462000   0.66742681     -4.08955    846.00109  0.048221677  0.048160018            5 
 1463000   0.66311508    -4.131733    845.58198  0.048164843   0.04813265            5 
 1464000   0.66531926   -4.0978456    848.08801  0.048274591  0.048105394            6 
 1465000   0.64703036   -4.0669708    849.39378  0.048315915  0.048078447            6 
 1466000    0.6719598   -4.0865869    846.60792  0.048124598  0.048051768            8 
 1467000   0.66204704   -4.1120315    847.04917  0.048116858  0.048024752           13 
 1468000    0.6656256   -4.1013448    849.36335  0.048215449  0.047997855           12 
 1469000   0.65907636   -4.1003967    848.42685  0.048129501  0.047970779            5 
 1470000   0.66467697   -4.1238462    847.37049  0.048036876  0.047943644            6 
 1471000    0.6540812   -4.1226596    848.54515  0.048070765  0.047916641            7 
 1472000   0.66899255   -4.1053801    850.70915  0.048160617  0.047889797            6 
 1473000   0.67912908    -4.092515    848.89843  0.048025483  0.047863174            7 
 1474000   0.65262666    -4.111073    850.53694  0.048085535  0.047836507            6 
 1475000   0.67309639   -4.1129732    850.23711  0.048035995  0.047809661            5 
 1476000   0.66715537   -4.0895255    848.10126  0.047882862  0.047782834            7 
 1477000   0.66880779   -4.0938694    851.80711   0.04805953  0.047756178           12 
 1478000   0.66508935   -4.1121166    850.58602  0.047958165  0.047729489            7 
 1479000   0.67202706   -4.0799235    851.39929  0.047971562  0.047702766            8 
 1480000   0.66146882   -4.0960415    851.42402  0.047940541  0.047676209            9 
 1481000   0.67328169   -4.1218605    849.51881  0.047800968  0.047649492            4 
 1482000   0.65696216   -4.1312201    849.82635  0.047786007  0.047622592           10 
 1483000   0.66890799   -4.1143774    849.97278  0.047762013  0.047595776            6 
 1484000   0.66044646   -4.1290566    848.19604  0.047630056  0.047569103           11 
 1485000   0.67913246   -4.1307155    847.91178   0.04758203   0.04754228            4 
 1486000   0.66358521   -4.1195763    852.07996  0.047783757  0.047515533           10 
 1487000   0.66879932   -4.1165302    848.99041  0.047578481  0.047488997           10 
 1488000   0.66094339   -4.1177486    850.99001  0.047658491  0.047462221           13 
 1489000   0.66571415   -4.1313176    851.01205  0.047627717  0.047435394            6 
 1490000   0.64955411   -4.1084018    849.93793  0.047535678  0.047408465           13 
 1491000   0.67477019   -4.1378375    850.63184   0.04754258  0.047381694           22 
 1492000   0.67155492   -4.1193088    851.51139  0.047559841   0.04735487            8 
 1493000   0.64777749   -4.1089521    851.04026  0.047501689  0.047328156            6 
 1494000   0.65920094   -4.1135587    849.57034  0.047387904  0.047301424            5 
 1495000   0.64887466    -4.128007    851.93703  0.047488129  0.047274639            6 
 1496000   0.66564147   -4.1333707    849.55224  0.047323543  0.047247655            7 
 1497000   0.65534804    -4.153666    849.97621  0.047315532  0.047220568            9 
 1498000   0.66042067   -4.1380356    849.69699  0.047268413  0.047193545            9 
 1499000   0.65262288   -4.1252073    851.87726  0.047358086  0.047166683            7 
 1500000   0.64445881   -4.1261324    851.06725  0.047281514  0.047139903            9 
 1501000   0.66331888   -4.1216494    851.13863  0.047253977  0.047113153           10 
 1502000   0.66079933   -4.1071404    851.74797  0.047256323  0.047086232            8 
 1503000   0.65923836   -4.1446732    849.52967  0.047101889   0.04705938            6 
 1504000   0.66048238   -4.1319729    851.16202  0.047161016  0.047032418            5 
 1505000   0.64886831   -4.1219097    852.07227  0.047180082  0.047005556            5 
 1506000   0.65415389   -4.1259451     854.0041  0.047255649  0.046978774            4 
 1507000   0.67303575   -4.1300206    852.03617   0.04711547  0.046951869            9 
 1508000   0.64789092   -4.1284445    853.42537  0.047160995  0.046924888            7 
 1509000   0.65641769   -4.1200787    853.90662  0.047156319  0.046898226            9 
 1510000   0.64494109   -4.1311544    852.92362   0.04707084  0.046871507            8 
 1511000   0.65658677   -4.1418242    853.58457   0.04707614    0.0468449            3 
 1512000   0.65359619   -4.1136217    851.43142  0.046926335  0.046817957            9 
 1513000   0.65661209   -4.1433111    855.04515  0.047094357  0.046791116            8 
 1514000   0.63533083   -4.1437035    852.75898  0.046937416  0.046764387           10 
 1515000   0.64616308   -4.1429838    852.50323  0.046892367  0.046737701           12 
 1516000   0.63693815   -4.1104369    852.71212  0.046872918  0.046711092            6 
 1517000   0.65006196   -4.1536597    851.87378  0.046795967  0.046684156            9 
 1518000   0.64243283   -4.1608036    853.67651  0.046864103  0.046657347            3 
 1519000   0.63455089   -4.1417108    853.96445  0.046849048  0.046630477           17 
 1520000   0.65012899   -4.1143391     853.6557  0.046801299  0.046603648            9 
 1521000   0.66303877   -4.1464613    854.28171  0.046804827  0.046576791           11 
 1522000   0.64808083   -4.1281445    854.33625  0.046777061  0.046549912            5 
 1523000    0.6499214   -4.1511474    853.88241  0.046721515  0.046522913            5 
 1524000   0.64329005   -4.1514744    853.76382  0.046684373  0.046496107            8 
 1525000   0.63774512   -4.1405689    853.71818  0.046651266  0.046469303           10 
 1526000     0.645872   -4.1667273    852.42066   0.04654984  0.046442232           12 
 1527000   0.62971935   -4.1249589    851.87725    0.0464897  0.046415202            4 
 1528000   0.64480998    -4.157164    852.47363  0.046491799   0.04638846            6 
 1529000    0.6325717       -4.141    853.38056  0.046510822  0.046361557            9 
 1530000   0.63358982   -4.1334355    853.69308  0.046497444  0.046334643            7 
 1531000   0.64365442   -4.1612232    852.79365  0.046418117  0.046307594            6 
 1532000   0.64161395   -4.1462311    854.53119  0.046482332  0.046280621           10 
 1533000   0.62799423   -4.1882945    850.79054   0.04624867  0.046253479            6 
 1534000   0.65629349   -4.1423777    851.87784  0.046277588  0.046226265            6 
 1535000   0.63778364   -4.1429624    853.06273  0.046311766  0.046199227           12 
 1536000   0.64932991   -4.1608765    854.04932  0.046335141  0.046172169           15 
 1537000   0.65440832   -4.1484776    852.55169  0.046223796  0.046145034           22 
 1538000   0.62558909   -4.1714617    853.11996  0.046224532  0.046117962            5 
 1539000   0.63713434    -4.150666    855.17001  0.046305502  0.046090824            9 
 1540000   0.64105698   -4.1783361    854.01422   0.04621289  0.046063877           11 
 1541000   0.63722434   -4.1418133    853.50585  0.046155411  0.046037025           16 
 1542000   0.63144816   -4.1439179    856.57449  0.046291315  0.046010146           15 
 1543000   0.64427462   -4.1423609    854.02885  0.046123831  0.045983205            6 
 1544000   0.62975728   -4.1263416    854.61954  0.046125839  0.045956085            6 
 1545000   0.62584459   -4.1752586    851.24011  0.045913706  0.045928995            6 
 1546000   0.63234426   -4.1409177    854.26841  0.046047241  0.045901691           11 
 1547000   0.65726336   -4.1673843    854.92148  0.046052655  0.045874619            6 
 1548000   0.64717378   -4.1730739    855.06066  0.046030397  0.045847392            4 
 1549000   0.63232988    -4.182885    855.35009  0.046016252  0.045820181            6 
 1550000   0.64021101   -4.1587691    856.49197  0.046047955  0.045793016           16 
 1551000   0.63402672   -4.1796636    853.87436  0.045877625  0.045765828            7 
 1552000   0.64073945   -4.1721571    854.01804  0.045855779  0.045738709           13 
 1553000   0.62741769   -4.1708351    853.93362  0.045821722  0.045711571            8 
 1554000   0.62510525   -4.1779416    853.00108  0.045742229   0.04568439            6 
 1555000   0.62981526    -4.160487    854.29748  0.045782287  0.045657367            6 
 1556000   0.63141479   -4.1670606    853.42253  0.045706005  0.045630244           11 
 1557000   0.62913703   -4.1704019     852.2925  0.045616169  0.045603156            7 
 1558000   0.63538822   -4.1581736    855.16106  0.045740322  0.045576009            9 
 1559000   0.63104949   -4.1867777    850.71499  0.045473327  0.045548891           14 
 1560000   0.63600961   -4.1749868    853.56108  0.045596211  0.045521709           16 
 1561000   0.63878435   -4.1871661    854.82324  0.045634382  0.045494514            9 
 1562000   0.64074076    -4.171676    854.24398  0.045574263  0.045467404            8 
 1563000   0.64793385   -4.1744927    853.97277  0.045530645  0.045440315           18 
 1564000    0.6227433   -4.1742882    857.20289  0.045673641  0.045413302            4 
 1565000   0.64300908   -4.1716033    851.08017  0.045318433  0.045385977            5 
 1566000   0.63898773    -4.166605    855.99028  0.045550781  0.045358948            5 
 1567000   0.63512562   -4.1851267    853.43286  0.045385708  0.045331762           16 
 1568000   0.61449322   -4.1821545    853.07385  0.045337683  0.045304392            8 
 1569000   0.63933269   -4.1650746    855.95999  0.045462077  0.045277127            6 
 1570000   0.63509108   -4.1771977    853.46038  0.045300445  0.045250123            6 
 1571000   0.64426541   -4.1759886    854.00987  0.045300757  0.045223056            7 
 1572000     0.629482   -4.1785233     853.3169  0.045235204  0.045195875            7 
 1573000   0.62822621   -4.1955467    851.54691  0.045112678  0.045168634            6 
 1574000   0.60978922   -4.1818589    853.13316  0.045167999  0.045141324           15 
 1575000   0.62305788   -4.1727925    854.31933  0.045202081   0.04511423           16 
 1576000   0.62417156   -4.1678182    857.09083  0.045319946  0.045087227           15 
 1577000   0.61948903   -4.1877357    856.23308  0.045245882  0.045060207            7 
 1578000   0.62694308   -4.1777213    854.86458   0.04514494  0.045033082            7 
 1579000   0.61809002   -4.1960644    853.20987   0.04502902  0.045005865            4 
 1580000   0.61680024   -4.1854742    854.63417  0.045075642  0.044978726           16 
 1581000   0.61044259   -4.1810598    856.81233   0.04516194   0.04495158            3 
 1582000   0.62866751   -4.1676775    855.07323  0.045041784  0.044924408            4 
 1583000   0.61822416   -4.1822925    855.78157   0.04505062  0.044897464            7 
 1584000   0.62147172   -4.1797003    855.04257    0.0449833  0.044870692           18 
 1585000   0.60856398   -4.1829177    856.82253  0.045048503  0.044843809           12 
 1586000    0.6140437   -4.1837029    856.97047  0.045027873  0.044816974            6 
 1587000   0.63471346   -4.1870534    852.98138  0.044790033  0.044790055           15 
 1588000   0.62263101   -4.2000718    857.79656  0.045014513  0.044763104            8 
 1589000   0.61884068   -4.2162071    854.47419  0.044811946  0.044736337            6 
 1590000   0.60693374   -4.1890939    857.61111  0.044948172  0.044709533           10 
 1591000   0.62948042   -4.1909362    856.43208  0.044858165  0.044682866            8 
 1592000   0.62799741   -4.2042344    856.46502  0.044831712  0.044656109           19 
 1593000   0.62290423   -4.1867463    857.88164  0.044877675  0.044629366            6 
 1594000   0.60434582   -4.1964796    857.71525  0.044840822  0.044602623           21 
 1595000    0.6186319   -4.2190117    857.38407  0.044795406  0.044576118            5 
 1596000   0.61667981   -4.2096279    858.39548  0.044820148  0.044549624            4 
 1597000   0.63428708   -4.2096605    856.72655  0.044704996  0.044523084            9 
 1598000   0.60370813   -4.1778773    857.13605  0.044698376  0.044496452            7 
 1599000   0.61767674   -4.1958405    859.28278  0.044782301  0.044469923            8 
 1600000    0.6053126    -4.202585    856.91393  0.044630934   0.04444342            8 
 1601000   0.61009496   -4.2064197    857.17002  0.044616387  0.044416746            8 
 1602000   0.63551296   -4.2127068    859.70474  0.044720388  0.044390139            5 
 1603000   0.61412759   -4.2178991    856.44067  0.044522805  0.044363571            9 
 1604000   0.62390775    -4.203516    857.87109  0.044569363  0.044336933            8 
 1605000   0.61458363   -4.1969714    858.81051  0.044590369  0.044310421           14 
 1606000   0.61849272    -4.208373    860.07942  0.044628446  0.044283949            9 
 1607000   0.62868098   -4.2210612     858.8828  0.044538623  0.044257439            4 
 1608000   0.59329381   -4.2124926    857.08924  0.044417974  0.044230878           11 
 1609000   0.62215008   -4.2187239    857.33548  0.044403122  0.044204276           12 
 1610000   0.62923914   -4.1950746    858.24194   0.04442246   0.04417778            6 
 1611000   0.60833885   -4.2135177    860.04625  0.044488219  0.044151254           10 
 1612000   0.60856065   -4.2299435    859.77532  0.044446615   0.04412467            7 
 1613000   0.61170422   -4.2044358    860.33547  0.044447999  0.044098149            5 
 1614000   0.59360744   -4.2062135    860.27777  0.044417481  0.044071657           15 
 1615000   0.61048957   -4.2178634    861.66711  0.044461667  0.044045224            8 
 1616000    0.6042564   -4.2417849    859.21484  0.044307696  0.044018531            6 
 1617000   0.60020517   -4.1999969    860.18466  0.044330275  0.043992197           16 
 1618000   0.59708056   -4.2207241    861.13853  0.044352005  0.043965791           13 
 1619000   0.61939986   -4.2139686    859.03505   0.04421634  0.043939348           10 
 1620000   0.61178149      -4.2135    859.59292  0.044217743  0.043913105            8 
 1621000   0.60656009   -4.2299302    858.07913  0.044112643  0.043886717           21 
 1622000   0.60947782   -4.1993842    859.05596  0.044135633  0.043860361           11 
 1623000   0.60794705   -4.2157794    861.52991  0.044235465  0.043834054           15 
 1624000    0.6167385   -4.2345781    861.95809  0.044230197  0.043807877            5 
 1625000    0.6051037   -4.2386282    856.89462  0.043943314  0.043781504            8 
 1626000   0.60411287   -4.2377826    859.10805  0.044029728  0.043755077           14 
 1627000   0.59877287   -4.2269548    859.71237  0.044033619  0.043728522           10 
 1628000   0.60207957   -4.2126646    861.05329  0.044075209  0.043702268            8 
 1629000   0.60284638   -4.2352575    861.35525    0.0440636  0.043675972           14 
 1630000   0.60109038   -4.2127425    860.33551  0.043984433  0.043649669            7 
 1631000    0.5976105   -4.2312929    861.73692  0.044029068  0.043623413            6 
 1632000   0.58868257   -4.2204252    862.81356  0.044057065  0.043597189            8 
 1633000   0.58512809   -4.2371983    861.74445  0.043975528   0.04357103            9 
 1634000   0.60320883   -4.2381448    858.64632  0.043790612  0.043544692            8 
 1635000   0.58632335   -4.2144714    859.99876  0.043832761  0.043518468           17 
 1636000   0.60803304   -4.2367609    861.49931  0.043882402  0.043492259            7 
 1637000   0.59698525   -4.2364747    860.08482  0.043783589  0.043465931            9 
 1638000   0.60572835   -4.2354167    859.69383  0.043736968  0.043439625           19 
 1639000   0.58120924   -4.2393745    860.64752  0.043758772  0.043413217            9 
 1640000   0.60098238   -4.2306482    858.00198  0.043597662  0.043386921           11 
 1641000   0.60849087   -4.2330729    858.65189  0.043604097  0.043360433           11 
 1642000   0.60067507   -4.2304738    858.76116  0.043583088  0.043334133           10 
 1643000   0.60957245   -4.2262968    861.18732  0.043679616  0.043307867            6 
 1644000   0.59747257   -4.2318928    859.30153  0.043557458  0.043281552            9 
 1645000   0.59420857   -4.2281282    859.48798  0.043540424  0.043255242            8 
 1646000   0.61616189   -4.2365075     863.4914  0.043716656  0.043229065           10 
 1647000   0.58990482   -4.2488935    861.64253  0.043596566  0.043202933            6 
 1648000   0.59551597   -4.2513084    860.68622  0.043521754  0.043176761            5 
 1649000   0.59639818   -4.2326782    862.60975  0.043592568   0.04315069            5 
 1650000   0.58558162   -4.2420185    863.06096  0.043588937  0.043124545           20 
 1651000   0.59687408   -4.2539766    861.06899  0.043461992  0.043098383           10 
 1652000   0.59870788   -4.2414322     862.9677  0.043531462  0.043072332            9 
 1653000   0.59460621   -4.2399805    860.77287  0.043394478  0.043046381           18 
 1654000   0.61161127   -4.2481427    859.81057  0.043319759  0.043020414           13 
 1655000   0.58820665   -4.2469042    862.27765  0.043417807  0.042994438            7 
 1656000   0.58995817   -4.2460866    860.38959  0.043296577  0.042968321            7 
 1657000   0.59677037   -4.2734531    860.63588  0.043282834  0.042942268           18 
 1658000   0.57227867   -4.2546337     861.3659  0.043293421  0.042916299            6 
 1659000   0.59624172   -4.2383482    861.40816  0.043269448  0.042890364           11 
 1660000   0.59694126   -4.2490402    863.65898  0.043356375  0.042864413            7 
 1661000    0.5945904   -4.2357871    861.15813  0.043204803  0.042838469           11 
 1662000    0.5860523   -4.2706644    865.09911  0.043376409  0.042812558           13 
 1663000     0.594977   -4.2386549    862.87561  0.043238906   0.04278662            6 
 1664000   0.60379393   -4.2400614    864.99112  0.043318866  0.042760967            8 
 1665000   0.58310257   -4.2534362    864.36598   0.04326156  0.042735213           16 
 1666000   0.57878163   -4.2469951    863.37832   0.04318619  0.042709528           15 
 1667000   0.58729122   -4.2566328     861.0023  0.043041507  0.042683576           10 
 1668000   0.58893857   -4.2410044    865.11125  0.043220986  0.042657703            7 
 1669000   0.59012956   -4.2420827    865.13442  0.043196246  0.042631965           11 
 1670000   0.57413677   -4.2555814    861.70316   0.04299916  0.042606205            5 
 1671000   0.58610399    -4.252998     863.8939   0.04308268  0.042580497           15 
 1672000   0.58378009   -4.2698687     862.7541  0.043000105  0.042554818            6 
 1673000    0.5949639   -4.2560598    864.51443  0.043062086  0.042529081           14 
 1674000   0.58396721    -4.254251    863.10922  0.042966409  0.042503479            8 
 1675000   0.58071805   -4.2672905    863.12166  0.042941376  0.042477911           12 
 1676000   0.56337216    -4.261012    864.48139  0.042983363  0.042452277            9 
 1677000   0.58076624   -4.2688334    864.42904   0.04295513  0.042426478            8 
 1678000   0.57960176   -4.2606843    864.49422  0.042932768  0.042400681           10 
 1679000   0.59068928   -4.2397589    864.59193  0.042912048  0.042374993           10 
 1680000    0.5935983   -4.2726803     861.7834  0.042747192  0.042349241           19 
 1681000   0.58743841   -4.2718809     863.4406  0.042803917  0.042323442            6 
 1682000   0.58860045   -4.2885849    864.18796  0.042815496  0.042297697            9 
 1683000    0.5831294   -4.2803583    863.28287   0.04274524  0.042272027           13 
 1684000    0.5794503   -4.2711877    866.97997  0.042902809  0.042246269            9 
 1685000   0.58048622   -4.2738943    862.24624  0.042643236  0.042220503           16 
 1686000   0.58684482   -4.2657462    863.76445  0.042692984  0.042194806            7 
 1687000   0.57846556   -4.2756836    864.03813  0.042681196  0.042169034           11 
 1688000   0.57193207   -4.2737707    862.64333  0.042587052   0.04214327            8 
 1689000   0.58111434   -4.2807246    862.73356   0.04256629  0.042117519           17 
 1690000   0.57168231    -4.244417    864.13516  0.042610215  0.042091704            9 
 1691000   0.57084054    -4.277967    863.82409  0.042569687  0.042066091            9 
 1692000   0.59619939   -4.2482157    864.21459   0.04256376  0.042040431           17 
 1693000   0.57881056   -4.2640031    862.19005  0.042438967  0.042014808           15 
 1694000   0.57151282   -4.2639706    862.38335  0.042423423  0.041988933           10 
 1695000   0.57814634   -4.2891857    863.04994  0.042431167   0.04196307           13 
 1696000    0.5701761   -4.2700613     867.2926  0.042614613  0.041937429           17 
 1697000   0.57408001   -4.2640704    863.50619  0.042403564   0.04191184           36 
 1698000    0.5777691   -4.2637765    864.33036   0.04241904  0.041886278            7 
 1699000   0.56811216   -4.2752387    864.80041  0.042417128  0.041860621            9 
 1700000   0.58198322   -4.2661127    864.79038  0.042391685  0.041835067           11 
 1701000   0.56424032   -4.2752743    863.79288  0.042317895  0.041809556           11 
 1702000   0.58448055   -4.2810159    864.99146  0.042351717  0.041784035           24 
 1703000   0.58946391   -4.2554792     864.8486  0.042319857  0.041758499            6 
 1704000   0.57800566   -4.2850949     863.3196  0.042220246   0.04173294            9 
 1705000   0.56925207   -4.2725489    865.36331  0.042295372  0.041707313            8 
 1706000   0.55801958   -4.2725434    862.03555  0.042108028  0.041681756            9 
 1707000    0.5783438   -4.2823541    865.30496  0.042242968  0.041656239           10 
 1708000   0.56625733    -4.283856    864.61953  0.042184793  0.041630806           13 
 1709000   0.57215479   -4.2670657    863.87531  0.042123821  0.041605365            8 
 1710000   0.55684966   -4.2848616    864.06895  0.042108623  0.041579856            3 
 1711000   0.58043588   -4.2748074    863.23448   0.04204337  0.041554363            8 
 1712000   0.56957227    -4.287423    867.31568  0.042217469  0.041528876            7 
 1713000   0.56834693   -4.2778428    865.41561   0.04210039  0.041503545           12 
 1714000    0.5666351   -4.2792827    865.96756  0.042102662  0.041478238            9 
 1715000   0.57017316   -4.2878801    863.69034  0.041967461  0.041452956            7 
 1716000   0.56475577   -4.2936563    865.43773  0.042027862  0.041427633           17 
 1717000   0.56788739   -4.2774645    865.25167  0.041994354  0.041402321           13 
 1718000   0.56940937   -4.2828161    864.85521   0.04195068  0.041377047           14 
 1719000   0.56091396   -4.2986033    864.60532  0.041914161  0.041351724           14 
 1720000   0.56124268   -4.3035555    864.57129  0.041888144  0.041326242           13 
 1721000   0.57046576   -4.2978608    865.69371  0.041918154  0.041300874           10 
 1722000     0.558326   -4.3040437    863.39053  0.041782352  0.041275509           11 
 1723000   0.56199866   -4.2901315    866.70241  0.041918282  0.041250249           16 
 1724000   0.55989658   -4.3021654    867.05567  0.041911043  0.041224984           14 
 1725000   0.55378203   -4.2966088    864.16556  0.041747128  0.041199646           17 
 1726000   0.56185824   -4.3008861    866.26123  0.041824123  0.041174405           13 
 1727000   0.57425996   -4.2921749    865.72265  0.041773917  0.041149126            7 
 1728000   0.55617657   -4.2929351    865.35004  0.041731773  0.041123839            7 
 1729000   0.55086498   -4.2931204    862.42298   0.04156656  0.041098562           13 
 1730000   0.56238324   -4.2921767    865.33873  0.041682983  0.041073341           16 
 1731000   0.56628291   -4.2989073    865.10594  0.041647696  0.041048072           18 
 1732000   0.56493429   -4.2863004    866.29846  0.041681027  0.041022729           19 
 1733000    0.5571521   -4.2941799    868.61213  0.041768231  0.040997534           14 
 1734000   0.55287996   -4.2857231    863.90357  0.041517857  0.040972363           20 
 1735000   0.55405168   -4.2946978    864.47602  0.041521423  0.040947111           13 
 1736000   0.56830079     -4.29661    867.54044  0.041644606  0.040921895           11 
 1737000   0.55348437   -4.3232513    861.83406  0.041346865  0.040896559            9 
 1738000   0.55695962    -4.316332    863.62009  0.041408712  0.040871161           11 
 1739000   0.54879729   -4.2865537    864.20271  0.041412819  0.040845765           25 
 1740000   0.55191915   -4.3230365    865.60945  0.041456391    0.0408206           16 
 1741000   0.56908701   -4.2936127    867.73967  0.041534543  0.040795479           10 
 1742000   0.55472709   -4.3228359     866.4934  0.041451081  0.040770358            8 
 1743000   0.57048021    -4.313327    867.20696  0.041461415  0.040745287           10 
 1744000   0.55507577   -4.3201698    865.39139  0.041350888  0.040720239           11 
 1745000   0.57155438   -4.3273013    863.92468  0.041257148   0.04069531           20 
 1746000   0.56308908   -4.3164303    866.66582  0.041364348  0.040670324           12 
 1747000   0.54770943   -4.3148783    866.00223  0.041309017  0.040645324           15 
 1748000   0.55282832   -4.3132921    867.09078   0.04133728  0.040620456           14 
 1749000    0.5552545   -4.2884406    867.77137  0.041346073  0.040595609           12 
 1750000   0.55756356   -4.3222673    866.40569  0.041257414  0.040570771            4 
 1751000    0.5554327   -4.3191319    866.25868  0.041226855   0.04054591            8 
 1752000   0.55149496   -4.3059103    868.91658  0.041329746  0.040521051           15 
 1753000    0.5596904   -4.3063437    865.19989  0.041129487  0.040496189           15 
 1754000    0.5473951    -4.316835    867.31226  0.041206398  0.040471352           13 
 1755000   0.54136409   -4.3197796     864.5989  0.041054079  0.040446427            8 
 1756000   0.55761944   -4.3124581    865.76141  0.041085868  0.040421532           15 
 1757000   0.55105908   -4.3453638    868.50464  0.041192593    0.0403967           14 
 1758000   0.56055092   -4.3429225    867.22539  0.041108522  0.040371999           14 
 1759000   0.54902309   -4.3099359    869.07082   0.04117258  0.040347194            7 
 1760000   0.56022647    -4.316771    867.47517  0.041073635  0.040322581            6 
 1761000   0.55461529   -4.3127175    869.02249  0.041123533  0.040298009            9 
 1762000   0.55123249   -4.3102471    866.73839  0.040992168  0.040273492           12 
 1763000   0.55667365   -4.3245646    866.31134   0.04094873  0.040248823           13 
 1764000   0.54736301   -4.3357592    866.11132  0.040916068  0.040224048            7 
 1765000    0.5561433    -4.341987    866.19922  0.040897036  0.040199367            4 
 1766000   0.55240073   -4.3210765    866.33382  0.040880229  0.040174688           20 
 1767000   0.55118872   -4.3226652    867.51403  0.040912754  0.040150033           10 
 1768000   0.53872682   -4.3245249    867.74623  0.040900558  0.040125396           10 
 1769000   0.55091278   -4.3284122     866.9502  0.040839938  0.040100736           23 
 1770000   0.54388603   -4.3396655    867.57778  0.040846412  0.040076211           15 
 1771000   0.53440057   -4.3335215    870.69691  0.040970116  0.040051708           14 
 1772000   0.55161158   -4.3174706    871.28825  0.040974805  0.040027278           10 
 1773000   0.53583886   -4.3405338    866.11109  0.040708361  0.040002762           16 
 1774000   0.55014142   -4.3297201    869.94274  0.040865405  0.039978209           20 
 1775000   0.53903242    -4.334892     866.8856  0.040698855  0.039953675           10 
 1776000   0.54750775   -4.3248853    868.86955  0.040769029  0.039929128           21 
 1777000   0.54428148   -4.3254856    869.65818   0.04078307  0.039904684           25 
 1778000   0.54250726   -4.3464918    868.87691  0.040723515  0.039880234            5 
 1779000   0.52842978   -4.3435962    868.63981  0.040689517  0.039855747            9 
 1780000   0.54394238    -4.336952    867.25462  0.040601808  0.039831229           14 
 1781000   0.54492342   -4.3462995    866.73331  0.040554618  0.039806619           14 
 1782000   0.53353169   -4.3426525    868.76601  0.040626918  0.039782151           12 
 1783000   0.54388231   -4.3415391    870.12477  0.040667637  0.039757778           13 
 1784000   0.53400093   -4.3513468    868.29576  0.040559406  0.039733448           22 
 1785000   0.52856757    -4.356149    866.91722  0.040472326   0.03970902           16 
 1786000    0.5469391   -4.3451133    867.06641  0.040456626  0.039684507           15 
 1787000   0.53197298   -4.3551509    869.43069   0.04054424  0.039659995            8 
 1788000   0.54158537   -4.3591541     867.6297  0.040437626  0.039635449           11 
 1789000   0.54608186   -4.3421839     868.8197  0.040470454   0.03961088           12 
 1790000   0.55426608   -4.3456061      867.312  0.040377653  0.039586423           14 
 1791000    0.5447791   -4.3578351    866.83485  0.040332908   0.03956186           18 
 1792000   0.53645457   -4.3401353    867.76233  0.040353531  0.039537394            7 
 1793000    0.5481438   -4.3441067    866.54024  0.040274226  0.039512912           13 
 1794000   0.53849688   -4.3660369    866.79161  0.040263453  0.039488552           12 
 1795000   0.53388173   -4.3434335    869.22251  0.040353877  0.039464154           11 
 1796000   0.53497277   -4.3388927    866.28743  0.040195222  0.039439757           10 
 1797000    0.5305069   -4.3466061    867.80079  0.040243034  0.039415332           21 
 1798000   0.53792959    -4.363709    865.43419  0.040110965  0.039390851           20 
 1799000   0.52852973   -4.3729652    865.80165  0.040105691  0.039366265           28 
 1800000   0.52334011   -4.3735696     867.3058  0.040153046  0.039341819           16 
 1801000   0.52352282   -4.3689603    867.44028  0.040136974  0.039317249           16 
 1802000   0.53377721   -4.3606604    868.62299  0.040169394  0.039292709           22 
 1803000   0.53957664   -4.3415979    867.18435  0.040080623  0.039268352           28 
 1804000   0.52699131   -4.3589321    866.74517  0.040038118  0.039243919           22 
 1805000   0.53882068   -4.3550947    866.62473  0.040010376  0.039219475           11 
 1806000   0.52558711   -4.3551178    869.42264  0.040117324  0.039195106           34 
 1807000   0.52363235   -4.3790555    867.28687  0.039996627  0.039170818           14 
 1808000   0.51748632   -4.3454242    869.78945  0.040089853  0.039146482           10 
 1809000   0.51606759     -4.36563    867.31309  0.039953616  0.039122156           19 
 1810000   0.52965656   -4.3648271      867.407  0.039935865  0.039097852           14 
 1811000   0.52514296   -4.3486719    867.66229  0.039925561  0.039073575            9 
 1812000   0.52985204    -4.358802    869.36057   0.03998163  0.039049289           16 
 1813000   0.53170608   -4.3879542    865.16556  0.039766757   0.03902494           28 
 1814000   0.53189051   -4.3548016    865.48195  0.039759369  0.039000537           15 
 1815000     0.527031   -4.3780895    867.79444  0.039843638  0.038976052           17 
 1816000    0.5262806   -4.3733431    866.89127  0.039780253  0.038951502           19 
 1817000   0.52473885   -4.3648747    867.34322  0.039779087   0.03892701           25 
 1818000   0.52820679   -4.3702847    865.65812  0.039679965  0.038902457           11 
 1819000   0.54007922   -4.3729112    866.67048   0.03970453  0.038878016           12 
 1820000   0.53296862   -4.3829391    864.56791  0.039586443   0.03885354           11 
 1821000   0.53003793   -4.3769067    865.45435  0.039605269  0.038829034           17 
 1822000   0.53326354   -4.3626973    868.97486  0.039744551  0.038804521           13 
 1823000   0.53281635   -4.3735432    864.20874   0.03950488  0.038780017           10 
 1824000   0.52147903   -4.3699847    866.86957  0.039604787  0.038755572           19 
 1825000   0.52754939   -4.3756261     868.0744    0.0396381  0.038731193           18 
 1826000   0.53082415   -4.3844608    866.46645  0.039543011  0.038706727           15 
 1827000   0.51882212   -4.3999083    865.11072  0.039459529  0.038682218           14 
 1828000   0.52453151   -4.3671528    866.79224  0.039514599  0.038657698           11 
 1829000   0.52137431   -4.3800517    865.84155  0.039449679  0.038633212           24 
 1830000   0.52465565   -4.3805679    865.75139  0.039424016   0.03860881            9 
 1831000   0.52619045   -4.4073893     864.3561  0.039338981  0.038584366           18 
 1832000   0.52287319   -4.3780753    866.44318  0.039412445  0.038559906           13 
 1833000   0.52033058   -4.3891375    866.27734  0.039383403  0.038535598           49 
 1834000   0.51636196   -4.4005638    865.98007  0.039348422  0.038511201           20 
 1835000   0.51919615   -4.4083945    864.60012  0.039264311  0.038486789           19 
 1836000   0.51970581   -4.4062281    864.59802  0.039242829  0.038462398           64 
 1837000   0.50996351   -4.3920901     865.2945  0.039253062  0.038437978           35 
 1838000   0.52311505   -4.3755005     866.1653  0.039271187  0.038413528           32 
 1839000   0.51439248    -4.408174    865.28225  0.039209817  0.038389145           29 
 1840000    0.5149418   -4.3977254    863.47123  0.039106487  0.038364611           26 
 1841000   0.51179159   -4.3959936    866.34999  0.039215553  0.038340216           24 
 1842000   0.51833053   -4.3844128    866.63977  0.039207373  0.038315767           15 
 1843000   0.51296649   -4.3872734    865.08554  0.039115823  0.038291344           42 
 1844000   0.52156859   -4.4019067    863.23575  0.039011015  0.038266951           26 
 1845000   0.52609648   -4.4037735    866.54485  0.039139334  0.038242655           19 
 1846000   0.51951967   -4.3912196     865.6829  0.039079221  0.038218434           11 
 1847000   0.51627133   -4.3854917     867.3292  0.039132341  0.038194229           15 
 1848000   0.52398091   -4.3943302    864.71752  0.038993395  0.038170014           17 
 1849000   0.51852818    -4.408663    864.87977  0.038979618   0.03814574           23 
 1850000   0.51766161   -4.4187332    865.61129  0.038991499   0.03812152            7 
 1851000   0.51282661   -4.4083472    863.37344  0.038869685  0.038097271           21 
 1852000   0.50651473    -4.392096    866.33615  0.038982008  0.038073047           30 
 1853000     0.506838   -4.3925738    865.54902  0.038925572  0.038048878           42 
 1854000   0.52256789   -4.3924853    866.52973  0.038948657  0.038024618           61 
 1855000   0.51136409   -4.4100863    865.94978  0.038901607  0.038000481           18 
 1856000   0.51170344   -4.4025195    864.20064  0.038802112  0.037976299           11 
 1857000   0.51977269   -4.4061173    864.81358  0.038808723   0.03795217           33 
 1858000   0.50467714   -4.3986591    864.54978  0.038776004  0.037928064           20 
 1859000   0.51049907   -4.4131593    864.76077  0.038764603   0.03790385           43 
 1860000   0.50548004   -4.3907071    865.84094  0.038792157  0.037879733           22 
 1861000   0.50975049   -4.3983979     865.3818  0.038750752  0.037855562           37 
 1862000   0.51102526   -4.3999793    863.95279  0.038665986  0.037831428           29 
 1863000   0.52224487   -4.4013473    866.34499  0.038752236  0.037807333           13 
 1864000   0.51037791   -4.4134594    864.10817  0.038631445  0.037783122           14 
 1865000   0.50648867   -4.3920141    863.36756  0.038577639  0.037758942           12 
 1866000    0.4997578   -4.4203901    863.41702  0.038559174  0.037734778           15 
 1867000    0.5059968   -4.4263934    865.85571  0.038647372  0.037710563           20 
 1868000   0.49893559   -4.4083867    863.58206  0.038525252  0.037686437           14 
 1869000   0.51009204   -4.4236765    863.83701  0.038516007  0.037662269           18 
 1870000   0.50123441   -4.4080323    864.53084   0.03852633  0.037638091           19 
 1871000    0.5129706   -4.4135003    864.79507  0.038517507   0.03761397           28 
 1872000    0.5003022    -4.404682    864.12916  0.038467288  0.037589837           15 
 1873000   0.50315994   -4.4214219    864.40193  0.038458886  0.037565795           18 
 1874000   0.50447812   -4.4242368    863.76769   0.03841016  0.037541752           11 
 1875000   0.49816622   -4.4003537    863.89311  0.038395249  0.037517643            8 
 1876000   0.50606553   -4.4264429    863.27708  0.038347418  0.037493637           13 
 1877000   0.49874957   -4.4144741    863.74595  0.038347805  0.037469579            6 
 1878000   0.51313196   -4.4290219     866.1068  0.038432144  0.037445598           18 
 1879000   0.50260831   -4.4219314      865.795  0.038397862  0.037421646           12 
 1880000   0.50412772   -4.4348707    863.94321  0.038295355  0.037397676            5 
 1881000   0.50435999   -4.4256719    863.75101  0.038266481  0.037373653            7 
 1882000   0.50466774   -4.4144381    866.63328  0.038373773   0.03734966            6 
 1883000   0.49787337   -4.4297475    864.59709  0.038263281  0.037325715           22 
 1884000   0.50135013   -4.4300181    864.98889  0.038260301  0.037301806           10 
 1885000   0.51022711   -4.4097702    864.86021  0.038234315  0.037277987           21 
 1886000   0.50293977   -4.4271035    865.55855  0.038244899   0.03725414           22 
 1887000   0.50771571   -4.4310868    865.71944  0.038231737  0.037230247           11 
 1888000   0.49545673   -4.4135092    867.03678  0.038269632  0.037206428           14 
 1889000   0.50335644    -4.412344    864.65511  0.038144305  0.037182647           36 
 1890000   0.50477967   -4.4156334    864.98062  0.038138475  0.037158793           46 
 1891000   0.48995416   -4.4268305    866.13457  0.038169159  0.037134919           38 
 1892000   0.49378599   -4.4208861    862.98604  0.038010308  0.037111068           46 
 1893000   0.50695044   -4.4662682    862.99632  0.037990681  0.037087125           28 
 1894000   0.50493015   -4.4468464    864.72612  0.038046732  0.037063254           43 
 1895000   0.49850613   -4.4168061    865.73236  0.038070904  0.037039482           14 
 1896000   0.49797096   -4.4292911    862.48019  0.037907884  0.037015738           16 
 1897000   0.50412884   -4.4325199    864.73748  0.037987062  0.036991947           26 
 1898000   0.49867243   -4.4322439    865.22226  0.037988333  0.036968176           12 
 1899000   0.50034993   -4.4452836    863.91549  0.037910983  0.036944377           32 
 1900000    0.4896975   -4.4404696    866.05493  0.037984865   0.03692056           26 
 1901000   0.49507949   -4.4411678    863.36417   0.03784693   0.03689681           41 
 1902000   0.49957889    -4.436781    863.86924  0.037849161  0.036873006           15 
 1903000   0.49099202   -4.4415984    864.09356  0.037839095  0.036849276           13 
 1904000   0.49486659   -4.4469891    864.52923  0.037838289  0.036825536           18 
 1905000   0.49583941   -4.4515681     863.6599  0.037780398  0.036801799           20 
 1906000   0.49339685   -4.4566436    864.17609  0.037783145  0.036778007           15 
 1907000    0.4941079   -4.4482836    863.20451  0.037720875   0.03675415           13 
 1908000   0.48349449   -4.4585633    864.46735  0.037756261  0.036730294           12 
 1909000    0.4938391    -4.470491    864.16767  0.037723401  0.036706527           12 
 1910000   0.48418403   -4.4372355    864.96956  0.037738637  0.036682838           33 
 1911000   0.50462157   -4.4532354    864.24966  0.037687496  0.036659247           27 
 1912000   0.48502149   -4.4517912    862.58764  0.037595347  0.036635635           22 
 1913000   0.49244282   -4.4516006    865.18523   0.03768885  0.036611975           20 
 1914000   0.48749851   -4.4564227     865.2832  0.037673424  0.036588379           17 
 1915000   0.48617576   -4.4471535    863.19179  0.037562741   0.03656476           13 
 1916000   0.49292866   -4.4403349    865.34235  0.037636672  0.036541152            6 
 1917000    0.4836673   -4.4740588    864.13197  0.037564422  0.036517533            9 
 1918000   0.49367903   -4.4576109    863.92241  0.037535732  0.036493923           26 
 1919000   0.48983103   -4.4671718    863.06649  0.037479003  0.036470304           16 
 1920000   0.48487564   -4.4448859    863.65892  0.037485196  0.036446669           14 
 1921000   0.48536467   -4.4543393    864.24837  0.037491253  0.036423015           56 
 1922000   0.49261163    -4.453112    863.17472  0.037425196  0.036399407           41 
 1923000   0.48267344   -4.4608427    863.16424   0.03740528  0.036375755           49 
 1924000   0.48191668   -4.4548401    861.29996  0.037305092  0.036352164           80 
 1925000   0.49123349   -4.4612895    865.79749  0.037480411  0.036328609           78 
 1926000   0.48176383   -4.4810813    863.08791  0.037343714  0.036305095           53 
 1927000    0.4910059   -4.4758813    864.98833  0.037406518   0.03628165           62 
 1928000   0.47970279   -4.4419644    863.81572  0.037336433  0.036258195           49 
 1929000    0.4790449   -4.4448831    864.81488  0.037360242  0.036234832           51 
 1930000   0.47771623   -4.4556691    864.80071  0.037340272  0.036211465           69 
 1931000   0.48747886   -4.4641244    864.05806  0.037288886  0.036188159           48 
 1932000   0.47485224   -4.4592997    863.88454  0.037262101  0.036164852           21 
 1933000   0.47708341   -4.4682317    865.10327  0.037295364   0.03614154           23 
 1934000   0.48399503   -4.4752526    862.85031  0.037179003  0.036118172           51 
 1935000   0.48643667   -4.4763285      862.692  0.037152971  0.036094816           22 
 1936000   0.49238295   -4.4694734    863.29673  0.037159811  0.036071471           16 
 1937000   0.48228053   -4.4571099     864.3603  0.037186383  0.036048203           13 
 1938000   0.48750521   -4.4626837    866.00961  0.037238115  0.036024925           31 
 1939000   0.48596221   -4.4753651    864.66325  0.037161047  0.036001664           10 
 1940000    0.4783627   -4.4670954    862.88806  0.037065638  0.035978335           15 
 1941000   0.47730125   -4.4895229    863.25857  0.037062449  0.035955057           21 
 1942000   0.47796158   -4.4639181    865.19533  0.037126473  0.035931762           31 
 1943000   0.48404664   -4.4853466    862.40296  0.036987603  0.035908478           45 
 1944000   0.47922846   -4.4780862    865.05048  0.037082068  0.035885203           20 
 1945000   0.46627253   -4.4772238    863.33502  0.036989504  0.035862015           18 
 1946000   0.47816155   -4.4732846     866.3502  0.037099615  0.035838858           19 
 1947000   0.48984847   -4.4855995    862.41305  0.036912046  0.035815745           16 
 1948000   0.47465331   -4.4763626     864.4965  0.036982225  0.035792528           19 
 1949000   0.46686999   -4.4711811     865.3906  0.037001479  0.035769339           19 
 1950000   0.48331129   -4.4772014    862.74584  0.036869481  0.035746178           23 
 1951000   0.47441901   -4.4785668    863.95518  0.036902237  0.035722962           19 
 1952000   0.45923757   -4.4989338    863.82589  0.036877813  0.035699758           32 
 1953000   0.47492143   -4.4960337    862.80425  0.036815337  0.035676531           36 
 1954000   0.46908229   -4.4946756     862.8288  0.036797544  0.035653281           37 
 1955000   0.46897951   -4.4953562    863.80709  0.036820421  0.035630058           48 
 1956000    0.4765903   -4.4904485    863.92744  0.036806724  0.035606884           54 
 1957000   0.47414091    -4.492789    861.40549  0.036680527  0.035583639           50 
 1958000   0.46996624   -4.5024507    863.25881  0.036740671  0.035560422          114 
 1959000    0.4728441    -4.488268      860.756   0.03661545  0.035537261           44 
 1960000   0.47342516   -4.4979411     862.1999  0.036658159   0.03551408           92 
 1961000   0.47313763    -4.492282    861.52336  0.036610716   0.03549088           74 
 1962000   0.47484002   -4.5040897    862.64184  0.036639562  0.035467698           42 
 1963000   0.47822607   -4.4973369    861.59244  0.036576348  0.035444486           51 
 1964000    0.4677906   -4.5084331    861.64054  0.036559765  0.035421328           68 
 1965000   0.45635896   -4.4848438    861.07173  0.036517037  0.035398228           55 
 1966000   0.47082222   -4.5013007    861.96479  0.036536317   0.03537508           32 
 1967000   0.46085966   -4.4904242    861.02144  0.036477777  0.035351972           68 
 1968000   0.45748003   -4.5058945    862.39643  0.036517464  0.035328931           20 
 1969000   0.46283181    -4.496873    862.50537  0.036503528  0.035305894           30 
 1970000   0.47640877   -4.5030618    862.00474  0.036463821  0.035282956           59 
 1971000   0.45228382   -4.5042444     863.3755  0.036503277  0.035259917          115 
 1972000   0.47134146   -4.4864896    862.53544  0.036449266  0.035236975          120 
 1973000   0.47099896   -4.4911161    862.30976   0.03642126  0.035214086           25 
 1974000   0.46205874   -4.4930189    863.91076  0.036470397  0.035191269           19 
 1975000   0.46347561   -4.4917764    860.89202  0.036324558  0.035168381           20 
 1976000    0.4610003   -4.5097543    861.98158  0.036352125  0.035145479           20 
 1977000   0.46462468   -4.4973018    864.02541  0.036419888   0.03512257           20 
 1978000   0.46119431   -4.5136006    862.61447  0.036342032   0.03509966           34 
 1979000   0.46646286   -4.5151116    862.74518  0.036329172  0.035076755           14 
 1980000   0.46342657   -4.5134448    861.98162  0.036278688  0.035053899           24 
 1981000    0.4696199   -4.5043978    862.83604  0.036296316  0.035031051           28 
 1982000   0.46024446   -4.5103934    860.73773   0.03618978  0.035008163           20 
 1983000    0.4586816   -4.4952371    861.23667  0.036192497  0.034985249           35 
 1984000   0.46172631     -4.50303    861.99524  0.036206117  0.034962384           54 
 1985000   0.45903533   -4.5079891    861.92409   0.03618489   0.03493955           28 
 1986000   0.45687769   -4.4973369    862.98584  0.036211222  0.034916769           39 
 1987000   0.46565314   -4.5113046     860.8281  0.036102504   0.03489399           30 
 1988000   0.46838663   -4.5205649    861.31187  0.036104622  0.034871172           18 
 1989000   0.45266965   -4.5118238    862.02716  0.036116439  0.034848311           37 
 1990000   0.47232299   -4.5154335    861.66702  0.036083209  0.034825484           63 
 1991000    0.4577086    -4.506785    861.40033  0.036053923  0.034802679           82 
 1992000   0.45657171    -4.526577    862.20175   0.03606935  0.034779855           50 
 1993000   0.46150842   -4.5233017    861.14648  0.036007128  0.034757048           65 
 1994000   0.46069575   -4.5051969    858.93423  0.035896616   0.03473419           63 
 1995000   0.45834417   -4.5279787     860.8461  0.035958484  0.034711382           41 
 1996000   0.47554887   -4.5127617    861.47401  0.035966684  0.034688543           42 
 1997000   0.45975274   -4.5267213    862.08215  0.035974051  0.034665803           44 
 1998000    0.4452716   -4.5146124    861.83684  0.035945814  0.034643018           42 
 1999000   0.45387767    -4.520956    862.16115  0.035941352  0.034620308           35 
 2000000   0.45363763   -4.5313287    860.19338  0.035841391  0.034597577           32 
 2001000   0.45325462   -4.5398052    860.33371  0.035829323  0.034574867           24 
 2002000   0.45889802   -4.5302991    862.15425  0.035887207  0.034552177           34 
 2003000   0.45597829   -4.5218117    861.65526   0.03584853  0.034529473           39 
 2004000   0.45331324   -4.5330773    861.95774   0.03584322  0.034506746           30 
 2005000   0.45533066   -4.5185873    859.31449  0.035715482  0.034484093           55 
 2006000   0.46460335   -4.5276071    862.13557  0.035814871  0.034461466           66 
 2007000   0.45843054   -4.5316057    861.18506  0.035757559  0.034438854           79 
 2008000   0.45225257   -4.5225768    861.34357   0.03574633  0.034416203           44 
 2009000   0.45750023   -4.5321583    860.57132  0.035696504  0.034393553          123 
 2010000   0.44657497   -4.5194929    861.16483  0.035703351  0.034370966           79 
 2011000   0.45597061   -4.5303982    861.67799  0.035706862  0.034348445           75 
 2012000   0.44995106   -4.5246266    860.92542  0.035657945  0.034325955           72 
Loop time of 4919.75 on 48 procs for 2000000 steps with 4000 atoms

Performance: 70247.481 tau/day, 406.525 timesteps/s
99.4% CPU use with 48 MPI tasks x no OpenMP threads

MPI task timing breakdown:
Section |  min time  |  avg time  |  max time  |%varavg| %total
---------------------------------------------------------------
Pair    | 325        | 346.7      | 373.76     |  58.3 |  7.05
Neigh   | 33.23      | 34.585     | 37.465     |  13.4 |  0.70
Comm    | 310.35     | 338.59     | 361.32     |  61.8 |  6.88
Output  | 4.1719     | 4.1738     | 4.206      |   0.2 |  0.08
Modify  | 4144.1     | 4151.6     | 4164.2     |   5.8 | 84.39
Other   |            | 44.06      |            |       |  0.90

Nlocal:        83.3333 ave          91 max          77 min
Histogram: 2 3 10 5 5 11 6 4 1 1
Nghost:        2247.31 ave        2267 max        2226 min
Histogram: 3 0 5 5 10 8 9 2 4 2
Neighs:        15082.3 ave       16682 max       13153 min
Histogram: 3 1 3 5 11 4 8 5 3 5
FullNghs:      30164.5 ave       32954 max       27631 min
Histogram: 2 3 7 8 4 9 6 5 2 2

Total # of neighbors = 1447895
Ave neighs/atom = 361.97375
Neighbor list builds = 108183
Dangerous builds = 0

#clear
#
#next RN
#
#jump SELF
Total wall time: 1:22:03
