
units lj                  # Use reduced LJ style units
atom_style atomic         # Uncharged point particles
atom_modify map hash      # Needed for indexing of clusters etc
                          # Used to be able to find where atoms are in relation to each other.

lattice fcc 1.0 spacing 1 1 1
Lattice spacing in x,y,z = 1.5874011 1.5874011 1.5874011
region box block 0 10 0 10 0 10 units lattice
create_box 2 box
Created orthogonal box = (0.0000000 0.0000000 0.0000000) to (15.874011 15.874011 15.874011)
  3 by 4 by 4 MPI processor grid
create_atoms 1 box
Created 4000 atoms
  using lattice units in orthogonal box = (0.0000000 0.0000000 0.0000000) to (15.874011 15.874011 15.874011)
  create_atoms CPU = 0.004 seconds
set type 1 type/fraction 2 0.61 78393
Setting atom values ...
  2454 settings made for type/fraction
mass 1 1.0
mass 2 1.0
pair_style lj/cut  3.5
pair_modify tail  yes
pair_coeff 1  1  1.0  1.0   # Intearaction between 1 and 1 set with epsilon = 1 and sigma = 1
pair_coeff 1  2  1.5  0.8
pair_coeff 2  2  0.5  0.88

write_data data.0
System init for write_data ...
Neighbor list info ...
  update every 1 steps, delay 10 steps, check yes
  max neighbors/atom: 2000, page size: 100000
  master list distance cutoff = 3.8
  ghost atom cutoff = 3.8
  binsize = 1.9, bins = 9 9 9
  1 neighbor lists, perpetual/occasional/extra = 1 0 0
  (1) pair lj/cut, perpetual
      attributes: half, newton on
      pair build: half/bin/atomonly/newton
      stencil: half/bin/3d
      bin: standard
WARNING: Not all mixed pair coeffs generated from mixing. Use write_data with 'pair ij' option to store all pair coeffs. (../write_data.cpp:312)


#############################
#   M E L T   S Y S T E M   #
#############################

velocity all create 2.4 3143649 mom yes dist gaussian # Assign velocities
                                                    # Temperature 2.4, random number seed, zero linear momentum
                                                                                # Gaussian distribution

timestep 0.002   # simulation timestep
thermo 1000       # output thermodynamic data every 1000 steps bf 100

# Define a fix  in this case with index 1 applied to all
# particles in the simulation. This fix is for simulations
# in the anisotropic NPT ensemble. Note that we use the MTK
# correction.
fix 1 all npt temp 2.4 2.4 0.1 iso 5.68 5.68 0.5 mtk yes tchain 5 pchain 5 # Use NPT ensemble
                                                                         # Set temperature and pressure and damping
                                                                         # Numbers of thermostats in chain and in barostat
run 10000          # run for 10000 steps
Per MPI rank memory allocation (min/avg/max) = 3.642 | 3.644 | 3.648 Mbytes
Step Temp E_pair E_mol TotEng Press Volume 
       0          2.4   -4.6675525            0   -1.0684525   -4.0420614         4000 
    1000    2.4098121   -4.4306709            0  -0.81685646    5.7845222    3604.2177 
    2000    2.3874413   -4.3758561            0  -0.79558949    5.5556864    3638.9217 
    3000    2.4179578   -4.5289193            0  -0.90288932    5.7134532    3555.6887 
    4000    2.4009595   -4.3432954            0  -0.74275647    5.8059761    3636.7822 
    5000     2.434527   -4.3990119            0  -0.74813434    5.9293391    3599.9674 
    6000     2.402767   -4.4053424            0  -0.80209295    5.7154114    3615.0076 
    7000    2.3746803   -4.3349116            0  -0.77378169    5.4213194    3674.6084 
    8000    2.4604528   -4.4350413            0  -0.74528469    5.8728371    3597.9427 
    9000    2.3418061   -4.4384123            0  -0.92658134    5.3069449    3624.8517 
   10000    2.4427266   -4.3929738            0  -0.72979994    5.7708538    3626.8722 
Loop time of 2.62826 on 48 procs for 10000 steps with 4000 atoms

Performance: 657468.665 tau/day, 3804.796 timesteps/s
99.6% CPU use with 48 MPI tasks x no OpenMP threads

MPI task timing breakdown:
Section |  min time  |  avg time  |  max time  |%varavg| %total
---------------------------------------------------------------
Pair    | 1.1899     | 1.2716     | 1.3352     |   2.5 | 48.38
Neigh   | 0.21879    | 0.22382    | 0.23561    |   0.7 |  8.52
Comm    | 0.82687    | 0.88275    | 0.96577    |   3.0 | 33.59
Output  | 0.00024098 | 0.00024694 | 0.00031415 |   0.0 |  0.01
Modify  | 0.21678    | 0.23419    | 0.2574     |   2.3 |  8.91
Other   |            | 0.01563    |            |       |  0.59

Nlocal:        83.3333 ave          98 max          74 min
Histogram: 2 6 9 10 5 11 2 2 0 1
Nghost:        1751.92 ave        1783 max        1723 min
Histogram: 3 3 9 5 5 3 8 8 2 2
Neighs:        10533.2 ave       12707 max        9301 min
Histogram: 6 7 5 9 7 10 2 1 0 1

Total # of neighbors = 505596
Ave neighs/atom = 126.39900
Neighbor list builds = 905
Dangerous builds = 190

# Equilibrate just above the melting temperature to avoid step fn in T

fix 1 all npt temp 1.25 1.25 0.1 iso 5.68 5.68 0.5 mtk yes tchain 5 pchain 5
run 2000
Per MPI rank memory allocation (min/avg/max) = 3.644 | 3.646 | 3.650 Mbytes
Step Temp E_pair E_mol TotEng Press Volume 
   10000    2.4427266   -4.3929738            0  -0.72979994    5.7708538    3626.8722 
   11000    1.2309641   -6.3751706            0    -4.529186    5.8301171    2784.1702 
   12000    1.2393605   -6.5164573            0   -4.6578813    5.7544624    2747.9194 
Loop time of 0.65902 on 48 procs for 2000 steps with 4000 atoms

Performance: 524414.919 tau/day, 3034.809 timesteps/s
99.6% CPU use with 48 MPI tasks x no OpenMP threads

MPI task timing breakdown:
Section |  min time  |  avg time  |  max time  |%varavg| %total
---------------------------------------------------------------
Pair    | 0.30784    | 0.32499    | 0.35089    |   1.7 | 49.31
Neigh   | 0.042287   | 0.043859   | 0.04714    |   0.5 |  6.66
Comm    | 0.21335    | 0.24004    | 0.25967    |   2.3 | 36.42
Output  | 5.1185e-05 | 5.3006e-05 | 6.9899e-05 |   0.0 |  0.01
Modify  | 0.041018   | 0.045154   | 0.048556   |   1.1 |  6.85
Other   |            | 0.00492    |            |       |  0.75

Nlocal:        83.3333 ave          91 max          75 min
Histogram: 2 0 4 10 4 13 7 1 4 3
Nghost:        2125.56 ave        2147 max        2099 min
Histogram: 2 0 3 6 6 10 9 7 3 2
Neighs:        13904.7 ave       15810 max       12167 min
Histogram: 2 3 6 5 11 7 6 5 2 1

Total # of neighbors = 667424
Ave neighs/atom = 166.85600
Neighbor list builds = 143
Dangerous builds = 9

#############################
# L I N E A R  Q U E N C H  #
#############################

# Define solid atoms. This closely follows ten Wolde  Ruiz-Montero and Frenkel  Faraday Discuss  1996  104  93-110
# Compute components of the per-atom q6 vector
compute q6 all orientorder/atom degrees 1 6 components 6 nnn NULL cutoff 1.3 # compute the Q6 parameter.
                                                                             # Use all neighbours within 1.3 unit cell.

# get number of connections
compute coord_number all coord/atom orientorder q6 0.5

# An atom is solid if it has 8 or more connections (of a possible 14)
variable is_solid atom c_coord_number>=8
group solid dynamic all var is_solid    # Must be dynamic to update
dynamic group solid defined

# do clustering
compute cluster solid cluster/atom 1.3 # Create a cluster where all atoms within are solid and max 1.3 units from another member

# define chunks one chunk per cluster
compute clus_chunks solid chunk/atom c_cluster nchunk every compress yes  # Says which atoms are in which chunk

# count the size of each chunk
compute size_chunks solid property/chunk clus_chunks count


# Find the maximum entry in the vector of chunk sizes
variable max_n equal max(c_size_chunks)


# Thermo style which includes this variable
# thermo_style custom step temp pe vol v_max_n

thermo ${N}  # Print the thermo information every 100 steps
thermo 1000  

# Reset the npt fix at a lower temperature (below freezing)
fix 1  all npt temp  ${temp} ${temp}  0.1  iso  5.68  5.68  0.5  mtk yes tchain  5  pchain  5
fix 1  all npt temp  0.45 ${temp}  0.1  iso  5.68  5.68  0.5  mtk yes tchain  5  pchain  5
fix 1  all npt temp  0.45 0.45  0.1  iso  5.68  5.68  0.5  mtk yes tchain  5  pchain  5

dump dmp2 all dcd ${N} traj.dcd
dump dmp2 all dcd 1000 traj.dcd


compute msd all msd com yes
variable twopoint equal c_msd[4]/6/(step*dt+1.0e-6)
fix 9 all vector 10 c_msd[4]
variable fit equal slope(f_9)/6/(10*dt)
thermo_style custom step temp pe c_msd[4] v_twopoint v_fit v_max_n

fix 1 all npt temp 1.25 ${temp} 0.1 iso 5.68 5.68 0.5 mtk yes tchain 5 pchain 5
fix 1 all npt temp 1.25 0.45 0.1 iso 5.68 5.68 0.5 mtk yes tchain 5 pchain 5
run 500000 # 5000000  # Run for this many steps
Neighbor list info ...
  update every 1 steps, delay 10 steps, check yes
  max neighbors/atom: 2000, page size: 100000
  master list distance cutoff = 3.8
  ghost atom cutoff = 3.8
  binsize = 1.9, bins = 8 8 8
  4 neighbor lists, perpetual/occasional/extra = 1 3 0
  (1) pair lj/cut, perpetual
      attributes: half, newton on
      pair build: half/bin/atomonly/newton
      stencil: half/bin/3d
      bin: standard
  (2) compute orientorder/atom, occasional
      attributes: full, newton on
      pair build: full/bin/atomonly
      stencil: full/bin/3d
      bin: standard
  (3) compute coord/atom, occasional
      attributes: full, newton on
      pair build: full/bin/atomonly
      stencil: full/bin/3d
      bin: standard
  (4) compute cluster/atom, occasional
      attributes: full, newton on
      pair build: full/bin/atomonly
      stencil: full/bin/3d
      bin: standard
Per MPI rank memory allocation (min/avg/max) = 9.848 | 9.854 | 9.858 Mbytes
Step Temp PotEng c_msd[4] v_twopoint v_fit v_max_n 
   12000    1.2393605   -6.5164573 3.9443045e-34 2.7391003e-36 8.3333333e+20            2 
   13000    1.2624906   -6.5479325    0.5157823 0.0033062966  0.042503011            2 
   14000    1.2450735   -6.6055687   0.96828108 0.0057635776  0.040461349            2 
   15000    1.2319001   -6.5712433     1.399476 0.0077748666   0.03822669            1 
   16000    1.2527592   -6.5334715    1.8119496 0.0094372372   0.03705866            1 
   17000    1.2394846   -6.5526969     2.283345  0.011192867  0.036679739            3 
   18000    1.2250061   -6.5684242    2.7735952  0.012840718  0.037047134            2 
   19000    1.2424034   -6.5646062     3.272516   0.01435314  0.037756246            1 
   20000    1.2418031   -6.5465438    3.7283873  0.015534947  0.038162324            1 
   21000    1.2408114   -6.5763543    4.1622998  0.016517062  0.038271627            3 
   22000    1.2396028   -6.5990206    4.6350852  0.017557141  0.038291851            3 
   23000    1.2231235   -6.6175788    5.0549719  0.018315115  0.038283358            3 
   24000    1.2288891    -6.630798    5.3975217  0.018741394  0.038095175            3 
   25000    1.2121842   -6.5945865    5.8736917  0.019578972  0.037747194            2 
   26000    1.2169861   -6.5726689    6.3176837  0.020248986  0.037583138            2 
   27000    1.2407517   -6.6498349    6.6294508  0.020461267  0.037320677            2 
   28000    1.2102654   -6.5672061    7.1238714  0.021201998  0.037077884            1 
   29000    1.2316511   -6.6253913    7.5632106  0.021733363  0.036899168            3 
   30000    1.2501617    -6.606034     8.025544  0.022293177  0.036802164            2 
   31000    1.1826692     -6.62491    8.4802072  0.022796256  0.036759278            2 
   32000    1.2381268   -6.6309609     8.955476  0.023321552  0.036769796            3 
   33000    1.1886171   -6.6086782    9.4322249  0.023818749  0.036820873            4 
   34000    1.2538823   -6.6201887    9.8568077  0.024158842    0.0368548            7 
   35000    1.2114356   -6.6535902    10.207299  0.024303091  0.036869238            3 
   36000    1.2142063   -6.5978192    10.650106  0.024653023  0.036843629            2 
   37000    1.1841297   -6.5639612    11.055715  0.024900258  0.036755651            2 
   38000    1.1759548   -6.6769492    11.349933  0.024890203  0.036629816            1 
   39000    1.2308441    -6.687842    11.625891  0.024841647  0.036446037            2 
   40000    1.2031144   -6.6455447    12.015072  0.025031401  0.036214832            3 
   41000    1.2133605   -6.7520426    12.279363  0.024958055  0.035958191            2 
   42000    1.2239199   -6.6928499    12.618483  0.025036672  0.035707527            2 
   43000    1.2070667   -6.6675527    13.106049   0.02539932  0.035499471            2 
   44000      1.19514   -6.6659689    13.547103  0.025657392  0.035315062            2 
   45000    1.2020942   -6.6491824    13.864546  0.025675085  0.035158997            2 
   46000    1.2187881   -6.6806472    14.160521  0.025653117  0.034974316            1 
   47000    1.1875339   -6.6876897     14.52651  0.025756223  0.034793473            4 
   48000    1.1663336   -6.6644446    14.812898  0.025716837  0.034600256            4 
   49000    1.1831435   -6.7058019    15.084461  0.025653845   0.03439936            4 
   50000    1.1964982   -6.7130295    15.402572  0.025670953  0.034193361            3 
   51000     1.184234    -6.707083    15.746624  0.025729777  0.033990483            4 
   52000    1.2234478   -6.6905388    16.155821  0.025890739   0.03382227            3 
   53000    1.1734148   -6.6903133    16.552696  0.026026251  0.033669612            8 
   54000     1.199557   -6.7402272    17.029761  0.026280496  0.033544609            3 
   55000    1.1792169   -6.7315523    17.373907  0.026324101  0.033438888            2 
   56000     1.178487   -6.6948121    17.636522  0.026244825  0.033312115            2 
   57000    1.2100487    -6.715781     18.00372  0.026321227  0.033170527            2 
   58000    1.1676853   -6.7666871    18.248523  0.026219142  0.033025234            1 
   59000    1.1450921   -6.7623162    18.738483  0.026466784  0.032907255            3 
   60000    1.1719467   -6.7713058     19.00009  0.026389013  0.032791897            1 
   61000    1.1471686   -6.7388668    19.363796  0.026453273  0.032681351            3 
   62000    1.1456931    -6.696854    19.757826  0.026556218  0.032558492            3 
   63000    1.1732707   -6.7801803     19.98501  0.026435199  0.032443458            1 
   64000     1.164019   -6.7542057     20.28001  0.026406263    0.0323239            3 
   65000    1.1790135   -6.7691856    20.690495  0.026526276  0.032216487            5 
   66000    1.1546051    -6.765108    21.026255  0.026548302    0.0321136            5 
   67000     1.170909   -6.7652833    21.314443  0.026510501  0.032006778            5 
   68000    1.1430722   -6.8104734    21.479468  0.026322877  0.031884219            5 
   69000    1.1570479   -6.8154236    21.761714  0.026282263  0.031761447            3 
   70000    1.1512493   -6.7993688    22.214098  0.026445355  0.031651699            4 
   71000    1.1482667   -6.8152399    22.540915  0.026456473  0.031544825            4 
   72000    1.1382397   -6.8241152     22.87837  0.026479595  0.031443605            1 
   73000    1.1453127   -6.8228871    23.315439  0.026615798  0.031357254            4 
   74000    1.1676095   -6.8032315    23.526989  0.026494357  0.031273995            3 
   75000    1.1552412   -6.8116043    24.040212  0.026711347  0.031194952            2 
   76000    1.1439378   -6.7516801    24.357922  0.026708248  0.031122326            2 
   77000    1.1576821   -6.8350056    24.494788  0.026509511  0.031036898            4 
   78000    1.1413438   -6.8146195    24.842523  0.026541157  0.030952509            5 
   79000     1.145033   -6.8780576    24.978483  0.026348611  0.030857755            2 
   80000    1.1355986   -6.8583432    25.411201  0.026470001   0.03076254            2 
   81000    1.1131563   -6.8130793    25.894142  0.026640063  0.030686242            4 
   82000    1.1305975   -6.8234132    26.171024  0.026596569  0.030612898            7 
   83000    1.1489556   -6.8212696    26.566216  0.026672908   0.03054384            2 
   84000    1.1332335   -6.8521815    27.036977  0.026822398  0.030486125            3 
   85000    1.1589629   -6.8271768    27.625278  0.027083605  0.030447381            5 
   86000    1.1374177   -6.8646326    27.776468  0.026915182   0.03041106            4 
   87000    1.1482943   -6.8564171    28.088741  0.026904924  0.030367807            4 
   88000    1.1246883   -6.8453795    28.491535   0.02698062  0.030323158            3 
   89000    1.1251087   -6.8604182    28.618256   0.02679612   0.03026885            2 
   90000    1.1150198   -6.9128217    28.809264  0.026675245  0.030212592            3 
   91000      1.11747   -6.8825738    29.228036    0.0267656  0.030156459            4 
   92000     1.141359   -6.9051849    29.506408  0.026726819  0.030098556            4 
   93000    1.1065828   -6.8573364    29.866519  0.026762114  0.030047071            3 
   94000    1.1102434   -6.9070061      30.2244  0.026794681  0.029997141            3 
   95000    1.0827895   -6.8889165    30.352491  0.026624992  0.029943361            4 
   96000    1.0891196   -6.8739352    30.815058  0.026749182  0.029887034            2 
   97000    1.1349721   -6.8995204    31.191231   0.02679659  0.029832786            2 
   98000    1.1199374   -6.8928334     31.42339   0.02672057  0.029775603            4 
   99000    1.1320058   -6.8846381    31.802268  0.026769586  0.029722822            3 
  100000    1.0959162   -6.9379028    31.792173  0.026493477  0.029669767            3 
  101000    1.1172626   -6.9066497    32.108776  0.026492389  0.029607808            5 
  102000      1.09115   -6.9276363    32.301835  0.026390388  0.029542326            5 
  103000    1.1054182   -6.8760535    32.787053  0.026526742  0.029474992            4 
  104000    1.1009497   -6.9593207    33.039855  0.026474242  0.029417153            3 
  105000    1.1015303   -6.9057097    33.490041  0.026579397  0.029359171            6 
  106000    1.0752874    -6.956194    33.747679  0.026531194  0.029308061            3 
  107000    1.0802093   -6.9522853    33.987279  0.026469843  0.029256874            3 
  108000    1.1066585   -6.9027075    34.216231  0.026401413  0.029201425            4 
  109000    1.0868486   -6.9645263     34.31823  0.026237179  0.029138148            6 
  110000    1.0990136   -6.9517037    34.550143  0.026174351  0.029069605            4 
  111000    1.0709036   -6.9551035    34.945682  0.026235497  0.029004484            4 
  112000    1.0854847   -6.9435519    35.349097  0.026301411   0.02894647            6 
  113000     1.075875   -6.9357888    35.590865  0.026246951   0.02888881            2 
  114000    1.1131218   -6.9508021    35.788946   0.02616151  0.028827146            3 
  115000    1.0859034   -6.9925541     35.97123  0.026066108  0.028764044            3 
  116000    1.0818907    -6.975934    36.315908  0.026089014  0.028700779            2 
  117000    1.0737399   -6.9642851    36.596543  0.026065914  0.028635948            4 
  118000    1.0764641   -7.0271715    36.781221  0.025975438  0.028569396            3 
  119000    1.0767502     -6.99869    36.918218  0.025853094   0.02850195            4 
  120000    1.0741092   -6.9929506    37.434132  0.025995925  0.028438989            3 
  121000    1.0626166   -7.0215508    37.584256  0.025884473  0.028375693            3 
  122000    1.0968764   -7.0207273    37.743929  0.025781372  0.028307671            4 
  123000    1.0751822   -7.0215284    37.873796  0.025659754  0.028238188            4 
  124000    1.0712911   -7.0324298    38.010519  0.025544703  0.028165552            3 
  125000    1.0609422   -7.0599589    38.217679  0.025478453  0.028091091            6 
  126000    1.0702398   -7.0494828    38.658442  0.025567753  0.028018654            4 
  127000    1.0743536   -7.0471835    38.810556  0.025466244  0.027943464            6 
  128000    1.0990734   -7.0488406    39.085384  0.025446213   0.02787051            3 
  129000    1.0593707    -7.017359    39.297259  0.025385826  0.027796776            7 
  130000    1.0450803   -7.1016588    39.340008  0.025217954  0.027720619            5 
  131000    1.0853249   -7.0345551    39.794219  0.025314389  0.027645269            5 
  132000    1.0496142   -7.0157701    40.029808  0.025271343  0.027573186            4 
  133000     1.065409   -7.0234689     40.31312  0.025258847  0.027504829            3 
  134000    1.0441484   -7.0559188    40.434687   0.02514595  0.027434024            4 
  135000    1.0457478   -7.0444677    40.881932  0.025235761  0.027364182            4 
  136000    1.0457705   -7.1047485    40.935419  0.025082977  0.027294002            3 
  137000    1.0614993    -7.101417    41.271762  0.025104478  0.027225934            4 
  138000    1.0340479    -7.001544    41.744418  0.025207982  0.027159153            2 
  139000    1.0383701   -7.0665621    41.768316  0.025040957  0.027094578            7 
  140000     1.023637   -7.1339696    41.842701  0.024906369  0.027026924            3 
  141000    1.0465697   -7.1369853    41.995073  0.024819783   0.02695751            3 
  142000     1.038132   -7.1106444    42.143422  0.024732055  0.026885698            4 
  143000    1.0323587   -7.0723832    42.619652  0.024836627  0.026815683            3 
  144000    1.0254032   -7.0919682    42.874061  0.024811378  0.026748548            7 
  145000    1.0265955     -7.13469    42.825469  0.024612338   0.02667775            5 
  146000    1.0335949   -7.1668927    43.110214  0.024606287  0.026608129            5 
  147000    1.0084626   -7.1795872    43.128572  0.024449304   0.02653773            2 
  148000    1.0261099   -7.1610274    43.512061  0.024500034  0.026464389            6 
  149000    1.0156153   -7.1332131    43.568517   0.02436718  0.026391182            7 
  150000    1.0265393   -7.1315452    43.777693   0.02432094  0.026316792            8 
  151000    1.0135693   -7.1843992    43.983493  0.024273451  0.026244107           13 
  152000    1.0432104   -7.1553343    44.149903   0.02420499  0.026172132            4 
  153000    1.0244981    -7.143801     44.51986  0.024248289   0.02610056            4 
  154000    1.0252614   -7.1645923     44.56554  0.024115552   0.02602762            4 
  155000    1.0028164   -7.1339386    44.959437   0.02417174  0.025956506            6 
  156000     1.018706   -7.1446381     45.22308  0.024157628  0.025886995            9 
  157000     1.029427   -7.1851185    45.417186  0.024106787   0.02581844            6 
  158000    1.0281976   -7.1650605    45.548512  0.024023476  0.025751777            2 
  159000    1.0203546   -7.1886246    45.821755  0.024015595  0.025685029            3 
  160000    1.0151652   -7.1997508    45.961926  0.023938503  0.025618027            6 
  161000    1.0073552    -7.245111     45.91801  0.023767086  0.025550346            6 
  162000    1.0213729   -7.1909206    46.445133  0.023891529  0.025483145            4 
  163000    1.0144913   -7.2251016    46.801705  0.023927252  0.025418822            6 
  164000    1.0149014   -7.1676909    46.935552  0.023849366  0.025354583            5 
  165000    1.0003891    -7.197768    46.961819   0.02371809  0.025289672            4 
  166000    1.0023865   -7.2336324    47.045463    0.0236172  0.025224837            4 
  167000    1.0100307    -7.229741    47.305597  0.023605587  0.025160247            2 
  168000   0.98842479   -7.2476175    47.556166  0.023589368  0.025095713            8 
  169000     1.002281   -7.2566584    47.658632  0.023500312   0.02503174            2 
  170000    1.0038432   -7.2141217    48.006405  0.023532551  0.024968329            7 
  171000   0.99006657   -7.2206229    48.279084  0.023527819  0.024906119            3 
  172000    1.0224907   -7.2456626    48.559847  0.023527057  0.024844265            4 
  173000    1.0108242    -7.259671    48.650155  0.023434564  0.024782163           10 
  174000   0.99332557   -7.2295625    48.503153  0.023229479  0.024717022            5 
  175000   0.96667637   -7.2474214    48.572607  0.023129813  0.024649271            4 
  176000   0.99442639   -7.2433815    48.664678  0.023041988  0.024579933            6 
  177000   0.99870935   -7.2487638     48.92341  0.023033621  0.024509762            4 
  178000   0.98907608   -7.2572566    49.068352  0.022972075  0.024442154            4 
  179000   0.97380929   -7.2316379    49.227808  0.022917974  0.024372478            7 
  180000   0.99200379   -7.2846977    49.347234  0.022845942   0.02430235            3 
  181000   0.96897869   -7.2546264    49.332999  0.022713167  0.024232778            6 
  182000   0.98132438   -7.2256896    49.596239  0.022708901  0.024163135            5 
  183000   0.98152048   -7.2638037    49.740477   0.02265049   0.02409215            9 
  184000   0.98684681   -7.2703705    49.672957   0.02249681  0.024021667            5 
  185000   0.96592511    -7.280337    50.011536  0.022527719   0.02395117            5 
  186000   0.98545774   -7.2611638    50.162289  0.022474144  0.023881325           10 
  187000   0.97123668   -7.3313277    50.161689  0.022353694  0.023810332           10 
  188000   0.98617556   -7.3367105    50.366862  0.022325736  0.023737605           11 
  189000   0.97590678   -7.3040315    50.517272  0.022273929  0.023666021            7 
  190000   0.95979342    -7.362595    50.435196    0.0221207  0.023593139            3 
  191000   0.97680751   -7.3264569    50.717775  0.022128174  0.023520494            8 
  192000   0.97005586   -7.3378164    50.716143  0.022012215  0.023447379            5 
  193000   0.95588702   -7.3036119    50.946772  0.021997743   0.02337607            5 
  194000   0.97412921   -7.3160344    51.071777  0.021938049  0.023303253            8 
  195000   0.95493346   -7.3365098    51.154706  0.021860986  0.023230005           16 
  196000   0.95254039   -7.3656621    51.138397  0.021742516  0.023155692            5 
  197000   0.94948235   -7.3681168    51.189022  0.021653562  0.023080946            4 
  198000   0.96127359   -7.3615348    51.155358  0.021530033  0.023004602            4 
  199000   0.96658603   -7.3615058    51.260925  0.021466049  0.022928324            3 
  200000   0.94697963   -7.3928842    51.290703  0.021371126  0.022851018            6 
  201000    0.9436525   -7.4175668    51.233006  0.021240882  0.022773177            7 
  202000   0.93546425   -7.3888568    51.670245  0.021316108  0.022697249           10 
  203000   0.94589016   -7.3881352    51.962701  0.021331158  0.022623509           18 
  204000   0.94751735   -7.4087152    51.936391  0.021215846  0.022550103            9 
  205000   0.93166962    -7.365234    52.097117   0.02117769  0.022476827            6 
  206000   0.95120193   -7.4369027    52.110628  0.021080351  0.022403083            3 
  207000   0.95450851    -7.405826    52.394013  0.021092598   0.02232757            6 
  208000   0.93624633   -7.4006335    52.470955  0.021022017  0.022252528            8 
  209000   0.93545843     -7.40552    52.341295  0.020869735  0.022177486            4 
  210000   0.92733671   -7.3940904    52.282312  0.020746949  0.022101145            4 
  211000   0.93560721   -7.4379248    52.448056  0.020714082  0.022024197            5 
  212000   0.93845112   -7.4436207    52.552172    0.0206573  0.021947974            3 
  213000   0.92425448   -7.4176254    52.683986  0.020611888  0.021871542            6 
  214000   0.91723096   -7.4121537    52.525399  0.020453816  0.021795323            5 
  215000   0.93596864   -7.3847974    52.825279  0.020474914   0.02171858            6 
  216000   0.91617331   -7.4397529    52.850265  0.020389763  0.021642744            4 
  217000   0.92148081    -7.447086    52.978432   0.02034502  0.021566009            6 
  218000   0.91093087    -7.466041    52.845351  0.020200822  0.021488324            5 
  219000   0.91367349   -7.4635248    52.884823  0.020123601  0.021410121            9 
  220000   0.91575601   -7.4751297    52.962837  0.020061681  0.021331824            5 
  221000   0.92308585   -7.4745729    52.945413  0.019964333  0.021253074            4 
  222000   0.90604377   -7.4742337    53.128291  0.019943052  0.021174026            4 
  223000   0.90668884   -7.4914913    53.033258  0.019818108   0.02109548           14 
  224000   0.91947923   -7.4909597     53.29978  0.019828787  0.021017121            4 
  225000   0.92217655     -7.49753    53.430706   0.01978915  0.020939381            9 
  226000   0.92107825   -7.4897764    53.540441  0.019742051  0.020862679            4 
  227000   0.88449819    -7.487777    53.439739  0.019618113  0.020785724            5 
  228000   0.90949228   -7.4800402    53.535853  0.019567198   0.02070864            3 
  229000   0.91956131    -7.511109    53.615542   0.01951075  0.020631908            4 
  230000   0.89036251   -7.5032696    53.689543  0.019452733  0.020555596            2 
  231000   0.88500159   -7.5044005    53.676838  0.019363938    0.0204797            5 
  232000   0.92495348   -7.5110548    53.825515  0.019333877  0.020403931           17 
  233000   0.87744769   -7.5247057    53.932729  0.019289245  0.020328494           11 
  234000    0.8873916   -7.5108299    54.070389  0.019255836  0.020253575            7 
  235000   0.89752377   -7.5446471    54.261046  0.019241506  0.020179653           16 
  236000   0.88512677    -7.519264    54.249574  0.019155923  0.020106094           42 
  237000   0.88412053   -7.5344851    54.552206  0.019181507  0.020033439            6 
  238000   0.87965871   -7.5844976    54.379004  0.019040268  0.019961112           13 
  239000   0.87338089   -7.5765538    54.626243  0.019046807  0.019889878            6 
  240000   0.88234041   -7.5492086    54.842587  0.019042565  0.019819305           10 
  241000   0.87725958   -7.5870357    54.794408  0.018946891  0.019749172            8 
  242000   0.89573508   -7.5890897    54.809191  0.018873688  0.019678369            3 
  243000    0.8920732   -7.5940311    54.902638  0.018828065  0.019607707           18 
  244000   0.87777037   -7.6026713    54.771041  0.018705957  0.019537069            7 
  245000   0.88193387   -7.5731893    55.062675  0.018728801  0.019466182           11 
  246000   0.85213358    -7.588484    55.017294  0.018637295  0.019396059            6 
  247000   0.87490401   -7.5990264    55.078545  0.018582505  0.019326948           13 
  248000   0.86323639   -7.6065096    55.126286  0.018523618  0.019257644            7 
  249000   0.87124541   -7.6265737     55.18403  0.018468551  0.019189292            5 
  250000   0.85989808   -7.6567879    55.262283  0.018420761  0.019120912           17 
  251000   0.87270695   -7.6296197    55.352584  0.018377352  0.019053284           27 
  252000   0.87645873   -7.6455075    55.374222  0.018311581  0.018985649            9 
  253000   0.85327313   -7.6549643    55.556707  0.018299311  0.018918424            4 
  254000   0.85421395   -7.6615909    55.537656  0.018221016  0.018851189            8 
  255000   0.83771297    -7.633144    55.619081   0.01817617  0.018783794           29 
  256000   0.85172504   -7.6553011     55.63395   0.01811001  0.018717343            9 
  257000    0.8385209   -7.6448525    55.661093  0.018048344  0.018650285            8 
  258000   0.85971852   -7.6557598    55.787724  0.018019291    0.0185835           13 
  259000   0.84426277   -7.6420664     55.69104   0.01791861  0.018516358           10 
  260000   0.85761351   -7.6303313    55.931389  0.017926727  0.018449467            9 
  261000   0.83925734   -7.6631609    55.847368  0.017831216  0.018382659            6 
  262000   0.84056677   -7.6786054    55.860567  0.017767356   0.01831603           15 
  263000   0.82434091   -7.6816855    56.072268  0.017766878   0.01824998           13 
  264000   0.83860838    -7.707237    55.968169   0.01766672  0.018184619           34 
  265000   0.86610988   -7.7134821     56.09075  0.017638601  0.018119314           12 
  266000   0.82656018   -7.7150458    56.077099  0.017568013   0.01805413           16 
  267000    0.8324286   -7.7236676    56.098354  0.017508849  0.017988564            9 
  268000   0.85498351   -7.7212925    55.967373   0.01740279  0.017923018            5 
  269000    0.8481589   -7.6843402    56.372922   0.01746373  0.017857842           13 
  270000   0.84282753    -7.691872    56.404658  0.017408845  0.017793619           13 
  271000   0.82104244   -7.7432804    56.270254  0.017303276  0.017729285            6 
  272000   0.83541974   -7.7187023    56.277648  0.017241926  0.017664464            7 
  273000   0.83469103   -7.7293314    56.456639  0.017233406  0.017600405            8 
  274000   0.83181565   -7.7281782     56.46776  0.017173893  0.017536596           20 
  275000   0.82005804   -7.7646314    56.405818  0.017092672  0.017473316           12 
  276000   0.82772022   -7.7422973    56.378188    0.0170224  0.017409915           18 
  277000   0.81408662   -7.7721758    56.392386  0.016965218  0.017346399           10 
  278000   0.83366793    -7.759334    56.688805  0.016993047  0.017283307            9 
  279000   0.82051246   -7.8174976    56.551151  0.016891025  0.017220704            6 
  280000   0.81985517    -7.762968    56.630758  0.016854392  0.017158253           15 
  281000    0.8106393   -7.7638867    56.664006  0.016804272  0.017095846            7 
  282000   0.82983283   -7.8018858    56.733298  0.016765159  0.017033627            6 
  283000    0.8180975    -7.795334    56.781486  0.016720108  0.016971917            9 
  284000   0.79839267   -7.8027865    56.699885   0.01663729  0.016910058           10 
  285000   0.78934341   -7.8264876     56.69812  0.016578398  0.016848129           12 
  286000   0.79462868   -7.8020341    56.680786  0.016515381   0.01678569           11 
  287000   0.79931318    -7.844488    56.666192  0.016453598  0.016723458           13 
  288000   0.79467239   -7.8380958     56.68968  0.016403264  0.016662105            9 
  289000   0.80877767   -7.8339005    56.845385  0.016391403  0.016601002            7 
  290000   0.80912902    -7.808237    56.884532   0.01634613  0.016540016            9 
  291000   0.82483292   -7.8179099    57.011169  0.016326223   0.01647914           14 
  292000   0.79970448   -7.8546992    57.025045  0.016274271  0.016418881            9 
  293000    0.7782396   -7.8454729    56.893897  0.016181427  0.016358462           31 
  294000   0.79559903   -7.8180455    57.022983  0.016162977  0.016298319           34 
  295000   0.78016628   -7.8642063    56.978664  0.016095668  0.016238511           16 
  296000   0.80655362   -7.8627937    56.993495  0.016045466  0.016178482           18 
  297000   0.80094992   -7.8782354     56.95558  0.015980802  0.016118284           17 
  298000   0.80391453   -7.8491415    57.156359  0.015983322  0.016058553           13 
  299000   0.79098986   -7.8801787    56.971654  0.015878387  0.015999244           18 
  300000   0.77392375   -7.8808514    57.036741  0.015843539  0.015939611           15 
  301000   0.79631011   -7.9066973    56.926733  0.015760447  0.015879862           40 
  302000   0.78142977   -7.9301735    56.878091  0.015694838  0.015819817           20 
  303000   0.78198596   -7.8907475    56.881271  0.015643914  0.015760253           19 
  304000   0.80645715   -7.9087008    56.997151  0.015624219  0.015700732           27 
  305000   0.77143344   -7.8841849    56.826673  0.015526413  0.015641366           25 
  306000   0.78678807   -7.8928108    56.851879  0.015482538  0.015581921           36 
  307000   0.76178244   -7.8909143    56.902607  0.015445876  0.015523271           28 
  308000   0.76821682    -7.957404    56.966032  0.015412888  0.015464446           21 
  309000   0.75487116   -7.9252907    57.007722  0.015374251  0.015405689           43 
  310000   0.75484951   -7.9431502    56.845278  0.015280989  0.015346756           23 
  311000   0.75907677   -7.9686915    56.988903  0.015270338   0.01528814           59 
  312000   0.77357934   -7.9289733    57.009415  0.015226874  0.015229776           36 
  313000   0.76148981   -7.9417975    57.110835  0.015205228  0.015171823           37 
  314000   0.76174211   -7.9311451    57.015112  0.015131399  0.015114234           51 
  315000   0.77340694    -7.990748    56.965139  0.015070143  0.015056624           49 
  316000   0.78156797   -7.9735412    57.106183  0.015059647  0.014999138           49 
  317000   0.75870725   -7.9817407    56.996437   0.01498329  0.014941903           58 
  318000   0.75987629   -7.9734044    57.111966  0.014966448  0.014884786           60 
  319000    0.7547373   -7.9875594    56.982637  0.014885746  0.014827891           35 
  320000   0.75295843   -7.9809084    56.867658  0.014809286  0.014771118           24 
  321000   0.74313959   -7.9736877    57.099538  0.014823348  0.014714763           19 
  322000   0.76306891   -8.0138861     57.01021  0.014754195  0.014658545           27 
  323000   0.76521513   -7.9619082    57.016026  0.014710017  0.014602206           36 
  324000   0.74172072   -8.0028233    57.076585  0.014680192  0.014546134           21 
  325000   0.76266335   -8.0224515    56.982347  0.014610858  0.014490041           41 
  326000   0.75319733   -8.0046758    57.099781  0.014596059   0.01443448           43 
  327000   0.74097521   -8.0285503    57.086581  0.014548058  0.014378935           25 
  328000   0.73744548   -8.0263967    57.010632  0.014484408  0.014323373           22 
  329000   0.73191352   -8.0458418    56.852164  0.014400244  0.014267969           25 
  330000   0.75419926   -8.0397442    57.009181  0.014396258  0.014212459           27 
  331000    0.7283636   -8.0248115    56.879757   0.01432018  0.014157206           32 
  332000   0.74023166   -8.0544992    56.842427  0.014267677  0.014101999           34 
  333000   0.72553798   -8.0628248    56.876758  0.014233423  0.014046922           12 
  334000   0.73596667   -8.0240732    56.879593  0.014191515  0.013992335           34 
  335000   0.72963695   -8.0513999    57.006311  0.014180674  0.013938059           66 
  336000   0.72685666   -8.0371139    56.849758  0.014099642  0.013883749           67 
  337000   0.73006511   -8.1039307    56.818884  0.014050169  0.013829694           41 
  338000   0.72258195   -8.0585715     56.83551    0.0140127  0.013775744           40 
  339000   0.72746156   -8.0800779    56.803244  0.013963433   0.01372229           44 
  340000   0.73666051   -8.0660678    56.940617  0.013956034   0.01366886           42 
  341000   0.71110161   -8.0872673    56.830901  0.013888294  0.013615633           74 
  342000   0.71510341   -8.0907239    56.998929  0.013888628  0.013562785           55 
  343000   0.72842242   -8.1025415    56.924116   0.01382996  0.013510241           57 
  344000   0.72567335   -8.0944273    56.857136  0.013773531  0.013457752           49 
  345000   0.73234624   -8.0927196    56.919608  0.013748698  0.013405682           49 
  346000   0.69962266    -8.091196    56.830489  0.013687497  0.013353527           40 
  347000   0.72018097    -8.091614    56.827826  0.013647413  0.013301586           66 
  348000   0.71820345   -8.1143339    56.885286  0.013621955  0.013250031           57 
  349000   0.71075537   -8.1026053    56.839659  0.013572029   0.01319862           93 
  350000   0.71326959   -8.0824651    56.986235  0.013568151  0.013147776           74 
  351000   0.70135891    -8.097075    57.007451  0.013534533  0.013097119           60 
  352000   0.71617534   -8.1170855    56.845861  0.013457827  0.013046568           77 
  353000    0.6975482   -8.1244846    56.898043  0.013432021  0.012996149           67 
  354000   0.71568389    -8.107043    56.946785  0.013405552  0.012946104           74 
  355000   0.69494444   -8.1282711    57.001381  0.013380606  0.012896207           73 
  356000   0.70057163   -8.1090736    56.974914  0.013336824  0.012846317           56 
  357000   0.68294948   -8.1292241    56.942896  0.013291992  0.012796573           68 
  358000   0.69753697   -8.1362931    56.947603   0.01325596  0.012747055           67 
  359000   0.68942405   -8.1441497     57.00744  0.013232925  0.012697616           47 
  360000   0.70266117   -8.1431555    56.880154  0.013166702  0.012648605          128 
  361000   0.69615552   -8.1702599    56.931363   0.01314205   0.01259953           43 
  362000   0.69731218   -8.1426132    56.958637  0.013112025  0.012550989           63 
  363000   0.70509466   -8.1800396    56.808003  0.013041323  0.012502555           69 
  364000   0.70034474    -8.180749    56.860126  0.013017428  0.012454262           69 
  365000   0.69123365   -8.1827844    56.768835  0.012960921  0.012405988           74 
  366000   0.68074102   -8.1828011    56.943893  0.012965367   0.01235782           66 
  367000   0.69254816   -8.1882846    56.952361  0.012931962  0.012309911           47 
  368000    0.6892399   -8.1796621    56.782784   0.01285842  0.012262139           84 
  369000    0.6844051   -8.1840293    56.818503   0.01283164  0.012214553           72 
  370000   0.67285182   -8.1697129    56.867571  0.012808011  0.012167218           69 
  371000   0.68930249   -8.2013872    56.760615  0.012749464  0.012119892           78 
  372000    0.6794885   -8.2237142    56.775668  0.012718564   0.01207288           54 
  373000   0.68844216   -8.2110239    56.785153  0.012686585  0.012026081           49 
  374000   0.67144207   -8.2118818    56.561516  0.012602833  0.011979462           76 
  375000   0.66626871   -8.2180334    56.757586  0.012612797  0.011933014           73 
  376000   0.65550404   -8.2260169    56.609203  0.012546366  0.011886774           77 
  377000   0.66117302   -8.2437055    56.813295    0.0125582  0.011840734           63 
  378000   0.67074712   -8.2300718    56.814131  0.012525161  0.011794959           63 
  379000   0.65295289   -8.2419604    56.572425  0.012438968  0.011749398           92 
  380000   0.65302259   -8.2190295     56.68803  0.012431585  0.011703974           57 
  381000   0.66339209   -8.2478209    56.750761  0.012412677  0.011658868           77 
  382000   0.65967803   -8.2543989    56.631482  0.012354163  0.011613828           63 
  383000   0.64642411   -8.2435697    56.781841  0.012354622  0.011569092           78 
  384000   0.65979965   -8.2613188    56.843397  0.012335807  0.011524478           61 
  385000   0.64652676   -8.2663299     56.67408  0.012267117  0.011480137           74 
  386000   0.66020235   -8.2811696    56.574171  0.012213767  0.011436072           59 
  387000   0.65056757    -8.244053    56.688188  0.012206759  0.011392004           76 
  388000   0.64595193   -8.2730833    56.572664  0.012150486  0.011348182           77 
  389000   0.65033449   -8.2711713    56.648306  0.012135455  0.011304521           60 
  390000   0.63552038   -8.2791533    56.693206  0.012113933  0.011261073           58 
  391000   0.63704532   -8.2885448    56.588586  0.012060654  0.011217655           52 
  392000   0.64029388   -8.2939548    56.545265  0.012020677  0.011174371           52 
  393000    0.6357532   -8.2997727     56.64465  0.012011164  0.011131227           74 
  394000   0.64713006    -8.286626    56.498198  0.011949703  0.011088387           76 
  395000   0.62922875   -8.3032595    56.507174  0.011921345  0.011045759           68 
  396000   0.64617074   -8.3251856    56.405922  0.011869933  0.011003231           80 
  397000    0.6327016   -8.3201331    56.525942  0.011865227  0.010960875           92 
  398000   0.62704705   -8.3052886    56.499479  0.011829874  0.010918515           70 
  399000   0.62959678   -8.3160073    56.525674  0.011805696  0.010876488           89 
  400000   0.62829585   -8.3269285    56.437934  0.011757903  0.010834576          120 
  401000   0.63411783    -8.338324    56.499739  0.011741425  0.010792917          120 
  402000   0.61542797   -8.3247099    56.665526  0.011746585  0.010751535           88 
  403000   0.62658631   -8.3127531    56.543615  0.011692228  0.010710399           89 
  404000    0.6231765   -8.3216444     56.53233  0.011660959  0.010669402          115 
  405000    0.6199771   -8.3353994    56.606544  0.011647437  0.010628619           89 
  406000   0.63054995   -8.3457393    56.395178  0.011575365  0.010588135           91 
  407000   0.62422467   -8.3576518    56.556381  0.011579931  0.010547825           97 
  408000   0.60956824   -8.3457794    56.537528  0.011547698  0.010507665          118 
  409000   0.62721182   -8.3332194    56.486847  0.011509138  0.010467694           65 
  410000   0.62992794   -8.3314686    56.508662    0.0114855  0.010428004           97 
  411000    0.6094673    -8.344063    56.567292  0.011469443  0.010388359          109 
  412000   0.62367783   -8.3383462    56.443903  0.011416647  0.010349069           96 
  413000   0.60833358   -8.3771419       56.487    0.0113977  0.010309884           85 
  414000   0.61371148   -8.3451236    56.437662  0.011360238  0.010270847          101 
  415000   0.62672872   -8.3846975    56.420455  0.011329409     0.010232          114 
  416000   0.61433128   -8.3719851    56.465336  0.011311165  0.010193328           87 
  417000   0.61490995   -8.3805228    56.474457  0.011285863  0.010154855           81 
  418000   0.59919946   -8.3814867    56.427665  0.011249535  0.010116493          104 
  419000   0.59835554   -8.3819953    56.365934  0.011210409  0.010078302           75 
  420000   0.60007517   -8.3777717    56.509742   0.01121225  0.010040355           93 
  421000   0.59718279   -8.3655516    56.446645  0.011173128  0.010002567          109 
  422000   0.59492572   -8.3924219    56.400858   0.01113761 0.0099649465          101 
  423000   0.58921018   -8.3776936    56.399139  0.011110941 0.0099274813           71 
  424000   0.59571103   -8.3621197    56.395479  0.011084017 0.0098902672          135 
  425000   0.58159695    -8.385507    56.508593  0.011080116 0.0098531098           95 
  426000     0.581446   -8.4039674    56.455122  0.011043647 0.0098161485           72 
  427000   0.58086354    -8.391821    56.508125  0.011028127 0.0097793841           76 
  428000   0.58497578   -8.3757497    56.484118  0.010997686  0.009742844           77 
  429000   0.57005313   -8.3944434    56.379491  0.010951727 0.0097063933           98 
  430000   0.56966884   -8.4103242    56.318423  0.010914423 0.0096701184           88 
  431000   0.58468771   -8.4117121    56.353944  0.010895968 0.0096339924           57 
  432000   0.56729249    -8.418958    56.376459  0.010875089 0.0095980303          139 
  433000   0.57763795   -8.4051407    56.302187  0.010835679 0.0095622235          124 
  434000   0.55979507   -8.4151965    56.271825  0.010804882 0.0095266067           75 
  435000   0.57822151   -8.4109553    56.285353  0.010782635 0.0094911491          114 
  436000   0.57596897   -8.4262392    56.374951  0.010775029 0.0094558538           91 
  437000   0.56475525   -8.4372771    56.211396  0.010719183 0.0094206942          119 
  438000   0.56529628   -8.4399351    56.341067  0.010719381 0.0093857218          101 
  439000   0.56952442   -8.4338267    56.391441  0.010704526 0.0093509905          111 
  440000   0.55030154   -8.4494549    56.223766  0.010648441 0.0093163456          110 
  441000   0.56229038   -8.4383457    56.251366   0.01062951 0.0092818914          115 
  442000   0.56003027   -8.4219185    56.325482  0.010619435 0.0092476173          109 
  443000   0.55285775   -8.4600702    56.205448  0.010572883  0.009213504           76 
  444000   0.55117643    -8.430459    56.346791  0.010575599 0.0091795134           81 
  445000   0.56109753   -8.4539888    56.287749  0.010540777 0.0091457096           89 
  446000   0.56303601   -8.4527404    56.243871  0.010508945 0.0091120472          100 
  447000   0.54726337   -8.4423032     56.21509  0.010480069 0.0090784387          137 
  448000   0.55369968   -8.4546584    56.227883  0.010459056 0.0090450644           94 
  449000   0.54622586   -8.4595932    56.261407  0.010441983 0.0090118256          100 
  450000   0.56136092   -8.4615477    56.309421  0.010427671 0.0089787785          109 
  451000   0.54270702   -8.4854026    56.230961  0.010390052 0.0089458354           93 
  452000   0.54434792   -8.4724334    56.203608  0.010362022 0.0089130605          118 
  453000   0.56023507   -8.4387704    56.153569  0.010329943 0.0088803317          102 
  454000   0.53648736   -8.4806303    56.213783  0.010318242 0.0088478619          115 
  455000   0.54911204    -8.471222    56.118008  0.010278023 0.0088154071           97 
  456000   0.54812352   -8.4786037    56.082435  0.010248983 0.0087832084          109 
  457000   0.53484983   -8.4664137    56.132685  0.010235719 0.0087511037          121 
  458000   0.54309673   -8.4791372    56.168938  0.010219967  0.008719151          114 
  459000   0.53132256   -8.4875338    56.115924  0.010188076 0.0086873762          115 
  460000   0.53236414   -8.4824903    56.227611  0.010186161 0.0086557867          115 
  461000   0.53627628   -8.4864707    56.148363   0.01014974 0.0086244017          108 
  462000    0.5342019   -8.4671017    56.203008  0.010137628 0.0085931098           99 
  463000   0.53014507   -8.4885197    56.114367  0.010099778 0.0085619644          100 
  464000    0.5338268   -8.4803508    56.181227  0.010090019 0.0085309866          123 
  465000   0.53038541   -8.4936906    56.259255  0.010082304   0.00850014          114 
  466000   0.52252569   -8.4869486    55.997242  0.010013813 0.0084693517          155 
  467000   0.52877578   -8.5014332    56.012351 0.0099950661 0.0084386929           75 
  468000   0.53054486   -8.5013639    56.048412 0.0099801304 0.0084081988          107 
  469000   0.52000302   -8.5047267    56.090525 0.0099663335 0.0083778335           73 
  470000   0.51279753   -8.5081612      56.0061 0.0099301596 0.0083475553          120 
  471000   0.52611886   -8.5169459     56.09584  0.009924954 0.0083174916          113 
  472000   0.52564974   -8.5165861    56.010682 0.0098888917 0.0082875012          115 
  473000   0.51393146   -8.5266638    56.005457 0.0098670643  0.008257656          104 
  474000   0.50376517   -8.5280475    56.026016 0.0098498622 0.0082279558           83 
  475000   0.50905814   -8.5272487    55.951893 0.0098161215 0.0081983857          101 
  476000   0.50878937   -8.5323107     56.02403 0.0098081285 0.0081689648           82 
  477000   0.50552359   -8.5231342    55.984162 0.0097806014 0.0081397479          128 
  478000    0.5103795   -8.5472701    55.980657 0.0097595287 0.0081106181          100 
  479000   0.50452326   -8.5291462    55.966721 0.0097367294 0.0080816224          128 
  480000   0.50639471   -8.5278766    55.965156  0.009716173  0.008052731           88 
  481000   0.50093446   -8.5362524    55.945341   0.00969254 0.0080240128          107 
  482000   0.49873573   -8.5451319    55.989064 0.0096799903 0.0079954394           99 
  483000   0.49585981   -8.5234572    55.986113 0.0096594398 0.0079670015          100 
  484000   0.49361907   -8.5355218    55.892044 0.0096232858 0.0079386781          110 
  485000   0.49086648   -8.5387756    55.897179 0.0096043263 0.0079104738          116 
  486000   0.48673185    -8.541502    55.953018 0.0095941389 0.0078823469          118 
  487000   0.48679681   -8.5541606    55.969121 0.0095771939 0.0078543868           92 
  488000   0.49069631   -8.5511138    55.842527 0.0095359506 0.0078265272           77 
  489000   0.48903516   -8.5534033    55.895704  0.009525512 0.0077987978           85 
  490000   0.49259025   -8.5643478    55.826372  0.009494281 0.0077711861          224 
  491000   0.48447099   -8.5612552    55.862935 0.0094811499 0.0077437585           96 
  492000   0.48739068   -8.5461735    55.819016 0.0094544404 0.0077164125           94 
  493000   0.47435763   -8.5503308    55.825465 0.0094363531  0.007689198          108 
  494000   0.47276089   -8.5676711    55.721816 0.0093997666 0.0076621234           54 
  495000   0.47290348   -8.5808671    55.775886 0.0093898797 0.0076351313           87 
  496000   0.47256134   -8.5724403    55.892797 0.0093905909  0.007608261          101 
  497000   0.46664481   -8.5682076    55.797122 0.0093556542 0.0075815999           85 
  498000   0.47519346   -8.5826883    55.742605 0.0093277452 0.0075550172           64 
  499000   0.47438573     -8.58197    55.816882 0.0093214565 0.0075285588          127 
  500000   0.47049081   -8.5720394    55.795603 0.0092992672 0.0075022401           65 
  501000   0.45885695    -8.585859    55.805923 0.0092824222 0.0074760217           52 
  502000   0.46983306   -8.5927215     55.84311 0.0092701046 0.0074498896           64 
  503000   0.46165745    -8.593756    55.849568 0.0092527449 0.0074238708           89 
  504000   0.45733028   -8.5926922    55.754968 0.0092187447 0.0073980066          125 
  505000   0.46459111   -8.5899787    55.759845 0.0092012945  0.007372219           75 
  506000   0.46593045   -8.5735101    55.797378 0.0091892914  0.007346598          119 
  507000   0.46600884   -8.6160726    55.774478 0.0091674027 0.0073210455           78 
  508000   0.45916718   -8.6152184    55.724365  0.009141136 0.0072956152          116 
  509000   0.45027051   -8.5990434    55.723681  0.009123065 0.0072703316           76 
  510000   0.45375056   -8.6146579    55.696263 0.0091006966 0.0072451627           84 
  511000   0.44699295   -8.6160158    55.767657 0.0090945298 0.0072200605          106 
  512000   0.45446945   -8.6151327    55.708333 0.0090671114 0.0071951232          110 
Loop time of 1315.63 on 48 procs for 500000 steps with 4000 atoms

Performance: 65671.715 tau/day, 380.045 timesteps/s
99.4% CPU use with 48 MPI tasks x no OpenMP threads

MPI task timing breakdown:
Section |  min time  |  avg time  |  max time  |%varavg| %total
---------------------------------------------------------------
Pair    | 95.525     | 100.7      | 105.78     |  25.5 |  7.65
Neigh   | 9.1899     | 9.5223     | 9.8432     |   4.6 |  0.72
Comm    | 88.138     | 92.907     | 98.011     |  26.1 |  7.06
Output  | 0.988      | 0.98895    | 1.0184     |   0.4 |  0.08
Modify  | 1095.1     | 1098.2     | 1102.5     |   4.8 | 83.47
Other   |            | 13.33      |            |       |  1.01

Nlocal:        83.3333 ave          89 max          77 min
Histogram: 3 1 0 7 4 17 8 3 3 2
Nghost:        2414.58 ave        2427 max        2402 min
Histogram: 2 1 7 5 9 6 7 6 3 2
Neighs:        16702.4 ave       18726 max       14419 min
Histogram: 2 5 4 5 7 6 4 6 5 4
FullNghs:      33406.1 ave       35754 max       30932 min
Histogram: 3 1 1 7 8 12 9 2 3 2

Total # of neighbors = 1603491
Ave neighs/atom = 400.87275
Neighbor list builds = 26616
Dangerous builds = 0

#clear
#
#next RN
#
#jump SELF
Total wall time: 0:21:59
