
units lj                  # Use reduced LJ style units
atom_style atomic         # Uncharged point particles
atom_modify map hash      # Needed for indexing of clusters etc
                          # Used to be able to find where atoms are in relation to each other.

lattice fcc 1.0 spacing 1 1 1
Lattice spacing in x,y,z = 1.5874011 1.5874011 1.5874011
region box block 0 10 0 10 0 10 units lattice
create_box 2 box
Created orthogonal box = (0.0000000 0.0000000 0.0000000) to (15.874011 15.874011 15.874011)
  3 by 4 by 4 MPI processor grid
create_atoms 1 box
Created 4000 atoms
  using lattice units in orthogonal box = (0.0000000 0.0000000 0.0000000) to (15.874011 15.874011 15.874011)
  create_atoms CPU = 0.015 seconds
set type 1 type/fraction 2 0.58 78393
Setting atom values ...
  2338 settings made for type/fraction
mass 1 1.0
mass 2 1.0
pair_style lj/cut  3.5
pair_modify tail  yes
pair_coeff 1  1  1.0  1.0   # Intearaction between 1 and 1 set with epsilon = 1 and sigma = 1
pair_coeff 1  2  1.5  0.8
pair_coeff 2  2  0.5  0.88

write_data data.0
System init for write_data ...
Neighbor list info ...
  update every 1 steps, delay 10 steps, check yes
  max neighbors/atom: 2000, page size: 100000
  master list distance cutoff = 3.8
  ghost atom cutoff = 3.8
  binsize = 1.9, bins = 9 9 9
  1 neighbor lists, perpetual/occasional/extra = 1 0 0
  (1) pair lj/cut, perpetual
      attributes: half, newton on
      pair build: half/bin/atomonly/newton
      stencil: half/bin/3d
      bin: standard
WARNING: Not all mixed pair coeffs generated from mixing. Use write_data with 'pair ij' option to store all pair coeffs. (../write_data.cpp:312)


#############################
#   M E L T   S Y S T E M   #
#############################

velocity all create 2.4 6229865 mom yes dist gaussian # Assign velocities
                                                    # Temperature 2.4, random number seed, zero linear momentum
                                                                                # Gaussian distribution

timestep 0.002   # simulation timestep
thermo 1000       # output thermodynamic data every 1000 steps bf 100

# Define a fix  in this case with index 1 applied to all
# particles in the simulation. This fix is for simulations
# in the anisotropic NPT ensemble. Note that we use the MTK
# correction.
fix 1 all npt temp 2.4 2.4 0.1 iso 5.68 5.68 0.5 mtk yes tchain 5 pchain 5 # Use NPT ensemble
                                                                         # Set temperature and pressure and damping
                                                                         # Numbers of thermostats in chain and in barostat
run 10000          # run for 10000 steps
Per MPI rank memory allocation (min/avg/max) = 3.642 | 3.644 | 3.648 Mbytes
Step Temp E_pair E_mol TotEng Press Volume 
       0          2.4   -4.8268882            0   -1.2277882   -4.1002737         4000 
    1000    2.3849156   -4.6034726            0   -1.0269936    5.5341998     3606.497 
    2000    2.4374473   -4.5347655            0   -0.8795086    5.8529144    3628.6908 
    3000    2.4185336   -4.6499337            0   -1.0230402    5.4256741    3594.3603 
    4000    2.3908666   -4.5354921            0  -0.95008873    5.5988175    3647.6373 
    5000    2.3976763   -4.5409165            0  -0.94530111    5.7985705    3620.8536 
    6000     2.395437   -4.6071547            0   -1.0148976    5.5804378    3608.8638 
    7000    2.4116597   -4.4998717            0  -0.88328655    6.0738891    3620.5914 
    8000     2.426433   -4.5835741            0  -0.94483454    5.3547926    3631.6608 
    9000    2.3710336   -4.5421458            0  -0.98648457    5.5234982    3640.3822 
   10000    2.4013846   -4.5620583            0   -0.9608819    5.5948955     3625.295 
Loop time of 2.70943 on 48 procs for 10000 steps with 4000 atoms

Performance: 637773.528 tau/day, 3690.819 timesteps/s
99.6% CPU use with 48 MPI tasks x no OpenMP threads

MPI task timing breakdown:
Section |  min time  |  avg time  |  max time  |%varavg| %total
---------------------------------------------------------------
Pair    | 1.2371     | 1.2722     | 1.3795     |   2.2 | 46.96
Neigh   | 0.219      | 0.22408    | 0.24329    |   0.9 |  8.27
Comm    | 0.81949    | 0.92247    | 0.95998    |   2.8 | 34.05
Output  | 0.00025192 | 0.0002572  | 0.00035122 |   0.0 |  0.01
Modify  | 0.24944    | 0.27458    | 0.29819    |   2.5 | 10.13
Other   |            | 0.01582    |            |       |  0.58

Nlocal:        83.3333 ave          92 max          73 min
Histogram: 1 3 2 7 2 15 6 8 2 2
Nghost:        1749.83 ave        1778 max        1729 min
Histogram: 2 5 9 7 11 5 2 5 1 1
Neighs:        10535.6 ave       11912 max        8989 min
Histogram: 2 3 3 4 3 15 9 6 1 2

Total # of neighbors = 505708
Ave neighs/atom = 126.42700
Neighbor list builds = 903
Dangerous builds = 184

# Equilibrate just above the melting temperature to avoid step fn in T

fix 1 all npt temp 1.25 1.25 0.1 iso 5.68 5.68 0.5 mtk yes tchain 5 pchain 5
run 2000
Per MPI rank memory allocation (min/avg/max) = 3.644 | 3.646 | 3.650 Mbytes
Step Temp E_pair E_mol TotEng Press Volume 
   10000    2.4013846   -4.5620583            0   -0.9608819    5.5948955     3625.295 
   11000    1.2367893   -6.6341066            0   -4.7793865    5.6439308    2790.8949 
   12000    1.2526701   -6.6915479            0   -4.8130126    5.3489706    2784.8759 
Loop time of 0.677853 on 48 procs for 2000 steps with 4000 atoms

Performance: 509845.199 tau/day, 2950.493 timesteps/s
99.6% CPU use with 48 MPI tasks x no OpenMP threads

MPI task timing breakdown:
Section |  min time  |  avg time  |  max time  |%varavg| %total
---------------------------------------------------------------
Pair    | 0.29508    | 0.32512    | 0.39174    |   3.0 | 47.96
Neigh   | 0.04052    | 0.043834   | 0.052373   |   0.9 |  6.47
Comm    | 0.18636    | 0.2599     | 0.29684    |   3.9 | 38.34
Output  | 5.3135e-05 | 5.5092e-05 | 7.1337e-05 |   0.0 |  0.01
Modify  | 0.039246   | 0.043935   | 0.048381   |   1.2 |  6.48
Other   |            | 0.005008   |            |       |  0.74

Nlocal:        83.3333 ave          91 max          77 min
Histogram: 1 2 9 9 5 14 3 2 1 2
Nghost:        2095.79 ave        2112 max        2080 min
Histogram: 2 2 5 6 8 9 9 3 3 1
Neighs:        13721.8 ave       15623 max       12235 min
Histogram: 1 6 6 8 7 11 6 0 2 1

Total # of neighbors = 658647
Ave neighs/atom = 164.66175
Neighbor list builds = 143
Dangerous builds = 12

#############################
# L I N E A R  Q U E N C H  #
#############################

# Define solid atoms. This closely follows ten Wolde  Ruiz-Montero and Frenkel  Faraday Discuss  1996  104  93-110
# Compute components of the per-atom q6 vector
compute q6 all orientorder/atom degrees 1 6 components 6 nnn NULL cutoff 1.3 # compute the Q6 parameter.
                                                                             # Use all neighbours within 1.3 unit cell.

# get number of connections
compute coord_number all coord/atom orientorder q6 0.5

# An atom is solid if it has 8 or more connections (of a possible 14)
variable is_solid atom c_coord_number>=8
group solid dynamic all var is_solid    # Must be dynamic to update
dynamic group solid defined

# do clustering
compute cluster solid cluster/atom 1.3 # Create a cluster where all atoms within are solid and max 1.3 units from another member

# define chunks one chunk per cluster
compute clus_chunks solid chunk/atom c_cluster nchunk every compress yes  # Says which atoms are in which chunk

# count the size of each chunk
compute size_chunks solid property/chunk clus_chunks count


# Find the maximum entry in the vector of chunk sizes
variable max_n equal max(c_size_chunks)


# Thermo style which includes this variable
# thermo_style custom step temp pe vol v_max_n

thermo ${N}  # Print the thermo information every 100 steps
thermo 1000  

# Reset the npt fix at a lower temperature (below freezing)
fix 1  all npt temp  ${temp} ${temp}  0.1  iso  5.68  5.68  0.5  mtk yes tchain  5  pchain  5
fix 1  all npt temp  0.45 ${temp}  0.1  iso  5.68  5.68  0.5  mtk yes tchain  5  pchain  5
fix 1  all npt temp  0.45 0.45  0.1  iso  5.68  5.68  0.5  mtk yes tchain  5  pchain  5

dump dmp2 all dcd ${N} traj.dcd
dump dmp2 all dcd 1000 traj.dcd


compute msd all msd com yes
variable twopoint equal c_msd[4]/6/(step*dt+1.0e-6)
fix 9 all vector 10 c_msd[4]
variable fit equal slope(f_9)/6/(10*dt)
thermo_style custom step temp pe c_msd[4] v_twopoint v_fit v_max_n

fix 1 all npt temp 1.25 ${temp} 0.1 iso 5.68 5.68 0.5 mtk yes tchain 5 pchain 5
fix 1 all npt temp 1.25 0.45 0.1 iso 5.68 5.68 0.5 mtk yes tchain 5 pchain 5
run 500000 # 5000000  # Run for this many steps
Neighbor list info ...
  update every 1 steps, delay 10 steps, check yes
  max neighbors/atom: 2000, page size: 100000
  master list distance cutoff = 3.8
  ghost atom cutoff = 3.8
  binsize = 1.9, bins = 8 8 8
  4 neighbor lists, perpetual/occasional/extra = 1 3 0
  (1) pair lj/cut, perpetual
      attributes: half, newton on
      pair build: half/bin/atomonly/newton
      stencil: half/bin/3d
      bin: standard
  (2) compute orientorder/atom, occasional
      attributes: full, newton on
      pair build: full/bin/atomonly
      stencil: full/bin/3d
      bin: standard
  (3) compute coord/atom, occasional
      attributes: full, newton on
      pair build: full/bin/atomonly
      stencil: full/bin/3d
      bin: standard
  (4) compute cluster/atom, occasional
      attributes: full, newton on
      pair build: full/bin/atomonly
      stencil: full/bin/3d
      bin: standard
Per MPI rank memory allocation (min/avg/max) = 9.845 | 9.849 | 9.852 Mbytes
Step Temp PotEng c_msd[4] v_twopoint v_fit v_max_n 
   12000    1.2526701   -6.6915479 8.3915079e-31 5.8274358e-33 8.3333333e+20            2 
   13000    1.2436721   -6.8011546   0.47769158 0.0030621254  0.039286462            1 
   14000    1.2524517   -6.7443685   0.90011424 0.0053578227  0.036977906            6 
   15000    1.2636626    -6.760614    1.3068376 0.0072602086  0.035545485            2 
   16000    1.2415311   -6.7604511    1.7431904 0.0090791165  0.035219479            2 
   17000    1.2194783   -6.7486668    2.1411116  0.010495645  0.035027922            3 
   18000     1.271348   -6.7990298    2.6031282  0.012051519   0.03500781            1 
   19000    1.2396879   -6.8298875    3.0282048    0.0132816  0.035334069            3 
   20000    1.2351051   -6.7711833    3.4326137  0.014302557  0.035446942            1 
   21000    1.2337936   -6.7378435    3.8001685  0.015080033  0.035281585            2 
   22000    1.2303442   -6.8037201    4.1794913  0.015831406  0.034939609            2 
   23000    1.2207602   -6.8007235    4.5221684  0.016384668  0.034520156            6 
   24000    1.2439753   -6.8019108    4.8941735  0.016993658   0.03410072            3 
   25000    1.2407989    -6.761179    5.3489646  0.017829882   0.03383821            1 
   26000    1.2428348    -6.824638     5.686141   0.01822481  0.033663348            4 
   27000    1.2327737   -6.8299727    6.1417444  0.018956001  0.033540827            5 
   28000     1.236484   -6.8653538    6.5121987  0.019381543  0.033490901            2 
   29000    1.2017626   -6.8513956    6.8618158  0.019717861  0.033382889            2 
   30000    1.2194964   -6.8924547    7.2017504  0.020004862  0.033181867            3 
   31000    1.2529335   -6.8217419    7.6636512  0.020601213  0.033076276            2 
   32000    1.2224272   -6.8266392    7.9450871  0.020690331  0.032959666            3 
   33000    1.2431619   -6.8725964    8.3215812  0.021014094  0.032809007            2 
   34000    1.2176814   -6.8250547    8.6878825  0.021293829  0.032660768            2 
   35000    1.1890371   -6.8644893    9.1444241  0.021772438  0.032590354            3 
   36000    1.2239565   -6.8605001    9.5366403  0.022075556  0.032581259            2 
   37000    1.2342078   -6.8683113    9.8658704  0.022220429  0.032520538            3 
   38000    1.1999768   -6.8727102    10.291355  0.022568761  0.032465347            2 
   39000    1.2207943   -6.9122153    10.690022  0.022841928  0.032429178            4 
   40000    1.1902133    -6.873266    11.174253  0.023279694  0.032429258            4 
   41000    1.1859619   -6.8627465    11.640671    0.0236599  0.032491874            2 
   42000    1.1846968   -6.9185928    12.123938  0.024055432  0.032576141            2 
   43000    1.2010947   -6.8803815    12.410635  0.024051618   0.03264007            1 
   44000      1.17279   -6.9110911    12.807564  0.024256749  0.032677757            1 
   45000    1.2015756   -6.8820105    13.169035  0.024387102  0.032712584            2 
   46000    1.1926239   -6.9088012    13.368194  0.024217742  0.032680336            5 
   47000    1.1722739     -6.93196    13.774804   0.02442341  0.032630228            1 
   48000    1.1945102   -6.9160216    14.084496  0.024452249  0.032564062            2 
   49000    1.2191073   -6.9223318    14.524699   0.02470187   0.03251372            3 
   50000    1.1860802   -6.9284016    14.935777  0.024892961  0.032472918            2 
   51000    1.1958591   -6.9279558    15.268796  0.024949013  0.032439436            2 
   52000     1.177247   -6.8784155    15.627968   0.02504482  0.032396226            3 
   53000    1.1933141   -6.9091052    15.885738  0.024977575  0.032325885            2 
   54000    1.1733984   -6.9236364    16.182236  0.024972586  0.032256771            2 
   55000    1.1784464   -6.9189129    16.456014  0.024933354   0.03214896            3 
   56000    1.1612167    -6.918866    16.658736  0.024789785  0.032021404            2 
   57000    1.1732002   -6.9328765    17.012035  0.024871396  0.031876329            2 
   58000     1.170448   -6.9677028    17.232278   0.02475902  0.031730017            2 
   59000     1.184401   -6.9400221    17.515231  0.024739027  0.031584269            2 
   60000    1.1545189   -6.9658573    17.898842  0.024859503  0.031442517            2 
   61000    1.1730457   -7.0069074    18.086047  0.024707715   0.03130075            8 
   62000    1.1821362   -6.9918154    18.485098  0.024845561   0.03115823            2 
   63000    1.1595899   -6.9802161    18.908329  0.025011016  0.031036648            1 
   64000    1.1709173   -6.9681783    19.265971    0.0250859  0.030928478            5 
   65000     1.172461   -6.9603161    19.622805  0.025157441  0.030827131            3 
   66000    1.1722106   -7.0042929    19.852109  0.025065794  0.030726991            3 
   67000    1.1793569    -6.927992    20.148004  0.025059706  0.030623908            1 
   68000    1.1451622   -7.0027323    20.388121  0.024985442  0.030515877            3 
   69000    1.1644421   -7.0008418    20.638536  0.024925767  0.030406061            2 
   70000    1.1492676    -7.003431    20.848384  0.024819504  0.030284136            4 
   71000    1.1475464   -6.9948366    21.182715  0.024862342   0.03015949            3 
   72000    1.1546532   -6.9459355    21.576098  0.024972336  0.030044188            3 
   73000    1.1535919   -6.9741523    21.973083  0.025083428  0.029948112            2 
   74000    1.1625939   -7.0392764    22.295151  0.025107152  0.029862215            2 
   75000    1.1509521   -7.0437158    22.538758  0.025043064   0.02977358            2 
   76000    1.1505603   -6.9906213    22.791861  0.024991076   0.02967455            5 
   77000    1.1541921   -7.0054563    23.183713  0.025090599  0.029581687            2 
   78000    1.1379732   -7.0496235    23.471345  0.025076223  0.029496938            2 
   79000    1.1367365     -7.04896    23.780699  0.025085126  0.029412896            4 
   80000    1.1391614   -7.0577591    24.087326  0.025090964  0.029331687            2 
   81000    1.1568487   -7.0665923    24.205898  0.024903187  0.029252849            2 
   82000    1.1305967    -7.087155     24.47343  0.024871371  0.029158797            2 
   83000    1.1513341   -7.0649917    24.778018  0.024877528  0.029059262            2 
   84000    1.1273996   -7.0680824    25.064157  0.024865235  0.028963583            3 
   85000    1.1601365   -7.0401121    25.412011  0.024913736  0.028873937            4 
   86000    1.1277774   -7.0457772    25.734322  0.024936358  0.028787411            2 
   87000    1.1325394   -7.0668249     25.97696  0.024882146  0.028706373            1 
   88000    1.1300322   -7.0544132    26.250432  0.024858364  0.028623839            3 
   89000    1.1266716   -7.0861113     26.44289   0.02475926  0.028542127            4 
   90000    1.1325566   -7.0932812    26.797852  0.024812826  0.028462713            3 
   91000    1.1357383   -7.0928605    26.956429  0.024685375   0.02838226            2 
   92000    1.1460981   -7.1528534    27.410753  0.024828581  0.028306961            2 
   93000    1.1060305   -7.1524976    27.675356  0.024798706  0.028231829            3 
   94000    1.1086018   -7.1006027    28.023888  0.024843872  0.028157012            1 
   95000    1.1140463   -7.1638929    28.074587  0.024626831   0.02807481            4 
   96000    1.0992547   -7.1168075    28.304572  0.024569941  0.027990399            6 
   97000    1.1356615   -7.1010507    28.660264   0.02462222  0.027910788            3 
   98000    1.1093404   -7.1014535    28.967325  0.024632079  0.027837131            3 
   99000    1.1114386   -7.0695433    29.347957  0.024703668  0.027761304            2 
  100000    1.0813641   -7.1366752    29.464303  0.024553586  0.027685054            2 
  101000    1.1082068   -7.1399304    29.699736  0.024504733  0.027605834            1 
  102000    1.1096587   -7.1400812    29.912068  0.024437964  0.027525041            4 
  103000    1.1198885   -7.1227687    29.953492  0.024234217  0.027444835            3 
  104000    1.1109362   -7.1376136    30.300941    0.0242796  0.027363726            8 
  105000    1.1178878   -7.1386816    30.648132  0.024323914  0.027285989            3 
  106000    1.0969519   -7.1407399    30.752595  0.024176568   0.02720378            4 
  107000    1.1015318   -7.1672249    30.995718  0.024139967  0.027119823            2 
  108000     1.087873   -7.1860423    31.249651  0.024112385  0.027040602            6 
  109000    1.1029633   -7.1681387    31.566212   0.02413319  0.026961908            1 
  110000    1.1152603   -7.1582928    31.920778  0.024182407  0.026888933            2 
  111000    1.0869712   -7.1670519    32.175905  0.024156085  0.026816835            4 
  112000    1.1131464   -7.1669407    32.347216  0.024067869  0.026745521            5 
  113000     1.091966   -7.2008464    32.712195  0.024124037  0.026672261            5 
  114000    1.0866456   -7.1879034    32.973504  0.024103439   0.02660234            2 
  115000    1.1004189      -7.1776    33.203898  0.024060796  0.026537048           11 
  116000    1.1137696    -7.177011    33.417341  0.024006711  0.026466903            2 
  117000    1.0837197   -7.2262025    33.424665  0.023806741  0.026392171            4 
  118000    1.0988679   -7.1937392    33.754459  0.023837894  0.026318809            4 
  119000    1.0821735   -7.2172356    33.873265  0.023720774  0.026240296            3 
  120000    1.0707813   -7.2498451    34.110184  0.023687628  0.026161543            2 
  121000     1.073453    -7.225952    34.152549  0.023521039  0.026086827            4 
  122000    1.0549213   -7.1710317    34.502989  0.023567616  0.026010087            2 
  123000     1.060113   -7.2671143    34.565591  0.023418422  0.025929949            4 
  124000    1.0737822   -7.2805534    34.684144  0.023309236  0.025846415            9 
  125000    1.0798262   -7.3047477    35.015509  0.023343673   0.02576684            4 
  126000    1.0732572   -7.2171585    35.305767  0.023350375  0.025689133            2 
  127000    1.0677381   -7.2155679    35.635217  0.023382688  0.025614132            4 
  128000    1.0740501   -7.2703158     35.92019  0.023385541  0.025539619            3 
  129000    1.0694767    -7.254454    36.238058  0.023409598  0.025472614            3 
  130000    1.0428269   -7.2423965    36.611115  0.023468663  0.025407712            3 
  131000    1.0767874   -7.2385256     36.54498  0.023247443  0.025338758            3 
  132000     1.064796   -7.2597031    36.765337   0.02321044  0.025268462            2 
  133000    1.0593106   -7.2781531    36.896583   0.02311816  0.025196498            2 
  134000    1.0797922   -7.3214826    37.254818  0.023168419  0.025127218            5 
  135000    1.0556364   -7.2924093    37.368573   0.02306702  0.025057448            2 
  136000    1.0610479   -7.2491412    37.686638  0.023092303  0.024992158            3 
  137000    1.0491187   -7.3115062    37.784236  0.022983112  0.024926189            3 
  138000    1.0358049   -7.2569143    37.976565  0.022932708  0.024856066            4 
  139000    1.0475648   -7.3387086    38.227757  0.022918319  0.024786356            3 
  140000    1.0548423   -7.3005878    38.494984  0.022913681  0.024719423           12 
  141000    1.0377514   -7.3369544    38.565126  0.022792628  0.024651777            6 
  142000     1.037941   -7.3615082    38.689565  0.022705143   0.02458416            6 
  143000     1.027444    -7.294394    39.130049  0.022803059  0.024518398            4 
  144000      1.02635   -7.2735454    39.439263  0.022823647  0.024455939            2 
  145000    1.0388647   -7.3396491    39.528141  0.022717323   0.02439302            3 
  146000    1.0293242   -7.3369808    39.694139  0.022656472  0.024329374            5 
  147000    1.0206779   -7.3443616    39.935172  0.022638987  0.024268273            4 
  148000    1.0388057   -7.3252014    40.190027   0.02262952  0.024207364            4 
  149000    1.0226623    -7.364701    40.619344  0.022717754  0.024150402            2 
  150000    1.0292786   -7.3720217    40.669549  0.022594194  0.024094669            3 
  151000    1.0302902   -7.3440368    40.859646  0.022549474  0.024036149            3 
  152000    1.0000512    -7.409798    41.133933  0.022551498  0.023979977            4 
  153000    1.0428238   -7.3565672    41.357284  0.022525754   0.02392556            4 
  154000    1.0065673   -7.3535524    41.516439  0.022465605  0.023868573            2 
  155000    1.0174432    -7.381527    41.497402  0.022310431    0.0238108            7 
  156000     1.008236   -7.3870879     41.75559  0.022305336   0.02374894            3 
  157000    1.0114838   -7.3733487    41.749191  0.022159868  0.023688824            5 
  158000      1.01737    -7.384713    41.809991  0.022051683  0.023626657            3 
  159000    1.0354255   -7.3704518    42.040046  0.022033567  0.023561475            2 
  160000    1.0144052   -7.3398652    42.154553  0.021955497   0.02349328            8 
  161000    1.0029834   -7.4090392    42.193597  0.021839336  0.023424298            5 
  162000    1.0265213    -7.428896    42.446439  0.021834588  0.023356968            4 
  163000    1.0053596   -7.4071863    42.439365  0.021697017  0.023286457            4 
  164000   0.99419127   -7.3672492    42.772394   0.02173394  0.023216763            6 
  165000    1.0040509    -7.459255    42.888071  0.021660642  0.023149879            4 
  166000    1.0163952   -7.4634848     42.94521   0.02155884  0.023082367            4 
  167000   0.99335335   -7.4066935    43.196722  0.021555251  0.023015431            3 
  168000   0.99505874   -7.4056468     43.53562  0.021595049  0.022949724            2 
  169000    0.9768807   -7.4524319    43.584034  0.021491141   0.02288505            6 
  170000    1.0016606   -7.4092304    43.828519  0.021484568  0.022819766            7 
  171000   0.98948581    -7.438872    43.914154   0.02140066  0.022753344            2 
  172000     1.007099   -7.4365913    43.995632  0.021315713  0.022686015            9 
  173000   0.98852603   -7.4775724    44.254196   0.02131705  0.022620146            4 
  174000   0.98678191   -7.4502144    44.353799  0.021242241   0.02255512            4 
  175000   0.97830236   -7.4923132    44.523878  0.021201846  0.022490257            6 
  176000   0.97269839   -7.4915222    44.530382  0.021084461  0.022424759            5 
  177000    1.0051606   -7.4979927    44.686456  0.021038821  0.022358002            4 
  178000   0.98672024   -7.5074058    44.778623  0.020963775  0.022290714            5 
  179000   0.99896048   -7.4914468    44.955657  0.020929077  0.022224037            3 
  180000   0.99100607    -7.504951    45.082367  0.020871466  0.022156823           10 
  181000   0.97987978   -7.5230829    45.225371  0.020821994   0.02208842            7 
  182000   0.97643409   -7.4654555    45.508805  0.020837365  0.022022287            4 
  183000    0.9583255   -7.4592054    45.554014  0.020744087  0.021956019            2 
  184000    1.0007307   -7.5091105    45.537866  0.020624033   0.02188823            3 
  185000   0.99851831   -7.4951988    45.637618  0.020557486  0.021820349            5 
  186000   0.96873664   -7.5056331    45.821306  0.020529259  0.021752321            9 
  187000   0.98088294   -7.5534342    45.842932  0.020429114  0.021684556            6 
  188000   0.94778344   -7.4878862    45.913906  0.020351908  0.021614933            9 
  189000   0.97221079   -7.5129269    46.161003  0.020353176  0.021547195            4 
  190000   0.96991574   -7.5361223    46.273603   0.02029544  0.021479582            4 
  191000   0.95807407   -7.5290333    46.274222  0.020189451  0.021411281            2 
  192000   0.95374536   -7.5464834    46.394719  0.020136597  0.021342617            3 
  193000   0.96418238   -7.5555438    46.497138  0.020076484  0.021274476            2 
  194000    0.9499352   -7.5526058    46.660657  0.020043237  0.021206675            9 
  195000   0.94779849   -7.5803071    46.766873  0.019985843  0.021138633           12 
  196000   0.95958978   -7.5887868    46.949752  0.019961629  0.021071765            5 
  197000    0.9564354   -7.5462373    47.300088  0.020008497  0.021006105            4 
  198000    0.9479515   -7.5967191    47.445694  0.019968726  0.020942416            6 
  199000   0.95840841   -7.5733132    47.609598  0.019937018  0.020879753            2 
  200000   0.92721545   -7.5950156    47.817456   0.01992394  0.020818064            5 
  201000   0.93584207   -7.5791796    48.087809  0.019936902  0.020757624            2 
  202000   0.96136477   -7.6245654     47.89518  0.019758738  0.020696196            8 
  203000   0.92601146   -7.6346346    47.907338  0.019666395  0.020633306            4 
  204000   0.92861722   -7.6046428    47.887603  0.019561929  0.020569347            5 
  205000   0.93531001   -7.6144086    48.094494  0.019550607  0.020504681            9 
  206000   0.94810986    -7.637768    48.160908  0.019482568  0.020439542            7 
  207000   0.93979668   -7.6655905    48.356892  0.019467348  0.020375802            4 
  208000   0.92930891   -7.6503462    48.397427  0.019389995   0.02031322            4 
  209000    0.9223438   -7.6615029    48.451972  0.019318968   0.02024941            6 
  210000    0.9265552   -7.6040338    48.463825  0.019231676  0.020184934            6 
  211000   0.93293046   -7.6292444     48.67032  0.019222085  0.020120334            8 
  212000   0.92288098   -7.6654441    48.642216  0.019120368  0.020055239           12 
  213000   0.91623134   -7.6703893    48.591313  0.019010686  0.019988498            8 
  214000   0.94469016   -7.6798398    48.567376  0.018912529  0.019921056            8 
  215000   0.94197647   -7.6479841    48.905217   0.01895551   0.01985403           10 
  216000   0.91059753   -7.6683475     49.08047  0.018935367  0.019789054            8 
  217000   0.91712343   -7.6080221    49.173872  0.018883975  0.019724521            5 
  218000   0.91153433   -7.6258659    49.229768  0.018818719  0.019660899            6 
  219000   0.93543577   -7.6481549    49.173012  0.018711192  0.019596987            7 
  220000   0.90696058   -7.6634223    49.215673    0.0186423  0.019532237           21 
  221000    0.9078694   -7.6998376    49.372509  0.018617085  0.019467668            7 
  222000   0.87625867    -7.733042    49.317784  0.018512682  0.019402534            6 
  223000   0.92139068   -7.7235688    49.365565   0.01844752  0.019336455            7 
  224000   0.91854442   -7.6872992    49.431754  0.018389789  0.019270131            9 
  225000   0.90935172   -7.7037547    49.661609  0.018393188   0.01920366           24 
  226000   0.91159145   -7.7378292    49.447979  0.018233031  0.019137952            5 
  227000   0.90417084   -7.6799432    49.760881  0.018267578  0.019071898            9 
  228000   0.88939677   -7.7296262     49.52369  0.018100764  0.019005406            3 
  229000   0.90774291   -7.7461664    49.617425  0.018055831  0.018937865            9 
  230000   0.90505619   -7.7791936    49.688679  0.018003145  0.018871689           13 
  231000   0.90295505   -7.7500607    49.860497  0.017987192  0.018804625            8 
  232000   0.91231343    -7.751919    49.890591  0.017920471  0.018738602           16 
  233000    0.8625356   -7.7660057    49.877237  0.017838783  0.018672113            8 
  234000    0.8843452   -7.7215871    50.019904  0.017813356  0.018605469           15 
  235000   0.90296032   -7.7641807    49.964772  0.017718004  0.018537999            6 
  236000   0.88350942   -7.7938106    49.953119  0.017638813  0.018470301            4 
  237000   0.88343575   -7.7959833    49.915299   0.01755109  0.018401549            6 
  238000   0.89018726   -7.8350086    49.833586  0.017448735  0.018333338            6 
  239000   0.87759094   -7.7845815    50.009396  0.017437028  0.018264799            6 
  240000   0.87081246   -7.8183545    50.112473  0.017400164  0.018196899            8 
  241000   0.89469826   -7.8024584    50.184066   0.01735272  0.018129742           16 
  242000   0.88575754   -7.8491249    49.935013  0.017195252  0.018061597           20 
  243000   0.87298643   -7.8111755    50.163312  0.017202782  0.017992626           10 
  244000   0.89292789   -7.8274563    50.071904   0.01710106  0.017924364           12 
  245000    0.8800349   -7.8544581    50.133382  0.017052171  0.017854819            9 
  246000   0.87992668   -7.8530868    50.213866  0.017010117  0.017786262           35 
  247000   0.88266212   -7.8245389    50.229915  0.016946665  0.017718421            9 
  248000   0.84873798   -7.7959997    50.361268  0.016922469  0.017651492            9 
  249000   0.89746717   -7.8387275    50.407069  0.016869836  0.017584923            4 
  250000   0.87018016   -7.8760748    50.367991   0.01678933  0.017518152            7 
  251000   0.84370581    -7.862955    50.273991  0.016691232  0.017450852            4 
  252000   0.87397349   -7.8488568    50.419376  0.016673074  0.017383648           13 
  253000   0.87342347   -7.8732691    50.572459  0.016657595   0.01731668            8 
  254000   0.86574185   -7.8880035    50.474067  0.016559733  0.017250039            9 
  255000   0.86302267   -7.8252393    50.617854  0.016541782  0.017183817            8 
  256000   0.85967574   -7.8408088    50.529807  0.016448505  0.017117551            6 
  257000   0.85437045    -7.874724    50.592143  0.016404716  0.017050966           26 
  258000   0.85815412   -7.9102625    50.485927  0.016306824  0.016984203           14 
  259000   0.86902793    -7.907937    50.494316  0.016246562  0.016917284           10 
  260000   0.85674086   -7.9060539    50.579058  0.016211237  0.016850479           10 
  261000   0.85787613   -7.9110927    50.578309  0.016148885  0.016784084            8 
  262000   0.84621264   -7.9019429    50.685333  0.016121289  0.016717753           17 
  263000   0.83684215    -7.927947     50.76353  0.016084769  0.016652367           10 
  264000   0.84414091   -7.9177308    50.852979  0.016052077  0.016587562           14 
  265000   0.84678533   -7.8718574    51.124543    0.0160769  0.016522994           10 
  266000   0.85516384   -7.9156792    50.914602   0.01595069  0.016458736           16 
  267000   0.84593321   -7.9188262    50.964087  0.015906394  0.016394483           10 
  268000   0.82077117   -7.9647467    50.767854  0.015786024  0.016329994           17 
  269000   0.83554809    -7.954856    50.811883   0.01574098  0.016265789           21 
  270000   0.81924003   -7.9295776    51.054534  0.015757572  0.016201444           27 
  271000    0.8369056   -7.9594667    51.093609  0.015711442  0.016137951           42 
  272000   0.85844035   -7.9375692     51.04346  0.015638315   0.01607493            8 
  273000   0.85226124   -7.9790882    51.118863  0.015604049   0.01601209           29 
  274000    0.7995048   -7.9539621    51.257859  0.015589373  0.015949551           19 
  275000   0.82880599   -7.9620534    51.050446  0.015469832  0.015887092           12 
  276000   0.82881706   -7.9224473    51.382104   0.01551392  0.015825398           22 
  277000   0.82266439   -7.9789985    50.999925  0.015342938  0.015763512           24 
  278000   0.82001837   -7.9797449    51.250255  0.015362786  0.015701811           36 
  279000   0.83294181   -7.9741161    51.072875  0.015254742   0.01563993           28 
  280000   0.80236202   -8.0038864    51.142823  0.015221078  0.015578344           16 
  281000    0.8255038   -7.9691403    51.285705  0.015209284  0.015517085           35 
  282000   0.83019806   -7.9984768    51.268846  0.015150368  0.015456173           43 
  283000   0.80778902   -8.0292512    51.355664  0.015122398  0.015394989           60 
  284000   0.81377798    -8.018327    51.291473  0.015050315  0.015334346           78 
  285000   0.80488748   -8.0542257    51.381276  0.015023765  0.015274055           50 
  286000   0.80622424   -8.0541015    51.203799  0.014919522  0.015214026           31 
  287000   0.82007906   -8.0450663     51.20955  0.014869207  0.015154129           38 
  288000   0.80740778   -8.0367005    51.345995  0.014857059  0.015094406           21 
  289000   0.81457226   -8.0421726    51.405975  0.014822945  0.015035019           40 
  290000   0.81116134   -8.0405273    51.400275  0.014770194  0.014975382           36 
  291000   0.79756921   -8.1012796    51.253631  0.014677443  0.014916234           42 
  292000   0.79881442   -8.0968977    51.320697  0.014646318  0.014857222           51 
  293000    0.8155484   -8.0944967    51.426005  0.014626281  0.014798534           60 
  294000   0.79980317   -8.1060237    51.437157  0.014579693  0.014739722           50 
  295000   0.80539287   -8.1191964    51.439034    0.0145308  0.014681138           31 
  296000   0.82598436   -8.1171185    51.419264  0.014476144  0.014622564           42 
  297000   0.78925875   -8.1223846    51.520101  0.014455696  0.014564226           28 
  298000   0.80474047   -8.1219212    51.463622  0.014391393  0.014506174           37 
  299000   0.79493519   -8.1169162    51.466532  0.014344072  0.014448264           26 
  300000   0.79507502   -8.1005928    51.456742  0.014293539  0.014390515           35 
  301000    0.8002933   -8.1415058    51.368076  0.014221505  0.014333332           60 
  302000   0.78803806   -8.1204954    51.485796  0.014206897  0.014276361           70 
  303000   0.77817898   -8.1076136    51.468657  0.014155296   0.01421925           48 
  304000   0.79243583   -8.1152524    51.564904  0.014135116  0.014162371           86 
  305000   0.77391883   -8.1169923     51.53452   0.01408047  0.014105771           63 
  306000   0.76800743   -8.1212991     51.45466  0.014012707  0.014049535           71 
  307000   0.77945087   -8.1569493    51.524154  0.013985927  0.013993492           78 
  308000   0.76907084   -8.1403279    51.525641   0.01394092  0.013937774           45 
  309000   0.78665368   -8.1432092     51.62168  0.013921704  0.013882397           97 
  310000   0.75619391   -8.1818945    51.653241   0.01388528  0.013827216           80 
  311000   0.77286092   -8.1492847    51.616341  0.013830745  0.013772748          120 
  312000   0.77224673   -8.1439189    51.670064  0.013800765  0.013718433           71 
  313000   0.75597502   -8.1720667    51.631261  0.013746342  0.013664249           95 
  314000   0.77445227   -8.1499244     51.62944  0.013702081  0.013610273          124 
  315000   0.79323449    -8.195379    51.650988  0.013664283  0.013556374           98 
  316000   0.74469962   -8.1837552    51.592041  0.013605496  0.013502365           96 
  317000    0.7626451   -8.1985021     51.62825  0.013572095  0.013448686          127 
  318000   0.76493546   -8.1805225    51.572704  0.013514859  0.013394956          120 
  319000   0.77054116   -8.1994875    51.637036  0.013489299  0.013341594          121 
  320000   0.74921459   -8.2271564    51.651592  0.013450935  0.013288334           91 
  321000   0.75524845   -8.2332499    51.476853  0.013363669  0.013235272           98 
  322000   0.74954033   -8.2034694    51.541652  0.013338937   0.01318231          107 
  323000   0.74380401   -8.2146873    51.530335   0.01329472  0.013129525          109 
  324000   0.74031581   -8.2487498    51.444615   0.01323164  0.013076562          146 
  325000   0.74509152    -8.246513    51.589627  0.013228109  0.013024152          135 
  326000   0.74392085   -8.2369817    51.554913  0.013178659  0.012971988          173 
  327000   0.75075274   -8.2219643    51.611819  0.013152859  0.012919713          169 
  328000   0.76572556   -8.2366662    51.620178  0.013114882  0.012867964          141 
  329000   0.73643544    -8.242006    51.515254  0.013048443  0.012816289          203 
  330000   0.73709773    -8.260207    51.512239  0.013008141  0.012764625          206 
  331000   0.73171074    -8.263339    51.573929  0.012984373  0.012713615          152 
  332000   0.74270208   -8.2256754    51.678996  0.012971635  0.012662897          177 
  333000   0.72465929    -8.285844    51.525462   0.01289426   0.01261242          188 
  334000   0.74127478   -8.2684629    51.653823   0.01288768  0.012561933          166 
  335000   0.70969863   -8.2970049    51.473195  0.012804277  0.012511614          180 
  336000    0.7298915   -8.2697133    51.610996  0.012800346  0.012461465          139 
  337000   0.72425645   -8.2686588    51.662503    0.0127751  0.012411516          200 
  338000   0.73123993   -8.2714745    51.591845  0.012719883  0.012361661          188 
  339000   0.73147484   -8.3118734    51.528298   0.01266674  0.012312382          190 
  340000   0.72837236   -8.2994928    51.499585  0.012622447  0.012263193          236 
  341000   0.72792159   -8.2986411    51.408163   0.01256309  0.012214093          208 
  342000    0.7166546   -8.3207647    51.548413  0.012560529  0.012164842          204 
  343000   0.72430286   -8.3103865    51.563343  0.012527537  0.012116132          232 
  344000   0.70829166     -8.35454    51.462901  0.012466788  0.012067601          255 
  345000   0.72355688   -8.3366681    51.456651  0.012429143  0.012019253          271 
  346000   0.69834236   -8.3341115    51.462395  0.012394604  0.011971094          217 
  347000   0.72164847   -8.3254306    51.481312  0.012363427  0.011923223          238 
  348000   0.69525098   -8.3493106    51.414678  0.012311944  0.011875412          264 
  349000    0.7105888   -8.3385815    51.449819  0.012285057  0.011827807          237 
  350000   0.71988163   -8.3618368    51.344825  0.012224958  0.011780311          230 
  351000   0.71898739   -8.3500498    51.519822  0.012231677  0.011733151          224 
  352000   0.71721445   -8.3546423    51.391712  0.012166598  0.011686165          256 
  353000   0.70792327    -8.359579    51.317902  0.012114708  0.011639389          306 
  354000   0.70265623    -8.363238    51.518668  0.012127747  0.011592993          305 
  355000   0.69330052   -8.3465106     51.52557  0.012095204  0.011546847          279 
  356000   0.71121021   -8.3818392    51.454291  0.012044544  0.011500891          246 
  357000   0.69963764   -8.3681904    51.557747  0.012034955  0.011455297          273 
  358000   0.70352388   -8.3927564    51.525628  0.011993861  0.011409774          290 
  359000   0.68760785   -8.3706358    51.517702  0.011958612  0.011364503          374 
  360000   0.70280958   -8.3806834    51.407846  0.011899964  0.011319257          346 
  361000    0.6820405   -8.3673259    51.346062  0.011852738  0.011274136          277 
  362000   0.70855278   -8.4387437    51.365776  0.011824534  0.011229191          300 
  363000   0.66352941   -8.4258237    51.463349  0.011814359  0.011184403          274 
  364000   0.68243607   -8.4161728    51.410074  0.011769706  0.011139945          264 
  365000   0.69475445   -8.4135185    51.521264  0.011762846  0.011095718          292 
  366000   0.68270122   -8.4368459    51.368132   0.01169584  0.011051512          269 
  367000   0.67695336    -8.421892    51.405576  0.011672474  0.011007444          278 
  368000   0.67519838   -8.4263895    51.342631  0.011626502  0.010963568          323 
  369000   0.67842854   -8.4094617    51.392472  0.011606249   0.01091982          329 
  370000   0.66516772   -8.4317082    51.279289  0.011549389  0.010876161          336 
  371000   0.67097478   -8.4346732    51.224791  0.011506018  0.010832657          344 
  372000   0.67454406   -8.4602609    51.245328  0.011479688  0.010789362          309 
  373000   0.66545654   -8.4297613    51.186541  0.011435778  0.010746143          361 
  374000   0.68179823   -8.4686675    51.238672  0.011416816  0.010703222          344 
  375000   0.67414892   -8.4435193    51.214311  0.011380958  0.010660356          278 
  376000   0.66499595   -8.4542824    51.399863  0.011391814  0.010617862          356 
  377000   0.67973865   -8.4481104    51.290237  0.011337365  0.010575512          324 
  378000   0.67029985   -8.4606614    51.209593  0.011289593  0.010533402          364 
  379000   0.64665432   -8.4670801    51.240706  0.011266646   0.01049135          332 
  380000   0.65208043   -8.4676175    51.289866  0.011247778  0.010449527          333 
  381000   0.65576262   -8.4547625    51.232352  0.011205676  0.010408035          350 
  382000   0.67590306   -8.4808586    51.228002  0.011175393  0.010366652          426 
  383000   0.65014017   -8.4609029    51.289761  0.011159652  0.010325611          362 
  384000   0.66835375   -8.4957631    51.203102  0.011111784  0.010284653          343 
  385000   0.63597473   -8.4762968    51.241623   0.01109126  0.010243821          342 
  386000   0.65655294   -8.4898126    51.223843  0.011058688  0.010203196          361 
  387000   0.66183813   -8.5165424     51.15466  0.011015215  0.010162616          427 
  388000   0.65456696   -8.4897682    51.119143  0.010979197  0.010122269          332 
  389000   0.63470483   -8.4989573    51.096533   0.01094613  0.010082032          410 
  390000   0.66404396     -8.50008    51.119735   0.01092302  0.010042028          395 
  391000   0.64392453   -8.5139604    51.045854  0.010879338  0.010002208          427 
  392000   0.63869074   -8.5083166     51.20684  0.010885808 0.0099625781          486 
  393000   0.65789944   -8.5280172    51.020376   0.01081857 0.0099232151          387 
  394000   0.64567783   -8.5187397    51.122849  0.010812785 0.0098839847          438 
  395000   0.65346896   -8.5094753    51.180237  0.010797518 0.0098450377          346 
  396000   0.61983823   -8.5151337    51.155159  0.010764975 0.0098061874          436 
  397000   0.63795478   -8.5364516    51.100507  0.010726387 0.0097674582          345 
  398000   0.63814631   -8.5572251    51.105418  0.010700464 0.0097289297          455 
  399000   0.63788217   -8.5381704    51.110568  0.010674722 0.0096906549          442 
  400000    0.6298354   -8.5428664    51.046079    0.0106346 0.0096524497          259 
  401000   0.62325355   -8.5481998    51.141395  0.010627888 0.0096144101          408 
  402000   0.62028823   -8.5438929     51.10188  0.010593259 0.0095766381          335 
  403000   0.61900959   -8.5711436    51.013673  0.010548733 0.0095390197          394 
  404000   0.62140592    -8.550209    51.153481  0.010551461 0.0095015658          350 
  405000   0.62181978    -8.571425    50.940657  0.010481617 0.0094643828          507 
  406000   0.62419648   -8.5583377    51.081179  0.010484643 0.0094273449          395 
  407000   0.61168017   -8.5579071    51.023557  0.010447084 0.0093905446          438 
  408000   0.60980836   -8.5613499    51.010961  0.010418905 0.0093538825          496 
  409000   0.62359607   -8.5673539    51.001149  0.010391432 0.0093173605          460 
  410000   0.61162468   -8.6020892    50.994798  0.010364796 0.0092810302          454 
  411000   0.59954257   -8.5801669    50.905715  0.010321516 0.0092448125          288 
  412000   0.60113582   -8.5800645    51.024069  0.010320402 0.0092087919          463 
  413000   0.61433443   -8.5712261    50.999762  0.010290509 0.0091729846          403 
  414000    0.5981439   -8.5983808    50.905358   0.01024665  0.009137347          423 
  415000   0.60043637   -8.5985113    51.004586  0.010241885 0.0091017621          318 
  416000   0.61918775   -8.6059384    50.908678  0.010198052 0.0090664673          423 
  417000   0.61128332   -8.6094204    50.982635  0.010188376 0.0090313234          447 
  418000    0.6059145   -8.5994045    50.945502  0.010156599 0.0089962808          379 
  419000    0.5985068   -8.6194019    50.967818  0.010136797 0.0089614871          367 
  420000   0.61588923   -8.5973133    50.904712  0.010100141   0.00892688          376 
  421000    0.5922082   -8.6139409     50.90073  0.010075362 0.0088924498          398 
  422000   0.60092323   -8.6193865    50.931147  0.010057493 0.0088581734          417 
  423000   0.59412493   -8.6201979    50.938619  0.010035189 0.0088241266          442 
  424000   0.58650593   -8.6226734    51.030934  0.010029665 0.0087901279          423 
  425000   0.58659782   -8.6180723    50.917036 0.0099837326 0.0087562688          389 
  426000   0.57648943   -8.6161727    50.919217 0.0099607232 0.0087225644          357 
  427000   0.58560637   -8.6267298     50.86449 0.0099267154 0.0086890051          423 
  428000   0.58768155   -8.6179754    50.867616 0.0099041309 0.0086556275          463 
  429000   0.58928951    -8.636155    50.847018  0.009877043 0.0086223337          481 
  430000   0.56852659   -8.6297191    50.838829 0.0098524863 0.0085892526          437 
  431000   0.58291311   -8.6252419    50.874987 0.0098366177 0.0085562717          353 
  432000   0.57723554   -8.6606367    50.793533 0.0097981352 0.0085234472          434 
  433000   0.56442707   -8.6304604    50.833765 0.0097832495 0.0084908233          403 
  434000   0.57101486   -8.6227005    50.786321 0.0097515977 0.0084583471          409 
  435000   0.57623637   -8.6451468    50.873069 0.0097457987 0.0084260884          491 
  436000   0.57568386   -8.6514597    50.800013 0.0097094827 0.0083939566          409 
  437000   0.56857548   -8.6503765    50.705767  0.009669292 0.0083619151          399 
  438000   0.56315338   -8.6630571    50.843579 0.0096734359 0.0083301175          477 
  439000   0.56084549    -8.654009    50.775011 0.0096383849 0.0082984791          409 
  440000   0.56355426   -8.6594192    50.802913 0.0096217638 0.0082669333          459 
  441000   0.55920637   -8.6721489    50.713379 0.0095830269 0.0082355993          455 
  442000   0.56369395   -8.6480452    50.775827 0.0095731198 0.0082043854          424 
  443000   0.55507208   -8.6915612    50.715621 0.0095401846 0.0081733026          466 
  444000   0.55441127    -8.677327    50.837862 0.0095416407 0.0081424265          508 
  445000   0.55757743   -8.6680627    50.800565 0.0095132144 0.0081116701          427 
  446000   0.54716707   -8.6896419    50.748499  0.009482156 0.0080810488          369 
  447000   0.55087717   -8.6947488    50.716164 0.0094549151  0.008050559          474 
  448000     0.547746   -8.6944975    50.760826 0.0094421178 0.0080202348          442 
  449000    0.5447578   -8.6873157    50.651404 0.0094007802 0.0079900329          366 
  450000    0.5633338   -8.6979542    50.680348 0.0093852496 0.0079599968          456 
  451000   0.55406154    -8.689469    50.676394 0.0093637091 0.0079300828          465 
  452000   0.54061178   -8.7016615    50.649177  0.009337975  0.007900304          385 
  453000   0.55087335   -8.6906562    50.665584 0.0093203797  0.007870688          366 
  454000   0.55037683   -8.6990496    50.683644 0.0093031652 0.0078412303          431 
  455000   0.53292624   -8.6927184    50.682119 0.0092824394 0.0078118436          397 
  456000   0.53150659   -8.7096764    50.628069 0.0092522056 0.0077826573          365 
  457000   0.52951635   -8.7019994    50.749948 0.0092541846 0.0077535458          385 
  458000   0.53555357   -8.7200987    50.594394 0.0092056757 0.0077246175          499 
  459000    0.5246483   -8.7116603    50.725762 0.0092094701 0.0076958957          404 
  460000   0.52338915   -8.7115818    50.659447  0.009177436 0.0076672885          477 
  461000   0.52819023   -8.7182767    50.579962 0.0091431601 0.0076387688          518 
  462000   0.53435945   -8.7177223    50.630757  0.009132532 0.0076103725          477 
  463000   0.53333063    -8.735727    50.542354 0.0090968959 0.0075820843          329 
  464000   0.53438748   -8.7206212     50.60426 0.0090884087 0.0075539584          530 
  465000   0.51890936   -8.7410348    50.612485 0.0090703379 0.0075259412          313 
  466000   0.52546892   -8.7402741    50.627405 0.0090535417 0.0074980737          537 
  467000   0.52396408   -8.7528149    50.572194 0.0090243029 0.0074703572          434 
  468000   0.52923171   -8.7341039    50.572213 0.0090050238 0.0074427924          467 
  469000    0.5163723   -8.7450685    50.627905 0.0089957187 0.0074153408          383 
  470000   0.51905308   -8.7336958    50.637254 0.0089782365 0.0073880467          379 
  471000   0.51153121   -8.7326194    50.550208 0.0089437735 0.0073608722          561 
  472000   0.50383835   -8.7345077    50.475739  0.008911677 0.0073338327          415 
  473000   0.50784767   -8.7612811    50.531338 0.0089026317 0.0073069198          585 
  474000   0.51470202   -8.7413541    50.567692 0.0088902411 0.0072801468          547 
  475000   0.50241291   -8.7722799    50.524607 0.0088639661 0.0072534661          492 
  476000   0.50930762    -8.765177    50.546387 0.0088491575 0.0072269419          568 
  477000   0.50650556   -8.7794915    50.575337 0.0088356633 0.0072005699          480 
  478000   0.49565371   -8.7784515    50.487304 0.0088018312  0.007174292          453 
  479000   0.50424778   -8.7722409    50.540305 0.0087926766 0.0071481197          502 
  480000    0.5056824   -8.7634253    50.428842 0.0087550073 0.0071220936          527 
  481000   0.49939562   -8.7724577    50.451051 0.0087406534  0.007096163          606 
  482000   0.49785311   -8.7624417     50.49028 0.0087293015 0.0070703487          552 
  483000   0.49458328   -8.7702986    50.497062 0.0087123985 0.0070446827          470 
  484000   0.49687991   -8.8044828    50.464382  0.008688771 0.0070191023          573 
  485000   0.48162204   -8.8008098    50.484575 0.0086743256 0.0069936627          533 
  486000   0.48510518   -8.7772972     50.56737 0.0086706738 0.0069683304          519 
  487000    0.4884003   -8.8055035    50.434376 0.0086301123 0.0069431191          506 
  488000   0.49769546   -8.7989846    50.444553 0.0086141654 0.0069180076          382 
  489000    0.4882466   -8.8041912    50.472134 0.0086012497 0.0068930571          521 
  490000   0.48814122   -8.7990836    50.447583 0.0085795208 0.0068682358          393 
  491000   0.48380354   -8.7832365    50.445771 0.0085617398 0.0068435462          496 
  492000   0.48234133   -8.8114598    50.428218 0.0085413648 0.0068189664          515 
  493000   0.48963813   -8.8018961    50.504762 0.0085369781  0.006794541          472 
  494000   0.48564002   -8.8097447    50.424923 0.0085062286 0.0067702173          484 
  495000    0.4932438   -8.8138065    50.414824  0.008487344 0.0067459947          493 
  496000   0.47847459   -8.8124593    50.441102 0.0084746475 0.0067218559          488 
  497000    0.4823218   -8.8134876     50.38259  0.008447785 0.0066978101          532 
  498000   0.48009863   -8.8250003    50.496717 0.0084499191 0.0066738989          534 
  499000   0.47240359   -8.8328636     50.39976 0.0084167936 0.0066501233          524 
  500000   0.46727226   -8.8147856    50.375253 0.0083958756 0.0066264333          453 
  501000   0.45774577   -8.8467961    50.388245 0.0083812783 0.0066028587          514 
  502000    0.4658897   -8.8255468    50.405481 0.0083674436 0.0065793943          469 
  503000   0.46567213   -8.8257413    50.446255 0.0083575638 0.0065560336          538 
  504000   0.46880506   -8.8164869    50.454002 0.0083422622 0.0065328227          565 
  505000   0.45981073    -8.827134     50.35659 0.0083096683   0.00650969          528 
  506000   0.45199659   -8.8463507      50.3438 0.0082911397  0.006486656          524 
  507000   0.44916592     -8.83729     50.26764 0.0082622682 0.0064637237          411 
  508000   0.45997717   -8.8318629    50.351992 0.0082598412   0.00644091          461 
  509000   0.45573793   -8.8351889    50.284715  0.008232599 0.0064181919          406 
  510000   0.45427333    -8.830003    50.334671 0.0082246194 0.0063956185          512 
  511000   0.45167019   -8.8539191     50.28679 0.0082007159 0.0063731409          463 
  512000   0.44794671   -8.8521295    50.326513 0.0081911642 0.0063507658          507 
Loop time of 1303.59 on 48 procs for 500000 steps with 4000 atoms

Performance: 66278.318 tau/day, 383.555 timesteps/s
99.4% CPU use with 48 MPI tasks x no OpenMP threads

MPI task timing breakdown:
Section |  min time  |  avg time  |  max time  |%varavg| %total
---------------------------------------------------------------
Pair    | 91.938     | 99.695     | 105.47     |  35.0 |  7.65
Neigh   | 8.9744     | 9.4052     | 9.9435     |   7.6 |  0.72
Comm    | 82.69      | 89.519     | 96.78      |  36.1 |  6.87
Output  | 1.1277     | 1.1285     | 1.1502     |   0.3 |  0.09
Modify  | 1087.9     | 1091.5     | 1096.5     |   6.6 | 83.73
Other   |            | 12.37      |            |       |  0.95

Nlocal:        83.3333 ave          88 max          78 min
Histogram: 2 4 2 5 8 5 3 7 4 8
Nghost:        2400.27 ave        2421 max        2382 min
Histogram: 3 3 9 4 6 7 7 6 2 1
Neighs:        16557.8 ave       19504 max       14157 min
Histogram: 3 2 12 5 4 8 6 6 1 1
FullNghs:      33114.8 ave       35267 max       30823 min
Histogram: 4 2 4 7 6 6 6 5 3 5

Total # of neighbors = 1589510
Ave neighs/atom = 397.37750
Neighbor list builds = 26607
Dangerous builds = 0

#clear
#
#next RN
#
#jump SELF
Total wall time: 0:21:47
