
units lj                  # Use reduced LJ style units
atom_style atomic         # Uncharged point particles
atom_modify map hash      # Needed for indexing of clusters etc
                          # Used to be able to find where atoms are in relation to each other.

lattice fcc 1.0 spacing 1 1 1
Lattice spacing in x,y,z = 1.5874011 1.5874011 1.5874011
region box block 0 10 0 10 0 10 units lattice
create_box 2 box
Created orthogonal box = (0.0000000 0.0000000 0.0000000) to (15.874011 15.874011 15.874011)
  3 by 4 by 4 MPI processor grid
create_atoms 1 box
Created 4000 atoms
  using lattice units in orthogonal box = (0.0000000 0.0000000 0.0000000) to (15.874011 15.874011 15.874011)
  create_atoms CPU = 0.002 seconds
set type 1 type/fraction 2 0.7 78393
Setting atom values ...
  2825 settings made for type/fraction
mass 1 1.0
mass 2 1.0
pair_style lj/cut  3.5
pair_modify tail  yes
pair_coeff 1  1  1.0  1.0   # Intearaction between 1 and 1 set with epsilon = 1 and sigma = 1
pair_coeff 1  2  1.5  0.8
pair_coeff 2  2  0.5  0.88

write_data data.0
System init for write_data ...
Neighbor list info ...
  update every 1 steps, delay 10 steps, check yes
  max neighbors/atom: 2000, page size: 100000
  master list distance cutoff = 3.8
  ghost atom cutoff = 3.8
  binsize = 1.9, bins = 9 9 9
  1 neighbor lists, perpetual/occasional/extra = 1 0 0
  (1) pair lj/cut, perpetual
      attributes: half, newton on
      pair build: half/bin/atomonly/newton
      stencil: half/bin/3d
      bin: standard
WARNING: Not all mixed pair coeffs generated from mixing. Use write_data with 'pair ij' option to store all pair coeffs. (../write_data.cpp:312)


#############################
#   M E L T   S Y S T E M   #
#############################

velocity all create 2.4 8172548 mom yes dist gaussian # Assign velocities
                                                    # Temperature 2.4, random number seed, zero linear momentum
                                                                                # Gaussian distribution

timestep 0.002   # simulation timestep
thermo 1000       # output thermodynamic data every 1000 steps bf 100

# Define a fix  in this case with index 1 applied to all
# particles in the simulation. This fix is for simulations
# in the anisotropic NPT ensemble. Note that we use the MTK
# correction.
fix 1 all npt temp 2.4 2.4 0.1 iso 5.68 5.68 0.5 mtk yes tchain 5 pchain 5 # Use NPT ensemble
                                                                         # Set temperature and pressure and damping
                                                                         # Numbers of thermostats in chain and in barostat
run 10000          # run for 10000 steps
Per MPI rank memory allocation (min/avg/max) = 3.642 | 3.644 | 3.648 Mbytes
Step Temp E_pair E_mol TotEng Press Volume 
       0          2.4   -4.1690742            0  -0.56997417    -3.744831         4000 
    1000    2.3612016   -3.8018422            0  -0.26092527    5.6575696    3640.4447 
    2000    2.3756992   -3.7420385            0  -0.17938064    5.5128942    3701.4507 
    3000    2.4439055   -3.7427902            0  -0.07784837    5.5879482    3693.7764 
    4000    2.4142202   -3.7977232            0  -0.17729824    5.8921846    3624.1556 
    5000    2.3682475   -3.8336714            0  -0.28218827    5.4709871    3656.2547 
    6000    2.3659578   -3.8141194            0   -0.2660699    5.9245594    3612.4983 
    7000    2.3907483   -3.8031762            0  -0.21795037    5.4728635    3665.4981 
    8000    2.4619496   -3.7875041            0 -0.095502985    5.8957873     3647.643 
    9000    2.4072274   -3.7707959            0  -0.16085747    6.0768249    3636.4406 
   10000     2.394524    -3.803857            0  -0.21296889    5.2448219    3687.1675 
Loop time of 2.62012 on 48 procs for 10000 steps with 4000 atoms

Performance: 659510.992 tau/day, 3816.615 timesteps/s
99.6% CPU use with 48 MPI tasks x no OpenMP threads

MPI task timing breakdown:
Section |  min time  |  avg time  |  max time  |%varavg| %total
---------------------------------------------------------------
Pair    | 1.1795     | 1.2575     | 1.3878     |   3.4 | 47.99
Neigh   | 0.21525    | 0.22358    | 0.25208    |   1.4 |  8.53
Comm    | 0.72994    | 0.88296    | 0.96447    |   4.8 | 33.70
Output  | 0.00024557 | 0.00025116 | 0.00032306 |   0.0 |  0.01
Modify  | 0.21024    | 0.24026    | 0.27474    |   3.4 |  9.17
Other   |            | 0.01554    |            |       |  0.59

Nlocal:        83.3333 ave          93 max          73 min
Histogram: 1 2 2 7 7 11 9 3 5 1
Nghost:        1734.60 ave        1766 max        1709 min
Histogram: 2 5 8 6 6 12 2 3 2 2
Neighs:        10355.8 ave       11694 max        8736 min
Histogram: 2 1 3 4 9 10 6 6 4 3

Total # of neighbors = 497077
Ave neighs/atom = 124.26925
Neighbor list builds = 905
Dangerous builds = 218

# Equilibrate just above the melting temperature to avoid step fn in T

fix 1 all npt temp 1.25 1.25 0.1 iso 5.68 5.68 0.5 mtk yes tchain 5 pchain 5
run 2000
Per MPI rank memory allocation (min/avg/max) = 3.644 | 3.646 | 3.650 Mbytes
Step Temp E_pair E_mol TotEng Press Volume 
   10000     2.394524    -3.803857            0  -0.21296889    5.2448219    3687.1675 
   11000    1.2485675    -5.587844            0   -3.7154609    5.3985901     2802.441 
   12000    1.2611669    -5.616379            0   -3.7251015    5.7926785    2781.0596 
Loop time of 0.658983 on 48 procs for 2000 steps with 4000 atoms

Performance: 524444.676 tau/day, 3034.981 timesteps/s
99.7% CPU use with 48 MPI tasks x no OpenMP threads

MPI task timing breakdown:
Section |  min time  |  avg time  |  max time  |%varavg| %total
---------------------------------------------------------------
Pair    | 0.29828    | 0.32154    | 0.36808    |   2.6 | 48.79
Neigh   | 0.041268   | 0.043701   | 0.051037   |   0.9 |  6.63
Comm    | 0.19182    | 0.24428    | 0.27355    |   3.4 | 37.07
Output  | 5.2082e-05 | 5.4247e-05 | 6.9591e-05 |   0.0 |  0.01
Modify  | 0.038945   | 0.044488   | 0.049126   |   1.6 |  6.75
Other   |            | 0.004918   |            |       |  0.75

Nlocal:        83.3333 ave          91 max          77 min
Histogram: 4 1 7 6 7 11 5 5 0 2
Nghost:        2104.81 ave        2124 max        2076 min
Histogram: 1 0 3 4 9 5 11 6 4 5
Neighs:        13729.6 ave       15482 max       11657 min
Histogram: 2 1 2 4 8 15 6 7 1 2

Total # of neighbors = 659020
Ave neighs/atom = 164.75500
Neighbor list builds = 143
Dangerous builds = 15

#############################
# L I N E A R  Q U E N C H  #
#############################

# Define solid atoms. This closely follows ten Wolde  Ruiz-Montero and Frenkel  Faraday Discuss  1996  104  93-110
# Compute components of the per-atom q6 vector
compute q6 all orientorder/atom degrees 1 6 components 6 nnn NULL cutoff 1.3 # compute the Q6 parameter.
                                                                             # Use all neighbours within 1.3 unit cell.

# get number of connections
compute coord_number all coord/atom orientorder q6 0.5

# An atom is solid if it has 8 or more connections (of a possible 14)
variable is_solid atom c_coord_number>=8
group solid dynamic all var is_solid    # Must be dynamic to update
dynamic group solid defined

# do clustering
compute cluster solid cluster/atom 1.3 # Create a cluster where all atoms within are solid and max 1.3 units from another member

# define chunks one chunk per cluster
compute clus_chunks solid chunk/atom c_cluster nchunk every compress yes  # Says which atoms are in which chunk

# count the size of each chunk
compute size_chunks solid property/chunk clus_chunks count


# Find the maximum entry in the vector of chunk sizes
variable max_n equal max(c_size_chunks)


# Thermo style which includes this variable
# thermo_style custom step temp pe vol v_max_n

thermo ${N}  # Print the thermo information every 100 steps
thermo 1000  

# Reset the npt fix at a lower temperature (below freezing)
fix 1  all npt temp  ${temp} ${temp}  0.1  iso  5.68  5.68  0.5  mtk yes tchain  5  pchain  5
fix 1  all npt temp  0.45 ${temp}  0.1  iso  5.68  5.68  0.5  mtk yes tchain  5  pchain  5
fix 1  all npt temp  0.45 0.45  0.1  iso  5.68  5.68  0.5  mtk yes tchain  5  pchain  5

dump dmp2 all dcd ${N} traj.dcd
dump dmp2 all dcd 1000 traj.dcd


compute msd all msd com yes
variable twopoint equal c_msd[4]/6/(step*dt+1.0e-6)
fix 9 all vector 10 c_msd[4]
variable fit equal slope(f_9)/6/(10*dt)
thermo_style custom step temp pe c_msd[4] v_twopoint v_fit v_max_n

fix 1 all npt temp 1.25 ${temp} 0.1 iso 5.68 5.68 0.5 mtk yes tchain 5 pchain 5
fix 1 all npt temp 1.25 0.45 0.1 iso 5.68 5.68 0.5 mtk yes tchain 5 pchain 5
run 500000 # 5000000  # Run for this many steps
Neighbor list info ...
  update every 1 steps, delay 10 steps, check yes
  max neighbors/atom: 2000, page size: 100000
  master list distance cutoff = 3.8
  ghost atom cutoff = 3.8
  binsize = 1.9, bins = 8 8 8
  4 neighbor lists, perpetual/occasional/extra = 1 3 0
  (1) pair lj/cut, perpetual
      attributes: half, newton on
      pair build: half/bin/atomonly/newton
      stencil: half/bin/3d
      bin: standard
  (2) compute orientorder/atom, occasional
      attributes: full, newton on
      pair build: full/bin/atomonly
      stencil: full/bin/3d
      bin: standard
  (3) compute coord/atom, occasional
      attributes: full, newton on
      pair build: full/bin/atomonly
      stencil: full/bin/3d
      bin: standard
  (4) compute cluster/atom, occasional
      attributes: full, newton on
      pair build: full/bin/atomonly
      stencil: full/bin/3d
      bin: standard
Per MPI rank memory allocation (min/avg/max) = 9.843 | 9.850 | 9.854 Mbytes
Step Temp PotEng c_msd[4] v_twopoint v_fit v_max_n 
   12000    1.2611669    -5.616379 2.7969063e-30 1.942296e-32 8.3333333e+20            3 
   13000    1.2572435   -5.6792736   0.61973419 0.0039726549  0.051788549            3 
   14000    1.2324987   -5.6638707     1.227622 0.0073072733  0.051529906            3 
   15000     1.245452   -5.6006262    1.8095863  0.010053257  0.049794909            2 
   16000    1.2553938   -5.6228188    2.3919311  0.012457974  0.049088239            3 
   17000    1.2490777    -5.628611    2.9258505  0.014342404   0.04871422            3 
   18000    1.2387334   -5.6095832    3.5871516  0.016607183  0.048635504            2 
   19000    1.2462785   -5.6889202    4.1606602  0.018248509  0.049090533            2 
   20000    1.2499801   -5.6584711    4.7168001  0.019653333  0.049024708            2 
   21000    1.2181193   -5.6337865    5.3632737  0.021282832  0.049125469            1 
   22000    1.2625899   -5.6671907    5.8945916  0.022327998  0.048967623            3 
   23000    1.2483347    -5.620896    6.6268101  0.024010181  0.049155752            1 
   24000    1.2377319   -5.6574212    7.2421897  0.025146491  0.049523418            5 
   25000    1.2553274   -5.6794933     7.782506  0.025941686  0.049665525            1 
   26000    1.2196177   -5.6927988    8.3992857  0.026920787   0.04976427            2 
   27000    1.2311302   -5.6781967    9.0244574  0.027853263  0.049886536            5 
   28000     1.219483   -5.7030657    9.5886611  0.028537681  0.049934188            3 
   29000    1.2215323   -5.6698666    10.163464  0.029205355  0.049927692            2 
   30000    1.2261832   -5.7294652    10.517798  0.029216105    0.0497123            1 
   31000    1.2222509   -5.7111161    11.080824  0.029787159  0.049358576            5 
   32000    1.2197929   -5.6878805    11.726552  0.030537894  0.049138302            2 
   33000    1.2412882    -5.629854    12.424198  0.031374238  0.049071263            3 
   34000    1.2290433   -5.7214835    12.867226  0.031537318   0.04905095            3 
   35000    1.2006849   -5.7343632    13.468725  0.032068392  0.048937042            3 
   36000    1.2125643   -5.7250431    14.020315  0.032454433  0.048853844            1 
   37000    1.2095311   -5.6847859    14.720895  0.033155169  0.048791138            1 
   38000    1.1956088   -5.7135359     15.24613  0.033434496  0.048758613            3 
   39000    1.2198562   -5.7417732    15.740883  0.033634366  0.048695342            4 
   40000    1.2102486   -5.6875391    16.599444  0.034582175  0.048674288            2 
   41000    1.2018862   -5.7473343    17.099712  0.034755511  0.048761311            3 
   42000    1.2202894   -5.7079782    17.586504  0.034893856  0.048773992            5 
   43000    1.1958301   -5.7124815    18.088121  0.035054497  0.048699217            2 
   44000    1.1877898   -5.7631889    18.529285  0.035093343  0.048594472            3 
   45000    1.2200031   -5.6922685    19.201352   0.03555806  0.048526999            2 
   46000    1.1614636   -5.7228162    19.697852  0.035684514   0.04845164            3 
   47000    1.1968868   -5.7817264     20.11464  0.035664256  0.048332479            3 
   48000    1.1672292   -5.7660242    20.500051  0.035590365  0.048186186            1 
   49000     1.177911   -5.7675043    21.006874  0.035725975  0.048019495            2 
   50000    1.1983044   -5.7375656    21.592456  0.035987427  0.047875927            1 
   51000    1.1964766   -5.7567751    22.118745   0.03614174  0.047726126            3 
   52000    1.1952443   -5.7688591     22.61058  0.036234904  0.047570292            2 
   53000    1.1721772   -5.7675115    23.144354  0.036390493  0.047422942            2 
   54000    1.1968098   -5.7453392    23.810818   0.03674509  0.047304885            3 
   55000    1.1599957   -5.8193022    24.406932    0.0369802  0.047224383            2 
   56000    1.1792475   -5.7615278    24.795893   0.03689865  0.047139878            3 
   57000    1.1927869   -5.7675706    25.326298  0.037026751  0.047041985            2 
   58000    1.1683549   -5.7657665    25.748612  0.036995133  0.046938113            1 
   59000    1.1918541   -5.8194241    26.250163  0.037076501  0.046823318            4 
   60000    1.1463002   -5.8124176    26.806539  0.037231305  0.046711098            7 
   61000    1.1601259   -5.7971782     27.24665  0.037222199  0.046598024            2 
   62000    1.1803815   -5.8097117    27.727227  0.037267778  0.046484521            4 
   63000    1.1577235   -5.7744513    28.381429  0.037541573   0.04637806            3 
   64000    1.1857723   -5.8173819    28.782777  0.037477574   0.04627268            3 
   65000    1.1737844   -5.7725197    29.450257   0.03775674  0.046182278            2 
   66000    1.1758881   -5.7453969    29.792697  0.037617042  0.046089745            6 
   67000    1.1786733   -5.7729922    30.436399  0.037856217  0.046001101            3 
   68000     1.146474   -5.8197057    30.759036  0.037694896  0.045914783            1 
   69000    1.1643693   -5.8055449     31.31198  0.037816401   0.04582198            4 
   70000    1.1578578   -5.8052494    31.944501  0.038029167  0.045735816            5 
   71000    1.1671844   -5.8420846    32.037901   0.03760317  0.045632798            3 
   72000    1.1564308   -5.8387272     32.52736  0.037647407  0.045513128            5 
   73000    1.1478367   -5.8397393    33.181717  0.037878672  0.045401473            3 
   74000    1.1522233   -5.8036447    33.791165  0.038053113  0.045303798            2 
   75000    1.1252272   -5.8363522    34.214339  0.038015932  0.045227097            4 
   76000    1.1605518   -5.8313346      34.6824  0.038028947  0.045149112            3 
   77000    1.1257288   -5.8273923    34.972716   0.03784926   0.04506632            4 
   78000    1.1295883   -5.8318255    35.688985  0.038129257  0.044973923            3 
   79000     1.132257   -5.8680497    36.246624  0.038234835  0.044892149            2 
   80000    1.1400582   -5.8918641    36.700011  0.038229177  0.044822706            4 
   81000    1.1507054   -5.8362157     37.11211  0.038181183  0.044752609            4 
   82000    1.1183988     -5.88337    37.258662  0.037864494  0.044664421           11 
   83000    1.1859269   -5.8183433    37.988017  0.038140579  0.044572704            3 
   84000    1.1118603   -5.8315513    38.329551  0.038025348   0.04447122            5 
   85000    1.1437926   -5.8167954    38.827256  0.038065937  0.044372389            1 
   86000     1.134375   -5.8622279    39.201535  0.037985983  0.044273393            2 
   87000    1.1312601   -5.8653675    39.521508   0.03785585  0.044156419            2 
   88000     1.132518   -5.8985429     40.03821  0.037914971  0.044049671            2 
   89000    1.1454286   -5.8496463    40.665338  0.038076159  0.043954892            3 
   90000    1.1072892   -5.9055761    40.921108  0.037889915  0.043854839            2 
   91000    1.1339778   -5.8844422    41.401978  0.037913899  0.043757919            3 
   92000    1.1157616   -5.9221626    41.747767  0.037815007  0.043652245            3 
   93000    1.1210632    -5.928373     41.95252  0.037591863  0.043549496            4 
   94000    1.1020439   -5.9247276    42.459494  0.037641395  0.043440875            2 
   95000    1.1306499   -5.8661813    42.993988  0.037714024  0.043325328            4 
   96000    1.1008497   -5.9312654    43.176148  0.037479295   0.04321333            3 
   97000    1.1203052   -5.9304418    43.769041  0.037602269  0.043107655            3 
   98000     1.130778   -5.9068673    44.333433  0.037698497   0.04301002            1 
   99000    1.0957526    -5.926402    44.666276  0.037597875  0.042909217            2 
  100000    1.0949913   -5.9200393    45.256369  0.037713641   0.04281622            3 
  101000    1.1189962   -5.9469997    45.481142  0.037525694  0.042720885            3 
  102000    1.1076654   -5.9612206    45.934278  0.037528005  0.042621396            3 
  103000    1.0852024    -5.932678    46.250346  0.037419373  0.042518794            4 
  104000    1.1125489   -5.9135508    46.468482   0.03723436  0.042413024            3 
  105000    1.1017207   -5.9138588     47.02113  0.037318357  0.042306421            2 
  106000    1.1038219   -5.9310093    47.396459  0.037261367  0.042196856            3 
  107000    1.0830306   -5.9306529    48.112425  0.037470735  0.042095588            4 
  108000    1.1007506   -5.9789325    48.199123  0.037190681  0.041995945            4 
  109000    1.0874835   -5.9993302    48.604194  0.037159169  0.041892832            7 
  110000    1.0763978   -5.9548807     49.09985  0.037196856  0.041794555            5 
  111000    1.0783694   -5.9727401    49.429465  0.037109208  0.041696216            2 
  112000     1.072345   -5.9755967    49.975255  0.037183969  0.041599355            3 
  113000    1.0914268   -6.0024966    50.078804  0.036931271  0.041497847            5 
  114000    1.0775524   -5.9892306    50.441286  0.036872285  0.041396192            5 
  115000    1.0806995   -5.9993255    50.901962  0.036885479  0.041300086            5 
  116000    1.0860466   -5.9902752    51.135766  0.036735464  0.041196206            6 
  117000    1.0817177   -5.9797038    51.567254  0.036728813   0.04109344            1 
  118000    1.0654885   -5.9693079    52.210137  0.036871565   0.04099674            2 
  119000    1.0800026   -5.9886677     52.42098  0.036709369  0.040899264            4 
  120000     1.095279   -6.0319019     52.87093  0.036715924  0.040799525            3 
  121000    1.0763012    -6.015597    52.980122  0.036487687  0.040698169            2 
  122000    1.0723189   -6.0269276    53.651261  0.036647036   0.04059564            3 
  123000    1.0878525    -6.041665    54.037751  0.036610943  0.040503902            2 
  124000    1.1229625   -6.0284454    54.512717  0.036634891  0.040409765            6 
  125000     1.058204   -5.9855375    54.959449  0.036639632  0.040322735            3 
  126000      1.06947     -5.99753    55.273406  0.036556486  0.040233611            6 
  127000    1.0580163   -6.0483325    55.598248   0.03648179  0.040145906            7 
  128000    1.0496475    -5.995161    56.202123  0.036589924  0.040058705            2 
  129000    1.0598182   -6.0319139    56.130783  0.036260196  0.039972583            6 
  130000    1.0579225   -6.0717399    56.700267  0.036346325  0.039881594            3 
  131000    1.0386471   -6.0321197    57.382706  0.036502993  0.039793856            3 
  132000    1.0655337   -6.0890981     57.25262  0.036144331  0.039710616            5 
  133000    1.0416017   -6.0336017    57.581744  0.036078787  0.039622887            2 
  134000    1.0711463   -6.0312744    58.151892  0.036164112  0.039533594            2 
  135000    1.0740509   -6.0602631    58.353077  0.036020418  0.039443589            4 
  136000    1.0621424   -6.0715828    58.651654  0.035938514  0.039354025            3 
  137000    1.0324438   -6.0222683    59.069378  0.035930279   0.03926151            2 
  138000    1.0318249   -6.0678768      59.3573   0.03584378    0.0391709            9 
  139000    1.0537323   -6.0968048    59.579069  0.035718866  0.039081516            4 
  140000    1.0430575   -6.0859974    59.624559  0.035490809  0.038983422            4 
  141000    1.0336282   -6.0747496     59.88786  0.035394716  0.038880981            4 
  142000    1.0299527   -6.1013317    60.408507  0.035451002  0.038784623            4 
  143000    1.0149721   -6.0672111     60.83946   0.03545423  0.038693035            5 
  144000    1.0568836   -6.0676499    61.245921  0.035443241   0.03859686            3 
  145000    1.0372923   -6.1307739    61.296087  0.035227636  0.038497707            4 
  146000    1.0337968   -6.1194345    61.739856  0.035239644  0.038400085            8 
  147000    1.0545785   -6.1015478    62.085366  0.035195786   0.03830542            6 
  148000    1.0288647   -6.1011352    62.330805  0.035096174  0.038211955            3 
  149000    1.0234299   -6.1443289    62.789085  0.035116938  0.038121583            8 
  150000    1.0361426   -6.1275486    63.124826  0.035069348  0.038028193            3 
  151000    1.0241087    -6.129931    63.582746  0.035089815  0.037940093            5 
  152000    1.0341218   -6.1353794    63.804637  0.034980612  0.037853061            6 
  153000     1.031432   -6.1586923    64.092657  0.034908854  0.037764966            4 
  154000     1.031513   -6.1286079    64.812504  0.035071701  0.037681457            3 
  155000    1.0442255   -6.1260021     64.93996  0.034913957  0.037600311            5 
  156000    1.0167065   -6.1436452    65.232743  0.034846551  0.037518017            3 
  157000    1.0354195    -6.141866    65.258881  0.034638472  0.037433725            4 
  158000    1.0094618   -6.1650995    65.299611  0.034440723  0.037344185            4 
  159000    1.0108356    -6.199872    65.732882  0.034451196  0.037252791            4 
  160000   0.99672139   -6.1176854    66.187647  0.034472733  0.037160355            3 
  161000   0.99982454    -6.146833    66.398015  0.034367502  0.037069218            2 
  162000    1.0046887   -6.1806095    66.793184  0.034358633  0.036980056            3 
  163000    1.0235449    -6.140816     67.09435  0.034301815  0.036889264            3 
  164000     1.005329   -6.2244871    66.830735  0.033958707   0.03679483            6 
  165000    1.0013475    -6.179663    67.012783   0.03384484   0.03669629            6 
  166000    1.0299173   -6.1622185    67.372715  0.033821644  0.036598059            7 
  167000   0.99369775   -6.1793341    67.770812   0.03381777  0.036500855            6 
  168000    1.0054503   -6.1685137    68.091381  0.033775487  0.036404639            2 
  169000     1.009966   -6.1968913    68.390057  0.033722908  0.036309205            3 
  170000   0.98610193   -6.1907846    68.631468  0.033642876  0.036213886            5 
  171000    0.9774536   -6.2103903    69.023626  0.033637245  0.036119198            8 
  172000    1.0097782   -6.2075968    69.380329    0.0336145   0.03602728            6 
  173000    0.9853657   -6.2053773    69.729935    0.0335886  0.035938222            3 
  174000   0.98784311   -6.2187553    70.063307  0.033555223  0.035851827           10 
  175000   0.97779042   -6.2236841     70.24966  0.033452219  0.035763977            4 
  176000    1.0061787   -6.2048392    70.649137  0.033451296  0.035675346            3 
  177000    1.0068842   -6.2397475    71.056293  0.033453998  0.035588451            5 
  178000   0.96841686   -6.2568253    71.149517  0.033309699  0.035505166            2 
  179000   0.96900644   -6.2321486    71.849243  0.033449368  0.035423679            1 
  180000    0.9819814    -6.226719    71.859434  0.033268256  0.035341032            7 
  181000   0.98538089   -6.2264655    71.929149  0.033116551   0.03525792            5 
  182000   0.97421421   -6.2500126    72.303942    0.0331062  0.035175508            6 
  183000   0.98139556   -6.2284287    72.411863  0.032974437  0.035091066            5 
  184000   0.97682773   -6.2488652    72.910004  0.033020835  0.035008249            6 
  185000   0.97527843   -6.2586678    73.176138  0.032962224  0.034927714            6 
  186000   0.97671055    -6.234411    73.478417  0.032920437  0.034843907            3 
  187000   0.96411505   -6.2902736    73.420654  0.032718651  0.034762147            5 
  188000   0.95349112   -6.2655766    73.861484   0.03274002   0.03467927            3 
  189000   0.97369842   -6.2559091    74.385044  0.032797638  0.034598705            2 
  190000   0.95500659   -6.2945817     74.67614  0.032752693  0.034520609            6 
  191000   0.95236316   -6.2775337    75.109975  0.032770495  0.034443894            7 
  192000   0.96494522   -6.2851158    75.226882  0.032650556   0.03436593            4 
  193000   0.97566253   -6.2627187    75.420988  0.032565193  0.034286322            5 
  194000   0.97026939   -6.2865431    75.306106  0.032347984  0.034205512            3 
  195000   0.96680799   -6.2818186    75.539263  0.032281736   0.03412317            4 
  196000   0.96369158   -6.2543353    76.123143  0.032365282  0.034043193            3 
  197000   0.94762565   -6.3089797    75.958503  0.032131346  0.033964038            4 
  198000   0.94605376   -6.2846311    76.352913  0.032135064  0.033883842            4 
  199000   0.96422491   -6.3218293    76.428773  0.032005349  0.033802423            4 
  200000   0.98648099   -6.3051574    76.757223  0.031982176  0.033719959            4 
  201000   0.94463884   -6.3300988    76.713091  0.031804764  0.033638602            4 
  202000   0.95149494   -6.3540908     76.94272  0.031742046  0.033555973            9 
  203000   0.97674826    -6.324842    77.242853  0.031708889  0.033473222            9 
  204000   0.96122322   -6.3438632    77.484171   0.03165203  0.033389368            5 
  205000   0.93348787   -6.3171531    77.699588  0.031585198  0.033305765            4 
  206000   0.94564519   -6.3373017     77.63354  0.031405154  0.033220299            3 
  207000   0.92963815   -6.3133731    78.038544  0.031416483  0.033136605            4 
  208000   0.95715818   -6.3368413    78.087623  0.031285105  0.033051689            9 
  209000   0.91665352   -6.3312567    78.133363  0.031153653  0.032965094            8 
  210000   0.94319459   -6.3414814    78.602395  0.031191426  0.032879074            5 
  211000   0.92025595   -6.3664608    78.504913    0.0310051    0.0327922            6 
  212000   0.93859856   -6.3544933     79.10914   0.03109636  0.032706639            5 
  213000   0.92920051   -6.3392504    79.065783  0.030933405  0.032620986            6 
  214000   0.93172449   -6.4021999    79.181946  0.030834091  0.032535498            5 
  215000    0.9176274   -6.3743375    79.298906   0.03073601   0.03244896            5 
  216000   0.94047557   -6.3791176    79.608147   0.03071302  0.032360661            3 
  217000   0.91465586   -6.3578024    79.763159  0.030631013  0.032273932           14 
  218000   0.90167258    -6.356622    79.812915  0.030509524  0.032185949            5 
  219000   0.90798773   -6.3763143    79.686926   0.03032227  0.032097068            9 
  220000   0.91933797   -6.4109997    79.889348  0.030261116   0.03200775            5 
  221000    0.9144357     -6.39327    80.493819  0.030352119  0.031918628            6 
  222000   0.92127469   -6.3996651    80.508126  0.030220768  0.031830704            3 
  223000   0.90753524   -6.3798601     80.68097  0.030149839  0.031744085           14 
  224000   0.90166901   -6.4025989    81.026151  0.030143657  0.031658899            2 
  225000   0.90085895   -6.4264837    80.941328   0.02997827  0.031572593            4 
  226000   0.89913317   -6.4312751    80.975448  0.029858203   0.03148538            4 
  227000   0.90875553   -6.4097858     81.25574  0.029829567  0.031398039            5 
  228000   0.88557916   -6.4249143     81.31279  0.029719587  0.031309168            6 
  229000   0.89429674   -6.4588134    81.321838    0.0295931  0.031219485            6 
  230000   0.88871786   -6.4387941    81.836429   0.02965088  0.031131539            2 
  231000   0.91019163   -6.4054035    81.726104  0.029482722  0.031043229            5 
  232000   0.90674389   -6.4107521    82.047018  0.029470911  0.030955601            8 
  233000    0.8886884   -6.4388666    82.187675  0.029394733  0.030868814            5 
  234000   0.88129311   -6.4376101    82.297841  0.029308348  0.030782149            4 
  235000   0.90695157   -6.4383381    82.371285  0.029209675  0.030695707           12 
  236000   0.89215244   -6.4600874    82.641358  0.029181271  0.030610892            8 
  237000   0.88043302   -6.4482537    83.062008   0.02920605  0.030527707           10 
  238000   0.89689431   -6.4722656    82.999817   0.02906156  0.030445585            5 
  239000    0.8801438   -6.4672413    83.470873  0.029104209  0.030362382            4 
  240000   0.89103005   -6.4717736    83.724521  0.029071014  0.030280887           14 
  241000   0.87384676   -6.4664664    84.068062  0.029069178  0.030200791            5 
  242000   0.87446112   -6.4712949     83.91807  0.028897407  0.030120526           12 
  243000   0.87679678    -6.486301    84.076905  0.028832958  0.030040323           10 
  244000   0.88376825   -6.4969815    84.145679  0.028738278  0.029959444            7 
  245000   0.88008488   -6.4910955    84.277423   0.02866579  0.029878474            4 
  246000   0.88491005   -6.4986101    84.759215  0.028712471  0.029797429            5 
  247000   0.88115147   -6.4915316    84.604422  0.028544002  0.029717373            2 
  248000    0.8729669   -6.5129698    84.799838  0.028494569  0.029636692            8 
  249000   0.87823618   -6.5325933    84.924373  0.028421811  0.029555496            6 
  250000   0.86662957    -6.497823     85.02546   0.02834182  0.029475155            5 
  251000   0.87463179   -6.5027364    85.072953  0.028244672  0.029394836            7 
  252000   0.86841536   -6.4997593    85.076552   0.02813378  0.029313403            8 
  253000   0.88273577   -6.4965771     85.25027  0.028079799  0.029231738            3 
  254000   0.85754772   -6.5159575    85.872963  0.028173544  0.029151054            5 
  255000   0.88072468   -6.5374035    85.667493  0.027995913  0.029071262            5 
  256000   0.85721681   -6.5691932    85.874988  0.027954098  0.028990205            7 
  257000    0.8477644    -6.544635    85.908984   0.02785635  0.028908755            8 
  258000   0.85508639   -6.5498929    86.166549  0.027831573  0.028827169            4 
  259000   0.84362811   -6.5885058    85.822245  0.027613335  0.028745463           11 
  260000   0.87826574   -6.5801223    86.088455  0.027592454  0.028662787            4 
  261000   0.85470841     -6.56177    86.097134  0.027489506  0.028580279            7 
  262000   0.85023501   -6.5866709    85.976421   0.02734619  0.028496612            5 
  263000   0.86219453   -6.5878268     86.20562  0.027314835  0.028413218            3 
  264000   0.85210642   -6.5665162     86.62661  0.027344258  0.028330195            3 
  265000   0.84077173   -6.5864944    86.512004  0.027205033  0.028248668           14 
  266000   0.83613611   -6.5669903    86.885369  0.027219727  0.028167158            5 
  267000   0.85624406   -6.5884886     86.82031  0.027097475  0.028086903            9 
  268000    0.8369647   -6.5899267    86.861283  0.027009105  0.028006729           18 
  269000    0.8663058   -6.5887699    87.148073  0.026997544  0.027926739            9 
  270000   0.82565721   -6.6064835    87.180772  0.026907646   0.02784628            5 
  271000    0.8434766   -6.5892121    87.178993  0.026807808  0.027765479            6 
  272000   0.83140139   -6.6163443    87.255051  0.026732552  0.027685493            7 
  273000   0.84980855   -6.6686556     87.24948   0.02663293   0.02760478           10 
  274000   0.82816233   -6.6348994    87.673911  0.026664815  0.027524695           14 
  275000   0.83330486   -6.6053024    87.654387  0.026561935  0.027445245            3 
  276000   0.84722247   -6.6283581    87.820566  0.026515871  0.027366477           13 
  277000   0.81499127   -6.6393385    87.884219  0.026439296  0.027287956           10 
  278000   0.83254285   -6.6035592    88.335572  0.026479488  0.027210604            4 
  279000    0.8285914   -6.6173278    88.227004  0.026352152  0.027133221            9 
  280000   0.81587012   -6.6462066    88.171811   0.02624161  0.027055992            5 
  281000    0.8242246   -6.6738903    88.285673  0.026181991  0.026978378           14 
  282000   0.82191744   -6.6646874    88.471008  0.026143915   0.02690106            8 
  283000   0.82997938   -6.6256157    88.918922  0.026183428  0.026824813            4 
  284000   0.82464139   -6.6488827    88.717861  0.026032236  0.026748136           13 
  285000   0.83013403   -6.7059346    88.759837  0.025953169  0.026671644           10 
  286000    0.8069387   -6.6652276    89.199599  0.025990559  0.026595103            8 
  287000   0.80586943   -6.7168343    88.866707  0.025803341  0.026518147           12 
  288000   0.79386143    -6.695435    89.086418   0.02577732  0.026441705           10 
  289000    0.8192775   -6.6775142    89.405018  0.025779994  0.026366186            8 
  290000    0.7905109   -6.7133207    89.100457  0.025603579  0.026290566            7 
  291000   0.80619417   -6.7108752    89.219845  0.025549784  0.026214568           10 
  292000   0.78864508   -6.7152663    89.154619   0.02544367  0.026138368            7 
  293000   0.81170817   -6.7024008    89.519125  0.025460502  0.026061829           11 
  294000   0.79095469   -6.7149091    89.453278  0.025355238  0.025985485            9 
  295000   0.80308672   -6.7266039    89.398144  0.025253713  0.025908367           14 
  296000   0.78486919   -6.7220316    89.515996  0.025201575  0.025830759           12 
  297000   0.78927971   -6.7213163    89.611717  0.025143579  0.025753176            5 
  298000    0.7801247   -6.7167082    89.540857  0.025039389  0.025676634            9 
  299000   0.79056949   -6.7115303    89.873574  0.025048376  0.025599885           10 
  300000   0.77601624   -6.7085881    89.776576  0.024937938  0.025523661            7 
  301000   0.79172264   -6.7451606    89.909277  0.024891826   0.02544719            6 
  302000   0.79588852   -6.7760448    89.469311     0.024688  0.025370309           11 
  303000   0.77860234   -6.7952332    89.389308  0.024584518  0.025293004            9 
  304000   0.79036557   -6.7980815    89.497069  0.024533188  0.025214865           15 
  305000   0.78681408   -6.7697723    89.697612  0.024507544  0.025137324           19 
  306000    0.7826687   -6.7716224    89.880347  0.024477219  0.025061003            9 
  307000   0.77531329   -6.7599391     90.15194  0.024471211  0.024985022           12 
  308000   0.79474551   -6.7530591    90.110939  0.024380665  0.024908481            9 
  309000    0.7808984   -6.7820131    90.186168  0.024322052  0.024831852           24 
  310000   0.77045215   -6.7638335    90.080263  0.024215124  0.024755966            7 
  311000   0.76892618   -6.8236811    89.980141  0.024110434    0.0246796           11 
  312000   0.75662145   -6.8014732    90.214427  0.024095734  0.024603139           21 
  313000   0.77006675   -6.7924362    90.431157  0.024076453  0.024527476           12 
  314000   0.77286817   -6.7910764    90.287022  0.023961524  0.024451877           11 
  315000     0.770074   -6.8117066    90.288984  0.023885975  0.024376132           18 
  316000   0.77968555   -6.8074946    90.240821  0.023797685  0.024300064           11 
  317000   0.75780414   -6.8364867    90.326365  0.023745101  0.024223749            7 
  318000   0.76048321   -6.8040399    90.227007  0.023644394  0.024147446            9 
  319000   0.76507014   -6.7954365    90.338862  0.023599494  0.024071833            9 
  320000   0.75782876   -6.8152374    90.520986  0.023573173  0.023995872           21 
  321000   0.76914289   -6.8294483    90.630059  0.023528053   0.02392004           10 
  322000   0.74881616   -6.8586872    90.300658  0.023369735  0.023844685            7 
  323000   0.73624338   -6.8337953    90.228306  0.023278717  0.023769395           24 
  324000   0.77688293   -6.8215418    90.616525  0.023306719  0.023694091           11 
  325000   0.74773239   -6.8137393    90.818286   0.02328674  0.023619892            8 
  326000   0.75709809   -6.8747034    90.577862   0.02315385  0.023545713            9 
  327000   0.75285668   -6.8600059    90.629047  0.023096087  0.023471413           15 
  328000   0.74148248   -6.8656009    90.492751  0.022991044  0.023397153           15 
  329000   0.74900362    -6.845517    90.930185  0.023031962  0.023323851           10 
  330000    0.7339064   -6.8729987    90.885217  0.022950812  0.023250897            9 
  331000   0.73846168   -6.8835553    91.112662  0.022938737  0.023178558           18 
  332000   0.73864791   -6.8842424     91.25692  0.022905853    0.0231066           11 
  333000   0.74621406   -6.8973345    91.167692  0.022814738  0.023034736           24 
  334000   0.72849263   -6.8901692    91.023053  0.022710343  0.022962805            9 
  335000   0.74472608   -6.8953627    91.029435  0.022644138  0.022891075            7 
  336000   0.72289792   -6.8795518    91.298039  0.022643363  0.022819746           21 
  337000   0.72089691   -6.8781015    91.035671  0.022511293   0.02274858           12 
  338000   0.73354806   -6.8824903    91.410616  0.022537134  0.022677916           27 
  339000   0.72299659   -6.9249616    91.219614  0.022423701  0.022606679           10 
  340000   0.73660959   -6.9121437    91.283662  0.022373447  0.022535926           16 
  341000   0.72049525   -6.9110431    91.344147  0.022322617  0.022465632           11 
  342000   0.71026785   -6.9000648    91.413751  0.022274306  0.022395892            7 
  343000   0.72257508   -6.9282811    91.414603  0.022209573  0.022325817           12 
  344000    0.7299062    -6.937928    91.417893  0.022145807  0.022255523           13 
  345000   0.71561557   -6.9092844    91.497487  0.022100842   0.02218559           22 
  346000   0.70514295    -6.902775    91.579884  0.022056812   0.02211592           16 
  347000   0.72028774   -6.9178291    91.650038  0.022010096   0.02204676           16 
  348000   0.71593056    -6.931929    91.702216  0.021959343  0.021977766           16 
  349000   0.71106716   -6.9377325    91.564516  0.021863543  0.021909235           13 
  350000   0.72043034   -6.9244618    91.750804  0.021845429  0.021840552           18 
  351000    0.6978017   -6.9572796    91.828507   0.02180164  0.021772169            7 
  352000    0.7053232   -6.9391456    91.916365  0.021760503  0.021704466           26 
  353000   0.71754506   -6.9583502    91.911327  0.021697669  0.021636831           16 
  354000   0.71457952   -6.9692913    91.752242  0.021598927  0.021568952           27 
  355000   0.69670203   -6.9732039    91.775298  0.021543497  0.021501187            8 
  356000    0.7167564   -7.0130065    91.379199  0.021390262  0.021433411           13 
  357000   0.70232622   -6.9977958    91.611125  0.021384483   0.02136521           27 
  358000   0.69014408    -6.995776    91.667458  0.021337863  0.021297416           12 
  359000   0.67783529   -6.9855068    91.746184    0.0212967  0.021229759           15 
  360000   0.69329915   -7.0194568    91.572838  0.021197416   0.02116211           35 
  361000   0.68043031   -7.0243787      91.5879  0.021142175  0.021094333           15 
  362000   0.67745929   -7.0156851    91.586782  0.021083513  0.021026433           15 
  363000   0.68654144   -7.0037423    91.661005  0.021042471   0.02095888           20 
  364000   0.69167391   -7.0044393    91.736471  0.021001939  0.020891431           14 
  365000   0.68919088   -7.0451402    91.494103  0.020889065  0.020823909           58 
  366000   0.68657764    -7.050278    91.617381  0.020860059  0.020756537           32 
  367000   0.68605915    -7.051883     91.52198  0.020781558  0.020689398           16 
  368000   0.66898889   -7.0430763    91.551986  0.020731881  0.020622123           22 
  369000   0.67718417   -7.0582012    91.471272  0.020657469  0.020554819           16 
  370000   0.68538787   -7.0633324    91.599587  0.020630538  0.020488079           36 
  371000   0.67214185   -7.0653057    91.657369  0.020587909  0.020422161           13 
  372000   0.67704404   -7.0792575    91.720234  0.020546647  0.020356182           28 
  373000   0.67083335   -7.1012126    91.408349  0.020421883  0.020289811           18 
  374000   0.66362811   -7.0710079    91.601111   0.02041023  0.020223799           35 
  375000   0.67451158   -7.0982958    91.586444  0.020352543  0.020158116           41 
  376000   0.66908616   -7.0938644    91.661821   0.02031512  0.020092493           17 
  377000   0.65918175   -7.0781112    91.418982  0.020207556  0.020026813           52 
  378000   0.64918436    -7.108985    91.629264  0.020200455  0.019961421           51 
  379000   0.66563665   -7.0782997    91.725856  0.020168394  0.019896087           29 
  380000   0.64877381   -7.0949291     91.68652  0.020106693  0.019830858           18 
  381000   0.66243178      -7.1186    91.487684   0.02001043  0.019765906           31 
  382000   0.66238273   -7.1313121     91.56557  0.019975037  0.019700733           16 
  383000   0.64300884   -7.1469072    91.347914  0.019875525  0.019635733           72 
  384000    0.6517092   -7.1528739    91.391274  0.019833176  0.019570649           29 
  385000    0.6459433   -7.1377897    91.220216  0.019744635  0.019505741           41 
  386000   0.65636998   -7.1583861    91.561982  0.019767267  0.019441027           55 
  387000   0.63994658   -7.1462731    91.317787  0.019663606  0.019376527           27 
  388000   0.63998223   -7.1452067    91.424631  0.019635874  0.019312163           25 
  389000   0.65060817   -7.1719616    91.384929  0.019576891  0.019248008           91 
  390000   0.65340846   -7.1502517    91.587624  0.019570005  0.019184283           37 
  391000   0.64806861   -7.1457234    91.513276  0.019504108  0.019120812           27 
  392000   0.65260159   -7.1591153    91.242064  0.019396697  0.019057492           96 
  393000   0.65468567   -7.1605462    91.560736  0.019414914  0.018994314          131 
  394000   0.63493323   -7.1725185    91.409896  0.019333734  0.018931262           98 
  395000   0.64208675   -7.1754579    91.292715  0.019260067  0.018868491           89 
  396000   0.64061181    -7.201627    91.307886  0.019214623  0.018805853          116 
  397000   0.63127882     -7.20785    91.232455  0.019150389   0.01874319           93 
  398000   0.63150378   -7.1820373      91.1973  0.019094912  0.018680789           67 
  399000   0.63976815   -7.1891012    91.393009   0.01908793  0.018618582           49 
  400000   0.62091426   -7.1840612    91.393925  0.019040401  0.018556765           46 
  401000   0.61847596   -7.1876709    91.310214  0.018975522  0.018495007           49 
  402000   0.63701027   -7.2199582    91.271767   0.01892035  0.018433747           38 
  403000   0.63901025   -7.2002246    91.401043  0.018900133  0.018372675           20 
  404000   0.61251525   -7.2076434    91.324831   0.01883763  0.018311703           32 
  405000   0.62326758   -7.1885184    91.174075  0.018760098  0.018250793           38 
  406000   0.62718435   -7.2143453    91.370131  0.018754132  0.018190241           42 
  407000   0.61530131   -7.2203297    91.475796  0.018729688  0.018129882           23 
  408000   0.60935934   -7.1972329    91.226213  0.018632805  0.018069496           29 
  409000   0.60833461   -7.2130913    91.328046  0.018607996  0.018009488           50 
  410000   0.61732548   -7.2265479    91.337484  0.018564529  0.017949557           39 
  411000   0.61411052   -7.2333613    91.240995  0.018499796  0.017889729           91 
  412000   0.59690601   -7.2378114    91.319077  0.018470687  0.017830266           98 
  413000   0.61289505   -7.2366226    91.266165  0.018415288  0.017771149           51 
  414000   0.60309065   -7.2408108    91.229943  0.018363515  0.017712092           46 
  415000   0.60533341   -7.2422941    91.360867  0.018345556  0.017653108           40 
  416000   0.60739528   -7.2334359    91.132285  0.018255666  0.017594357           59 
  417000   0.60802975   -7.2412147    91.405147  0.018266416  0.017535945           46 
  418000   0.59614876    -7.258218     91.31492  0.018204729  0.017477971           54 
  419000   0.59328531   -7.2556397    91.235519  0.018145489  0.017420163           56 
  420000   0.58028008   -7.2558228     91.35522  0.018126036  0.017362595           61 
  421000   0.59940082   -7.2776055    91.106083  0.018033666  0.017305014          122 
  422000   0.59715195   -7.2862115    91.133366   0.01799632  0.017247514          169 
  423000   0.59899563   -7.2640212    91.258734  0.017978474  0.017190315          116 
  424000   0.58880806   -7.2862451    91.039995  0.017893081  0.017133322           50 
  425000   0.58178471   -7.2793005    91.254315  0.017893003   0.01707646           62 
  426000   0.57654459   -7.2871925    91.208699  0.017842077  0.017019697          104 
  427000   0.58139769    -7.308756    90.951665   0.01775013  0.016963092          152 
  428000   0.56421311     -7.28501    91.095285  0.017736621  0.016906539          232 
  429000   0.57474595   -7.2995853    90.933219  0.017663795  0.016850293           83 
  430000   0.57058829   -7.3072739    91.017006  0.017638955  0.016794279          209 
  431000   0.57457704   -7.3036181    91.107568  0.017615539  0.016738499           73 
  432000   0.57380466   -7.3106621    90.923794  0.017539312  0.016682866           81 
  433000   0.59607259   -7.2988263    90.925878  0.017499207  0.016627334          115 
  434000   0.57476812   -7.3007826    90.955802  0.017464632  0.016572008          118 
  435000   0.56875134   -7.3375169    90.936869  0.017420856   0.01651676          122 
  436000   0.57040668   -7.3442613    90.727157  0.017340818  0.016461629          116 
  437000   0.56541963   -7.3337892    90.976647  0.017348712  0.016406672          191 
  438000   0.56566086   -7.3250165    90.809227   0.01727725  0.016351781          132 
  439000   0.56036759   -7.3322997    90.680811  0.017213518  0.016297061          109 
  440000   0.56661241   -7.3603588    90.764247  0.017190198  0.016242664          120 
  441000    0.5737182   -7.3356882    90.851994  0.017167799  0.016188345          141 
  442000   0.56939942   -7.3491288      90.9998  0.017156825  0.016134351          132 
  443000   0.55940737   -7.3644629    90.663779  0.017054887  0.016080426          184 
  444000   0.56379059   -7.3761905    90.659163  0.017015609  0.016026547          273 
  445000   0.54888328   -7.3760202    90.680393  0.016981347   0.01597283          125 
  446000   0.55613496   -7.3787769    90.698735  0.016946699  0.015919444          125 
  447000   0.54575139   -7.3617408    90.792046  0.016926183  0.015866193          145 
  448000   0.55332979   -7.3783604    90.490765   0.01683236  0.015813148          172 
  449000   0.55208739   -7.3933339    90.520961  0.016800475  0.015760385          162 
  450000   0.54837364   -7.3837549    90.714671  0.016799013  0.015707781          163 
  451000   0.54479175   -7.3922521    90.567928   0.01673465  0.015655261          127 
  452000   0.54621551   -7.3884785    90.778356  0.016736423  0.015602967          123 
  453000   0.53387836   -7.3740591    90.662915   0.01667824  0.015550878          167 
  454000   0.54885577   -7.3931209    90.576555  0.016625653  0.015499015          155 
  455000   0.54602758   -7.4055247    90.580939  0.016589915  0.015447383          247 
  456000   0.54737696   -7.3906242    90.595536  0.016556202  0.015395816          124 
  457000    0.5335916   -7.4050232    90.611885  0.016522955  0.015344474          112 
  458000    0.5458684   -7.4184625    90.655848  0.016494878  0.015293406          318 
  459000   0.52005998   -7.4206911    90.374077  0.016407785  0.015242667          126 
  460000   0.54360796   -7.4010952    90.680162  0.016427566  0.015191992          153 
  461000   0.53000288   -7.4054916    90.613974  0.016379966  0.015141497          112 
  462000    0.5205421   -7.4228602    90.548258  0.016332658  0.015091141          186 
  463000   0.52530289   -7.4254256    90.531333  0.016294336  0.015041058          154 
  464000   0.52778473    -7.419551    90.524179  0.016257934  0.014991144          210 
  465000    0.5333824   -7.4387463    90.377535  0.016196691  0.014941335          128 
  466000    0.5219554   -7.4260414    90.455908  0.016175949  0.014891733          215 
  467000   0.51722318   -7.4203469    90.644367  0.016174941  0.014842319          239 
  468000   0.51513604   -7.4243173    90.512184  0.016116842  0.014793172          346 
  469000   0.51778616   -7.4496057    90.289458  0.016042903  0.014744183          386 
  470000   0.50722266   -7.4494531    90.350017  0.016019507  0.014695371          175 
  471000   0.51483728   -7.4591871    90.369308  0.015988908  0.014646775          211 
  472000     0.512237   -7.4536433    90.306972  0.015944027  0.014598411          406 
  473000   0.51857306   -7.4282767    90.362067  0.015920026  0.014550178          134 
  474000   0.49493495   -7.4474199    90.386876  0.015890801  0.014502208          214 
  475000   0.51856457   -7.4507853    90.383902  0.015856825  0.014454384          302 
  476000   0.50520069    -7.474719    90.177103  0.015787308  0.014406813          318 
  477000   0.50873329   -7.4561273    90.363878  0.015786841  0.014359388          221 
  478000   0.51603946   -7.4551152    90.469947  0.015772306  0.014312082          295 
  479000   0.49686133   -7.4668931    90.288654  0.015707838  0.014264971          437 
  480000   0.48802384   -7.4591178    90.297093  0.015676579  0.014218023          430 
  481000   0.50561525   -7.4692563    90.179636  0.015623638  0.014171193          547 
  482000   0.49908327   -7.4616397    90.204598  0.015595539  0.014124658          465 
  483000    0.5015782   -7.4798986    90.288324  0.015577696  0.014078277          344 
  484000   0.49491344   -7.4822241    90.175919  0.015526157  0.014032145          302 
  485000   0.49697572    -7.480874    90.285229  0.015512926  0.013986128          443 
  486000    0.4884592   -7.4589007    90.193629    0.0154653  0.013940273          464 
  487000   0.48284974   -7.4890717    90.234922  0.015440609  0.013894662          512 
  488000   0.47653391   -7.4688624    90.157374  0.015395726  0.013849076          580 
  489000   0.48638863   -7.4885492    90.192862   0.01537029  0.013803761          449 
  490000   0.48877612   -7.4845129    90.165172  0.015334213  0.013758554          350 
  491000   0.48157558   -7.4990016    90.165167  0.015302982  0.013713521          479 
  492000   0.49323038   -7.5016131    90.004867  0.015244727  0.013668616          468 
  493000   0.48172961   -7.5095319    90.082865  0.015226989  0.013623917          420 
  494000   0.47558002   -7.5113333    90.011903  0.015184194  0.013579405          414 
  495000   0.47558709   -7.5155551    90.216508  0.015187964  0.013535126          474 
  496000   0.49232657   -7.5315526    90.036795   0.01512715  0.013490988          471 
  497000   0.46697616   -7.5141575    90.143875  0.015114667  0.013447003          530 
  498000    0.4739338    -7.517002    89.837024  0.015032969  0.013403116          486 
  499000   0.46675642   -7.5152334    89.991507  0.015028642  0.013359547          497 
  500000   0.46946873   -7.5114463    90.037031  0.015006172     0.013316          458 
  501000   0.47015416   -7.5069081    89.836653   0.01494289  0.013272654          557 
  502000   0.46553754   -7.5151934    89.935711  0.014929567  0.013229488          552 
  503000    0.4683951   -7.5262163     90.01678  0.014913317  0.013186501          384 
  504000      0.46259   -7.5372607    89.949208  0.014872554  0.013143726          459 
  505000    0.4649883   -7.5508413    89.922696  0.014838729  0.013101069          485 
  506000   0.46185837   -7.5448685    89.899455  0.014805576  0.013058538          480 
  507000   0.45392397   -7.5365278    89.982087  0.014789955  0.013016227          464 
  508000   0.45853815   -7.5546115    89.834556   0.01473664  0.012974083          586 
  509000   0.44963246    -7.549295    89.790499  0.014700475  0.012932074          460 
  510000   0.45442124   -7.5606939    89.842403  0.014680131  0.012890286          466 
  511000   0.44722055   -7.5478049    89.745587  0.014635614  0.012848619          482 
  512000   0.44662368   -7.5599885    89.728213  0.014604201   0.01280711          543 
Loop time of 1309.4 on 48 procs for 500000 steps with 4000 atoms

Performance: 65984.490 tau/day, 381.855 timesteps/s
99.4% CPU use with 48 MPI tasks x no OpenMP threads

MPI task timing breakdown:
Section |  min time  |  avg time  |  max time  |%varavg| %total
---------------------------------------------------------------
Pair    | 93.229     | 99.013     | 106.59     |  32.3 |  7.56
Neigh   | 9.1077     | 9.4305     | 9.8335     |   5.8 |  0.72
Comm    | 83.864     | 92.694     | 98.925     |  35.4 |  7.08
Output  | 0.94553    | 0.94625    | 0.96929    |   0.3 |  0.07
Modify  | 1090.2     | 1094.3     | 1097.5     |   5.2 | 83.57
Other   |            | 13.02      |            |       |  0.99

Nlocal:        83.3333 ave          89 max          78 min
Histogram: 3 2 8 6 8 5 6 4 3 3
Nghost:        2417.75 ave        2432 max        2402 min
Histogram: 1 1 4 5 14 4 6 7 1 5
Neighs:        16734.1 ave       19658 max       14264 min
Histogram: 1 5 8 6 6 8 6 6 1 1
FullNghs:      33392.1 ave       35042 max       31245 min
Histogram: 1 3 4 5 8 5 5 7 3 7

Total # of neighbors = 1602821
Ave neighs/atom = 400.70525
Neighbor list builds = 26732
Dangerous builds = 0

#clear
#
#next RN
#
#jump SELF
Total wall time: 0:21:52
