
units lj                  # Use reduced LJ style units
atom_style atomic         # Uncharged point particles
atom_modify map hash      # Needed for indexing of clusters etc
                          # Used to be able to find where atoms are in relation to each other.

lattice fcc 1.0 spacing 1 1 1
Lattice spacing in x,y,z = 1.5874011 1.5874011 1.5874011
region box block 0 10 0 10 0 10 units lattice
create_box 2 box
Created orthogonal box = (0.0000000 0.0000000 0.0000000) to (15.874011 15.874011 15.874011)
  3 by 4 by 4 MPI processor grid
create_atoms 1 box
Created 4000 atoms
  using lattice units in orthogonal box = (0.0000000 0.0000000 0.0000000) to (15.874011 15.874011 15.874011)
  create_atoms CPU = 0.026 seconds
set type 1 type/fraction 2 0.94 78393
Setting atom values ...
  3760 settings made for type/fraction
mass 1 1.0
mass 2 1.0
pair_style lj/cut  3.5
pair_modify tail  yes
pair_coeff 1  1  1.0  1.0   # Intearaction between 1 and 1 set with epsilon = 1 and sigma = 1
pair_coeff 1  2  1.5  0.8
pair_coeff 2  2  0.5  0.88

write_data data.0
System init for write_data ...
Neighbor list info ...
  update every 1 steps, delay 10 steps, check yes
  max neighbors/atom: 2000, page size: 100000
  master list distance cutoff = 3.8
  ghost atom cutoff = 3.8
  binsize = 1.9, bins = 9 9 9
  1 neighbor lists, perpetual/occasional/extra = 1 0 0
  (1) pair lj/cut, perpetual
      attributes: half, newton on
      pair build: half/bin/atomonly/newton
      stencil: half/bin/3d
      bin: standard
WARNING: Not all mixed pair coeffs generated from mixing. Use write_data with 'pair ij' option to store all pair coeffs. (../write_data.cpp:312)


#############################
#   M E L T   S Y S T E M   #
#############################

velocity all create 2.4 5300450 mom yes dist gaussian # Assign velocities
                                                    # Temperature 2.4, random number seed, zero linear momentum
                                                                                # Gaussian distribution

timestep 0.002   # simulation timestep
thermo 1000       # output thermodynamic data every 1000 steps bf 100

# Define a fix  in this case with index 1 applied to all
# particles in the simulation. This fix is for simulations
# in the anisotropic NPT ensemble. Note that we use the MTK
# correction.
fix 1 all npt temp 2.4 2.4 0.1 iso 5.68 5.68 0.5 mtk yes tchain 5 pchain 5 # Use NPT ensemble
                                                                         # Set temperature and pressure and damping
                                                                         # Numbers of thermostats in chain and in barostat
run 10000          # run for 10000 steps
Per MPI rank memory allocation (min/avg/max) = 3.642 | 3.644 | 3.648 Mbytes
Step Temp E_pair E_mol TotEng Press Volume 
       0          2.4   -2.9877486            0    0.6113514   -2.2401145         4000 
    1000    2.3984119   -1.8658902            0    1.7308282    5.8541523    4113.3926 
    2000    2.3790319    -1.943371            0    1.6242847    5.4561253     4103.543 
    3000     2.410954   -1.8886386            0    1.7268883    5.6827111    4111.2197 
    4000     2.377511   -1.8705447            0    1.6948303    5.9996598    4080.7563 
    5000    2.3693027    -1.846954            0    1.7061115    5.6081523    4159.1162 
    6000    2.3962534   -1.9129766            0     1.680505    5.6384523    4107.6423 
    7000    2.3841063   -1.8931875            0     1.682078    5.3979419    4152.4667 
    8000    2.4086613   -1.8695109            0    1.7425778    5.8327381    4110.5312 
    9000    2.4355558   -1.9176614            0     1.734759    5.5259066    4126.8401 
   10000    2.3663206   -1.8952654            0    1.6533281    5.7201536    4109.7716 
Loop time of 2.40508 on 48 procs for 10000 steps with 4000 atoms

Performance: 718479.635 tau/day, 4157.868 timesteps/s
99.7% CPU use with 48 MPI tasks x no OpenMP threads

MPI task timing breakdown:
Section |  min time  |  avg time  |  max time  |%varavg| %total
---------------------------------------------------------------
Pair    | 1.0498     | 1.1177     | 1.2654     |   3.6 | 46.47
Neigh   | 0.20461    | 0.21288    | 0.24288    |   1.2 |  8.85
Comm    | 0.66215    | 0.82776    | 0.91381    |   4.9 | 34.42
Output  | 0.00023873 | 0.00024282 | 0.00030385 |   0.0 |  0.01
Modify  | 0.20656    | 0.2316     | 0.2591     |   3.3 |  9.63
Other   |            | 0.01485    |            |       |  0.62

Nlocal:        83.3333 ave          92 max          73 min
Histogram: 1 1 3 10 6 7 8 6 2 4
Nghost:        1611.83 ave        1638 max        1571 min
Histogram: 1 0 4 4 4 6 11 9 4 5
Neighs:        9289.40 ave       10769 max        7862 min
Histogram: 1 1 7 7 6 11 6 8 0 1

Total # of neighbors = 445891
Ave neighs/atom = 111.47275
Neighbor list builds = 910
Dangerous builds = 244

# Equilibrate just above the melting temperature to avoid step fn in T

fix 1 all npt temp 1.25 1.25 0.1 iso 5.68 5.68 0.5 mtk yes tchain 5 pchain 5
run 2000
Per MPI rank memory allocation (min/avg/max) = 3.643 | 3.645 | 3.649 Mbytes
Step Temp E_pair E_mol TotEng Press Volume 
   10000    2.3663206   -1.8952654            0    1.6533281    5.7201536    4109.7716 
   11000    1.2415945   -2.8544317            0  -0.99250563    5.6710392    3209.9904 
   12000    1.2519307   -2.8731073            0  -0.99568072    5.6436879    3199.2121 
Loop time of 0.583693 on 48 procs for 2000 steps with 4000 atoms

Performance: 592092.496 tau/day, 3426.461 timesteps/s
99.6% CPU use with 48 MPI tasks x no OpenMP threads

MPI task timing breakdown:
Section |  min time  |  avg time  |  max time  |%varavg| %total
---------------------------------------------------------------
Pair    | 0.25587    | 0.28137    | 0.30993    |   2.3 | 48.21
Neigh   | 0.038145   | 0.04061    | 0.043167   |   0.6 |  6.96
Comm    | 0.18346    | 0.2131     | 0.24344    |   3.0 | 36.51
Output  | 5.9945e-05 | 6.4919e-05 | 8.6746e-05 |   0.0 |  0.01
Modify  | 0.040617   | 0.043843   | 0.047272   |   0.9 |  7.51
Other   |            | 0.0047     |            |       |  0.81

Nlocal:        83.3333 ave          92 max          75 min
Histogram: 2 6 5 2 9 7 8 4 3 2
Nghost:        1905.27 ave        1930 max        1878 min
Histogram: 2 4 4 5 6 8 5 5 7 2
Neighs:        11943.9 ave       13350 max       10246 min
Histogram: 3 1 3 6 4 9 8 6 7 1

Total # of neighbors = 573305
Ave neighs/atom = 143.32625
Neighbor list builds = 143
Dangerous builds = 16

#############################
# L I N E A R  Q U E N C H  #
#############################

# Define solid atoms. This closely follows ten Wolde  Ruiz-Montero and Frenkel  Faraday Discuss  1996  104  93-110
# Compute components of the per-atom q6 vector
compute q6 all orientorder/atom degrees 1 6 components 6 nnn NULL cutoff 1.3 # compute the Q6 parameter.
                                                                             # Use all neighbours within 1.3 unit cell.

# get number of connections
compute coord_number all coord/atom orientorder q6 0.5

# An atom is solid if it has 8 or more connections (of a possible 14)
variable is_solid atom c_coord_number>=8
group solid dynamic all var is_solid    # Must be dynamic to update
dynamic group solid defined

# do clustering
compute cluster solid cluster/atom 1.3 # Create a cluster where all atoms within are solid and max 1.3 units from another member

# define chunks one chunk per cluster
compute clus_chunks solid chunk/atom c_cluster nchunk every compress yes  # Says which atoms are in which chunk

# count the size of each chunk
compute size_chunks solid property/chunk clus_chunks count


# Find the maximum entry in the vector of chunk sizes
variable max_n equal max(c_size_chunks)


# Thermo style which includes this variable
# thermo_style custom step temp pe vol v_max_n

thermo ${N}  # Print the thermo information every 100 steps
thermo 1000  

# Reset the npt fix at a lower temperature (below freezing)
fix 1  all npt temp  ${temp} ${temp}  0.1  iso  5.68  5.68  0.5  mtk yes tchain  5  pchain  5
fix 1  all npt temp  0.45 ${temp}  0.1  iso  5.68  5.68  0.5  mtk yes tchain  5  pchain  5
fix 1  all npt temp  0.45 0.45  0.1  iso  5.68  5.68  0.5  mtk yes tchain  5  pchain  5

dump dmp2 all dcd ${N} traj.dcd
dump dmp2 all dcd 1000 traj.dcd


compute msd all msd com yes
variable twopoint equal c_msd[4]/6/(step*dt+1.0e-6)
fix 9 all vector 10 c_msd[4]
variable fit equal slope(f_9)/6/(10*dt)
thermo_style custom step temp pe c_msd[4] v_twopoint v_fit v_max_n

fix 1 all npt temp 1.25 ${temp} 0.1 iso 5.68 5.68 0.5 mtk yes tchain 5 pchain 5
fix 1 all npt temp 1.25 0.45 0.1 iso 5.68 5.68 0.5 mtk yes tchain 5 pchain 5
run 5000000 # 5000000  # Run for this many steps
Neighbor list info ...
  update every 1 steps, delay 10 steps, check yes
  max neighbors/atom: 2000, page size: 100000
  master list distance cutoff = 3.8
  ghost atom cutoff = 3.8
  binsize = 1.9, bins = 8 8 8
  4 neighbor lists, perpetual/occasional/extra = 1 3 0
  (1) pair lj/cut, perpetual
      attributes: half, newton on
      pair build: half/bin/atomonly/newton
      stencil: half/bin/3d
      bin: standard
  (2) compute orientorder/atom, occasional
      attributes: full, newton on
      pair build: full/bin/atomonly
      stencil: full/bin/3d
      bin: standard
  (3) compute coord/atom, occasional
      attributes: full, newton on
      pair build: full/bin/atomonly
      stencil: full/bin/3d
      bin: standard
  (4) compute cluster/atom, occasional
      attributes: full, newton on
      pair build: full/bin/atomonly
      stencil: full/bin/3d
      bin: standard
Per MPI rank memory allocation (min/avg/max) = 9.816 | 9.822 | 9.827 Mbytes
Step Temp PotEng c_msd[4] v_twopoint v_fit v_max_n 
   12000    1.2519307   -2.8731073 1.896816e-30 1.3172333e-32 8.3333333e+20            1 
   13000    1.2614974   -2.9017282    1.0901871 0.0069883786  0.093791034            1 
   14000    1.2568987   -2.8729434     2.244958  0.013362845  0.094681713            1 
   15000    1.2655466   -2.8524176    3.3926293   0.01884794    0.0951996            3 
   16000     1.254238   -2.8603423    4.6430239  0.024182415  0.096287321            2 
   17000    1.2514832   -2.8315967    5.8949495   0.02889681  0.098064627            2 
   18000     1.271465   -2.9158692    7.0159105  0.032481066  0.099330794            2 
   19000    1.2532813   -2.8672513    8.2629894  0.036241181  0.099457787            3 
   20000    1.2545806   -2.8798914    9.3772324  0.039071801  0.099184898            2 
   21000    1.2483172   -2.8906965    10.483948  0.041602966  0.098746943            2 
   22000    1.2540248   -2.8900025    11.670219  0.044205374  0.098475994            1 
   23000    1.2739663   -2.8762816    12.740874  0.046162585  0.098027667            1 
   24000    1.2576697    -2.873831     13.94947  0.048435659  0.097764105            1 
   25000     1.276272   -2.8805552    15.061701   0.05020567  0.097536005            4 
   26000    1.2593911   -2.9295146    16.301802  0.052249364  0.097426065            5 
   27000    1.2524671   -2.8567001    17.578044  0.054253222  0.097569803            1 
   28000    1.2209584   -2.8840512    18.784551  0.055906401  0.097737336            2 
   29000    1.2774211   -2.8722613     19.88608  0.057143908  0.097712489            1 
   30000    1.2777549   -2.8797649    21.159817   0.05877727  0.097781612            2 
   31000    1.2228498   -2.8796108    22.290031  0.059919437  0.097790227            2 
   32000    1.2724935   -2.8461217    23.348649  0.060803773  0.097792283            1 
   33000    1.2420403   -2.8864941    24.382484  0.061571927  0.097697689            1 
   34000    1.2525871   -2.8856193      25.3885  0.062226716  0.097485253            2 
   35000    1.2768736   -2.8804935    26.864928  0.063964113  0.097287465            2 
   36000    1.2314108   -2.8730929     27.76994  0.064282268  0.097108172            1 
   37000    1.2280704   -2.8744996    28.892097  0.065072291  0.096860599            1 
   38000      1.22819   -2.8777429    29.976993  0.065739018  0.096731473            2 
   39000    1.2209398   -2.8925682    31.522341  0.067355429  0.096660465            1 
   40000    1.2616684   -2.8719818     32.72575  0.068178646  0.096790196            2 
   41000    1.2324651   -2.8835732     33.78294  0.068664512  0.096877637            2 
   42000     1.254648   -2.8644953    34.992079  0.069428727   0.09694671            1 
   43000     1.241305   -2.8663303    36.416554  0.070574716  0.097035698            1 
   44000    1.2413206   -2.9146409     37.37022  0.070776932  0.097130341            2 
   45000      1.23691   -2.8900163    38.354494   0.07102684   0.09719565            2 
   46000    1.2337856   -2.8823427     39.77211  0.072050923  0.097230512            2 
   47000     1.248043   -2.8633073    40.979348  0.072658418  0.097310141            2 
   48000    1.2456245    -2.861028    41.775792  0.072527416  0.097323273            2 
   49000    1.2192558    -2.868987    43.002562  0.073133607  0.097273458            1 
   50000    1.2211706   -2.9005466    44.315609  0.073859348  0.097243687            2 
   51000    1.2427919   -2.8792077    45.671707  0.074626971  0.097258861            2 
   52000    1.2310998   -2.8585616    47.183789  0.075615046  0.097350404            3 
   53000    1.2470133    -2.869578    48.091623  0.075615758  0.097446422            2 
   54000    1.2312952   -2.8658361    49.149058  0.075847312  0.097508067            1 
   55000    1.2485342   -2.8345287     50.42393  0.076399894  0.097542271            1 
   56000    1.2651294    -2.871034    51.071599  0.075999402  0.097512701            1 
   57000    1.2659181   -2.8711813    52.359782  0.076549388  0.097503147            2 
   58000    1.2586947   -2.8799195    53.700773  0.077156282  0.097489436            1 
   59000    1.2520804   -2.8694349    54.505771  0.076985551  0.097447685            2 
   60000    1.2179658   -2.9008798    55.976163  0.077744671  0.097410503            2 
   61000    1.2511766   -2.8741278    57.123008  0.078036895  0.097408524            4 
   62000    1.2502681   -2.8854334    58.214728  0.078245602  0.097388285            1 
   63000    1.2451878   -2.8283576    59.312799  0.078456083  0.097322251            1 
   64000    1.2445717   -2.8589454     60.44839  0.078708841  0.097289408            2 
   65000    1.2229481   -2.8922739    61.294535  0.078582737  0.097234067            2 
   66000    1.2275779   -2.8584671    62.856254  0.079363956  0.097189677            3 
   67000    1.2680495   -2.8458025    63.830939  0.079391714  0.097155108            1 
   68000     1.256668   -2.8714753    65.456738   0.08021659  0.097148824            1 
   69000    1.2315049   -2.8603888    66.551695  0.080376442  0.097144835            1 
   70000    1.2570079   -2.8613336    68.055614  0.081018587  0.097157758            2 
   71000    1.2697626   -2.8558978    68.877957  0.080842672  0.097172078            1 
   72000     1.247695   -2.8627967    69.620426  0.080579197  0.097181444            2 
   73000    1.2423411    -2.853858    70.887033   0.08092127  0.097166947            1 
   74000    1.2607392    -2.863898    71.945011  0.081019156  0.097146335            1 
   75000       1.2483   -2.8588366     73.23914  0.081376821  0.097097166            1 
   76000    1.2254936   -2.8711853    74.768304  0.081982789  0.097092072            2 
   77000    1.2295964    -2.899575     75.36455  0.081563365  0.097063968            2 
   78000     1.224416   -2.8907312    76.763119  0.082011879  0.097033136            3 
   79000    1.2376511   -2.8784147    78.014036  0.082293287  0.097015282            1 
   80000    1.2327053   -2.8816473    79.510386  0.082823318  0.097021316            1 
   81000     1.249486   -2.9170794    80.316572  0.082630218  0.097032793            2 
   82000    1.2415766   -2.9226574    81.427346  0.082751368  0.097043189            2 
   83000    1.2354316   -2.9080499    82.994482  0.083327793  0.097063275            2 
   84000    1.2543435   -2.8915031    84.325362  0.083656113  0.097099198            1 
   85000    1.2651393   -2.8717775    85.823932  0.084141109  0.097149121            2 
   86000    1.2370096   -2.8986464    87.078593  0.084378481   0.09722508            2 
   87000    1.2532518   -2.8810278    88.486391  0.084757079  0.097276669            1 
   88000    1.2520135   -2.8589168    89.097756  0.084372875  0.097309391            3 
   89000    1.2548635   -2.8821609    90.281473  0.084533214  0.097337713            1 
   90000    1.2397542   -2.8776019    91.568886  0.084786006  0.097375438            3 
   91000    1.2517746   -2.8839395    93.066006   0.08522528   0.09740867            1 
   92000    1.2427922   -2.8929249    93.576951   0.08476173  0.097444305            1 
   93000    1.2350141   -2.9037257     94.76011  0.084910492  0.097485044            1 
   94000    1.2405186   -2.8758091    96.461645  0.085515642  0.097513699            1 
   95000     1.260757   -2.9154657    97.282105   0.08533518  0.097553969            1 
   96000    1.2301113   -2.9020642    98.849314  0.085806696  0.097606782            2 
   97000    1.2304037    -2.863911    100.18208  0.086067081  0.097650841            1 
   98000     1.231448   -2.8754381     101.2925  0.086133075  0.097677823            3 
   99000    1.2135025   -2.9090555    101.73436   0.08563498  0.097699982            2 
  100000    1.2338026   -2.8789971    102.97954  0.085816283  0.097713989            1 
  101000    1.2119303   -2.8679006    104.91515  0.086563653  0.097729993            2 
  102000    1.2447828    -2.896412      105.184  0.085934641  0.097748536            1 
  103000    1.2359545   -2.8656632    107.55527  0.087018825  0.097775898            2 
  104000    1.2429738   -2.9053586    108.12457  0.086638273  0.097801636            3 
  105000    1.2341295   -2.8748589    110.02689  0.087322928  0.097848554            1 
  106000    1.2206426   -2.8832867    111.08726  0.087332748   0.09789675            1 
  107000    1.2309923    -2.930758    112.11143  0.087314196  0.097946482            3 
  108000    1.2335769   -2.9069688    113.31669  0.087435717  0.097983307            1 
  109000     1.259446   -2.8576732    114.77999  0.087752282  0.098021931            2 
  110000     1.252673   -2.8946455    115.73235  0.087676021  0.098061563            1 
  111000    1.2164574   -2.8940993    116.52144  0.087478558  0.098086142            1 
  112000    1.2638177   -2.8837384    117.65428  0.087540387  0.098096601            1 
  113000    1.2427596   -2.9132272    118.45997  0.087359857  0.098107931            1 
  114000    1.2239328   -2.8665592    119.58298  0.087414456  0.098108836            1 
  115000    1.2229636   -2.8971763    120.71055   0.08747141  0.098115258            1 
  116000     1.218006   -2.9150427    121.59252   0.08735095  0.098114678            1 
  117000    1.1989793    -2.875535    123.24607  0.087782104  0.098117809            2 
  118000     1.207933   -2.8561184    125.11948  0.088361215  0.098126003            2 
  119000    1.2120456   -2.8773809    125.84041  0.088123539  0.098148902            2 
  120000    1.2470552   -2.8837683    126.99668   0.08819214  0.098169668            2 
  121000    1.2263861   -2.8804836    129.20047  0.088981039  0.098192965            2 
  122000    1.2505195    -2.915144    129.18945   0.08824416   0.09821667            2 
  123000    1.2441256   -2.8763585    131.38988  0.089017531   0.09823891            2 
  124000    1.2447352   -2.8792989    131.58425  0.088430275   0.09825815            2 
  125000    1.2553683   -2.9059134    132.24692  0.088164615  0.098248164            2 
  126000    1.2286252   -2.9015385    134.18913  0.088749426  0.098241774            1 
  127000    1.2354583   -2.8901578    135.42936  0.088864408  0.098245791            1 
  128000    1.2296725   -2.8715854    137.57272  0.089565573  0.098256501            2 
  129000    1.2673204   -2.9176067    137.62591  0.088905625  0.098259355            2 
  130000     1.236541   -2.9053174    139.45641  0.089395137   0.09826237            5 
  131000    1.2426166   -2.8933819    140.19757  0.089184201  0.098275854            3 
  132000    1.1942998    -2.896414    142.23376  0.089794038  0.098299465            1 
  133000    1.2262887   -2.8948837    143.07848  0.089648168  0.098326335            2 
  134000    1.1945271    -2.891427    144.10462    0.0896173  0.098347259            1 
  135000    1.1988185   -2.8754991    145.29022  0.089685318  0.098358757            1 
  136000    1.2322214   -2.9031494    145.59495  0.089212594  0.098357898            3 
  137000    1.2531241    -2.892441    146.54731    0.0891407  0.098354099            2 
  138000    1.2302523   -2.8751971    148.38644  0.089605341  0.098357415            3 
  139000    1.2121425   -2.9283049    148.74656  0.089176595  0.098353695            1 
  140000    1.2173056    -2.857374    149.86403  0.089204778  0.098350089            2 
  141000    1.2297589   -2.9143476    150.92569  0.089199578   0.09834518            1 
  142000    1.2222388   -2.8992178    153.14899  0.089876167  0.098346587            1 
  143000     1.221516   -2.8995704    154.10011  0.089801926   0.09834319            1 
  144000     1.224419   -2.9114882    155.41226  0.089937652  0.098341976            2 
  145000    1.2250696   -2.9116547    157.27087  0.090385558  0.098359251            1 
  146000    1.2190048   -2.9211721    158.21937  0.090307862  0.098377683            1 
  147000    1.2242703   -2.8774363    159.99887  0.090702305  0.098403585            3 
  148000    1.2578143   -2.8651224    161.55485  0.090965569  0.098435814            1 
  149000    1.2071908   -2.8851226    162.77069  0.091035064  0.098472581            1 
  150000    1.2224771   -2.9018656    163.23251  0.090684727  0.098501188            1 
  151000    1.2281385    -2.882813    165.63181  0.091408284  0.098528801            3 
  152000    1.1781027   -2.8814978    167.06614  0.091593276   0.09857443            1 
  153000    1.2405979    -2.899161    168.67501  0.091870919  0.098630782            2 
  154000    1.2241389   -2.8859498    170.83334  0.092442285  0.098698608            3 
  155000    1.2450449   -2.9196576    170.90669  0.091885317  0.098767605            2 
  156000     1.220994   -2.8906684    172.38217  0.092084492  0.098833626            1 
  157000    1.2049859   -2.9078653    174.83648   0.09280068  0.098895062            3 
  158000    1.2077696     -2.90905    174.14709  0.091849729  0.098952897            2 
  159000    1.2408673   -2.8869396    176.29266  0.092396573  0.099013569            2 
  160000    1.2256788   -2.8868516    177.03213  0.092204232  0.099067366            1 
  161000    1.2141066   -2.9110404    177.96562  0.092114712  0.099109252            3 
  162000    1.2540839   -2.8847714    178.59026  0.091867418  0.099145186            1 
  163000    1.2113999   -2.9198946    179.52296  0.091780654  0.099175222            2 
  164000    1.2268621   -2.9096125    181.08224  0.092013333  0.099195054            1 
  165000    1.2069504   -2.8854184    182.77822  0.092312232  0.099208824            2 
  166000    1.2328954   -2.9249959    182.87377  0.091804101  0.099216255            2 
  167000      1.22456   -2.8681872    184.22987   0.09193107  0.099222434            2 
  168000    1.2357874   -2.8918446    185.71319  0.092119635  0.099228032            1 
  169000    1.2392998   -2.9141726    184.58198  0.091016757  0.099224676            1 
  170000    1.2312284   -2.9371729    187.11486  0.091722969  0.099222961            2 
  171000    1.2537843   -2.9352992    187.39855  0.091324829  0.099217203            2 
  172000    1.2587269   -2.9268817    188.59784  0.091374924  0.099216372            1 
  173000    1.2114621   -2.9215638     190.0346  0.091538823  0.099206851            1 
  174000    1.2210353    -2.872609    191.42834  0.091680238  0.099197841            1 
  175000    1.2317939   -2.8911902    192.26506   0.09155479   0.09919096            2 
  176000    1.2081657    -2.875174    194.28219  0.091989675  0.099179502            3 
  177000    1.2211331   -2.8838624    195.08541   0.09184812  0.099165217            2 
  178000    1.2303207   -2.8841585    196.42586  0.091959672  0.099150892            2 
  179000    1.2067752   -2.8960334    198.03728  0.092196127  0.099144251            4 
  180000    1.2072193    -2.911082    198.13758  0.091730362  0.099135356            1 
  181000    1.2295479   -2.8889348    201.02961   0.09255507  0.099140099            1 
  182000    1.2047234   -2.8924823    201.97816  0.092480844  0.099138603            1 
  183000    1.2027096    -2.886784    201.65708  0.091829272  0.099132499            2 
  184000    1.2378123   -2.8875128    202.45286  0.091690607  0.099127432            2 
  185000    1.2115629   -2.8923812    205.90139  0.092748376  0.099120774            1 
  186000    1.2160888   -2.9033105    206.52354   0.09252847  0.099124182            1 
  187000    1.2238748   -2.9266184    207.89015  0.092642671  0.099132679            2 
  188000    1.2060477   -2.8932997    207.97697  0.092188373   0.09914056            1 
  189000    1.2199262   -2.8952886    211.31433  0.093172103  0.099154124            2 
  190000    1.2247773   -2.8933873    211.89606   0.09293687  0.099170414            2 
  191000    1.2436033   -2.8874974     212.7286  0.092813527  0.099187126            2 
  192000    1.2223174   -2.8914877    214.06154  0.092908655  0.099192839            1 
  193000    1.2268775   -2.9079671    215.92807  0.093233189  0.099203057            1 
  194000    1.2410646   -2.8895502    217.29251  0.093338707  0.099213999            2 
  195000    1.2227478   -2.9046425    217.87144  0.093107451  0.099221237            2 
  196000    1.2269318   -2.9117602    217.78282  0.092594737  0.099232791            1 
  197000    1.2345153   -2.9391506    219.93106  0.093033445   0.09924564            1 
  198000    1.2093327   -2.9111217    222.05034   0.09345553  0.099253626            1 
  199000     1.210539   -2.9054324    222.39189  0.093128933  0.099263138            5 
  200000    1.2120097   -2.9158119    222.27448  0.092614365  0.099264485            2 
  201000    1.1952432   -2.8769018     224.6957  0.093157422  0.099265744            1 
  202000       1.2181   -2.9257251    224.67101  0.092686058  0.099268787            1 
  203000    1.2278562   -2.8973609    227.23132   0.09328051  0.099268722            2 
  204000    1.2356189   -2.9268854     226.6347  0.092579535  0.099261854            1 
  205000     1.194442   -2.8766712     228.9292  0.093060651  0.099257631            2 
  206000     1.228618   -2.8821852     229.0096  0.092641424  0.099255648            1 
  207000    1.2222709   -2.9416424       230.91  0.092958936  0.099251946            3 
  208000    1.1887282   -2.8974262     232.3577  0.093092029  0.099243023            1 
  209000    1.2243346   -2.8970213    233.10033  0.092942713  0.099236992            2 
  210000    1.2087643   -2.9064435    233.80907  0.092781378  0.099228108            1 
  211000    1.2414506   -2.9050558    234.22308  0.092505166  0.099218687            2 
  212000     1.212181   -2.8734606    235.83031  0.092700594  0.099207533            1 
  213000    1.1718238   -2.8878229    236.75074  0.092625483  0.099192665            1 
  214000    1.2236693   -2.9177029    238.29374  0.092793513  0.099174045            1 
  215000     1.205075   -2.9122458    239.40968  0.092794448  0.099156482            1 
  216000    1.2136832   -2.9003567    241.10925  0.093020544  0.099138768            3 
  217000    1.2022485   -2.9095889    241.25728  0.092648723  0.099123554            1 
  218000    1.2164044   -2.9103615    243.24354  0.092983005  0.099106165            1 
  219000    1.2339326   -2.8968531    243.81114  0.092774406  0.099087537            1 
  220000    1.2321493   -2.9303097    246.11563  0.093225616  0.099072218            1 
  221000    1.2106097   -2.9161791    246.11076  0.092801945  0.099057787            3 
  222000    1.2585402   -2.8860311    248.89273    0.0934282  0.099046264            1 
  223000     1.217316    -2.918975    247.59092  0.092522765  0.099039248            1 
  224000    1.1975944   -2.9071439    249.25131  0.092727421  0.099021748            1 
  225000    1.2175319   -2.8780153    251.66083  0.093207715  0.099002585            1 
  226000    1.2086036   -2.8842384    251.52651  0.092745764  0.098984844            2 
  227000     1.235072   -2.8822879    252.80844  0.092807796   0.09896606            1 
  228000    1.1983472    -2.895349    254.73966  0.093106599  0.098943246            1 
  229000    1.1973191   -2.8715952    254.56111  0.092635048  0.098920951            2 
  230000    1.2068388   -2.8974358    256.23849  0.092840031  0.098898747            2 
  231000    1.2169999   -2.8968303    257.35332  0.092840302  0.098871997            3 
  232000    1.1983106   -2.9376212    257.60093  0.092529068  0.098848502            5 
  233000    1.2001914   -2.9369457    257.98629  0.092269775  0.098820841            2 
  234000    1.2289236   -2.8991893    260.88673  0.092908379  0.098789976            1 
  235000    1.2188494   -2.9011847    260.92153  0.092525365   0.09875783            1 
  236000    1.2244522   -2.8919972    262.23381  0.092596683  0.098729086            2 
  237000    1.1995318   -2.9321626    262.82697  0.092414548  0.098701736            2 
  238000    1.2114371     -2.88988     264.8453  0.092732948  0.098679471            2 
  239000    1.2166091   -2.9324618     266.6039  0.092958126  0.098656919            1 
  240000    1.2034571   -2.8832534     268.4511  0.093212187  0.098632785            2 
  241000    1.2367792   -2.9033182    269.24618  0.093100339  0.098610056            2 
  242000    1.2110248   -2.9287437    269.38178  0.092762319  0.098592036            2 
  243000    1.1844156   -2.9620003    270.36585  0.092718054  0.098571205            1 
  244000     1.250202   -2.8858292    271.76988  0.092817582   0.09855141            4 
  245000     1.171477   -2.9320913    272.90372  0.092824396  0.098529835            2 
  246000    1.2013275   -2.9096457    273.45996  0.092635488  0.098506334            1 
  247000    1.1902731   -2.9274181    274.44942  0.092594271  0.098481409            1 
  248000    1.2092649   -2.8898983    275.93877   0.09272136  0.098461826            1 
  249000     1.219354   -2.9128871    277.04315  0.092718592  0.098442145            1 
  250000    1.2104527   -2.9241148    279.34218  0.093114059  0.098426827            2 
  251000    1.2034738   -2.9353362    278.76277  0.092550719  0.098408715            7 
  252000    1.2134561   -2.9059395    281.45621  0.093074142  0.098390727            2 
  253000    1.2122416   -2.9017611    283.96628  0.093533029   0.09837676            1 
  254000    1.2243085   -2.9174093    283.73585  0.093089188  0.098366922            2 
  255000    1.1954137    -2.918619    284.48623  0.092969356   0.09835427            1 
  256000    1.2115556   -2.8827106    286.43458  0.093240423  0.098342625            1 
  257000    1.2007697   -2.8802758     288.6746  0.093603956  0.098329984            2 
  258000    1.2148322   -2.8745612    289.72769  0.093581296  0.098320581            2 
  259000    1.1947268   -2.9035126    290.01938  0.093313829  0.098309354            2 
  260000    1.1836259   -2.8992636    290.54041  0.093121925  0.098293713            1 
  261000     1.206044   -2.9231142    291.82988  0.093176845  0.098279067            2 
  262000     1.202952   -2.9223389    293.06222  0.093213173  0.098265826            2 
  263000    1.2147255   -2.9278473    294.79683  0.093408373  0.098252689            1 
  264000    1.2141011   -2.8875666      296.544  0.093606061  0.098245953            1 
  265000    1.2088031   -2.9272824    297.67291  0.093607832  0.098235477            1 
  266000    1.2001555   -2.9144079     297.6698  0.093254949  0.098225346            1 
  267000      1.20749   -2.9203015    298.57317  0.093187632  0.098216663            2 
  268000    1.2334549   -2.9601205     300.1417  0.093327642   0.09820788            2 
  269000    1.2224241   -2.9136319    301.87131  0.093516515  0.098199851            2 
  270000    1.1962324   -2.9027082    302.15443   0.09325754  0.098189604            2 
  271000    1.2397587    -2.932334    304.29967  0.093573084  0.098179821            1 
  272000    1.2231286   -2.9221857     304.6094  0.093323958  0.098167824            1 
  273000    1.2015097   -2.8985163    306.84725  0.093665216  0.098156345            2 
  274000    1.2032544    -2.885158     307.9259  0.093651431  0.098149816            1 
  275000    1.2030002   -2.9393573    307.11651   0.09306561  0.098141453            1 
  276000    1.2138243   -2.9388805     309.6773  0.093501601  0.098137132            2 
  277000    1.2048445   -2.9057088    310.35511  0.093367963  0.098128583            1 
  278000    1.2297114   -2.9078419    310.38839  0.093042083   0.09811634            3 
  279000    1.2023067    -2.956629    310.88144  0.092855865  0.098104912            2 
  280000    1.2028051   -2.9478289    311.79879  0.092797258  0.098091921            2 
  281000    1.1961259   -2.8976247    317.10556  0.094040794  0.098080622            1 
  282000    1.1694905   -2.9520375    316.44082   0.09351088  0.098071349            2 
  283000    1.2293539   -2.8922367    319.61881  0.094116258  0.098068208            2 
  284000    1.2070111   -2.8938237    322.14201  0.094525239  0.098073089            1 
  285000    1.1939121   -2.9366684    321.96057  0.094140519  0.098080527            1 
  286000    1.2158432    -2.938102    324.45109   0.09453703  0.098085516            1 
  287000    1.1762434   -2.9382161    325.84229  0.094611581  0.098093187            3 
  288000    1.1877523   -2.9077242    323.67189  0.093655059  0.098094932            2 
  289000    1.1927538   -2.9076166    324.90156   0.09368557   0.09809205            2 
  290000    1.2023837   -2.9116543    328.46104  0.094385356  0.098087605            3 
  291000    1.2290696   -2.9270162    327.46959  0.093777089  0.098083582            1 
  292000    1.1583233   -2.9319949    327.50372  0.093465672  0.098079108            1 
  293000    1.2052922   -2.9116905    331.36288  0.094244277  0.098072945            1 
  294000    1.2139207   -2.9460896    331.36834  0.093925266  0.098070663            1 
  295000     1.205971   -2.9552544    333.16576  0.094114622  0.098065189            2 
  296000    1.2137972   -2.9288897    333.69521  0.093945725  0.098058518            1 
  297000    1.2116353   -2.9002736    333.73595  0.093640839  0.098054794            2 
  298000      1.21706   -2.9424849    335.13975   0.09371917  0.098049287            3 
  299000    1.1794338    -2.918817    336.33678  0.093739347  0.098044404            1 
  300000    1.2104848   -2.9333389      337.345  0.093706945  0.098034625            1 
  301000    1.2321275   -2.9492217     339.2261  0.093916418  0.098028958            2 
  302000     1.175814   -2.9053284    339.30311  0.093626686  0.098022812            1 
  303000    1.2035939   -2.9509809    340.61585  0.093678727  0.098018503            3 
  304000    1.2167953   -2.9092548    342.94741  0.094009706  0.098013844            1 
  305000    1.2052763   -2.9222675    344.49919  0.094125462  0.098009164            1 
  306000    1.1950818   -2.9334174    345.56138   0.09410713  0.098006577            5 
  307000    1.2088595   -2.9016499    346.63155  0.094091082  0.098005424            1 
  308000    1.2107212   -2.9325154     348.0017  0.094156304  0.098005675            1 
  309000    1.2045151   -2.9153024    348.91189  0.094097057  0.098001929            1 
  310000    1.1771738   -2.9216691    350.73484  0.094283559  0.098002052            2 
  311000    1.2117096    -2.956283    350.41191  0.093893866  0.097997613            1 
  312000    1.1725484   -2.8890865    352.60117  0.094177662   0.09799593            1 
  313000    1.1897689     -2.90307    354.12061  0.094281311  0.097992358            2 
  314000    1.1974206   -2.8921594    355.56083  0.094363277  0.097987384            2 
  315000    1.2143086   -2.9598989    354.54817  0.093795811  0.097979362            3 
  316000    1.2025908   -2.9356208    355.53883   0.09376024  0.097972971            2 
  317000    1.1966521   -2.9061571    357.78491  0.094054917  0.097965104            1 
  318000    1.1915652   -2.9366828    358.73141  0.094007182  0.097957602            1 
  319000    1.2034553   -2.9266632    357.41432  0.093368421   0.09794733            1 
  320000    1.2315051   -2.9267936    360.13134  0.093784204  0.097937536            2 
  321000    1.2078491   -2.9550591    360.49521  0.093586503  0.097923914            1 
  322000    1.1902698   -2.9416558    362.30192  0.093763435   0.09791204            1 
  323000      1.18801   -2.9277848    363.91237  0.093888639  0.097902572            1 
  324000    1.1792512    -2.917371    365.05218  0.093892023  0.097890906            2 
  325000    1.2118377   -2.9097057    367.07298  0.094121276  0.097877897            1 
  326000    1.1845721   -2.9207437    365.63803  0.093465753  0.097859268            3 
  327000    1.1948041   -2.9373253    365.09383  0.093041241  0.097836508            1 
  328000    1.1740067   -2.9320249    367.57317  0.093387493   0.09781405            2 
  329000    1.1946196   -2.9197175    369.02116  0.093470406  0.097788807            1 
  330000    1.2084367   -2.9336961    368.19569  0.092978708  0.097764044            1 
  331000    1.1855209   -2.8901071    369.08726  0.092922271  0.097736653            3 
  332000    1.2052247   -2.9321504    370.55354  0.093010427  0.097709696            2 
  333000    1.2208931   -2.9543779    370.81863  0.092797456   0.09767844            1 
  334000    1.1983703   -2.9164394    372.54719  0.092950895  0.097650443            2 
  335000    1.2069245   -2.9235786    373.88344  0.093005831    0.0976194            2 
  336000    1.1705621   -2.9461357    374.19482  0.092806255  0.097589421            1 
  337000    1.1807999   -2.9652524    374.46932  0.092598744  0.097555463            1 
  338000    1.1965852   -2.9267836    376.23896  0.092761085  0.097524334            2 
  339000    1.1966159   -2.9216638    375.82895  0.092386664  0.097495734            1 
  340000    1.1974777   -2.9000862    378.80177  0.092843572  0.097466147            3 
  341000    1.2266541   -2.9166505    379.04433   0.09263058  0.097435706            2 
  342000     1.220554    -2.929482      381.517  0.092962233  0.097408616            4 
  343000    1.1962809   -2.9519886     382.6227   0.09295984   0.09738072            2 
  344000    1.1962949   -2.9128391    384.37565  0.093114256  0.097354382            1 
  345000    1.1942679   -2.9366614    384.26283  0.092817108  0.097330816            4 
  346000    1.2133292   -2.9446164    384.63519  0.092638533  0.097307188            1 
  347000     1.195788   -2.9174923    388.55772  0.093313573  0.097282878            1 
  348000    1.2045846   -2.9527564    386.39153  0.092526708  0.097261498            2 
  349000    1.1978318   -2.9162547    389.61896  0.093032226  0.097241171            1 
  350000    1.2125979   -2.9197537    390.99122  0.093093147  0.097221272            2 
  351000     1.208412    -2.917605    393.89046  0.093516254  0.097199606            1 
  352000    1.2115636   -2.9586484    393.88687  0.093249732  0.097175841            2 
  353000    1.2118469   -2.9177792    392.61076  0.092684316  0.097153103            2 
  354000    1.1846537   -2.9366903    395.70541  0.093150992  0.097129841            1 
  355000    1.1946781   -2.9160136    395.02817  0.092729616  0.097106327            2 
  356000    1.1837346   -2.9182843    398.29133  0.093232988  0.097083903            1 
  357000    1.1890405   -2.9517641    397.51147  0.092789793  0.097061018            1 
  358000    1.2243401   -2.9114243     399.9771  0.093104538  0.097036574            2 
  359000    1.1743477   -2.8792981    401.77418  0.093262344  0.097013323            2 
  360000    1.2067986   -2.9749741    403.27601  0.093350927  0.096992175            2 
  361000    1.2198351   -2.9420686    402.08003  0.092816258   0.09697041            1 
  362000    1.1630772   -2.9443488    404.46515  0.093108921  0.096950431            1 
  363000    1.1942653   -2.9585739    404.88848  0.092949604  0.096929998            2 
  364000    1.1959323   -2.9362229    406.92855  0.093161298  0.096911251            2 
  365000    1.1919022   -2.9346373    407.35053  0.093002404  0.096892763            1 
  366000    1.1941162   -2.9514692    407.19283  0.092712393  0.096871132            1 
  367000    1.2100878   -2.9708295    408.37556   0.09272833  0.096850258            1 
  368000    1.1876582     -2.93255    412.41046  0.093390049  0.096832694            3 
  369000    1.1867499   -2.9740174    410.51297   0.09270844  0.096814122            3 
  370000    1.2061544   -2.9389156     411.8916  0.092768378  0.096792819            1 
  371000    1.1786958   -2.9315477    412.48301  0.092651171  0.096773915            2 
  372000    1.2007681   -2.9500119    414.68834  0.092896134  0.096753314            1 
  373000    1.1687961   -2.9140886    415.48359  0.092824751  0.096732241            2 
  374000    1.1997478   -2.9489724     416.1218  0.092718761  0.096713525            2 
  375000    1.1884311   -2.9571086    417.44668  0.092765929  0.096697413            1 
  376000    1.1889713   -2.9445176     417.8462  0.092607757  0.096678274            2 
  377000    1.1666599   -2.9320622    418.62498  0.092534256  0.096656406            1 
  378000    1.2058447   -2.9473231     419.2888  0.092435803  0.096636962            1 
  379000    1.1881264   -2.9297019    422.59072  0.092917925  0.096615542            3 
  380000    1.1953155    -2.950081    422.95564  0.092753431  0.096596054            1 
  381000    1.2025433   -2.9189122     422.7683  0.092469008  0.096574291            2 
  382000    1.1471275   -2.9420927    423.54068  0.092395437  0.096549636            1 
  383000    1.1484078   -2.9101583    426.12999  0.092717578  0.096524792            1 
  384000     1.201101   -2.9563331     425.0782  0.092247873  0.096502584            2 
  385000    1.1591297   -2.9295474    426.53778  0.092324194  0.096479166            2 
  386000    1.2215175   -2.9199162     430.0855  0.092850928  0.096455285            1 
  387000    1.1967127   -2.9233582    430.70014  0.092743354   0.09643287            1 
  388000    1.1822331   -2.9519717    431.39211  0.092652945  0.096409037            1 
  389000    1.1887491   -2.9221713    430.95731  0.092321617  0.096384338            2 
  390000    1.2122085   -2.9330735    430.15365  0.091913172   0.09635847            2 
  391000    1.1842629   -2.9236283    432.96999  0.092278344  0.096332899            1 
  392000    1.2014299   -2.9275096    434.45629  0.092358905  0.096304398            1 
  393000    1.1860879   -2.9220818    434.68907  0.092173254   0.09627626            1 
  394000    1.1911423    -2.924496    437.81177  0.092599781   0.09625161            2 
  395000    1.1839204   -2.9447381    437.51268  0.092302253  0.096227136            1 
  396000     1.186679   -2.9472316    439.64082  0.092517008  0.096203228            1 
  397000    1.2111617   -2.9453362    437.57279  0.091849872  0.096172629            3 
  398000    1.1693669   -2.9522731    437.59413  0.091623561  0.096144604            3 
  399000    1.1815525   -2.9399735    439.03662  0.091695201  0.096114577            1 
  400000    1.2084723   -2.9112606    441.62663  0.092005549   0.09608445            3 
  401000     1.196674   -2.9537226    441.66852  0.091784813  0.096053702            1 
  402000    1.1901723    -2.939317    444.53986  0.092151711  0.096020908            1 
  403000    1.1943783   -2.9614916    444.41663  0.091897566  0.095992238            1 
  404000    1.1895869   -2.9153136    445.60009   0.09191421   0.09596447            1 
  405000    1.1780188   -2.9543458     446.0205  0.091773766  0.095936485            1 
  406000    1.1791596   -2.9783238    447.05609  0.091760281    0.0959035            2 
  407000     1.175073    -2.955177    446.54084  0.091429328  0.095870084            1 
  408000    1.1962346   -2.9225736    448.38551  0.091582007  0.095835566            2 
  409000    1.1849251   -2.9837217    447.83417  0.091245756  0.095802558            2 
  410000    1.2043915   -2.9314125    451.92939  0.091855567  0.095768343            1 
  411000    1.2186735   -2.9591356    451.09369   0.09146263  0.095735269            2 
  412000    1.1814859    -2.945861    453.97492  0.091823406  0.095699079            3 
  413000    1.2048375   -2.9587565    451.89704  0.091181807  0.095661833            1 
  414000     1.159609    -2.940501     456.0647  0.091800464  0.095626139            2 
  415000    1.1888043   -2.9356877    455.24709  0.091415078  0.095589842            2 
  416000    1.1833193   -2.9649002    457.47753  0.091642133  0.095555835            2 
  417000    1.1771075   -2.9267084    457.59419   0.09144568  0.095524289            2 
  418000    1.1932966   -2.9297756    460.20719  0.091747845  0.095493847            1 
  419000    1.1936937   -2.9422015    460.15648   0.09151879  0.095463404            3 
  420000    1.2078252   -2.9344825    460.89593  0.091447605  0.095431637            2 
  421000    1.1936984   -2.9289376    460.17164  0.091087022  0.095400255            2 
  422000    1.1946663   -2.9550939    460.83568  0.091002306    0.0953652            3 
  423000    1.1913112   -2.9236644    462.57363  0.091129556  0.095330146            3 
  424000    1.1800863   -2.9504986    464.22838  0.091239854  0.095295798            1 
  425000    1.2030439   -2.9629593    462.43995    0.0906745  0.095261164            3 
  426000     1.208665   -2.9349923    464.43489  0.090851895  0.095221702            3 
  427000    1.1664139    -2.920899    466.73987  0.091088968  0.095184365            2 
  428000    1.2029694   -2.9349943    463.53922  0.090252964  0.095147369            1 
  429000    1.2035301   -2.9228874     468.5585  0.091017579  0.095109924            2 
  430000    1.1757718   -2.9449019    467.62439  0.090624881     0.095072            3 
  431000    1.1794416   -2.9352345    470.08164  0.090889722  0.095035088            2 
  432000    1.2068587   -2.9677557     471.2507  0.090904841  0.094998341            2 
  433000    1.1782485   -2.9490438    470.34479  0.090520552  0.094962143            2 
  434000    1.1847821   -2.9489664    472.19311  0.090666881  0.094928714            2 
  435000    1.1737942   -2.9336792    473.01064  0.090615064   0.09489379            1 
  436000    1.1708214   -2.9208509    473.55462  0.090511203    0.0948585            1 
  437000    1.1875732   -2.9545525    473.80719  0.090352247  0.094822342            1 
  438000    1.1839341   -2.9563963     477.2544  0.090801826  0.094784093            2 
  439000    1.1736502   -2.9285535    476.27298   0.09040869  0.094747506            2 
  440000    1.1731461   -2.9676107    476.79827  0.090302702    0.0947081            2 
  441000    1.1669772   -2.9303442    480.69678  0.090834615  0.094670671            2 
  442000    1.1854011   -2.9733737    477.73509  0.090070718  0.094631481            2 
  443000     1.175856   -2.9279087    480.70693  0.090426435  0.094592603            2 
  444000    1.1790513   -2.9451528    480.95689  0.090269686   0.09455116            2 
  445000    1.2222505    -2.940017    481.41076  0.090151827  0.094510515            2 
  446000    1.1716489   -2.9447329    481.96635  0.090053504  0.094471206            3 
  447000     1.201358   -2.9541903     485.0854  0.090433519  0.094431197            1 
  448000     1.161747   -2.9350822    484.62344  0.090145729  0.094392294            2 
  449000     1.194755   -2.9554977    485.33655   0.09007731  0.094353715            2 
  450000    1.1995139   -2.9379038    486.90466   0.09016753  0.094316251            2 
  451000    1.1719013   -2.9442604    487.87953  0.090147733   0.09427669            2 
  452000    1.1737623    -2.954657    490.38674  0.090410535  0.094237687            1 
  453000    1.1787065   -2.9098421    489.44479  0.090037673   0.09420072            2 
  454000    1.2053588   -2.9133507    491.87383   0.09028521  0.094163479            1 
  455000    1.1581034   -2.9527439     490.7938  0.089888975  0.094127062            1 
  456000    1.1827685   -2.9673631    492.38657  0.089982926  0.094090082            2 
  457000      1.16999   -2.9517142    493.70308   0.09002609  0.094052012            5 
  458000    1.1612519   -2.9483748    494.35204  0.089947606  0.094014449            1 
  459000    1.1796817   -2.9657123    495.69779  0.089995967  0.093977543            1 
  460000     1.158997    -2.919401      497.027  0.090041124  0.093940574            1 
  461000    1.1823736   -2.9420971    497.79304  0.089984281  0.093906582            1 
  462000    1.1795642   -2.9553271     498.3358   0.08988741  0.093872621            3 
  463000    1.1799487   -2.9305182    501.19379  0.090207665  0.093836808            2 
  464000    1.1960078   -2.9429563    501.90682  0.090141312  0.093801635            3 
  465000    1.2127075    -2.956038    502.75939  0.090100248  0.093766683            3 
  466000    1.1487883   -2.9276419    505.57412  0.090410251  0.093732906            2 
  467000    1.1562144   -2.9532061    501.97869  0.089575069  0.093698653            1 
  468000    1.1679787   -2.9765153    505.34628  0.089983312  0.093664814            3 
  469000    1.1850268     -2.98213    506.93752  0.090074186  0.093631874            1 
  470000    1.1523479   -2.9527018    506.98122  0.089890287  0.093598904            1 
  471000    1.1766075   -2.9690949     507.6722  0.089821691  0.093566696            1 
  472000    1.1807793     -2.97631    509.84427  0.090014878  0.093533466            3 
  473000    1.1890319   -2.9638771     512.3776  0.090270895  0.093499927            1 
  474000    1.1813913   -2.9604365    511.53045  0.089931513  0.093467539            2 
  475000    1.1897414    -2.959065    514.27701  0.090224036  0.093436093            3 
  476000     1.206978   -2.9530426    513.38526  0.089878372  0.093404743            3 
  477000    1.1429703   -2.9698706    515.33147  0.090029957  0.093373707            3 
  478000    1.1489895   -2.9572184    514.74534  0.089739424   0.09334242            2 
  479000    1.2025122   -2.9860635    516.72271  0.089896086  0.093309756            1 
  480000    1.1739429   -2.9330718    519.11123  0.090123478  0.093279093            1 
  481000    1.1845071   -2.9697198    517.99723   0.08974311  0.093247267            2 
  482000    1.1818173     -2.96526     519.5865   0.08983169  0.093216252            2 
  483000    1.2021178   -2.9470464    519.61146   0.08965001  0.093184966            2 
  484000    1.1854098   -2.9540467     524.8499  0.090366718   0.09315451            3 
  485000    1.1846926   -2.9487792    523.58143  0.089962445  0.093125167            3 
  486000    1.1818953   -2.9605843    522.61195  0.089611102  0.093096821            2 
  487000      1.16355   -2.9595705    525.77789  0.089968838  0.093068442            1 
  488000    1.1567742   -2.9325588     526.7931  0.089957838   0.09304153            1 
  489000    1.1793471    -2.956789    529.50281  0.090235653  0.093014423            1 
  490000    1.1779936   -2.9564568    531.06297  0.090316832   0.09298853            1 
  491000     1.189082   -2.9693395    527.52554  0.089532509  0.092960662            2 
  492000    1.1820991   -3.0007572    532.26201  0.090152779  0.092933779            3 
  493000    1.1891021   -2.9790256    533.12735  0.090116184  0.092906435            1 
  494000    1.1918453   -2.9618949    533.14817  0.089937275   0.09288284            1 
  495000    1.1719112   -2.9595413    536.02798    0.0902404  0.092859329            1 
  496000     1.156308   -2.9196225    535.60837  0.089987965   0.09283501            2 
  497000    1.1769395   -2.9202825    537.94025  0.090197896  0.092808984            1 
  498000    1.1582743   -2.9569438    536.26968  0.089737229  0.092782912            2 
  499000    1.1542403   -2.9450318    539.50285  0.090097337  0.092756274            2 
  500000    1.1708784   -2.9558073    537.40345  0.089567242  0.092731824            3 
  501000    1.1660447   -2.9692722    541.47751   0.09006612  0.092706202            1 
  502000    1.1589696   -2.8921371    543.62341   0.09024293  0.092682048            1 
  503000    1.1731811   -2.9610785    544.01803  0.090128899   0.09265928            2 
  504000    1.1595603   -2.9483207     547.7769  0.090571577  0.092638187            2 
  505000    1.1821132    -2.963689    546.68374  0.090211839  0.092615475            1 
  506000       1.1681   -2.9437376    545.75656  0.089880857  0.092591074            2 
  507000    1.1581754   -2.9895092    546.44031  0.089815961  0.092567402            2 
  508000    1.1569371   -2.9595395     551.1735    0.0904156  0.092545534            1 
  509000    1.1888516   -2.9584223    549.18649  0.089912654  0.092523436            2 
  510000      1.16393   -2.9513397    551.85644  0.090172621   0.09250012            2 
  511000    1.1562281   -2.9490832    552.08561   0.09003353  0.092477786            3 
  512000    1.1574182    -2.943559    553.90699  0.090154132  0.092455859            3 
  513000    1.1561429   -2.9546329    552.89299  0.089813676  0.092435349            2 
  514000    1.1597644   -2.9740364    552.37327  0.089554681  0.092414556            2 
  515000    1.1745798    -2.937819    553.46507  0.089557454   0.09238946            3 
  516000    1.1597268   -2.9677312    554.77612  0.089595626  0.092365301            2 
  517000    1.1551568   -2.9616883     552.7678  0.089098614  0.092340873            2 
  518000    1.1609761   -2.9640677    556.03586  0.089452358  0.092315796            2 
  519000    1.1690329     -2.92779    559.90796  0.089901727  0.092291807            5 
  520000    1.1444204    -2.921813    559.53292  0.089668738  0.092269024            2 
  521000    1.1820477   -2.9661181    559.72924  0.089528029  0.092245107            2 
  522000    1.1487419   -2.9597093    561.45931  0.089632712  0.092221846            2 
  523000    1.1806312   -2.9601638     565.4473  0.090096765  0.092199427            2 
  524000    1.1538765   -2.9614165    563.52901  0.089619754  0.092176206            3 
  525000    1.1400351   -2.9261288    567.04271  0.090006779  0.092154146            2 
  526000    1.1560975   -2.9435122    567.35718  0.089885485  0.092131573            2 
  527000    1.1857446   -2.9547733    568.81693   0.08994575  0.092109426            3 
  528000    1.1517721    -2.942275    568.92532  0.089792507  0.092087202            2 
  529000    1.1755173   -2.9497907    567.04309  0.089326259  0.092065539            2 
  530000    1.1603444   -2.9545599    569.01306  0.089467463  0.092042271            3 
  531000    1.1578078   -2.9983977    568.41975  0.089205861  0.092018799            1 
  532000    1.1614071   -2.9648383    573.63279   0.08985476  0.091995228            3 
  533000    1.1565387   -2.9733149    572.50816  0.089510345  0.091972514            2 
  534000     1.166006   -2.9589371     571.9052  0.089248627  0.091951119            3 
  535000    1.1748412   -2.9931957    573.84314  0.089383667   0.09192855            2 
  536000    1.1588607   -2.9604004    576.65108  0.089653464  0.091906561            1 
  537000    1.1629573   -2.9571492    579.15569  0.089875185  0.091885247            1 
  538000    1.1565139   -2.9550614    577.15722  0.089398578  0.091864889            2 
  539000     1.210756   -2.9793074    582.10206  0.089997226  0.091843527            2 
  540000    1.1624771   -2.9819683    580.23853  0.089542983  0.091823126            1 
  541000    1.1691636   -2.9772976    582.71173   0.08975843  0.091803926            1 
  542000    1.1440049   -2.9667906    584.76757  0.089908913    0.0917872            2 
  543000    1.1344246   -2.9551566    586.97082  0.090081464  0.091772409            1 
  544000    1.1589761   -2.9397585    587.93219  0.090063142  0.091756042            1 
  545000    1.1662886   -2.9412052    588.63473   0.09000531  0.091742826            1 
  546000     1.176477   -2.9536483    591.28945  0.090245642  0.091729809            1 
  547000    1.1444761   -2.9547148    592.63088  0.090285021   0.09171574            2 
  548000    1.1553981   -2.9375023    594.34895  0.090381531  0.091700768            2 
  549000    1.1693603   -2.9896456    592.60484  0.089952162  0.091687287            3 
  550000    1.1557331   -2.9855017    591.73655  0.089657053  0.091670959            2 
  551000    1.1675744   -2.9798025    592.80022  0.089655206  0.091655079            1 
  552000     1.166679   -2.9416895    595.68461  0.089928231  0.091638765            1 
  553000    1.1713063   -2.9711948    600.33654  0.090466628  0.091622551            1 
  554000    1.1705544   -2.9508318    597.80012  0.089921799  0.091607915            2 
  555000    1.1483868   -2.9847607    597.07592  0.089651038  0.091591543            5 
  556000     1.158568   -2.9657001    597.34816  0.089530599  0.091574816            1 
  557000    1.1673702   -3.0147969    597.54909  0.089399924  0.091556311            1 
  558000      1.17022   -2.9895058    598.79686  0.089426054  0.091537999            3 
  559000    1.1442183   -2.9509208    602.47424  0.089814288  0.091520082            1 
  560000    1.1728533   -2.9519027    599.22858   0.08917092  0.091500685            1 
  561000    1.1478219   -2.9942745    599.53449   0.08905741  0.091480619            1 
  562000    1.1653492   -2.9654553     605.1499  0.089731599  0.091459655            1 
  563000    1.1633654   -2.9732428    604.35795  0.089454995  0.091439773            1 
  564000    1.1644007   -2.9489734    604.36714  0.089297746  0.091419326            1 
  565000    1.1587657   -2.9742486    605.93336  0.089370702  0.091399661            1 
  566000    1.1723746   -2.9638753    606.34971  0.089274104  0.091379926            4 
  567000    1.1899161   -2.9377751    607.91282  0.089346387  0.091360682            2 
  568000    1.1476967    -2.973748    610.06213   0.08950442   0.09134118            3 
  569000    1.1681385   -2.9817582    611.50425  0.089558327  0.091323963            4 
  570000    1.1454236   -2.9784065    610.78867  0.089296589  0.091304074            2 
  571000    1.1566922   -2.9660894    611.77391  0.089283992  0.091286124       -1e+20 
  572000    1.1297465   -2.9778946    610.89496  0.088999849  0.091266595            1 
  573000    1.1609956   -2.9825061    612.61303  0.089094391  0.091247564            2 
  574000    1.1536591    -2.968561     615.0757  0.089296705  0.091230151            2 
  575000    1.1490828   -2.9841862    617.18499  0.089447099  0.091212113            1 
  576000    1.1562092   -2.9800232    618.24159  0.089444674  0.091196201            2 
  577000    1.1770774   -2.9722575    620.53842  0.089621377  0.091179406            2 
  578000    1.1631583   -2.9802804    618.90082  0.089230223  0.091161179            2 
  579000     1.173842   -2.9816864    618.06164  0.088955331  0.091142997            3 
  580000    1.1818291   -2.9654649    623.21352  0.089542172  0.091126139            1 
  581000    1.1669693   -2.9731006    622.84042   0.08933454  0.091108849            3 
  582000    1.1560557   -2.9633124    622.94209  0.089195603  0.091092578            2 
  583000    1.1294621   -3.0099893    625.32636  0.089383414  0.091075492            1 
  584000    1.1646761   -2.9570706    623.92226  0.089030003  0.091059877            2 
  585000    1.1778106   -2.9705579    626.10467  0.089188699   0.09104156            2 
  586000    1.1559479   -2.9641157    631.21682  0.089763484  0.091025094            2 
  587000    1.1657732   -2.9690891    628.80274   0.08926785  0.091008873            2 
  588000    1.1656864   -2.9574259    632.52306  0.089643291   0.09099291            2 
  589000    1.1535692   -2.9970378    629.73021  0.089095955  0.090976951            3 
  590000    1.1684036   -2.9641509    634.77434  0.089657392   0.09096047            1 
  591000    1.1276801   -2.9754529    633.89688  0.089381963  0.090943492            1 
  592000     1.134845   -2.9905262    631.34937  0.088872378  0.090926605            1 
  593000    1.1260328   -2.9743798    634.94698  0.089228074  0.090909895            1 
  594000    1.1804183   -2.9833702    634.34847  0.088993894  0.090892699            3 
  595000    1.1821941   -2.9701209    639.19305  0.089522836  0.090876058            3 
  596000    1.1559469   -2.9806672    638.94091  0.089337376  0.090861199            2 
  597000    1.1775898   -2.9453361    639.99076  0.089334277  0.090847008            1 
  598000    1.1480211    -2.985929    640.47581  0.089252482  0.090831044            2 
  599000    1.1475226   -2.9837877    644.10875  0.089608897  0.090816769            2 
  600000    1.1602646   -2.9804802    644.36618  0.089495302  0.090801794            2 
  601000    1.1341302   -2.9336355    645.54151  0.089509361   0.09078695            4 
  602000    1.1460177   -2.9773993    646.73502  0.089525888  0.090772514            2 
  603000    1.1399325   -2.9947199    644.85694  0.089117874  0.090757293            2 
  604000    1.1536781   -2.9669246    647.56406  0.089343827  0.090741595            1 
  605000    1.1692883   -2.9930166    648.16144  0.089278435  0.090724969            2 
  606000    1.1338905   -2.9808013    647.85721  0.089089276  0.090708423            3 
  607000    1.1519753   -2.9829418    652.50723  0.089580894  0.090693889            2 
  608000    1.1465687   -2.9745284    651.22666  0.089258039  0.090677651            2 
  609000    1.1531416   -2.9797351    651.93495  0.089208394  0.090662342            3 
  610000    1.1197497   -2.9815992    650.72915  0.088897424  0.090647052            2 
  611000    1.1605312   -2.9713397    652.26747  0.088961739  0.090630724            1 
  612000    1.1595255   -2.9900214    653.96185  0.089047093  0.090613593            2 
  613000    1.1412772   -2.9646122    654.07427  0.088917111  0.090597803            2 
  614000    1.1688209   -2.9849086    657.21538  0.089198613  0.090581936            3 
  615000    1.1753651   -2.9568338    657.15949  0.089046002  0.090566002            2 
  616000    1.1673829   -2.9858883     655.1506   0.08862968   0.09055029            1 
  617000    1.1665337   -2.9332366    659.09434  0.089018684  0.090534656            1 
  618000    1.1348644   -2.9652451    661.57286  0.089208853  0.090519296            3 
  619000    1.1443908   -2.9928432    662.64249  0.089208736  0.090504953            2 
  620000    1.1514879   -2.9737285    664.28419  0.089285509  0.090489107            2 
  621000    1.1477821   -2.9743177     665.2904  0.089276758  0.090474834            1 
  622000    1.1547182   -2.9792724    663.73734  0.088925152  0.090459135            2 
  623000    1.1418454   -2.9800343    666.24358  0.089117654  0.090443594            1 
  624000    1.1615056   -2.9933525    666.48251  0.089006745  0.090429016            2 
  625000    1.1578496   -2.9871488    665.34456  0.088712607  0.090413415            2 
  626000    1.1501785   -3.0218723    666.16854  0.088680583  0.090399651            3 
  627000    1.1831787    -2.964289     667.2727  0.088685898  0.090385006            1 
  628000    1.1650185   -2.9713132    672.20978  0.089199812  0.090371503            2 
  629000    1.1310915   -2.9474296    672.00885  0.089031379  0.090357796            1 
  630000    1.1431754   -2.9943394    672.76424  0.088989979  0.090344337            3 
  631000    1.1356386   -2.9899323    671.76646  0.088717177  0.090330856            4 
  632000    1.1600717   -2.9784839    673.45726  0.088799744  0.090315556            2 
  633000    1.1601567   -2.9798346       673.72   0.08869405  0.090302171            2 
  634000    1.1728468   -3.0159018    674.77351  0.088692627  0.090285749            1 
  635000    1.1275897   -3.0157257    675.57023  0.088657511  0.090268776            1 
  636000    1.1475976   -2.9717321    676.16102  0.088595521  0.090251834            1 
  637000     1.144883    -2.971063    676.72975  0.088530842   0.09023461            3 
  638000    1.1430663   -2.9967425    678.15054  0.088577657  0.090216233            2 
  639000    1.1215709   -2.9983122    678.90057  0.088536851  0.090197864            3 
  640000    1.1484848    -2.990209    680.54739  0.088612941  0.090180388            1 
  641000    1.1635351    -2.983356    680.85341  0.088514484  0.090162288            3 
  642000    1.1637946    -2.978766    679.78162   0.08823749  0.090144686            4 
  643000    1.1544757   -2.9797602    681.41085  0.088311411  0.090127555            2 
  644000    1.1604534   -2.9769797    680.82994  0.088099113  0.090109885            3 
  645000    1.1324543   -2.9996883    686.38078  0.088679687  0.090091034            2 
  646000    1.1465264   -3.0035984    683.95992  0.088230124  0.090073123            3 
  647000    1.1448889   -3.0023554    685.56828  0.088300912  0.090055482            2 
  648000    1.1351247    -2.998503    690.70325  0.088825007   0.09003856            1 
  649000    1.1461378   -2.9889706    691.34915  0.088771077  0.090023427            2 
  650000    1.1417504   -2.9400682    690.21755   0.08848943  0.090007358            2 
  651000    1.1227985   -2.9888164     693.0643  0.088717909  0.089990882            2 
  652000    1.1352103   -2.9940951    693.00522  0.088574287  0.089973663            2 
  653000    1.1701994   -2.9674618    693.04448  0.088443655  0.089956339            4 
  654000    1.1383602   -2.9779423    696.55639  0.088755911  0.089939405            2 
  655000    1.1411857   -2.9893741    698.37055  0.088851215  0.089923507            7 
  656000    1.1744105   -2.9839975    694.76358  0.088257568  0.089907128            2 
  657000    1.1360732   -2.9869551    700.01218  0.088788962  0.089890663            1 
  658000     1.151914   -2.9981424      694.143  0.087910715  0.089873053            1 
  659000    1.1394221   -2.9861689      698.034  0.088269348  0.089854739            2 
  660000    1.1324428   -2.9626309    699.61681  0.088335456  0.089836423            1 
  661000    1.1381615    -2.986603    700.85882  0.088358399  0.089818905            1 
  662000    1.1513895   -3.0000697    700.48038  0.088177289  0.089802068            1 
  663000    1.1174761   -3.0124803    704.33016  0.088528175  0.089785305            1 
  664000    1.1753011   -3.0023562    702.24842  0.088133587  0.089768575            1 
  665000    1.1356003    -2.993411    703.17819  0.088117567  0.089751546            2 
  666000    1.1544373   -3.0059795    701.50956  0.087776471  0.089735108            2 
  667000     1.168018   -3.0071175    704.96348  0.088076397  0.089718166            3 
  668000    1.1578196   -3.0105009    704.04981  0.087830565  0.089701754            3 
  669000    1.1605059   -3.0089362    706.84811  0.088047846  0.089684303            2 
  670000    1.1058213   -3.0224827    708.17732  0.088081756  0.089666949            1 
  671000    1.1579778   -2.9872667    710.95756  0.088295772  0.089650015            2 
  672000    1.1306962   -3.0207191    709.37817  0.087968523  0.089632524            2 
  673000    1.1433009   -3.0182627    712.20158  0.088187417  0.089615862            3 
  674000    1.1554948   -3.0233385     712.5778  0.088103091  0.089598369            3 
  675000    1.1338968   -2.9704559    715.64023  0.088350645  0.089582372            2 
  676000    1.1234202   -3.0122667     710.9029  0.087635959  0.089564311            1 
  677000    1.1524251    -2.974901    713.89952  0.087875372   0.08954591            5 
  678000    1.1610274   -2.9922441    715.65658  0.087961723  0.089529208            2 
  679000    1.1579976   -3.0114806    718.74853  0.088211651  0.089511749            8 
  680000    1.1558159   -2.9750444    719.22821  0.088140712  0.089494416            3 
  681000    1.1410892   -2.9788639     719.7846  0.088079369  0.089478452            1 
  682000    1.1587361   -2.9940633    721.45126  0.088153868  0.089461402            4 
  683000    1.1402508   -3.0081279    718.56204  0.087672283  0.089444921            3 
  684000    1.1410633   -3.0010394    720.81639  0.087818761  0.089427891            3 
  685000    1.1781023   -2.9933728    722.57409  0.087904391  0.089410962            1 
  686000    1.1444057   -2.9642867    727.59021  0.088385593  0.089394513            2 
  687000     1.134824   -2.9754525     725.0122  0.087944227  0.089378114            2 
  688000    1.1118635   -2.9890529    725.35345  0.087857734  0.089360801            3 
  689000    1.1508116   -2.9701664    729.39749  0.088219339  0.089341796            3 
  690000    1.1392674   -2.9873096    729.45133  0.088097987  0.089323929            2 
  691000    1.1363895   -2.9908943    726.62731  0.087629922  0.089305219            3 
  692000    1.1236026   -2.9943775    729.13006  0.087804679  0.089286555            2 
  693000    1.1258427   -2.9767151     729.5076  0.087723376  0.089268943            1 
  694000    1.1280745   -2.9833719    730.20319  0.087680498  0.089251932            4 
  695000    1.1481112   -2.9982975    733.17488  0.087910657  0.089234621            3 
  696000    1.1318612   -3.0106547    733.85748  0.087866078   0.08921813            1 
  697000    1.1419773   -2.9915742    733.88505   0.08774331  0.089202981            1 
  698000    1.1451356   -3.0058816    738.76277  0.088199949  0.089187963            1 
  699000    1.1238498   -3.0020624    738.88902  0.088088819  0.089172546            4 
  700000    1.1313011   -3.0068248    738.30499  0.087893451  0.089158361            1 
  701000    1.1275735   -3.0177533     740.2879  0.088003792  0.089144467            1 
  702000    1.1563494   -3.0106958    740.79325   0.08793842  0.089130409            3 
  703000    1.1302385   -2.9840983    743.59047  0.088144911  0.089116375            4 
  704000    1.1767318   -3.0165322    744.47159  0.088124005  0.089101193            7 
  705000    1.1653678   -2.9978549    741.44273  0.087640984  0.089085717            1 
  706000    1.1330185   -3.0135966    741.03638  0.087468883  0.089070411            4 
  707000     1.114483     -2.98505    746.23971  0.087958476  0.089054904            2 
  708000    1.1376696   -3.0083085    749.67934  0.088239094  0.089040998            5 
  709000    1.1329405   -3.0040807     747.4252  0.087849695  0.089026944            2 
  710000    1.1195006    -3.007929    749.79885  0.088004559  0.089011381            6 
  711000    1.1318703   -3.0297899    748.82291  0.087766399  0.088995858            1 
  712000    1.1552532   -3.0112457    750.85637  0.087881129  0.088980876            2 
  713000    1.1370202   -3.0108737    750.38872  0.087703216  0.088965741            2 
  714000    1.1491639   -2.9937569    752.55951  0.087833743  0.088951336            1 
  715000    1.1308139   -2.9959233    753.53493  0.087824584  0.088937954            1 
  716000    1.1298816   -3.0134543    751.11743  0.087420558  0.088922716            2 
  717000    1.1070372   -2.9978696    757.52669  0.088043548  0.088908931            3 
  718000    1.1521246   -3.0161564    756.59248  0.087812497  0.088895244            1 
  719000    1.1347072   -2.9832264    758.73252    0.0879384  0.088880875            2 
  720000    1.1362633   -3.0298154    757.06022   0.08762271  0.088867599            1 
  721000    1.1241644   -3.0360968    757.54767   0.08755752  0.088853315            1 
  722000    1.1431355   -2.9731216    762.03324  0.087953975  0.088840369            2 
  723000    1.1504474   -3.0260005     762.6516  0.087903596   0.08882587            2 
  724000    1.1456337   -3.0342853    761.25944  0.087621943  0.088811583            1 
  725000    1.1388904   -2.9705888     763.8208  0.087795494  0.088797259            2 
  726000    1.1354098   -3.0229277    761.94044  0.087458728  0.088783355            1 
  727000    1.1296429   -3.0286028    763.47645  0.087514494  0.088768271            2 
  728000     1.139071   -3.0137998    767.86327  0.087896437  0.088753839            2 
  729000    1.1491331   -2.9946165     770.7261  0.088103121  0.088740113            1 
  730000    1.1365042   -2.9797133    773.91299  0.088346232  0.088726439            1 
  731000    1.1520691   -2.9933417    772.64684  0.088081035  0.088712791            2 
  732000    1.1389591    -2.961151    769.96299  0.087655167   0.08869938            1 
  733000    1.1307219   -3.0201735    776.19797  0.088244426  0.088686087            2 
  734000    1.1414338   -3.0133991    771.68345  0.087611655  0.088672975            1 
  735000    1.1357167   -2.9915758    775.38849  0.087912528  0.088658852            2 
  736000    1.1504606   -2.9974509    773.91909  0.087626708  0.088644402            2 
  737000    1.1495028   -2.9692774    774.13211  0.087531898  0.088629799            2 
  738000    1.1487375   -2.9950393    775.01024  0.087512448  0.088615208            2 
  739000    1.1232933   -3.0200646    775.17467  0.087412569  0.088600346            2 
  740000    1.1280933   -3.0072686    778.15689   0.08763028  0.088586261            3 
  741000    1.1729834   -3.0023094    775.42947  0.087205294  0.088572507            2 
  742000    1.1268346   -3.0245229    778.71096  0.087456307  0.088557108            1 
  743000    1.1021284    -3.015524    778.07071  0.087266791   0.08854261            3 
  744000    1.1149685   -2.9926107    783.55775  0.087764085  0.088528659            1 
  745000    1.1362738   -2.9768847    782.87121  0.087569486  0.088513889            1 
  746000    1.1559453   -3.0168401    780.18487  0.087152018  0.088498467            1 
  747000     1.144391   -3.0001076    782.37218   0.08727936  0.088482687            2 
  748000    1.1633279   -3.0001848    782.65958  0.087194695  0.088468641            2 
  749000    1.1223317   -2.9996372    786.89252  0.087549235  0.088455137            3 
  750000    1.1847454    -3.019704    789.31963  0.087702181  0.088442656            2 
  751000    1.1173627   -3.0192541    784.44196  0.087044159  0.088429026            2 
  752000    1.1269849   -3.0246217    788.75114  0.087405934  0.088414926            2 
  753000    1.1195988   -3.0040911    789.00435  0.087317879  0.088400792            2 
  754000    1.1381793   -3.0195784    788.35634  0.087130453  0.088386421            1 
  755000    1.1383086     -2.99605    790.62953  0.087265952  0.088371159            2 
  756000    1.1282222   -2.9828814    795.01269  0.087633674  0.088357351            4 
  757000    1.1176993    -3.002867    788.03622  0.086749914  0.088344358            3 
  758000    1.1388737   -3.0185859    794.99652  0.087400673  0.088331137            2 
  759000    1.1123425   -3.0066626    796.30568  0.087429257  0.088317056            3 
  760000    1.1165041   -2.9840575    797.39844  0.087434039  0.088303214            3 
  761000    1.1177786   -2.9956011    801.29551  0.087745894   0.08829039            3 
  762000    1.1224323   -3.0210673    799.32593  0.087415347  0.088276501            4 
  763000    1.1378226   -3.0032356    801.00655  0.087484333   0.08826347            2 
  764000    1.1248577   -3.0320728    800.91336  0.087359659  0.088250644            1 
  765000    1.1635226   -3.0183402    801.96602  0.087360133  0.088237683            2 
  766000    1.1543725   -3.0017241     801.8181  0.087229993  0.088224544            2 
  767000    1.1500557   -3.0052877    802.50505    0.0871909  0.088210061            1 
  768000    1.1408481   -3.0030625     807.1346  0.087579709  0.088195306            2 
  769000    1.1373096   -3.0230542    805.96642   0.08733923  0.088181045            2 
  770000    1.1321621   -3.0113937    805.86923  0.087215285  0.088166839            1 
  771000    1.1337201   -2.9977795    807.69607  0.087299619  0.088152953            1 
  772000    1.1300537   -3.0199456    803.52069  0.086735826  0.088138518            3 
  773000    1.1229835   -3.0050821    810.06188  0.087328793  0.088123363            2 
  774000    1.1254537   -3.0409123    811.28802  0.087347978  0.088109406            2 
  775000    1.1371392   -3.0015264    810.45705   0.08714592  0.088095611            1 
  776000    1.1495085   -3.0463223    809.23969  0.086902887  0.088081521            3 
  777000    1.1188353   -2.9961173    812.71357  0.087163618  0.088067082            5 
  778000    1.1308119   -3.0289117    812.74389  0.087054829  0.088052628            1 
  779000    1.1117752   -3.0338491    811.64912  0.086825964  0.088038016            2 
  780000    1.1216977   -3.0153727    816.02856  0.087182539   0.08802342            1 
  781000    1.1195646   -3.0161485    814.13194  0.086868538  0.088009018            2 
  782000    1.1367239   -3.0173626     819.1733  0.087294682  0.087994946            2 
  783000    1.1353123   -2.9994429    821.30388  0.087409949  0.087982205            1 
  784000    1.1125705   -3.0065754    819.00954  0.087054585  0.087969255            3 
  785000    1.1392808   -3.0120283    823.48749  0.087419055  0.087956548            3 
  786000     1.136653   -2.9796808    824.58023  0.087423688  0.087942855            1 
  787000    1.1314915   -2.9871035    824.88368  0.087344736  0.087930072            3 
  788000     1.095573   -3.0463677    822.93393    0.0870277  0.087916945            1 
  789000     1.113361   -2.9978064    826.13351  0.087255335  0.087902329            2 
  790000    1.1405884   -2.9757274    828.00087  0.087341864  0.087888481            1 
  791000    1.1052008   -3.0329649    822.17242  0.086617406  0.087874847            4 
  792000    1.1278075   -3.0256139     828.3315  0.087156092  0.087861689            4 
  793000    1.1239544    -3.041146    826.93953  0.086899908  0.087849345            2 
  794000    1.1182148   -3.0285226    829.38006  0.087046605  0.087836464            1 
  795000    1.1078494    -3.007409     833.2663  0.087344476  0.087823705            2 
  796000    1.1096099   -2.9939442    829.35013  0.086824762  0.087810743            1 
  797000    1.1469627   -3.0244922    834.79025  0.087284635  0.087798232            2 
  798000     1.126335   -3.0212243    836.44483   0.08734804  0.087785434            2 
  799000    1.1489954   -3.0164642    835.02641  0.087090781  0.087774151            1 
  800000    1.1517945   -3.0047089    838.05791  0.087297699  0.087762717            2 
  801000    1.1174384   -3.0073188    837.05425  0.087084296  0.087750375            2 
  802000    1.1407164   -3.0319893    835.21198  0.086784287  0.087736998            3 
  803000    1.1257306   -3.0133232     838.5166  0.087019158  0.087723991            6 
  804000    1.1210055   -3.0246311    839.93772  0.087058221  0.087711242            1 
  805000    1.1357841    -3.021218    842.97263  0.087264247  0.087698151            1 
  806000    1.1348129   -2.9907638    838.36504  0.086679595  0.087685179            1 
  807000    1.0975889   -3.0194231    843.72349  0.087125516  0.087672415            3 
  808000    1.1093754   -3.0271557    844.61669  0.087109807  0.087659287            1 
  809000    1.1176756   -3.0267583    841.98599  0.086731148  0.087645776            2 
  810000    1.1169068    -3.037396    843.06956  0.086735551  0.087632247            2 
  811000    1.1274581   -3.0088678    847.47678  0.087081461   0.08761972            3 
  812000    1.1434429   -3.0391648    845.07772  0.086728009  0.087606971            3 
  813000     1.123208   -3.0008018     844.3079  0.086542426  0.087593874            2 
  814000    1.1187109   -3.0172992    846.27287  0.086637272   0.08758131            2 
  815000    1.1124583   -3.0262414    848.92083  0.086801721  0.087568026            1 
  816000    1.1308757   -2.9928572    848.28795  0.086630714  0.087554922            1 
  817000    1.1230813   -3.0181702    852.34683  0.086938681  0.087542876            1 
  818000    1.1449448   -3.0473153    845.07172  0.086091251  0.087529309            3 
  819000    1.1249512   -2.9961739    857.29202   0.08722955  0.087516927            2 
  820000    1.1053379   -3.0430837    852.45136  0.086631236  0.087504363            1 
  821000    1.1198251   -3.0097197    851.00758   0.08637917  0.087491113            2 
  822000    1.1177934   -3.0217781     855.7474  0.086754603  0.087478677            1 
  823000    1.1153455   -3.0212602    857.59452  0.086836221  0.087465488            3 
  824000    1.1466967    -2.990753    855.18104  0.086486756  0.087453955            1 
  825000    1.0955687   -2.9939826    862.01261   0.08707198  0.087443053            2 
  826000    1.1006816   -3.0193063    856.60685  0.086421191  0.087431347            3 
  827000    1.0936601   -3.0443539     860.5112  0.086710117  0.087418877            3 
  828000    1.1241233   -3.0282859    861.90776   0.08674595  0.087405814            1 
  829000     1.122112   -3.0158889    860.39818  0.086489563   0.08739301            1 
  830000    1.1286972   -3.0198476    861.45966  0.086491933    0.0873799            2 
  831000    1.0994094    -3.020941    859.34832  0.086176125  0.087365876            2 
  832000    1.1042458    -3.013217    869.00114  0.087039377  0.087352459            2 
  833000    1.1271259   -3.0149267    864.85697  0.086520305  0.087338341            1 
  834000    1.1368131   -3.0065412    866.80798  0.086611508  0.087325347            4 
  835000    1.0903572   -3.0271232    867.80869  0.086607653  0.087312503            2 
  836000    1.1315528    -3.017009    866.84915  0.086408408  0.087299666            2 
  837000    1.1134793   -3.0272636    869.11154   0.08653042  0.087286542            2 
  838000    1.1346611   -3.0189664    872.93451   0.08680733  0.087275017            1 
  839000     1.095333   -3.0121667    869.99575  0.086411973  0.087262582            1 
  840000    1.1111945   -3.0326951    871.52019  0.086460336    0.0872497            2 
  841000    1.1367953   -3.0552516     871.6553  0.086370918  0.087237576            2 
  842000    1.1353579   -3.0238018    876.47448  0.086745297  0.087224152            1 
  843000    1.0963369   -3.0033327    876.12572   0.08660792  0.087211399            2 
  844000    1.1303044   -3.0592251     877.1747  0.086608876  0.087198459            2 
  845000     1.135723   -3.0300393    878.93943  0.086680417  0.087185553            1 
  846000    1.1153166   -3.0341522    875.47825  0.086237022  0.087173717            3 
  847000    1.1195986   -3.0325971    883.91375  0.086965146  0.087162088            1 
  848000    1.1238574   -3.0153657    878.11329   0.08629258  0.087150307            2 
  849000    1.1587641     -3.02343    881.41743  0.086515256  0.087138174            3 
  850000     1.126697   -3.0365162    882.41187  0.086510968  0.087125821            3 
  851000    1.1325403   -3.0813199    879.81371  0.086154887  0.087113426            2 
  852000    1.1083187   -3.0421678    881.85024  0.086252957  0.087100993            2 
  853000     1.102139   -3.0221804    887.13313  0.086667949  0.087087854            3 
  854000    1.1286888   -3.0337501    888.32016  0.086682296  0.087076193            2 
  855000    1.1109633   -3.0231072    888.50443  0.086598872  0.087064298            4 
  856000    1.0969678   -3.0394457    890.69137  0.086710609  0.087053346            1 
  857000    1.0961296   -3.0389977    891.88937  0.086725921  0.087041683            2 
  858000    1.0944772   -3.0218291    894.68169  0.086896046  0.087029837            3 
  859000    1.0932929   -3.0121558    892.02356  0.086537015  0.087018218            3 
  860000    1.1205298   -3.0659287    893.24741  0.086554981  0.087006652            2 
  861000    1.1432224   -3.0319609    893.58531  0.086487157  0.086995338            4 
  862000    1.0997158   -3.0226317    895.42199  0.086564384  0.086983947            1 
  863000    1.0934045   -3.0559768    896.78529  0.086595721  0.086972868            4 
  864000    1.1183976   -3.0370883    898.34685  0.086646108  0.086960757            3 
  865000    1.1342384   -3.0393311    893.65639  0.086094065  0.086949314            2 
  866000    1.1257713   -3.0419078    897.25177  0.086340625  0.086937896            2 
  867000    1.0903791   -3.0212972    899.68164   0.08647459  0.086926289            3 
  868000    1.1019364   -3.0608387    903.23762  0.086716361  0.086915697            4 
  869000    1.0922755   -3.0140158    901.94664  0.086492773  0.086904225            2 
  870000    1.1051061   -3.0366351    901.21837  0.086323599  0.086892581            4 
  871000    1.1343973   -3.0297636    902.41076  0.086338573  0.086880764            2 
  872000    1.1077882   -3.0394465    900.20493  0.086028759  0.086869143            1 
  873000    1.1029853   -3.0163972    907.97461   0.08667188  0.086857712            2 
  874000     1.121979   -3.0267956    906.54916    0.0864368  0.086846514            3 
  875000    1.1190228   -3.0209504    903.61331  0.086058411   0.08683542            2 
  876000    1.1208815   -3.0546313    907.19247  0.086300654  0.086823669            1 
  877000    1.1271996   -3.0372463    910.67382   0.08653305  0.086812236            3 
  878000     1.111167   -3.0508154    912.69887  0.086626696   0.08680027            2 
  879000    1.1050482   -3.0134532    910.42747  0.086312806  0.086788422            2 
  880000    1.1132437   -3.0250667    914.70747  0.086620026  0.086776758            3 
  881000    1.1260493   -3.0298105    912.93718  0.086354255  0.086765196            3 
  882000    1.1037517   -3.0150634     914.4654  0.086400737  0.086752992            1 
  883000    1.1370652   -3.0430845    913.19461  0.086182957  0.086742051            3 
  884000     1.115829   -3.0475721     919.8891  0.086716544  0.086731134            3 
  885000    1.1206679   -3.0329791    915.64875  0.086219279  0.086720157            3 
  886000    1.0798698   -3.0493411    919.48743  0.086483016  0.086709801            2 
  887000    1.1050357   -3.0203366    920.93436  0.086521454  0.086699174            2 
  888000    1.1117494   -3.0432206    923.00648  0.086618476  0.086688816            1 
  889000    1.1144803   -3.0442177    920.75081    0.0863096  0.086678191            2 
  890000    1.0794371   -3.0540708    921.41471  0.086274785  0.086667552            1 
  891000    1.0852421   -3.0197717    923.26115   0.08635065  0.086657126            1 
  892000    1.0908254   -3.0397373    924.88825  0.086405853  0.086646761            2 
  893000    1.1186581   -3.0393735    926.74476  0.086482341  0.086636032            2 
  894000    1.1263003    -3.042745    921.43755  0.085890898  0.086625261            3 
  895000    1.1101206   -3.0358949    921.08555  0.085762156  0.086613358            6 
  896000    1.0862374   -3.0340668    924.69308   0.08600196  0.086601855            1 
  897000    1.1264722   -3.0022888    928.08502  0.086221202  0.086590161            1 
  898000    1.0827353     -3.02285    925.28525  0.085865372  0.086578248            3 
  899000    1.1172782   -3.0619909    922.68125  0.085528481  0.086565971            2 
  900000    1.0857885    -3.065976    924.83164  0.085632559  0.086553636            2 
  901000    1.1190389   -3.0239651    929.99783  0.086015338  0.086540793            2 
  902000    1.1235638   -3.0583551    932.20539  0.086123927   0.08652954            1 
  903000    1.1143918   -3.0416393    928.97748  0.085730664  0.086517478            2 
  904000    1.1256405   -3.0395684    930.60762  0.085786101  0.086506006            2 
  905000     1.087247   -3.0444229    936.33941  0.086219098  0.086494585            7 
  906000    1.1177889   -3.0514228    936.49253  0.086138018  0.086483511            2 
  907000    1.1334878   -3.0225773    935.59036  0.085960158  0.086472637            2 
  908000     1.127582   -3.0530077    939.17553  0.086194524  0.086461043            1 
  909000    1.1393716   -3.0236056    936.37978  0.085843397  0.086450223            1 
  910000    1.1149425   -3.0526737     938.1653  0.085912573   0.08643885            1 
  911000    1.1069283   -3.0408919    944.14839  0.086365568  0.086426733            2 
  912000    1.0889854   -3.0384644     939.2284  0.085821309  0.086415211            1 
  913000    1.0839925   -3.0465664    943.41419  0.086109364  0.086404392            1 
  914000    1.1226524    -3.051226    941.26746  0.085819425  0.086393757            1 
  915000    1.1041222   -3.0303306    945.57284  0.086117745   0.08638315            2 
  916000    1.1271362    -3.068142     939.6035  0.085480667  0.086371417            2 
  917000     1.099449   -3.0635819    943.03213   0.08569903  0.086359642            2 
  918000    1.1282627   -3.0462031    945.94742  0.085870318  0.086348001            2 
  919000    1.1150049   -3.0503671    947.20313  0.085890744  0.086336427            1 
  920000    1.0821871   -3.0478232    950.21586  0.086070277  0.086325184            2 
  921000    1.0965852   -3.0441291    953.03728   0.08623211  0.086314045            3 
  922000    1.1058867   -3.0510225    951.37378  0.085988231  0.086303075            3 
  923000    1.1011313   -3.0449746    956.17921  0.086328928  0.086292449            2 
  924000    1.0888672   -3.0442271    952.44742  0.085898938  0.086281343            1 
  925000    1.1120817   -3.0232357    954.18008  0.085962169  0.086270448            1 
  926000    1.0858491   -3.0389323    949.89289  0.085483521  0.086259114            3 
  927000    1.1143989   -3.0502395    954.48933  0.085804506  0.086247732            2 
  928000    1.1061078   -3.0455125    956.71166  0.085911607   0.08623563            1 
  929000    1.1323418   -3.0267475    955.11321  0.085675745  0.086225336            1 
  930000    1.1048001   -3.0334109    957.07416  0.085759334  0.086214221            2 
  931000    1.0972987   -3.0423385    958.11893  0.085760734  0.086203445            1 
  932000    1.0793665   -3.0443222     961.0768   0.08593319  0.086192118            1 
  933000    1.0731503   -3.0381006    959.70425  0.085718493  0.086180517            3 
  934000    1.1182599   -3.0433108    963.96584  0.086006945  0.086169021            1 
  935000    1.1337666   -3.0516205    961.48157  0.085693544  0.086157605            3 
  936000    1.1129584   -3.0232623    965.31671  0.085943439  0.086146508            1 
  937000    1.0953706   -3.0240492    968.00827  0.086091095  0.086136289            1 
  938000    1.1140598   -3.0612116    966.59386  0.085873655  0.086126635            1 
  939000    1.0896149   -3.0462417    966.22232   0.08574923  0.086116141            1 
  940000    1.1223878   -3.0488301    970.52357  0.086039323  0.086105834            6 
  941000    1.0917188   -3.0542692    974.86133  0.086332034  0.086095333            2 
  942000    1.1180853   -3.0396076    972.66452  0.086046048   0.08608536            2 
  943000    1.0979599   -3.0329094    972.97677  0.085982394  0.086075224            2 
  944000     1.132325    -3.045461    974.93903  0.086064533  0.086064594            3 
  945000    1.0854503   -3.0504166    969.19754  0.085467155  0.086054782            3 
  946000    1.0953612   -3.0601337    978.71794  0.086215464  0.086044097            1 
  947000    1.0894371   -3.0356235    974.38543  0.085743174  0.086033717            2 
  948000    1.1029877   -3.0371181    972.82387  0.085515459  0.086023081            2 
  949000    1.0912908   -3.0832201    973.37612  0.085473843  0.086012573            1 
  950000    1.0879198   -3.0597922    969.18751  0.085016448  0.086001486            3 
  951000    1.1152656   -3.0777981    974.41165  0.085384827  0.085989861            3 
  952000    1.0783466   -3.0669971    981.39235  0.085906193  0.085978778            2 
  953000     1.107799   -3.0585371    974.87194  0.085245885  0.085968064            2 
  954000    1.0759525   -3.0432754    979.55926  0.085565973  0.085957474            3 
  955000    1.1292627   -3.0363033    978.84029  0.085413638  0.085946843            1 
  956000    1.0976766   -3.0317788    981.77141  0.085579795  0.085936425            2 
  957000    1.1101831   -3.0454855    986.08577  0.085866054  0.085926145            1 
  958000    1.0990818   -3.0424893    983.46925  0.085548822  0.085915067            2 
  959000    1.1031577   -3.0484367    987.16357  0.085780637   0.08590486            2 
  960000    1.0966372   -3.0676672    983.99321  0.085416077  0.085893702            1 
  961000    1.0776432   -3.0336661    980.43436  0.085018588  0.085881173            2 
  962000    1.1137041   -3.0820094    985.77206   0.08539259  0.085868489            1 
  963000    1.0978712   -3.0594477    986.45266  0.085362812  0.085857017            3 
  964000    1.1050242   -3.0824715    983.03559  0.084978872  0.085845102            3 
  965000    1.1007246   -3.0738948    984.85086   0.08504757  0.085833449            2 
  966000    1.0878945   -3.0615273    985.25299   0.08499422   0.08582175            2 
  967000    1.1105647   -3.0318621    991.97281   0.08548542  0.085809901            2 
  968000    1.1034267   -3.0331762    996.22641  0.085763292  0.085798609            1 
  969000    1.0819706   -3.0301397    991.57976  0.085275177  0.085786772            3 
  970000    1.0978079   -3.0454343    996.10246  0.085575813  0.085775344            1 
  971000    1.1028764   -3.0590453    995.15747   0.08540658  0.085765037            2 
  972000    1.0860545   -3.0614261    991.34967  0.084992255   0.08575357            2 
  973000    1.0790999   -3.0293569    996.93303  0.085383096  0.085741909            1 
  974000    1.0888632   -3.0599073    997.88753  0.085377099  0.085730252            2 
  975000    1.0876644   -3.0430538    995.31001  0.085069232   0.08571835            3 
  976000    1.1219948   -3.0257478    997.23965  0.085146828  0.085706372            2 
  977000    1.0970796    -3.079249    998.63611  0.085178788  0.085695098            2 
  978000    1.1060905   -3.0393814    1003.8681  0.085537501  0.085684453            1 
  979000    1.1015555   -3.0230049    1003.2456  0.085397144  0.085673955            3 
  980000    1.0972336   -3.0575134     1006.811  0.085613181  0.085663838            3 
  981000    1.0910648   -3.0442628    1010.6781   0.08585441  0.085654083            1 
  982000    1.0976824   -3.0782919    1003.9093  0.085192572  0.085644272            3 
  983000    1.1192159   -3.0769708    1008.7065   0.08551259  0.085633587            5 
  984000    1.0859292   -3.0728656    1004.3284  0.085054912  0.085623384            4 
  985000    1.1063549   -3.0707686      1008.51  0.085322339  0.085612888            1 
  986000    1.0830963   -3.0807694    1004.7965  0.084921945  0.085601197            3 
  987000    1.0712174   -3.0600613    1011.8802   0.08543399  0.085590524            2 
  988000    1.0832612   -3.0314807    1009.3055  0.085130358  0.085579094            1 
  989000    1.1032427   -3.0410568    1007.9365  0.084928929  0.085568151            2 
  990000    1.0888997   -3.0561728    1012.8375  0.085255685  0.085556895            1 
  991000    1.0648656   -3.0458501    1016.0539  0.085440116   0.08554536            2 
  992000     1.079125   -3.0890731    1008.9207  0.084754766  0.085533375            4 
  993000    1.0698111   -3.0512399    1014.9406  0.085174602  0.085521362            1 
  994000    1.0990013    -3.074281    1012.8001  0.084909467   0.08550953            2 
  995000    1.1111609   -3.0687269    1017.0746  0.085182124  0.085496982            2 
  996000    1.1027052   -3.0497438    1015.5967  0.084972947  0.085483786            3 
  997000    1.0981264   -3.0768911    1017.0075  0.085005644  0.085471436            2 
  998000    1.1237456   -3.0547316     1016.523  0.084880011  0.085458751            3 
  999000    1.1164911   -3.0626994    1020.1056  0.085093897   0.08544641            2 
 1000000    1.0879185   -3.0294364    1017.6912  0.084807599  0.085433976            4 
 1001000    1.0843028   -3.0782191    1014.3167  0.084441946   0.08542156            3 
 1002000    1.0990251   -3.0348411    1019.7056  0.084805858  0.085408484            1 
 1003000    1.1049197   -3.0720866    1019.7044  0.084721204  0.085395793            3 
 1004000    1.0971877   -3.0679416    1022.0961  0.084835333  0.085382353            1 
 1005000    1.0891028   -3.0820055    1021.9078   0.08473531  0.085369802            6 
 1006000    1.1015241   -3.0312304    1019.3596  0.084439989  0.085357794            1 
 1007000    1.0856054   -3.0649145    1027.2311  0.085007538  0.085345535            2 
 1008000    1.0908943   -3.0716257    1026.7603  0.084884285  0.085333313            4 
 1009000    1.0647638   -3.0666588    1027.0025  0.084820158  0.085321298            2 
 1010000     1.070484   -3.0208886    1026.6507  0.084707151  0.085309071            4 
 1011000    1.1083339   -3.0613804    1030.6763  0.084955183  0.085297323            1 
 1012000    1.1043621   -3.0606347    1024.4211  0.084356152  0.085284799            2 
 1013000    1.0819885    -3.039659    1029.1223  0.084659613  0.085272862            1 
 1014000     1.075742     -3.04281    1033.4704  0.084933466  0.085260153            3 
 1015000    1.0968308    -3.084319    1030.4637  0.084602929  0.085247818            1 
 1016000    1.0920242   -3.0632213    1032.4107  0.084679359  0.085235421            2 
 1017000    1.0936163    -3.082115    1035.0777  0.084814625  0.085224062            6 
 1018000    1.0707936   -3.0848992    1035.9092  0.084799377  0.085212208            2 
 1019000    1.0644336   -3.0738711    1031.7049  0.084372333  0.085201156            2 
 1020000    1.0895109   -3.0291991    1036.9931  0.084721662  0.085189316            1 
 1021000    1.0914407   -3.0936577    1035.5978  0.084524794  0.085176889            2 
 1022000    1.0799818   -3.0966591    1036.5921  0.084523163  0.085164917            3 
 1023000     1.102747   -3.0857361    1036.8842   0.08446434  0.085153532            2 
 1024000    1.0809116    -3.054987    1046.0732  0.085129656  0.085142436            1 
 1025000    1.0831865   -3.0691003    1040.7409  0.084613082  0.085131792            3 
 1026000     1.092483   -3.0694319    1040.7313  0.084529832  0.085120929            2 
 1027000    1.0719074   -3.0630193    1045.7282   0.08485299  0.085109387            2 
 1028000    1.1010525   -3.0446392    1041.2757   0.08440951  0.085096826            1 
 1029000    1.0649132   -3.0529937    1048.7974  0.084936623  0.085085083            2 
 1030000    1.1073176   -3.0488715     1046.091  0.084635193  0.085072705            2 
 1031000    1.0799676   -3.0440821    1044.5445  0.084428103  0.085060316            2 
 1032000    1.0692271   -3.0723839    1045.8885  0.084454818  0.085047642            5 
 1033000    1.0866875   -3.0773247     1046.711  0.084439417  0.085034775            1 
 1034000    1.0762633    -3.058741    1044.4453   0.08417515  0.085021837            2 
 1035000     1.101351   -3.0924353    1050.3747  0.084571231  0.085008454            1 
 1036000    1.1108453   -3.0643488    1051.2525  0.084560207  0.084995179            3 
 1037000    1.1195348   -3.0752822    1048.6716  0.084271261  0.084983104            4 
 1038000    1.0843504   -3.0764454    1052.0521  0.084461472  0.084970271            3 
 1039000    1.1086597   -3.0767198    1049.3397  0.084162635   0.08495707            2 
 1040000    1.0693944   -3.0597639    1049.3195  0.084080085  0.084944283            2 
 1041000    1.0727085   -3.0445267    1057.5945  0.084661746  0.084931475            3 
 1042000    1.0858169   -3.0614821    1049.6559  0.083945611  0.084918035            1 
 1043000    1.0853856     -3.02062    1053.7206  0.084189883  0.084904983            3 
 1044000    1.0846695   -3.0708534     1055.235  0.084230125  0.084891882            1 
 1045000     1.075966   -3.0898583    1056.2336  0.084229151  0.084878849            3 
 1046000    1.0767602   -3.0803684    1056.8802  0.084200142  0.084865922            1 
 1047000    1.0759576    -3.077251    1056.4433  0.084084951  0.084852707            2 
 1048000    1.0966703   -3.0640311    1056.1357  0.083980255  0.084839627            3 
 1049000    1.0763428   -3.0915395    1056.5091  0.083929864   0.08482623            1 
 1050000     1.086129   -3.0721335    1065.9719  0.084600943  0.084813103            4 
 1051000    1.0788083   -3.0656701    1060.8137  0.084111454  0.084799652            2 
 1052000    1.0804542    -3.083321    1064.2475  0.084303505  0.084785967            2 
 1053000    1.0926885   -3.0711653    1061.3474  0.083993936  0.084771954            1 
 1054000    1.0737357   -3.0512658    1065.6104  0.084251297  0.084758247            6 
 1055000    1.0818487   -3.0742394    1064.9772  0.084121424  0.084744649            2 
 1056000    1.0884993   -3.0691051    1066.0428  0.084125849  0.084730997            1 
 1057000    1.0634054   -3.0761525    1065.6889  0.084018359  0.084717537            2 
 1058000    1.0867494   -3.0836776    1064.6849  0.083859866  0.084703968            3 
 1059000    1.0816452   -3.0587011     1068.927  0.084114491  0.084689849            2 
 1060000    1.0810861   -3.0600834    1068.1577  0.083974659   0.08467474            4 
 1061000    1.0712617   -3.0943987    1061.2127  0.083350038  0.084660252            1 
 1062000    1.1059982   -3.0622578    1063.4182  0.083444618  0.084646099            2 
 1063000    1.0802896   -3.0564496     1068.355  0.083753137  0.084632101            1 
 1064000    1.0721177   -3.0647493    1072.0588  0.083964507  0.084618677            2 
 1065000    1.0740916   -3.0685011    1073.7313  0.084016534  0.084605307            3 
 1066000    1.0672776   -3.0759122    1076.7924  0.084177014  0.084592238            3 
 1067000    1.0972538   -3.1045754    1070.8582  0.083634661  0.084579008            1 
 1068000    1.0744741   -3.0677586    1073.4613  0.083759463  0.084565269            1 
 1069000     1.100952   -3.0831388    1072.4061  0.083598858  0.084551325            2 
 1070000    1.0750403   -3.0925035    1074.9758  0.083720854  0.084537446            3 
 1071000    1.0919256   -3.0774521    1082.6255    0.0842379  0.084524781            2 
 1072000    1.0797846   -3.0517291    1081.5343  0.084074498  0.084511793            3 
 1073000    1.0667071    -3.077286    1079.3688  0.083827961  0.084498801            4 
 1074000    1.1065495   -3.0552138    1087.5176  0.084382184  0.084486531            1 
 1075000    1.0792781    -3.075168    1079.9499  0.083717044  0.084474052            2 
 1076000     1.091005   -3.0936154    1078.5047  0.083527314   0.08446109            3 
 1077000    1.0721424    -3.072257    1085.1117  0.083960981  0.084448122            6 
 1078000    1.0764486   -3.0999817     1081.504  0.083604205  0.084434999            2 
 1079000     1.073425   -3.0775083    1083.6405  0.083691729  0.084422424            6 
 1080000    1.0652919   -3.0910428    1080.9619  0.083407556  0.084409607            2 
 1081000    1.0836744   -3.0811147    1085.8376   0.08370626  0.084396912            1 
 1082000    1.0964447   -3.0937687    1086.1178  0.083650474  0.084384261            2 
 1083000    1.0923612   -3.0787683    1086.6742  0.083616053  0.084371165            3 
 1084000    1.0742533    -3.085704    1084.1991  0.083348642  0.084357462            3 
 1085000    1.0667931   -3.0484607    1089.4493  0.083675059  0.084343871            2 
 1086000    1.0932608   -3.0765286    1087.9827  0.083485473  0.084330638            3 
 1087000     1.073523   -3.0790283    1092.7877  0.083777036  0.084317499            1 
 1088000    1.1033421   -3.0680383    1095.2367  0.083887616  0.084304492            3 
 1089000    1.0644507   -3.0613051    1092.5247  0.083603056  0.084291429            1 
 1090000    1.0496386   -3.0897067    1089.1325  0.083267009  0.084277663            1 
 1091000    1.0900016   -3.0432319    1095.3684  0.083667006  0.084264265            2 
 1092000    1.0820587   -3.0813818    1092.8507   0.08339825  0.084250692            2 
 1093000     1.069347   -3.0892815    1092.9803  0.083331833  0.084236716            1 
 1094000    1.1091537   -3.0657421     1095.918  0.083479434   0.08422285            4 
 1095000    1.0854148   -3.0818976    1101.0608  0.083794579  0.084209727            1 
 1096000    1.0772523    -3.106153    1099.7803  0.083620768  0.084196054            2 
 1097000    1.0812532   -3.0447723    1094.0681  0.083110609  0.084182353            2 
 1098000    1.0816516   -3.0522011    1099.8142   0.08347102  0.084169279            2 
 1099000    1.0583565   -3.0904417    1098.4633  0.083292641  0.084155626            1 
 1100000    1.0579944   -3.0900416    1101.1736  0.083422245  0.084142102            1 
 1101000    1.0559142   -3.1004187    1101.8518  0.083397802  0.084128202            1 
 1102000    1.0655615    -3.073809    1100.9451  0.083253565  0.084114038            3 
 1103000    1.0605141   -3.0771827    1106.9439  0.083631302   0.08409999            2 
 1104000     1.083965   -3.0764874    1104.5345  0.083373676  0.084086065            2 
 1105000    1.0798993   -3.0856016    1105.7208  0.083387694  0.084071837            2 
 1106000     1.088139   -3.0607535    1102.0663  0.083036944  0.084057489            3 
 1107000    1.0805746   -3.0644861    1105.5866  0.083226932  0.084043091            2 
 1108000    1.0447962   -3.0761668    1106.4034  0.083213251  0.084027995            2 
 1109000    1.0789144   -3.0508602    1107.7368  0.083238414  0.084013687            1 
 1110000    1.0661527   -3.0967562     1102.498  0.082770121  0.083998639            2 
 1111000    1.0659201   -3.0806114    1107.5598  0.083075294   0.08398416            2 
 1112000    1.0829053   -3.0803439     1101.917  0.082577715  0.083969122            3 
 1113000    1.0823702   -3.0641545     1104.942   0.08273001  0.083953516            3 
 1114000    1.0680467   -3.0727876    1112.8154  0.083244721  0.083938267            2 
 1115000    1.0693184   -3.0838119    1109.1447   0.08289572  0.083923512            2 
 1116000    1.0780264   -3.0909063    1112.5133  0.083072978  0.083908582            2 
 1117000    1.0869572   -3.0470032     1114.517  0.083148093  0.083893644            1 
 1118000    1.0751205   -3.1233409    1111.9161  0.082879851  0.083879194            2 
 1119000    1.0820212   -3.0557846    1113.0696  0.082891689  0.083864105            2 
 1120000    1.0760575    -3.101756    1107.7018  0.082418292  0.083848486            4 
 1121000    1.0907218   -3.0565401     1116.223  0.082978218  0.083832929            1 
 1122000    1.0689849   -3.0592735    1116.8953  0.082954193  0.083817417            4 
 1123000    1.0813262   -3.0801511    1109.5948  0.082338587   0.08380168            3 
 1124000    1.0803064   -3.0982144    1115.3621  0.082692916  0.083786513            1 
 1125000    1.0723199   -3.0917106    1114.1519  0.082529767  0.083771022            2 
 1126000    1.0514505   -3.0438142    1120.1969  0.082903855  0.083755407            1 
 1127000    1.0817794   -3.0778167    1116.1891  0.082533948   0.08374007            4 
 1128000    1.0638219   -3.0963016    1117.3439  0.082546095  0.083724155            2 
 1129000     1.057628   -3.0861226    1113.9469  0.082222237  0.083708064            3 
 1130000    1.0685666   -3.0841989    1120.7417  0.082650567  0.083692097            1 
 1131000    1.0719152   -3.0856925    1125.7812  0.082948808  0.083676487            1 
 1132000    1.0695283   -3.0841313    1122.7889  0.082655245  0.083661294            4 
 1133000    1.0553808   -3.0761203    1122.6588  0.082572727  0.083645352            2 
 1134000    1.0768336   -3.0777001    1122.3192  0.082474959  0.083629577            1 
 1135000    1.0789302   -3.0758832    1126.3813  0.082700537  0.083613766            2 
 1136000    1.0787429   -3.0806616    1125.2798  0.082546932  0.083598025            3 
 1137000     1.075372   -3.0884194    1126.6543  0.082575077  0.083583056            2 
 1138000    1.0593079   -3.0615439    1125.9756  0.082452812  0.083567837            2 
 1139000    1.0828942   -3.0975022    1129.5581  0.082642529  0.083552864            4 
 1140000    1.0567025    -3.091146    1124.4583  0.082197245  0.083537428            1 
 1141000    1.0906336   -3.0877303    1128.8729  0.082447625  0.083522353            2 
 1142000    1.0796602    -3.054006    1128.7761  0.082368369  0.083507459            3 
 1143000    1.0796891   -3.0623467    1131.7159  0.082510637  0.083492501            2 
 1144000    1.0751536   -3.0570712    1131.5071    0.0824233  0.083476627            2 
 1145000     1.046337   -3.0866581    1133.0915  0.082466631   0.08346146            2 
 1146000    1.0694634   -3.0620957    1131.6072  0.082286734  0.083445552            3 
 1147000    1.0719771   -3.0815161    1133.8112  0.082375127  0.083430085            1 
 1148000    1.0759717   -3.0757246    1135.3286  0.082413519   0.08341511            5 
 1149000     1.065607   -3.0760391    1137.9994  0.082535498  0.083399801            4 
 1150000    1.0576396   -3.0744358     1138.189  0.082477465  0.083384929            2 
 1151000    1.0656525   -3.0901534     1141.825  0.082669054  0.083369563            2 
 1152000    1.0689923   -3.0883754    1135.6177  0.082148268  0.083354979            5 
 1153000    1.0564673   -3.0955133    1142.1808  0.082551374  0.083340318            6 
 1154000    1.0972488   -3.1049055    1141.3817   0.08242213  0.083325978            2 
 1155000    1.0789902   -3.1067319    1142.4588  0.082428483  0.083311496            2 
 1156000    1.0611881   -3.0980472    1147.1112  0.082692563  0.083297004            3 
 1157000    1.0719084   -3.0806946    1146.2533  0.082559297  0.083282149            1 
 1158000    1.0808639    -3.083094     1150.174  0.082770148  0.083267931            2 
 1159000    1.0689611   -3.0697384    1151.4299  0.082789037  0.083253881            1 
 1160000    1.0519578   -3.0491539    1153.9147   0.08289617  0.083240077            2 
 1161000    1.0796024   -3.0894197    1147.9321  0.082395358  0.083226613            1 
 1162000    1.0847068   -3.1049231    1153.1054  0.082695454  0.083212148            2 
 1163000      1.04369   -3.0784698    1152.1588  0.082556522  0.083198547            2 
 1164000    1.0525852   -3.0688854    1151.2767  0.082422443  0.083184751            3 
 1165000    1.0404459   -3.1185651    1154.6922  0.082596008  0.083170944            3 
 1166000    1.0317212   -3.1085928    1153.2726  0.082423714  0.083156881            1 
 1167000    1.0558429   -3.0745412    1159.6588  0.082809109  0.083143058            5 
 1168000    1.0592551    -3.098436    1152.3455  0.082216429  0.083128973            2 
 1169000    1.0666419   -3.1097321    1152.7378  0.082174063  0.083114702            2 
 1170000    1.0540416   -3.1093501    1154.0694  0.082198675  0.083100196            2 
 1171000    1.0683242   -3.1013277     1157.933  0.082403429  0.083085183            2 
 1172000     1.059097   -3.0790459      1157.17  0.082278867  0.083071268            2 
 1173000    1.0683376   -3.0740438     1154.351  0.082008455  0.083057096            1 
 1174000    1.0564075   -3.1066847    1160.1447  0.082349852   0.08304276            4 
 1175000    1.0654566   -3.1178143    1158.6298  0.082172323  0.083028164            2 
 1176000    1.0571463   -3.1251121    1157.6427  0.082032507  0.083013347            3 
 1177000     1.067531   -3.0952059     1153.953  0.081701573  0.082999008            3 
 1178000    1.0674909   -3.0803655    1164.8248    0.0824013   0.08298447            2 
 1179000    1.0640047   -3.0764421    1161.6683  0.082108304  0.082970257            2 
 1180000    1.0717309   -3.0847515    1164.5192  0.082240055  0.082955765            2 
 1181000    1.0521677   -3.0773442    1159.7986  0.081837325  0.082940477            1 
 1182000    1.0726097   -3.0879747    1158.7248  0.081692386  0.082925164            2 
 1183000    1.0683832   -3.0694031     1164.892   0.08205776  0.082909867            1 
 1184000    1.0579646   -3.0685179    1172.1497  0.082499277  0.082895264            6 
 1185000    1.0451539   -3.0823841    1165.7018  0.081976219  0.082880074            6 
 1186000    1.0813123   -3.1017509    1169.3136  0.082160879  0.082864949            3 
 1187000    1.0730354   -3.1197367    1166.8852  0.081921177  0.082849548            3 
 1188000    1.0826695   -3.1057491     1166.161   0.08180142  0.082834259            3 
 1189000    1.0538006    -3.100562    1169.1045  0.081938922  0.082818958            3 
 1190000    1.0713985   -3.0544134    1178.1231  0.082501619  0.082804839            3 
 1191000    1.0556523   -3.0897747    1172.4267  0.082033773   0.08279035            3 
 1192000    1.0622512   -3.0841267    1171.7485  0.081917542  0.082775561            2 
 1193000     1.069322   -3.1056094    1175.6747  0.082123125  0.082761078            2 
 1194000    1.0676057   -3.0917794    1174.8516  0.081996902  0.082746635            2 
 1195000    1.0315979   -3.1003345    1174.6739  0.081915891  0.082732097            2 
 1196000    1.0711561   -3.1203142    1175.4614  0.081902272  0.082717418            3 
 1197000    1.0572539   -3.0902294    1175.0367  0.081804282  0.082702481            4 
 1198000    1.0511353   -3.0964888    1175.5943  0.081774784  0.082687372            3 
 1199000    1.0559913   -3.1063402    1177.1422  0.081814165  0.082671801            4 
 1200000    1.0895471   -3.0715922    1178.8707   0.08186602  0.082656114            3 
 1201000    1.0507274   -3.0916557    1178.7305  0.081788124  0.082640956            2 
 1202000    1.0775742   -3.1375654    1179.1473   0.08174898   0.08262564            6 
 1203000    1.0576035     -3.10877    1178.0322  0.081603784  0.082610763            3 
 1204000    1.0622656   -3.0927766    1176.3565  0.081420022  0.082595583            3 
 1205000    1.0604131   -3.1122888    1181.3255  0.081696094  0.082580291            3 
 1206000    1.0945656   -3.1011668    1181.9043  0.081668345  0.082565463            2 
 1207000    1.0269886   -3.0949249    1188.2879  0.082041418  0.082551083            1 
 1208000    1.0581034   -3.1059693    1181.7734  0.081524103  0.082536137            2 
 1209000    1.0632213   -3.0702333    1190.5436  0.082061181  0.082521644            4 
 1210000    1.0554687   -3.0972835    1184.9809  0.081610256  0.082507059            4 
 1211000    1.0658658   -3.1012973    1188.1816  0.081763117  0.082492982            3 
 1212000    1.0529353    -3.084449    1190.0114  0.081821465  0.082478908            2 
 1213000    1.0634351   -3.1134592    1192.4151  0.081919149  0.082465096            1 
 1214000    1.0752436   -3.0951462    1193.6456  0.081936136  0.082450752            2 
 1215000    1.0546347   -3.1257567    1187.2497  0.081430023   0.08243657            2 
 1216000    1.0626226   -3.0940758    1197.4729  0.082063658  0.082421664            3 
 1217000     1.060069   -3.0885302    1196.0303  0.081897445  0.082407199            1 
 1218000     1.025896   -3.1176211    1197.2432  0.081913192  0.082392836            2 
 1219000    1.0689926   -3.1139318    1194.2923  0.081644265  0.082378463            2 
 1220000    1.0548729    -3.086504    1199.2671   0.08191715  0.082364009            3 
 1221000    1.0377755   -3.1069571     1193.442  0.081452498   0.08234969            6 
 1222000    1.0351016   -3.0969595    1193.6776  0.081401907  0.082335724            1 
 1223000    1.0464517   -3.0846006    1199.0691  0.081702718  0.082321383            1 
 1224000    1.0618688   -3.1123722     1199.993  0.081698873  0.082306443            3 
 1225000    1.0579068   -3.0888448      1200.67  0.081678233  0.082291798            1 
 1226000    1.0461282   -3.0869764    1201.3798  0.081659857  0.082276768            3 
 1227000    1.0378577   -3.1267137    1202.3714  0.081660648  0.082262131            3 
 1228000    1.0320831   -3.1112742     1196.396  0.081188656  0.082247216            1 
 1229000    1.0629387   -3.1010789    1203.0989   0.08157709  0.082231875            2 
 1230000    1.0436502   -3.1107002    1204.1397  0.081581283   0.08221761            4 
 1231000    1.0439305   -3.0982389    1197.2307  0.081047302  0.082203119            3 
 1232000    1.1010555   -3.0948957    1200.0941  0.081175195  0.082188324            2 
 1233000    1.0548907   -3.1172485     1202.396  0.081264937  0.082174019            2 
 1234000    1.0442011   -3.1074302    1208.6218  0.081619517  0.082160434            1 
 1235000    1.0474364   -3.1021157    1206.7871  0.081429627  0.082146989            2 
 1236000    1.0426558   -3.1038078    1208.7665  0.081497202  0.082133058            3 
 1237000    1.0563651   -3.1075813    1206.3012  0.081265239  0.082118118            1 
 1238000    1.0436614   -3.1119801    1206.7854  0.081232192  0.082103579            2 
 1239000    1.0441519   -3.0919941    1210.7311  0.081432009  0.082089099            1 
 1240000     1.060872   -3.1300897      1204.77  0.080965726  0.082074793            3 
 1241000    1.0374134   -3.0889656    1212.4575  0.081416702  0.082059762            3 
 1242000     1.054362   -3.1377271    1207.4602  0.081015845   0.08204565            1 
 1243000    1.0628356   -3.1369873    1209.9087  0.081114824  0.082030573            1 
 1244000    1.0622205   -3.1334585    1213.6763  0.081302001  0.082015951            1 
 1245000    1.0414922   -3.1184402      1217.85  0.081516062  0.082001378            3 
 1246000    1.0575266   -3.1315804    1212.0858   0.08106513  0.081986894            2 
 1247000    1.0506566   -3.1273813    1210.1203   0.08086877  0.081972084            3 
 1248000    1.0442768   -3.0924268    1218.6236   0.08137177  0.081957456            3 
 1249000    1.0602895   -3.1256708    1214.5621  0.081035632  0.081942733            2 
 1250000    1.0708393     -3.10224    1217.5061  0.081167071  0.081928305            2 
 1251000    1.0481546   -3.0978362    1217.6907   0.08111449  0.081914068            2 
 1252000    1.0527362   -3.1006086     1223.985  0.081468653  0.081899521            2 
 1253000    1.0595285   -3.1380324    1219.7722  0.081123453   0.08188549            4 
 1254000    1.0352128   -3.1229756    1219.5959  0.081047043  0.081871614            2 
 1255000    1.0382224   -3.0975323    1225.2854  0.081360253  0.081857871            1 
 1256000    1.0317173   -3.0880987    1227.7905  0.081461682  0.081844322            5 
 1257000     1.062002   -3.1070677    1228.4808  0.081442641   0.08183056            2 
 1258000    1.0462141   -3.0770331    1227.0402  0.081282472  0.081816511            2 
 1259000    1.0608984   -3.0982026    1223.7488  0.081000053  0.081802932            2 
 1260000    1.0458295   -3.1072573    1231.2037  0.081428818  0.081789325            4 
 1261000    1.0317141    -3.110966    1231.7526  0.081400514  0.081775832            2 
 1262000    1.0644163   -3.1276069     1226.802  0.081009114  0.081762655            3 
 1263000    1.0706835   -3.1204703    1230.4778  0.081187504  0.081749443            2 
 1264000    1.0196058   -3.1040375    1234.5174  0.081389596  0.081736318            2 
 1265000    1.0565996   -3.0988054    1233.5394  0.081260832  0.081723353            1 
 1266000    1.0226056   -3.1387933    1234.3891  0.081252572  0.081710036            4 
 1267000    1.0396249   -3.1404016    1234.5308  0.081197761  0.081696605            3 
 1268000    1.0605616   -3.0971794    1237.9733  0.081359971  0.081683537            3 
 1269000    1.0389708   -3.1109382    1235.3945  0.081126509  0.081669751            2 
 1270000    1.0791958   -3.1180166    1242.5646  0.081533107  0.081656694            3 
 1271000    1.0393802   -3.1130376    1245.0207  0.081629999  0.081644021            2 
 1272000    1.0391897   -3.1268752    1238.7989  0.081158207    0.0816313            3 
 1273000    1.0563922    -3.128717    1238.2456  0.081058236  0.081618765            3 
 1274000    1.0376693   -3.1216909    1244.0957   0.08137727  0.081605844            2 
 1275000    1.0823347   -3.1001368      1242.66  0.081219606  0.081593123            2 
 1276000    1.0441205   -3.1378257    1242.6961  0.081158314  0.081580687            1 
 1277000    1.0408654   -3.1338905    1244.5127  0.081213305  0.081568343            3 
 1278000    1.0537061   -3.0999767     1250.893   0.08156579  0.081556144            3 
 1279000    1.0467215   -3.1017834    1244.9794  0.081116717  0.081543643            4 
 1280000    1.0637195   -3.1235252    1246.7814  0.081170661  0.081531352            1 
 1281000    1.0392893   -3.0970055    1249.0478  0.081254733  0.081518621            4 
 1282000    1.0628812   -3.1102334    1247.6016  0.081097345  0.081505811            4 
 1283000     1.072924   -3.1043421    1249.7539  0.081173932  0.081493352            1 
 1284000    1.0431481   -3.1531008    1249.1449  0.081071191  0.081480584            1 
 1285000    1.0493196   -3.0997356     1252.384  0.081218156  0.081468304            2 
 1286000     1.033303   -3.1295879    1257.5573  0.081490236  0.081456174            3 
 1287000    1.0318068   -3.1468446    1245.0594  0.080617677   0.08144342            2 
 1288000    1.0377925   -3.1092804    1254.0548  0.081137088  0.081431047            2 
 1289000    1.0528206   -3.1233875    1253.5274  0.081040045  0.081418818            3 
 1290000    1.0503925   -3.1183667    1254.6649  0.081050705  0.081406101            4 
 1291000    1.0329984   -3.0979685    1258.8853  0.081260345   0.08139358            1 
 1292000    1.0615748   -3.0985243    1257.0488     0.081079   0.08138066            8 
 1293000    1.0410187   -3.0885249    1263.3115  0.081419919  0.081367893            3 
 1294000    1.0500103   -3.0816715    1257.8183  0.081003237  0.081355545            1 
 1295000    1.0512123   -3.1270385    1261.3897  0.081170512   0.08134358            2 
 1296000    1.0449048   -3.1175054    1259.5001  0.080986377   0.08133151            4 
 1297000    1.0391905   -3.1449777    1264.9966  0.081277091  0.081318376            1 
 1298000    1.0576328   -3.1202011    1256.8863  0.080693779   0.08130526            3 
 1299000    1.0716765    -3.111473    1257.7151  0.080684831  0.081292127            2 
 1300000    1.0487427   -3.1309589    1263.1906  0.080973753  0.081278715            6 
 1301000    1.0498974   -3.1174977    1260.1755  0.080718388    0.0812653            4 
 1302000     1.052974   -3.1243062    1259.1281  0.080589353   0.08125178            2 
 1303000    1.0235147   -3.1388116    1264.1072  0.080845943  0.081238094            3 
 1304000    1.0292131   -3.1369358    1259.9961  0.080521223  0.081224344            3 
 1305000    1.0379404   -3.1136091    1262.3465  0.080609608  0.081210638            1 
 1306000    1.0242294   -3.1073745    1266.3891   0.08080584  0.081196596            4 
 1307000    1.0453897    -3.144978    1262.3639  0.080487372  0.081181969            1 
 1308000    1.0142261   -3.1048834    1260.6476  0.080316487  0.081167836            5 
 1309000    1.0467672   -3.1380295     1261.007  0.080278014  0.081153063            1 
 1310000    1.0513143    -3.108369    1262.0977   0.08028611  0.081138736            2 
 1311000    1.0262588   -3.1257843     1267.211  0.080549898  0.081124074            2 
 1312000    1.0398171   -3.1449374     1264.553   0.08031968  0.081109548            4 
 1313000    1.0423699   -3.1280789    1268.1746  0.080488357  0.081094846            2 
 1314000    1.0397815   -3.1172095    1262.9372  0.080094951  0.081079999            2 
 1315000     1.074783   -3.1487788    1264.9379  0.080160833  0.081065585            3 
 1316000    1.0325206   -3.1441699    1265.1749  0.080114928  0.081050814            2 
 1317000    1.0396805   -3.1374556    1267.6805  0.080212635   0.08103634            2 
 1318000    1.0097532   -3.1322736    1267.5183  0.080141519  0.081022043            4 
 1319000    1.0467103   -3.1377658    1272.7384  0.080410565   0.08100786            4 
 1320000    1.0299539   -3.1039642    1271.2807  0.080257617  0.080993598            4 
 1321000    1.0368925   -3.1348774    1268.7424   0.08003674  0.080978742            1 
 1322000    1.0419194   -3.1275144    1275.9196   0.08042862  0.080964501            2 
 1323000    1.0510245   -3.1406678    1271.9651  0.080118738  0.080950608            2 
 1324000    1.0359424   -3.1238321    1272.9778  0.080121969  0.080936265            2 
 1325000    1.0606595   -3.1077754    1275.7205  0.080233995  0.080922119            3 
 1326000    1.0526181   -3.1112707    1278.4084  0.080342406  0.080907971            1 
 1327000    1.0250999   -3.1468852    1278.9612   0.08031658  0.080894207            1 
 1328000    1.0318279   -3.1426476    1274.7327  0.079990759  0.080879587            3 
 1329000    1.0357564    -3.115981    1279.7555   0.08024552  0.080864942            3 
 1330000    1.0073044   -3.1137836    1279.4019  0.080163025  0.080849881            3 
 1331000    1.0295378   -3.1091464    1281.1181  0.080210249  0.080835169            1 
 1332000    1.0356733   -3.1038524     1286.086  0.080460835   0.08082078            2 
 1333000    1.0483632   -3.1313835    1280.8481  0.080073023  0.080806355            3 
 1334000    1.0416627   -3.1275797    1283.3126  0.080166956  0.080792251            2 
 1335000    1.0502838   -3.1197781    1283.4403  0.080114874  0.080778234            2 
 1336000    1.0335138   -3.0918402    1289.0354  0.080403905  0.080764208            1 
 1337000     1.028822   -3.1367557    1290.5983  0.080441181  0.080750596            1 
 1338000    1.0298027   -3.1208317    1284.7581  0.080017322  0.080735969            4 
 1339000    1.0236581   -3.1331938    1284.2288  0.079924623  0.080721304            5 
 1340000    1.0731903    -3.117288    1285.0785   0.07991782  0.080706494            4 
 1341000    1.0417136   -3.1493356    1286.7155  0.079959948  0.080691744            2 
 1342000    1.0577309   -3.1259781    1287.2003   0.07993047   0.08067758            2 
 1343000    1.0292941    -3.103869    1293.2513  0.080246417  0.080663425            2 
 1344000    1.0486296   -3.1163536    1285.9121  0.079731651  0.080648755            2 
 1345000    1.0392752   -3.1302972     1290.361  0.079948015  0.080633912            2 
 1346000    1.0283069   -3.1147285     1292.295  0.080008358   0.08061973            2 
 1347000    1.0271904   -3.1353817     1290.426  0.079833334  0.080605056            4 
 1348000    1.0111356   -3.1460596    1293.8596  0.079986373  0.080590527            1 
 1349000    1.0474472   -3.1465722    1296.9323  0.080116896  0.080576768            2 
 1350000    1.0407745   -3.1194722    1297.6863   0.08010409  0.080563101            4 
 1351000    1.0366441   -3.1100384    1296.0323  0.079942778   0.08054941            2 
 1352000    1.0118029   -3.1401111    1301.3886  0.080213793  0.080535826            4 
 1353000    1.0387032   -3.1450346      1298.41  0.079971055  0.080521765            3 
 1354000    1.0390082   -3.1415111    1294.4076   0.07966566  0.080507997            4 
 1355000    1.0346265   -3.1179803      1302.66  0.080114392  0.080493909            3 
 1356000    1.0507424   -3.1432292    1302.6321  0.080053597   0.08048048            2 
 1357000    1.0529631   -3.1324563    1294.9059  0.079520133  0.080466515            5 
 1358000    1.0450876   -3.1455762    1304.3979  0.080044056  0.080452663            2 
 1359000    1.0225229   -3.1447903    1302.3345  0.079858627  0.080439159            2 
 1360000    1.0143089   -3.1274843    1306.9185   0.08008079  0.080425904            2 
 1361000     1.033046    -3.126947    1307.6508  0.080066788  0.080412156            2 
 1362000     1.043348   -3.1209089    1307.9957  0.080029103  0.080398744            2 
 1363000    1.0530888   -3.1239556     1312.761  0.080261736  0.080385077            2 
 1364000    1.0461784    -3.154454    1304.5346  0.079700308  0.080371641            2 
 1365000    1.0277152   -3.1248066    1306.7117  0.079774829  0.080358021            3 
 1366000    1.0590894   -3.1296241    1312.1575  0.080048653  0.080344555            1 
 1367000    1.0441197   -3.1442626    1306.6882  0.079656682  0.080330667            3 
 1368000    1.0391845   -3.1465842    1316.4004   0.08019008   0.08031762            2 
 1369000     1.048166   -3.1318199    1310.4814  0.079771206   0.08030352            3 
 1370000    1.0351853   -3.1248335    1315.8667  0.080040556   0.08028988            1 
 1371000    1.0093205   -3.1537372     1313.691  0.079849928  0.080276413            3 
 1372000     1.010116   -3.1673566    1313.9776  0.079809134  0.080262201            2 
 1373000    1.0004205   -3.1208979    1315.1937  0.079824819  0.080248656            3 
 1374000    1.0372345   -3.1275033    1309.7268  0.079435153  0.080235393            1 
 1375000    1.0242355   -3.1332797    1317.7673  0.079864685  0.080221631            3 
 1376000    1.0267127   -3.1525375    1314.5009  0.079608826  0.080207576            5 
 1377000    1.0315915   -3.1054169     1320.326  0.079903535  0.080193728            3 
 1378000     1.026122   -3.1420696    1319.4925  0.079795146  0.080180623            1 
 1379000     1.036678   -3.1546863    1320.9279  0.079824022  0.080167198            3 
 1380000    1.0247533    -3.095814    1320.5363  0.079742533  0.080153542            3 
 1381000    1.0158188   -3.1257187    1320.5419  0.079685126  0.080140824            1 
 1382000    1.0247745   -3.1287123    1322.1479  0.079724308  0.080127317            3 
 1383000     1.040936   -3.1326325    1324.3561  0.079799715  0.080114291            1 
 1384000    1.0074698     -3.15049    1320.5608  0.079513536  0.080101537            3 
 1385000    1.0214579   -3.1416018     1323.421  0.079628221  0.080088916            2 
 1386000     1.009091   -3.1430047    1325.4837  0.079694786  0.080075858            2 
 1387000    1.0350049   -3.1158227    1326.1124  0.079675102  0.080062493            2 
 1388000    1.0404375   -3.1325413    1325.0677   0.07955498  0.080049666            1 
 1389000    1.0376756   -3.1210966    1332.7969  0.079961416  0.080037296            1 
 1390000    1.0157192   -3.1223979    1331.2403  0.079810571  0.080025093            2 
 1391000    1.0397572    -3.114456    1330.9806  0.079737638  0.080012553            1 
 1392000    1.0284955   -3.1468848    1331.0098    0.0796821  0.079999635            1 
 1393000    1.0263564   -3.1249844    1333.8018  0.079791925  0.079987215            4 
 1394000    1.0180712   -3.1452331    1331.5701  0.079601275  0.079974459            1 
 1395000    1.0416192   -3.1321469    1331.2919  0.079527594  0.079961182           11 
 1396000    1.0081557   -3.1117293    1339.5924  0.079966119  0.079948476            2 
 1397000    1.0238262   -3.1515313    1334.0337   0.07957729  0.079935887            3 
 1398000    1.0597643   -3.1553945    1333.4867  0.079487761  0.079922841            2 
 1399000    1.0306432   -3.1273552    1342.0708  0.079942271  0.079909897            2 
 1400000    1.0343039   -3.1414077     1336.926  0.079578927     0.079897            6 
 1401000    1.0230742   -3.1350661    1337.3726  0.079548692  0.079884194            3 
 1402000    1.0569751   -3.1406298    1337.5703  0.079503704  0.079871527            2 
 1403000    1.0122239   -3.1564471    1335.4854  0.079323202  0.079858643            2 
 1404000    1.0183415   -3.1252128    1338.5041  0.079445877  0.079846141            2 
 1405000    1.0130916   -3.1280943    1339.0946  0.079424355  0.079833251            2 
 1406000    1.0436165   -3.1227672    1344.0132  0.079659385  0.079820762            2 
 1407000     1.027645   -3.1418217    1345.3467  0.079681754  0.079808619            2 
 1408000    1.0403743     -3.14793    1343.4627  0.079513655    0.0797958            1 
 1409000    1.0267428   -3.1650245    1340.3827  0.079275057  0.079782875            3 
 1410000     1.020512   -3.1766014    1341.9228  0.079309857   0.07976984            4 
 1411000     1.021098   -3.1646826    1341.1986  0.079210879  0.079756695            2 
 1412000    1.0204972   -3.1381553    1346.8963  0.079491047  0.079743926            4 
 1413000    1.0371907   -3.1261826     1347.651  0.079479301  0.079731359            3 
 1414000    1.0298586   -3.1448718    1348.7547  0.079488135  0.079719016            3 
 1415000    1.0058723   -3.1417406    1346.9563  0.079326051  0.079706258            3 
 1416000     1.006897   -3.1428604    1353.2581  0.079640895  0.079693606            5 
 1417000    1.0238193   -3.1421142    1348.5942  0.079310408  0.079681144            2 
 1418000    1.0207399   -3.1656816     1345.733  0.079086333   0.07966822            4 
 1419000    1.0357235   -3.1920908    1343.9929  0.078928407   0.07965469            2 
 1420000    1.0141022   -3.1180705    1356.7884  0.079623734  0.079641438            2 
 1421000    1.0171186   -3.1602087    1349.4364  0.079136548  0.079628429            1 
 1422000    1.0153702   -3.1410176    1356.7036  0.079506774  0.079614841            5 
 1423000    1.0374939   -3.1707998    1353.1258  0.079241382  0.079601308            2 
 1424000    1.0233848   -3.1676061    1351.8068  0.079108546  0.079588036            2 
 1425000    1.0294548   -3.1617553     1347.832  0.078820582  0.079574506            3 
 1426000    1.0217401   -3.1388442      1358.26   0.07937471  0.079560998            2 
 1427000    1.0303111   -3.1372729    1357.4633   0.07927256  0.079547601            4 
 1428000    1.0443209   -3.1700255    1352.9436  0.078953291  0.079534016            3 
 1429000    1.0312764   -3.1639779    1357.2854  0.079151234  0.079520962            7 
 1430000    1.0307302   -3.1298855    1356.4554  0.079047515  0.079508038            2 
 1431000   0.99490987     -3.14555    1353.5053  0.078820479  0.079494736            2 
 1432000    1.0209683    -3.120558    1360.0097  0.079143952  0.079481024            5 
 1433000    1.0081847   -3.1192523    1364.3358  0.079340298  0.079467785            1 
 1434000    1.0102631   -3.1626613    1357.9105  0.078911581  0.079454334            2 
 1435000    1.0245787   -3.1223739    1361.3642  0.079057152  0.079441585            1 
 1436000    1.0290146   -3.1396048     1365.978  0.079269849  0.079429092            3 
 1437000    1.0298346   -3.1506783    1364.3034   0.07911757  0.079416205            2 
 1438000    1.0285547   -3.1503869    1365.9917   0.07916039  0.079403143            1 
 1439000    1.0240003   -3.1565779    1371.0898  0.079400611  0.079390355            1 
 1440000    1.0076595   -3.1395488    1369.3589  0.079245307  0.079377413            3 
 1441000    1.0416042   -3.1602942    1369.1073  0.079175765  0.079364564            1 
 1442000    1.0107537   -3.1496092    1369.4082  0.079138246  0.079351713            4 
 1443000   0.99383989   -3.1554597    1372.2995  0.079250377  0.079339303            7 
 1444000    1.0086714   -3.1328284    1377.1325  0.079474407  0.079327083            3 
 1445000    1.0126947   -3.1359275    1367.5821  0.078868632  0.079314945            3 
 1446000    1.0444889    -3.148742    1375.0686  0.079245538  0.079302981            4 
 1447000    1.0260586    -3.149072    1374.3978  0.079152142  0.079291012            2 
 1448000    1.0355178   -3.1306682    1375.3941  0.079154816  0.079279037            2 
 1449000    1.0174829   -3.1646645    1378.9203  0.079302984  0.079267403            4 
 1450000    1.0389957   -3.1521421    1378.1498  0.079204011  0.079255553            2 
 1451000    1.0281195   -3.1438908    1379.7094  0.079238998  0.079243674            6 
 1452000    1.0227305    -3.129686    1379.5783  0.079176897  0.079232495            7 
 1453000    1.0420424   -3.1341348    1381.2076   0.07921585  0.079221203            2 
 1454000   0.98138126   -3.1471993    1385.2608  0.079393672  0.079209613            2 
 1455000   0.98930251   -3.1331165    1382.9141  0.079204705  0.079198087            3 
 1456000    1.0415238   -3.1131133    1386.0586  0.079330274  0.079186425            3 
 1457000   0.99538874   -3.1392437     1387.405  0.079352838  0.079175128            3 
 1458000    1.0165607   -3.1582617    1381.5439  0.078963412  0.079163242            3 
 1459000    1.0232928   -3.1258386    1381.8026  0.078924068  0.079151482            2 
 1460000   0.99102282   -3.1428102    1390.7906  0.079383024  0.079139927            1 
 1461000    1.0288516   -3.1604995    1387.0858  0.079117372  0.079128315            4 
 1462000    1.0141024   -3.1795781    1385.5842  0.078977667  0.079117094            2 
 1463000    1.0327301   -3.1434019    1390.7731  0.079219248  0.079105676            3 
 1464000    1.0368539   -3.1442865     1392.763  0.079278401  0.079094079            2 
 1465000    1.0138187   -3.1575752    1391.2766  0.079139737  0.079081951            2 
 1466000    1.0131264   -3.1631562    1396.4927  0.079382258  0.079070617            3 
 1467000    1.0092634   -3.1638309    1388.6859  0.078884678  0.079059133            4 
 1468000    1.0104541   -3.1533969    1396.2933  0.079262791  0.079047701            2 
 1469000    1.0231383   -3.1302793    1395.7715   0.07917923  0.079036148            1 
 1470000    1.0130083   -3.1451521    1396.3042  0.079155567  0.079024679            2 
 1471000    1.0268841   -3.1453735    1393.7818  0.078958862  0.079012975            2 
 1472000    1.0177567   -3.1665599    1395.6898  0.079013233  0.079001096            4 
 1473000     1.024084   -3.1480578    1400.1083  0.079209569  0.078989859            3 
 1474000    1.0154637    -3.162487    1399.7332  0.079134622  0.078978869            6 
 1475000    1.0064061    -3.164693    1401.2414  0.079166184  0.078967546            2 
 1476000    1.0181389    -3.147824     1403.411  0.079235036  0.078956178            3 
 1477000   0.99859698   -3.1813254    1394.1194  0.078657156  0.078944333            2 
 1478000    1.0203128   -3.1258474    1403.7012   0.07914418  0.078932776            6 
 1479000    1.0144234   -3.1581912    1400.1347  0.078889718  0.078921946            2 
 1480000     1.025044   -3.1729044    1395.8998   0.07859796  0.078910316            3 
 1481000   0.98894856   -3.1386717    1398.2777  0.078678689  0.078898894            3 
 1482000    1.0152063   -3.1465638    1404.0863   0.07895222  0.078887085            1 
 1483000    1.0093465   -3.1690897    1406.6362  0.079042266  0.078875381            2 
 1484000     1.027029    -3.141321    1405.2653  0.078912023  0.078863979            2 
 1485000    1.0133201    -3.157542    1408.8947  0.079062551  0.078852464            2 
 1486000    1.0097148   -3.1776622     1406.724  0.078887618  0.078841039            3 
 1487000    1.0341189   -3.1329358    1404.5161  0.078710835  0.078829588            1 
 1488000     1.011446    -3.166883    1410.5894  0.078998061  0.078817811            2 
 1489000    1.0146517   -3.1702274    1408.6118   0.07883433  0.078806178            3 
 1490000    1.0272477   -3.1405776    1409.4541  0.078828529  0.078794831            3 
 1491000    1.0244923   -3.1502869    1410.5171  0.078835073  0.078783053            3 
 1492000    1.0123736   -3.1721483    1411.1988   0.07882031  0.078771982            2 
 1493000    1.0136896   -3.1765928    1414.2915  0.078940138  0.078761095            1 
 1494000    1.0002479   -3.1474983    1412.6964  0.078798326  0.078749861            4 
 1495000    1.0118805   -3.1687024     1417.793  0.079029709  0.078739003            4 
 1496000    1.0139539   -3.1353175    1413.8516  0.078757332  0.078728202            2 
 1497000    1.0049516   -3.1668852    1415.4542   0.07879393  0.078716974            3 
 1498000    1.0267128    -3.155957    1422.9701  0.079159441  0.078706355            2 
 1499000    1.0049584   -3.1672792    1422.6621  0.079089508  0.078695955            2 
 1500000    1.0208788   -3.1643193    1420.2718  0.078903992  0.078685171            4 
 1501000    1.0042722   -3.1507223     1422.542  0.078977459  0.078674411            2 
 1502000    1.0142895    -3.157501    1426.7476  0.079158208  0.078664303            1 
 1503000    1.0280057   -3.1411764    1433.2685  0.079467091  0.078653913            3 
 1504000    1.0170687   -3.1621681    1431.3647  0.079308772  0.078643877            3 
 1505000    1.0196696   -3.1341451    1425.6794  0.078941274  0.078633613            2 
 1506000    1.0354041   -3.1543952    1431.2677  0.079198081  0.078623584            1 
 1507000    1.0274461   -3.1580896    1426.1445  0.078862224  0.078613368            2 
 1508000    1.0004513   -3.1490003    1434.0043   0.07924427  0.078603722            2 
 1509000    1.0054604   -3.1580208    1429.2392  0.078928609  0.078593726            3 
 1510000    1.0138974   -3.1052782    1435.7757  0.079237067  0.078583935            2 
 1511000    1.0375912   -3.1678128    1436.2515  0.079210868  0.078574063            3 
 1512000    1.0022138   -3.1757221    1434.3398   0.07905312   0.07856416            1 
 1513000    1.0269299   -3.1536461    1434.6243  0.079016542  0.078554484            3 
 1514000   0.99954561   -3.1636797    1432.9156  0.078870301  0.078544664            1 
 1515000   0.98785067   -3.1602708    1435.1194  0.078939462   0.07853489            1 
 1516000     1.002925   -3.1415281    1443.3821  0.079341584  0.078525073            6 
 1517000    1.0199521   -3.1498943    1437.9458  0.078990653  0.078515399            2 
 1518000    1.0047722   -3.1744416    1441.0658  0.079109895  0.078505614            4 
 1519000    1.0048031   -3.1820564    1433.9402  0.078666895  0.078495855            4 
 1520000     1.026088   -3.1689566    1443.5473  0.079141847  0.078485933            2 
 1521000   0.99851156   -3.1524937    1433.8759  0.078559935  0.078476118            2 
 1522000    1.0071541   -3.1505188    1440.1808  0.078853528  0.078466049            2 
 1523000     1.012404   -3.1450494    1444.0331  0.079012534  0.078456076            5 
 1524000   0.99761603   -3.1502431    1442.6363  0.078884312  0.078446066            2 
 1525000   0.99775722   -3.1243948    1442.5291  0.078826727  0.078436015            3 
 1526000    1.0134217   -3.1724409    1444.1541  0.078863808  0.078426137            4 
 1527000    1.0141918   -3.1375335    1448.5974  0.079054648  0.078416102            2 
 1528000    1.0318752   -3.1626523    1448.6789  0.079007359   0.07840624            3 
 1529000   0.99471647   -3.1794936    1441.0523  0.078540019  0.078396196            2 
 1530000    0.9907834   -3.1523884    1445.2333  0.078716411  0.078386078            1 
 1531000    1.0097489   -3.1777289    1453.1727  0.079097143  0.078376312            3 
 1532000    1.0010191   -3.1286369     1451.169  0.078936523  0.078366469            1 
 1533000   0.99971143   -3.1690193    1451.5941  0.078908135  0.078356525            1 
 1534000   0.99878239   -3.1575354     1449.113  0.078721913   0.07834619            3 
 1535000    1.0063268   -3.1407109    1450.4991  0.078745879  0.078335797            4 
 1536000    1.0213149    -3.171104    1454.3538  0.078903745  0.078325739            1 
 1537000    1.0365009   -3.1471462    1453.2525  0.078792697  0.078315033            1 
 1538000    1.0061807   -3.1823589    1450.2806  0.078580438  0.078304456            2 
 1539000    1.0148565   -3.1721017    1451.6431  0.078603158  0.078293841            2 
 1540000    1.0220097    -3.191796    1449.5828   0.07844063    0.0782831            4 
 1541000   0.99272269   -3.1401847    1449.8172  0.078402401  0.078272456            2 
 1542000    1.0065896   -3.1796862     1449.391  0.078328526  0.078261781            2 
 1543000   0.99816017    -3.156599    1455.2154  0.078592319  0.078250775            3 
 1544000   0.99106246   -3.1933567     1453.548  0.078451422  0.078240167            2 
 1545000     1.021571   -3.1714853    1454.9399  0.078475722  0.078229924            4 
 1546000     0.998527   -3.1674592    1459.5849  0.078675339  0.078219437            4 
 1547000   0.99467761   -3.1530358    1461.5069  0.078728016  0.078209229            2 
 1548000   0.99470422    -3.192411    1457.7803  0.078476544  0.078198586            3 
 1549000    1.0096204   -3.1543579    1457.8321  0.078428669  0.078187932            3 
 1550000     1.011821   -3.1916208    1459.0659  0.078444405  0.078177137            1 
 1551000    1.0013928   -3.1679804    1459.1928  0.078400645  0.078166658            2 
 1552000   0.99956358   -3.1891544    1454.3726  0.078091311  0.078155907            2 
 1553000    0.9864426    -3.195343    1454.7862  0.078063223  0.078144988            1 
 1554000   0.98476326   -3.1673919    1464.5621  0.078537221  0.078134225            3 
 1555000    1.0067421   -3.1851005    1456.1773  0.078037367  0.078123557            2 
 1556000    1.0083278   -3.1654522    1464.4194  0.078428631  0.078113261            3 
 1557000   0.98737897   -3.1777171    1459.5055  0.078115257   0.07810286            3 
 1558000    1.0150313   -3.2004188    1466.5542  0.078442137   0.07809231            4 
 1559000   0.98451984   -3.1890666    1467.9322  0.078465478  0.078081567            1 
 1560000   0.98148247    -3.181621    1462.8326  0.078142766  0.078070767            2 
 1561000    1.0092021   -3.1659831    1469.8502  0.078467339  0.078059906            3 
 1562000    1.0052416   -3.1792136    1461.9031  0.077993123  0.078048916            2 
 1563000    1.0123268   -3.1765771    1463.6261   0.07803509  0.078037824            3 
 1564000    1.0113331   -3.1580793    1469.2367  0.078284139  0.078027134            5 
 1565000   0.97798877   -3.1577196    1471.4804  0.078353588  0.078016306            2 
 1566000    1.0181181   -3.2038076    1471.6236  0.078311175  0.078005084            3 
 1567000    1.0115037   -3.1704639    1473.6874  0.078370953  0.077994087            3 
 1568000   0.99986276    -3.146617    1472.7832  0.078272915  0.077983298            3 
 1569000   0.99312507   -3.1414354    1472.8366  0.078225866  0.077972744            2 
 1570000   0.98745112   -3.1887751    1471.2806  0.078093449  0.077962103            2 
 1571000    1.0087268   -3.1688299    1473.5948  0.078166495  0.077951492            3 
 1572000    1.0091309   -3.1856253    1475.1585  0.078199666   0.07794087            5 
 1573000    1.0038198   -3.1810833    1470.3446  0.077894927   0.07793024            1 
 1574000    1.0236642   -3.1926344    1475.1774    0.0781013  0.077918906            3 
 1575000    1.0018634   -3.1996515    1474.7806  0.078030717  0.077908224            3 
 1576000   0.99781005   -3.1850305    1471.3834  0.077801575  0.077897035            4 
 1577000   0.98930354   -3.2049205    1475.3962  0.077964288  0.077885548            4 
 1578000    0.9984851    -3.168932    1475.8623  0.077939496  0.077874272            4 
 1579000     1.006463   -3.2185055    1469.2166  0.077539401  0.077863319            3 
 1580000   0.99682199   -3.1854474    1477.4118  0.077922563  0.077852035            6 
 1581000   0.99367393   -3.1818845    1481.8536  0.078107402  0.077840849            3 
 1582000   0.99855169    -3.188061     1481.096  0.078018119  0.077829829            3 
 1583000   0.98105822   -3.1864961    1474.7299  0.077633706  0.077818599            2 
 1584000   0.98008293   -3.2021324    1474.5197  0.077573637  0.077807296            1 
 1585000   0.99901182   -3.1813713    1480.1159  0.077818922  0.077795994            1 
 1586000    1.0297655   -3.1837437    1485.1645  0.078035125  0.077785007            3 
 1587000   0.98466029   -3.1631813    1484.2539  0.077938138  0.077774027            2 
 1588000    1.0032228   -3.1610129     1484.326  0.077892841  0.077762619            1 
 1589000   0.99072182   -3.1851905     1480.681  0.077652664  0.077751464            2 
 1590000   0.98011142   -3.1943458    1487.0223  0.077936178  0.077740369            3 
 1591000   0.99011428   -3.1958527    1477.5928  0.077393298   0.07772927            2 
 1592000   0.99450402   -3.1742257     1482.168   0.07758417  0.077718176            2 
 1593000    1.0006333   -3.1568101    1490.5344  0.077973131  0.077706716            3 
 1594000    1.0050539   -3.1894549    1490.7641  0.077936224  0.077695772            3 
 1595000     1.006772   -3.1825616    1491.7403  0.077938364   0.07768496            5 
 1596000   0.99619998   -3.1969281    1486.3455   0.07760785  0.077673791            3 
 1597000   0.96716101   -3.1850946    1488.5296  0.077673219  0.077662921            1 
 1598000   0.99044684   -3.1668452    1495.4497  0.077985487  0.077651974            3 
 1599000    1.0103155   -3.1822318    1486.8872  0.077490471  0.077640762            5 
 1600000   0.99609339   -3.1746844    1491.1757  0.077665399  0.077629588            3 
 1601000   0.99643802   -3.2066609    1488.5235  0.077478839  0.077618304            2 
 1602000   0.99124828   -3.2031765     1492.726  0.077649082  0.077606665            1 
 1603000   0.98532031   -3.1699785    1494.6838  0.077702422  0.077595264            2 
 1604000   0.99494068   -3.1766295    1494.7921  0.077659606  0.077584049            3 
 1605000      1.00348    -3.191778    1496.8796  0.077719607  0.077572878            3 
 1606000    1.0063905   -3.2011814    1487.3075  0.077174526  0.077561586            3 
 1607000    1.0078888   -3.1968992    1497.1818  0.077638549   0.07755034            3 
 1608000   0.99967705   -3.1776289    1501.7117  0.077825024   0.07753924            2 
 1609000   0.99050189   -3.1813661    1497.8958  0.077579025  0.077528115            2 
 1610000    1.0132414   -3.1726382    1500.0259  0.077641092  0.077517046            3 
 1611000    1.0239057   -3.1869313    1503.6684  0.077781318  0.077506146            2 
 1612000   0.98766536    -3.188645    1504.9995  0.077801878  0.077494761            2 
 1613000   0.98330934   -3.1787083    1499.1111  0.077449425  0.077483659            3 
 1614000   0.99753548   -3.2020439    1500.8579  0.077491632  0.077472658            2 
 1615000   0.96868293   -3.1816543     1501.065  0.077454335  0.077461338            3 
 1616000    1.0238625   -3.1818968    1504.0077  0.077558152  0.077450378            2 
 1617000   0.99008206   -3.1826455    1504.1454  0.077517286  0.077439458            2 
 1618000    1.0209469   -3.1871648     1504.826  0.077504431  0.077428173            3 
 1619000   0.99996108   -3.1950452    1503.4312  0.077384765  0.077416541            1 
 1620000   0.99660789   -3.1648438    1506.3426  0.077486761  0.077405259            2 
 1621000    0.9983975   -3.1857339    1500.7813   0.07715306  0.077393896            2 
 1622000   0.97805011   -3.1878044    1507.6812  0.077459988  0.077382567            2 
 1623000   0.97846662   -3.1801559    1508.9296  0.077476363  0.077371108            3 
 1624000    1.0128574    -3.180805    1507.5195  0.077356296  0.077359782            4 
 1625000   0.99994702   -3.1953176    1506.1285   0.07723736  0.077348347            4 
 1626000   0.99607274   -3.1686228    1509.3245  0.077353653  0.077336574            4 
 1627000   0.98861006   -3.1738529    1508.5184  0.077264822  0.077325038            2 
 1628000    1.0082534   -3.1761368    1513.2484  0.077459479  0.077313392            3 
 1629000   0.98786041   -3.1726042    1509.7206  0.077231462  0.077301762            3 
 1630000    1.0065046   -3.1692933    1513.0176  0.077352637  0.077290016            2 
 1631000   0.97576388   -3.2024415    1515.6016  0.077437235  0.077278117            3 
 1632000   0.98677082   -3.2033333     1510.266   0.07711734  0.077266695            1 
 1633000   0.99594009   -3.1726001    1512.0566   0.07716149  0.077255378            2 
 1634000   0.96483716   -3.1893996    1511.7413  0.077098189  0.077243903            4 
 1635000    1.0000024    -3.206008    1498.7732  0.076390073  0.077231867            2 
 1636000    1.0191081   -3.2035498    1512.0706  0.077020713  0.077219831            1 
 1637000    1.0147322   -3.1989737    1513.8122  0.077062318  0.077207711            5 
 1638000   0.96611602   -3.1823688    1514.8191  0.077066497  0.077195724            7 
 1639000   0.97503282   -3.1742601    1512.7086  0.076912172  0.077183459            2 
 1640000   0.96488455   -3.1923776    1510.5483  0.076755503  0.077171295            3 
 1641000   0.98690619   -3.1883136    1515.0144  0.076935526  0.077158992            1 
 1642000    1.0023551    -3.144955    1519.3737  0.077109911  0.077146899            2 
 1643000    1.0048942    -3.202728    1525.7137  0.077384546  0.077135065            1 
 1644000   0.98468883   -3.1999908    1516.4587  0.076868343  0.077123425            3 
 1645000   0.96066458   -3.1934428    1515.7354  0.076784976  0.077111392            2 
 1646000   0.99544205   -3.1928778    1529.2414  0.077422103  0.077099643            1 
 1647000    1.0036029   -3.1948452    1520.2153  0.076918403  0.077088109            2 
 1648000   0.98963679   -3.1917389    1521.3477  0.076928987  0.077076077            4 
 1649000   0.99388376   -3.1859792    1524.4989  0.077041586  0.077064431            3 
 1650000   0.99517369   -3.1636267    1527.2082  0.077131725  0.077052792            1 
 1651000    0.9840177   -3.2071642    1527.6375  0.077106676   0.07704109            6 
 1652000    1.0072238   -3.2041518    1524.7498  0.076914337  0.077029211            2 
 1653000   0.99695295   -3.1967581    1530.1183   0.07713845  0.077017704            4 
 1654000   0.97838945   -3.2218442    1527.5764  0.076963743   0.07700602            2 
 1655000   0.98531354   -3.2013765    1530.0631  0.077042455  0.076994118            3 
 1656000   0.95524044   -3.1945464    1530.4886  0.077017342  0.076982145            5 
 1657000    1.0088772   -3.1949267    1534.1037  0.077152669  0.076970219            2 
 1658000   0.97693633   -3.2118864    1526.8995  0.076744045  0.076957999            3 
 1659000   0.99305587   -3.2032622    1531.3873  0.076923211  0.076945755            5 
 1660000    0.9906895   -3.1897965    1529.6905  0.076791692  0.076933475            1 
 1661000   0.97122236   -3.2132565    1525.3423  0.076527306  0.076921245            2 
 1662000   0.98536499   -3.1792979    1528.8773   0.07665851  0.076909048            8 
 1663000   0.99706818     -3.19936    1529.5399  0.076645617  0.076897111            2 
 1664000   0.98652277   -3.1927699    1529.3923  0.076592164  0.076885028            4 
 1665000   0.99715001   -3.1845892    1528.3523  0.076494108  0.076872728            2 
 1666000   0.99427809    -3.194253     1533.037  0.076682522  0.076860397            3 
 1667000   0.98781904   -3.2082504    1532.9958  0.076634462  0.076848249            3 
 1668000   0.98854669   -3.1970755    1539.3086  0.076903907  0.076835945            1 
 1669000   0.99700923   -3.2273141     1529.415   0.07636384  0.076823745            2 
 1670000   0.98302264   -3.1857823    1540.0363  0.076848121  0.076811538            2 
 1671000   0.97502463   -3.1802768    1539.5945  0.076780095  0.076799494            5 
 1672000   0.98018263   -3.1747728    1536.1034  0.076560177  0.076787452            7 
 1673000    0.9710989   -3.2065269    1538.4174  0.076629675  0.076775594            4 
 1674000   0.96615669   -3.2101938    1536.7315  0.076499974  0.076763261            2 
 1675000   0.98971354   -3.1895447    1539.4121  0.076587669  0.076750959            4 
 1676000   0.98804596   -3.1911812    1543.1155  0.076726111  0.076738975            2 
 1677000    1.0035423   -3.1871067    1538.5671   0.07645434  0.076727006            4 
 1678000   0.99013425     -3.19809    1544.0175  0.076679453  0.076714927            1 
 1679000   0.99668681    -3.165522    1544.5009  0.076657776  0.076702963            3 
 1680000   0.98610686   -3.2085098    1543.3589  0.076555503  0.076690438            6 
 1681000   0.98884405   -3.1837635    1540.7166  0.076378973  0.076677972            2 
 1682000   0.98203926   -3.1944962    1540.8448  0.076339913  0.076665423            2 
 1683000   0.99374786   -3.1978766    1541.4868  0.076326344  0.076652954            3 
 1684000   0.98569392   -3.2056389    1537.1909  0.076068435  0.076640212            4 
 1685000   0.99164146   -3.1869738    1543.9245  0.076356306  0.076627443            2 
 1686000   0.96213652   -3.1963599    1543.6332  0.076296621  0.076615336            3 
 1687000   0.96705224   -3.1886264    1545.4471  0.076340994   0.07660308            5 
 1688000   0.97447171   -3.2250875    1544.2917  0.076238732  0.076590799            3 
 1689000   0.97554913   -3.2068704    1552.5078  0.076598965   0.07657846            2 
 1690000   0.98423463    -3.193318    1553.6835  0.076611614  0.076566339            1 
 1691000   0.99456456   -3.2134878     1547.008  0.076237336  0.076554331            2 
 1692000   0.96381209   -3.1862315    1555.8781  0.076629141  0.076542443           10 
 1693000   0.97803473   -3.1943813    1553.0138  0.076442894  0.076530835            5 
 1694000   0.97774804   -3.1853946    1548.9418  0.076197451  0.076519105            2 
 1695000   0.98424836   -3.2010546    1557.1782  0.076557435  0.076507413            3 
 1696000   0.99899653   -3.1931978    1561.4046   0.07671996  0.076495502            2 
 1697000   0.97018881   -3.2018366    1557.0891  0.076462834   0.07648382            4 
 1698000   0.98958938   -3.1908637    1552.5739  0.076196207  0.076471974            1 
 1699000   0.97944441   -3.2058492    1551.8321  0.076114972  0.076459633            2 
 1700000   0.99435871   -3.2209263     1549.103  0.075936421    0.0764475            2 
 1701000   0.98086332   -3.2179755    1550.9905  0.075984251  0.076435359            2 
 1702000   0.98352295   -3.1900422    1558.9693  0.076330264   0.07642352            3 
 1703000   0.98449404   -3.2060592     1555.836   0.07613212  0.076411183            2 
 1704000   0.99015534   -3.2260181    1557.3765  0.076162777   0.07639894            2 
 1705000   0.98972758   -3.2022022    1555.8418  0.076043098  0.076386632            3 
 1706000     1.010519   -3.1957696     1562.429  0.076320289  0.076374071            3 
 1707000   0.96679425   -3.2126114    1560.3174  0.076172494  0.076362004            4 
 1708000   0.98367981   -3.1958941    1560.1397  0.076119229  0.076349415            5 
 1709000    0.9770229   -3.1957558    1561.8492  0.076158044  0.076337254            1 
 1710000   0.98307078   -3.1890554    1568.6775  0.076446274  0.076325177            4 
 1711000   0.97187739   -3.1849176    1568.6896  0.076402183   0.07631285            2 
 1712000   0.99099891    -3.212895    1565.5734  0.076205869  0.076300697            2 
 1713000   0.98491084   -3.2087457    1563.8651  0.076078277  0.076288584            4 
 1714000   0.96599455   -3.1944936    1556.3241  0.075667255  0.076276303            5 
 1715000   0.95900436   -3.1957648    1566.6719   0.07612594  0.076264216            4 
 1716000   0.99090551   -3.1926591    1567.6091  0.076127093  0.076251971            4 
 1717000   0.97852415   -3.1991046    1576.1393   0.07649676  0.076239999            2 
 1718000    0.9754295   -3.2023834    1572.8616   0.07629325  0.076228494            6 
 1719000   0.96970805   -3.1939132    1574.0075  0.076304418  0.076216962            3 
 1720000   0.96627747   -3.1978764    1570.2194  0.076076522  0.076205138            2 
 1721000   0.97317731   -3.2192651    1572.1154  0.076124125  0.076193694            7 
 1722000   0.99155507   -3.2274428    1571.6719  0.076058454   0.07618201            3 
 1723000   0.98844252   -3.2009776    1578.0812  0.076324297  0.076170069            1 
 1724000    0.9652551   -3.1885762    1579.2701  0.076337497  0.076158535            5 
 1725000   0.97229343   -3.2319222    1575.4631  0.076109328  0.076146934            4 
 1726000   0.99640807   -3.1881921    1577.5806  0.076167466  0.076135608            3 
 1727000   0.98500003   -3.2220853    1579.2605  0.076204423  0.076124376            9 
 1728000    0.9986262   -3.2359026    1575.4152  0.075974884  0.076113108            5 
 1729000   0.98209583   -3.2089371    1584.5908  0.076373185  0.076102132            2 
 1730000   0.96072732    -3.208707    1582.8637  0.076245842  0.076091072            3 
 1731000   0.96195121   -3.1891422    1585.5574  0.076331477  0.076080062            3 
 1732000   0.97033427   -3.2138677    1579.6413  0.076002758  0.076068999            2 
 1733000   0.97835062   -3.2100265    1580.8142    0.0760153  0.076057828            6 
 1734000   0.97449728   -3.2053385    1576.6874  0.075773135  0.076046473            2 
 1735000   0.98882527   -3.1991009    1588.1349  0.076279295  0.076034924            2 
 1736000   0.96667294   -3.2417989    1576.5936  0.075681338  0.076023686            4 
 1737000   0.97032618   -3.2146454    1591.0509  0.076331362  0.076012146            7 
 1738000   0.97528896   -3.2164955    1584.7792  0.075986729  0.076001079            3 
 1739000   0.96273622   -3.2042165    1594.2518  0.076396963  0.075989636            2 
 1740000    0.9843946   -3.1788544    1589.1069  0.076106654  0.075978726            4 
 1741000    0.9849878   -3.2217226     1593.282  0.076262778  0.075967524            2 
 1742000    0.9430173   -3.2183405      1580.43  0.075604192  0.075956616            3 
 1743000   0.94757579   -3.1850117    1595.1029  0.076262329  0.075945217            2 
 1744000   0.97648723   -3.1852361    1595.3091  0.076228456  0.075933993            1 
 1745000   0.96226574   -3.1993516    1591.0752  0.075982579  0.075922777            3 
 1746000   0.95096678   -3.2123219    1595.1004  0.076131176  0.075911523            3 
 1747000   0.97552578   -3.2178966    1596.8302  0.076170113  0.075900707            3 
 1748000   0.98301826   -3.2267198    1595.9496  0.076084552  0.075889361            3 
 1749000   0.98038972   -3.2125757    1590.8514  0.075798141  0.075878255            5 
 1750000   0.96796886   -3.1910442    1592.0429  0.075811565  0.075867663            6 
 1751000   0.97585402   -3.2141701    1598.6817  0.076084221  0.075856667            4 
 1752000   0.97053107    -3.206128    1598.0581  0.076011135  0.075845576            7 
 1753000   0.96178722   -3.2262638     1595.087  0.075826537  0.075834299            3 
 1754000   0.97276847   -3.2030353    1601.0689  0.076067507  0.075823125            3 
 1755000   0.96327905   -3.2038131    1597.8093  0.075869389  0.075812023            2 
 1756000   0.98563446   -3.2196336    1595.0717  0.075696267   0.07580041            2 
 1757000   0.97745614   -3.2390576    1595.6937  0.075682684  0.075788989            1 
 1758000   0.95977281   -3.2398047    1596.5462  0.075680041  0.075777394            4 
 1759000   0.94954604   -3.1777168    1598.9611  0.075751428  0.075765582            4 
 1760000   0.96870213   -3.2100636    1598.0435  0.075664939  0.075754411            2 
 1761000   0.97385995   -3.2272807    1596.1276   0.07553131  0.075742761            4 
 1762000   0.96868603   -3.2235981    1601.3773  0.075736725  0.075731666            3 
 1763000   0.94420854    -3.235466    1600.1291  0.075634764  0.075720056            3 
 1764000    0.9602699   -3.2224766    1600.7093  0.075619299  0.075708715            2 
 1765000   0.94356952   -3.2006012    1605.2444  0.075790577  0.075697348            2 
 1766000   0.95899646   -3.2629659    1599.7944  0.075490485  0.075685466            4 
 1767000   0.97217343   -3.2172977     1604.783   0.07568303  0.075673928            4 
 1768000    0.9748147   -3.2185056    1600.4023  0.075433744  0.075662238            2 
 1769000   0.97130703   -3.2130892    1606.4423  0.075675629  0.075650302            5 
 1770000   0.93232504   -3.2049295    1606.7547  0.075647586  0.075638554            5 
 1771000   0.94879953   -3.2235324    1602.2583  0.075393295  0.075627002            3 
 1772000   0.95418721    -3.241357    1597.1081  0.075108543  0.075615029            5 
 1773000   0.94146972   -3.2002308    1607.3192  0.075546117  0.075603159            4 
 1774000   0.97707291   -3.2335142     1604.097  0.075352172  0.075591357            2 
 1775000   0.96144945    -3.225979    1610.6361   0.07561672  0.075579361            3 
 1776000   0.97127373   -3.1917674     1613.102  0.075689846  0.075567473            3 
 1777000   0.95895418   -3.2210324    1607.6861  0.075393268  0.075555461            5 
 1778000   0.96104593   -3.2250769    1606.6056  0.075300224  0.075543522           13 
 1779000   0.97019252   -3.2519516    1606.6121  0.075258203  0.075531273            1 
 1780000   0.96681082   -3.2212712    1606.9632   0.07523236  0.075518914            2 
 1781000   0.96360044     -3.23312    1610.0354  0.075333869  0.075506787            2 
 1782000   0.98533364   -3.2147392    1605.5833  0.075083396    0.0754948            2 
 1783000    0.9662978   -3.2192454    1610.7227  0.075281489  0.075482535            2 
 1784000   0.96285137      -3.2135    1607.3582   0.07508213  0.075470518            5 
 1785000    0.9742848   -3.1912448    1620.9868  0.075676321  0.075458627            3 
 1786000   0.97568599   -3.2058167    1615.7464  0.075389436  0.075446595            3 
 1787000    0.9599166   -3.2391927    1616.4758  0.075381264  0.075434574            2 
 1788000   0.96482851   -3.2147811    1625.6833  0.075768238  0.075422629            2 
 1789000    0.9380017   -3.2359875    1616.5039  0.075298302  0.075410738            4 
 1790000   0.95533877   -3.2266107    1611.7384  0.075034375  0.075398852            5 
 1791000   0.97016618   -3.2207517    1626.0047  0.075656275  0.075387186            2 
 1792000   0.96543077   -3.2585871    1621.8628  0.075421446  0.075375608            3 
 1793000   0.99210792   -3.2030675    1623.1986  0.075441465  0.075364172            3 
 1794000   0.95030822   -3.2375841    1624.3454  0.075452684  0.075352574            5 
 1795000   0.96309845   -3.2346996    1621.4311  0.075275353  0.075340809            4 
 1796000   0.95849807   -3.2125073    1622.9422  0.075303556  0.075328934            4 
 1797000   0.99102159   -3.2223899    1623.4194   0.07528378  0.075317729            2 
 1798000   0.96126437   -3.2084153    1623.5085  0.075246035  0.075306183            4 
 1799000   0.96008337   -3.2026791    1620.1661  0.075049383  0.075294707            5 
 1800000   0.98083177   -3.2287658    1620.4714  0.075021823     0.075283            2 
 1801000   0.95003979   -3.2435666    1623.6873  0.075128968  0.075270974            3 
 1802000   0.97905364   -3.2151468    1628.7986  0.075323652  0.075258914            3 
 1803000   0.97125947   -3.2480611     1627.086  0.075202716  0.075246986            2 
 1804000   0.96481296    -3.239914    1621.1964  0.074888968  0.075234712            1 
 1805000   0.96457004   -3.2307479    1627.9594  0.075159715   0.07522275            1 
 1806000   0.97031706   -3.2220711    1626.4936  0.075050459  0.075210696            2 
 1807000   0.95570576   -3.2433305    1626.0265  0.074987387  0.075198702            2 
 1808000   0.93350865   -3.2332645    1627.1704  0.074998634  0.075186575            6 
 1809000   0.97938499   -3.2119512     1631.565   0.07515962  0.075174516            3 
 1810000   0.97790152   -3.2074053    1626.7366  0.074895793  0.075162827            6 
 1811000   0.96079383   -3.2418446    1627.9127  0.074908552  0.075151018            2 
 1812000   0.95903828   -3.2448339    1632.2602  0.075067156  0.075139093            5 
 1813000   0.96607221   -3.2228694    1635.7882  0.075187912  0.075127299            3 
 1814000   0.94507924   -3.2347786    1630.0417  0.074882474  0.075115483            2 
 1815000   0.94996149   -3.2199131    1637.0287  0.075162017  0.075103631            7 
 1816000   0.97217578   -3.2049559    1642.0827  0.075352546  0.075091942            4 
 1817000   0.98303799   -3.2166864    1632.9222  0.074890946  0.075079985            3 
 1818000   0.97805019   -3.2113375     1640.452  0.075194903  0.075068219            3 
 1819000    0.9773212    -3.204973    1641.7594   0.07521346  0.075056349            3 
 1820000   0.97130138   -3.2425894    1638.8053  0.075036875  0.075044532            3 
 1821000   0.95205887   -3.2131253    1643.7343  0.075221231  0.075032483            3 
 1822000   0.97491257   -3.2272583    1640.2284  0.075019595  0.075020478            4 
 1823000   0.94876446    -3.205072    1639.3224  0.074937028  0.075008661            6 
 1824000   0.97032295   -3.2525152    1641.6629  0.075002875  0.074996603            5 
 1825000   0.94973932    -3.232461    1636.7361  0.074736806  0.074984803            2 
 1826000    0.9454583   -3.2234313    1638.7163  0.074786249  0.074972648            2 
 1827000   0.95064305   -3.2423621    1644.8071   0.07502313  0.074960751            1 
 1828000   0.94570736    -3.242603    1639.8954  0.074758178  0.074948964            2 
 1829000   0.96242728    -3.215298    1641.4534  0.074788293  0.074936944            4 
 1830000   0.98648751   -3.2420012     1642.934  0.074814845  0.074925121            2 
 1831000    0.9644388   -3.2216326    1647.6071  0.074986671  0.074912986            2 
 1832000   0.96191285   -3.2351449    1642.0583  0.074693336  0.074901205            2 
 1833000   0.94376461   -3.2321313    1644.0928   0.07474508  0.074889228            3 
 1834000    0.9874626   -3.2337114    1647.0845  0.074840261  0.074877406            3 
 1835000    0.9616934   -3.2427712     1646.981  0.074794779  0.074865673            3 
 1836000   0.95839994   -3.2282741    1645.9978  0.074709413  0.074854107            2 
 1837000   0.96494531   -3.2146407      1645.04  0.074625296  0.074842099            5 
 1838000   0.94560122   -3.2495355     1645.012  0.074583425  0.074829845            2 
 1839000   0.95597813   -3.2575776    1645.3482    0.0745581  0.074817851            6 
 1840000   0.93864309   -3.2362307    1648.1571  0.074644795  0.074805438            1 
 1841000   0.93716557   -3.2039023    1657.4984  0.075027085  0.074793471            3 
 1842000   0.96615581   -3.2447809    1648.5153  0.074579955  0.074781586            3 
 1843000   0.96310842   -3.2194145    1649.3692  0.074578097  0.074769696            1 
 1844000   0.92331493   -3.2195947     1659.847  0.075011161  0.074757872            1 
 1845000    0.9498726   -3.2459153    1648.9931  0.074480265  0.074746142            3 
 1846000   0.97418315   -3.2534694     1647.122  0.074355454  0.074734179            3 
 1847000   0.94890688   -3.1980506     1659.498   0.07487358   0.07472224            4 
 1848000    0.9587098    -3.241653    1655.0386  0.074631973   0.07471054            2 
 1849000   0.97254235   -3.2429711     1652.855  0.074493193  0.074698662            8 
 1850000   0.96462865   -3.2411189    1652.9326  0.074456422   0.07468672            4 
 1851000   0.91799008   -3.2503302    1659.9125  0.074730441  0.074674848            1 
 1852000   0.94775433   -3.2363793    1654.5845  0.074450349  0.074663227            2 
 1853000   0.95482376    -3.229443    1654.6864  0.074414752  0.074651229            2 
 1854000   0.97530936   -3.2531372    1653.7992  0.074334735  0.074639315            4 
 1855000   0.95424552   -3.2468555    1658.0895  0.074487399  0.074627413            3 
 1856000   0.96073449   -3.2382453    1661.5411  0.074602238  0.074615263            5 
 1857000   0.94708888   -3.2467919    1659.8285  0.074485215  0.074603069            4 
 1858000   0.94489737   -3.2294591    1655.1531  0.074235428  0.074591082            3 
 1859000   0.94840203   -3.2430243    1665.3272  0.074651569  0.074578812            2 
 1860000   0.94104132   -3.2487281    1659.3301  0.074342745  0.074566519            2 
 1861000   0.96726934   -3.2337134    1659.9658  0.074331263  0.074553557            4 
 1862000   0.97846056      -3.2387    1655.3991  0.074086964  0.074541355            3 
 1863000   0.94359174   -3.2164576    1665.5516  0.074501324  0.074529031            2 
 1864000   0.93627081    -3.241518    1665.4993  0.074459015  0.074516641            1 
 1865000   0.97550203   -3.2313612     1663.724  0.074339769   0.07450455            3 
 1866000   0.96306532   -3.2484057    1665.4046   0.07437498  0.074492403            6 
 1867000   0.94155166   -3.2540001    1663.8432  0.074265454  0.074479947            2 
 1868000   0.94043611   -3.2527449    1672.0602  0.074592265   0.07446778            5 
 1869000   0.96543029    -3.265568    1667.5998  0.074353476  0.074455679            3 
 1870000   0.93892972   -3.2142151    1662.2127   0.07407365  0.074443858            2 
 1871000   0.93469041   -3.2348432    1667.9849  0.074291149  0.074431814            1 
 1872000   0.95409192   -3.2395862     1670.372  0.074357726  0.074419892            3 
 1873000    0.9653124    -3.257839    1675.2994  0.074537256  0.074407926            3 
 1874000   0.96613228   -3.2444621    1674.5551  0.074464386  0.074395897            4 
 1875000   0.95837087   -3.2469249    1664.7098  0.073987104  0.074383564            2 
 1876000   0.94144027   -3.2596208    1663.9181  0.073912497  0.074370946            4 
 1877000   0.96834045   -3.2230478    1674.1311  0.074326546  0.074358705            2 
 1878000   0.96631944   -3.2497758    1661.9349  0.073745781  0.074346245            2 
 1879000   0.96635583   -3.2709478    1671.6652  0.074138071  0.074333884            2 
 1880000   0.94861956   -3.2121861    1672.8944  0.074153122  0.074321797            2 
 1881000   0.96513888   -3.2466746    1674.4556  0.074182863  0.074309673            2 
 1882000   0.96630909   -3.2267553    1681.9473  0.074475171  0.074297641            6 
 1883000   0.96589135   -3.2270718    1680.8138  0.074385459  0.074285875            4 
 1884000   0.95383517   -3.2347009    1679.6047  0.074292494  0.074273688            5 
 1885000   0.96869869   -3.2482191    1673.7012  0.073992094  0.074261668            3 
 1886000   0.94812441   -3.2461389    1678.9671  0.074185539  0.074249664            2 
 1887000   0.93763704   -3.2391078    1681.9506  0.074277981  0.074237977            3 
 1888000    0.9771837   -3.2390661    1674.8945  0.073927193  0.074226034            1 
 1889000   0.95670104   -3.2293955    1687.0935  0.074426217  0.074214007            1 
 1890000   0.96202663   -3.2636273    1678.6593  0.074014962  0.074202074            1 
 1891000   0.94377573   -3.2346691    1674.7527  0.073803663   0.07418974            2 
 1892000   0.96972236   -3.2257215    1680.6821  0.074025816  0.074177616            3 
 1893000   0.96193287   -3.2577138    1681.7952  0.074035709  0.074165561            2 
 1894000   0.95333948   -3.2791331    1682.3186   0.07401965  0.074153466            2 
 1895000   0.94557744   -3.2456285    1678.6573  0.073819581  0.074141525            3 
 1896000   0.94206324   -3.2403116    1675.3171  0.073633841  0.074129169            2 
 1897000   0.95176647    -3.234627    1683.8401  0.073969428  0.074116841            3 
 1898000   0.93875615    -3.237131    1681.7247  0.073837577  0.074104439            3 
 1899000   0.94840801   -3.2410215     1687.132  0.074035985  0.074092311            3 
 1900000   0.93915808   -3.2721083    1676.5682  0.073533691  0.074079831            3 
 1901000    0.9297558   -3.2632996    1683.4245  0.073795566  0.074067636            5 
 1902000   0.94521691   -3.2490357    1690.0027  0.074044984  0.074055462            1 
 1903000   0.94299337   -3.2631891    1688.7516  0.073951288   0.07404315            3 
 1904000   0.96021663   -3.2410045    1689.2918  0.073936092  0.074031173            5 
 1905000   0.93184883   -3.2518915    1697.7952  0.074269255  0.074019396            2 
 1906000   0.93895809    -3.253568    1689.4619  0.073865944   0.07400723            3 
 1907000   0.95275466   -3.2557035    1696.4608  0.074133055  0.073995256            3 
 1908000   0.96346456   -3.2145529    1691.1766  0.073863407  0.073983321            1 
 1909000   0.95856782   -3.2544748    1697.6651  0.074107958  0.073971536            4 
 1910000   0.97306047   -3.2521267    1688.6134  0.073674231  0.073959451            3 
 1911000   0.93870442   -3.2458319    1699.6445  0.074116713  0.073947314            1 
 1912000   0.94624249   -3.2374635    1688.4361  0.073589439  0.073935271            1 
 1913000   0.94031394   -3.2505675    1700.1633  0.074061826  0.073923398            3 
 1914000   0.94372559   -3.2520026    1692.8378  0.073704187  0.073911419            4 
 1915000   0.93310399   -3.2278642    1696.4806  0.073824221  0.073899692            6 
 1916000   0.94270956   -3.2360403    1696.2745  0.073776726  0.073887995            2 
 1917000   0.93176892   -3.2554855     1695.637  0.073710528  0.073875766            4 
 1918000   0.94017302   -3.2304885    1693.4017  0.073574979  0.073863822            7 
 1919000   0.93447669   -3.2486965     1696.525   0.07367227  0.073851843            2 
 1920000   0.94215762   -3.2957581    1693.0442  0.073482819  0.073840022            1 
 1921000   0.91615326   -3.2322766    1710.5257  0.074202917  0.073828158            3 
 1922000   0.95962348   -3.2493808    1704.8968  0.073920258   0.07381621            4 
 1923000   0.93779749    -3.278734    1701.4576  0.073732778  0.073804303            1 
 1924000   0.94608386   -3.2381701    1703.9749  0.073803485   0.07379204            2 
 1925000   0.95074409   -3.2648171     1701.005   0.07363658  0.073780364            4 
 1926000   0.94760941   -3.2536559    1694.1539  0.073301917  0.073768295            2 
 1927000   0.93660909   -3.2258344    1701.9562  0.073601289  0.073756108            4 
 1928000   0.92768927   -3.2425039    1702.8427  0.073601433  0.073743677            3 
 1929000   0.94610632   -3.2364556    1701.8514  0.073520451  0.073731305            4 
 1930000   0.95332902   -3.2787171    1697.4839  0.073293778  0.073718789            6 
 1931000   0.94324015   -3.2593249    1699.4813  0.073342019  0.073706351            5 
 1932000   0.95300702   -3.2864698      1696.52  0.073176329  0.073693638            2 
 1933000   0.93500959   -3.2631479    1701.8756  0.073369357  0.073680982            3 
 1934000   0.93589865   -3.2484781    1703.1468  0.073386192  0.073668349            5 
 1935000   0.94625347   -3.2745184    1707.3285   0.07352836  0.073656035            2 
 1936000   0.95492681   -3.2451165    1711.4845  0.073669272  0.073643829            3 
 1937000   0.97180551   -3.2230424    1705.0362  0.073353822  0.073631621            1 
 1938000   0.93483941   -3.2740572    1705.0103  0.073314856   0.07361953            3 
 1939000   0.94429137    -3.263677    1710.4269  0.073509839  0.073607481            1 
 1940000   0.94975663   -3.2548893    1713.6182  0.073609029  0.073595163            4 
 1941000   0.95020028   -3.2396409    1710.9294  0.073455667  0.073583015            2 
 1942000   0.93165994   -3.2973976    1711.5573  0.073444786   0.07357069            2 
 1943000   0.94181954     -3.24953    1707.5283  0.073234189  0.073558497            3 
 1944000   0.94849488   -3.2329222    1717.9733   0.07364426  0.073546691            2 
 1945000   0.94373387    -3.241754    1712.8041  0.073384924  0.073534716            2 
 1946000   0.94115577   -3.2352392    1723.1164  0.073788816  0.073522748            2 
 1947000   0.92165737   -3.2447978    1716.8818   0.07348407  0.073511023            3 
 1948000   0.92981683   -3.2529446     1717.522  0.073473735  0.073499094            3 
 1949000    0.9268918   -3.2950114    1717.4349  0.073432311   0.07348721            4 
 1950000   0.94119866   -3.2720509    1719.6199   0.07348803  0.073475208            3 
 1951000   0.94608249   -3.2865787    1712.5168  0.073146968  0.073463373            6 
 1952000   0.93261277   -3.2641596    1716.4446  0.073277179  0.073451555            3 
 1953000   0.94946467    -3.287779     1714.228  0.073145075  0.073439554            2 
 1954000   0.92820343    -3.251753    1715.8008  0.073174717  0.073427422            6 
 1955000   0.93160795   -3.2640322    1719.5854  0.073298612  0.073415559            2 
 1956000   0.93448668   -3.2678862    1721.5481  0.073344753  0.073403551            4 
 1957000   0.94283454   -3.2545937    1716.6366  0.073098136  0.073391627            2 
 1958000   0.94336961   -3.2643544    1717.6818  0.073105285  0.073379817            2 
 1959000   0.93914901   -3.2572526     1721.112  0.073213884  0.073367846            3 
 1960000    0.9404422   -3.2378058    1724.8936  0.073337313  0.073355463            3 
 1961000   0.95013699   -3.2640496    1720.4594  0.073111482    0.0733433            3 
 1962000   0.94587474   -3.2422968     1725.283  0.073279094  0.073331382            2 
 1963000   0.93048309   -3.2516158    1732.0902  0.073530744  0.073319489            1 
 1964000   0.93762275    -3.260103    1730.6986   0.07343426   0.07330747            3 
 1965000   0.94447552   -3.2898661    1726.1518  0.073204065  0.073295538            3 
 1966000   0.93268414   -3.2519259    1732.5952  0.073439945  0.073283372            3 
 1967000   0.93189447   -3.2640729    1723.4035  0.073013196  0.073271417            6 
 1968000   0.92697399   -3.2256509    1730.7654  0.073287831  0.073259646            4 
 1969000   0.94522739   -3.2590717    1737.8948  0.073552343  0.073248044            2 
 1970000   0.94585242   -3.2623633    1730.7252  0.073211728  0.073236107            5 
 1971000   0.93316002   -3.2408294    1733.5455  0.073293822   0.07322461            1 
 1972000    0.9540659   -3.2524719    1727.6705  0.073008387   0.07321313            5 
 1973000   0.93664412   -3.2823165    1730.7688  0.073102245  0.073201274            2 
 1974000   0.93433812   -3.2704104     1741.545  0.073520138  0.073189862            5 
 1975000   0.94601621   -3.2564253    1739.0317  0.073376863  0.073178542            4 
 1976000   0.93816377   -3.2791832    1736.5852  0.073236554  0.073166935            3 
 1977000   0.94150808   -3.2673212    1735.6553  0.073160315  0.073155636            3 
 1978000   0.94006835   -3.2633346     1740.581  0.073330848  0.073144259            3 
 1979000   0.94144434    -3.260356    1736.8899  0.073138364  0.073132889            4 
 1980000   0.92215588    -3.263785    1732.3751  0.072911412  0.073121342            4 
 1981000   0.93122927   -3.2836575    1744.3618  0.073378841  0.073109975            2 
 1982000   0.94792997   -3.2556789     1746.091  0.073414524  0.073098704            6 
 1983000   0.95853443   -3.2491198    1746.7551  0.073405409  0.073087333            2 
 1984000   0.92926851   -3.2775301    1737.4237  0.072976465  0.073075968            2 
 1985000   0.91408979   -3.2605634    1746.5053  0.073320959  0.073064506            5 
 1986000   0.92570133   -3.2560539    1742.1696  0.073102115   0.07305322            4 
 1987000   0.93060932   -3.2665332    1751.7527  0.073467232  0.073042075            4 
 1988000   0.93918924   -3.2389645    1748.9217  0.073311606  0.073030858            4 
 1989000   0.93063208   -3.2719596     1745.273   0.07312188  0.073019793            2 
 1990000   0.94007693    -3.239319    1752.7548  0.073398441  0.073008542            2 
 1991000   0.94770285    -3.268845    1745.1459  0.073043105  0.072997413            3 
 1992000   0.92874055   -3.2549876    1750.9897  0.073250908  0.072986244            4 
 1993000   0.93621543   -3.2531282    1751.8352  0.073249508  0.072974977            3 
 1994000   0.92150381   -3.2565001    1747.7049  0.073040158  0.072963631            2 
 1995000   0.94409541    -3.282585    1745.2534  0.072901146  0.072952326            3 
 1996000   0.93463673   -3.2721853    1752.1225  0.073151406  0.072941186            2 
 1997000   0.93096557   -3.2766252    1758.7255  0.073390314  0.072929995            4 
 1998000   0.95520147   -3.2567594    1753.6384  0.073141406  0.072918864            4 
 1999000   0.91330618   -3.2769353    1743.4358  0.072679496  0.072907411            2 
 2000000   0.90685613   -3.2617643    1756.9429  0.073205953  0.072895946            3 
 2001000   0.92997505    -3.286633    1749.4035  0.072855385  0.072884633            2 
 2002000    0.9328458   -3.2818252    1751.2314  0.072895079  0.072872954            2 
 2003000   0.92338706   -3.2616798    1752.2706  0.072901921  0.072861302            3 
 2004000   0.93288202   -3.2599302     1754.496  0.072958086  0.072849596            5 
 2005000   0.92735141   -3.2598175    1749.5219  0.072714958  0.072838267            2 
 2006000   0.92450204   -3.2661007    1754.2483  0.072875054   0.07282668            3 
 2007000   0.92291873   -3.2739465    1754.2859  0.072840306  0.072815184            4 
 2008000   0.92819676   -3.2890016    1760.6862  0.073069647  0.072803882            3 
 2009000    0.9374611   -3.2705434    1756.6463    0.0728657  0.072792227            3 
 2010000   0.91150241   -3.2570063    1758.5958  0.072910274  0.072780488            2 
 2011000    0.9328718   -3.2863097    1758.3258  0.072862831   0.07276861            2 
 2012000   0.92063037   -3.2735281    1760.0123  0.072896469  0.072756523            2 
 2013000   0.92892927   -3.2677124    1754.4209  0.072628783  0.072744633            2 
 2014000   0.91965949   -3.2926609    1756.2032  0.072666469  0.072732751            2 
 2015000   0.92487903   -3.2510836    1753.8689  0.072533866  0.072720926            3 
 2016000   0.95100392   -3.2591067    1757.0078  0.072627639  0.072709119            3 
 2017000   0.92893704   -3.2636864    1756.0858  0.072553538  0.072697176            9 
 2018000   0.93787926   -3.2788235      1752.07  0.072351752  0.072685415            1 
 2019000   0.92841859   -3.2839914    1758.1832  0.072568235  0.072673269            6 
 2020000   0.92809033   -3.2850777    1753.6281  0.072344395  0.072661063            2 
 2021000   0.91836459   -3.2737772    1754.9012   0.07236109  0.072649132            3 
 2022000   0.93571252   -3.2810285    1759.2178  0.072503205  0.072637093            3 
 2023000   0.92767325    -3.261517    1764.7145  0.072693791  0.072624989            4 
 2024000   0.94241778   -3.2850725    1757.4535  0.072358923  0.072613088            2 
 2025000   0.91690633   -3.2732977    1774.1111  0.073008687  0.072601044            3 
 2026000   0.91931553   -3.2881697    1766.3588  0.072653785  0.072589294            7 
 2027000   0.92475016   -3.2837857     1761.317  0.072410663  0.072577215            2 
 2028000   0.93014673   -3.2716648    1763.6714  0.072471704  0.072565288            3 
 2029000   0.92512681   -3.2779654    1767.7274  0.072602572  0.072553442            4 
 2030000   0.91782266   -3.2441309    1767.1516   0.07254317  0.072541696            1 
 2031000   0.92619129   -3.2638662    1767.0866  0.072504784  0.072529713            2 
 2032000   0.93136982   -3.2811047      1768.68  0.072534448  0.072517943            4 
 2033000   0.90700663   -3.2916187    1765.9566  0.072387137   0.07250602            3 
 2034000   0.92469043   -3.2558191    1772.9929  0.072639825  0.072494158            3 
 2035000   0.91799671   -3.2856908    1771.0267  0.072523615   0.07248226            6 
 2036000   0.94693144   -3.2627906    1772.1367  0.072533426  0.072470264            2 
 2037000   0.93215997   -3.3079575    1771.5027  0.072471881  0.072458509            4 
 2038000   0.92218772   -3.2583569    1766.0684  0.072214116  0.072446545            2 
 2039000   0.93992868   -3.2839676    1773.1722  0.072469027   0.07243464            2 
 2040000   0.92530338   -3.2905916    1769.2771   0.07227439  0.072422782            2 
 2041000   0.92394441   -3.2945011    1765.5163  0.072085428  0.072410481            1 
 2042000   0.90789438   -3.2998899    1768.6361  0.072177446  0.072398129            3 
 2043000   0.91896839   -3.2516863    1776.8945  0.072478972  0.072386134            2 
 2044000   0.91691295   -3.2778212    1766.8642  0.072034581  0.072374124            4 
 2045000   0.94180493   -3.2658489    1775.7724  0.072362365  0.072361893            4 
 2046000   0.93970578   -3.2990358    1771.7612  0.072163622  0.072349991            5 
 2047000   0.92628435   -3.2758499    1777.0125  0.072342145   0.07233791            2 
 2048000      0.94513   -3.2677412    1775.0758  0.072228019  0.072325781            2 
 2049000   0.92123351   -3.2711028    1775.4942  0.072209783   0.07231367            1 
 2050000   0.94049389   -3.2694678    1772.1622  0.072039113  0.072301512            3 
 2051000   0.93851641   -3.2699437    1779.8359  0.072315777  0.072289529            4 
 2052000   0.94189258   -3.2911445    1769.4264  0.071857799  0.072277389            3 
 2053000   0.91303768   -3.2426595    1786.7289  0.072525121  0.072265589            3 
 2054000   0.92369403   -3.2754169    1780.5101   0.07223751  0.072253626            2 
 2055000   0.92482782   -3.2544344    1777.9211  0.072097368  0.072241609            2 
 2056000    0.9370852   -3.2686221    1776.6109  0.072009198  0.072229748            2 
 2057000    0.9345593   -3.2598464    1785.5817  0.072337614  0.072217688            2 
 2058000   0.90995794   -3.2752645    1781.8794   0.07215255  0.072205722            3 
 2059000   0.93155865   -3.2765288    1782.3471  0.072136436  0.072193606            2 
 2060000   0.92133952   -3.2796261    1779.7488  0.071996312  0.072181646            4 
 2061000   0.91774332   -3.2705232    1779.8044  0.071963625  0.072169571            3 
 2062000   0.93375476    -3.272231    1782.2821  0.072028859  0.072157596            4 
 2063000   0.91813693   -3.2910313    1780.8597   0.07193649  0.072145512            4 
 2064000   0.91636811   -3.2572143    1789.6367  0.072256005  0.072133727            4 
 2065000   0.91976111   -3.2777327    1779.7756  0.071823066   0.07212184            5 
 2066000   0.92878783   -3.2838588    1790.3078  0.072213123  0.072110065            3 
 2067000   0.94550242   -3.2872365    1787.0524  0.072046943  0.072098259            3 
 2068000   0.92101761   -3.2646501    1793.9334  0.072289387  0.072086349            2 
 2069000   0.91745957   -3.2933017    1785.9818  0.071934177  0.072074445            3 
 2070000   0.92086229   -3.2641291    1789.8317  0.072054416  0.072062379            2 
 2071000     0.930081   -3.2985533    1794.1022  0.072191462  0.072050441            5 
 2072000    0.9236405   -3.2813333     1784.655  0.071776665  0.072038197            3 
 2073000   0.92396712   -3.2731721     1789.556  0.071939058  0.072026347            3 
 2074000   0.92255505   -3.2967901    1789.5597  0.071904519   0.07201415            4 
 2075000    0.9131724   -3.2857303    1790.2517  0.071897657  0.072002118            3 
 2076000   0.93908811   -3.2974221    1791.1384  0.071898619  0.071990174            3 
 2077000   0.95445171   -3.2950033    1788.2432  0.071747841    0.0719781            3 
 2078000   0.93809898   -3.2813774      1794.03  0.071945382  0.071965827            3 
 2079000   0.91283409   -3.3028247    1791.9266  0.071826464  0.071953778            3 
 2080000   0.91001008   -3.3101802     1795.055  0.071917267  0.071941489            4 
 2081000   0.91619555   -3.3050686    1790.7824  0.071711612  0.071929355            2 
 2082000   0.90573959   -3.3044293    1790.5288  0.071667018  0.071917188            5 
 2083000   0.91288123   -3.2700137    1795.8276  0.071844598  0.071904908            2 
 2084000    0.9142477   -3.2880896    1789.6108  0.071561534  0.071892672            3 
 2085000   0.90376099   -3.2869004     1789.096  0.071506635  0.071880448            4 
 2086000   0.91401575   -3.2705465    1794.7951  0.071700029  0.071868082            2 
 2087000    0.9222354   -3.2947331    1796.9085  0.071750059  0.071855492            1 
 2088000   0.90050733   -3.2840189    1796.2168  0.071688092  0.071843196            2 
 2089000   0.92023365   -3.2820201    1792.7863  0.071516925  0.071830569            3 
 2090000   0.90280727   -3.2991287    1796.4908  0.071630414  0.071818029            2 
 2091000   0.91937798   -3.3077109    1795.0645  0.071539314  0.071805657            3 
 2092000    0.9067589   -3.2689196    1794.6561   0.07148885  0.071792891            4 
 2093000   0.90783569   -3.3003099    1790.8113  0.071301614  0.071780071            4 
 2094000   0.91856831   -3.3178545    1792.3579  0.071329111    0.0717676            2 
 2095000   0.91899289   -3.3096333    1795.4047  0.071416259  0.071754749            5 
 2096000   0.93162649   -3.2793114    1796.4335  0.071423089  0.071741998            4 
 2097000   0.91409616   -3.2703924    1792.3008  0.071224797  0.071729335            3 
 2098000    0.9148227   -3.2888581    1793.1847  0.071225955  0.071716791            3 
 2099000   0.89436035   -3.2793679     1796.287  0.071315188  0.071704278            2 
 2100000   0.91223597   -3.3071515    1804.7618  0.071617531  0.071691807            3 
 2101000   0.91373381   -3.3019004     1799.164  0.071361415  0.071679476            2 
 2102000   0.91809169   -3.2895165     1801.893  0.071435656  0.071666856            3 
 2103000   0.92258547   -3.2898324    1805.5908  0.071548216  0.071654126            2 
 2104000   0.90756361   -3.3155837    1794.6234  0.071079823  0.071641535            6 
 2105000   0.89585941   -3.2872709    1803.5182  0.071398185  0.071629274            6 
 2106000   0.90369214   -3.3001386    1804.1454  0.071389103  0.071616648            4 
 2107000    0.9230915   -3.2949763    1802.7012  0.071298101  0.071603996            2 
 2108000   0.91078131   -3.2736771    1809.6899  0.071540558  0.071591541            4 
 2109000   0.93821713    -3.278601     1808.693  0.071467244  0.071579113            2 
 2110000   0.89127289   -3.3170077    1802.9802   0.07120775  0.071566646            3 
 2111000   0.90310934   -3.2973028     1808.892  0.071407391  0.071553972            3 
 2112000   0.93057425   -3.3036385    1803.1571  0.071147298  0.071541293            3 
 2113000   0.89225458   -3.3033601    1804.2501  0.071156731   0.07152857            3 
 2114000   0.91438221   -3.2827185    1800.2209  0.070964243  0.071516069            3 
 2115000   0.92390042   -3.2695662    1809.8834  0.071311402  0.071503496            2 
 2116000   0.90337355   -3.2966586    1802.7588  0.070997118  0.071491277            3 
 2117000   0.91199545   -3.2941038    1810.2056  0.071256714  0.071478795            3 
 2118000   0.89683541   -3.2828991    1817.6626   0.07151647  0.071466478            3 
 2119000   0.92491124   -3.3021121    1805.9809  0.071023316  0.071453837            7 
 2120000   0.89690258    -3.298511    1811.8671   0.07122119  0.071441708            2 
 2121000   0.92312698   -3.2897181    1827.4695  0.071800625  0.071429642            4 
 2122000   0.92312115   -3.2995455    1808.8123  0.071034098  0.071417466            3 
 2123000   0.91127518   -3.3119507    1808.5188   0.07098912  0.071404858            5 
 2124000   0.90754428   -3.2915189    1816.9673  0.071287168  0.071392634            3 
 2125000   0.89132179   -3.2866152    1822.0817  0.071454185  0.071380358            4 
 2126000   0.90018494   -3.3030856    1813.7131  0.071092548   0.07136821            2 
 2127000   0.93404921   -3.3121783    1819.9108  0.071301942   0.07135594            2 
 2128000   0.91255819   -3.3029385    1813.9547  0.071035194   0.07134363            3 
 2129000   0.91233514   -3.2960828    1827.1631  0.071518829   0.07133129            3 
 2130000    0.8997708   -3.2729047    1828.3074  0.071530024  0.071319248            3 
 2131000   0.89127297   -3.3074356    1821.8243  0.071242934  0.071307202            2 
 2132000   0.93305026   -3.3185278    1814.2686  0.070914188  0.071295006            5 
 2133000   0.88810268    -3.292805    1817.6579  0.071013359  0.071282742            1 
 2134000   0.92516785   -3.2903555    1821.5001  0.071130118  0.071270628            3 
 2135000   0.90146851   -3.3256473    1819.8568  0.071032662  0.071258669            2 
 2136000   0.90891709   -3.2915069     1823.264  0.071132334  0.071246521            4 
 2137000   0.90174946    -3.289399    1815.2736  0.070787459  0.071234447            6 
 2138000   0.89676828   -3.2936462    1818.9663  0.070898282  0.071222306            3 
 2139000   0.90592156   -3.3302709     1826.113  0.071143565  0.071210012            5 
 2140000   0.92198215   -3.3240424    1825.9711  0.071104792   0.07119783            3 
 2141000   0.89726876   -3.2977089    1830.1311  0.071233499  0.071185468            4 
 2142000   0.90127209   -3.3022071    1823.8088  0.070954281  0.071173302            2 
 2143000   0.89740226   -3.3084992    1826.0599  0.071008706  0.071161069            3 
 2144000   0.90995788   -3.3022756    1823.3351  0.070869678  0.071148779            6 
 2145000   0.93597508   -3.3084864    1829.0159  0.071057339  0.071136477            5 
 2146000   0.89944554   -3.2942501    1824.2793  0.070840295  0.071124133            2 
 2147000   0.89018757   -3.3001258    1822.4769  0.070737342  0.071111894            2 
 2148000   0.91179797   -3.3205877    1827.0831  0.070883111   0.07109948            2 
 2149000   0.86599789   -3.2950486    1823.5367  0.070712607   0.07108706            4 
 2150000   0.91470285   -3.3098792    1835.3256  0.071136652  0.071074531            2 
 2151000   0.88546423   -3.2951128     1819.101  0.070475013  0.071062079            2 
 2152000    0.9046877   -3.3035992    1831.6809  0.070929402   0.07104935            3 
 2153000   0.91406436   -3.3120503    1828.7847   0.07078436  0.071036795            2 
 2154000   0.91218703   -3.2928953    1827.1385  0.070687809  0.071024161            3 
 2155000   0.92176478   -3.3165157     1832.719  0.070870806  0.071011725            5 
 2156000   0.91535961   -3.3294768    1821.3796  0.070399643  0.070999135            2 
 2157000   0.88723241   -3.3255508    1829.8228  0.070693199  0.070986379            3 
 2158000   0.91338403    -3.317895    1823.7917  0.070427545  0.070973634            3 
 2159000   0.91599208   -3.3072138    1828.9229  0.070592979  0.070960772            5 
 2160000   0.89897713   -3.2782039    1829.5007  0.070582587  0.070948123            4 
 2161000   0.89451981   -3.3077283      1831.89  0.070642064  0.070935454            4 
 2162000   0.90281479   -3.3025274    1833.8779  0.070686013  0.070922819            2 
 2163000   0.91998487   -3.2966641    1831.3993  0.070557842  0.070910282            5 
 2164000   0.90769668   -3.2906021    1841.5843  0.070917447  0.070897749            3 
 2165000   0.91081119   -3.3017257    1837.0689   0.07071089  0.070885101            2 
 2166000   0.92209809    -3.292333    1831.9103  0.070479776  0.070872564            5 
 2167000   0.89702113    -3.294523    1834.0616  0.070529979  0.070859781            8 
 2168000   0.91106649   -3.3105886    1821.4433  0.070012427  0.070846999            3 
 2169000   0.88800174   -3.3025028    1833.5296  0.070444505  0.070834025            2 
 2170000   0.92791593   -3.3102149    1829.7418   0.07026658  0.070821086            6 
 2171000   0.88334311   -3.3166724    1832.3841  0.070335641   0.07080836            3 
 2172000   0.90186004   -3.2974942    1831.6887  0.070276578  0.070795712            5 
 2173000   0.89610868   -3.3237611    1842.7124  0.070666987  0.070782934            7 
 2174000    0.9078994   -3.3165991    1836.2626  0.070387249   0.07077045            6 
 2175000   0.89958988   -3.3280568    1842.1487   0.07058041  0.070757852            6 
 2176000   0.90847303    -3.303419    1835.1867  0.070281353  0.070744856            4 
 2177000   0.90134399    -3.291909    1835.7216  0.070269545  0.070732294            2 
 2178000   0.87717108    -3.299607    1843.3921  0.070530766  0.070719756            2 
 2179000   0.91583383   -3.3092346    1842.2673  0.070455381  0.070707088            7 
 2180000   0.90015514   -3.3197643    1841.1075  0.070378728  0.070694606            6 
 2181000   0.90745003   -3.3017365    1849.7261  0.070675765  0.070682136            3 
 2182000    0.9010306   -3.3063467    1849.2588  0.070625528  0.070669834            3 
 2183000    0.9228911   -3.2948409    1845.4666  0.070448414  0.070657441            3 
 2184000   0.90081879   -3.3077615    1842.5887  0.070306344  0.070644758            3 
 2185000   0.91558159   -3.3131228     1843.336  0.070302668  0.070632213            3 
 2186000   0.88611864   -3.2998355    1848.3554  0.070461855   0.07062019            2 
 2187000    0.9071788   -3.3159528    1852.6411  0.070592938  0.070607891            3 
 2188000   0.88168391   -3.3378156    1846.0611  0.070310065  0.070595632            2 
 2189000   0.88676699   -3.3398328    1848.6502  0.070376512  0.070583083            4 
 2190000   0.91954835   -3.2968535    1862.1047  0.070856345  0.070570908            7 
 2191000   0.90394582   -3.3048003    1843.5736  0.070119186  0.070558923            4 
 2192000   0.90789342   -3.3292515    1848.8726  0.070288648  0.070546655            2 
 2193000   0.90832825   -3.3087965    1855.6223  0.070513083  0.070534413            4 
 2194000   0.90561575   -3.3039891    1849.0227  0.070230276  0.070521997            4 
 2195000   0.88301617   -3.3092073    1851.6961  0.070299776  0.070509738            4 
 2196000   0.92346411   -3.2913079    1855.0063  0.070393379  0.070497568            2 
 2197000   0.90825163   -3.3223387    1854.2978  0.070334464  0.070485584            5 
 2198000    0.8931844    -3.313769    1861.4154  0.070572316  0.070473424            2 
 2199000   0.91741437   -3.3437332    1856.2311  0.070343758  0.070461587            6 
 2200000   0.90825192   -3.3134424    1856.7679  0.070332116  0.070449481            2 
 2201000   0.88747408   -3.2889897    1855.5443  0.070253836  0.070437528            3 
 2202000   0.90056903   -3.2876922    1859.1162  0.070357106  0.070425651            1 
 2203000   0.88872627   -3.3141729    1863.6642  0.070497209  0.070413609            4 
 2204000   0.90061137   -3.3213729    1865.0451  0.070517436  0.070401599            3 
 2205000   0.90161175   -3.3394527    1857.6491  0.070205938  0.070389514            4 
 2206000   0.89533248   -3.3237316    1862.0791  0.070341457  0.070377315            2 
 2207000   0.88560741    -3.311954    1860.8284  0.070262362  0.070365296            5 
 2208000   0.89620209   -3.3058071    1864.6906  0.070376307  0.070353342            5 
 2209000   0.92072201   -3.3345942    1862.2572  0.070252649  0.070341459            4 
 2210000   0.89490442   -3.3094876    1866.3454  0.070375016  0.070329194            2 
 2211000   0.88204181     -3.32062     1863.519  0.070236657  0.070317074            2 
 2212000   0.90542375   -3.2975335    1871.5714  0.070508264   0.07030527            3 
 2213000   0.89375513   -3.3301005    1864.5588  0.070212337    0.0702933            3 
 2214000    0.8980529   -3.3364193    1866.2424  0.070243993  0.070281465            1 
 2215000   0.87737977   -3.3244384    1860.2365  0.069986323  0.070269422            3 
 2216000   0.89249524   -3.3617274    1862.7007   0.07004741  0.070257298            4 
 2217000   0.88706423   -3.3300192    1866.0702  0.070142469  0.070245113            4 
 2218000   0.92064493   -3.3080462    1868.2632  0.070193236  0.070233032            3 
 2219000   0.89877317   -3.3289819    1869.5485  0.070209874  0.070221066            2 
 2220000   0.89871917    -3.307732    1862.7226  0.069922018  0.070208918            4 
 2221000   0.89728916   -3.3192368    1868.2961  0.070099657  0.070196981            2 
 2222000   0.89534023   -3.3057423     1870.551  0.070152676  0.070184927            1 
 2223000   0.89048831   -3.3113591    1869.0767  0.070065854   0.07017265            5 
 2224000   0.89144067   -3.3161272    1868.1187  0.069998454  0.070160433            8 
 2225000   0.91042211   -3.3220622    1868.2041   0.06997019  0.070148243            4 
 2226000   0.89493525   -3.3281288     1867.405  0.069908841  0.070135834            4 
 2227000   0.90961031    -3.342311    1867.7838  0.069891624  0.070123843            3 
 2228000   0.88186457   -3.3228328    1868.0201  0.069869095  0.070111775            3 
 2229000   0.89465171   -3.2785481    1876.6931  0.070161999  0.070099818            2 
 2230000   0.88438169   -3.3231288    1873.6565  0.070017057  0.070087726            3 
 2231000   0.87914252   -3.3220772    1864.7366  0.069652494   0.07007542            8 
 2232000   0.88873399   -3.3110715    1881.1766  0.070235089  0.070063009            2 
 2233000   0.91960934   -3.3327644     1874.965  0.069971823  0.070050528            2 
 2234000   0.90418447   -3.3140396    1871.4838  0.069810646  0.070038272            3 
 2235000   0.89218782   -3.3055217    1871.7184  0.069788156  0.070026004            7 
 2236000   0.89071577   -3.3508039    1870.3256  0.069705038  0.070013668            2 
 2237000   0.89207235   -3.2849021    1872.0435  0.069737876  0.070001371            2 
 2238000   0.88317407   -3.3341591    1872.5035  0.069723843   0.06998915            3 
 2239000   0.89732925   -3.3191143    1876.5971  0.069845062  0.069976887            3 
 2240000   0.88406246   -3.3193513    1872.7141  0.069669424  0.069964533            1 
 2241000   0.90063858   -3.3418684    1873.3229  0.069660974  0.069952208            3 
 2242000   0.89420828   -3.3267384     1868.257  0.069441607  0.069939792            1 
 2243000   0.89608002   -3.3100393     1881.142   0.06988936  0.069927606            5 
 2244000   0.87257339   -3.3106382    1875.5774  0.069651567  0.069914922            3 
 2245000   0.90102218   -3.3386777    1872.4391  0.069504051  0.069902224            2 
 2246000   0.89771834   -3.3232622    1875.0702  0.069570727  0.069889589            4 
 2247000   0.88236127    -3.344425     1873.747  0.069490692  0.069876937            2 
 2248000   0.90952867   -3.3180235    1877.2973  0.069591388  0.069864404            4 
 2249000   0.90252172   -3.3122258    1877.7705  0.069577979  0.069851878            3 
 2250000   0.89971649   -3.3296983     1879.532  0.069612295  0.069839308            3 
 2251000   0.88415251   -3.3030045    1873.8226  0.069370004  0.069826753            4 
 2252000   0.89381368   -3.3356851    1875.1955  0.069390005  0.069814099            3 
 2253000   0.89558084   -3.3025061     1880.645   0.06956077  0.069801447            5 
 2254000   0.90000081    -3.312188    1878.7096  0.069458355  0.069788749            4 
 2255000   0.90378949   -3.3143574    1878.6027  0.069423603  0.069776209            2 
 2256000   0.91252015   -3.3323307    1877.5813    0.0693551  0.069763656            3 
 2257000   0.89744969   -3.3121093     1884.824  0.069591789  0.069750957            2 
 2258000   0.89993475   -3.3378262    1879.7222  0.069372682  0.069738406            3 
 2259000   0.90314917   -3.3134442    1885.7665  0.069564945  0.069725816            4 
 2260000   0.89255471   -3.3023478    1882.8813  0.069427775  0.069713092            3 
 2261000   0.88670551   -3.3504196    1888.6645   0.06961022  0.069700761            2 
 2262000    0.8960361   -3.3160877    1883.4621  0.069387786   0.06968864            5 
 2263000   0.85188601   -3.3410821    1888.6758  0.069549118  0.069676101            4 
 2264000   0.90140929   -3.3322326    1887.7705  0.069485074  0.069663242            5 
 2265000   0.87938582   -3.3687242    1878.7586  0.069122833  0.069650697            3 
 2266000   0.89304859   -3.3216021     1888.754  0.069459913  0.069637966            5 
 2267000   0.89486586   -3.3067777    1889.1228  0.069442833  0.069625554            6 
 2268000   0.88471536   -3.3203993    1885.6595   0.06928496  0.069612711            2 
 2269000   0.88521922    -3.337042    1885.9822  0.069266279  0.069599947            2 
 2270000   0.90174231   -3.3271193     1891.531  0.069439463  0.069587203            4 
 2271000   0.89790911   -3.3231526    1887.9793  0.069278559  0.069574354            5 
 2272000   0.89934873   -3.3352442    1892.3198  0.069407269  0.069561578            4 
 2273000    0.8873859   -3.3602447     1886.161  0.069150938  0.069548556            2 
 2274000   0.88137047    -3.326453    1879.1955  0.068865271  0.069535774            3 
 2275000   0.89917968      -3.3521     1890.808  0.069260365  0.069522999            3 
 2276000   0.87382489   -3.3271672    1883.2021  0.068951454  0.069510081            2 
 2277000    0.8925363   -3.2949261     1893.745  0.069307018  0.069497368            3 
 2278000   0.89441587   -3.2979629    1889.8924  0.069135661  0.069484743            1 
 2279000   0.88520674   -3.3424595    1887.4549  0.069016195   0.06947201            2 
 2280000   0.90416044   -3.3333195     1894.285  0.069235564  0.069459158            3 
 2281000   0.90084468   -3.3329182    1897.3647  0.069317724  0.069446405            3 
 2282000   0.87898638   -3.3374446    1894.9672  0.069199797  0.069433661            2 
 2283000   0.89885788   -3.3376678    1892.6383  0.069084475  0.069420658            5 
 2284000   0.88326724   -3.3546681    1890.9518  0.068992697  0.069407683            3 
 2285000   0.88793562   -3.3291487    1897.1751  0.069189462  0.069394872            3 
 2286000   0.85690085   -3.3385211    1892.2764  0.068980622  0.069382074            3 
 2287000   0.87587923   -3.3131648    1897.2919  0.069133213  0.069369156            5 
 2288000   0.86119726   -3.3321466    1894.8038  0.069012376  0.069356265            3 
 2289000   0.89213645   -3.3183846    1898.3871  0.069112681   0.06934357            4 
 2290000   0.89341858   -3.3073238    1894.5846  0.068944127  0.069330801            4 
 2291000   0.88687524   -3.3556377    1897.1806  0.069008462  0.069318123            3 
 2292000   0.87064168   -3.2995479    1898.6835  0.069032996  0.069305317            2 
 2293000    0.8943291   -3.3071677    1893.7067  0.068822019  0.069292594            2 
 2294000    0.8844684   -3.3212333    1897.1942  0.068918707  0.069279991            5 
 2295000   0.89391636   -3.3567361    1898.1283  0.068922595  0.069267226            7 
 2296000   0.87542544   -3.3391293    1901.5515  0.069016822  0.069254448            7 
 2297000   0.88314189   -3.3560178     1901.649  0.068990312  0.069241588            2 
 2298000   0.87070098   -3.3295293    1902.5396  0.068992587  0.069228877            4 
 2299000   0.88157374   -3.3421521    1899.5505   0.06885423  0.069216314            2 
 2300000    0.8825391   -3.3377817     1899.818  0.068833984  0.069203589            6 
 2301000   0.87075473    -3.362366    1899.3702  0.068787854  0.069190937            5 
 2302000   0.87444896   -3.3185757    1913.6286  0.069274132  0.069178182            3 
 2303000   0.88812956   -3.3403177    1901.3884  0.068801142  0.069165642            5 
 2304000   0.88226591     -3.33874    1903.4338   0.06884526  0.069152852            5 
 2305000   0.87405492   -3.3638743    1898.5751  0.068639738  0.069139934            5 
 2306000   0.88455134   -3.3162467    1900.1314  0.068666211  0.069127341            4 
 2307000   0.87772894   -3.3460159    1910.2684  0.069002617  0.069114827            2 
 2308000    0.8738274   -3.3259532     1909.928  0.068960427  0.069102169            4 
 2309000    0.8895624   -3.3496748    1909.7556  0.068924339   0.06908943            2 
 2310000   0.88524066   -3.3311338    1905.6561  0.068746613  0.069076636            3 
 2311000   0.88236027   -3.3361927     1908.968  0.068836289  0.069063773            3 
 2312000    0.8781071    -3.339413    1904.6907  0.068652348   0.06905094            5 
 2313000   0.87569697   -3.3574134    1908.6368  0.068764838  0.069038215            4 
 2314000   0.87452686    -3.335536    1911.8385  0.068850422  0.069025494            6 
 2315000     0.865784   -3.3507863    1903.4231   0.06851775  0.069012757            4 
 2316000   0.88590925   -3.3406621    1906.1819  0.068587432  0.068999917            4 
 2317000   0.89871899   -3.3224604    1912.2431  0.068775828   0.06898725            3 
 2318000   0.88099244   -3.3303785    1911.9671  0.068736233  0.068974484            3 
 2319000   0.89057749   -3.3494788    1901.6086  0.068334362  0.068961702            3 
 2320000   0.88512131   -3.3536727     1909.372  0.068583763  0.068948794            4 
 2321000   0.88594121   -3.3291279    1913.2359  0.068692945  0.068935773            4 
 2322000   0.87401579   -3.3536203    1911.6865  0.068607754  0.068922758            4 
 2323000   0.86258097   -3.3347175    1908.3892  0.068459936  0.068909659            2 
 2324000    0.8672011   -3.3568027    1913.2098  0.068603334  0.068896846            2 
 2325000   0.88044615   -3.3705229    1909.8654  0.068453956  0.068883969            2 
 2326000   0.87503873   -3.3256599    1924.9891  0.068966364  0.068871276            1 
 2327000   0.86712012   -3.3487895    1910.7679  0.068427442  0.068858188            2 
 2328000   0.88592321   -3.3338409    1908.4443  0.068314873  0.068845244            3 
 2329000   0.87922529   -3.3677999    1908.9436  0.068303405  0.068832146            2 
 2330000   0.86630471   -3.3745136    1910.8197  0.068341191  0.068819094            3 
 2331000   0.87252388   -3.3577816    1907.0073  0.068175579  0.068805889            2 
 2332000   0.87949413   -3.3705814      1912.38  0.068338335  0.068793057            2 
 2333000   0.89448711   -3.3534974    1920.3084  0.068592242  0.068780154            3 
 2334000   0.88207737   -3.3594051    1914.9048  0.068369924  0.068767154            3 
 2335000   0.86824886   -3.3394709    1911.5624  0.068221357  0.068754049            5 
 2336000     0.892331   -3.3623329    1917.1518  0.068391544  0.068741171            2 
 2337000   0.89022876   -3.3524621    1912.8471  0.068208783  0.068728133            4 
 2338000   0.86244243    -3.350523    1915.5942  0.068277522  0.068715009            2 
 2339000   0.85028205    -3.358608    1914.5299  0.068210414  0.068701709            5 
 2340000   0.86909132   -3.3270756    1910.6189  0.068041984   0.06868864            5 
 2341000   0.88979073   -3.3465453    1916.0162  0.068205049  0.068675618            3 
 2342000   0.87290877   -3.3381354    1920.7853  0.068345621   0.06866254            3 
 2343000   0.86826053   -3.3336616    1917.1002  0.068185382  0.068649406            4 
 2344000   0.87737493   -3.3296648    1923.1998  0.068373144  0.068636045            3 
 2345000    0.8649321   -3.3546441    1918.5053  0.068177159  0.068622947            3 
 2346000   0.87929817   -3.3468131    1915.4383  0.068039157  0.068609597            3 
 2347000   0.87928889   -3.3806613    1920.2433  0.068180774  0.068596236            3 
 2348000   0.87136859   -3.3782627    1915.3159  0.067976856   0.06858306            4 
 2349000   0.89375764   -3.3606285    1927.1849  0.068368985  0.068569844            5 
 2350000   0.87335403   -3.3210255     1917.274  0.067988439  0.068556461            3 
 2351000   0.87506111   -3.3698742    1913.7306  0.067833922  0.068543228            3 
 2352000   0.87759144   -3.3536744    1914.6754  0.067838556  0.068530072            3 
 2353000   0.88977594   -3.3702956     1919.505  0.067980768  0.068516988            4 
 2354000   0.86051765   -3.3328673    1922.7412  0.068066455  0.068504041            3 
 2355000   0.87009685   -3.3365522    1920.0931  0.067943847  0.068491154            4 
 2356000   0.86939411   -3.3352271    1918.0662  0.067843315  0.068478025            2 
 2357000   0.88477877   -3.3351006     1926.639   0.06811763  0.068464842            3 
 2358000   0.87120254   -3.3301156    1927.7666  0.068128592   0.06845179            5 
 2359000   0.88074837   -3.3717961    1923.4637  0.067947706  0.068438776            4 
 2360000   0.85999517   -3.3730259    1920.6104  0.067818162  0.068425636            3 
 2361000   0.87751963   -3.3704514    1924.0576   0.06791111  0.068412718            3 
 2362000   0.86663284   -3.3768423    1928.9262  0.068054127  0.068399791            3 
 2363000   0.87235459   -3.3718888    1926.1008  0.067925687  0.068386872            6 
 2364000   0.87141433   -3.3481766    1929.1151  0.068003212  0.068374172            2 
 2365000   0.87250063   -3.3431208    1929.0095  0.067970735  0.068361301            2 
 2366000   0.84472686    -3.360142    1929.9813  0.067976237  0.068348478            5 
 2367000   0.87884691   -3.3622291    1936.1985  0.068166402  0.068335633            8 
 2368000     0.881122   -3.3800827     1925.743  0.067769673  0.068323004            3 
 2369000   0.87921038   -3.3768789    1931.9481  0.067959341  0.068310174            2 
 2370000   0.86597242   -3.3477741    1936.6734  0.068096816  0.068297403            5 
 2371000   0.88533906   -3.3388046    1932.7925  0.067931691  0.068284688            3 
 2372000   0.86965543   -3.3487075    1934.7914  0.067973277  0.068271817            2 
 2373000   0.85690388   -3.3611609    1940.8683   0.06815804  0.068258702            4 
 2374000   0.85435761   -3.3371982    1934.0299  0.067889283   0.06824597            2 
 2375000   0.86414508   -3.3643002    1936.2585  0.067938894   0.06823315            2 
 2376000   0.87426688   -3.3311502    1945.2756  0.068226556  0.068220288            6 
 2377000   0.88842662   -3.3660224     1937.937  0.067940576  0.068207634            4 
 2378000   0.87687572   -3.3633526    1939.2577  0.067958289  0.068194849            6 
 2379000   0.86017157   -3.3715568    1927.9126  0.067532317  0.068182011            3 
 2380000   0.86953159   -3.3439543    1936.7963  0.067814998   0.06816908            4 
 2381000   0.86578221   -3.3712126    1930.4886   0.06756575  0.068156192            5 
 2382000   0.89409041   -3.3514397    1940.4321  0.067885255  0.068143293            2 
 2383000   0.84989647   -3.3589681    1928.5722  0.067442028   0.06813037            2 
 2384000   0.84537571   -3.3370673    1938.8312  0.067772344  0.068117543            7 
 2385000   0.87003798   -3.3551013    1934.3252  0.067586484   0.06810457            3 
 2386000   0.87942187   -3.3653643    1945.0156   0.06793153  0.068091776            2 
 2387000   0.86274336   -3.3605358    1937.6145   0.06764469   0.06807895            4 
 2388000   0.87497717   -3.3573975    1947.8527  0.067973641  0.068066304            5 
 2389000    0.8914862   -3.3736366    1943.8625  0.067806004  0.068053548            4 
 2390000   0.89631531   -3.3859513     1939.268  0.067617434  0.068040745            3 
 2391000   0.87137382   -3.3640574     1941.375   0.06766259  0.068028101            1 
 2392000   0.86186718   -3.3708464     1942.625  0.067677851   0.06801528            6 
 2393000   0.85585548   -3.3330162    1950.6802  0.067930079  0.068002683            3 
 2394000   0.87228332   -3.3797907    1943.0119   0.06763478  0.067989958            3 
 2395000   0.86634385   -3.3752345    1951.7335  0.067910002  0.067977084            4 
 2396000     0.870102   -3.3520367    1947.6937  0.067741157  0.067964414            2 
 2397000   0.88517467   -3.3390095    1955.7446  0.067992788  0.067951842            6 
 2398000   0.88240926   -3.3348017    1947.5431  0.067679424  0.067939332            2 
 2399000   0.86594986    -3.357542    1953.1799  0.067847016  0.067926598            4 
 2400000   0.86940332   -3.3632833    1947.6139  0.067625484  0.067914035            4 
 2401000   0.86534537   -3.3810811    1954.7334   0.06784442  0.067901317            2 
 2402000   0.87432729   -3.3682924    1950.2923  0.067662099  0.067888398            2 
 2403000   0.86331651   -3.3439334    1949.4513  0.067604776  0.067875812            2 
 2404000   0.86997286   -3.3811328    1947.1992  0.067498587  0.067863203            6 
 2405000    0.8551586    -3.366794    1948.0866  0.067501267    0.0678506            2 
 2406000   0.87145672   -3.3608626    1954.9268  0.067710129  0.067837916           10 
 2407000   0.85968944    -3.352949    1949.7384  0.067502367  0.067825355            3 
 2408000   0.86561765   -3.3777397    1952.8339  0.067581463  0.067812856            2 
 2409000   0.87330669   -3.3792984    1951.4276   0.06750476  0.067800365            3 
 2410000   0.83352352    -3.364486    1955.8545  0.067629825    0.0677879            4 
 2411000    0.8641572   -3.3773762    1956.4849  0.067623561  0.067775333            4 
 2412000   0.86826566   -3.3507573    1961.5698  0.067771207  0.067763037            4 
 2413000   0.86607045   -3.3590536    1954.9876  0.067515802  0.067750528            7 
 2414000   0.87526359   -3.3593577    1958.6945  0.067615799  0.067738143            3 
 2415000   0.88169715   -3.3511133    1950.5876  0.067308062  0.067725651            2 
 2416000   0.87504865   -3.3461967    1955.5551  0.067451541  0.067712949            2 
 2417000   0.87193232   -3.3586612    1962.5612  0.067665189  0.067700506            4 
 2418000   0.86338869   -3.3599895    1951.0259  0.067239659    0.0676882            2 
 2419000   0.85926932   -3.3715659    1961.2394  0.067563712  0.067675695            6 
 2420000   0.86567867   -3.3698033      1960.42  0.067507577  0.067663099            3 
 2421000   0.86943435   -3.3796128    1966.6601  0.067694482  0.067650599            3 
 2422000   0.87041222    -3.383519    1959.6913   0.06742676  0.067638123            5 
 2423000   0.85268596    -3.343608    1963.2761  0.067522222  0.067625479            3 
 2424000   0.85813366   -3.3641699    1959.8257  0.067375747  0.067612903            5 
 2425000   0.87632169   -3.3581765    1959.3957  0.067333185  0.067600476            2 
 2426000   0.85762594   -3.3929825    1954.9517  0.067152781  0.067588048            5 
 2427000   0.84785683    -3.333255    1965.4356  0.067485083  0.067575572            2 
 2428000   0.85807319   -3.3819442    1961.1061  0.067308694  0.067563054            4 
 2429000   0.86073311   -3.3882563    1968.4138  0.067531695  0.067550563            3 
 2430000   0.86300224   -3.3566804    1969.8567  0.067553384  0.067538002            4 
 2431000   0.85292769   -3.3814587    1961.7818  0.067248793  0.067525545            3 
 2432000   0.86462343    -3.347665    1968.4412  0.067449327  0.067513191            5 
 2433000   0.84733935   -3.3900896    1960.7808  0.067159228  0.067500779            3 
 2434000   0.86051456   -3.3403416     1968.524  0.067396741  0.067488354            5 
 2435000   0.85051815   -3.3683221    1966.0577  0.067284657  0.067475868            1 
 2436000   0.86874821   -3.3579057    1970.7163  0.067416404  0.067463529            4 
 2437000   0.85715719   -3.3785629    1966.3221  0.067238479  0.067451144            5 
 2438000   0.86951042   -3.3598314    1970.8208  0.067364671  0.067439085            2 
 2439000   0.84582536   -3.3736413    1967.4089  0.067220476  0.067426628            1 
 2440000   0.84620553   -3.3859529    1968.5721  0.067232653  0.067414162            5 
 2441000   0.85759106   -3.3877367    1971.8549  0.067317181  0.067401887            5 
 2442000   0.85997518   -3.3681247    1973.3029  0.067339027   0.06738969            4 
 2443000   0.85332676   -3.3714337     1977.562  0.067456747  0.067377609            2 
 2444000   0.86607788   -3.3443492    1973.3642  0.067286015  0.067365556            5 
 2445000   0.85552722   -3.3767698    1973.1066  0.067249713  0.067353279            4 
 2446000   0.86228491   -3.3545737    1983.1255  0.067563555  0.067340875            3 
 2447000   0.88191745   -3.3624031    1976.6887  0.067316738  0.067328647            5 
 2448000   0.84999133   -3.3742069    1972.9682  0.067162589  0.067316125            3 
 2449000    0.8568622    -3.344095    1980.1945  0.067381057  0.067303701            3 
 2450000   0.85701907   -3.3675596    1971.0932  0.067043986  0.067291196            3 
 2451000   0.85798871   -3.3844375    1973.7143  0.067105751  0.067278778            4 
 2452000   0.86378248   -3.3765304    1973.2781  0.067063556  0.067266143            1 
 2453000   0.83755325   -3.3547296    1972.3816   0.06700576  0.067253633            5 
 2454000   0.84727266   -3.3597592    1973.3381  0.067010939  0.067241162           10 
 2455000   0.87762218   -3.3679816    1977.9131  0.067138938  0.067228599            2 
 2456000   0.88283564   -3.3956289    1978.0943   0.06711775  0.067216158            5 
 2457000   0.86268732   -3.3718601    1983.6708  0.067279569   0.06720378            6 
 2458000   0.84784806   -3.3712188    1980.5091  0.067145007  0.067191394            5 
 2459000   0.87094905   -3.3871866    1973.1627  0.066868738  0.067178733            3 
 2460000    0.8664339   -3.3682018    1975.8084  0.066931179  0.067166267            4 
 2461000   0.84538386   -3.3494967    1977.2983  0.066954434  0.067153732            4 
 2462000   0.86988933   -3.3825652    1971.1842   0.06672029  0.067141179            3 
 2463000   0.86901369   -3.4050966    1972.4034  0.066734449  0.067128309            5 
 2464000   0.85233316   -3.3763051    1974.6392  0.066782983  0.067115783            3 
 2465000   0.84287905   -3.3631572    1978.7603  0.066895211  0.067103229            3 
 2466000   0.84211982   -3.3770813    1980.1979  0.066916662  0.067090743            2 
 2467000   0.85929771   -3.3769026    1983.1794  0.066990251  0.067078189            5 
 2468000   0.84819507   -3.3741997    1980.9405  0.066887509  0.067065601            4 
 2469000   0.85934858   -3.3824055    1975.0439  0.066661399  0.067053029            2 
 2470000   0.86332131   -3.3823794    1981.3526  0.066847253  0.067040252            3 
 2471000   0.83606685   -3.3808857    1976.4305  0.066654204  0.067027518            4 
 2472000   0.86552398   -3.3437119    1975.3528  0.066590912  0.067014517            4 
 2473000   0.85605372   -3.3752636    1983.5129  0.066838957  0.067001722            5 
 2474000   0.85808362   -3.3673231    1980.7444  0.066718689  0.066989208            3 
 2475000   0.85211826   -3.3738206    1983.5889  0.066787506  0.066976766            4 
 2476000   0.85408666   -3.3816229    1979.5179  0.066623515  0.066964173            9 
 2477000   0.85261365   -3.3509181    1979.2551  0.066587777   0.06695147            2 
 2478000   0.84310578    -3.364035    1990.9488  0.066954156  0.066938807            4 
 2479000   0.85868494   -3.4015171    1976.5814  0.066444177  0.066925984            5 
 2480000   0.84935515   -3.3773921    1983.1783  0.066639057  0.066913281            3 
 2481000   0.85409317   -3.4061144    1978.2765  0.066447552  0.066900632            3 
 2482000   0.85632185   -3.3828766    1985.2309  0.066654276  0.066887967            4 
 2483000   0.85314413   -3.3625053    1975.8459  0.066312455  0.066875322            4 
 2484000    0.8768176   -3.3604018     1987.836  0.066688003  0.066862704            4 
 2485000   0.85958846    -3.372887    1980.4027  0.066411894  0.066849987            2 
 2486000   0.87631001   -3.4082476    1982.9805   0.06647159   0.06683731            4 
 2487000    0.8501759   -3.3579298    1991.4171  0.066727552  0.066824608            4 
 2488000   0.85136449   -3.3999655    1979.2448  0.066293033  0.066811824            4 
 2489000   0.84597954   -3.3864496    1988.3767   0.06657214   0.06679933            5 
 2490000   0.86486238    -3.406434    1987.2091  0.066506329   0.06678679            6 
 2491000   0.86216319   -3.3879419    1984.5539  0.066390804  0.066774301            2 
 2492000   0.84143712   -3.3889126    1991.2839  0.066589215    0.0667617            4 
 2493000   0.84118126   -3.3838761    1990.4049  0.066533122  0.066749165            4 
 2494000   0.84516632   -3.3968464    1989.5492  0.066477855  0.066736696            4 
 2495000   0.85139676   -3.3671758    1991.6076  0.066519959  0.066724263            2 
 2496000   0.87219214   -3.3904176     1986.544  0.066324252   0.06671186            3 
 2497000   0.85543642   -3.3895245    1989.2686   0.06638862  0.066699182            3 
 2498000   0.85063322   -3.3679005    1991.0022  0.066419874  0.066686544            3 
 2499000   0.84743499   -3.3790341    1994.0731  0.066495702  0.066674071            4 
 2500000   0.83774693   -3.3870037    1995.7302  0.066524339  0.066661439            4 
 2501000    0.8555492   -3.3798529    1993.0834  0.066409549   0.06664886            3 
 2502000   0.84121632   -3.4035336    1983.7207  0.066071165  0.066636358            4 
 2503000   0.83091999   -3.3812736    1993.4541  0.066368827  0.066623836            5 
 2504000   0.83774604   -3.3769559    1999.1787  0.066532836  0.066611313           17 
 2505000    0.8547435   -3.3846469     1991.806  0.066261012  0.066598893            4 
 2506000   0.85706277   -3.3871999    2001.0367  0.066541524  0.066586271            7 
 2507000   0.85390199   -3.3727883    1992.2907  0.066224261  0.066573621            4 
 2508000   0.87028385   -3.3720038    1996.6628  0.066343129  0.066561105            2 
 2509000   0.85166397   -3.4092892    1996.0273  0.066295581   0.06654873            4 
 2510000   0.84315446   -3.3900177    2008.7372  0.066691142   0.06653611            2 
 2511000   0.85514162   -3.4181959    1993.5011  0.066158936  0.066523546            6 
 2512000   0.85937101   -3.3924986    1989.6049  0.066003347   0.06651084            7 
 2513000   0.83288757   -3.3807989    2002.5949  0.066407844  0.066498274            4 
 2514000   0.84861615   -3.3892896    2000.0305  0.066296422  0.066485735            2 
 2515000   0.86487601   -3.3712797    2001.0113  0.066302561  0.066473102            4 
 2516000   0.84254115   -3.3990821    1993.3808  0.066023478   0.06646042            4 
 2517000    0.8426567   -3.3743195    1999.8627  0.066211848  0.066447791            6 
 2518000   0.84485885   -3.4091406    1993.4352  0.065972836  0.066434999            3 
 2519000   0.85268471   -3.3640455    2004.5415  0.066314063  0.066422127            3 
 2520000   0.83997638   -3.3996338     1999.242  0.066112502  0.066409253            2 
 2521000   0.84275279    -3.376486    2006.9156  0.066339932  0.066396372            2 
 2522000     0.842588   -3.3819674    1998.6122  0.066039261  0.066383706            3 
 2523000   0.87612474   -3.3847559     1998.322  0.066003503  0.066370974            4 
 2524000   0.84644535   -3.3965353    2000.1007  0.066036076  0.066358236            4 
 2525000   0.83879012   -3.4012561    2003.8053  0.066132188  0.066345527            2 
 2526000   0.84048198   -3.3839028    1993.4592  0.065764687  0.066332651            3 
 2527000   0.84972397   -3.4116558    1999.6383  0.065942431   0.06631996            8 
 2528000   0.84717119   -3.3942727    2002.9208  0.066024553  0.066307285            3 
 2529000   0.83535559   -3.3616446    2004.2413  0.066041956  0.066294715            3 
 2530000    0.8532043   -3.3841801    2008.0462   0.06614118  0.066282092            5 
 2531000   0.83793762   -3.4016027    1995.9201  0.065715794  0.066269333            2 
 2532000   0.84381067   -3.3957887    2005.3679  0.066000788  0.066256651            3 
 2533000    0.8425269    -3.395957    1999.1557  0.065770354  0.066243934            7 
 2534000   0.84858004   -3.3994824    2005.2626  0.065945231  0.066231304            3 
 2535000   0.84429302   -3.3875431    2004.5642  0.065896259  0.066218474            3 
 2536000   0.83945957   -3.3959427     2009.037   0.06601725  0.066205629            3 
 2537000   0.83782961   -3.3922685    2006.2819  0.065900731  0.066192863            3 
 2538000   0.82629383   -3.3984973     2010.782  0.066022523  0.066179808            5 
 2539000   0.84857074   -3.3552517    2007.3167  0.065882786  0.066167027            5 
 2540000   0.85392969   -3.3987222    2003.8018  0.065741528  0.066154159            5 
 2541000   0.85143291   -3.4134953    2002.7354  0.065680685  0.066141263            6 
 2542000    0.8397784   -3.4283001    2001.8577  0.065626072  0.066128366            3 
 2543000   0.84585277   -3.3916203    2007.8438  0.065796427  0.066115634            6 
 2544000   0.84832156   -3.3988995    2010.4933  0.065857354  0.066103077            6 
 2545000   0.85105266    -3.410199    2013.6133  0.065933639  0.066090388            5 
 2546000   0.84866698   -3.4186502    2012.8743  0.065883553  0.066077483            2 
 2547000   0.84386082   -3.3776071     2022.632  0.066176939  0.066064801            2 
 2548000   0.85362796   -3.4050629    2007.1786  0.065645557  0.066052035            2 
 2549000   0.85142757   -3.4003847    2014.0489  0.065844413  0.066039147            4 
 2550000   0.82922373   -3.3810776    2016.8958  0.065911627  0.066026458            6 
 2551000   0.85696779   -3.3804448    2014.1585  0.065796371  0.066013722            5 
 2552000   0.83899631   -3.4061298    2013.3881   0.06574543  0.066000987            4 
 2553000   0.85158449   -3.4154775    2009.2021  0.065583043  0.065988176            4 
 2554000   0.86871338   -3.3916648    2007.3043   0.06549544  0.065975429            7 
 2555000    0.8230016    -3.415038    2006.1166   0.06543107  0.065962649            8 
 2556000   0.84642888   -3.4064274    2008.3588  0.065478573  0.065949903            4 
 2557000    0.8356492   -3.4191271    2012.1473  0.065576435  0.065936986            3 
 2558000   0.85281644   -3.4150512    2011.4209  0.065527133  0.065924047            2 
 2559000   0.83724167   -3.3996676    2012.6056  0.065540107  0.065911095            3 
 2560000   0.85310956   -3.4117293    2003.8143  0.065228329  0.065898144            4 
 2561000    0.8379048   -3.4143959    2017.5523  0.065649887   0.06588502            3 
 2562000   0.85198659     -3.39698     2018.324  0.065649364  0.065872073            5 
 2563000   0.83738533   -3.3801148    2019.6834  0.065667947  0.065859263            3 
 2564000   0.82834918   -3.4029244    2018.0498  0.065589243  0.065846448            3 
 2565000   0.82806177   -3.4008233    2021.2221  0.065666736  0.065833661            5 
 2566000   0.82618511   -3.3971719    2015.0266  0.065439938  0.065820687            3 
 2567000   0.83464632   -3.4142027    2013.1022  0.065351975    0.0658077            5 
 2568000   0.82111891    -3.424197    2014.9184  0.065385461  0.065794698            6 
 2569000   0.84114149   -3.4137569    2016.2634   0.06540364   0.06578181            6 
 2570000   0.81651032   -3.4202832    2013.1193  0.065276241  0.065768764            3 
 2571000   0.83500391   -3.3992099    2015.4971  0.065327922  0.065755857            5 
 2572000   0.84082671   -3.3953636    2019.2473  0.065424032  0.065742874            5 
 2573000   0.83699371   -3.4132816    2012.3677  0.065175792  0.065730028            5 
 2574000   0.83270146   -3.3829063    2024.6274  0.065547378  0.065717048            2 
 2575000   0.83395075   -3.3744071    2022.4693  0.065452081  0.065704026            2 
 2576000   0.84976312   -3.3815145    2020.2914  0.065356219  0.065691342            4 
 2577000   0.85659733   -3.4069034    2019.9053  0.065318371    0.0656786            6 
 2578000   0.83323622   -3.4175299    2024.8264  0.065452107  0.065665541            3 
 2579000   0.85070494   -3.4069467    2027.4403  0.065511188  0.065652463            3 
 2580000    0.8609333   -3.4036938     2023.463  0.065357333  0.065639481            3 
 2581000   0.81536096   -3.4187857    2022.5914  0.065303868  0.065626616            2 
 2582000   0.85065716    -3.412335    2023.1708  0.065297276  0.065613603            6 
 2583000   0.83132987   -3.3850494    2032.4255  0.065570573  0.065600683            5 
 2584000   0.84817931   -3.3998389    2027.1311  0.065374456  0.065588015            2 
 2585000   0.83993732   -3.4257039    2018.8692  0.065082823  0.065575136            1 
 2586000   0.84320215   -3.4065412    2020.3291  0.065104703  0.065562245            3 
 2587000   0.82677339    -3.399459    2019.9252  0.065066524  0.065549319            4 
 2588000   0.85030589   -3.4143623    2023.4388  0.065154519  0.065536343            3 
 2589000   0.83699605   -3.4344329    2025.1674  0.065184993  0.065523308            7 
 2590000   0.82766717   -3.3946056    2018.6715  0.064950821  0.065510418            7 
 2591000   0.83631646   -3.3888222    2025.3882  0.065141779  0.065497458            4 
 2592000   0.84624022   -3.3880254    2033.7206  0.065384536  0.065484378            4 
 2593000   0.82266534   -3.4163011    2020.6787   0.06494018  0.065471537            5 
 2594000   0.82342937   -3.4017666    2024.5029  0.065038001  0.065458548            2 
 2595000   0.84015728   -3.4173461    2032.4284  0.065267451  0.065445556            4 
 2596000   0.83632354   -3.3987307    2029.5979  0.065151448  0.065432797            7 
 2597000   0.83910327   -3.3912107    2025.0704   0.06498108  0.065419824            2 
 2598000   0.83665193   -3.4223872    2022.9622  0.064888447   0.06540673            3 
 2599000   0.83751021     -3.43382    2018.3278  0.064714885  0.065393819            3 
 2600000   0.83099486   -3.4009403    2024.6846  0.064893738  0.065380714            4 
 2601000   0.84200301    -3.401013    2031.1812  0.065076932  0.065367645            2 
 2602000   0.84501196    -3.428543    2023.7182  0.064812908  0.065354492            4 
 2603000   0.84347159   -3.4188512    2028.0128  0.064925496  0.065341277            2 
 2604000   0.82653454   -3.4121547    2029.7104   0.06495489   0.06532827            4 
 2605000   0.82482347   -3.4292914    2029.1351   0.06491155  0.065315106            8 
 2606000   0.82831416   -3.3964417    2032.2727  0.064986976  0.065302004            4 
 2607000   0.82341482   -3.4449565    2027.5159  0.064809997  0.065288763            7 
 2608000   0.82616907   -3.3982339    2027.5236   0.06478539  0.065275404            4 
 2609000   0.82981499   -3.4236553    2022.0146  0.064584598  0.065262173            5 
 2610000   0.82036566   -3.3780159    2025.5318  0.064672151  0.065248798            3 
 2611000   0.84126887   -3.4125493    2028.7805   0.06475107  0.065235406            5 
 2612000   0.83790456   -3.4153523     2028.347  0.064712449  0.065222064            2 
 2613000   0.85401746   -3.3875669    2028.6334  0.064696819  0.065208543            3 
 2614000    0.8342767   -3.4109164    2024.0249  0.064525149  0.065195206            3 
 2615000    0.8305503   -3.4197644     2028.513    0.0646435  0.065181802            2 
 2616000   0.82031118   -3.4042321    2031.0578  0.064699855  0.065168582            3 
 2617000   0.82603005   -3.3823483    2026.8575  0.064541379  0.065155362            2 
 2618000   0.83988497   -3.3946843    2031.7748  0.064673251  0.065141981            3 
 2619000   0.82128309   -3.4156718    2036.4021  0.064795792  0.065128673            3 
 2620000   0.83043433   -3.4229577    2026.7457  0.064463921   0.06511521            3 
 2621000   0.85191305   -3.4231226    2028.7096  0.064501768  0.065101957            3 
 2622000   0.83035786   -3.4211301     2030.567  0.064536199  0.065088668            4 
 2623000   0.81702946   -3.4220827    2028.1141  0.064433667  0.065075281            5 
 2624000   0.84092859   -3.4095509    2037.3148  0.064701309  0.065061847            3 
 2625000   0.82986825   -3.3950534    2037.8012  0.064692101  0.065048508            7 
 2626000   0.82903471   -3.4322196    2032.2633  0.064491725  0.065035166            5 
 2627000   0.80885738    -3.416497    2032.1855  0.064464709  0.065021858            5 
 2628000   0.84115629   -3.3799293    2036.5636  0.064579009  0.065008678            3 
 2629000   0.83462572   -3.3907847    2043.9988  0.064790123  0.064995345            4 
 2630000   0.82219606   -3.4385962    2033.3507  0.064428096  0.064982025            2 
 2631000   0.82118221   -3.4100462    2037.7944  0.064544355  0.064968743            4 
 2632000   0.80876605    -3.424467    2039.2361   0.06456548  0.064955455            4 
 2633000   0.80877483   -3.4337134    2036.9304  0.064467982  0.064942097            2 
 2634000   0.82172163   -3.4164346    2032.1653  0.064292751  0.064928694            2 
 2635000   0.82319161   -3.4160126    2031.0792  0.064234003   0.06491525            5 
 2636000   0.84256627   -3.4394869    2031.6037  0.064226216  0.064901909            4 
 2637000   0.82829276   -3.4215085     2037.919  0.064401436   0.06488861            4 
 2638000   0.84253013   -3.4275096    2042.1025  0.064509175  0.064875417            4 
 2639000   0.83183197   -3.4506921    2032.9746  0.064196496  0.064861903            4 
 2640000   0.81955032   -3.4394058    2033.6929  0.064194851  0.064848516            2 
 2641000   0.83682245   -3.4253086    2034.7292  0.064203244  0.064835337            3 
 2642000   0.82247392   -3.4381944    2035.7549  0.064211296   0.06482202            3 
 2643000   0.82607329   -3.4370901    2038.6714  0.064278957  0.064808674            4 
 2644000   0.83949636   -3.4169941    2035.6549  0.064159571  0.064795412            1 
 2645000   0.81010987   -3.4247257    2036.5594  0.064163812  0.064782069            3 
 2646000   0.82145417   -3.4130722    2036.8668  0.064149244  0.064768669            6 
 2647000   0.82556069   -3.4235592    2042.8095    0.0643121   0.06475514            6 
 2648000   0.83016862   -3.4118796    2041.1554  0.064235756  0.064741591            3 
 2649000   0.84363813   -3.4418843    2041.9943  0.064237898  0.064728128            4 
 2650000   0.82331145    -3.429463    2036.5253  0.064041677    0.0647147            2 
 2651000   0.82475769   -3.4501389    2034.4113  0.063951066  0.064701003            6 
 2652000   0.81988374    -3.419006    2039.9725  0.064101699  0.064687583            2 
 2653000     0.830689   -3.4291163     2040.113  0.064081952  0.064674145            9 
 2654000   0.79579392   -3.4148907     2043.595  0.064167138  0.064660699            5 
 2655000   0.83014467   -3.4512521    2036.2215  0.063911535  0.064647245            7 
 2656000    0.8168548   -3.4182021    2047.5574  0.064243142   0.06463383            5 
 2657000    0.8219358   -3.4407822     2051.439  0.064340703  0.064620433            7 
 2658000   0.83290375   -3.4223903    2046.7725  0.064170195  0.064607268            3 
 2659000   0.82482612   -3.4106539    2046.1833  0.064127594  0.064594036            3 
 2660000   0.81151649   -3.4431818      2042.37  0.063984023  0.064580992            3 
 2661000    0.8242472    -3.408049    2052.4662  0.064276156  0.064567656            3 
 2662000   0.82101085   -3.4130237    2036.2757  0.063745169  0.064554439            3 
 2663000   0.83049673   -3.4347414    2046.1288  0.064029565  0.064541231            3 
 2664000   0.82270896   -3.4166517    2050.4478  0.064140634  0.064528115            4 
 2665000   0.83249796    -3.433507    2057.8722  0.064348725  0.064515005            5 
 2666000    0.8256931    -3.431691    2046.1409  0.063957892  0.064501831            7 
 2667000   0.82755942   -3.4474437    2047.7345  0.063983706  0.064488697            3 
 2668000   0.82623286   -3.4558107    2041.4815  0.063764413  0.064475524            4 
 2669000   0.81284782   -3.4249361    2060.6657  0.064339505  0.064462446            4 
 2670000   0.84093685   -3.4317236    2051.0165  0.064014247  0.064449244            2 
 2671000   0.81520251   -3.4049398    2051.3401  0.064000377    0.0644362            6 
 2672000   0.84174872    -3.416025    2047.7341  0.063863962   0.06442303            4 
 2673000   0.82338762   -3.4206432    2056.1676  0.064102992  0.064410049            2 
 2674000   0.80964175   -3.4194892    2055.0558  0.064044371  0.064396915           12 
 2675000   0.81450836   -3.4211265    2056.6096  0.064068835  0.064383739            5 
 2676000   0.82529275    -3.439758    2050.0294  0.063839978  0.064370673            6 
 2677000   0.82080428   -3.4259701    2058.7915   0.06408889  0.064357472            3 
 2678000   0.84967051   -3.4396084    2058.4718  0.064055011  0.064344415            5 
 2679000     0.827051    -3.417036    2056.4586  0.063968476  0.064331282            4 
 2680000   0.80880592   -3.4518007    2054.0397  0.063869392  0.064318225            5 
 2681000   0.83066131   -3.4366335    2061.6299  0.064081497  0.064305072            3 
 2682000   0.81426906    -3.424823    2058.5764  0.063962728  0.064292004            7 
 2683000   0.81397003   -3.4118842    2064.8505  0.064133757  0.064278947            7 
 2684000   0.81748054    -3.420807    2058.8788  0.063924453  0.064265977            4 
 2685000   0.83844483   -3.4622132    2055.6315  0.063799861  0.064252814            5 
 2686000   0.82195938   -3.4170067    2057.9124  0.063846871  0.064239813            6 
 2687000   0.82583173   -3.4139302    2056.9316  0.063792694   0.06422678            3 
 2688000   0.82287797   -3.4422354    2060.3446   0.06387477  0.064213689            5 
 2689000    0.8151289   -3.4352144    2059.5622  0.063826768  0.064200539            3 
 2690000   0.82088098   -3.4250341    2056.2188  0.063699466  0.064187462            5 
 2691000    0.8308304   -3.4455981    2057.6047  0.063718713   0.06417435            9 
 2692000   0.81407268   -3.4304607    2062.6538  0.063851342  0.064161296            5 
 2693000   0.83214183   -3.4307786     2058.263  0.063691761  0.064148319            5 
 2694000   0.83099524   -3.4224384    2059.2553  0.063698816  0.064135294            6 
 2695000   0.82210619   -3.4338144    2058.5593  0.063653659  0.064122202            4 
 2696000   0.84337326   -3.4416499    2063.4606  0.063781548  0.064109089            3 
 2697000   0.81663127   -3.4008404    2066.0245  0.063837117  0.064095986            3 
 2698000   0.82794683   -3.4239951    2068.0031   0.06387457   0.06408313            5 
 2699000   0.82129194   -3.4242961    2059.7621  0.063596459   0.06407012            4 
 2700000   0.81714805   -3.4510053    2059.2581   0.06355735  0.064057123            2 
 2701000   0.83116315   -3.4180415    2067.7594  0.063796107  0.064044027            4 
 2702000   0.83315609   -3.4267097    2066.9596  0.063747829  0.064031087            3 
 2703000   0.82037489   -3.4536739    2060.9978  0.063540442  0.064018037            5 
 2704000   0.81589038   -3.4593306    2060.3101  0.063495751  0.064005087            3 
 2705000   0.82168608   -3.4207924    2063.6949  0.063576553  0.063992051            5 
 2706000   0.83080104   -3.4060387    2068.8576  0.063712048    0.0639791            3 
 2707000   0.81116165   -3.4193547    2071.4575  0.063768547  0.063966059            9 
 2708000   0.80494037   -3.4307991     2067.587  0.063625894  0.063952971            8 
 2709000   0.80358686   -3.3988233    2071.9961  0.063738037  0.063939835            4 
 2710000   0.81138428   -3.4365762    2067.9066  0.063588763  0.063926918           12 
 2711000     0.804584   -3.4255607    2069.1448  0.063603369   0.06391387            3 
 2712000   0.82846546   -3.4409567    2073.1367  0.063702578  0.063900897            4 
 2713000   0.82049179   -3.4166468    2079.0455  0.063860594  0.063887984            5 
 2714000   0.81214952   -3.4008104    2074.7642  0.063705608  0.063875229            4 
 2715000   0.82788332   -3.4293309    2073.2835  0.063636695  0.063862481            6 
 2716000   0.81014907   -3.4434581    2065.1823    0.0633647  0.063849642            5 
 2717000   0.81939933   -3.4456763    2070.0309  0.063490091  0.063836737            4 
 2718000   0.80926137   -3.4300118    2068.9761  0.063434393  0.063823617            4 
 2719000   0.82774965   -3.4561363    2069.2835  0.063420483  0.063810724            3 
 2720000   0.82251019   -3.4531796    2074.1943  0.063547618  0.063797678            4 
 2721000   0.80950279   -3.4321178    2073.8946  0.063515085  0.063784712            4 
 2722000   0.83376348   -3.4502497    2072.5657  0.063451067  0.063771864            3 
 2723000   0.82155199   -3.4430641     2076.527  0.063548997  0.063758866            2 
 2724000    0.8306154   -3.4277488    2075.3351  0.063489206  0.063745833            2 
 2725000   0.81471134   -3.4268344    2075.1067  0.063458921  0.063732913            5 
 2726000      0.82925   -3.4410394     2076.544  0.063479578  0.063720194            6 
 2727000   0.80923163   -3.4170014    2072.1706  0.063322657  0.063707455            7 
 2728000    0.8159452   -3.4213289    2088.7151  0.063804834   0.06369475            3 
 2729000   0.81024895   -3.4512335    2076.2302  0.063400214  0.063681977            2 
 2730000   0.81728871   -3.4420979     2073.938  0.063307021  0.063669121            3 
 2731000   0.82753868   -3.4564266    2075.0666  0.063318279  0.063656212            6 
 2732000   0.80341832    -3.439062    2077.7698  0.063377556  0.063643474            4 
 2733000   0.81481561    -3.438061     2079.323  0.063401726  0.063630587            3 
 2734000   0.82923011   -3.4286018    2080.4607  0.063413213  0.063617838            4 
 2735000   0.81038244   -3.4417718    2085.1047  0.063531526  0.063605221            4 
 2736000   0.81175444    -3.445846    2087.2367  0.063573241  0.063592444            3 
 2737000   0.80550792   -3.4430714    2080.8234   0.06335475  0.063579708            8 
 2738000   0.80658672   -3.4458748    2079.4157  0.063288767  0.063566939            5 
 2739000   0.82729195   -3.4562629    2084.4779  0.063419674  0.063554245            4 
 2740000   0.81564117   -3.4571791    2079.8911   0.06325703  0.063541223            4 
 2741000   0.81718617   -3.4471064     2091.616  0.063590416  0.063528449            7 
 2742000   0.80668703   -3.4703727    2086.2044   0.06340276  0.063515575            4 
 2743000   0.81768025   -3.4578106    2078.6427  0.063149917  0.063502717            4 
 2744000   0.81569767   -3.4474324     2083.356  0.063270042  0.063489729            5 
 2745000   0.81918861   -3.4386862    2085.6502  0.063316644  0.063476931            3 
 2746000   0.81863271   -3.4254342    2088.7626  0.063388038  0.063464165            2 
 2747000   0.79083739   -3.4481183    2084.9873  0.063250433  0.063451286            5 
 2748000   0.82350874   -3.4583684    2082.9904  0.063166861  0.063438379            4 
 2749000   0.81617025   -3.4413575    2078.2128  0.062999054  0.063425411            7 
 2750000   0.79830057   -3.4416399    2089.5029  0.063318268  0.063412688            4 
 2751000   0.80234371   -3.4473614    2091.1726  0.063345832   0.06339991            5 
 2752000   0.81740735   -3.4438938    2083.9458   0.06310398  0.063387112            3 
 2753000    0.8019742   -3.4592677    2088.1352  0.063207869  0.063374224            2 
 2754000   0.80421313    -3.447672    2084.7522  0.063082554  0.063361421            6 
 2755000    0.8121088   -3.4329573    2086.5163  0.063113016  0.063348805            2 
 2756000   0.81997789   -3.4405809    2092.5122  0.063271414  0.063336231            5 
 2757000   0.79740544   -3.4187693    2095.3789  0.063335113  0.063323696            4 
 2758000   0.80018856   -3.4612829    2078.4306  0.062800053  0.063310957            6 
 2759000   0.80557887   -3.4613912    2085.1255  0.062979505  0.063298055            3 
 2760000    0.8187309   -3.4384658    2095.4285  0.063267768  0.063285351            4 
 2761000   0.82252229   -3.4082764    2088.2261   0.06302747  0.063272651            1 
 2762000   0.80787965   -3.4525871    2086.3752  0.062948805  0.063259817            3 
 2763000   0.82225594   -3.4180792    2088.6794  0.062995517  0.063246895            4 
 2764000   0.79067189   -3.4603947    2091.3357  0.063052812  0.063233979            3 
 2765000   0.81144532    -3.448527    2087.2234  0.062906069  0.063221191            6 
 2766000   0.81180767   -3.4472174    2092.3096  0.063036564  0.063208494            4 
 2767000   0.80076078   -3.4641937    2095.3856  0.063106422   0.06319561            6 
 2768000   0.82348169    -3.453045    2084.4085  0.062753145  0.063182711            5 
 2769000   0.80479654   -3.4321186    2093.6146  0.063007541  0.063169762            4 
 2770000   0.82532296   -3.4692064    2087.7823  0.062809335  0.063156827            4 
 2771000   0.80866194   -3.4466257    2088.9693  0.062822364  0.063143839            6 
 2772000   0.81870439   -3.4433372    2092.7925  0.062914638  0.063130932            3 
 2773000   0.80351217   -3.4462792    2093.4838  0.062912722  0.063117995            2 
 2774000   0.81255522    -3.453123    2087.6347  0.062714333  0.063104985            4 
 2775000   0.81130535   -3.4327755    2090.2761  0.062771054  0.063092094           12 
 2776000   0.81139197   -3.4441693    2096.2178  0.062926807  0.063079241            2 
 2777000   0.81862526    -3.451333    2089.4533  0.062701156  0.063066356            5 
 2778000   0.82697791    -3.441009    2095.8598  0.062870763  0.063053661            3 
 2779000    0.8248909    -3.477451       2096.7  0.062873336  0.063040676            3 
 2780000    0.7952748    -3.456948    2091.6535  0.062699445  0.063027712            5 
 2781000   0.82468292   -3.4500238     2090.351   0.06263787  0.063014757            4 
 2782000   0.81132398   -3.4722022    2093.2713   0.06270283  0.063001777            4 
 2783000   0.80384538   -3.4391366    2093.5758  0.062689418  0.062988838            3 
 2784000   0.79909341   -3.4436052    2092.9151  0.062647123  0.062975997            5 
 2785000   0.80065347   -3.4749766    2095.5878  0.062704601  0.062962963            3 
 2786000   0.82364368   -3.4684726    2095.8409  0.062689666   0.06294987            2 
 2787000   0.81382226   -3.4197721    2098.9628  0.062760519  0.062936931            5 
 2788000   0.79933494    -3.451575    2102.4611  0.062842572  0.062924089            3 
 2789000   0.79437299   -3.4292435    2098.0638  0.062688653  0.062911114            5 
 2790000   0.79936652   -3.4552654    2094.2358  0.062551847  0.062898124            2 
 2791000   0.81188875   -3.4342593    2094.7694  0.062545365  0.062885095            7 
 2792000   0.80673724   -3.4573491    2098.3908  0.062631054   0.06287203            8 
 2793000   0.80149798   -3.4612464    2091.1202    0.0623917  0.062858946           10 
 2794000   0.80466857   -3.4908764    2094.4374  0.062468307  0.062845885            2 
 2795000    0.8001964   -3.4772675     2097.665  0.062542189  0.062832879            2 
 2796000   0.79429476   -3.4722115    2089.1134  0.062264945   0.06281989            2 
 2797000   0.79909684   -3.4497282    2100.0785  0.062569376  0.062806958            6 
 2798000   0.82860332   -3.4665173    2098.1703  0.062490181  0.062794069            5 
 2799000   0.80990303   -3.4728188     2093.697  0.062334674  0.062781257            3 
 2800000   0.80676294   -3.4782597    2097.3123   0.06242001   0.06276844            3 
 2801000   0.81191579   -3.4748227    2100.5316  0.062493501  0.062755576            5 
 2802000   0.82543098   -3.4504387    2094.6257  0.062295554  0.062742693            5 
 2803000   0.79543934   -3.4616127    2099.3707  0.062414398   0.06272966            3 
 2804000   0.79677343   -3.4457509      2100.27  0.062418865   0.06271674            2 
 2805000   0.81205575   -3.4531379    2103.0404  0.062478917  0.062703805            5 
 2806000   0.79869637   -3.4811384    2098.9087  0.062333947  0.062690788            8 
 2807000   0.78306284   -3.4433297    2105.8297  0.062517211  0.062677884            6 
 2808000   0.81671152   -3.4589513    2105.0339   0.06247133  0.062665139            3 
 2809000   0.80241264   -3.4831262     2096.936  0.062208854  0.062652307            7 
 2810000   0.79694424   -3.4577745    2106.1496  0.062459952   0.06263948            6 
 2811000   0.78836597   -3.4697369    2097.3595  0.062177146  0.062626554            4 
 2812000   0.80903733   -3.4521889    2099.0259  0.062204419  0.062613478            5 
 2813000   0.79284348   -3.4692713    2098.3628  0.062162661  0.062600469            5 
 2814000   0.81026428   -3.4606405    2107.1942  0.062402101  0.062587522            4 
 2815000   0.79897453   -3.4548156    2103.7775  0.062278789  0.062574768            2 
 2816000   0.80006439   -3.4731718    2104.1754  0.062268447  0.062561937            8 
 2817000   0.80307697   -3.4567628    2107.4611  0.062343543  0.062549057            4 
 2818000   0.81258319   -3.4645199    2114.2987   0.06252362  0.062536218            3 
 2819000   0.79336902   -3.4553789    2103.7135  0.062188527  0.062523388            4 
 2820000   0.78929405    -3.470817    2103.1609  0.062150144  0.062510517            7 
 2821000   0.78273108   -3.4494926    2105.3393  0.062192465  0.062497487            3 
 2822000   0.81804735   -3.4898913     2101.182   0.06204766  0.062484415            4 
 2823000   0.80836642   -3.4713982    2106.1616  0.062172677  0.062471405            2 
 2824000   0.81635381    -3.470468    2102.8598  0.062053227  0.062458449            4 
 2825000   0.77844956   -3.4547374    2103.5187  0.062050699  0.062445508            5 
 2826000   0.80275629   -3.4759158    2107.0869  0.062133962  0.062432529            5 
 2827000   0.81164118   -3.4518001    2105.8092   0.06207432  0.062419563            4 
 2828000   0.78630632   -3.4807888    2102.9349  0.061967672  0.062406634            9 
 2829000   0.80564566   -3.4795312    2102.7869  0.061941409  0.062393638            4 
 2830000   0.80794641    -3.464092    2109.3096  0.062111591  0.062380645            5 
 2831000   0.79766723   -3.4387318    2113.4115  0.062210393  0.062367692            4 
 2832000   0.79090056   -3.4488362    2112.0623  0.062148725  0.062354947            2 
 2833000   0.82560497    -3.450378    2115.5127  0.062228284  0.062342143            7 
 2834000   0.80676002   -3.4554872     2111.024  0.062074335  0.062329321            2 
 2835000   0.77157569   -3.4328411    2116.0383  0.062199833  0.062316488            4 
 2836000   0.79178761   -3.4676353    2108.2055  0.061947741  0.062303597            5 
 2837000   0.80556007   -3.4657765    2114.7209  0.062117287  0.062290821            6 
 2838000   0.79965594   -3.4750529    2114.5921  0.062091616  0.062277836            3 
 2839000   0.81556734   -3.4916499    2102.6353  0.061718776  0.062264936            5 
 2840000   0.79151386    -3.458323    2114.6023  0.062048189  0.062251915            2 
 2841000   0.78933704   -3.4746226    2115.8594  0.062063222    0.0622391            8 
 2842000   0.78264212   -3.4843091    2109.4773  0.061854248  0.062226254            2 
 2843000   0.79935833   -3.4678802    2117.9753  0.062081584  0.062213328            8 
 2844000   0.79391244    -3.466597    2111.9067  0.061881936  0.062200311            9 
 2845000   0.77432882   -3.4494934    2115.7573  0.061972974  0.062187486            6 
 2846000   0.79886885   -3.4860443    2117.4694   0.06200133  0.062174744            5 
 2847000   0.80259485   -3.4625799    2111.6817  0.061810141  0.062161896            3 
 2848000   0.79001256   -3.4633108    2118.9765  0.062001888  0.062149021            4 
 2849000   0.80882968   -3.4796169    2122.2861  0.062076929  0.062136181            6 
 2850000   0.80611338   -3.4840335    2113.7342  0.061805095  0.062123399            3 
 2851000   0.79104033   -3.4910324    2116.6102  0.061867479  0.062110513            4 
 2852000   0.79588742   -3.4826248    2113.2233  0.061746825  0.062097641            4 
 2853000    0.7907995   -3.4872343    2114.4009  0.061759576  0.062084641            4 
 2854000   0.80255436   -3.4787988    2111.0795  0.061640957  0.062071657            4 
 2855000   0.79857102   -3.4507904    2120.2534  0.061887139  0.062058769            5 
 2856000   0.79422614   -3.4671545     2116.882  0.061767099  0.062045965            6 
 2857000   0.79272473   -3.4645286    2113.5461  0.061648176  0.062033143            7 
 2858000   0.79599319   -3.4844775     2117.958   0.06175525  0.062020196            1 
 2859000   0.80034636    -3.457836     2117.244  0.061712838   0.06200727           11 
 2860000   0.78640842   -3.4535693    2116.7227   0.06167607  0.061994435            4 
 2861000   0.77182485   -3.4623192    2119.7337  0.061742214    0.0619817            5 
 2862000   0.79809134   -3.4719684     2109.909  0.061434574  0.061968818            5 
 2863000    0.7879299   -3.4702406    2113.8795  0.061528686  0.061955927            7 
 2864000   0.79194252   -3.4780035    2122.8097  0.061767043  0.061943303            4 
 2865000   0.79354643    -3.470282    2124.2391  0.061787059  0.061930429            4 
 2866000   0.81233731    -3.467796    2124.5154  0.061773536  0.061917818            4 
 2867000   0.78984661   -3.4734162    2121.8964  0.061675862  0.061905127            3 
 2868000   0.78206372   -3.4585753    2129.4847  0.061874845  0.061892475            2 
 2869000    0.8181807   -3.4767631    2120.2547  0.061585184  0.061879712            4 
 2870000   0.79230558   -3.4408544    2123.9344  0.061670569  0.061866897            3 
 2871000   0.79805837   -3.4677747    2125.2086  0.061686074  0.061854059            5 
 2872000   0.78456922    -3.486958    2124.2987  0.061638193  0.061841167            5 
 2873000   0.80708771   -3.4809638    2130.2428  0.061789151  0.061828474            3 
 2874000   0.80543803   -3.4683169    2128.5769  0.061719349  0.061815499            2 
 2875000   0.78854715   -3.4867179    2126.8842  0.061648817  0.061802671            4 
 2876000   0.79933672   -3.5126688    2119.9518  0.061426512  0.061789684            4 
 2877000   0.79682413   -3.4667484    2126.3343  0.061590034  0.061776794            8 
 2878000   0.78340554   -3.4813027    2128.5632  0.061633171  0.061763951            3 
 2879000    0.7952468   -3.4770843    2129.0825  0.061626795   0.06175117            7 
 2880000   0.79616601   -3.4651803    2129.2666  0.061610723  0.061738499            6 
 2881000   0.80048906   -3.4566237    2127.7795  0.061546323  0.061725761            3 
 2882000   0.78899705   -3.4730229    2129.4043  0.061571949  0.061713063            1 
 2883000   0.80253466    -3.469275    2128.0074  0.061510216  0.061700252            3 
 2884000   0.80238571   -3.4685888    2122.8013  0.061338457  0.061687493            5 
 2885000   0.79209278   -3.4573541    2127.2749  0.061446414  0.061674514            6 
 2886000   0.80611613   -3.4858178     2124.069  0.061332553  0.061661548            5 
 2887000   0.79984844   -3.4757927    2137.1718  0.061689521  0.061648859            3 
 2888000   0.78511793   -3.4897208    2122.9334  0.061257313  0.061636175           11 
 2889000   0.79557218    -3.470821    2130.8223  0.061463664  0.061623613            3 
 2890000   0.78925632   -3.4747845    2120.6516  0.061149124  0.061610839            3 
 2891000   0.80265267   -3.4643629    2125.5524  0.061269239  0.061598178            5 
 2892000   0.78569424   -3.4604416    2130.8885  0.061401814  0.061585386            8 
 2893000   0.79512212   -3.4861599    2131.9717   0.06141179  0.061572662            4 
 2894000    0.7756251   -3.4765625    2138.9453  0.061591376  0.061559825            5 
 2895000   0.80025726   -3.4700239    2137.6885  0.061533923  0.061546899            4 
 2896000    0.7764314   -3.4845574    2134.4389  0.061419167  0.061534192            4 
 2897000   0.78383393   -3.5023758    2125.8943  0.061152178  0.061521321            3 
 2898000    0.7868715   -3.4976793     2122.622   0.06103698  0.061508469            5 
 2899000    0.7979931   -3.4559594    2132.9701  0.061313386  0.061495725            6 
 2900000   0.81798449   -3.5065058    2131.5656  0.061251884  0.061482909            5 
 2901000   0.78710175   -3.5129398     2129.862  0.061181834  0.061470142            3 
 2902000   0.77390475   -3.4985511    2125.4856  0.061035079  0.061457365            3 
 2903000   0.77795977   -3.4825994    2129.7411  0.061136213  0.061444542            3 
 2904000   0.77821327   -3.4719799    2136.8109  0.061318036  0.061431924            6 
 2905000   0.78570152   -3.4713096    2139.9767  0.061387742  0.061419089            2 
 2906000   0.78828147   -3.4950323    2133.3761  0.061177337  0.061406311            5 
 2907000   0.79221004   -3.4859147     2132.387  0.061127938  0.061393569            4 
 2908000   0.78676385   -3.4894862    2137.3295  0.061248552  0.061380918            5 
 2909000   0.78181155   -3.4817083      2135.96  0.061188266   0.06136822            7 
 2910000   0.78224096   -3.4547626    2140.1217  0.061286417  0.061355649            4 
 2911000     0.771578   -3.4918506     2132.818   0.06105628  0.061342955            4 
 2912000   0.77207548   -3.4947575     2129.487  0.060939991   0.06133019           13 
 2913000   0.78396843   -3.4887399    2128.8865  0.060901892  0.061317409            3 
 2914000   0.80114196   -3.4988775    2133.7013  0.061018682  0.061304585            4 
 2915000   0.79720296   -3.4806072    2138.2338  0.061127325  0.061291844            4 
 2916000    0.7856719   -3.4975797    2133.8519  0.060981136  0.061279163            3 
 2917000   0.78945374   -3.4749428    2140.3319  0.061145353  0.061266494            4 
 2918000   0.78200513   -3.4880739    2144.4668  0.061242483  0.061253827            3 
 2919000   0.79858728   -3.4993419    2137.5677  0.061024543  0.061241101            4 
 2920000   0.78296333   -3.4986525    2141.5515  0.061117337   0.06122835            4 
 2921000   0.77742532   -3.5108207    2138.2134  0.061001181  0.061215524            5 
 2922000   0.78360598   -3.4648792    2146.1755  0.061207378   0.06120287            5 
 2923000   0.78272281   -3.4786408    2149.5943  0.061283907  0.061190206            2 
 2924000   0.78453602   -3.4756036     2151.382  0.061313896  0.061177586            6 
 2925000   0.78909273   -3.4792423    2141.6437   0.06101549  0.061164989            4 
 2926000   0.77627284   -3.4928241    2137.5548  0.060878185  0.061152197            5 
 2927000   0.76613566   -3.4926141    2142.2297  0.060990481  0.061139458            2 
 2928000   0.78091287   -3.5013574     2138.678  0.060868568  0.061126855            7 
 2929000   0.77922223   -3.4685758    2143.6284  0.060988632  0.061114087            3 
 2930000   0.79476824   -3.4939967    2140.4459  0.060877301  0.061101301            4 
 2931000   0.76028942   -3.4801598    2146.0431  0.061015668   0.06108868            5 
 2932000   0.79728643   -3.4955695    2146.5163  0.061008308  0.061076041            7 
 2933000   0.79788043   -3.4758754    2145.4491  0.060957186  0.061063601            7 
 2934000    0.7794886   -3.5091975    2139.6931  0.060772925  0.061050936            5 
 2935000   0.75911054   -3.4943884    2140.7859  0.060783246  0.061038255            5 
 2936000   0.77683513   -3.4929959    2143.8248  0.060848797  0.061025556            5 
 2937000   0.79153435   -3.5070977    2140.1488  0.060723776  0.061012916            8 
 2938000   0.78226088   -3.4947822     2142.415  0.060767386  0.061000246            6 
 2939000    0.7831769   -3.4962524    2142.4451  0.060747563   0.06098765            3 
 2940000   0.80005193   -3.4988177     2151.122  0.060972845  0.060974956            4 
 2941000   0.80571116   -3.4981424    2143.7141  0.060742209  0.060962342            4 
 2942000   0.77653344   -3.4930504    2143.0219  0.060701957  0.060949826            8 
 2943000   0.78789184   -3.4754598    2143.1725  0.060685596  0.060937138            4 
 2944000   0.78166717   -3.4682188    2150.0402  0.060859381  0.060924542            3 
 2945000    0.7948538   -3.4659391    2151.9827  0.060893681  0.060911972            5 
 2946000   0.78445981   -3.4967689    2147.7502  0.060753286  0.060899453            3 
 2947000   0.79514763    -3.515255    2146.5291  0.060698141   0.06088677            3 
 2948000   0.76671808   -3.4908316    2159.1602  0.061034606  0.060874259            6 
 2949000   0.78078499   -3.4957258    2154.1873  0.060873384  0.060861866            6 
 2950000    0.7943306   -3.5039859    2158.0158  0.060960898  0.060849325            5 
 2951000   0.77290546   -3.5087782    2150.4799  0.060727433  0.060836877            2 
 2952000   0.79050407   -3.4717121    2152.5284  0.060764689  0.060824382            5 
 2953000   0.79276728   -3.4976904    2151.5848  0.060717486  0.060811958            3 
 2954000   0.78107056   -3.4812961    2161.0242  0.060963218  0.060799514            4 
 2955000   0.78970345    -3.489018    2151.8187  0.060682986  0.060787104            9 
 2956000   0.77794022   -3.5173469    2147.5608  0.060542422  0.060774696            5 
 2957000   0.78962117   -3.4655184     2153.712  0.060695299   0.06076219            6 
 2958000    0.7844526   -3.4954503    2146.6356  0.060475423  0.060749708            2 
 2959000   0.77774353   -3.4869221    2144.6329  0.060398583  0.060737151            3 
 2960000   0.77248245   -3.4863059    2154.2927  0.060650133  0.060724414            3 
 2961000   0.76517866   -3.4982348    2155.3693  0.060659948  0.060711873            5 
 2962000    0.7824894   -3.4990043    2151.5256  0.060531329  0.060699318            3 
 2963000   0.78343541    -3.500993    2151.1764   0.06050108  0.060686786            5 
 2964000   0.79271988   -3.4811462     2159.967  0.060727817  0.060674229            3 
 2965000   0.77374289   -3.5154576    2146.6263  0.060332386  0.060661595            6 
 2966000   0.76832589   -3.4924701    2150.1966  0.060412357  0.060648973            5 
 2967000   0.78019723   -3.5153651    2151.3233   0.06042364  0.060636392            6 
 2968000   0.77254284   -3.4978913    2149.7324  0.060358614  0.060623746            3 
 2969000   0.75720052   -3.4938404    2151.8737  0.060398385  0.060611122            4 
 2970000   0.77189336   -3.4988299    2155.2554  0.060472936  0.060598554            6 
 2971000   0.76577681   -3.5000048    2151.1761   0.06033816  0.060585814            4 
 2972000   0.77715601   -3.4905677    2157.4945  0.060495022  0.060573133            9 
 2973000   0.77322555   -3.4943779    2159.5886  0.060533373  0.060560428            3 
 2974000   0.77848477   -3.5120799    2150.6475  0.060262483  0.060547854            3 
 2975000    0.7643886   -3.5090271    2152.8825  0.060304831  0.060535079            5 
 2976000   0.77974354    -3.488959    2156.1929  0.060377267  0.060522304            6 
 2977000   0.78434962   -3.5130546    2157.9642  0.060406568  0.060509577            6 
 2978000   0.77604862   -3.4849829    2160.1311  0.060446919  0.060497106            5 
 2979000   0.76507505   -3.5057181    2158.7996   0.06038938  0.060484499            7 
 2980000   0.77343886   -3.5048179    2156.5347  0.060305781  0.060471899            4 
 2981000   0.77877444   -3.4915654    2162.1748  0.060443217  0.060459307            6 
 2982000   0.75721712   -3.5030577    2158.8058  0.060328799  0.060446766            6 
 2983000   0.77259182   -3.5326061    2153.6949  0.060165797   0.06043409            3 
 2984000   0.77484319    -3.493938    2155.6133  0.060199209  0.060421446            7 
 2985000   0.76778668    -3.513049     2156.144  0.060193858  0.060408877            7 
 2986000   0.77661243   -3.5205346    2157.8436  0.060221132  0.060396267            8 
 2987000   0.78090672   -3.4811476    2165.7276  0.060420924  0.060383781           10 
 2988000   0.76425289   -3.4969846    2159.8765  0.060237521  0.060371193            7 
 2989000   0.76832517   -3.4995989    2163.9823  0.060331837  0.060358619            4 
 2990000   0.77575228   -3.5124539    2161.8592  0.060252485  0.060346031            3 
 2991000   0.77646603   -3.5341472    2167.7791  0.060397278   0.06033354            6 
 2992000   0.78000237   -3.5010135    2162.0367  0.060217154  0.060320901            7 
 2993000   0.77509949   -3.5026124    2169.5881  0.060407287  0.060308309            4 
 2994000   0.75954947   -3.4974108    2171.0403  0.060427531  0.060295807            6 
 2995000   0.76398797   -3.4764711    2162.2944  0.060164007  0.060283354            3 
 2996000   0.78714573   -3.5204989    2156.1328  0.059972541  0.060270843            4 
 2997000   0.77557405   -3.5088683    2163.5511  0.060158801   0.06025821            2 
 2998000   0.76958694     -3.52841    2163.7175   0.06014336  0.060245582            5 
 2999000   0.76718278   -3.5114163    2166.6231  0.060204044  0.060233136            3 
 3000000   0.76559939   -3.5020871    2171.9038  0.060330661  0.060220487            4 
 3001000   0.77515111   -3.5212815    2167.3793  0.060184918  0.060207811            3 
 3002000   0.77720112   -3.5065338    2166.4059  0.060137849  0.060195182            3 
 3003000   0.77740548   -3.5149864    2159.3707  0.059922597  0.060182543            3 
 3004000   0.77471474   -3.4895617    2169.3457  0.060179364  0.060170049            3 
 3005000   0.78104955   -3.5079609    2167.3834   0.06010492  0.060157656            5 
 3006000   0.77142641   -3.4942204     2172.437  0.060225022  0.060145128            5 
 3007000   0.77387618   -3.5166194    2167.4522   0.06006685  0.060132649            5 
 3008000    0.7568021   -3.5056068    2170.2568  0.060124579    0.0601202            4 
 3009000   0.76918709   -3.5096139     2167.074  0.060016451  0.060107835            3 
 3010000   0.77254784   -3.5024217    2171.4558  0.060117824  0.060095371            5 
 3011000   0.78123932   -3.4719356     2169.484  0.060043287  0.060082995            7 
 3012000   0.77827819   -3.5175414     2168.411  0.059993664  0.060070546            6 
 3013000   0.77139947   -3.5029259    2164.2994  0.059860035  0.060058205            3 
 3014000   0.77685787   -3.5002953    2174.1751  0.060113226  0.060045852            4 
 3015000   0.75738389   -3.5122467    2175.1104  0.060119137  0.060033539            6 
 3016000   0.77061665   -3.5111944    2173.3684  0.060051073  0.060021034            6 
 3017000   0.75054375   -3.5000079    2173.2726   0.06002852  0.060008635            7 
 3018000   0.76738664   -3.5162574    2170.6653  0.059936638  0.059996195            5 
 3019000   0.77574044   -3.5221046    2177.3004  0.060099933  0.059983735            3 
 3020000   0.76455369   -3.5222921     2170.816  0.059901103  0.059971311            5 
 3021000   0.75484297   -3.5427089    2168.9326  0.059829322  0.059958942            5 
 3022000   0.77159474   -3.5062909    2179.7448  0.060107677   0.05994656            6 
 3023000   0.77156241   -3.4972081    2174.3897  0.059940172   0.05993429            2 
 3024000   0.76470696    -3.508219    2176.7961  0.059986664  0.059921962            5 
 3025000   0.77532823   -3.5025728    2169.5535  0.059767315  0.059909719            3 
 3026000   0.74624954   -3.5190398    2166.6763  0.059668328  0.059897385            9 
 3027000   0.76497381   -3.5005307    2175.5937  0.059894111  0.059884919            4 
 3028000   0.77555384   -3.5212768    2173.7455  0.059823467  0.059872489           12 
 3029000   0.76212617    -3.519734    2172.6054  0.059772352  0.059860114            8 
 3030000    0.7685774   -3.5246395    2172.3387  0.059745288  0.059847694            7 
 3031000   0.77561705   -3.5204108    2172.0132  0.059716628  0.059835434            3 
 3032000   0.77666427    -3.525962    2179.0599  0.059890609  0.059823032            6 
 3033000   0.76383503   -3.5033435    2173.6978  0.059723536  0.059810818            3 
 3034000   0.76999158   -3.4860264    2175.7709  0.059760793  0.059798621            5 
 3035000   0.74438316   -3.5096243    2175.3742  0.059730209  0.059786414            4 
 3036000   0.78009405   -3.5293694    2176.9629  0.059754143  0.059774169            3 
 3037000   0.77250805   -3.5292441    2182.4579  0.059885245  0.059761808            3 
 3038000   0.77267564   -3.5258173    2179.0483  0.059772006  0.059749608            7 
 3039000   0.77510048   -3.5135164    2177.7085    0.0597156  0.059737233            5 
 3040000   0.76044666   -3.5154784    2183.3334  0.059850147  0.059725042            5 
 3041000   0.77045102    -3.519341      2184.03  0.059849556  0.059712726            5 
 3042000   0.75902205   -3.5181556    2180.0511  0.059720882  0.059700354            5 
 3043000   0.78202743   -3.5264196    2177.9122  0.059642683  0.059688032            2 
 3044000     0.777911    -3.524197    2176.0509  0.059572133  0.059675568            4 
 3045000   0.75771812   -3.5188876    2186.9263  0.059850199  0.059663349            3 
 3046000   0.76352038   -3.5112683    2181.5831   0.05968437  0.059650923            3 
 3047000   0.75760927   -3.5251146    2177.9323  0.059564935  0.059638577            3 
 3048000   0.76610427   -3.5091436    2191.4448   0.05991483  0.059626148            2 
 3049000   0.76131338   -3.5532634    2177.7958  0.059522134  0.059613864            4 
 3050000   0.76834867   -3.5228761    2180.5844  0.059578809  0.059601549            6 
 3051000   0.76216051   -3.5364677    2180.1622   0.05954775  0.059589313            5 
 3052000    0.7395008   -3.5312097    2178.4327  0.059481014  0.059576928            3 
 3053000   0.75078791   -3.5098973    2185.3138  0.059649356  0.059564501            3 
 3054000   0.77877697   -3.5059898    2176.0566  0.059377226  0.059552117            4 
 3055000   0.76630871   -3.5313572    2183.3206  0.059555936  0.059539883            4 
 3056000   0.74224343   -3.5126584    2180.9279  0.059471201  0.059527496            4 
 3057000   0.77773949    -3.518141    2187.9141   0.05964219  0.059515224            6 
 3058000   0.75595593   -3.5289024      2186.93  0.059595868  0.059503039            3 
 3059000   0.76861424   -3.4966185     2185.071  0.059525743  0.059490841            3 
 3060000    0.7678027   -3.4956423    2190.4941  0.059653979   0.05947871            4 
 3061000   0.75396883   -3.5101534    2186.1705  0.059516783  0.059466523            3 
 3062000   0.75999834   -3.5128113    2194.9891  0.059737349  0.059454415            3 
 3063000   0.77546259   -3.5465265    2184.3121  0.059427362  0.059442195            5 
 3064000    0.7658119   -3.5494061    2177.9124  0.059233909  0.059429828            3 
 3065000   0.77135725   -3.5151649    2192.3019  0.059605816  0.059417597            7 
 3066000   0.74938753   -3.5150703    2185.1681   0.05939248   0.05940528            9 
 3067000   0.74652389   -3.4992666    2195.7015  0.059659317  0.059393003            3 
 3068000   0.77488018   -3.5299514     2180.133  0.059216999   0.05938081            3 
 3069000   0.77623476   -3.5358545    2192.1534  0.059524095  0.059368604            3 
 3070000   0.74844146   -3.5399445    2194.8741  0.059578558  0.059356512            4 
 3071000   0.75698133   -3.5352425    2189.0452  0.059400987  0.059344355            3 
 3072000   0.76324041   -3.5186046    2188.7604  0.059373926  0.059332312            3 
 3073000    0.7573029   -3.5272348     2190.408  0.059399285  0.059320242            6 
 3074000   0.73909473   -3.5068609    2191.6127  0.059412619  0.059308067            4 
 3075000   0.75734455   -3.5359563    2190.1862  0.059354641  0.059295896            7 
 3076000   0.75831441   -3.5364923    2189.4634   0.05931576  0.059283875            4 
 3077000   0.75288438   -3.5143669    2193.2958  0.059400277  0.059271831            5 
 3078000   0.77485622   -3.5021334    2198.7194  0.059527817  0.059259936            9 
 3079000   0.76879165   -3.5248207    2197.3185  0.059470566  0.059247907            5 
 3080000   0.74617252    -3.532941    2189.8227  0.059248451  0.059235907            5 
 3081000   0.75341389   -3.5327678    2196.3281  0.059405175   0.05922374            6 
 3082000   0.76759256   -3.5196679    2203.8853  0.059590236  0.059211669            2 
 3083000   0.76018692   -3.5183197    2191.7783  0.059243657  0.059199614            6 
 3084000   0.74881507   -3.5264619    2196.2121  0.059344253   0.05918754            3 
 3085000   0.75895823   -3.5289503    2196.0772  0.059321371  0.059175492            8 
 3086000   0.75672177   -3.5216898    2192.7477  0.059212241  0.059163299            7 
 3087000   0.76308923   -3.5274808    2192.6341  0.059189993  0.059151218            3 
 3088000   0.75411208   -3.5461698    2196.7074  0.059280747  0.059139231            3 
 3089000   0.75682402   -3.5467128    2195.3712  0.059225511  0.059127098            7 
 3090000   0.75686805   -3.5057589    2202.7346  0.059404925  0.059115062            3 
 3091000   0.76912971   -3.5465717      2196.61  0.059220587  0.059102978            3 
 3092000   0.76208784    -3.549084    2197.7362  0.059231785   0.05909079            4 
 3093000   0.74856228    -3.534424    2197.9263  0.059217758  0.059078596            3 
 3094000   0.76884071   -3.5211599    2192.3241  0.059047728  0.059066446            6 
 3095000   0.74413036   -3.5197106     2197.137  0.059158239  0.059054294            6 
 3096000   0.76795907   -3.5295852    2197.5041  0.059149013  0.059042298            4 
 3097000   0.77014284   -3.5392381    2192.5275  0.058996004  0.059030169            4 
 3098000   0.75561696   -3.5436688    2195.8712  0.059066903  0.059018019            4 
 3099000   0.75330478   -3.5298534    2196.0315  0.059052155  0.059005819            4 
 3100000   0.75687182   -3.5260762     2200.107   0.05914266  0.058993585            8 
 3101000   0.76645676   -3.5322438    2199.8993  0.059118009  0.058981306            5 
 3102000   0.75267556   -3.5515438    2197.8929  0.059045049  0.058969072            7 
 3103000   0.75569722    -3.541182    2196.2639  0.058982273   0.05895691            3 
 3104000   0.75857877    -3.575517    2193.6554   0.05889324  0.058944553            6 
 3105000   0.76079934   -3.5157731    2205.8834  0.059202453  0.058932325            5 
 3106000   0.74775704   -3.5283395    2208.0258  0.059240872  0.058920223            4 
 3107000    0.7468933   -3.5445437    2192.8133  0.058813788  0.058908038            7 
 3108000   0.74791777   -3.5116429    2204.6151  0.059111301  0.058895876            3 
 3109000   0.74483724   -3.5217948    2199.2345  0.058948067  0.058883816            6 
 3110000   0.75631419    -3.561301    2198.5795  0.058911563  0.058871482            4 
 3111000   0.74992619   -3.5365055    2207.9688  0.059144134  0.058859345            4 
 3112000   0.76055771   -3.5283289    2197.7543  0.058851605  0.058847337            9 
 3113000   0.74624132   -3.5438101    2194.9322  0.058757152   0.05883516            3 
 3114000   0.75464467   -3.5457153    2201.8735  0.058924039  0.058823057            5 
 3115000   0.75713149   -3.5537435    2203.9841  0.058961586  0.058810947            6 
 3116000    0.7299156   -3.5205712    2205.7966  0.058991138  0.058798828            6 
 3117000   0.74770272   -3.5331367    2206.8542  0.059000488  0.058786657            3 
 3118000   0.74827111   -3.5397625    2199.7824   0.05879256  0.058774683            4 
 3119000   0.74002505   -3.5374267    2205.7674  0.058933617  0.058762595            8 
 3120000   0.75332146   -3.5558459    2203.7471  0.058860767  0.058750543            3 
 3121000   0.74744729   -3.5257794    2210.3594  0.059018461  0.058738552            3 
 3122000   0.75293834   -3.5327126    2204.1722  0.058834407  0.058726459           19 
 3123000   0.74227536   -3.5069591    2215.1527  0.059108567  0.058714405            2 
 3124000   0.74158383    -3.544961     2210.624  0.058968844  0.058702332            5 
 3125000   0.76591307   -3.5332449    2211.0466  0.058961242  0.058690195            5 
 3126000   0.75940558   -3.5455162     2202.497  0.058714466  0.058678073            3 
 3127000   0.74391836   -3.5318496    2206.0698  0.058790902   0.05866585            5 
 3128000   0.76894934   -3.5362154    2206.7922  0.058791352   0.05865368            3 
 3129000   0.74616113   -3.5349851    2209.7307  0.058850822  0.058641521            8 
 3130000   0.74231044   -3.5443296    2215.8567   0.05899512  0.058629471            3 
 3131000   0.74451281   -3.5437002    2210.3957  0.058830931  0.058617355            3 
 3132000   0.74251725   -3.5270504    2216.1338  0.058964819  0.058605344            4 
 3133000   0.74564504   -3.5003618    2212.0981  0.058838656  0.058593474            3 
 3134000    0.7624392   -3.5573982    2207.6556  0.058701756   0.05858145            5 
 3135000   0.78086004   -3.5396157    2215.8103  0.058899796   0.05856941            7 
 3136000   0.73960855   -3.5462912    2209.7061  0.058718806  0.058557328            6 
 3137000   0.74766952   -3.5399347    2214.3531  0.058823535  0.058545339            4 
 3138000   0.75138071     -3.56557    2207.6533  0.058626867  0.058533302            8 
 3139000   0.74182946   -3.5424829    2217.5254  0.058870272  0.058521308           10 
 3140000   0.75742781   -3.5244481    2214.5869  0.058773538   0.05850944            6 
 3141000   0.74669691   -3.5305921    2213.9671  0.058738383  0.058497597            4 
 3142000   0.74406174   -3.5544971    2216.9977  0.058800066  0.058485602            7 
 3143000   0.74776028   -3.5341796    2213.2407  0.058681745  0.058473596            6 
 3144000   0.74715609   -3.5270668     2215.956   0.05873505  0.058461533            7 
 3145000   0.74416442   -3.5403895    2212.4063  0.058622319  0.058449566            6 
 3146000   0.76044479   -3.5576958    2213.0239  0.058620044  0.058437522            7 
 3147000   0.73198827   -3.5508374    2213.9334  0.058625502  0.058425414            7 
 3148000   0.74851697   -3.5722904    2213.1319  0.058585659  0.058413368            3 
 3149000   0.74822225   -3.5321579    2217.0571  0.058670931  0.058401534            3 
 3150000   0.73855956   -3.5529601    2210.7287  0.058484887  0.058389547            7 
 3151000   0.75075375   -3.5550222    2210.3975  0.058457567  0.058377456            4 
 3152000   0.74943127   -3.5546541    2207.5532  0.058363822  0.058365475            6 
 3153000   0.74462062   -3.5453738    2218.2343  0.058627611   0.05835336            3 
 3154000   0.76651733   -3.5389202    2213.8308  0.058492676  0.058341433            7 
 3155000   0.74852031   -3.5452349    2215.3777  0.058514995  0.058329468           10 
 3156000   0.74090703   -3.5613213    2211.3584  0.058390325  0.058317411            3 
 3157000   0.74428376    -3.564956     2220.903  0.058623772  0.058305423            6 
 3158000   0.73983968   -3.5413271    2220.4112  0.058592232  0.058293298            4 
 3159000    0.7423592   -3.5435706    2223.8207  0.058663624  0.058281405            5 
 3160000   0.74071767   -3.5479694    2213.8726  0.058382716   0.05826952            4 
 3161000   0.73328039   -3.5329242    2213.1032  0.058343963  0.058257608            3 
 3162000   0.72404486   -3.5397164    2212.4325  0.058307835  0.058245606            2 
 3163000    0.7376882   -3.5630966     2211.407  0.058262382  0.058233672            4 
 3164000   0.75782523   -3.5715465    2221.4192  0.058507669  0.058221686            7 
 3165000   0.74001223   -3.5660768    2220.0957  0.058454336  0.058209755            4 
 3166000   0.75142885   -3.5607244    2212.2015  0.058228087  0.058197706            5 
 3167000   0.75028727   -3.5210328    2220.3404  0.058423862  0.058185784            5 
 3168000   0.74439769   -3.5561907    2221.8718  0.058445702  0.058173908            5 
 3169000   0.76138123   -3.5581559    2216.0052  0.058272988   0.05816203            5 
 3170000   0.74291809   -3.5610024    2224.0953  0.058467279  0.058150109            6 
 3171000   0.74605516   -3.5676036     2216.427  0.058247319  0.058138208            4 
 3172000   0.74497105    -3.562736     2221.835  0.058371034  0.058126302            6 
 3173000    0.7453576   -3.5466644    2222.5539  0.058371517  0.058114446            8 
 3174000   0.74797983   -3.5560871    2221.2509  0.058318917  0.058102679            7 
 3175000   0.76765793   -3.5458667    2216.7384  0.058182111  0.058090787            5 
 3176000   0.73918938   -3.5537954     2216.553  0.058158926  0.058078874            6 
 3177000   0.72763619   -3.5597742    2220.5572  0.058245651  0.058066956            7 
 3178000    0.7589844   -3.5515049    2216.5147  0.058121321   0.05805502           13 
 3179000   0.74911001    -3.558827    2225.1714  0.058329962  0.058043093            5 
 3180000   0.74458691   -3.5477624    2223.3681  0.058264362  0.058031178            7 
 3181000   0.75873567   -3.5703775    2224.0297  0.058263379  0.058019243           10 
 3182000   0.74396638   -3.5628559    2220.4016  0.058150052  0.058007353            4 
 3183000   0.73537447   -3.5612835     2231.276  0.058416482  0.057995444            5 
 3184000   0.74637879   -3.5378657    2225.1456  0.058237689  0.057983441            3 
 3185000    0.7513436    -3.568407    2220.0472  0.058086006  0.057971479            3 
 3186000   0.74634007   -3.5633377    2227.3037  0.058257578  0.057959527           13 
 3187000    0.7316397   -3.5298449    2229.5626  0.058298363  0.057947824            4 
 3188000   0.74635772   -3.5644154    2224.0608  0.058136261  0.057935948            4 
 3189000   0.74230656    -3.552698    2212.6985  0.057821118  0.057924002            4 
 3190000   0.74253849   -3.5411887    2225.4471  0.058136028  0.057912055            4 
 3191000    0.7513948   -3.5616858    2235.0078  0.058367486  0.057900139            4 
 3192000   0.74891032   -3.5788333     2216.275  0.057860144  0.057888205            5 
 3193000   0.73806412   -3.5505677    2222.0823  0.057993589    0.0578763            5 
 3194000   0.73691077   -3.5622755    2228.3079  0.058137859  0.057864393            6 
 3195000   0.74951185   -3.5563043    2233.9188   0.05826601  0.057852632            4 
 3196000   0.73550783   -3.5409192    2236.6876  0.058319974  0.057840735            3 
 3197000   0.73609416   -3.5804354    2223.3218  0.057953338  0.057828901           10 
 3198000   0.73943615    -3.565882    2226.8865  0.058028103  0.057816904            6 
 3199000   0.73684728     -3.56168    2229.0805  0.058067117  0.057805037            6 
 3200000   0.73198138   -3.5482467    2231.4513  0.058110711  0.057793234            6 
 3201000   0.72915788   -3.5397115    2232.3194  0.058115157  0.057781535            5 
 3202000   0.75412409   -3.5559729    2234.1454  0.058144529  0.057769886            5 
 3203000   0.73808899   -3.5331841    2237.4341   0.05821194  0.057758197            3 
 3204000   0.74068631   -3.5386984    2230.1825  0.058005164  0.057746478            7 
 3205000    0.7354287   -3.5879209    2226.3303  0.057886902  0.057734674            5 
 3206000    0.7412532   -3.5538958    2225.7871  0.057854727  0.057722683            3 
 3207000   0.74309263   -3.5583664    2234.2906   0.05805765  0.057710862            3 
 3208000   0.73911625   -3.5404671    2232.6744  0.057997568  0.057699004            5 
 3209000   0.73793467   -3.5627503    2229.0717  0.057885938  0.057687148            3 
 3210000   0.73818814   -3.5749619    2235.2251  0.058027651  0.057675229            3 
 3211000   0.73714471   -3.5718145    2237.1714   0.05806009  0.057663342            4 
 3212000   0.74854378   -3.5513188    2228.0998  0.057806658  0.057651394            3 
 3213000   0.74838367   -3.5483038    2233.2253  0.057921602  0.057639513            5 
 3214000   0.74584244   -3.5427628    2241.7951  0.058125781  0.057627767            2 
 3215000   0.74849113   -3.5752908    2226.1275  0.057701595  0.057615946            2 
 3216000   0.74568798   -3.5597101    2233.7319  0.057880698  0.057604017            5 
 3217000   0.73633781   -3.5575019    2236.5441  0.057935554  0.057592254            4 
 3218000   0.73798795   -3.5614476    2234.0799  0.057853736  0.057580362            4 
 3219000   0.74059061   -3.5598155    2238.8738  0.057959869  0.057568483            3 
 3220000   0.74578704   -3.5530885    2242.8043   0.05804359  0.057556655            6 
 3221000   0.71778807   -3.5598486    2234.3568  0.057807016  0.057544905            7 
 3222000   0.74553976    -3.548004    2238.8528   0.05790536  0.057533203            8 
 3223000   0.74624798   -3.5663981    2242.8845  0.057991637  0.057521526           16 
 3224000   0.74182612   -3.5900774    2235.6049  0.057785486  0.057509644            9 
 3225000   0.71513122   -3.5695718    2237.5081  0.057816746  0.057497776            6 
 3226000   0.74633448   -3.5632191    2242.3635  0.057924248  0.057486093            7 
 3227000   0.74327009   -3.5636436    2240.3422  0.057854102  0.057474423           10 
 3228000    0.7326302   -3.5785767    2236.0747  0.057726009  0.057462772            5 
 3229000    0.7209812   -3.5624569    2234.0857  0.057656802  0.057451056            3 
 3230000   0.74875748   -3.5681241    2239.7449  0.057784956  0.057439404           10 
 3231000   0.73461007   -3.5824318    2239.4484  0.057759424  0.057427633            8 
 3232000    0.7297168    -3.584687    2242.5109  0.057820515  0.057415887            3 
 3233000   0.73287066   -3.5590544    2240.6348  0.057754273  0.057404194            6 
 3234000    0.7232591   -3.5522107    2241.4524  0.057757483  0.057392403            5 
 3235000   0.74394589   -3.5680063    2239.3572  0.057685658  0.057380772            3 
 3236000   0.72527093   -3.5768581    2240.5662  0.057698964  0.057369079            4 
 3237000   0.72637005   -3.5722149    2237.0704  0.057591144  0.057357352            4 
 3238000   0.73829216   -3.5749977    2248.3141  0.057862727   0.05734558            3 
 3239000   0.72828947   -3.5615387    2234.7875  0.057496848  0.057333904            6 
 3240000   0.76094256   -3.5474011    2238.4173  0.057572461  0.057322152            4 
 3241000   0.73806082   -3.5746733    2238.5809  0.057558903  0.057310402           12 
 3242000   0.73093237    -3.554762    2243.4718  0.057666868  0.057298588           11 
 3243000   0.75415823   -3.5588842      2240.28  0.057567068  0.057286813            6 
 3244000   0.74804345   -3.5738533    2237.8814  0.057487706  0.057274982            7 
 3245000   0.73492505   -3.5690526    2231.3742  0.057302882  0.057263061            5 
 3246000   0.71933563   -3.6054225    2237.2277  0.057435502  0.057251118            6 
 3247000   0.73827966   -3.5772825    2240.5088  0.057502023  0.057239237            3 
 3248000   0.73134576   -3.5438599    2246.1666  0.057629481  0.057227487            5 
 3249000   0.72664288   -3.5683676    2239.1397   0.05743151  0.057215657            3 
 3250000   0.71945755   -3.5682216    2244.5509  0.057552588  0.057203823            5 
 3251000   0.72946909   -3.5838394    2243.5231  0.057508537  0.057192071            4 
 3252000   0.74843125   -3.5657292    2239.2994  0.057382621  0.057180362            3 
 3253000   0.72453137   -3.5755575    2240.2374  0.057389009  0.057168656           11 
 3254000   0.74154925   -3.6001261    2246.5782  0.057533757  0.057156897            4 
 3255000   0.74303102   -3.5714263     2247.955  0.057551332  0.057145149            3 
 3256000   0.73790575   -3.5818397    2246.1655  0.057487856  0.057133486            7 
 3257000   0.73898109   -3.6006139    2236.4133  0.057220685  0.057121868            6 
 3258000   0.74149144   -3.5651475    2247.7589  0.057493322  0.057110108            5 
 3259000   0.72559049   -3.5664414    2252.3091  0.057592029  0.057098346            6 
 3260000   0.72749561   -3.5703755    2245.1296  0.057390838  0.057086629            4 
 3261000   0.73422375   -3.5748999    2246.1462  0.057399218  0.057074924            5 
 3262000   0.71923189   -3.5667057    2247.3862    0.0574133  0.057063197            6 
 3263000   0.73654444   -3.5771421    2241.9482  0.057256823   0.05705139            4 
 3264000   0.72136105   -3.5774208    2239.9162  0.057187403  0.057039624            6 
 3265000   0.72350477   -3.6128236    2246.8688  0.057347341  0.057027727            8 
 3266000   0.72999382   -3.5735978    2252.8773  0.057483091  0.057015984            7 
 3267000   0.73801316   -3.5576893    2254.4762   0.05750628  0.057004222            7 
 3268000   0.73987931   -3.5872937     2247.396   0.05730814   0.05699245            4 
 3269000   0.72199077   -3.5860423    2249.0714  0.057333317   0.05698068            5 
 3270000   0.72681187    -3.581976    2243.8924  0.057183802  0.056968865            5 
 3271000    0.7364055   -3.5814654    2246.4214  0.057230751  0.056957063            4 
 3272000   0.73048676   -3.5782324    2246.8635  0.057224519  0.056945225            3 
 3273000   0.71802502   -3.5945412    2246.8936  0.057207801  0.056933401            4 
 3274000   0.72045301   -3.5841483    2246.3925  0.057177573   0.05692146            5 
 3275000   0.72012704   -3.5854923     2252.716  0.057321018  0.056909605            9 
 3276000   0.72087987   -3.5980943    2246.5329  0.057146238  0.056897842            7 
 3277000   0.71875563   -3.5862772    2250.6609  0.057233775  0.056886114            9 
 3278000   0.73837551   -3.5577232    2249.9378   0.05719793  0.056874331            4 
 3279000   0.73737016   -3.5897188    2246.9466  0.057104469  0.056862605            6 
 3280000   0.73727213     -3.56723    2249.5811  0.057153991  0.056850938            7 
 3281000   0.72739222   -3.5729592    2249.8807  0.057144181  0.056839338            4 
 3282000   0.73473064   -3.5760427    2252.7515  0.057199662  0.056827685            7 
 3283000    0.7427873   -3.5622715    2260.0469   0.05736742  0.056816132            3 
 3284000   0.72817397   -3.5702154    2250.3978  0.057105099  0.056804533            9 
 3285000   0.72491607   -3.5712789    2251.4774  0.057115105  0.056793053            7 
 3286000    0.7116567   -3.6107122    2256.8356  0.057233608  0.056781396            6 
 3287000   0.73121139   -3.5898954    2255.9356  0.057193379  0.056769745           12 
 3288000   0.72027771   -3.5657666    2254.6681   0.05714386  0.056758181            7 
 3289000   0.72956347   -3.5903537    2249.8511  0.057004435  0.056746605            5 
 3290000   0.73418102    -3.575848    2253.4354  0.057077897  0.056734854            3 
 3291000   0.71943071   -3.5627978    2247.8468  0.056919041  0.056723194            3 
 3292000   0.71974042   -3.5962188     2258.198  0.057163781  0.056711574            4 
 3293000   0.72292538   -3.5927401    2253.9357   0.05703856  0.056699876           12 
 3294000   0.71892596   -3.6087929    2246.1244  0.056823628  0.056688133            6 
 3295000   0.72052368   -3.5697071    2255.8878  0.057053308  0.056676366            6 
 3296000   0.73128646   -3.5972288    2250.1762  0.056891592  0.056664658            9 
 3297000   0.72309112   -3.5898604    2248.8114  0.056839839  0.056652991            4 
 3298000   0.71012833   -3.5948006    2244.2877  0.056708301   0.05664123            6 
 3299000   0.71609682   -3.6059529    2248.8295  0.056805837  0.056629387           10 
 3300000   0.71819929   -3.5860257    2253.2767  0.056900926  0.056617614            9 
 3301000   0.72450051   -3.5876006    2249.0643  0.056777349  0.056605905            3 
 3302000   0.73366146   -3.6069139     2254.438   0.05689577  0.056594042            6 
 3303000   0.72337467   -3.5814642    2255.6236  0.056908458  0.056582244            4 
 3304000   0.72185991    -3.603964    2254.5227  0.056863466  0.056570439            5 
 3305000   0.73807002   -3.5709903    2255.8843  0.056880592  0.056558677            5 
 3306000   0.72803859   -3.5822305     2253.892  0.056813168  0.056546978            5 
 3307000    0.7306977   -3.5949876      2249.95  0.056696654  0.056535139            6 
 3308000   0.74425066   -3.6169453    2251.8112  0.056726402  0.056523315            5 
 3309000   0.70060337   -3.5969554    2261.2737  0.056947559  0.056511516           14 
 3310000   0.72853654   -3.5774701    2260.4773  0.056910304  0.056499715            4 
 3311000   0.71105847    -3.604336    2251.0719  0.056656395  0.056487919            3 
 3312000   0.71303577   -3.5753254    2262.4391    0.0569253  0.056476072            6 
 3313000   0.72719815   -3.6000817    2258.4747  0.056808399  0.056464347            4 
 3314000   0.73415676   -3.5676034    2252.7671  0.056647735  0.056452606            6 
 3315000   0.72185343   -3.5949201    2261.7703  0.056856972  0.056440864            4 
 3316000   0.72970912   -3.5991276    2264.1925  0.056900697  0.056429187            8 
 3317000   0.72693587    -3.587637    2256.5703  0.056692048  0.056417391            6 
 3318000   0.73058521   -3.5836268    2254.9507  0.056634286  0.056405596           11 
 3319000   0.72096814   -3.5924465    2258.0972  0.056696225  0.056393863            7 
 3320000   0.72724464   -3.5753994    2260.2115  0.056732216  0.056382155            5 
 3321000   0.71017584   -3.6002348    2260.8825  0.056731972  0.056370369            7 
 3322000   0.73090757   -3.5658267    2262.5845  0.056757588   0.05635866            3 
 3323000   0.71717353   -3.5890765    2261.4366  0.056711722   0.05634706            6 
 3324000    0.7229312   -3.5818343    2260.1794  0.056663141  0.056335509            6 
 3325000   0.72653092   -3.5969795    2260.5753  0.056656022  0.056323914            5 
 3326000   0.73096595   -3.6180652    2263.5591  0.056713749   0.05631232            4 
 3327000   0.71698615   -3.5871676    2265.5727  0.056747136  0.056300645            5 
 3328000   0.71369134   -3.5774279    2261.7334   0.05663395  0.056289109            8 
 3329000   0.71400013   -3.5910508    2263.9474  0.056672359   0.05627752            4 
 3330000    0.7153042   -3.6066593    2270.2686  0.056813528  0.056266055            5 
 3331000    0.7227847   -3.5939611    2263.3409   0.05662316  0.056254537            2 
 3332000   0.72648371    -3.599522    2267.4144  0.056708043  0.056243017            4 
 3333000    0.7208334   -3.6055548    2267.2365  0.056686582  0.056231422            2 
 3334000   0.71077204   -3.6063443     2274.149  0.056842356  0.056219908            4 
 3335000   0.71439315   -3.6005273    2262.5294  0.056534968  0.056208392            5 
 3336000   0.70547991   -3.5831042    2265.4967  0.056592144  0.056196754           10 
 3337000   0.72688866   -3.5830413    2266.6192  0.056603215   0.05618522            4 
 3338000   0.71659246   -3.5842324    2265.8716  0.056567596  0.056173738            3 
 3339000   0.74388201   -3.5801563    2266.0356  0.056554748  0.056162314            6 
 3340000   0.71456596   -3.5993128    2266.9082  0.056559586  0.056150759            5 
 3341000   0.71367527   -3.6176266    2266.0428  0.056521072   0.05613909            8 
 3342000    0.6981831   -3.5842793    2267.9664  0.056552125  0.056127461            3 
 3343000   0.70800499   -3.5948559    2260.7482  0.056355274  0.056115931            6 
 3344000   0.72280335   -3.6183536    2265.5866  0.056458995  0.056104415            9 
 3345000   0.72892135   -3.5734468    2272.8579  0.056623267  0.056092907            6 
 3346000   0.72476623   -3.5877358    2271.6653   0.05657664  0.056081504           12 
 3347000    0.7101147   -3.6119284     2270.668  0.056534907  0.056069927            7 
 3348000   0.71864285   -3.6156848    2266.3393  0.056410277  0.056058363            5 
 3349000   0.70450382    -3.600632     2271.291  0.056516647  0.056046818            4 
 3350000   0.71917143   -3.5874072    2271.3897  0.056502231  0.056035285            8 
 3351000   0.72886641   -3.5840456    2267.7071   0.05639379  0.056023674            6 
 3352000   0.72189969   -3.5827281    2265.8435  0.056330636  0.056012037            3 
 3353000   0.71753775   -3.5994084    2270.9374  0.056440436  0.056000342            5 
 3354000   0.70733557   -3.6123302    2273.9948  0.056499573   0.05598876           11 
 3355000   0.71700413   -3.6062277     2266.044  0.056285246  0.055977025            3 
 3356000   0.70774264   -3.5780728    2263.5792   0.05620727  0.055965393           10 
 3357000   0.72195085   -3.5898649      2265.32  0.056233741  0.055953694           10 
 3358000   0.71147191   -3.5818506    2265.7411  0.056227444  0.055941964            5 
 3359000   0.72284353   -3.6141842    2268.8497  0.056287827  0.055930278            4 
 3360000   0.71049301   -3.5805918    2262.2104  0.056106408  0.055918604            3 
 3361000    0.7049637   -3.5979626    2266.0046  0.056183789  0.055907017            5 
 3362000   0.69890903   -3.6119689    2276.7754  0.056434052  0.055895327            4 
 3363000   0.71934797   -3.6002383    2277.9525  0.056446439  0.055883682            4 
 3364000   0.71927313     -3.59973    2268.1864  0.056187732  0.055872143            6 
 3365000   0.71380245   -3.6211902    2263.3992  0.056052481  0.055860439           10 
 3366000   0.70674665    -3.613415    2260.5526  0.055965355  0.055848715            2 
 3367000   0.70298863    -3.627764     2261.321  0.055967751  0.055837094            7 
 3368000   0.71250206   -3.5868664    2274.8825  0.056286682  0.055825445            4 
 3369000   0.71720207   -3.5912238    2272.4459  0.056209703  0.055813931            3 
 3370000    0.7093878    -3.613568    2271.4349  0.056168024  0.055802429           10 
 3371000    0.7032978   -3.6102988    2279.8144  0.056358509  0.055790932            5 
 3372000   0.71574352   -3.6168304    2267.3983  0.056034952  0.055779342            4 
 3373000    0.7174332   -3.6008656    2271.0057  0.056107464   0.05576787            5 
 3374000   0.71254967   -3.6187916    2267.0183   0.05599235  0.055756264            7 
 3375000   0.73468239   -3.5892839    2281.8032  0.056340821  0.055744734            7 
 3376000   0.71392985   -3.6040365    2267.7213  0.055976532  0.055733223            3 
 3377000   0.71479946   -3.5972747    2278.3682  0.056222688  0.055721662            4 
 3378000   0.70788325   -3.6095685    2275.2293  0.056128608  0.055710093            6 
 3379000   0.71558804   -3.6120416     2275.791   0.05612585  0.055698496           11 
 3380000   0.71800393   -3.6080067    2271.9118  0.056013605  0.055686957            4 
 3381000   0.69741974   -3.6391637    2273.0908  0.056026098  0.055675308            4 
 3382000   0.72981199   -3.6185616    2264.7254  0.055803404  0.055663759            3 
 3383000   0.70375286   -3.6147756    2269.4736  0.055903872  0.055652144            8 
 3384000   0.71086504    -3.598994    2277.8949  0.056094733  0.055640553            7 
 3385000   0.70256781    -3.596789    2276.7366  0.056049645  0.055629017            7 
 3386000   0.70762427   -3.5914712    2276.2801  0.056021857  0.055617403           10 
 3387000   0.70423651   -3.6069975    2277.0117  0.056023317  0.055605903            6 
 3388000    0.6993384   -3.6037409    2274.1898  0.055937373  0.055594455           10 
 3389000   0.70326219   -3.6104287     2284.224  0.056167602  0.055582934            7 
 3390000    0.7134996   -3.6157371    2285.1711  0.056174315  0.055571457            5 
 3391000   0.70909836   -3.5966869    2277.4663  0.055968405  0.055560036            3 
 3392000   0.71586749   -3.6082426    2280.3642  0.056023099   0.05554858            6 
 3393000   0.71962254   -3.6045939    2282.1383  0.056050159  0.055537069            4 
 3394000   0.70734066   -3.6085148    2278.6047  0.055946884  0.055525604            8 
 3395000   0.69813772   -3.6073894    2275.0375  0.055842846   0.05551419            5 
 3396000   0.71360265    -3.576872    2280.5204  0.055960944  0.055502696            4 
 3397000   0.70811003   -3.6139639    2284.9951   0.05605424  0.055491214            7 
 3398000   0.71388455   -3.6078726    2282.2917  0.055971445   0.05547974            9 
 3399000   0.71248437   -3.6154181    2281.5903  0.055937782  0.055468285            5 
 3400000   0.70480916   -3.6285451    2279.2669  0.055864386  0.055456721            7 
 3401000   0.70637645    -3.627391    2281.8802  0.055911993  0.055445086            5 
 3402000   0.70952161   -3.6270592      2278.07  0.055802225  0.055433578            4 
 3403000   0.70950324   -3.6200363    2286.3346  0.055988211  0.055422117            4 
 3404000   0.69417431   -3.6269485     2286.295  0.055970793  0.055410603            5 
 3405000   0.70657512   -3.6243181     2277.062  0.055728389  0.055399173            6 
 3406000   0.69931951   -3.6145613    2286.3984  0.055940458    0.0553877            7 
 3407000   0.71785837   -3.6105269    2289.9348  0.056010537  0.055376225            6 
 3408000   0.70141491   -3.6221385    2283.5085  0.055836965  0.055364789           10 
 3409000   0.70791784   -3.6349307    2282.0476  0.055784874  0.055353239           10 
 3410000   0.68800784   -3.6173354    2280.6625  0.055734665   0.05534176            4 
 3411000   0.69481237   -3.6135299    2273.6031   0.05554586   0.05533026            7 
 3412000   0.72378337   -3.6187251    2281.6357  0.055725764  0.055318744            6 
 3413000   0.71307007   -3.6381893    2285.0265  0.055792229  0.055307332            6 
 3414000   0.71359946   -3.6200614    2283.9863  0.055750496  0.055295922            6 
 3415000   0.69773598   -3.6187958    2284.3194  0.055742299  0.055284483            7 
 3416000   0.71649309   -3.6154139    2282.0861  0.055671499  0.055273082            4 
 3417000   0.70822671   -3.6248766    2287.0184  0.055775494  0.055261488            3 
 3418000   0.69852261   -3.6270895     2290.162   0.05583582  0.055250011            9 
 3419000   0.69625552   -3.6168491     2284.581  0.055683459  0.055238495            3 
 3420000   0.69532344   -3.6058908    2284.1565  0.055656834  0.055227015           12 
 3421000   0.71328353   -3.6092303    2283.9218  0.055634847  0.055215398            4 
 3422000     0.706168   -3.6026899    2289.1447  0.055745779  0.055203863            4 
 3423000   0.70588503   -3.6137351    2288.1255  0.055704682  0.055192442            8 
 3424000   0.70458923   -3.6054105    2278.2922  0.055449091  0.055180979            7 
 3425000   0.69317164   -3.6358203    2282.7196  0.055540623   0.05516943            5 
 3426000   0.70426231   -3.6243991    2286.0201  0.055604693  0.055157934            5 
 3427000   0.70029484    -3.615282    2291.0024   0.05570962  0.055146467            6 
 3428000   0.71964997   -3.6316314    2288.8525  0.055641105   0.05513502            4 
 3429000   0.70058928   -3.6076543    2288.5788  0.055618227  0.055123584            5 
 3430000   0.69743904   -3.6087666    2287.9526  0.055586798  0.055112209            6 
 3431000   0.69747074   -3.6162837    2286.4685  0.055534549  0.055100886            2 
 3432000   0.71027411   -3.6142633    2290.7356  0.055621978  0.055089516            4 
 3433000   0.69886049   -3.5988011     2288.036  0.055540247  0.055078145           12 
 3434000   0.69710863   -3.6341775     2284.975   0.05544979  0.055066727            9 
 3435000   0.69398141   -3.6240172    2281.8144  0.055356972  0.055055215            5 
 3436000   0.70092943   -3.6145967    2291.6187  0.055578644  0.055043795           12 
 3437000   0.69712394   -3.6150796    2283.5313  0.055366388  0.055032364            2 
 3438000   0.70013057   -3.6051111    2295.5249  0.055640996  0.055020832            5 
 3439000   0.70624348   -3.6165548    2294.8984  0.055609636  0.055009486            9 
 3440000   0.69807187   -3.6080572    2289.2033  0.055455506  0.054998133            6 
 3441000    0.7071331   -3.6209546    2294.2973  0.055562756   0.05498674            9 
 3442000    0.7033776   -3.6268722    2285.7782  0.055340358  0.054975389            4 
 3443000   0.69255591   -3.6271349    2291.5221  0.055463309  0.054963988            5 
 3444000   0.70359388   -3.6000494    2289.6607  0.055402166  0.054952644            6 
 3445000   0.70346279   -3.6589446    2286.3836  0.055306811  0.054941189           20 
 3446000    0.6926912   -3.6146173    2293.7643  0.055469247  0.054929686            6 
 3447000   0.71205258   -3.6506587    2282.0757  0.055170576  0.054918154           14 
 3448000   0.71137739   -3.6169142    2293.1312  0.055421771  0.054906705            6 
 3449000   0.69531027   -3.6253638    2292.2113  0.055383476  0.054895264            6 
 3450000   0.69670171   -3.6442331     2288.339  0.055273889  0.054883801           18 
 3451000   0.70227628   -3.6269079    2292.8238   0.05536617  0.054872337            7 
 3452000   0.70320079   -3.6243099    2289.4243  0.055268065  0.054860882            9 
 3453000   0.70360891   -3.6297449    2295.9785  0.055410234  0.054849399            5 
 3454000   0.70947909   -3.6310737    2296.8057   0.05541415  0.054837937            7 
 3455000   0.71003869   -3.6112945    2294.5626  0.055344008  0.054826512            6 
 3456000   0.68753423   -3.6297855    2291.9182  0.055264232   0.05481507            8 
 3457000   0.69361917   -3.6439294    2291.5408  0.055239147  0.054803608            4 
 3458000   0.68133284   -3.6275259    2296.7088  0.055347716  0.054792196            5 
 3459000   0.69199062   -3.6370022     2290.981  0.055193723  0.054780859            7 
 3460000   0.70989863   -3.6526646    2295.9872  0.055298342  0.054769468            5 
 3461000   0.69419994   -3.6250791    2296.3534  0.055291184  0.054758091            3 
 3462000   0.68923526   -3.6319462    2294.1033  0.055221051  0.054746671            2 
 3463000   0.69214935   -3.6346832    2296.1784  0.055255039  0.054735244            3 
 3464000   0.69985398   -3.5996395     2291.956   0.05513751  0.054723794            6 
 3465000   0.70070768   -3.6157602    2300.1072  0.055317633   0.05471229           10 
 3466000   0.69288104   -3.6365735    2293.0444  0.055131861  0.054700783            4 
 3467000    0.7007891   -3.6381248    2292.7273  0.055108337  0.054689324            3 
 3468000   0.71055605   -3.6458327    2300.5027  0.055279284   0.05467799            4 
 3469000   0.70442235   -3.6232668    2298.3404  0.055211406  0.054666618            6 
 3470000   0.69949848   -3.6094788    2300.8363  0.055255435  0.054655219            5 
 3471000   0.69081841   -3.6319123    2295.9466  0.055122121  0.054643846            6 
 3472000   0.67971924   -3.6109583    2305.2578  0.055329728  0.054632514            4 
 3473000   0.70854552   -3.6219372    2293.6205  0.055034565  0.054621189            6 
 3474000   0.69095502   -3.6485187    2289.4916   0.05491968  0.054609745            4 
 3475000   0.69702385   -3.6161673    2295.1641  0.055039907  0.054598354            3 
 3476000   0.69602425   -3.6471012    2296.8605  0.055064743  0.054586918           10 
 3477000   0.69797435   -3.6277894     2298.334  0.055084221   0.05457557            4 
 3478000   0.68313312   -3.6472786    2296.3249  0.055020243  0.054564218            3 
 3479000   0.69823625   -3.6229056    2299.9939  0.055092312  0.054552853            9 
 3480000    0.6845539    -3.645497    2297.7844  0.055023574  0.054541473            5 
 3481000   0.67926975   -3.6432007    2299.2465  0.055042769  0.054530087            7 
 3482000   0.69942449   -3.6460545    2299.7573  0.055039184  0.054518647           12 
 3483000   0.70509506   -3.6314999    2301.7047  0.055069975  0.054507294            4 
 3484000   0.68689453    -3.637077    2294.1559   0.05487361  0.054495898            4 
 3485000   0.71301505   -3.6281343    2300.6057  0.055012092  0.054484581            2 
 3486000   0.70638821   -3.6378579    2295.0641  0.054863839  0.054473214           13 
 3487000   0.69247325   -3.6279978    2298.0862  0.054920327  0.054461813            3 
 3488000   0.70295126   -3.6410454    2297.1315  0.054881773  0.054450368           12 
 3489000    0.6907316   -3.6411432    2296.8758  0.054859936  0.054438892            6 
 3490000   0.69542632   -3.6527718    2298.0123  0.054871353  0.054427374            5 
 3491000     0.677513   -3.6259866    2306.1724  0.055050424  0.054415896            5 
 3492000     0.684556    -3.609881    2306.0664  0.055032131  0.054404524           10 
 3493000    0.6934006   -3.6258899    2304.5938  0.054981244  0.054393149            4 
 3494000   0.68403172   -3.6352834    2298.4452  0.054818861  0.054381791            5 
 3495000   0.67479407   -3.6299836    2296.8472  0.054765074  0.054370398            6 
 3496000   0.69367567   -3.6391168    2298.7498   0.05479476  0.054359093            6 
 3497000   0.68920286   -3.6510231    2296.9367  0.054735885  0.054347679            6 
 3498000   0.68185261   -3.6390996    2302.8131  0.054860231  0.054336261            3 
 3499000   0.67175425   -3.6322192    2292.8321  0.054606844  0.054324825            5 
 3500000   0.69443821   -3.6220648    2299.4527  0.054748874  0.054313461            4 
 3501000    0.7026692   -3.6483282    2295.2542    0.0546333  0.054302088           14 
 3502000   0.69573493   -3.6210067    2304.5788  0.054839586  0.054290715           10 
 3503000   0.70189921   -3.6219698    2311.1087  0.054979273  0.054279457           14 
 3504000   0.69388243   -3.6363863    2305.5417  0.054831185  0.054268156            7 
 3505000   0.70191847    -3.645102    2300.8196  0.054703272  0.054256827            8 
 3506000   0.67783941   -3.6276864    2311.5237  0.054942093  0.054245557            4 
 3507000   0.67922361   -3.6568098    2302.7015  0.054716792  0.054234189            5 
 3508000   0.67863229   -3.6461466    2307.8182  0.054822744  0.054222851            7 
 3509000   0.68035972    -3.684101    2304.7668  0.054734654  0.054211478           15 
 3510000   0.69169163   -3.6488536    2306.7869   0.05476702  0.054200211            6 
 3511000   0.67804269   -3.6620187    2307.0956  0.054758749  0.054188872            3 
 3512000   0.66700292   -3.6504159    2310.7495  0.054829856  0.054177504            6 
 3513000   0.69388816   -3.6311938    2305.3396  0.054685919  0.054166155            5 
 3514000    0.6936109   -3.6152493    2303.1149  0.054617598  0.054154857            8 
 3515000   0.68318745   -3.6499817    2307.2766  0.054700725  0.054143603            7 
 3516000   0.68965587   -3.6536608    2313.4727  0.054832023  0.054132198            5 
 3517000   0.68629848   -3.6222433    2311.1661  0.054761779  0.054120982            6 
 3518000   0.70248717   -3.6476983    2304.1427  0.054579844  0.054109714            4 
 3519000    0.6974589   -3.6398654    2306.9608   0.05463107   0.05409859            7 
 3520000    0.6859161   -3.6528234     2305.969  0.054592069  0.054087423            9 
 3521000   0.68693397   -3.6537454    2305.9618  0.054576394  0.054076153            2 
 3522000   0.69240397   -3.6128588    2314.4499  0.054761733  0.054064924            6 
 3523000   0.69409542   -3.6555795    2309.7193  0.054634292  0.054053825            6 
 3524000   0.67980869   -3.6677578    2308.1947  0.054582736  0.054042651            5 
 3525000   0.66833242   -3.6447404    2310.6177  0.054624533   0.05403148            7 
 3526000   0.68267012   -3.6396351     2310.608  0.054608812   0.05402035            8 
 3527000   0.71095784   -3.6295432    2315.8935   0.05471821  0.054009227            6 
 3528000   0.68192628   -3.6500026    2302.7894  0.054393174  0.053998148            4 
 3529000   0.71075809   -3.6577979    2310.6567  0.054563538  0.053986971            7 
 3530000   0.67717109   -3.6387687    2309.3683  0.054517664  0.053975719            6 
 3531000   0.69500155    -3.632849    2313.9021  0.054609224  0.053964638            5 
 3532000   0.68255043   -3.6467918    2308.1319  0.054457622  0.053953501            7 
 3533000   0.67025355   -3.6532798    2317.4873  0.054662877  0.053942306            5 
 3534000    0.7044104   -3.6297941    2323.0781  0.054779241  0.053931144           11 
 3535000   0.68494898   -3.6603146    2312.0344  0.054503405  0.053919962            4 
 3536000   0.66724043   -3.6370747    2312.1052  0.054489658  0.053908765            6 
 3537000   0.68728123   -3.6577979    2308.0652  0.054379069  0.053897618            3 
 3538000   0.69214692   -3.6251027    2307.4087  0.054348236  0.053886321            5 
 3539000   0.68627538   -3.6426689    2312.8092  0.054460046  0.053875116            6 
 3540000   0.68759664   -3.6590258    2308.4542  0.054342143  0.053863858            9 
 3541000   0.68444068   -3.6531323     2318.493  0.054563046  0.053852596            6 
 3542000   0.69040285   -3.6594067    2312.9128  0.054416356  0.053841328            6 
 3543000   0.67590778   -3.6423565    2316.3289  0.054481345  0.053830094            9 
 3544000   0.67213818   -3.6443568    2312.1284  0.054367202  0.053818808            3 
 3545000   0.69044486   -3.6598944    2311.5915  0.054339245  0.053807549            3 
 3546000   0.68864236   -3.6532424    2314.8048  0.054399435  0.053796267           14 
 3547000   0.67221911   -3.6403596    2310.3799   0.05428014  0.053784937            3 
 3548000    0.6800491   -3.6554233    2311.4148  0.054289149  0.053773726            3 
 3549000   0.69010763   -3.6534383    2310.1533  0.054244231  0.053762494            8 
 3550000   0.67758312   -3.6343358    2313.0602  0.054297189  0.053751343            7 
 3551000    0.6794728   -3.6575068    2316.6303  0.054365678  0.053740085            6 
 3552000   0.68211254   -3.6516557    2317.5272  0.054371416  0.053728914            3 
 3553000    0.6772035    -3.618756    2320.1658  0.054417998  0.053717732            6 
 3554000   0.67982231   -3.6548403    2313.6695  0.054250363  0.053706528            6 
 3555000   0.69101962   -3.6515223    2317.4232  0.054323094  0.053695197            8 
 3556000   0.68227973   -3.6403021    2312.2036    0.0541855  0.053683922           10 
 3557000   0.68765021   -3.6389631    2315.5046  0.054247601  0.053672736            6 
 3558000   0.68389845   -3.6522331    2315.8333  0.054240054  0.053661544           10 
 3559000   0.68298299   -3.6494077    2316.3851  0.054237733   0.05365034            4 
 3560000   0.67538659   -3.6574027    2312.3207  0.054127358  0.053639067            3 
 3561000   0.67539021   -3.6615017    2321.2953  0.054322178  0.053627822            3 
 3562000    0.6850007   -3.6618475    2320.3372  0.054284512  0.053616615            8 
 3563000   0.68388423   -3.6645543    2316.4063  0.054177338  0.053605291           12 
 3564000   0.68621021   -3.6454892    2320.7599  0.054263933   0.05359414            5 
 3565000   0.66900194    -3.651178    2315.3291  0.054121765  0.053582931            7 
 3566000   0.67354739   -3.6613205    2319.6786  0.054208231  0.053571804           14 
 3567000   0.69162554   -3.6300618    2318.1671  0.054157721  0.053560596            4 
 3568000    0.6877096   -3.6680019    2318.2275  0.054143954  0.053549557            6 
 3569000   0.67456957   -3.6567722    2324.7919  0.054282056    0.0535385            7 
 3570000    0.6901044   -3.6642129    2314.2024  0.054019664  0.053527285            6 
 3571000   0.68144154    -3.666133     2320.563  0.054152969  0.053516019           13 
 3572000   0.66740565   -3.6739816    2322.9184  0.054192759  0.053504885            9 
 3573000   0.69334663   -3.6686962    2327.2922  0.054279603  0.053493725            8 
 3574000   0.68252231   -3.6685661    2318.5112  0.054059671  0.053482569            6 
 3575000   0.67718027   -3.6457941    2324.6424  0.054187468  0.053471463           14 
 3576000   0.69516651   -3.6628808    2323.8701  0.054154317  0.053460453            6 
 3577000   0.69209216     -3.63836    2319.3875  0.054034747  0.053449344           15 
 3578000   0.68409946   -3.6532851    2315.7487  0.053934897  0.053438127            7 
 3579000   0.70241385   -3.6603747    2320.4033  0.054028205  0.053426965            3 
 3580000   0.68639763   -3.6352195    2324.1516  0.054100364  0.053415785            9 
 3581000    0.6764908   -3.6634558    2323.5289  0.054070764  0.053404705            7 
 3582000   0.68100666    -3.662878    2321.9337  0.054018559  0.053393551            5 
 3583000    0.6799131   -3.6782354    2322.6614  0.054020406  0.053382434            9 
 3584000    0.6773459   -3.6792515    2321.6053  0.053980779  0.053371339            4 
 3585000   0.70112388   -3.6573504    2321.7548  0.053969196  0.053360213            6 
 3586000   0.68195197   -3.6702773    2324.8944  0.054027106  0.053349137            5 
 3587000   0.68201992   -3.6550239     2327.256  0.054066908  0.053337949           13 
 3588000   0.68181319   -3.6691538    2319.8662  0.053880207  0.053326859            3 
 3589000   0.69047235   -3.6670114    2321.2025  0.053896222  0.053315782            9 
 3590000   0.69896397   -3.6561978     2330.483  0.054096634   0.05330466            4 
 3591000   0.67967935   -3.6773238    2315.1403  0.053725524  0.053293592            5 
 3592000   0.69571345   -3.6728682    2324.1336  0.053919209   0.05328243            4 
 3593000   0.67456065   -3.6657912     2323.658  0.053893172  0.053271319           11 
 3594000   0.68710753   -3.6731339     2323.405   0.05387231  0.053260251            4 
 3595000   0.68887591   -3.6735553    2323.5408  0.053860472  0.053249075            5 
 3596000   0.67536062   -3.6638877    2324.4267  0.053866026  0.053237977            5 
 3597000   0.66265727   -3.6709778    2323.4734  0.053828965  0.053226925            7 
 3598000    0.6695122   -3.6636044    2328.0832  0.053920771  0.053215854            5 
 3599000   0.68509797    -3.671185     2326.327  0.053865123  0.053204791           11 
 3600000   0.68381829   -3.6871134    2327.0266  0.053866356  0.053193688            9 
 3601000   0.67772307   -3.6550919    2327.4109  0.053860291   0.05318256            5 
 3602000    0.6872645   -3.6512261    2319.3764  0.053659459  0.053171492           12 
 3603000   0.66544798   -3.6756422    2325.3844  0.053783523  0.053160325           13 
 3604000   0.66683481   -3.6658192    2328.4564  0.053839632  0.053149248           10 
 3605000   0.67861296   -3.6747926    2332.8768   0.05392688  0.053138242            4 
 3606000   0.66633084    -3.688857    2327.3574  0.053784373  0.053127248            8 
 3607000   0.65859961   -3.6570353    2329.8459  0.053826955  0.053116135            7 
 3608000   0.66418377   -3.6736105    2327.4989  0.053757828  0.053105031            9 
 3609000   0.68471812   -3.6828026    2328.0377  0.053755373  0.053093896            5 
 3610000     0.670792   -3.6543716    2327.8316  0.053735726  0.053082841           13 
 3611000   0.67314245    -3.688392    2332.2095  0.053821875  0.053071759            6 
 3612000   0.68085122   -3.6521026    2329.4638  0.053743629  0.053060657            6 
 3613000    0.6790132   -3.6533367    2332.3719  0.053795827  0.053049622            4 
 3614000   0.66815498   -3.6707436    2325.6772  0.053626571  0.053038519            6 
 3615000   0.68383098   -3.6919001    2334.9333   0.05382511  0.053027338            5 
 3616000   0.67772288   -3.6787196    2325.8608  0.053601143  0.053016138            7 
 3617000   0.67615557   -3.6672612    2325.9074  0.053587397  0.053004964            6 
 3618000   0.65709104   -3.6680736    2323.6997  0.053521737  0.052993792           13 
 3619000   0.67799754   -3.6845754    2322.6936  0.053483779  0.052982617            6 
 3620000   0.68625193   -3.6818611     2327.402  0.053577394   0.05297152           23 
 3621000     0.680832   -3.6760518    2330.9233  0.053643637  0.052960381            8 
 3622000   0.68449568   -3.6647394    2329.2178  0.053589587  0.052949282           11 
 3623000   0.68520302   -3.6537509    2333.5311  0.053674007  0.052938215            8 
 3624000   0.68243508   -3.6647982    2330.4745   0.05358891  0.052927137            5 
 3625000   0.66949899   -3.6532161    2326.5013  0.053482789  0.052916016            6 
 3626000   0.67194912   -3.6647277    2330.5532   0.05356116  0.052905126            6 
 3627000   0.66774821   -3.6813123    2333.3015  0.053609537   0.05289418            7 
 3628000   0.66438135   -3.6811092    2336.9857  0.053679384  0.052883151           10 
 3629000   0.66172352    -3.675709    2334.9372  0.053617554  0.052872137            8 
 3630000   0.66172194   -3.6663835    2339.6903    0.0537119  0.052861113            7 
 3631000   0.67055017   -3.6917297    2331.9338  0.053519091  0.052850021            4 
 3632000   0.67994568   -3.6473706    2337.3907  0.053629558   0.05283895            4 
 3633000   0.68547884   -3.6551526    2334.0184  0.053537444  0.052827998           10 
 3634000   0.66938334   -3.6561795    2329.7162  0.053424056  0.052817032           12 
 3635000   0.67343628   -3.6812297    2335.0453  0.053531529  0.052806042            6 
 3636000   0.67472695    -3.665413    2334.0283  0.053493499  0.052795049            5 
 3637000   0.66009411   -3.6761468    2339.5893  0.053606208  0.052784012            6 
 3638000   0.67368455   -3.6542558    2334.9498  0.053485198  0.052773034           10 
 3639000   0.65964453   -3.6608851    2327.2567  0.053294327  0.052762001            4 
 3640000   0.68258056   -3.6721488    2333.0009  0.053411194  0.052750947            5 
 3641000   0.67021839   -3.6629125    2337.2557  0.053493905  0.052739889            7 
 3642000   0.68048888   -3.6881737    2330.8262  0.053332103   0.05272887            5 
 3643000   0.65935545   -3.6784946    2332.8319  0.053363343  0.052717835            4 
 3644000   0.68556509   -3.6765434    2331.8358  0.053325919   0.05270674            4 
 3645000    0.6664661   -3.6649175    2343.0432  0.053567518  0.052695799            6 
 3646000   0.67083575   -3.6729302    2337.7017  0.053430738  0.052684938            3 
 3647000   0.66402045   -3.6756994    2340.0939  0.053470751  0.052673902            9 
 3648000   0.66402896   -3.6918742    2332.0351     0.053272  0.052662937            5 
 3649000   0.67517228   -3.6738862    2343.5944  0.053521384  0.052651959           13 
 3650000   0.67897349   -3.6531482     2344.167  0.053519794  0.052641069            4 
 3651000   0.67074441   -3.6649774    2336.8505  0.053338137  0.052630096            5 
 3652000   0.65391076    -3.676768     2329.953  0.053166142  0.052619137            6 
 3653000   0.69107655   -3.6775979    2338.4543  0.053345521  0.052608196            8 
 3654000    0.6848419   -3.6993287    2336.4864  0.053286042  0.052597183            5 
 3655000   0.66442771   -3.6547795    2338.3181  0.053313226   0.05258623            5 
 3656000   0.66230154   -3.6756019    2338.4957  0.053302692  0.052575203            5 
 3657000   0.66219485   -3.6889698    2331.9365   0.05313865  0.052564169            8 
 3658000   0.64439823   -3.6788719    2345.5723  0.053434761  0.052553219            5 
 3659000   0.66785089   -3.6842085    2337.8726  0.053244798  0.052542209            3 
 3660000   0.65512425   -3.6971132    2338.0005  0.053233163  0.052531296            5 
 3661000   0.66119157   -3.6955244    2337.8596  0.053215415  0.052520334            6 
 3662000   0.65373401   -3.6983515    2339.9316  0.053248035   0.05250943            8 
 3663000   0.65431053   -3.6770665    2341.1331  0.053260832  0.052498465            5 
 3664000   0.67190208   -3.6731091    2341.6738  0.053258593  0.052487503            6 
 3665000   0.66808631   -3.6934985    2337.1271   0.05314068  0.052476458            7 
 3666000   0.66357193   -3.6965579    2340.7687  0.053208964  0.052465442            4 
 3667000   0.68962598   -3.6907612    2340.1722  0.053180898  0.052454355           12 
 3668000    0.6548169   -3.6778637    2335.9875  0.053071326  0.052443351            3 
 3669000   0.66964222   -3.6818902    2336.9537  0.053078806   0.05243233            4 
 3670000   0.66323706   -3.6809648    2334.8698  0.053017025   0.05242133            3 
 3671000   0.66682464   -3.7113511    2346.3022  0.053262103  0.052410222            5 
 3672000   0.67029002    -3.681091    2335.6854  0.053006658  0.052399213            7 
 3673000   0.66782448    -3.679779     2335.218  0.052981623  0.052388274           12 
 3674000   0.66038614   -3.7053699     2340.871  0.053095423  0.052377268            6 
 3675000   0.65107336   -3.6842394    2340.4367  0.053071126   0.05236633            5 
 3676000   0.67287301   -3.6956033    2341.1443   0.05307273  0.052355328            9 
 3677000   0.65194758   -3.6860758    2338.0496   0.05298816  0.052344393            9 
 3678000   0.65825588   -3.7033622    2347.3287  0.053183993  0.052333437            3 
 3679000   0.67044108   -3.6966816    2342.8084  0.053067147  0.052322501            6 
 3680000   0.66780739   -3.6832713    2338.4952  0.052955054  0.052311493            9 
 3681000   0.66820902   -3.6808371    2340.3048  0.052981636  0.052300507            4 
 3682000   0.66214275   -3.7038838    2336.5859  0.052883077  0.052289537            8 
 3683000   0.65602467   -3.6792624    2343.8714  0.053033564  0.052278457            5 
 3684000   0.67497322   -3.6760594    2348.9439   0.05313391  0.052267449            4 
 3685000   0.65455026   -3.6875094     2343.408    0.0529943  0.052256429            5 
 3686000   0.66857856   -3.6568496    2345.8968  0.053036192  0.052245406            5 
 3687000   0.66233254   -3.7003452    2332.7168  0.052723913  0.052234439            5 
 3688000   0.65414623   -3.6626646    2338.3874  0.052837748  0.052223553            3 
 3689000   0.65463975   -3.6944419    2346.1457  0.052998684  0.052212625            4 
 3690000   0.67689604   -3.6781425    2336.1285  0.052758097    0.0522016           16 
 3691000   0.65035559   -3.6896591    2345.7438  0.052960892   0.05219067            5 
 3692000   0.65548946   -3.6870028    2347.1593  0.052978496  0.052179782            5 
 3693000    0.6541318   -3.6883761    2343.2106  0.052875047  0.052168861            5 
 3694000   0.66464642   -3.6982575     2341.671  0.052826001   0.05215793            8 
 3695000   0.66805032   -3.6716336    2347.8782  0.052951697  0.052146982            5 
 3696000   0.65683074   -3.7114182    2349.3286  0.052970072  0.052136051            7 
 3697000   0.66101612   -3.6826908     2344.372  0.052844018  0.052125002            5 
 3698000   0.65497901    -3.708088    2347.8315  0.052907687  0.052114038            3 
 3699000   0.66456208   -3.6881415    2348.0611  0.052898555  0.052103051            7 
 3700000   0.67044871    -3.696648    2344.6703  0.052807889  0.052092111            7 
 3701000    0.6636528   -3.6934508     2338.391  0.052652234  0.052081219            6 
 3702000   0.66452935   -3.7063891    2345.4335   0.05279654  0.052070212           14 
 3703000   0.67346445   -3.6810197    2347.6088  0.052831236  0.052059245            5 
 3704000   0.64932041   -3.6898707    2349.9304  0.052869205   0.05204839            4 
 3705000   0.67239421   -3.6998956    2345.6166  0.052757907  0.052037434            8 
 3706000   0.65375457   -3.6805122    2339.4618  0.052605275  0.052026484            6 
 3707000   0.66980552   -3.6991848    2345.5088   0.05272702  0.052015452            8 
 3708000   0.65064182   -3.7096635    2342.2839  0.052640325  0.052004412            6 
 3709000     0.657844   -3.6979222     2339.504  0.052563674  0.051993383           12 
 3710000   0.66162303   -3.6836461    2343.3362  0.052635584  0.051982383            4 
 3711000   0.64541235   -3.7389593    2341.6287  0.052583056  0.051971257           24 
 3712000   0.66716044   -3.6989866    2345.9438  0.052665765  0.051960275            5 
 3713000    0.6689296   -3.6898209    2351.8917  0.052785073  0.051949413            7 
 3714000   0.66086443   -3.7162362    2337.5842  0.052449833  0.051938457           12 
 3715000   0.66449338   -3.7171041    2345.7507  0.052618904  0.051927448           12 
 3716000   0.65803979   -3.6996906    2344.1706  0.052569308  0.051916475            3 
 3717000   0.66071635   -3.6813054    2345.7411  0.052590376   0.05190555            5 
 3718000    0.6428331   -3.7018339    2344.5061   0.05254855  0.051894578            6 
 3719000   0.65113931   -3.6713456    2349.7406  0.052651712  0.051883644            7 
 3720000   0.65889951   -3.6967257    2348.0566  0.052599835  0.051872779           14 
 3721000   0.64238182   -3.7096152    2346.0631  0.052541052  0.051861843            4 
 3722000   0.66910912   -3.7032405    2351.4895  0.052648429  0.051850975            5 
 3723000   0.64835857   -3.7055385    2355.6847  0.052728192  0.051840045            6 
 3724000   0.66356846   -3.6933195    2353.5126  0.052665428  0.051829073           10 
 3725000   0.65173746   -3.6769606    2346.3233  0.052490454   0.05181819            3 
 3726000   0.65053728   -3.7052317    2350.5334  0.052570526  0.051807315           12 
 3727000   0.67097195   -3.7013165    2351.3263  0.052574151  0.051796424           10 
 3728000   0.64579409   -3.7049884     2356.863  0.052683811  0.051785477           18 
 3729000   0.65619474   -3.7245181    2348.4049  0.052480668   0.05177453           11 
 3730000   0.66919199   -3.6923718    2351.0686  0.052526108  0.051763688            4 
 3731000   0.65420712   -3.7112908    2351.8626  0.052529764   0.05175287            6 
 3732000   0.66176593   -3.6927828    2350.9752  0.052495873  0.051741922            8 
 3733000   0.64578905   -3.7096684    2348.0743  0.052417052  0.051731025           13 
 3734000   0.65857244   -3.7062195    2349.6821  0.052438898  0.051720167            7 
 3735000   0.65677419   -3.7069659    2352.5018  0.052487769   0.05170917            5 
 3736000   0.65936605     -3.71027    2354.5322  0.052519008  0.051698236            7 
 3737000    0.6574627   -3.6908786    2351.5885  0.052439313  0.051687372            6 
 3738000   0.65302374   -3.7083346    2346.2382  0.052306006  0.051676425            6 
 3739000   0.64545104   -3.7169668    2355.4828  0.052498057  0.051665531           11 
 3740000    0.6669434   -3.7127509    2358.9823  0.052561994  0.051654727            5 
 3741000   0.63406536    -3.722952    2355.1534  0.052462653  0.051643786           10 
 3742000   0.64838135   -3.7048013    2352.7623  0.052395383  0.051632894            5 
 3743000   0.64490582   -3.7049449    2353.3025  0.052393413  0.051622036            9 
 3744000   0.65632388   -3.6929779    2364.4931  0.052628496  0.051611252            8 
 3745000   0.65142817   -3.7095155    2352.1763  0.052340371  0.051600494            3 
 3746000   0.65670356   -3.7104675    2352.0385  0.052323333  0.051589651            7 
 3747000   0.65663609     -3.70361    2350.9827  0.052285889  0.051578855            9 
 3748000   0.63907155   -3.6814156    2347.5456  0.052195518  0.051567987           11 
 3749000   0.65565253   -3.7123347    2351.5541  0.052270697  0.051557148            4 
 3750000   0.66083255   -3.7041107    2352.1642  0.052270315  0.051546268            4 
 3751000   0.65121798   -3.7007331    2360.4442  0.052440331   0.05153546            7 
 3752000   0.64689701   -3.7180595     2352.713  0.052254641  0.051524646            6 
 3753000   0.64989377   -3.7072984    2356.0155   0.05231405  0.051513826            4 
 3754000   0.64789792   -3.6835282    2356.0556  0.052301003  0.051502951            5 
 3755000   0.65102249   -3.7185362    2352.6976  0.052212552  0.051492142           12 
 3756000   0.66358603   -3.6942823     2359.474  0.052348997   0.05148138            7 
 3757000   0.63512595   -3.6916249    2354.6595  0.052228274  0.051470545           11 
 3758000   0.64278601   -3.7190195    2357.8943  0.052286108   0.05145973            5 
 3759000   0.64747349   -3.7044019    2350.7635  0.052114116  0.051448897            4 
 3760000   0.65860071   -3.6988632    2357.2421   0.05224384  0.051438157            6 
 3761000   0.65281164   -3.7246773    2351.9715  0.052113168  0.051427426            7 
 3762000   0.64926744   -3.7090237    2357.3239  0.052217879  0.051416644            4 
 3763000   0.65674631   -3.7211575    2350.2401  0.052047127   0.05140585            6 
 3764000   0.65449627    -3.699596    2361.3097  0.052278377  0.051395113            6 
 3765000   0.63707476    -3.694936    2359.5546  0.052225644  0.051384393            4 
 3766000   0.66115377   -3.7313108    2352.9719  0.052066117  0.051373594            7 
 3767000   0.62857145   -3.6989715    2360.9945  0.052229768  0.051362801           12 
 3768000    0.6390121   -3.6952513    2361.7819  0.052233323  0.051352022            5 
 3769000   0.65325404   -3.7260199    2357.2683  0.052119666  0.051341291            6 
 3770000   0.64815352    -3.706918    2363.0826  0.052234364  0.051330564           12 
 3771000   0.64907694   -3.7137055    2352.6407  0.051989761  0.051319801            8 
 3772000   0.64594046   -3.7206995    2360.9854  0.052160335  0.051308986            6 
 3773000    0.6419413   -3.7173767    2360.6896  0.052139977  0.051298093           11 
 3774000   0.65034425   -3.7034191    2361.0198  0.052133452  0.051287304            6 
 3775000   0.63822188   -3.7066535    2356.7112   0.05202453  0.051276522            6 
 3776000   0.64315026   -3.7221064    2358.4878  0.052049961  0.051265706            5 
 3777000   0.63249615   -3.7066871    2362.3788  0.052122029  0.051254832            6 
 3778000   0.65000428   -3.7159412    2357.1226  0.051992294  0.051243967            6 
 3779000   0.65046134   -3.7265535    2357.5303  0.051987525  0.051233135            6 
 3780000   0.64423994   -3.7140387    2364.8777  0.052135752  0.051222305            4 
 3781000   0.65191488   -3.7209554     2358.115  0.051972913  0.051211508           13 
 3782000   0.66481796   -3.7174642     2359.914   0.05199881  0.051200703            9 
 3783000   0.64766096   -3.7045128     2354.148  0.051858048  0.051189856            4 
 3784000   0.65472756   -3.6993838    2359.1861  0.051955297  0.051178995            6 
 3785000   0.63674598   -3.7050132    2363.7541  0.052042142  0.051168215            9 
 3786000   0.65194152   -3.7145493    2364.8256  0.052051981   0.05115744            4 
 3787000   0.64987995   -3.7300011     2358.513  0.051899327   0.05114657            5 
 3788000   0.64286392   -3.7103635    2366.7903  0.052067721  0.051135812            6 
 3789000    0.6422525   -3.7149565    2362.9985  0.051970584  0.051125088            9 
 3790000   0.63075226   -3.7207337    2366.2248  0.052027809  0.051114286            4 
 3791000   0.64652783   -3.7130672    2364.8517  0.051983902  0.051103594            9 
 3792000   0.64875287   -3.7353852    2364.3991  0.051960248  0.051092856            9 
 3793000   0.65609137   -3.7488124    2358.8771  0.051825228  0.051082079            6 
 3794000   0.63381715   -3.7397852    2356.2141  0.051753078   0.05107119            3 
 3795000    0.6609096   -3.7263481    2364.2363  0.051915596  0.051060389            5 
 3796000    0.6445461     -3.72867     2356.889  0.051740627    0.0510496            3 
 3797000   0.64099701   -3.7240458    2365.9004  0.051924773  0.051038757            7 
 3798000   0.64939338    -3.703961    2363.8261   0.05186559   0.05102803            8 
 3799000    0.6586933   -3.7252397      2356.33  0.051687504  0.051017307            7 
 3800000   0.63568488   -3.7071776    2366.2877  0.051892273  0.051006544           11 
 3801000   0.63391385   -3.7078322    2359.7762  0.051735864  0.050995817            5 
 3802000   0.62040879   -3.7101773    2361.6861  0.051764117     0.050985            6 
 3803000   0.64240332   -3.7075508    2367.8503  0.051885578  0.050974295            7 
 3804000   0.65153231   -3.7037183    2363.8053  0.051783327  0.050963552            8 
 3805000   0.63709726   -3.7202292    2369.1112  0.051885923  0.050952808           10 
 3806000   0.64249773   -3.7211827    2361.6843  0.051709676  0.050942055            6 
 3807000   0.64362794   -3.7135993    2359.7875  0.051654574  0.050931235            6 
 3808000   0.63497757   -3.7428226    2366.6479  0.051791139  0.050920515           14 
 3809000   0.64034257    -3.730718    2363.8246  0.051715774   0.05090972            6 
 3810000   0.64040673   -3.7005028    2370.1563  0.051840689  0.050898965           11 
 3811000    0.6463788   -3.7248753    2362.6419  0.051662772  0.050888244            4 
 3812000   0.64176511   -3.7337224    2366.7011  0.051737956  0.050877595            5 
 3813000   0.64352162   -3.7183253    2362.2874  0.051627926  0.050866881           10 
 3814000   0.65315738   -3.7308361    2370.4377  0.051792469  0.050856201            2 
 3815000   0.65151196   -3.7299449    2362.9307  0.051614913  0.050845453           12 
 3816000    0.6375751   -3.7255367    2369.6919  0.051749036  0.050834793           10 
 3817000   0.65618506   -3.7076765    2372.0072  0.051786028  0.050824069            5 
 3818000     0.633852   -3.7168362    2368.1827  0.051688989   0.05081336            4 
 3819000   0.64406976   -3.7354081    2365.6354   0.05161987  0.050802636            6 
 3820000   0.63784985   -3.7236995    2373.2939  0.051773426  0.050791909            7 
 3821000   0.63276793   -3.7363161    2374.0863  0.051777159  0.050781122           11 
 3822000   0.64276656   -3.7257241    2367.0015  0.051609137  0.050770342            5 
 3823000   0.63490979   -3.7258466    2370.6034  0.051674152  0.050759641            7 
 3824000   0.64129817   -3.7146546    2365.3185   0.05154547  0.050748892            8 
 3825000   0.63621175   -3.7494719    2362.4379  0.051469235  0.050738203            9 
 3826000   0.64457565    -3.722407    2358.1151  0.051361629  0.050727394           12 
 3827000   0.63906664   -3.7366744    2359.9303  0.051387734  0.050716633            3 
 3828000   0.65446166   -3.7215885    2369.0104  0.051571978  0.050705895            4 
 3829000   0.64686341   -3.7222321    2368.8287  0.051554555  0.050695185            9 
 3830000   0.64644861   -3.7271915     2368.793  0.051540318  0.050684524           10 
 3831000   0.63438473   -3.7265056     2371.524  0.051586269  0.050673811            6 
 3832000   0.64030798   -3.7365599    2367.7922  0.051491653  0.050663062            7 
 3833000   0.63614517   -3.7370379    2375.7897  0.051652094  0.050652368           18 
 3834000   0.64223228   -3.7373272    2373.6426  0.051591953  0.050641568            6 
 3835000   0.62960416    -3.756832    2363.2104  0.051351813  0.050630798            5 
 3836000   0.64001756   -3.7215759    2363.5658  0.051346147  0.050620027           12 
 3837000   0.65350366   -3.7459751    2356.3618  0.051176306  0.050609178           12 
 3838000   0.64115157    -3.727049    2364.9471  0.051349382  0.050598382            7 
 3839000   0.63635768   -3.7150949    2366.9222   0.05137888  0.050587631            7 
 3840000   0.62496184   -3.7269482    2369.8403  0.051428827  0.050576821           10 
 3841000    0.6425671   -3.7526534    2364.9866  0.051310131   0.05056597            7 
 3842000   0.65028219   -3.7304541    2371.7325  0.051443096  0.050555116           17 
 3843000   0.64037714    -3.726026    2365.8722  0.051302633  0.050544247            9 
 3844000    0.6539624   -3.7169254     2361.515  0.051194827  0.050533475            6 
 3845000   0.63017264   -3.7242403    2365.5034  0.051267954  0.050522625            7 
 3846000   0.62780935     -3.74055    2368.5317  0.051320241  0.050511803           16 
 3847000   0.64372989   -3.6895794    2371.1667  0.051363978  0.050501019            8 
 3848000   0.64165934   -3.7287272    2370.7852  0.051342368  0.050490272           12 
 3849000   0.62550911   -3.7204737    2366.7588  0.051241855  0.050479406            8 
 3850000   0.63910302   -3.7629791    2362.5066  0.051136507  0.050468469           15 
 3851000    0.6355172   -3.7156431    2369.6628  0.051278085   0.05045757           15 
 3852000   0.63289047   -3.7365925    2366.4471  0.051195204  0.050446647            4 
 3853000   0.63905809   -3.7275174    2372.1184  0.051304576  0.050435821            8 
 3854000   0.62253086   -3.7320841    2366.6107  0.051172174  0.050424921            7 
 3855000   0.63430088   -3.7485677    2362.9524  0.051079818  0.050414048            5 
 3856000   0.62909597   -3.7507678    2358.3318  0.050966715  0.050403245            5 
 3857000   0.63636097   -3.7264072    2365.3561  0.051105265  0.050392371            4 
 3858000   0.63362652   -3.7281196    2363.7851  0.051058084  0.050381518            4 
 3859000   0.64347247   -3.7322427    2374.5388  0.051277075  0.050370655            5 
 3860000   0.63939054   -3.7600589    2363.7141  0.051030097   0.05035978           12 
 3861000   0.63930113   -3.7555791    2363.9898  0.051022831  0.050348823            9 
 3862000   0.63778279   -3.7439457    2372.7414   0.05119846  0.050337956            7 
 3863000   0.63569148    -3.757857    2363.9199  0.050994907  0.050327036            6 
 3864000   0.63245699   -3.7347428    2372.1281  0.051158733  0.050316145            9 
 3865000   0.64076784   -3.7204783     2373.705  0.051179495  0.050305345           20 
 3866000   0.63192271   -3.7627177    2365.1388  0.050981609  0.050294523            5 
 3867000   0.62992315   -3.7520638    2365.2191  0.050970156  0.050283675            6 
 3868000   0.61985651   -3.7482929    2371.7986  0.051098729  0.050272826            9 
 3869000   0.62498181   -3.7126399    2365.4087  0.050947891  0.050261998            8 
 3870000   0.63735324   -3.6982685    2369.9934  0.051033449  0.050251224            6 
 3871000    0.6303332    -3.740804    2361.8683  0.050845352  0.050240384            6 
 3872000   0.63081071   -3.7387853     2371.616   0.05104201   0.05022952            9 
 3873000   0.63925582   -3.7394506    2371.7453  0.051031614  0.050218658            5 
 3874000    0.6319743   -3.7488123    2365.5105  0.050884324  0.050207794            7 
 3875000   0.61608333   -3.7315791    2369.4513  0.050955941  0.050196984            7 
 3876000   0.63094403   -3.7383814    2377.6245  0.051118517  0.050186186           10 
 3877000   0.62113096   -3.7455323    2372.1802  0.050988312  0.050175429            3 
 3878000   0.63094225   -3.7339637    2373.2899  0.050999009   0.05016465            6 
 3879000   0.61315851   -3.7640206    2372.7922  0.050975169  0.050153825            8 
 3880000   0.63710585    -3.761713    2378.8911  0.051093022  0.050143029            8 
 3881000   0.63469913   -3.7423458    2370.8089  0.050906315  0.050132283           10 
 3882000   0.64042914   -3.7432363     2364.856  0.050765412  0.050121588           12 
 3883000   0.61661239   -3.7324606    2378.5258  0.051045708  0.050110838            7 
 3884000   0.62365486   -3.7445304     2373.047  0.050915015  0.050100129           15 
 3885000   0.63317263   -3.7456572    2369.9432  0.050835332  0.050089409            8 
 3886000   0.62060806   -3.7418515    2374.6514  0.050923216  0.050078664            8 
 3887000   0.62977227   -3.7395634    2373.1799  0.050878568  0.050067876            4 
 3888000   0.62946178   -3.7442641    2369.1578  0.050779273  0.050057051            7 
 3889000   0.63710291   -3.7466849    2366.9558  0.050719031  0.050046238            5 
 3890000   0.63708212   -3.7512671    2370.2912  0.050777447  0.050035432           10 
 3891000   0.64166217   -3.7598035    2374.7086  0.050859004  0.050024546           14 
 3892000   0.63666872   -3.7662544    2370.4385  0.050754507  0.050013748            6 
 3893000    0.6400665    -3.739545    2374.1092  0.050820044  0.050002971            7 
 3894000   0.62896666   -3.7389761    2371.8717  0.050759111  0.049992107            4 
 3895000   0.61756572    -3.749228    2371.7826  0.050744173  0.049981285            5 
 3896000   0.60911661   -3.7385989    2381.8196  0.050945834  0.049970437            7 
 3897000   0.63671904   -3.7505176     2367.678  0.050630357  0.049959544           11 
 3898000   0.63781035   -3.7461315    2373.3208  0.050738002  0.049948761            7 
 3899000   0.62541595   -3.7637224    2369.2403  0.050637777   0.04993797            7 
 3900000   0.63169777   -3.7415575    2375.2928   0.05075412  0.049927185            3 
 3901000   0.64458192   -3.7319484    2372.3697  0.050678666   0.04991644           15 
 3902000   0.61802698   -3.7589622    2365.8702  0.050526871  0.049905649           14 
 3903000   0.62603211   -3.7406025    2375.8815  0.050727678  0.049894954            6 
 3904000    0.6104963   -3.7488212    2377.7463  0.050754488  0.049884231            7 
 3905000   0.63212595   -3.7395632    2379.9335  0.050788167  0.049873452           13 
 3906000   0.63167776   -3.7741214    2371.7463  0.050600493  0.049862704            6 
 3907000   0.62578054   -3.7439825    2383.3926  0.050835948  0.049851974            6 
 3908000   0.61276303   -3.7482648    2376.3336  0.050672416  0.049841294           11 
 3909000   0.61924883   -3.7532792    2384.3483  0.050830312  0.049830489            9 
 3910000   0.62943822   -3.7684817    2377.2471  0.050665965  0.049819768           18 
 3911000   0.62563685   -3.7371205    2370.5634  0.050510599   0.04980895            9 
 3912000   0.62305165   -3.7613557    2374.0201  0.050571322  0.049798196            7 
 3913000   0.62253459   -3.7453895    2373.9074  0.050555997  0.049787396           10 
 3914000   0.62356576    -3.755549     2379.071  0.050653019  0.049776679            9 
 3915000   0.62538853   -3.7456688    2371.3452  0.050475633  0.049765923            7 
 3916000   0.62518084   -3.7426333    2378.0815  0.050606092  0.049755174           16 
 3917000   0.60745752   -3.7684953    2378.0124  0.050591704  0.049744374           15 
 3918000   0.61723355   -3.7519584    2375.2247  0.050519497  0.049733595           17 
 3919000   0.61876662   -3.7382317    2374.2282  0.050485417  0.049722836            9 
 3920000   0.61725744   -3.7539815    2375.1984  0.050493163   0.04971205            4 
 3921000   0.62270906   -3.7513151    2374.2142  0.050459369   0.04970127           12 
 3922000   0.63005302   -3.7586542    2377.0944    0.0505077  0.049690508            6 
 3923000   0.63298872   -3.7556973    2372.5023  0.050397278  0.049679668            9 
 3924000   0.63410793    -3.772479    2371.1916    0.0503566  0.049668839            4 
 3925000   0.61975083   -3.7610179    2378.8478  0.050506323  0.049658061            7 
 3926000   0.61433692    -3.751937    2378.8255  0.050492984  0.049647274            8 
 3927000   0.61570355   -3.7428236    2376.1726  0.050423832  0.049636471           23 
 3928000   0.61357122   -3.7578399    2375.7287  0.050401576  0.049625696           13 
 3929000   0.61998928   -3.7486802    2366.4109   0.05019112  0.049614872            8 
 3930000   0.62288102   -3.7354681    2379.8597  0.050463523  0.049604069            6 
 3931000   0.62967719   -3.7552873     2376.197   0.05037304  0.049593273            8 
 3932000   0.63409028   -3.7565884    2373.0238  0.050292977  0.049582544            5 
 3933000   0.59845212    -3.750733    2378.7578  0.050401682  0.049571755            9 
 3934000   0.62512988   -3.7557683    2376.9543  0.050350667  0.049561009            3 
 3935000   0.62426482   -3.7429305    2386.3604  0.050537069  0.049550224            6 
 3936000   0.60568991   -3.7412719    2378.9553  0.050367448  0.049539483            9 
 3937000   0.62056313   -3.7591097    2374.7753  0.050266178  0.049528678            6 
 3938000   0.62182415    -3.761847    2373.9236   0.05023539  0.049517844            8 
 3939000     0.620427   -3.7491165    2380.0202  0.050351615  0.049507118           12 
 3940000   0.62005525   -3.7482128    2380.9657  0.050358834  0.049496408            4 
 3941000   0.61992761   -3.7538925    2378.2752  0.050289166   0.04948572            8 
 3942000   0.61675906   -3.7584313    2382.5637  0.050367067  0.049474973           12 
 3943000   0.62170303   -3.7586399    2373.9594  0.050172445  0.049464248           10 
 3944000   0.61726554   -3.7649486     2378.798  0.050261958   0.04945342           13 
 3945000   0.63403905   -3.7325712    2382.9322  0.050336548  0.049442661           10 
 3946000   0.60834424   -3.7601508    2381.1109  0.050285329  0.049431976            7 
 3947000   0.60819193   -3.7491557      2381.97  0.050290728  0.049421224           10 
 3948000   0.61676268   -3.7657449    2381.8186  0.050274793  0.049410406            8 
 3949000   0.61468454   -3.7466285    2385.6567  0.050343055  0.049399611            8 
 3950000   0.62321829   -3.7413511    2379.5298   0.05020105  0.049388879            8 
 3951000   0.61193236   -3.7751949    2380.4018  0.050206738  0.049378131            5 
 3952000   0.62009419   -3.7570225    2384.8231  0.050287263  0.049367429           11 
 3953000   0.61709481   -3.7568387    2378.3115  0.050137269  0.049356641            6 
 3954000   0.62635602   -3.7755302    2372.5902  0.050004009  0.049345789            9 
 3955000   0.59783315   -3.7528788    2377.9934  0.050105212  0.049334939           18 
 3956000   0.60410384   -3.7536322    2381.4182   0.05016469  0.049324165            8 
 3957000   0.60983665   -3.7746463     2379.136  0.050103951  0.049313407            6 
 3958000   0.61803399   -3.7535332    2379.4136  0.050097137  0.049302618           10 
 3959000   0.61219044   -3.7600726    2375.8702  0.050009898  0.049291818           16 
 3960000   0.61600949   -3.7737671    2375.5347  0.049990209  0.049281022            9 
 3961000   0.62149485   -3.7807589    2377.3546  0.050015877  0.049270103            8 
 3962000   0.62493769   -3.7649797    2379.0611  0.050039145  0.049259193           13 
 3963000   0.61853406   -3.7646356     2379.715  0.050040268  0.049248357            8 
 3964000   0.62990259   -3.7593067    2377.6048  0.049983282  0.049237474           12 
 3965000   0.61517339    -3.764631    2377.0827  0.049959703  0.049226654            8 
 3966000   0.60713802   -3.7512551    2373.9622   0.04988154   0.04921589            5 
 3967000   0.62233256   -3.7700099    2376.7346  0.049927204  0.049205108           14 
 3968000   0.62434424   -3.7590844    2379.8801  0.049980682  0.049194267            9 
 3969000   0.62049731   -3.7935267    2372.2436  0.049807753  0.049183378           15 
 3970000   0.62918977   -3.7442265    2382.9995  0.050020981  0.049172526            8 
 3971000    0.6128759   -3.7663402    2383.3764  0.050016292  0.049161722           10 
 3972000   0.61978542   -3.7670861    2375.3887  0.049836118  0.049150888           12 
 3973000   0.60696823   -3.7667902    2374.0632  0.049795772  0.049140115            7 
 3974000   0.62102543   -3.7653436    2382.6146   0.04996256  0.049129271            6 
 3975000   0.61088749   -3.7753201     2378.819  0.049870419  0.049118469            7 
 3976000   0.61367247   -3.7554114    2378.9909   0.04986148  0.049107705            7 
 3977000   0.60904976   -3.7732486    2378.0579  0.049829392  0.049096911           14 
 3978000   0.61631591   -3.7551831    2377.8621  0.049812765  0.049086041            6 
 3979000   0.60533709   -3.7725287    2381.4948  0.049876326  0.049075234           11 
 3980000   0.62737273   -3.7786946    2376.3641  0.049756368  0.049064408           11 
 3981000   0.61074851   -3.7659659    2378.8931  0.049796807  0.049053497           10 
 3982000   0.60750613   -3.7515057    2379.0649  0.049787897   0.04904261            5 
 3983000    0.6040728    -3.764085    2377.5383  0.049743458  0.049031735            5 
 3984000   0.61800047   -3.7815288    2377.1492  0.049722834  0.049020889           15 
 3985000   0.60786778   -3.7562744    2385.9503  0.049894403  0.049010005            4 
 3986000   0.62295977   -3.7565339     2382.113   0.04980166  0.048999165            8 
 3987000   0.60674866   -3.7761162    2379.6514  0.049737719  0.048988372           15 
 3988000   0.61610625   -3.7822356    2376.7971  0.049665602   0.04897749            6 
 3989000   0.62325416   -3.7652835    2374.5278  0.049605746   0.04896658           12 
 3990000   0.60811673   -3.7862115    2376.7346  0.049639404   0.04895574            6 
 3991000   0.62555922   -3.7875229    2374.0516  0.049570942  0.048944797           12 
 3992000   0.61341103   -3.7779884    2379.3578  0.049669292  0.048933904           11 
 3993000   0.60783567   -3.7734138    2382.6908  0.049726413  0.048922958            9 
 3994000      0.61152   -3.7761889    2380.7809  0.049674114  0.048912056           12 
 3995000   0.60857331   -3.7778824    2375.7345  0.049556414   0.04890107           17 
 3996000   0.60754173   -3.7742345     2378.474  0.049601143  0.048890146            6 
 3997000   0.61609153   -3.7629813    2384.4499  0.049713324  0.048879242           13 
 3998000   0.61827593   -3.7632685    2382.7158  0.049664745  0.048868358            6 
 3999000   0.61909656   -3.7728633     2375.774  0.049507669  0.048857484            6 
 4000000   0.61457065   -3.7796282    2375.9719  0.049499415  0.048846513           13 
 4001000   0.62634478   -3.7648807    2374.0313  0.049446623  0.048835608           11 
 4002000   0.60962708   -3.7686295    2378.6699  0.049530857  0.048824681           13 
 4003000   0.61834895   -3.7686668    2376.6574  0.049476589  0.048813753           12 
 4004000    0.6004428   -3.7661272    2385.0641  0.049639197  0.048802871           14 
 4005000   0.61035057   -3.7927765    2371.7703  0.049350194  0.048791911            7 
 4006000   0.59929741   -3.7798042    2377.5334   0.04945776  0.048780968           13 
 4007000   0.61685056   -3.7928999     2377.716  0.049449213  0.048770084           21 
 4008000   0.61505184   -3.7839224    2380.3379   0.04949139  0.048759167           14 
 4009000   0.61219552   -3.7597668    2380.5944  0.049484377  0.048748289            8 
 4010000   0.61653887   -3.7986847     2377.761  0.049413155  0.048737359            6 
 4011000   0.60898679   -3.8006256    2379.0072  0.049426726  0.048726441           13 
 4012000   0.60748004   -3.7927819    2383.5733   0.04950925  0.048715475            6 
 4013000   0.59842351    -3.798884    2377.2021  0.049364609  0.048704492           11 
 4014000   0.59871893   -3.7812638     2374.457   0.04929532  0.048693494           15 
 4015000   0.61508217   -3.7903269    2375.5749  0.049306246  0.048682593            6 
 4016000   0.62493986   -3.7874709    2378.2137  0.049348725  0.048671703            7 
 4017000   0.61929432   -3.7705643    2375.8095  0.049286563  0.048660813           15 
 4018000   0.61647956   -3.7898352    2378.0557  0.049320883  0.048649911           13 
 4019000   0.60186095    -3.771337    2375.9717  0.049265399  0.048638921            7 
 4020000    0.6083221   -3.8036899     2377.958   0.04929432  0.048627982            9 
 4021000   0.60301004   -3.7966681    2380.1958  0.049328437  0.048617088           15 
 4022000   0.59980296   -3.7876384    2380.8182  0.049329069  0.048606185           12 
 4023000   0.59064963   -3.7783597    2380.9029  0.049318562  0.048595326           12 
 4024000   0.62184229   -3.7966474    2382.1516  0.049332164  0.048584516           19 
 4025000   0.60416318   -3.7904768    2382.5013   0.04932715  0.048573679            9 
 4026000   0.60476764   -3.7876327    2382.6298  0.049317556  0.048562801            5 
 4027000   0.60282958   -3.8013766    2381.1035  0.049273725  0.048551897           12 
 4028000   0.59419464   -3.8125161     2376.688  0.049170141  0.048541009            6 
 4029000   0.61585389   -3.7860249    2383.0555   0.04928964  0.048530133            8 
 4030000    0.6116218   -3.8055257    2382.0465  0.049256544  0.048519188            4 
 4031000   0.61162848   -3.7979284     2377.659  0.049153622  0.048508307           16 
 4032000   0.61592776   -3.7945458    2384.1911  0.049276437  0.048497463            8 
 4033000   0.61639464   -3.7830881    2377.1367  0.049118455  0.048486601            6 
 4034000    0.5916916   -3.7786098    2375.2473  0.049067247  0.048475751           10 
 4035000   0.61250122   -3.7959369    2384.9317  0.049255094  0.048464881           21 
 4036000   0.61824989   -3.7894952    2379.8295  0.049137543  0.048454002            5 
 4037000   0.59919784   -3.7866181     2375.728  0.049040707  0.048443145            5 
 4038000   0.61898055   -3.7982469    2381.2874  0.049143293  0.048432268           10 
 4039000   0.60055998   -3.7820143    2381.9185  0.049144147  0.048421395            6 
 4040000   0.61508281   -3.8006086    2379.9012  0.049090372  0.048410513            5 
 4041000   0.61151453   -3.7965327    2379.6632  0.049073314  0.048399649            5 
 4042000    0.6076106   -3.7848109    2381.0608  0.049089989  0.048388829            7 
 4043000    0.6028687   -3.7919171    2384.8313  0.049155562  0.048377965           11 
 4044000   0.59936224   -3.7831159    2382.6941  0.049099367  0.048367129            5 
 4045000    0.6073272   -3.7880807    2378.6667  0.049004257  0.048356247           17 
 4046000     0.593876   -3.7900317    2384.3018  0.049108211  0.048345395           19 
 4047000   0.59709684   -3.8022736    2379.2685  0.048992432  0.048334552            3 
 4048000   0.60320066   -3.7876534    2387.5554  0.049150927  0.048323707           10 
 4049000   0.60625644   -3.7776141    2383.9541  0.049064667  0.048312901            9 
 4050000   0.61109042   -3.8071906     2379.013  0.048950885  0.048302052            7 
 4051000   0.59656796   -3.8077587    2380.7157  0.048973828  0.048291105           10 
 4052000   0.60180324   -3.7883441    2384.4379  0.049038292  0.048280258            5 
 4053000   0.59574649   -3.7972472    2377.3075  0.048879586  0.048269409           15 
 4054000   0.59945268   -3.8086815    2380.8638  0.048940631  0.048258546           16 
 4055000   0.59144846   -3.8035241    2385.5386  0.049024632  0.048247696            9 
 4056000   0.59919753   -3.8008201    2382.1447  0.048942814  0.048236847           22 
 4057000    0.6224791   -3.8082722    2374.7157  0.048778155  0.048225922            6 
 4058000    0.5952127   -3.7886409    2377.7625  0.048828702  0.048215014            8 
 4059000   0.59316725   -3.8045959    2380.4558  0.048871968  0.048204175            7 
 4060000   0.61435739   -3.8011347    2379.8065  0.048846603  0.048193351            9 
 4061000   0.60757353   -3.7921304    2384.9244  0.048939597  0.048182593           12 
 4062000   0.59520113   -3.7809617    2388.2572  0.048995922  0.048171764           13 
 4063000   0.59481481   -3.8016339    2382.4362  0.048864471  0.048160928            7 
 4064000   0.60524982   -3.8016092    2386.3783  0.048933282  0.048150174            4 
 4065000   0.61056198   -3.7897346    2388.6349  0.048967506  0.048139406            3 
 4066000   0.60146719   -3.7847917    2397.0163  0.049127241  0.048128653            9 
 4067000   0.59623475   -3.7865203    2395.3993  0.049082028  0.048117954            8 
 4068000   0.61018366   -3.7827964    2388.9177  0.048937186  0.048107233           10 
 4069000   0.59790569   -3.7825956    2385.4267  0.048853663  0.048096438           11 
 4070000   0.59708011   -3.7848567    2389.2254  0.048919438  0.048085691           19 
 4071000   0.60578477   -3.7896487    2390.8506  0.048940691  0.048075012            7 
 4072000   0.59660009   -3.7900866    2388.2345  0.048875133  0.048064322            6 
 4073000   0.59586799    -3.779322    2389.4717  0.048888446  0.048053685           10 
 4074000   0.59862451   -3.7973077    2391.1384  0.048910538  0.048042974            8 
 4075000   0.60655813   -3.8218617    2386.2645  0.048798864  0.048032262           11 
 4076000    0.6013759   -3.7997167    2388.0259  0.048822904  0.048021512            4 
 4077000   0.60559538   -3.8158307    2385.9534  0.048768567   0.04801076            7 
 4078000    0.5967366   -3.8061184    2389.7621  0.048834439  0.048000012            8 
 4079000   0.60260584   -3.7819902    2390.1592   0.04883058  0.047989299            5 
 4080000   0.59331849   -3.7812749    2393.5115  0.048887082  0.047978604            4 
 4081000   0.60736216   -3.7810661    2389.7047  0.048797368  0.047967868           20 
 4082000   0.60882344   -3.7859446    2389.3701  0.048778583   0.04795721            9 
 4083000   0.60237342    -3.802035    2393.8293  0.048857647  0.047946507            9 
 4084000   0.61070766   -3.7982897    2384.4927  0.048655172  0.047935787            5 
 4085000   0.58918439   -3.7938109    2388.3012  0.048720955    0.0479251            7 
 4086000   0.59254067   -3.8057047    2385.2197  0.048646184  0.047914363            7 
 4087000   0.59697995   -3.8054613    2385.9303  0.048648771  0.047903665           13 
 4088000   0.59471994   -3.8036024    2392.7087  0.048775048   0.04789295           15 
 4089000   0.59408507   -3.7999854    2390.0478   0.04870889  0.047882215            8 
 4090000   0.59817123   -3.8040729    2396.6909  0.048832333  0.047871521           12 
 4091000   0.59888016   -3.8000691     2386.317  0.048609081  0.047860842           12 
 4092000   0.59457377   -3.7998279    2395.5555  0.048785342  0.047850122           12 
 4093000   0.58967693   -3.7966898    2390.1307  0.048662975  0.047839414           14 
 4094000   0.59140893   -3.8060556    2384.4192  0.048534832  0.047828763            6 
 4095000   0.59977029     -3.80231    2388.6411  0.048608894  0.047818023            6 
 4096000   0.59381491   -3.7800366    2388.4556  0.048593255  0.047807289           10 
 4097000   0.59911403   -3.8071855     2393.879  0.048691705  0.047796651            6 
 4098000   0.59498584   -3.7993092     2389.462  0.048590004  0.047786023            6 
 4099000   0.59278991   -3.8028863    2393.3362  0.048656912  0.047775324            8 
 4100000    0.5928531    -3.824385    2388.9379  0.048555649  0.047764631           16 
 4101000   0.59677426   -3.8099113    2394.3621  0.048654029  0.047753936           11 
 4102000   0.59438065   -3.8104251    2387.2161  0.048496995  0.047743237            6 
 4103000   0.59722368   -3.8208315    2388.8581  0.048518525  0.047732493           11 
 4104000    0.5961434    -3.804395    2394.4324  0.048619892  0.047721728            7 
 4105000   0.58247729   -3.8046771    2390.9149   0.04853664  0.047711077            9 
 4106000   0.60933654   -3.7933631    2393.2797  0.048572813  0.047700426           19 
 4107000   0.59146136   -3.7888038    2391.8845  0.048532679  0.047689791           15 
 4108000   0.58624084   -3.7897686     2388.016  0.048442388  0.047679159            7 
 4109000   0.60128746   -3.8236117    2398.1253  0.048635624  0.047668565            7 
 4110000   0.59199358   -3.8227359    2386.6387  0.048390891  0.047657924            7 
 4111000   0.59250233   -3.8185327    2387.3624  0.048393789  0.047647295           14 
 4112000    0.6040479   -3.8010732    2393.8873  0.048514252  0.047636671            6 
 4113000   0.59751243    -3.790698    2393.1042   0.04848659  0.047626031            7 
 4114000    0.5913221   -3.8124478    2397.4523   0.04856288  0.047615462           12 
 4115000   0.59989675   -3.8147458     2389.344  0.048386877  0.047604789           14 
 4116000    0.5845211   -3.8142692    2389.8648  0.048385666  0.047594097            7 
 4117000   0.59379229   -3.8101617    2391.0388  0.048397676  0.047583424           11 
 4118000   0.60748485    -3.827009    2390.7681  0.048380445  0.047572799           18 
 4119000   0.59901178   -3.8091283    2394.1496  0.048437113  0.047562104           11 
 4120000   0.59291139   -3.8228429     2392.228  0.048386489  0.047551404           20 
 4121000   0.57912737   -3.8097569    2391.1914  0.048353785  0.047540762            5 
 4122000   0.59660935   -3.8220671    2387.2901  0.048263183  0.047530146            7 
 4123000   0.59607658   -3.8135889    2391.6886  0.048340379  0.047519515           14 
 4124000   0.58708107   -3.8107374    2396.7051  0.048430026  0.047508912            9 
 4125000   0.58613122   -3.8086446      2391.33  0.048309698  0.047498294           15 
 4126000   0.59503389   -3.8177986    2400.8083  0.048489424  0.047487664            6 
 4127000   0.59458776   -3.8036276    2401.2901  0.048487403  0.047476978            9 
 4128000   0.57425313   -3.8095221    2395.0246  0.048349172  0.047466355            9 
 4129000   0.58505318   -3.8033279    2392.3919  0.048284328  0.047455691            7 
 4130000   0.59763189   -3.8097025    2405.0362  0.048527767  0.047445049            8 
 4131000   0.58342728   -3.8069212    2396.8702  0.048351292  0.047434425           10 
 4132000   0.58486864   -3.8059962    2393.4756  0.048271128  0.047423762           12 
 4133000   0.59567807   -3.8126099    2396.5039  0.048320508  0.047413128            8 
 4134000   0.59442047   -3.8239851    2393.6945  0.048252187  0.047402467           21 
 4135000   0.60001089   -3.8132556    2397.2481  0.048312135  0.047391823            6 
 4136000   0.60202011   -3.8357889    2394.1357  0.048237743  0.047381156            9 
 4137000    0.5819177   -3.8219738    2393.5987  0.048215266  0.047370508            9 
 4138000   0.58655898   -3.7895135    2392.7094  0.048185706  0.047359869            7 
 4139000   0.58340682   -3.8120782    2395.5572    0.0482314  0.047349312            5 
 4140000   0.58840511   -3.8205833    2391.2714  0.048133483  0.047338709           12 
 4141000   0.59247443   -3.8249832    2393.6387  0.048169499  0.047328012            8 
 4142000   0.58284429   -3.8065562    2396.3584  0.048212586  0.047317342           11 
 4143000    0.5878367   -3.8277645    2394.3553  0.048160658  0.047306697            7 
 4144000   0.56901607   -3.8167303    2393.4206   0.04813024  0.047296091           12 
 4145000   0.58956049   -3.8210677    2394.3648  0.048137612  0.047285455           16 
 4146000   0.58437051   -3.8447695    2393.7609  0.048113862  0.047274793            6 
 4147000   0.58153147   -3.8115548    2390.1672  0.048030045  0.047264177            5 
 4148000   0.58688477   -3.8166013    2398.2413  0.048180675  0.047253609           27 
 4149000   0.57751555    -3.837725    2397.3605  0.048151371  0.047243064           10 
 4150000   0.59101425   -3.8246364     2395.798  0.048108393  0.047232467            9 
 4151000   0.58192145   -3.8300209    2391.8364  0.048017273  0.047221848            8 
 4152000   0.60267969   -3.8345076    2392.7085  0.048023212  0.047211263            7 
 4153000    0.5925873   -3.8177218     2396.775  0.048093246  0.047200627           15 
 4154000    0.5971341   -3.8051521    2394.6578  0.048039195   0.04719001            7 
 4155000   0.57801075   -3.8117607    2401.5935  0.048166736  0.047179441            4 
 4156000   0.58921387    -3.836486    2396.8268  0.048059569  0.047168809           11 
 4157000   0.58704355   -3.8308837    2402.2481  0.048156685  0.047158057           10 
 4158000   0.58000788   -3.8293081    2391.8873  0.047937456  0.047147381            5 
 4159000   0.58946421   -3.8423418    2397.3233  0.048034851  0.047136679           12 
 4160000   0.58494392   -3.8122012    2390.3184  0.047882981  0.047126018           13 
 4161000   0.59811346   -3.8407455     2391.412  0.047893376  0.047115311            7 
 4162000   0.59828615   -3.8034167    2400.9319   0.04807248  0.047104647            6 
 4163000   0.57807124   -3.8199525    2393.5104  0.047912372  0.047093976            3 
 4164000   0.58983591   -3.8237313    2399.7109  0.048024954  0.047083365           11 
 4165000   0.58425424    -3.821401    2396.6293  0.047951768  0.047072723           22 
 4166000   0.57881034   -3.8363504     2395.727  0.047922208  0.047061979            7 
 4167000   0.58865949   -3.8259839      2390.11  0.047798377  0.047051267            5 
 4168000   0.58597251   -3.8405485    2397.1578  0.047927819  0.047040559            9 
 4169000     0.580137   -3.8384225    2389.9038  0.047771323  0.047029876            8 
 4170000    0.5903236   -3.8245693    2393.0609   0.04782296  0.047019201            7 
 4171000   0.58358707   -3.8242505    2392.7976  0.047806234  0.047008526            6 
 4172000   0.57889687   -3.7963497    2391.1162   0.04776119  0.046997925           13 
 4173000   0.57541484   -3.8169574    2397.3629  0.047874489  0.046987314            6 
 4174000   0.57833197    -3.808199     2392.407  0.047764075  0.046976623            8 
 4175000   0.59177547   -3.8183383    2400.3664  0.047911506  0.046965975           13 
 4176000    0.5949848   -3.8286343    2394.0146   0.04777328  0.046955364            7 
 4177000   0.57876214   -3.8377135    2395.3193  0.047787872  0.046944768            5 
 4178000   0.57335362   -3.8381546    2398.1681  0.047833256  0.046934133           11 
 4179000   0.58073445   -3.8358365    2399.0845  0.047840083  0.046923561            6 
 4180000   0.58391764   -3.8242731    2394.2458  0.047732174  0.046912928           12 
 4181000    0.5885951    -3.862834    2394.2447  0.047720735  0.046902303           12 
 4182000   0.57305805   -3.8293198    2394.9376  0.047723131  0.046891645            4 
 4183000    0.5828958   -3.8131685     2400.077  0.047814108  0.046881057           11 
 4184000   0.59010433   -3.8098365    2399.4491  0.047790175  0.046870517            8 
 4185000   0.58023357   -3.8329596    2397.0443   0.04773087  0.046859981           10 
 4186000   0.58451241   -3.8157431    2398.4926  0.047748299   0.04684941           14 
 4187000   0.57607404   -3.8434612    2395.7357  0.047682026  0.046838799            6 
 4188000    0.5698071   -3.8273501    2401.3458  0.047782271  0.046828235            9 
 4189000   0.58330007   -3.8442633    2398.5372  0.047714992  0.046817687            9 
 4190000   0.58381788   -3.8084273    2399.2543  0.047717867  0.046807159           13 
 4191000   0.59012918   -3.8289765    2406.0541  0.047841687  0.046796663           10 
 4192000   0.58563779   -3.8520906    2396.8499  0.047647303  0.046786085            8 
 4193000   0.58254878    -3.822516    2400.5713    0.0477099  0.046775511           14 
 4194000   0.58059582   -3.8375834    2404.8254  0.047783052  0.046765026            7 
 4195000   0.56987028   -3.8104331    2401.6655   0.04770889  0.046754523            9 
 4196000   0.59174059   -3.8432942    2393.9803  0.047544891  0.046744002           16 
 4197000    0.5841129    -3.840813    2400.3462   0.04765996  0.046733433           12 
 4198000   0.57622258   -3.8177993    2409.2822  0.047825992  0.046722885            7 
 4199000   0.58980271   -3.8268068    2398.9266  0.047609085  0.046712428           16 
 4200000   0.58237592   -3.8306584    2398.0163  0.047579689  0.046701891            9 
 4201000   0.58406624   -3.8003778    2400.0175   0.04760806  0.046691437           14 
 4202000   0.58311827   -3.8402417     2403.653  0.047668827  0.046680998            5 
 4203000   0.58023821   -3.8324736    2399.0818  0.047566854  0.046670529            6 
 4204000   0.56644272   -3.8509241    2399.1548  0.047556985  0.046660024            9 
 4205000    0.5847978   -3.8182932    2406.1338  0.047683984  0.046649544           10 
 4206000   0.58295094   -3.8103253    2407.8726  0.047707097  0.046639081            4 
 4207000   0.58147365   -3.8536111    2397.7917  0.047496072   0.04662861           10 
 4208000   0.57310746   -3.8350212    2392.2987  0.047376005  0.046618093            6 
 4209000   0.58863258    -3.841026    2402.7712  0.047572092  0.046607599           11 
 4210000   0.57376143   -3.8461097    2408.9322  0.047682743  0.046597108           12 
 4211000   0.58139595   -3.8314326    2403.2356  0.047558687  0.046586716           13 
 4212000   0.57904124   -3.8520365     2402.307  0.047529024  0.046576221           34 
 4213000   0.58127933   -3.8649293    2399.3633  0.047459516  0.046565692           20 
 4214000   0.56463058   -3.8610578    2402.0011  0.047500417  0.046555157           28 
 4215000   0.56440913   -3.8462343    2405.8596  0.047565432  0.046544685           12 
 4216000   0.58402332    -3.836008    2406.0455  0.047557825  0.046534222           15 
 4217000    0.5880205    -3.831075    2407.1789  0.047568946  0.046523768            3 
 4218000   0.58518968   -3.8445935    2398.4613  0.047385437  0.046513292            8 
 4219000   0.58449043   -3.8225515    2396.7662  0.047340724  0.046502844           11 
 4220000   0.59162708     -3.85347    2403.2635   0.04745781  0.046492333            4 
 4221000   0.57960708   -3.8497909    2400.6976  0.047395909  0.046481859            4 
 4222000   0.57280088    -3.838748     2401.537  0.047401252  0.046471382           10 
 4223000   0.56825593   -3.8542577    2405.8505  0.047475146  0.046460918           11 
 4224000   0.57339564   -3.8438122    2401.9285  0.047386532  0.046450382           13 
 4225000   0.58023182   -3.8419858    2403.9622  0.047415428  0.046439868           10 
 4226000   0.58404793   -3.8545815    2407.1356  0.047466786  0.046429334            7 
 4227000   0.56962153   -3.8262416    2408.3179  0.047478865  0.046418877           25 
 4228000   0.57188909   -3.8246558    2397.3429  0.047251318  0.046408413            6 
 4229000   0.57127763   -3.8542357     2400.408  0.047300544  0.046397909           11 
 4230000   0.57145127   -3.8554312     2404.237  0.047364795  0.046387414           35 
 4231000   0.57056985   -3.8276823    2406.9781  0.047407588  0.046376937           11 
 4232000   0.57198648   -3.8655719    2398.4822  0.047229093  0.046366459           10 
 4233000   0.58150224   -3.8343338    2402.8218  0.047303367  0.046355943           13 
 4234000   0.56832352   -3.8489282    2402.4833  0.047285531  0.046345453           14 
 4235000   0.57208897   -3.8464229    2409.3198  0.047408889  0.046335012           17 
 4236000    0.5723751   -3.8451559    2405.9116   0.04733065   0.04632461           12 
 4237000   0.57934185   -3.8359429    2404.7758  0.047297141  0.046314143           20 
 4238000   0.58114721   -3.8604643    2404.9542  0.047289488   0.04630368           26 
 4239000   0.57293878   -3.8385278    2403.1772  0.047243398  0.046293224           10 
 4240000   0.57430447   -3.8481963    2409.4586  0.047355712  0.046282748           10 
 4241000   0.58032989   -3.8605517    2405.2642  0.047262127   0.04627236           12 
 4242000   0.56885447   -3.8750094    2407.6486  0.047297827  0.046261958            7 
 4243000   0.58148531   -3.8413655      2406.02  0.047254694  0.046251543           14 
 4244000   0.57468258   -3.8524612    2404.7609  0.047218837  0.046241204           17 
 4245000   0.57620141   -3.8468296    2407.5145  0.047261769  0.046230839           11 
 4246000   0.56235477   -3.8477305    2404.2978  0.047187506  0.046220513           12 
 4247000   0.57667748   -3.8437944    2408.7378  0.047263516  0.046210129            8 
 4248000   0.57606652   -3.8776481    2402.7996  0.047135899  0.046199789           27 
 4249000   0.58093979   -3.8498749    2408.0496  0.047227771  0.046189403            8 
 4250000   0.58959161   -3.8555312     2404.165  0.047140491  0.046179018           12 
 4251000   0.57389075   -3.8468133    2409.3275  0.047230603  0.046168655            8 
 4252000   0.56783714   -3.8643008    2410.7133  0.047246654  0.046158266            7 
 4253000   0.57660342   -3.8449583    2411.1011  0.047243144  0.046147919           12 
 4254000   0.55749973   -3.8627645    2407.6995  0.047165404  0.046137557           10 
 4255000   0.55906428   -3.8635861    2410.6497  0.047212097  0.046127133           20 
 4256000   0.57068621   -3.8342111    2408.0637  0.047150371  0.046116805           10 
 4257000   0.56396682   -3.8592494    2409.8061  0.047173402  0.046106492            6 
 4258000   0.56749238   -3.8475515    2407.5489  0.047118149  0.046096162           17 
 4259000   0.57408026   -3.8452269    2409.1707  0.047138818  0.046085884           14 
 4260000   0.56309293   -3.8340672    2413.4111  0.047210703  0.046075596            7 
 4261000   0.57346941   -3.8382253    2412.0086  0.047172193  0.046065305           12 
 4262000   0.56972318   -3.8423451    2417.3233  0.047265042  0.046054984            8 
 4263000   0.56702753   -3.8454666    2405.5632  0.047024068  0.046044669           27 
 4264000   0.56480363   -3.8571975      2410.83  0.047115971  0.046034282            8 
 4265000   0.56909893   -3.8586857    2409.2988  0.047075005  0.046023923            9 
 4266000   0.56977542   -3.8494236    2408.1717  0.047041953  0.046013639           14 
 4267000   0.56185102   -3.8560605     2406.251  0.046993418  0.046003295            6 
 4268000   0.56898329   -3.8632651    2409.5341   0.04704651  0.045992945            6 
 4269000   0.57592212   -3.8737792    2411.8541  0.047080778  0.045982636           14 
 4270000   0.56755571   -3.8632056    2404.4687  0.046925618  0.045972269           11 
 4271000   0.56516268   -3.8623952    2403.5077  0.046895881  0.045961897            5 
 4272000   0.57603497   -3.8500085    2399.8038  0.046812652   0.04595152            7 
 4273000   0.56859048   -3.8508174    2410.5011  0.047010319  0.045941124            7 
 4274000   0.57230858   -3.8618647    2412.1893  0.047032235  0.045930744           10 
 4275000   0.57639554   -3.8533255    2406.1275  0.046903071  0.045920413           12 
 4276000   0.56384425   -3.8554711    2405.3841  0.046877613  0.045910101           26 
 4277000   0.56476209   -3.8590049    2406.4949  0.046888296  0.045899694           31 
 4278000   0.56687157   -3.8671889    2406.2921  0.046873386  0.045889337            8 
 4279000   0.57486558   -3.8469344    2409.7198  0.046929186  0.045879014            7 
 4280000   0.57254809   -3.8594763    2415.2861  0.047026599   0.04586872           10 
 4281000   0.55427972   -3.8475439     2410.536  0.046923149  0.045858436           21 
 4282000   0.57881431   -3.8641552    2407.0032  0.046843438  0.045848087            7 
 4283000   0.55380446   -3.8381663    2409.1392  0.046874061  0.045837728            6 
 4284000   0.56402915   -3.8616287    2401.0279  0.046705335  0.045827372           11 
 4285000   0.56795242   -3.8747352    2411.1073  0.046890457  0.045817018           10 
 4286000   0.56624132   -3.8503255    2412.3165  0.046903027  0.045806665            8 
 4287000     0.565032   -3.8583652    2409.6579  0.046840407  0.045796306            6 
 4288000   0.56554877   -3.8541012    2401.9187   0.04667908  0.045785962            7 
 4289000   0.58898652   -3.8593112    2410.1006  0.046827167  0.045775635           12 
 4290000   0.57423032   -3.8579109    2407.8414  0.046772366  0.045765264            7 
 4291000   0.57073358   -3.8677315    2406.5618  0.046736615  0.045754867           10 
 4292000   0.57009234   -3.8625706    2405.3246  0.046701705  0.045744536           13 
 4293000   0.56922527   -3.8555168    2409.2721  0.046767453  0.045734173            8 
 4294000   0.55029928   -3.8775797    2406.0862  0.046694732  0.045723786           14 
 4295000   0.56867846   -3.8777953    2400.2566  0.046570753  0.045713342           20 
 4296000   0.56932556   -3.8776386    2409.4523  0.046738289  0.045702932           14 
 4297000   0.56518271   -3.8756121    2405.6969  0.046654583  0.045692488           29 
 4298000   0.56432657   -3.8631892    2408.3991  0.046696119  0.045682056           25 
 4299000   0.56742101   -3.8613929    2403.6867  0.046593912  0.045671688            8 
 4300000   0.56595177   -3.8587061    2403.4322  0.046578143   0.04566133           15 
 4301000   0.57825446   -3.8681837    2409.3294  0.046681574   0.04565094            8 
 4302000   0.55114364   -3.8559871    2408.0536   0.04664601  0.045640568            9 
 4303000   0.56903297   -3.8571399    2409.9181  0.046671278  0.045630166           19 
 4304000    0.5744016   -3.8499015    2409.6712  0.046655654  0.045619769           11 
 4305000   0.55902722   -3.8608753    2407.7873  0.046608348  0.045609348           12 
 4306000   0.55899833   -3.8638723    2409.6642  0.046633848  0.045598955           12 
 4307000   0.56963317   -3.8676494    2400.4895  0.046445506  0.045588589            8 
 4308000   0.56195779   -3.8770102    2405.6495  0.046534538  0.045578192           26 
 4309000   0.56165845    -3.857863    2403.3357  0.046478992  0.045567813            5 
 4310000    0.5624289   -3.8584293    2407.6187   0.04655102  0.045557428           11 
 4311000   0.55837276   -3.8570109     2414.088  0.046665275   0.04554704            5 
 4312000   0.55784284   -3.8678177    2414.5605  0.046663584  0.045536686           14 
 4313000    0.5702158   -3.8639006    2410.6084  0.046576405  0.045526299           13 
 4314000   0.55406737   -3.8702653    2410.0222  0.046554285   0.04551597           12 
 4315000   0.56355418    -3.876566    2415.9635  0.046658237  0.045505665            4 
 4316000   0.57343233   -3.8454437    2409.7183  0.046526843  0.045495342            9 
 4317000   0.56988706   -3.8716838    2410.1915  0.046525201  0.045485023            8 
 4318000   0.56749597   -3.8544395    2406.4751  0.046442703  0.045474623            8 
 4319000   0.56522439   -3.8956376    2405.8764  0.046420398  0.045464238           11 
 4320000   0.55721577   -3.8841582    2406.8059  0.046427583  0.045453875           16 
 4321000   0.56767312   -3.8698676    2408.1861  0.046443456  0.045443548           18 
 4322000   0.54391433   -3.8616383    2409.0969  0.046450272  0.045433248           14 
 4323000   0.57460822   -3.8531887     2412.291    0.0465011  0.045422961            8 
 4324000   0.54727843   -3.8516666    2412.1359  0.046487355  0.045412703           10 
 4325000   0.55694514   -3.8487925    2415.0235  0.046532244  0.045402422           12 
 4326000    0.5678031   -3.8547356    2409.7686  0.046420261  0.045392111            9 
 4327000   0.56373711   -3.8630534    2407.0157  0.046356515  0.045381772            9 
 4328000   0.55151005   -3.8685094    2407.3364  0.046351979  0.045371436            8 
 4329000   0.55803928   -3.8670344    2407.0024  0.046334842  0.045361139           15 
 4330000   0.55841237   -3.8620034    2409.9725  0.046381303  0.045350855           10 
 4331000   0.54192516   -3.8720606    2411.1741  0.046393714  0.045340578           27 
 4332000    0.5643146     -3.86437    2416.1994  0.046479674  0.045330322            8 
 4333000   0.56349319   -3.8849005    2416.3806  0.046472432  0.045320083           11 
 4334000    0.5454442   -3.8776851    2407.0714  0.046282715  0.045309781           19 
 4335000   0.54568491   -3.8835719    2408.1811   0.04629337  0.045299478           11 
 4336000   0.55869654   -3.8859735    2416.2243  0.046437274  0.045289138           17 
 4337000   0.55195359   -3.8727948    2416.0446  0.046423114  0.045278861           14 
 4338000   0.54969461    -3.881198    2416.3823    0.0464189   0.04526858            6 
 4339000   0.55676173   -3.8710754    2409.4247  0.046274577  0.045258279           12 
 4340000   0.55778939   -3.8772198    2408.6023  0.046248123  0.045247969           11 
 4341000    0.5505896   -3.8834479    2410.0223   0.04626473  0.045237715           21 
 4342000   0.55377809   -3.8890352    2407.5758   0.04620712  0.045227405            8 
 4343000   0.56242994   -3.8619052     2416.813  0.046373724  0.045217095           32 
 4344000   0.54831657   -3.8658102    2411.7648  0.046266206  0.045206779            9 
 4345000   0.55194532   -3.8568185    2411.0992  0.046242792   0.04519654           11 
 4346000   0.56418655   -3.8631214    2413.1882  0.046272207  0.045186286            9 
 4347000   0.54745132   -3.8806525    2406.8847  0.046140724  0.045176019            7 
 4348000   0.55429604   -3.8631744    2419.4024  0.046370025  0.045165758           20 
 4349000   0.55080978   -3.8820494    2417.2639  0.046318385  0.045155514            9 
 4350000   0.55824058   -3.8809974    2417.2138  0.046306778  0.045145243           46 
 4351000   0.55974143   -3.9016423    2415.7767   0.04626861   0.04513495           34 
 4352000   0.54950876   -3.8884811    2410.0238  0.046147821  0.045124654           15 
 4353000   0.55963037   -3.8906258    2412.0708  0.046176407  0.045114329           11 
 4354000   0.55292492     -3.89573    2408.1004  0.046089809   0.04510406           19 
 4355000   0.54791041   -3.8817784    2415.3138  0.046217256  0.045093832           13 
 4356000   0.56455363   -3.8819379     2419.018  0.046277511  0.045083596            6 
 4357000   0.56573252   -3.8704114    2418.3925  0.046254924  0.045073373            9 
 4358000   0.56852146   -3.8745448    2416.8355  0.046214539  0.045063194           12 
 4359000   0.55378572   -3.8869494    2414.3438  0.046156301  0.045052927            7 
 4360000   0.56306069   -3.8735314    2416.2259  0.046181688  0.045042677            8 
 4361000   0.55359072   -3.8779658    2410.3583  0.046058976   0.04503245           11 
 4362000   0.55325788   -3.8816508    2414.5533   0.04612856  0.045022187            9 
 4363000   0.57033167   -3.8641094    2417.1235  0.046167077  0.045011933            9 
 4364000   0.55371912   -3.8938737    2407.9594  0.045981504  0.045001706           14 
 4365000   0.55371048   -3.9010853    2416.9286  0.046142202  0.044991372           14 
 4366000   0.55440649   -3.8744182    2416.9436  0.046131921  0.044981175           10 
 4367000   0.55329929   -3.8747031    2421.3765  0.046205948  0.044970993            8 
 4368000   0.54759257   -3.8814218    2412.7083  0.046029997  0.044960769           13 
 4369000   0.54920838   -3.8885755    2416.7088  0.046095765  0.044950522            9 
 4370000   0.56025083   -3.8810306    2411.0464  0.045977239  0.044940247           16 
 4371000   0.56044274    -3.897858    2411.0015  0.045965864  0.044929933           13 
 4372000   0.56415204   -3.8977632    2411.9551  0.045973527  0.044919666            9 
 4373000   0.55638231   -3.8787298    2415.9399  0.046038949  0.044909377           15 
 4374000   0.54308453   -3.8868449    2418.1948  0.046071385  0.044899107            7 
 4375000   0.54410063   -3.8947013     2414.253  0.045985771  0.044888841           10 
 4376000   0.55528325   -3.8927314    2413.1766  0.045954764  0.044878539           10 
 4377000   0.54075377   -3.8649482     2410.231  0.045888184  0.044868262           10 
 4378000   0.55940472   -3.8708875    2410.0532  0.045874318  0.044858058           13 
 4379000   0.55748198   -3.8908521    2415.3378   0.04596441  0.044847841           13 
 4380000   0.55805673   -3.8788182    2416.5809  0.045977567  0.044837617           15 
 4381000   0.55042026    -3.887339    2408.7891   0.04581886  0.044827411            8 
 4382000   0.54656901   -3.8981217    2417.5164  0.045974373  0.044817135            8 
 4383000   0.54743457   -3.8956434    2411.6317  0.045851999  0.044806835           12 
 4384000   0.54769011   -3.8734276    2411.2524  0.045834329  0.044796555           12 
 4385000   0.54187956   -3.8900519    2406.6059  0.045735573  0.044786297           25 
 4386000   0.55400336   -3.9053324    2410.6817  0.045802586  0.044775992           19 
 4387000   0.55127135   -3.8916712    2411.0879  0.045799861  0.044765732            6 
 4388000     0.536347   -3.9001441     2412.989  0.045825528  0.044755503           12 
 4389000    0.5518626   -3.8771902    2416.5431  0.045882568  0.044745221            8 
 4390000   0.54115918   -3.9129034     2402.912  0.045613365  0.044734945            9 
 4391000   0.54625597   -3.8856171    2413.0466  0.045795312  0.044724654           15 
 4392000   0.56259461   -3.9252977    2410.8941  0.045744044  0.044714386           11 
 4393000   0.54369391   -3.9067726      2415.25  0.045816261  0.044704059            6 
 4394000   0.54835166   -3.8763071    2409.1459  0.045690067  0.044693809           13 
 4395000   0.54925542   -3.9016568    2411.9006  0.045731905  0.044683546           21 
 4396000   0.55486176   -3.9088994    2408.0381   0.04564828  0.044673234           12 
 4397000   0.55237791   -3.8865666    2408.9303  0.045654809  0.044662989            5 
 4398000   0.55139274   -3.8830326    2411.8969  0.045700639  0.044652743           16 
 4399000   0.55220313   -3.9014448    2413.3118  0.045717053  0.044642547           15 
 4400000   0.55101744   -3.8984677    2411.0571   0.04566396  0.044632321            8 
 4401000   0.53525061   -3.8738919    2412.1049  0.045673425  0.044622063           14 
 4402000   0.55129487    -3.898572    2409.6704  0.045616963  0.044611752           11 
 4403000   0.55411278   -3.9064133    2411.5147  0.045641507  0.044601424            8 
 4404000   0.54343708   -3.8868817      2413.69  0.045672306   0.04459118            8 
 4405000   0.56354863   -3.8915732     2416.431  0.045713791   0.04458093            6 
 4406000   0.54591715   -3.8747819    2411.7701  0.045615261  0.044570672           10 
 4407000   0.53970449   -3.9083977    2410.3072  0.045577248  0.044560405           26 
 4408000   0.53985289   -3.8907577    2412.4152  0.045606761  0.044550122           15 
 4409000   0.55576433   -3.8909494    2408.5859   0.04552404  0.044539827           15 
 4410000    0.5359401   -3.8919931    2409.6236  0.045533326  0.044529573           51 
 4411000    0.5430173   -3.8900961    2416.3531  0.045650138  0.044519299           15 
 4412000   0.54545073    -3.893245    2416.0502  0.045634071  0.044509077           13 
 4413000   0.55106953   -3.8884135    2419.1682  0.045682609  0.044498846           11 
 4414000    0.5320244   -3.8857671     2416.792  0.045627398  0.044488615            6 
 4415000   0.54991913   -3.8926211    2415.7925  0.045598197  0.044478387           10 
 4416000   0.53835596   -3.8932084    2417.3993  0.045618193  0.044468137            8 
 4417000   0.53964737   -3.8941189    2412.3302  0.045512229  0.044457923           12 
 4418000   0.56016884   -3.9186671    2412.2794  0.045500969  0.044447646           16 
 4419000   0.54405544   -3.9032349    2412.0055  0.045485508  0.044437338           12 
 4420000    0.5494262   -3.8939897    2409.7786  0.045433232  0.044427065            4 
 4421000   0.55396221   -3.9089621    2413.3986  0.045491189  0.044416831           20 
 4422000   0.53939827    -3.904201    2416.4199  0.045537839  0.044406541           34 
 4423000   0.54728404   -3.8849349    2414.1108  0.045484037  0.044396298           12 
 4424000   0.54543021   -3.8958088    2413.7839  0.045467599  0.044386013           21 
 4425000   0.54069347    -3.924879     2410.403  0.045393653  0.044375722           17 
 4426000   0.54240757   -3.9129274    2414.4414  0.045459432  0.044365443           16 
 4427000   0.53686797   -3.9219402    2407.9451  0.045326878  0.044355143            7 
 4428000   0.54800836   -3.9071392    2415.5389  0.045459555  0.044344816           16 
 4429000    0.5368426   -3.9101305    2419.1354   0.04551696  0.044334546            9 
 4430000   0.54153729    -3.906664    2409.4207   0.04532394  0.044324295           13 
 4431000   0.55555196   -3.9083045    2406.8168  0.045264741  0.044314009           19 
 4432000   0.53571252   -3.8891376    2410.1912  0.045317975  0.044303776           19 
 4433000   0.54362483   -3.8934798    2414.1758  0.045382657  0.044293464           18 
 4434000   0.54569491   -3.9117924    2413.3755   0.04535738  0.044283176           11 
 4435000   0.53939898   -3.9084366    2408.6076  0.045257564  0.044272909            8 
 4436000   0.54159809   -3.8921358    2413.8964  0.045346716  0.044262631           12 
 4437000   0.54749319   -3.9146924    2415.7282    0.0453709  0.044252413           27 
 4438000   0.53745562   -3.8884583    2416.2747  0.045370939  0.044242167            6 
 4439000   0.55076657   -3.9089493    2411.9832  0.045280153  0.044231958           15 
 4440000   0.54072552   -3.9115012     2420.208  0.045424325  0.044221739            5 
 4441000   0.53972282   -3.9069444    2415.1678   0.04531952  0.044211564           14 
 4442000   0.54373552   -3.8912281    2411.3509   0.04523771  0.044201349           10 
 4443000   0.55763269   -3.9066236    2411.7437  0.045234896  0.044191164           14 
 4444000   0.55106292   -3.9043595    2411.0937  0.045212528  0.044180897            7 
 4445000    0.5370373   -3.8966022    2412.2172   0.04522342  0.044170641            7 
 4446000   0.53657718   -3.8970877    2409.3522  0.045159548  0.044160408           10 
 4447000   0.53364841   -3.9142573    2411.8818  0.045196795  0.044150128           19 
 4448000   0.53317164    -3.905332    2413.7761  0.045222124  0.044139902           18 
 4449000   0.53684248   -3.9271561    2415.4586  0.045243473  0.044129616            9 
 4450000   0.53946629    -3.917261    2414.1232  0.045208299   0.04411934            8 
 4451000    0.5412024   -3.9078164    2412.2038  0.045162207  0.044109062           12 
 4452000   0.54550104    -3.901384    2413.7284  0.045180601  0.044098759           10 
 4453000   0.53761262    -3.901001    2407.5793  0.045055379  0.044088492           23 
 4454000   0.53574299   -3.8941188    2408.8813  0.045069624  0.044078268           11 
 4455000   0.54077894   -3.9127397    2414.1004  0.045157135  0.044068005            6 
 4456000   0.53796119   -3.9144711    2406.9988  0.045014191   0.04405769           21 
 4457000    0.5403197   -3.9189615    2407.5214  0.045013862  0.044047388           11 
 4458000    0.5385402   -3.8844522    2417.4848  0.045190011   0.04403716           10 
 4459000   0.54105878   -3.9121824    2417.6022   0.04518207  0.044026927           19 
 4460000   0.53903754   -3.9181061    2412.7559  0.045081387   0.04401665           11 
 4461000   0.53399259   -3.9270883    2410.1478  0.045022562  0.044006395            8 
 4462000   0.54499227   -3.9152925    2413.8402  0.045081432   0.04399608           10 
 4463000   0.53293342   -3.9094121     2412.684  0.045049743   0.04398584           12 
 4464000   0.53911374    -3.917447    2418.9191  0.045156046  0.043975621           10 
 4465000   0.53429587   -3.9147098    2412.5566  0.045027186   0.04396536           10 
 4466000   0.53797426   -3.9091224    2419.5681  0.045147934  0.043955164           15 
 4467000   0.54234557   -3.9120287    2413.8906  0.045031911  0.043944928           14 
 4468000   0.53937247   -3.9221446    2411.5009  0.044977263  0.043934697           11 
 4469000   0.54207166   -3.9221008    2418.5891  0.045099371  0.043924445           12 
 4470000   0.53586482   -3.9354755    2414.6124  0.045015145  0.043914219           32 
 4471000   0.53760035   -3.8994561    2418.5071  0.045077669  0.043904036           13 
 4472000   0.54536071   -3.9210842    2414.6423   0.04499557  0.043893877           11 
 4473000   0.52611505   -3.8994672    2409.1712  0.044883584  0.043883696           13 
 4474000   0.53496476   -3.9084485    2416.1635  0.045003791  0.043873544            7 
 4475000   0.54322425   -3.8967624    2412.3981  0.044923615  0.043863404           31 
 4476000   0.54388769   -3.9050359    2416.6386  0.044992527  0.043853307           28 
 4477000   0.53776058   -3.9241658    2416.5325  0.044980502  0.043843134           13 
 4478000   0.52427006    -3.918761    2419.6271  0.045028046   0.04383294           10 
 4479000   0.54728055    -3.912766    2416.2694  0.044955522  0.043822777           14 
 4480000   0.53541217   -3.8922258    2412.7974  0.044880903  0.043812609           14 
 4481000   0.53995996   -3.9006008    2417.1639  0.044952092  0.043802476           14 
 4482000   0.52831896    -3.927901     2415.054  0.044902834  0.043792263           13 
 4483000   0.53853346   -3.9123952    2415.7525  0.044905802   0.04378205            6 
 4484000   0.54175253   -3.9172459    2414.0478  0.044864105  0.043771826           20 
 4485000   0.53438202   -3.9224963    2414.9307  0.044870507  0.043761653            9 
 4486000   0.54098684   -3.9089608    2419.3437  0.044942483  0.043751521            9 
 4487000   0.52609686   -3.9015171    2413.9804  0.044832857  0.043741357           12 
 4488000   0.53368566   -3.9294513     2413.347  0.044811107  0.043731132           21 
 4489000   0.52681172   -3.9225255    2410.3712  0.044745883  0.043720892           17 
 4490000   0.53913831   -3.9318627    2412.8745  0.044782377  0.043710688           32 
 4491000   0.52757373   -3.9179583    2413.8707  0.044790891  0.043700441           16 
 4492000   0.52921762   -3.9134625    2412.8133  0.044761304  0.043690237            9 
 4493000   0.52943166   -3.9069249    2416.1637  0.044813483  0.043680027           10 
 4494000   0.52625802    -3.926337    2410.9334  0.044706524  0.043669869           12 
 4495000   0.52354482   -3.9284092    2422.3814  0.044908814  0.043659635           25 
 4496000   0.53263795   -3.9058644    2417.4155  0.044806783   0.04364946            8 
 4497000   0.54259977   -3.9283659    2416.8819   0.04478693  0.043639291           12 
 4498000   0.53026633   -3.9062138    2411.3453  0.044674397  0.043629117           21 
 4499000   0.53369582   -3.9226325    2416.1651  0.044753743  0.043618914           32 
 4500000   0.52545009   -3.9253985      2418.62  0.044789259    0.0436087            7 
 4501000   0.53824942   -3.8996662    2422.6374  0.044853688  0.043598562            8 
 4502000   0.52872298   -3.9333914     2415.988  0.044720643  0.043588446            9 
 4503000   0.53490591   -3.9108707    2422.4575  0.044830436  0.043578292            9 
 4504000   0.53164589   -3.9236102    2421.1976  0.044797173  0.043568155           16 
 4505000   0.53991727   -3.8967793    2416.3919  0.044698334  0.043558012           13 
 4506000   0.53909386   -3.9182449    2414.9959  0.044662597  0.043547871           15 
 4507000   0.53398718   -3.9038762    2417.4136  0.044697389   0.04353771           24 
 4508000   0.53323913   -3.9132558    2409.7374  0.044545575  0.043527575           22 
 4509000   0.53384372   -3.9257776    2416.1105   0.04465348  0.043517403            7 
 4510000   0.51389277   -3.9170215    2413.6578   0.04459826  0.043507223            9 
 4511000   0.53997082   -3.9332715    2415.5675  0.044623652  0.043497101            9 
 4512000   0.52553569   -3.9495029    2417.2771  0.044645337  0.043486939           27 
 4513000   0.52879591   -3.9181157    2421.8376  0.044719655  0.043476824           19 
 4514000   0.52898995   -3.9276203    2415.9707  0.044601438  0.043466757           37 
 4515000   0.53015433   -3.8892525    2419.8562  0.044663275  0.043456686            9 
 4516000   0.53478297   -3.9247374    2423.3081  0.044717081  0.043446597           12 
 4517000   0.54418582   -3.9359944    2413.2876  0.044522317  0.043436516           15 
 4518000   0.52599188   -3.9275981    2414.6228  0.044537089  0.043426437           16 
 4519000   0.52249931   -3.9401661    2418.5224  0.044599145  0.043416294           13 
 4520000   0.52492911   -3.9280293    2416.5159  0.044552284  0.043406157           14 
 4521000   0.51747998   -3.9359439     2417.163  0.044554357  0.043396032           10 
 4522000   0.52672109   -3.9413669    2415.6425  0.044516485  0.043385908           13 
 4523000   0.54137716   -3.9447691    2415.0325  0.044495403  0.043375824           25 
 4524000   0.54730276   -3.9431976    2417.9957  0.044540151  0.043365746           24 
 4525000   0.53322504   -3.9299785    2416.5236  0.044503197  0.043355677           19 
 4526000   0.53437963   -3.9261869    2418.7423  0.044534215  0.043345564           17 
 4527000   0.52644072   -3.9438288    2420.8789  0.044563708  0.043335503           14 
 4528000   0.53618996   -3.9425785    2418.6015  0.044511954  0.043325426            7 
 4529000   0.52747645   -3.9394979    2412.9917  0.044398905  0.043315293           10 
 4530000   0.52371904   -3.9222081    2420.7412  0.044531664  0.043305231           10 
 4531000   0.52852977   -3.9476107    2417.0974  0.044454819  0.043295171            7 
 4532000   0.52837145   -3.9313503    2415.3916  0.044413643  0.043285088           19 
 4533000   0.53155222   -3.9116389    2416.5596  0.044425319  0.043275012            5 
 4534000    0.5220548   -3.9275097     2416.475  0.044413964  0.043264961           13 
 4535000   0.52983616   -3.9363891    2420.9524  0.044486446  0.043254888           10 
 4536000   0.52307434   -3.9198002    2418.5062  0.044431697  0.043244848           20 
 4537000   0.51776586   -3.9342028    2417.4331  0.044402196  0.043234809           15 
 4538000   0.54166785   -3.9442037    2409.3293  0.044243597  0.043224728           11 
 4539000   0.53177576   -3.9421069    2416.1958  0.044359915  0.043214653           16 
 4540000   0.52246642   -3.9602766    2411.5079  0.044264096  0.043204544           38 
 4541000   0.53257674   -3.9553762    2416.8035  0.044351528  0.043194459           46 
 4542000    0.5255653   -3.9277911     2422.773  0.044451288   0.04318445           31 
 4543000   0.53092376    -3.937102    2412.4739  0.044252585  0.043174395           62 
 4544000   0.53083645    -3.930595    2422.7858  0.044431958  0.043164314           27 
 4545000   0.52881865     -3.93068    2410.3465  0.044194105  0.043154235           10 
 4546000   0.52254186   -3.9468134    2412.7235  0.044227957  0.043144162           16 
 4547000   0.51840983   -3.9428131    2416.2322  0.044282535  0.043134122           20 
 4548000   0.50986917   -3.9374804    2416.2657  0.044273411   0.04312406           23 
 4549000    0.5186578   -3.9497833    2420.3025  0.044337629  0.043113997           25 
 4550000   0.52474773   -3.9542855    2411.6049  0.044168588  0.043103829           20 
 4551000   0.53733627   -3.9486244     2418.692  0.044288654  0.043093718           20 
 4552000   0.52466493   -3.9457896    2415.5036  0.044220555  0.043083601           20 
 4553000   0.51915413   -3.9248549    2413.8958  0.044181415   0.04307352           10 
 4554000   0.53548441   -3.9458157    2415.8496  0.044207467  0.043063437           27 
 4555000   0.53065495   -3.9493769    2416.5881  0.044211271  0.043053342           12 
 4556000   0.52393635   -3.9492785    2420.7826  0.044278288  0.043043284            7 
 4557000   0.51821548   -3.9342914    2415.5893  0.044173603  0.043033188           17 
 4558000   0.52453808   -3.9341274    2419.3972  0.044233531  0.043023147           28 
 4559000   0.51682666   -3.9372288    2416.0861  0.044163306  0.043013104           17 
 4560000   0.51313993    -3.946795     2414.438  0.044123501  0.043003019           15 
 4561000    0.5351985   -3.9484738    2415.4414  0.044132161  0.042992925           15 
 4562000   0.53068743   -3.9112969    2424.3998  0.044286129  0.042982895           11 
 4563000   0.52765651   -3.9228175    2423.1261  0.044253161  0.042972897           13 
 4564000   0.52159098   -3.9440391    2422.7187  0.044236026  0.042962885           13 
 4565000   0.52483646   -3.9644283    2416.9691  0.044121378  0.042952842           30 
 4566000   0.53101512   -3.9495703    2420.5868  0.044177742  0.042942737           10 
 4567000   0.52489958   -3.9424932     2419.831  0.044154277  0.042932696           17 
 4568000   0.52201124   -3.9318931    2415.7824  0.044070754  0.042922669           24 
 4569000   0.53226945   -3.9345095    2421.9156   0.04417297  0.042912632           12 
 4570000   0.52116564   -3.9567966    2409.5179  0.043937234  0.042902613           15 
 4571000   0.51890039   -3.9379108    2418.5048   0.04409146   0.04289252           16 
 4572000   0.51189107   -3.9422671     2416.602  0.044047135  0.042882466           11 
 4573000    0.5228807   -3.9481231    2419.0112  0.044081405   0.04287236            9 
 4574000   0.51522808    -3.940487    2415.9075  0.044015222  0.042862257           16 
 4575000   0.51099162   -3.9483802       2414.3   0.04397632  0.042852165            6 
 4576000   0.52268488   -3.9593213    2413.8197  0.043957963  0.042842103           14 
 4577000   0.52486806   -3.9391363    2415.4121  0.043977352  0.042832064           11 
 4578000   0.52229008   -3.9708249    2412.9079  0.043922162  0.042821962           15 
 4579000   0.51896163   -3.9335934    2421.0704   0.04406112  0.042811902            7 
 4580000   0.52212809   -3.9284309    2413.8424  0.043919986  0.042801864           31 
 4581000    0.5299539   -3.9508312     2413.939  0.043912155    0.0427918           25 
 4582000   0.51480675    -3.951827    2413.8501  0.043900955   0.04278173           13 
 4583000   0.51679261   -3.9396249    2414.8474  0.043909509  0.042771629           10 
 4584000   0.51312747   -3.9505224    2420.2056  0.043997339  0.042761597           12 
 4585000    0.5258779    -3.963158    2420.7313  0.043997298  0.042751571            8 
 4586000   0.51823862   -3.9317537    2420.7121  0.043987354  0.042741541           17 
 4587000   0.51665985   -3.9350152    2418.4966  0.043937515  0.042731514           12 
 4588000   0.51376062   -3.9538193    2417.1827  0.043904075  0.042721439           11 
 4589000   0.52179771   -3.9650786    2415.0761  0.043856252   0.04271139           38 
 4590000   0.51006512   -3.9550506    2418.1058  0.043901703  0.042701299           14 
 4591000   0.51489518   -3.9563691    2416.2412  0.043858296  0.042691263           12 
 4592000   0.51469315   -3.9472473    2417.8264  0.043877512  0.042681221           19 
 4593000   0.52407612   -3.9534883    2420.5205  0.043916839  0.042671141           14 
 4594000   0.53683658   -3.9672363    2419.8732  0.043895537  0.042661115           11 
 4595000    0.5010089    -3.942769    2424.0491  0.043961717  0.042651079           13 
 4596000   0.52053842   -3.9542683    2414.8647  0.043785622  0.042641096           20 
 4597000   0.52563047   -3.9411729    2419.8165  0.043865863  0.042631058           19 
 4598000   0.52409246   -3.9382138    2419.4572  0.043849812  0.042621066           16 
 4599000   0.52793346   -3.9362493    2424.2722  0.043927524  0.042611122           21 
 4600000   0.51876115   -3.9329004    2416.0045  0.043768197  0.042601154           18 
 4601000   0.51223152   -3.9588585    2422.7094  0.043880124  0.042591142            9 
 4602000   0.50293027   -3.9509069    2418.9502  0.043802517  0.042581118           23 
 4603000   0.51585401   -3.9529018    2413.7062  0.043698062  0.042571059           11 
 4604000    0.5075642   -3.9565116    2414.6459  0.043705581  0.042561024           19 
 4605000   0.51060864   -3.9511146    2406.6365  0.043551149  0.042550955           15 
 4606000   0.51076699   -3.9571818    2415.3904  0.043700073  0.042540905           10 
 4607000   0.52410244   -3.9548681    2415.8419  0.043698754  0.042530864           26 
 4608000    0.5203228   -3.9631045    2416.0147  0.043692395  0.042520804           36 
 4609000   0.51011496   -3.9524241    2423.1133  0.043811262  0.042510761           10 
 4610000   0.51203916   -3.9521265    2411.8449  0.043598064  0.042500675           20 
 4611000    0.5041424   -3.9633768    2418.8934  0.043715995  0.042490584           11 
 4612000    0.5105306   -3.9693079    2416.5821  0.043664752  0.042480515           18 
 4613000   0.51121019    -3.959334     2414.937  0.043625568  0.042470479           22 
 4614000   0.51541563   -3.9653029    2417.7713  0.043667304  0.042460459           17 
 4615000   0.51360574   -3.9598046    2422.6888  0.043746637  0.042450427           17 
 4616000   0.50704114   -3.9622446    2418.8739   0.04366829  0.042440414            8 
 4617000   0.51864979   -3.9621553    2414.3117  0.043576487  0.042430374           11 
 4618000   0.51163496   -3.9530068    2417.2127  0.043619401  0.042420347            9 
 4619000   0.50277795   -3.9652116    2414.6237  0.043563247   0.04241028           10 
 4620000   0.51576605   -3.9811789    2419.0457  0.043633581  0.042400218            6 
 4621000   0.52339668   -3.9651697    2413.6383  0.043526622  0.042390225           21 
 4622000   0.51568073    -3.977997    2421.0966  0.043651677  0.042380196           18 
 4623000    0.4978555   -3.9580845    2418.6262  0.043597704  0.042370162           11 
 4624000   0.51168185   -3.9722933    2421.3339  0.043637072   0.04236016            7 
 4625000   0.51447944   -3.9675324    2420.9183   0.04362015  0.042350142            7 
 4626000   0.51220857   -3.9562447    2419.1374  0.043578639  0.042340171           20 
 4627000   0.51570421    -3.966359    2416.9181  0.043529251  0.042330172           11 
 4628000   0.50820702   -3.9657822    2413.8145   0.04346396  0.042320203           14 
 4629000   0.50912547   -3.9628608    2417.4702  0.043520381  0.042310226           12 
 4630000   0.51258017   -3.9604859    2418.8473  0.043535769  0.042300205           18 
 4631000   0.51342289   -3.9631681    2419.7047  0.043541796  0.042290222            7 
 4632000   0.50823208   -3.9742185    2413.6742  0.043423903  0.042280226           19 
 4633000   0.52085753   -3.9765257    2421.9396  0.043563199  0.042270237           10 
 4634000   0.50782192   -3.9624584    2418.9794  0.043500564  0.042260268           15 
 4635000    0.5002557   -3.9694747    2421.2273  0.043531594  0.042250275           11 
 4636000   0.50922713   -3.9548032    2415.1806  0.043413514  0.042240273           15 
 4637000   0.50931655   -3.9753465    2424.7734  0.043576547  0.042230314           49 
 4638000   0.51922133     -3.96606    2420.2391  0.043485682  0.042220317           18 
 4639000   0.50902586   -3.9582218    2416.8725  0.043415832  0.042210345           44 
 4640000   0.50258495   -3.9570435     2419.904  0.043460919   0.04220038           28 
 4641000   0.51839586   -3.9592924    2421.6064  0.043482123  0.042190448           12 
 4642000   0.50961876   -3.9612285    2416.6874   0.04338445  0.042180492           27 
 4643000   0.51024232    -3.973446    2427.2047  0.043563872  0.042170547           18 
 4644000   0.51655151   -3.9496011     2422.581  0.043471522  0.042160588            4 
 4645000   0.49809306   -3.9805444    2415.1403  0.043328675  0.042150608           13 
 4646000   0.50710501   -3.9879514    2412.2212  0.043266989  0.042140581            8 
 4647000   0.50385419   -3.9641211    2409.6597  0.043211744   0.04213057            8 
 4648000   0.50766513   -3.9700444    2416.5012  0.043325108  0.042120563            7 
 4649000   0.51530999   -3.9673894    2418.6268   0.04335389  0.042110577           33 
 4650000   0.50950235   -3.9511593    2420.3566  0.043375566  0.042100594           26 
 4651000    0.5042406   -3.9822412    2412.3007    0.0432219  0.042090603           11 
 4652000   0.50536182   -3.9779479    2418.6832  0.043326942  0.042080618           10 
 4653000   0.50056016   -3.9854667    2415.4862  0.043260374  0.042070623           15 
 4654000   0.49535999   -3.9595273    2416.2658  0.043265037  0.042060625           31 
 4655000   0.50298024   -3.9661648    2405.8769  0.043069761  0.042050625           20 
 4656000   0.50784556   -3.9723291     2417.628  0.043270834   0.04204062           34 
 4657000   0.50830017   -3.9484013    2416.4512  0.043240484  0.042030648           13 
 4658000   0.51151982   -3.9775368    2414.2491  0.043191804   0.04202066           11 
 4659000   0.51245838    -3.976486    2418.4453  0.043257589  0.042010658           15 
 4660000    0.5134073   -3.9795113    2416.9595  0.043221736  0.042000703           18 
 4661000     0.503155   -3.9706171    2415.3758  0.043184149  0.041990706           17 
 4662000   0.50389296   -3.9718232    2417.1877  0.043207274   0.04198075           20 
 4663000   0.50434676   -3.9792305    2418.3106  0.043218075  0.041970735           26 
 4664000   0.50454301   -3.9876421    2416.9035  0.043183667  0.041960689           21 
 4665000   0.51102963   -3.9756238    2416.9432  0.043175119  0.041950662           26 
 4666000   0.50694525     -3.96923    2415.5593  0.043141151  0.041940694           23 
 4667000   0.50808281   -3.9879862    2416.2458  0.043144164  0.041930692           33 
 4668000    0.4982411   -3.9689888    2415.0498  0.043113572  0.041920678           12 
 4669000   0.50262562   -3.9579282    2419.7162  0.043187624  0.041910726            9 
 4670000   0.49507387   -3.9737442    2415.1694  0.043097241  0.041900746            6 
 4671000   0.51016257    -3.988408    2414.2398   0.04307143  0.041890752           11 
 4672000   0.50608165   -3.9891108    2414.6069  0.043068759  0.041880743           19 
 4673000   0.51127938   -3.9521345    2420.3401  0.043161781  0.041870743           11 
 4674000   0.50722035   -3.9776159    2412.5819  0.043014226  0.041860756           11 
 4675000   0.51192059   -3.9893651    2411.8326  0.042991668  0.041850715           10 
 4676000    0.5004195   -3.9736492    2417.3256  0.043080368  0.041840723           19 
 4677000   0.49088513   -3.9721759    2415.7009  0.043042208  0.041830762           10 
 4678000   0.50781906   -3.9817821    2413.4843  0.042993521  0.041820789           12 
 4679000   0.49276673    -3.991613    2411.3362  0.042946075  0.041810753            7 
 4680000   0.49748664   -3.9639194    2416.4397  0.043027773   0.04180076           24 
 4681000   0.51147613   -3.9825442    2408.1896  0.042871707   0.04179077           14 
 4682000   0.50020167     -3.97695    2414.5241  0.042975298   0.04178081           30 
 4683000   0.49487948   -3.9850004    2416.6306  0.043003606  0.041770838           14 
 4684000   0.50243422   -3.9756092    2415.8649  0.042980801  0.041760875           20 
 4685000   0.50018171   -3.9708687    2418.0296  0.043010132  0.041750903           17 
 4686000   0.50671199   -3.9774304    2418.8164  0.043014946  0.041740924           19 
 4687000   0.50248413   -3.9900685    2413.0875  0.042903909  0.041730962           15 
 4688000   0.49164641   -3.9871197    2412.5934  0.042885974  0.041720939           12 
 4689000   0.50390432   -3.9835005    2423.0349  0.043062396  0.041710984           13 
 4690000    0.4971651   -3.9715661    2415.9788  0.042927839  0.041701029           14 
 4691000   0.50363445   -3.9985526    2421.1962  0.043011372  0.041691056           27 
 4692000   0.50334026   -4.0006512    2421.4816  0.043007275   0.04168111           21 
 4693000   0.49433136   -3.9883698    2420.0326  0.042972381   0.04167118           23 
 4694000   0.49842863   -3.9825389    2417.1941  0.042912833  0.041661282           20 
 4695000   0.48800818   -3.9678559    2414.5169  0.042856175   0.04165137           16 
 4696000   0.50427704    -3.976402    2416.1424  0.042875895  0.041641436           15 
 4697000   0.50490593   -3.9688802    2420.0673  0.042936401  0.041631484           31 
 4698000   0.49623889   -3.9743255    2420.0619  0.042927166  0.041621577            9 
 4699000   0.50405284   -3.9733726    2423.9471  0.042986931    0.0416117           18 
 4700000   0.48989902   -3.9864023    2412.9935  0.042783574  0.041601778           25 
 4701000   0.50258633   -3.9871962    2413.9177  0.042790855  0.041591901           18 
 4702000    0.4994871   -3.9816685    2412.1641  0.042750676  0.041581974           15 
 4703000   0.49199623   -3.9825084    2417.2066  0.042830934   0.04157207           23 
 4704000   0.50466059   -3.9802187    2418.6908  0.042848122   0.04156216           27 
 4705000   0.50292878   -3.9902786    2417.2737  0.042813917   0.04155223            7 
 4706000   0.49884277   -3.9787826    2414.6371  0.042758129  0.041542293           11 
 4707000   0.50138185   -3.9807266    2413.2192  0.042723943  0.041532385           20 
 4708000   0.50221958   -3.9827589    2416.1986  0.042767606  0.041522474           20 
 4709000   0.49786331   -3.9829784    2421.5355  0.042852967  0.041512538           42 
 4710000   0.50431165   -3.9966711    2413.4061  0.042700037  0.041502597           41 
 4711000   0.50130218   -3.9928548    2411.2957  0.042653642  0.041492645           31 
 4712000   0.48324086   -4.0020377    2414.7335  0.042705389  0.041482665           20 
 4713000    0.4951442   -3.9898282    2411.5493  0.042640026  0.041472659           18 
 4714000   0.49093134   -3.9890833    2418.6477  0.042756464  0.041462703            9 
 4715000   0.49717961   -3.9830204    2416.1131    0.0427026  0.041452755           10 
 4716000   0.49977335   -3.9792003    2420.4483  0.042770149   0.04144282           13 
 4717000   0.50130106   -4.0006638     2414.847  0.042662127  0.041432905           17 
 4718000   0.49049358   -3.9811346    2419.7818  0.042740246  0.041422964           18 
 4719000   0.49243381   -3.9958297    2408.6476   0.04253457  0.041413043           34 
 4720000   0.49325881   -3.9903456    2418.7392  0.042703729  0.041403102           14 
 4721000   0.49040293   -3.9921073     2415.913  0.042644796  0.041393166           26 
 4722000   0.49658788   -3.9799056    2418.0481  0.042673444  0.041383217           28 
 4723000   0.48571811   -4.0146188    2413.5255  0.042584612  0.041373248           13 
 4724000   0.48705907   -3.9713044    2416.4504  0.042627194  0.041363296           12 
 4725000   0.49273864   -4.0061861    2414.7773  0.042588666  0.041353404           42 
 4726000   0.50100687   -4.0019428    2418.3101  0.042641946  0.041343458           11 
 4727000   0.49327984   -3.9889694    2413.5899  0.042549713  0.041333541            9 
 4728000   0.49757416   -3.9921475    2415.0799  0.042566975  0.041323667           19 
 4729000   0.49263644   -4.0024209    2415.8662   0.04257183  0.041313805           16 
 4730000   0.49079363   -4.0073554     2423.881  0.042704034  0.041303905           18 
 4731000   0.49647959   -3.9913021    2424.4194  0.042704491  0.041294035           11 
 4732000   0.49212699   -3.9993943    2413.5189  0.042503503  0.041284139           11 
 4733000   0.49080589   -3.9875118    2418.0068   0.04257354  0.041274209           12 
 4734000     0.493654   -3.9987536    2413.9636  0.042493375  0.041264317            6 
 4735000   0.48258592   -3.9914632    2416.5559  0.042530023  0.041254431           20 
 4736000    0.4990081    -3.991726    2419.7476  0.042577202  0.041244575            7 
 4737000   0.49498304   -4.0073408    2414.3812  0.042473808  0.041234688           12 
 4738000   0.49205299   -4.0138013     2413.443  0.042448343  0.041224797           14 
 4739000   0.49648946   -4.0026767     2416.155  0.042487075  0.041214862           10 
 4740000   0.50128359   -3.9977131    2415.5789  0.042467983  0.041204991            8 
 4741000     0.504073   -3.9969903    2419.8103  0.042533402  0.041195095           20 
 4742000   0.48753591   -4.0106981    2416.7111  0.042469969  0.041185192           68 
 4743000   0.49429108   -4.0203494     2415.942  0.042447502  0.041175292           10 
 4744000   0.49693206   -3.9826559    2416.7404  0.042452578  0.041165406            9 
 4745000   0.49031844   -3.9998709    2417.3052  0.042453552  0.041155533           23 
 4746000   0.49181579   -3.9810984    2409.5481  0.042308401  0.041145631           16 
 4747000    0.4936391   -3.9894312    2414.9366  0.042394084  0.041135754           17 
 4748000   0.50022149   -3.9909052    2414.2935  0.042373867  0.041125861           12 
 4749000   0.49447486   -4.0022107    2414.9173  0.042375891   0.04111597            9 
 4750000    0.4993332   -4.0003912    2420.4838  0.042464629  0.041106055           19 
 4751000   0.48075967   -4.0199985    2412.7563  0.042320149   0.04109615           48 
 4752000   0.48806677   -4.0142626    2411.5288  0.042289717  0.041086222           92 
 4753000   0.49959352   -4.0145189    2412.4149  0.042296355  0.041076336           25 
 4754000   0.48895001   -4.0044264    2418.8574  0.042400388   0.04106644           41 
 4755000   0.49280299   -4.0072216     2417.113  0.042360901  0.041056592           31 
 4756000   0.48961439   -4.0381697    2413.7431  0.042292948  0.041046698           26 
 4757000   0.49524847   -4.0121849    2415.1435  0.042308589    0.0410368           16 
 4758000   0.48290624   -3.9922917    2417.9605  0.042349035  0.041026894           15 
 4759000   0.47897477   -4.0067918    2417.4624  0.042331415  0.041017014           19 
 4760000   0.48952079   -4.0095581     2413.485  0.042252888  0.041007156           12 
 4761000   0.49822969   -4.0066683    2416.9107  0.042303975  0.040997294           11 
 4762000   0.48579071   -4.0120485    2413.4959  0.042235334  0.040987447            9 
 4763000   0.48655133   -4.0295157    2416.9231  0.042286428  0.040977588           13 
 4764000   0.48427949   -3.9840976    2416.0897  0.042262974  0.040967739           12 
 4765000   0.48118964   -3.9869484    2421.4883  0.042348518  0.040957925           14 
 4766000   0.48848922   -4.0023775    2420.4212  0.042320976  0.040948115           16 
 4767000   0.47348549   -4.0128312    2415.9545  0.042234013  0.040938267           19 
 4768000   0.48453836    -4.013044    2419.0153  0.042278651  0.040928411           12 
 4769000   0.49754315   -4.0063179    2414.9235  0.042198285  0.040918575           14 
 4770000   0.48483562   -4.0039572    2415.6168  0.042201551  0.040908701           13 
 4771000    0.4910306   -4.0271551    2412.8989  0.042145233   0.04089884           16 
 4772000   0.48872742   -4.0308997     2414.999  0.042173076  0.040888989           15 
 4773000   0.47953029   -4.0094706    2412.8358  0.042126473  0.040879105           24 
 4774000   0.48447882   -4.0128286    2411.4136  0.042092822   0.04086924           24 
 4775000   0.49369419   -3.9857523    2410.3851  0.042066057  0.040859381           29 
 4776000   0.48169011   -4.0070632    2414.1378  0.042122729  0.040849516           33 
 4777000    0.4804848   -4.0179372    2418.6725  0.042193017  0.040839694           45 
 4778000   0.48812741   -4.0135122     2414.566  0.042112565  0.040829846           26 
 4779000   0.48311732   -3.9946526    2413.0462  0.042077251  0.040819975           21 
 4780000   0.48675181   -4.0047774    2415.1983  0.042105967  0.040810144           16 
 4781000   0.48263146   -4.0043196    2416.4498  0.042118975  0.040800338           29 
 4782000   0.48617267   -4.0054177    2411.1036  0.042017002  0.040790512           34 
 4783000   0.49670275   -4.0231614    2414.2747  0.042063466  0.040780666           51 
 4784000   0.49840642   -3.9987307    2415.9963  0.042084663  0.040770842           23 
 4785000   0.48985837   -4.0203302    2415.4044  0.042065559  0.040760999           35 
 4786000   0.48052644   -4.0139178    2417.6033  0.042095056   0.04075119           20 
 4787000   0.48251619   -4.0140045    2417.2876  0.042080768  0.040741371           24 
 4788000   0.49499087   -4.0057539    2417.2742  0.042071745  0.040731506           32 
 4789000   0.48063526   -4.0036286    2411.7471  0.041966784  0.040721661           35 
 4790000   0.47867398   -3.9917403    2416.3731  0.042038502  0.040711844           54 
 4791000   0.48954159   -4.0048149    2418.7618  0.042071275  0.040702046           10 
 4792000   0.48321972   -4.0089263    2410.4783  0.041918446  0.040692265           13 
 4793000    0.4927088   -4.0096186    2416.8636  0.042020718  0.040682468           12 
 4794000   0.49317512   -4.0205271    2413.0096  0.041944958  0.040672659           21 
 4795000   0.48283187   -4.0134393    2418.0351  0.042023551  0.040662797           19 
 4796000   0.47224543   -4.0029841    2411.2815  0.041897441  0.040652926           40 
 4797000   0.47555701   -4.0066618     2415.408  0.041960392   0.04064309           46 
 4798000   0.48156315   -4.0182303    2410.9001  0.041873351  0.040633244           47 
 4799000   0.47818899   -4.0081383    2416.7448  0.041966119  0.040623405           20 
 4800000   0.48184959    -4.005143    2410.1027  0.041842061  0.040613581           49 
 4801000   0.48188959   -4.0144322    2409.7546  0.041827303  0.040603716           15 
 4802000   0.48791968   -4.0201674    2417.7186    0.0419568  0.040593869           27 
 4803000   0.47554445    -4.019976    2411.5861  0.041841662  0.040584059           18 
 4804000   0.48681188   -4.0196587    2409.3978  0.041794994  0.040574197            9 
 4805000   0.49628231   -3.9998992    2415.0987  0.041885166  0.040564362           42 
 4806000    0.4990592   -4.0325077    2411.4935   0.04181394  0.040554532           14 
 4807000   0.48228254   -4.0222418    2414.5019  0.041857393  0.040544676           13 
 4808000   0.48056632   -4.0108466     2415.839  0.041871863  0.040534854           20 
 4809000   0.48342881   -4.0240568    2416.9897  0.041883097  0.040525013           45 
 4810000   0.49190074    -4.047379    2408.5676  0.041728475   0.04051518           43 
 4811000   0.48071637   -4.0041157    2409.8752  0.041742451  0.040505315           23 
 4812000   0.49377406   -4.0044297     2416.252  0.041844209  0.040495461           26 
 4813000   0.48291527   -4.0098721    2411.9177  0.041760471  0.040485634           18 
 4814000   0.48835844   -4.0229848    2413.8612  0.041785438  0.040475797           27 
 4815000   0.48263195   -4.0178534     2415.305  0.041801748  0.040465983           11 
 4816000   0.48634573   -4.0295166    2410.8669  0.041716274  0.040456146           16 
 4817000    0.4690971   -4.0100735    2414.1452  0.041764327  0.040446289           17 
 4818000   0.49407473   -4.0216476    2414.4383  0.041760729  0.040436476           25 
 4819000   0.47852684   -4.0270425    2417.4253  0.041803716  0.040426653           34 
 4820000   0.47989849   -4.0357172     2409.222  0.041653216  0.040416796           23 
 4821000   0.47520294   -4.0270908       2418.8  0.041810136   0.04040695           20 
 4822000   0.48400066   -4.0252435    2411.9118  0.041682425  0.040397068           32 
 4823000   0.47019466   -4.0290657    2410.1017  0.041642507  0.040387163           25 
 4824000   0.47584022   -4.0305697    2411.4598  0.041657335  0.040377253           13 
 4825000   0.48065075   -4.0264104    2411.5626  0.041650477  0.040367368           20 
 4826000    0.4868221   -4.0223483    2408.8864  0.041595634  0.040357477           32 
 4827000   0.47932423   -4.0168299    2410.7699  0.041619535  0.040347645           30 
 4828000    0.4783287   -4.0271473    2417.1884    0.0417217  0.040337827           20 
 4829000   0.47604071   -4.0231398     2414.186  0.041661248  0.040327982           25 
 4830000   0.47590949    -4.017559     2413.947    0.0416485  0.040318151           52 
 4831000   0.48125489   -4.0176957    2412.4203  0.041613543  0.040308283           34 
 4832000   0.48210044   -4.0303726    2413.5191  0.041623881  0.040298502           30 
 4833000    0.4891646   -4.0387131    2413.2182  0.041610081  0.040288681            5 
 4834000   0.48207024    -4.001164    2411.1614  0.041566015    0.0402789            8 
 4835000   0.49137442   -4.0213208    2415.8442  0.041638128  0.040269113           17 
 4836000   0.46668017   -4.0292126     2412.253  0.041567635   0.04025927           14 
 4837000   0.48566869   -4.0227756    2406.9018   0.04146685  0.040249395           43 
 4838000   0.48208161    -4.025449    2408.3425  0.041483093  0.040239561           37 
 4839000   0.48321607   -4.0367936      2407.19  0.041454673  0.040229696           36 
 4840000   0.47592748    -4.040896     2408.849  0.041474673  0.040219829           65 
 4841000   0.46611577   -4.0221481    2406.1752  0.041420078  0.040209981           65 
 4842000   0.47583568   -4.0389643    2411.7594  0.041507631  0.040200125           66 
 4843000   0.47789793   -4.0296821    2414.0167  0.041537902  0.040190261           19 
 4844000   0.47063978   -4.0422657    2413.2192  0.041515607  0.040180427           20 
 4845000   0.47486178   -4.0356908    2412.5199   0.04149501  0.040170601           15 
 4846000   0.46509818   -4.0309466    2412.2586  0.041481954  0.040160777           17 
 4847000   0.48050737   -4.0183884    2404.1244  0.041333547  0.040150955           12 
 4848000   0.47491217   -4.0246183    2410.1682  0.041428909  0.040141108           18 
 4849000   0.47902509    -4.009352     2407.739  0.041378617  0.040131263           24 
 4850000   0.48172865   -4.0490241    2408.2057  0.041378104  0.040121404           24 
 4851000   0.46611923   -4.0201959    2413.4705  0.041460017  0.040111557           12 
 4852000   0.47780631   -4.0379012    2410.2157   0.04139557   0.04010174           21 
 4853000   0.47174683    -4.038159    2411.5896  0.041410632   0.04009189           20 
 4854000   0.46848421   -4.0313167    2407.3343  0.041329046  0.040082027           23 
 4855000   0.46918712    -4.029506    2409.9512  0.041365452  0.040072201           16 
 4856000   0.47907925   -4.0360791     2406.993  0.041306167  0.040062384           14 
 4857000   0.46574393   -4.0438156    2407.5074   0.04130649  0.040052524           45 
 4858000   0.47640325   -4.0168906     2414.755  0.041422311  0.040042657           27 
 4859000   0.47624884   -4.0216519    2412.3375  0.041372324  0.040032829           33 
 4860000   0.47139307   -4.0443141    2403.7545   0.04121664   0.04002298           35 
 4861000   0.46827918   -4.0214152    2406.6237   0.04125735  0.040013099           15 
 4862000   0.47130758   -4.0468581    2410.7301  0.041319247  0.040003263           38 
 4863000   0.46864797    -4.023618    2406.5117  0.041238462  0.039993404           18 
 4864000   0.47462608   -4.0472235    2409.8117  0.041286522  0.039983557           22 
 4865000   0.47465118   -4.0340932    2407.3241  0.041235426  0.039973712           16 
 4866000   0.47400019   -4.0249179    2408.7185  0.041250831  0.039963882            7 
 4867000   0.47373954   -4.0219674    2407.5834   0.04122292  0.039954023           23 
 4868000   0.47176028   -4.0327683    2408.3813   0.04122811  0.039944164           35 
 4869000    0.4692709   -4.0354948    2400.6088  0.041086617  0.039934279           13 
 4870000   0.47444133   -4.0390169    2408.4101  0.041211672  0.039924405           20 
 4871000   0.47471659   -4.0453284    2413.0975  0.041283403  0.039914543           16 
 4872000   0.46845507   -4.0229115    2403.9607  0.041118649  0.039904702           22 
 4873000   0.47026246   -4.0281242    2406.9132  0.041160702  0.039894843           11 
 4874000   0.46689914   -4.0448887     2411.803  0.041235861  0.039884995           37 
 4875000   0.47071316   -4.0596263    2401.1634  0.041045529   0.03987512           46 
 4876000   0.46452973   -4.0303714    2406.8506  0.041134307  0.039865229           11 
 4877000   0.47053678   -4.0445624    2409.0564  0.041163564  0.039855379           16 
 4878000   0.46480515   -4.0395708    2408.5685  0.041146791  0.039845537           14 
 4879000   0.47679623   -4.0425265    2403.9879   0.04106012  0.039835699           17 
 4880000   0.46911227   -4.0497625    2407.6031  0.041113441  0.039825843           24 
 4881000   0.46154681   -4.0388763    2405.8947  0.041075851  0.039816002           44 
 4882000   0.47703398    -4.052348    2401.0678  0.040985044  0.039806159           31 
 4883000   0.47086249   -4.0476433     2407.432  0.041085263  0.039796284           20 
 4884000   0.47291532   -4.0373476    2405.0619   0.04103641   0.03978641           32 
 4885000   0.47593991   -4.0467856    2406.8914  0.041059219  0.039776523           34 
 4886000   0.45733662   -4.0470634    2402.4782  0.040975546  0.039766648           55 
 4887000   0.47188208    -4.034197    2403.2368  0.040980098  0.039756783           22 
 4888000   0.46612093     -4.04118    2409.5553  0.041079435  0.039746972           32 
 4889000   0.46489698   -4.0582541     2405.977  0.041010039  0.039737153           19 
 4890000   0.46494471   -4.0441138    2406.7038  0.041014039  0.039727331           20 
 4891000   0.46046623   -4.0343785    2412.9378  0.041111868  0.039717518           26 
 4892000   0.46789677   -4.0543985    2409.9067  0.041051831  0.039707714           16 
 4893000   0.46193559   -4.0422777     2409.585  0.041037963   0.03969789           14 
 4894000   0.46367329      -4.0542    2408.3037  0.041007759  0.039688076           21 
 4895000   0.47273298    -4.055139    2414.5528  0.041105767  0.039678272           22 
 4896000   0.46759185   -4.0377631    2407.5437  0.040978073  0.039668476           53 
 4897000   0.46915791   -4.0405011    2409.9032  0.041009857  0.039658691           19 
 4898000   0.46772691   -4.0623717    2410.2453  0.041007304  0.039648896           28 
 4899000   0.46358183   -4.0332982    2408.5902   0.04097078   0.03963909           21 
 4900000    0.4686986   -4.0342103    2404.7454   0.04089703  0.039629356           25 
 4901000   0.46548312   -4.0338248    2410.5192  0.040986859  0.039619625           18 
 4902000   0.46868749   -4.0281408    2406.6843  0.040913305  0.039609933           26 
 4903000   0.47473951   -4.0398913    2407.4859  0.040918586  0.039600206           24 
 4904000   0.46683573   -4.0448376    2403.6388  0.040844867  0.039590452           14 
 4905000   0.46154794   -4.0384648    2412.7482  0.040991305  0.039580702           24 
 4906000   0.45952851   -4.0495084    2404.9967  0.040851282  0.039570954           18 
 4907000   0.46154599    -4.038418    2403.9462  0.040825117  0.039561182           12 
 4908000   0.46420592   -4.0255653     2408.032  0.040886173  0.039551466           25 
 4909000   0.46565438   -4.0400643    2406.3602  0.040849463  0.039541735           31 
 4910000   0.46123018   -4.0536929    2406.9219  0.040850678  0.039531991           37 
 4911000   0.46500785   -4.0460981    2408.3806  0.040867112  0.039522257           56 
 4912000   0.46924823   -4.0449789    2413.5253  0.040946073  0.039512499           44 
 4913000   0.46975721   -4.0507724    2408.4496  0.040851645  0.039502788           45 
 4914000   0.46859263   -4.0496462    2403.3474  0.040756807  0.039493055           46 
 4915000   0.46063374    -4.047377    2403.7502  0.040755345  0.039483301           68 
 4916000   0.45928766   -4.0569221    2405.2105  0.040771808  0.039473559           93 
 4917000   0.46083293   -4.0681488    2404.3016  0.040748113  0.039463791           85 
 4918000   0.45790059   -4.0597249    2410.4623  0.040844217  0.039454035          103 
 4919000   0.47006962   -4.0747672     2408.133  0.040796453  0.039444264           78 
 4920000   0.46948194   -4.0497479    2406.7699  0.040765073  0.039434531           55 
 4921000    0.4692516   -4.0564135    2412.6986  0.040857186  0.039424855           60 
 4922000   0.46843769    -4.069618    2408.3018  0.040774444   0.03941515           41 
 4923000   0.47210639   -4.0498079    2407.5316  0.040753124   0.03940545           18 
 4924000   0.45722251   -4.0456138    2408.0424  0.040753493  0.039395746           69 
 4925000   0.46665763   -4.0507671    2407.9739  0.040744059  0.039386063           26 
 4926000   0.47079058   -4.0652368    2412.6645  0.040815139   0.03937637           27 
 4927000   0.46502972     -4.07243    2407.6858  0.040722647  0.039366631           47 
 4928000    0.4663475   -4.0545866    2408.7466  0.040732323   0.03935693           39 
 4929000    0.4639176   -4.0608828     2402.708  0.040621965  0.039347199           42 
 4930000   0.47465203    -4.066477    2408.1547  0.040705793  0.039337471           47 
 4931000   0.46931901    -4.053045    2409.5606  0.040721298  0.039327772           27 
 4932000   0.45826305   -4.0470178    2409.6708  0.040714903  0.039318086           25 
 4933000   0.45912556   -4.0548597    2406.6824  0.040656165   0.03930842           15 
 4934000   0.46478106   -4.0746439    2414.7383  0.040783988  0.039298702           15 
 4935000   0.45783978   -4.0551195    2412.5532  0.040738825  0.039288997           15 
 4936000   0.45259346   -4.0493032    2409.7001  0.040682403    0.0392793           31 
 4937000    0.4676494   -4.0623172     2411.062  0.040697151  0.039269604           14 
 4938000   0.46718262   -4.0524362    2404.5773  0.040579473  0.039259909           13 
 4939000   0.46768093   -4.0478083    2406.7964  0.040608699  0.039250226           14 
 4940000   0.47369225   -4.0570428    2411.2628  0.040675823  0.039240539           15 
 4941000   0.46186463   -4.0524695    2413.7454  0.040709462  0.039230855           23 
 4942000   0.45882754    -4.050289    2406.3852  0.040577114  0.039221167           19 
 4943000   0.46920811   -4.0566954    2408.8015  0.040609642  0.039211473           31 
 4944000    0.4533912   -4.0771331    2409.9579  0.040620919  0.039201767           34 
 4945000    0.4629448   -4.0586339    2407.5803  0.040572637  0.039192057            9 
 4946000   0.44589245   -4.0690164    2406.5713  0.040547435  0.039182354           17 
 4947000   0.45452126   -4.0662003    2404.8486  0.040510218  0.039172664           17 
 4948000   0.46637928   -4.0565657     2407.629  0.040548858  0.039162977           18 
 4949000   0.47449552    -4.072217    2407.5053  0.040538582  0.039153285           63 
 4950000   0.44604534   -4.0596167    2407.4634  0.040529687  0.039143608           38 
 4951000   0.46203807   -4.0586503    2405.9341   0.04049576  0.039133968           23 
 4952000   0.45985124   -4.0439926    2402.4178   0.04042841  0.039124313           52 
 4953000   0.45668093   -4.0493247    2408.2113  0.040517721  0.039114652           20 
 4954000   0.46939649   -4.0636143    2409.4808  0.040530897  0.039105005           31 
 4955000   0.45058985   -4.0493355    2408.6997  0.040509581  0.039095373           41 
 4956000   0.45588444   -4.0440388    2408.8272  0.040503552   0.03908576           16 
 4957000   0.46133649   -4.0796555    2412.3613  0.040554793   0.03907608           26 
 4958000   0.46442599   -4.0553033    2405.6054  0.040433061  0.039066399           21 
 4959000    0.4621444   -4.0650399     2405.333  0.040420331  0.039056731           21 
 4960000   0.46211395   -4.0629464    2406.6021  0.040433502  0.039047031           43 
 4961000   0.46507345   -4.0672361    2409.7333   0.04047795  0.039037343           35 
 4962000   0.45248986   -4.0620067    2408.1696  0.040443531  0.039027673           43 
 4963000   0.45677067   -4.0661342    2408.5933  0.040442495  0.039017997           23 
 4964000   0.46553419   -4.0498427    2405.0492  0.040374852  0.039008334           15 
 4965000   0.44441052   -4.0598114    2402.1914  0.040318755   0.03899865           33 
 4966000   0.45269209   -4.0761898    2411.3371  0.040464108  0.038988959           43 
 4967000   0.46280699   -4.0742788    2407.6034  0.040393319   0.03897927           37 
 4968000   0.45343844   -4.0801473    2407.2311  0.040378944  0.038969609           22 
 4969000   0.46328438   -4.0652788    2404.2752  0.040321245  0.038959923           62 
 4970000   0.45572441   -4.0700352    2406.2847  0.040346826   0.03895024           43 
 4971000   0.45544408   -4.0769746    2401.9761  0.040266481  0.038940603           30 
 4972000   0.45172762   -4.0644955    2407.4541  0.040350196  0.038930958           20 
 4973000   0.45332926   -4.0663404    2407.8396  0.040348543  0.038921319           50 
 4974000   0.45135041    -4.057708    2406.6487  0.040320478  0.038911688           33 
 4975000   0.45779873   -4.0815177    2415.2852  0.040457039  0.038902092           55 
 4976000    0.4497746   -4.0680274     2408.225   0.04033067  0.038892457          105 
 4977000     0.458817   -4.0664992    2405.4556  0.040276197   0.03888282           64 
 4978000   0.46981238   -4.0872654    2403.3246  0.040232432  0.038873167           88 
 4979000   0.45059465   -4.0925728    2408.2245  0.040306361  0.038863476           47 
 4980000   0.44960167   -4.0714192    2406.1102  0.040262889   0.03885385           46 
 4981000   0.45043177   -4.0687444    2409.9646   0.04031929  0.038844238           56 
 4982000   0.45229259   -4.0765116    2406.8865   0.04025971  0.038834617           49 
 4983000   0.45206776   -4.0601347    2406.2506  0.040240995  0.038825015           49 
 4984000     0.459192   -4.0539318    2405.5102  0.040220543  0.038815411           62 
 4985000   0.46568037   -4.0726439    2404.3784  0.040193554  0.038805819           82 
 4986000   0.44923311   -4.0670079     2407.663   0.04024039  0.038796203           54 
 4987000    0.4568644   -4.0785041    2404.5293  0.040179956  0.038786597           42 
 4988000   0.45931954   -4.0806965    2407.9166  0.040228491   0.03877698           24 
 4989000   0.45703455   -4.0819575    2410.8218  0.040268956  0.038767372           34 
 4990000   0.44920789   -4.0851316    2406.2426  0.040184412  0.038757785           21 
 4991000   0.45292501   -4.0924082    2405.7501  0.040168138  0.038748144           13 
 4992000   0.45180537   -4.0880581    2402.3455  0.040103258  0.038738499           16 
 4993000   0.44862995    -4.086978    2401.6916  0.040084311  0.038728855           42 
 4994000   0.45565051   -4.0846662    2405.1521   0.04013403  0.038719216           70 
 4995000   0.44977184   -4.0666934    2404.3269  0.040112227  0.038709588           78 
 4996000   0.44377181    -4.090784    2405.9978  0.040132069  0.038699949           21 
 4997000   0.45253378    -4.068224    2410.5014  0.040199143  0.038690346           71 
 4998000   0.45302349   -4.0962639    2408.3447   0.04015514  0.038680748           49 
 4999000   0.44431211   -4.0842269    2400.9276  0.040023465  0.038671134           68 
 5000000   0.45153043   -4.0774235    2405.7887  0.040096478  0.038661516           60 
 5001000   0.45991709   -4.0680548    2404.9313  0.040074173  0.038651924           51 
 5002000   0.45130699   -4.0755409    2402.6497   0.04002815  0.038642331           42 
 5003000    0.4490001    -4.079546    2402.0414  0.040010018  0.038632718           70 
 5004000   0.45017758   -4.0803213    2404.2888  0.040039448  0.038623131           80 
 5005000   0.44464468   -4.0708507    2406.5524  0.040069138  0.038613525           67 
 5006000   0.45077215   -4.0826042     2412.286  0.040156579   0.03860395          114 
 5007000   0.45527754   -4.0879609     2408.211  0.040080738  0.038594355           59 
 5008000   0.44630842   -4.0787556    2411.7425  0.040131498  0.038584761           46 
 5009000   0.45350644   -4.0871844    2408.3682  0.040067348  0.038575195           25 
 5010000   0.45226752   -4.0829637    2405.9611  0.040019313  0.038565593           42 
 5011000   0.44290695   -4.0821629    2408.7972  0.040058492  0.038556008           85 
 5012000   0.44734579   -4.0738525    2407.9609  0.040036595  0.038546421          138 
Loop time of 12439.6 on 48 procs for 5000000 steps with 4000 atoms

Performance: 69455.729 tau/day, 401.943 timesteps/s
99.4% CPU use with 48 MPI tasks x no OpenMP threads

MPI task timing breakdown:
Section |  min time  |  avg time  |  max time  |%varavg| %total
---------------------------------------------------------------
Pair    | 810.11     | 886.54     | 959.57     | 134.5 |  7.13
Neigh   | 82.207     | 85.798     | 89.526     |  23.0 |  0.69
Comm    | 779.5      | 852.96     | 935.91     | 130.2 |  6.86
Output  | 13.806     | 13.811     | 13.912     |   0.4 |  0.11
Modify  | 10457      | 10487      | 10530      |  18.2 | 84.30
Other   |            | 113.8      |            |       |  0.91

Nlocal:        83.3333 ave          91 max          75 min
Histogram: 1 3 3 7 6 10 11 2 2 3
Nghost:        2220.54 ave        2256 max        2195 min
Histogram: 3 4 6 10 7 12 2 2 1 1
Neighs:        14772.8 ave       16725 max       13108 min
Histogram: 1 2 6 11 10 7 6 2 1 2
FullNghs:      29545.4 ave       32280 max       26650 min
Histogram: 1 2 6 6 8 9 7 3 3 3

Total # of neighbors = 1418178
Ave neighs/atom = 354.54450
Neighbor list builds = 270870
Dangerous builds = 2

#clear
#
#next RN
#
#jump SELF
Total wall time: 3:27:22
